<?xml version="1.0"?>
<VTKFile type="UnstructuredGrid" version="2.2">
  <UnstructuredGrid>
    <Piece NumberOfPoints="7058" NumberOfCells="13804">
      <Points>
        <DataArray type="Float64" NumberOfComponents="3" format="ascii">0.9875925925925669 -2.02170082734974e-19 0 1 1.958631728467136e-19 0 0.9909330519583091 0.009092035120655316 0 1 0.01249999999997642 0 0.9812360878335411 0.00938480402342271 0 0.9880515345541606 0.01848938527275309 0 0.9751851851851338 -2.188279610994663e-19 0 1 0.02499999999995287 0 0.9689358255354584 0.01015806840449193 0 0.9747007252876961 0.01778140908164611 0 0.9898047665715467 0.03135447436118231 0 0.9627777777777006 -2.352419231162122e-19 0 0.9786036581237505 0.02764756447729527 0 1 0.03749999999992728 0 0.9559751956350335 0.01092001010571287 0 0.9627777777776919 0.01740999414888824 0 0.9674367641477275 0.02525660513613909 0 0.9905461975052235 0.04376583944109863 0 1 0.04999999999989965 0 0.9808337364603432 0.0395283297232995 0 0.9503703703702241 -1.845834365259773e-19 0 0.9702346027593479 0.03619517821620231 0 0.9898969123290963 0.0562471489765464 0 1 0.06249999999987325 0 0.9442929485423837 0.008568425923023619 0 0.9557746443352785 0.02280619297906341 0 0.9585202131458015 0.03407231739277095 0 0.9826664106061108 0.04999425894105668 0 0.9894765352394789 0.0684380139705313 0 1 0.07499999999985282 0 0.9731467831960799 0.04821266290296181 0 0.9379629629627909 -2.767051618027937e-19 0 0.9446345804604214 0.0190773717571234 0 0.9616802182419638 0.04595372140219306 0 0.9782823802273823 0.06030217706090735 0 0.989451985183032 0.08050744408867089 0 0.9325216332834494 0.01284474775228183 0 0.9465170804786113 0.03069153537648504 0 0.9496934608109859 0.04256781341738092 0 0.9795050742281743 0.0733781757535186 0 1 0.08749999999983374 0 0.9652162332542843 0.05720512920597364 0 0.925555555555358 -2.484861308404331e-19 0 0.934517063448989 0.02719558348064075 0 0.9530938154311719 0.05405921440616953 0 0.9685460058097898 0.06909536582968333 0 0.9872836938884901 0.09382659378260869 0 0.9805226442312182 0.08514170609006394 0 1 0.09999999999981468 0 1 0.1124999999997956 0 0.9889937376606911 0.107078473770018 0 0.9184213778043754 0.01153481073425222 0 0.9223932260857072 0.02381901809360759 0 0.9376425683520707 0.0390984544005625 0 0.9410785227986792 0.05075649555879435 0 0.9720472864038699 0.08087326889897073 0 0.9894886508945546 0.1189207605968316 0 1 0.1249999999997738 0 0.95654819661932 0.06560763363392676 0 0.9131481481478815 -2.182287677119795e-19 0 0.9256394325427121 0.0359192219727571 0 0.9445312594534673 0.06233595697900491 0 0.9599378992065448 0.07751709924944308 0 0.9751463397801406 0.09296133503299654 0 0.9776850130671993 0.1037319287169659 0 0.9810986690084554 0.1134226928074858 0 0.9892291597290137 0.1312762650808165 0 1 0.13749999999974 0 1 0.1499999999997036 0 0.9891738418632861 0.1437446394041732 0 0.9055302637531844 0.01013025364358556 0 0.9103058984467448 0.02099397219756099 0 0.9137203866696025 0.03267443668551232 0 0.9290557275790026 0.04757911449155537 0 0.9325145141084108 0.05916486362217102 0 0.9631498160570074 0.08951087246383715 0 0.979397463887002 0.1233896481180298 0 0.9892504408890122 0.1561987623495273 0 1 0.1624999999996672 0 0.9480237354019693 0.07416040309348572 0 0.9007407407404483 -2.032769626913304e-19 0 0.916813167556948 0.04450612865745525 0 0.9360190899573585 0.07083238510343605 0 0.951162685806937 0.08608459361904337 0 0.9662588571852964 0.1010948051681662 0 0.9699284795328292 0.1139926528355835 0 0.9766014071866471 0.1359404142796009 0 0.9782682008692029 0.1499161975483909 0 0.9897133697830596 0.1685239443939478 0 0.8933901096606935 0.009436185767582537 0 0.8983317591691568 0.01883746530513343 0 0.901748855600996 0.02934017175846439 0 0.90478692720222 0.04131532278892424 0 0.9204682368485956 0.0561906632175497 0 0.9239884312344803 0.06761082729229748 0 0.954473351614607 0.09751690898054753 0 0.9697733599214357 0.1253958683314178 0 0.9801423743827568 0.1626564265440821 0 1 0.1749999999996307 0 0.9391166733407588 0.08287876936488041 0 0.8883333333330151 -2.242051244842748e-19 0 0.9075625081884329 0.05302522005073664 0 0.9271212373438832 0.07951631679725187 0 0.9424154799986049 0.09458456432262144 0 0.9578887843158184 0.1088935957016878 0 0.9604213594695431 0.1209516685858275 0 0.9637488134955781 0.1332447003665467 0 0.9668432489893312 0.1450780233889703 0 0.9694748409806533 0.1575501707360291 0 0.9887236713352244 0.1815698909046032 0 0.9815957922829861 0.1736451256453342 0 1 0.1874999999995943 0 1 0.1999999999995579 0 0.9917067147210872 0.1933253362578645 0 0.8820492215323276 0.01040767815824815 0 0.8881822481868982 0.01734674085947167 0 0.8900261939104377 0.0265654930978181 0 0.8928815704064417 0.03804595475483823 0 0.8959456775599458 0.05005331225609171 0 0.9116768085669851 0.06446485117555396 0 0.9151380011147323 0.07617171312700985 0 0.9457678288718873 0.1059278755140931 0 0.9723457763764339 0.1703066898120533 0 0.9898709704448465 0.204079847391841 0 1 0.2124999999995214 0 0.9303062095295666 0.09130389552697696 0 0.8759259259255822 -2.484220710271713e-19 0 0.8992435267085451 0.06163480385399678 0 0.9182124172746599 0.08822117360001573 0 0.9336464510150874 0.1029160467118642 0 0.9491352145597054 0.1175148515779027 0 0.9521480277453471 0.1295003702523354 0 0.9551291464185282 0.1416041482711985 0 0.958140489840953 0.1535170980812285 0 0.9613278971078559 0.1658553447910809 0 0.9759598231186992 0.1812555885386402 0 0.9799389318253645 0.1934769429937261 0 0.9870483146808405 0.2170972481048149 0 1 0.224999999999485 0 1 0.2374999999994486 0 1 0.2499999999994121 0 0.9905152135261782 0.2438876644996173 0 0.9889921728723443 0.231193340274281 0 0.8702405722340275 0.011531837055926 0 0.877844606903756 0.02226596653373714 0 0.8809179770894182 0.03471233857925927 0 0.8840098104483457 0.04675260891877208 0 0.8870381422747038 0.05872508367786609 0 0.9028083493450056 0.07325309054724662 0 0.9062819421074078 0.08493945212886217 0 0.9371640182278904 0.1144061874457897 0 0.9643517784558135 0.1782320640690351 0 0.97968197020837 0.2062253615932715 0 0.9918555620461242 0.2542926600006307 0 1 0.2624999999993757 0 0.9214361268875796 0.09985788520371684 0 0.8635185185181055 -2.338042296831251e-19 0 0.8904296743161983 0.07028726541648578 0 0.9092205619179821 0.09684906309385552 0 0.9247890425749955 0.1114158722579871 0 0.9401313853986293 0.1261505528583476 0 0.9432381347705594 0.1382318400904531 0 0.946345545599082 0.1503147613727666 0 0.9494520603245461 0.1623987734964817 0 0.9525600097629819 0.1744790571443514 0 0.9676037197905778 0.1899360837272812 0 0.9702491219827722 0.202146290668936 0 0.9737989535728305 0.2144719318057308 0 0.977027300584425 0.2263178053566475 0 0.9796932749673896 0.2392893339806144 0 0.982471167257536 0.2517369549139117 0 0.9863511236944367 0.2624426993898966 0 0.8579113845969052 0.01085327188741293 0 0.864397503238819 0.02106207911396456 0 0.8688199017079503 0.03182307588836912 0 0.8720376002424003 0.04341538080907139 0 0.8751310851660306 0.05545277394361064 0 0.8781492505836359 0.06741321202909976 0 0.8937591411734558 0.08202745616883848 0 0.897336349157667 0.09367221886646199 0 0.9281811679385443 0.1230396117987398 0 0.9556153663415872 0.1866346818405648 0 0.9907071581400867 0.2714043257512321 0 1 0.2749999999993392 0 0.912621679267498 0.1084503313419016 0 0.8511111111106725 -2.500522786987112e-19 0 0.8814594790255256 0.07910042074120426 0 0.9003522197583889 0.1055977157049096 0 0.9157959407965486 0.1199765538843992 0 0.9312230053175014 0.1348821342870912 0 0.934328489360479 0.1469639338093412 0 0.9374345574808611 0.1590472428606468 0 0.9405406528122319 0.1711305601635155 0 0.9436472643011626 0.1832130180421512 0 0.9587763284089559 0.1986505642636206 0 0.9618824497585379 0.2107367457293892 0 0.9649471303050299 0.2228598147671519 0 0.9679751608141873 0.2347761396250608 0 0.9709608845551633 0.2472311371589359 0 0.9742265507593374 0.2594147824151704 0 0.9789870721579427 0.2724087443736974 0 0.9890874855468705 0.2821801686984516 0 1 0.2874999999993028 0 0.8445253332488828 0.01160751185067265 0 0.8529631393760324 0.01931322794384118 0 0.856898224356486 0.02832287142064789 0 0.8600669242578837 0.04007853497736866 0 0.8631601831611141 0.05211347914490795 0 0.8662414298949712 0.06413871242209745 0 0.8692582941563404 0.07605838033075381 0 0.8847748544409819 0.0908864166290575 0 0.8881402656565538 0.1024850490228694 0 0.9192104845974052 0.1315340673771106 0 0.946753097330032 0.1952973037969496 0 0.992947241122013 0.293749999999285 0 1 0.2999999999992664 0 0.9033630529511983 0.1171325952248282 0 0.8387037037032393 -2.121772994039628e-19 0 0.8723856594825418 0.08792979387299031 0 0.8913653618362402 0.1142963245700891 0 0.9070289342543096 0.128626682007392 0 0.9223147815155405 0.1436121313825162 0 0.9254221947343059 0.1556983023627169 0 0.9285239212359375 0.1677786667896079 0 0.9316291552240901 0.1798604881723186 0 0.9347337459965429 0.191943487930654 0 0.9498576994511917 0.2073829610948395 0 0.9529632490178163 0.2194644893518062 0 0.9560755309010811 0.2315428106114506 0 0.9591832349912678 0.2436317457793029 0 0.9622893720528277 0.2557258806020917 0 0.9653953513767354 0.2678187565472778 0 0.9781177029811651 0.2840368429579502 0 0.9827039490530498 0.2936614009815051 0 0.9892425494578054 0.3063675491002046 0 1 0.3124999999992299 0 1 0.3249999999991935 0 0.989799902810292 0.3199385458385526 0 0.8306400280491431 0.009849342425880127 0 0.8450106993141276 0.02470841824516257 0 0.8480974540832852 0.03674279014046262 0 0.8511899809130148 0.04877572163608379 0 0.8542835871274908 0.06081103388065175 0 0.8573768937120051 0.07285004833572316 0 0.860472853591414 0.08489222189969535 0 0.875913610313791 0.09962048331554788 0 0.8792454578778974 0.1113040558850513 0 0.9103897615394085 0.1403565625848771 0 0.9378388600288449 0.2040278532185415 0 0.968507609775942 0.2798889604286195 0 0.9713023983720214 0.292044940307478 0 0.9907948350437187 0.3322427776237051 0 1 0.3374999999991571 0 0.8946788506737733 0.1257811933431336 0 0.8262962962957371 -1.751065755048093e-19 0 0.8327697282498031 0.02232352842215449 0 0.8636441366198155 0.09660923507975627 0 0.8825151735801884 0.1229809769097979 0 0.8980903103380306 0.1374440140841023 0 0.9134210374308382 0.1523624691681859 0 0.9165103813821804 0.1644253701660036 0 0.9196141889421737 0.176507450517427 0 0.922718042318351 0.188589404957844 0 0.9258219162838722 0.2006725798178379 0 0.9409420654454183 0.2161107518850347 0 0.9440496505769885 0.2281954669072873 0 0.9471581851778649 0.240277471045529 0 0.9502633948441699 0.2523672486982639 0 0.953368371993471 0.2644556468199513 0 0.9564790362839997 0.2765300323923641 0 0.9750097940074 0.3039142303983777 0 0.978138909486035 0.3159738368217405 0 0.9803157198782249 0.3279776591991946 0 0.9904675417326657 0.3454132082219943 0 1 0.3499999999991206 0 1 0.3624999999990842 0 0.9888731005438073 0.3563942151107898 0 0.8202175922978168 0.008128506810177112 0 0.8214636635203771 0.01861825212683611 0 0.836077574556466 0.03359086486237653 0 0.8392124566901225 0.04546944130100508 0 0.8423131067007565 0.05747224105587889 0 0.8454062360530844 0.06950827545684606 0 0.8484997073224398 0.08154803137773033 0 0.8515694444220602 0.09337722619708276 0 0.8671307293882834 0.1081215280737522 0 0.8705738837476247 0.1198325256426484 0 0.901450075492785 0.1491898860801383 0 0.9289254456627761 0.2127557395309249 0 0.9595920417790321 0.2886002912705489 0 0.9626978648350853 0.3006949017847033 0 0.9825579934254471 0.3385365599238171 0 0.989260738826057 0.3685474363198081 0 1 0.3749999999990478 0 0.8859067639351599 0.1345595498599485 0 0.8138888888882864 -2.685652582851058e-19 0 0.8241174227906579 0.03022902674855948 0 0.8550115561755099 0.1049786959938998 0 0.8736669917995111 0.1317098183672355 0 0.8890874761327474 0.1461502106291242 0 0.9044995835966231 0.1610760139200082 0 0.9076018430574292 0.1731565966379497 0 0.9107034306437501 0.1852331789335172 0 0.9138073920800378 0.1973184509822529 0 0.9169102055923424 0.2094009345694108 0 0.9320284833179079 0.224839103024328 0 0.9351353856174557 0.2369229095124617 0 0.9382403553588951 0.249008899838505 0 0.9413442847429641 0.2610931333993255 0 0.9444501863867305 0.273173027212789 0 0.9475624680408605 0.2852457846484738 0 0.9657406991899586 0.3127831483267228 0 0.9687247915725301 0.3248618880673914 0 0.9720124173770698 0.3369833514257938 0 0.9775954192243711 0.3493191496464362 0 0.9782687106800493 0.3623404462610402 0 0.9890784814155349 0.3814352090199269 0 0.8090490841471556 0.01246689066161025 0 0.8120502408167877 0.02661711879640604 0 0.8272521749416599 0.04210148750845534 0 0.8303444489455537 0.05413354260277338 0 0.8334366207787974 0.06616735220336988 0 0.8365280557578484 0.07820235081057721 0 0.8395395135035765 0.09012483707489277 0 0.842854336740284 0.1018227114385292 0 0.8584815765566718 0.1165908295718048 0 0.8617074086688576 0.1283856973043174 0 0.8924910781359074 0.1577293046860936 0 0.9200132982286272 0.2214834423165978 0 0.9506698267689498 0.2973360357461671 0 0.9537737977584718 0.3094309497398147 0 0.9792785964698835 0.3749877948602146 0 1 0.3874999999990114 0 0.8766805753035546 0.1432703444178593 0 0.8014814814808532 -2.480251860078195e-19 0 0.8152893528415821 0.03876215216631772 0 0.8463891133259456 0.1133506456024735 0 0.8647156622716824 0.1403631724206937 0 0.8803220634125196 0.1547947294411677 0 0.8955929520293768 0.1698070962034787 0 0.8986933951007504 0.1818878962718762 0 0.9017950504481356 0.193966505006584 0 0.9048972275823483 0.2060461059301884 0 0.9079983046587585 0.2181288870846248 0 0.9231172522246095 0.2335667233818414 0 0.9262207440662301 0.2456511073624129 0 0.9293228497080185 0.2577388448914956 0 0.9324283831953486 0.2698170560335483 0 0.9355356825237481 0.2818967474082916 0 0.9386440007221172 0.2939809642821704 0 0.956877629786238 0.3215269255030329 0 0.9599819381654676 0.3336227035908462 0 0.9630867494699892 0.3457140970108925 0 0.9664444510387674 0.3578073684396459 0 0.9686198947463702 0.3698475881846576 0 0.9873040642130249 0.3950665586546139 0 0.9781966743275923 0.3872464777669481 0 1 0.399999999998975 0 1 0.4124999999989385 0 0.9894588942307286 0.4076377221442958 0 0.7949820515128485 0.01151341351829837 0 0.799779594130957 0.02320499604511571 0 0.8032152269048126 0.03537881369311615 0 0.8183783598451023 0.0507937447818367 0 0.8214685048640692 0.06282782474136243 0 0.8245585410940907 0.07486144038354846 0 0.8276412212781312 0.08688846606694868 0 0.8306728076546021 0.09886270796992247 0 0.8340294303216191 0.1104488128390991 0 0.8497764607735532 0.1251564549520219 0 0.8528113562984264 0.1370945615047843 0 0.8836712010144046 0.1665401939928198 0 0.9111021217751433 0.230211848275364 0 0.9417478253409591 0.306072120912901 0 0.9448510611216036 0.3181659051554059 0 0.9703892443165673 0.3802349851703898 0 0.9893611784167394 0.4194621493591946 0 1 0.4249999999989021 0 0.8679910992826568 0.1519149640594345 0 0.7890740740733985 -2.262178123289367e-19 0 0.8063884688333768 0.04744765817914594 0 0.8374573732482985 0.122128772154819 0 0.855827617980346 0.1490814372496861 0 0.8713847711455961 0.1636031608074893 0 0.8866858543898664 0.1785362454998154 0 0.8897854367967991 0.1906165237496031 0 0.8928867783470408 0.2026914379389088 0 0.8959873184319068 0.2147668388386634 0 0.8990885105554526 0.2268571627432962 0 0.9142041897558572 0.2422947348776854 0 0.9173063821970343 0.2543780391652709 0 0.9204090195897242 0.266459754255313 0 0.9235154047459113 0.2785409279612506 0 0.926621485080371 0.2906246474101176 0 0.9297237860396239 0.3027141726213223 0 0.9479560841259255 0.3302539452259112 0 0.9510573655630549 0.3423361019902841 0 0.954162980527436 0.3543938747174569 0 0.9572396214901985 0.3664253903925596 0 0.9601024343248018 0.3783025808987218 0 0.9750603774986274 0.3964639595198263 0 0.9652132906773193 0.3903602373006184 0 0.9786362290192804 0.4061076680507321 0 0.9799740975200327 0.4157382830252807 0 0.9885677683012419 0.4315579008984892 0 1 0.4374999999988656 0 1 0.4499999999988292 0 0.9888225073548209 0.4440808879925995 0 0.7827497393923258 0.01050110781275959 0 0.7874792079998653 0.02091811230202708 0 0.7912988536199953 0.03212030142738069 0 0.7944176312118846 0.04411531178900229 0 0.8095000092214055 0.05948747739997114 0 0.8125916694361601 0.07152338792107842 0 0.8156842455435026 0.08356054804069769 0 0.8187772368083858 0.0956003590482029 0 0.8218030668361903 0.1075738686123221 0 0.8251745213784405 0.1191563514355575 0 0.8409103466421758 0.1338420560900088 0 0.8439181647708877 0.145808329649262 0 0.8747305715156505 0.1753630087878393 0 0.9021901100436199 0.2389408654897423 0 0.9328263771677842 0.3148048988885759 0 0.9359315515567194 0.3268897119837695 0 0.9779253409485666 0.4252578704200743 0 0.9895766848705023 0.456401357215546 0 1 0.4624999999987927 0 0.8592086216142131 0.1606950303121381 0 0.7766666666659509 -2.178346919304068e-19 0 0.7975302329754744 0.05614844924463167 0 0.8284643670480577 0.1308183120097536 0 0.8469715509641665 0.1578317742403682 0 0.8623850700341327 0.1723110382515365 0 0.8777799712658201 0.1872625150106177 0 0.8808785481470325 0.1993395991605392 0 0.8839790104512563 0.2114143176443668 0 0.8870795759137768 0.223487783615161 0 0.8901795447650703 0.2355805499441858 0 0.9052915729979564 0.2510218967012067 0 0.9083936486123488 0.2631035351494939 0 0.9114971092985585 0.2751858782926003 0 0.9146015621713114 0.2872685807762212 0 0.9177041239644862 0.2993541148532655 0 0.9208055601836842 0.3114408338696554 0 0.9390398074546989 0.3389483851688813 0 0.9421462028114705 0.3510262088948792 0 0.9452442492507899 0.3630962367214238 0 0.9483687776875757 0.3751841795990711 0 0.9514710720713754 0.3872823647780543 0 0.9666037542806202 0.4027448913576726 0 0.9698499447085066 0.4162164091353943 0 0.9760596533067123 0.4375528038004565 0 0.9786687667812538 0.4513093152086916 0 0.989529685298786 0.4687504347444294 0 1 0.4749999999987565 0 1 0.48749999999872 0 0.989175168562261 0.4812508419651649 0 0.7704443986958857 0.0101119605117314 0 0.7752565841253443 0.01905981897249756 0 0.7793983426771107 0.02928361701689752 0 0.7824746540411708 0.04077923724902725 0 0.7855680088425295 0.05281010859678552 0 0.8006230998435918 0.06818338088387445 0 0.8037141640489881 0.08021891685222622 0 0.8068043593941792 0.09225768010085392 0 0.8098953690351344 0.1042977550720447 0 0.8127388219018499 0.1161268016852876 0 0.8158453111523222 0.1278521714550654 0 0.8319385996278486 0.1424654190346129 0 0.835013669293982 0.1545106763931566 0 0.8657757724043456 0.1839136230455709 0 0.8932787415265739 0.2476684587002805 0 0.923906657218497 0.3235242268385596 0 0.9270171995712245 0.3355871761510971 0 0.9548587172798 0.3993346732516626 0 0.9688288581954038 0.4278399516304247 0 0.9798268517484516 0.4631500067071392 0 0.9887729656383784 0.4955413377305926 0 1 0.4999999999986943 0 0.8499908314386427 0.1694165311451274 0 0.7642592592585097 -2.166372613103064e-19 0 0.7886552733376037 0.06484282514809904 0 0.8197391562500604 0.139226029151156 0 0.8380269771909516 0.1664905183608806 0 0.8536079186968054 0.1809742390388454 0 0.8688704389383292 0.1959954542201913 0 0.8719682865035735 0.2080686789616578 0 0.8750693417617113 0.2201454573199586 0 0.8781717837428119 0.2322181975188332 0 0.881268546808189 0.2443108315978018 0 0.8963804039591597 0.2597489165778961 0 0.8994823908498868 0.2718307215903187 0 0.9025843613700989 0.2839133882689868 0 0.9056860339114496 0.2959955707894931 0 0.9087880367905635 0.3080775969535167 0 0.9118874790987136 0.3201580848351291 0 0.9301319801137817 0.3476408695208813 0 0.9332309010379618 0.3597318063823503 0 0.9363419235670968 0.3718237688000742 0 0.9394436272737183 0.383919219035477 0 0.9426015008174468 0.3960050982482253 0 0.9577150908060614 0.4114656342660656 0 0.9599559811425359 0.423961818350829 0 0.9631664484479903 0.4357413599928797 0 0.9669522262327767 0.4475744415635465 0 0.9701253066174419 0.4597463180025897 0 0.9787926362881858 0.4749758434647687 0 0.9785707911384681 0.4875000085724874 0 0.9922845346239458 0.5062499999987041 0 1 0.5124999999987164 0 0.7582479743130419 0.01005637537495318 0 0.7643755866833487 0.0171792173083861 0 0.7674268725005814 0.0264798791100035 0 0.7705077653255362 0.03744261412538018 0 0.773601922798633 0.04946951523667398 0 0.7766901226993952 0.06150106732530015 0 0.7917458348231937 0.07687700401942073 0 0.7948358737238742 0.08891320035612225 0 0.7979252396388002 0.1009518640023338 0 0.8009145598792263 0.1128631426278145 0 0.8039456286485246 0.1247537968822699 0 0.8070775527561943 0.1365456165199009 0 0.8229961115857209 0.1512392308433659 0 0.8261306623980531 0.1632316461841994 0 0.8569559008400761 0.1927554397646936 0 0.8843678107587492 0.2563941451364159 0 0.9149889337524767 0.3322298405085731 0 0.9181023138821727 0.3442915428880121 0 0.9457003594846223 0.4081054110143216 0 0.9707095412981802 0.4692765892781585 0 0.9781831624835343 0.497940464511669 0 0.9825202993478183 0.5077983990760458 0 0.9891746824526708 0.5187499999987336 0 1 0.5249999999987494 0 1 0.5374999999987822 0 0.9908484328273856 0.5312499999987658 0 0.841292243485711 0.17806909814179 0 0.7518518518510556 -1.82594331517845e-19 0 0.7797784931662836 0.07353533237990882 0 0.8106809370593896 0.1481158349450165 0 0.8291430169588684 0.1752107833510824 0 0.8447268594630047 0.1897754073274354 0 0.85994850166403 0.2047563984507302 0 0.8630599156165538 0.216815205858238 0 0.8661567565195946 0.2288886787141275 0 0.8692596300680258 0.2409571236863745 0 0.8723582077732314 0.253038208416989 0 0.8874688156294521 0.2684754939595335 0 0.8905695162677538 0.2805578616309766 0 0.893670375163869 0.2926398792831635 0 0.8967725972857488 0.3047205038278725 0 0.8998745948925284 0.3168004439767677 0 0.9029736303744976 0.3288818602433229 0 0.921213029451566 0.3563699571561498 0 0.9243166745703477 0.3684632679979084 0 0.9274186749569869 0.3805571159762963 0 0.9305290021259803 0.3926484262102273 0 0.9336413147482373 0.4047379812147107 0 0.9487581814284139 0.420192536946484 0 0.9517399639084384 0.4322611767974319 0 0.9549886723119051 0.444292630157577 0 0.9580938186397729 0.4563812718466502 0 0.9607755659464113 0.4680527275616104 0 0.9662693475168679 0.4798578220223089 0 0.9674014325797935 0.492672081002389 0 0.9893675865753215 0.5439044913552641 0 1 0.5499999999988151 0 0.7456481481473322 0.008476090991807307 0 0.7552567143256071 0.02182169163540057 0 0.7585497138415579 0.03428793547237511 0 0.7616494173964115 0.04616022709106653 0 0.7647233323567352 0.0581627809532337 0 0.7678113003106009 0.0701969383653164 0 0.7828669324462175 0.08557127949471852 0 0.785956616793699 0.09760981815769722 0 0.7890237074518356 0.1096389898470077 0 0.7919984878407907 0.1216334297818311 0 0.7950990383607656 0.1335016192237198 0 0.7981967036103081 0.1454275369060955 0 0.8141001685404838 0.1601768638081875 0 0.8172957931122795 0.1720017606189422 0 0.8480482402500793 0.2014931278133865 0 0.8754577721054604 0.2651203211441694 0 0.9060749473013595 0.3409521211221012 0 0.9091806537138246 0.3530248040176026 0 0.9367283657426658 0.4168201740705497 0 0.9704806793645878 0.505191476584267 0 0.9752847799186178 0.5170861916284022 0 0.9799352708926695 0.5283381337701177 0 0.982856568929106 0.5370787425628631 0 0.9919023468065137 0.5551795661875719 0 1 0.5624999999988481 0 0.8325637329749043 0.1868374036256851 0 0.7394444444436056 -2.410938147728735e-19 0 0.7708981266521203 0.08222994958635646 0 0.8017500532111091 0.1571601806066354 0 0.8202415120254833 0.1839125931871876 0 0.8358931205304531 0.1985231355802116 0 0.8510637298749545 0.2134886582109043 0 0.8541528773754594 0.2255433634920501 0 0.8572513334193539 0.2376099027131882 0 0.8603497198985405 0.2496840242333981 0 0.8634500776522575 0.2617616540521364 0 0.8785571280876969 0.2772026472532051 0 0.881657209264826 0.2892846012904455 0 0.8847575815006793 0.3013654492018754 0 0.8878586735500943 0.3134460704809525 0 0.8909612869836266 0.3255281041457249 0 0.8940587834045027 0.3376095476281519 0 0.9122911529596522 0.3651068818832561 0 0.9153952510575429 0.3771967982306179 0 0.9184967768884941 0.3892891713700983 0 0.9215972461308407 0.4013801777656721 0 0.9246914141878678 0.4134685999792683 0 0.9398381793878242 0.4288853595677178 0 0.9429600591719585 0.4409243510064139 0 0.9460622338599731 0.4530201007418468 0 0.9491639495321066 0.4651194644793538 0 0.9522663704648165 0.4772156182119499 0 0.9553690949022218 0.4893118860647984 0 0.9584713048458865 0.5014097053819465 0 0.980034795959162 0.5443730350197259 0 0.9827395899894328 0.5537801746180048 0 0.9865599461675907 0.5635722973444065 0 1 0.574999999998881 0 1 0.5874999999989139 0 0.9894304399450944 0.5815186875151508 0 0.9912169743508948 0.5721038250339613 0 0.7333221517271394 0.01119165690736187 0 0.7429846914329098 0.02004403188396226 0 0.7466849604532746 0.03090228755262462 0 0.7497725530479379 0.04292091331977535 0 0.7527729615072315 0.05485221763825174 0 0.7558453140064365 0.06686180925811887 0 0.7589324129826355 0.0788906906889805 0 0.7739883331726387 0.09426695414932149 0 0.7770779735488148 0.1063054567812685 0 0.780169841853821 0.1183462924385483 0 0.7831704931770483 0.1304123077307005 0 0.786245259373304 0.1424608090254088 0 0.7893595643903338 0.154415209431521 0 0.804978033177827 0.1689654691064746 0 0.8083859701898726 0.1806947229583387 0 0.8391363763694705 0.210213560920256 0 0.866544592731376 0.2738497780467373 0 0.8971579073006498 0.3496814248265646 0 0.9002636976900242 0.3617577262607596 0 0.9277852427332397 0.4255342513380969 0 0.9620259038589473 0.5139005908259385 0 0.9664917503140705 0.5276561974900079 0 0.9740967583909923 0.5375280526704433 0 0.989850513035297 0.5933625857600944 0 1 0.5999999999989468 0 0.8234934746775316 0.1955016035658651 0 0.7270370370361677 -2.001972136249083e-19 0 0.7620195036078404 0.09092588983189602 0 0.7928210822010533 0.1659745175996442 0 0.8113352769598877 0.1926089199314188 0 0.8269295646501694 0.207230642485881 0 0.8421476834180044 0.2221909289729105 0 0.8452469285248351 0.2342590115676661 0 0.8483456805350051 0.2463302162585896 0 0.85144333035617 0.2584147760593306 0 0.8545406659273731 0.2704963325493278 0 0.8696442280679377 0.2859318683687073 0 0.87274576028981 0.29801069389879 0 0.8758461239402561 0.3100908900129409 0 0.8789466547248259 0.3221720237952157 0 0.8820468280073065 0.334254002854377 0 0.8851427605215214 0.3463326145635923 0 0.9033727831470604 0.3738387009505871 0 0.9064749532822689 0.3859304051564699 0 0.9095761105606988 0.3980205616270299 0 0.9126770657166838 0.4101115107720947 0 0.9157719408193532 0.42219748778623 0 0.9309207251338684 0.4375839902450969 0 0.9340243166714285 0.4496727714455377 0 0.9371260794986371 0.4617669259192557 0 0.9402371069711143 0.4738548768763939 0 0.9433398792332025 0.4859501304568514 0 0.9464411731634818 0.4980466777846924 0 0.9495399687889953 0.5101394851911397 0 0.9706662533090675 0.5489107415851534 0 0.9739594793705448 0.5619781064365625 0 0.9789926201121734 0.5744192864864111 0 0.9794108931286344 0.5872852682293573 0 0.9902083716224147 0.6058831123073061 0 1 0.6124999999989796 0 0.7206685032562362 0.009293222768118468 0 0.7338386493306098 0.02755987679663536 0 0.7383125551666648 0.04009923302824023 0 0.7408650027603665 0.05157956501857754 0 0.743891385531818 0.06353910316605267 0 0.7469634799412348 0.07555122628958173 0 0.7500515429329623 0.08758389812957978 0 0.7651090582803952 0.1029628562644514 0 0.7681980972600044 0.1150017562987534 0 0.7712875420840641 0.1270438257064739 0 0.7743638711962842 0.1390878677587947 0 0.7774510735706054 0.1511303622284946 0 0.7804983303405216 0.1629395848847773 0 0.7961990431089173 0.1776437601409951 0 0.7994242327023199 0.189333615763989 0 0.8302232640108436 0.218917381353052 0 0.8576347268301903 0.2825775812176298 0 0.8882406594638496 0.3584103431166321 0 0.891349851626727 0.3704897856521593 0 0.9188775417800578 0.4342840812282533 0 0.9530228157955859 0.522634741886284 0 0.9645247335127848 0.5388048488799092 0 0.980919157360579 0.6000266098795402 0 0.9898661514688428 0.6176351098339639 0 0.814757334755465 0.2042618293767707 0 0.7146296296287235 -2.006257237988637e-19 0 0.7231786261666291 0.02022555810823073 0 0.7531407141100392 0.09961928057162529 0 0.7839589120459968 0.1745591551078317 0 0.8024429816897073 0.2013189976444205 0 0.8180738175572534 0.2159663441191305 0 0.8332455476285975 0.2309079663012466 0 0.8363428499631584 0.2429771663283689 0 0.8394373682884807 0.2550675819398746 0 0.842526007974756 0.2671657055775387 0 0.8456201515540309 0.2792489601543099 0 0.8607249078388641 0.2946694600769116 0 0.8638288752971066 0.3067406872825993 0 0.8669341381287736 0.3188160892290506 0 0.8700337700226373 0.3308975152639606 0 0.8731332338821227 0.342978800859754 0 0.8762317559989551 0.3550581933075195 0 0.8944538765342578 0.3825751353148533 0 0.8975555271301351 0.3946614963176709 0 0.9006559525276148 0.4067513753627807 0 0.9037558096856717 0.4188428400280329 0 0.9068545918264951 0.4309339505922686 0 0.9219835553801589 0.4463606156868417 0 0.9250942181057112 0.4584287495799516 0 0.9282001817158223 0.4705072685011589 0 0.9313123583895918 0.4825870167462142 0 0.9344133072525117 0.4946832598539748 0 0.937511587514659 0.5067784903531642 0 0.9557515869138103 0.5343026536344876 0 0.9406093936652088 0.5188644489898647 0 0.9619563380506307 0.5585052242173167 0 0.9581852366568376 0.5464228664397723 0 0.9650582152641872 0.5706068941295089 0 0.9681600937012431 0.5827075561792815 0 0.9705916682574336 0.5949797461347135 0 0.9821081390548133 0.6110700227238742 0 1 0.6249999999990126 0 1 0.6374999999990455 0 0.989174682452666 0.6312499999990291 0 0.7084227448618121 0.009313114356182395 0 0.71353184242919 0.01695913912537308 0 0.7216656974340423 0.03220981709513157 0 0.7285500342820103 0.03891154450414072 0 0.7293389972854994 0.04868332046787425 0 0.7319060955423542 0.06017962265093227 0 0.7349954594332855 0.07221017814085398 0 0.7380851070240492 0.08424240454759394 0 0.7411741524836327 0.09627624166546861 0 0.756229616954684 0.1116561216033234 0 0.7593173150712078 0.12369638842353 0 0.7624023692048451 0.1357415297150041 0 0.7654912891707539 0.147773463740858 0 0.7685041671397798 0.1596958814898579 0 0.7716632783376117 0.1715061639972448 0 0.7874027855304949 0.1861636000084775 0 0.7905407080991373 0.1980529699547641 0 0.8213163267972748 0.2276739067914805 0 0.8487055640473803 0.2913464992376927 0 0.8793331228813193 0.3671384907699127 0 0.8824363735284183 0.3792177449363653 0 0.9099553919858352 0.4430256994627306 0 0.9437182912324844 0.5309450751862668 0 0.9734685618766278 0.6072415360566031 0 0.9778289184949114 0.6197701359102912 0 0.9922317142588767 0.6433147029836419 0 1 0.6499999999990784 0 0.8056971367140052 0.2129403668807158 0 0.7022222222212798 -2.227092827623168e-19 0 0.7131392090782254 0.02617437332104617 0 0.7442626860267836 0.1083118139651479 0 0.775168952757383 0.1831273040158512 0 0.793563235399971 0.2100410581933389 0 0.809120157820964 0.224695687507823 0 0.824352976532855 0.2396602034104806 0 0.8274278220077331 0.2517319333901238 0 0.8305160845245972 0.2638346160398334 0 0.8336080014874294 0.2759169911511655 0 0.8367006784457204 0.2879983928847675 0 0.8518107187691849 0.3034060858466299 0 0.8549121374877228 0.3154763313744017 0 0.8580192697642237 0.3275472607966078 0 0.8611214230761166 0.3396224873741581 0 0.8642206580152013 0.3517029552303069 0 0.867320177859724 0.3637827016596669 0 0.8855368330130581 0.3913035865965264 0 0.8886365398212968 0.4033897913928052 0 0.8917357211881416 0.4154833396128071 0 0.894833332528383 0.427573275379991 0 0.8979329045818331 0.4396657394637624 0 0.9130569909671614 0.4550936017116717 0 0.9161741844010609 0.4671713142152442 0 0.919284828747934 0.4792299547959363 0 0.9223867210652951 0.4913205977621073 0 0.9254863872933872 0.5034162848730893 0 0.92858194398336 0.5155068074963888 0 0.9468228407261797 0.5430392261203374 0 0.9316852413251498 0.5275918836377319 0 0.9530261596017774 0.5672417632171034 0 0.9499246503495642 0.55514039324733 0 0.9561274287033764 0.5793422612618909 0 0.959229757072005 0.5914415385803297 0 0.9623315009640603 0.6035447695349605 0 0.9822358505547695 0.6423198441117186 0 0.9881657427441438 0.6546330767784985 0 1 0.6624999999991114 0 0.6960185185175515 0.01033824067659545 0 0.7022501287830477 0.01978942707328766 0 0.7181223487467029 0.04406314665745047 0 0.7126821115631446 0.03572744042543343 0 0.7199448582204196 0.05683951550382316 0 0.7230319106304536 0.06886903342846785 0 0.7261196632671039 0.08090099704846961 0 0.7292075305192992 0.0929342207508789 0 0.7322965824533739 0.1049688186210741 0 0.7473511256081494 0.1203484438590705 0 0.7504390546618694 0.1323876923645863 0 0.753525401002557 0.144421017439894 0 0.7566146633431825 0.1564506675204294 0 0.7596592989203891 0.1684370386316819 0 0.7628544859165107 0.1802630544882505 0 0.7785230280412018 0.1949877181055698 0 0.7817075297274135 0.2068221803245999 0 0.812418993515741 0.2364427462030633 0 0.839796074962633 0.3000679447005331 0 0.8704213133528917 0.37586286249332 0 0.8735208570919101 0.387945472960284 0 0.9010306823969831 0.4517460054939407 0 0.934792211748974 0.5396792444076006 0 0.9654328765008355 0.6156488827602835 0 0.9777296937887549 0.6322295697235023 0 0.9890818616212047 0.6687115498068004 0 1 0.6749999999991443 0 0.796952882413085 0.2217116379285052 0 0.689814814813825 -2.160789277502299e-19 0 0.7028193554435148 0.03129378473396423 0 0.7353853818542828 0.1170041824665702 0 0.7660652417197631 0.1923369312427292 0 0.7846631180526965 0.218741560012273 0 0.8002617899284262 0.2334391231240432 0 0.8154294972412193 0.2484271777234258 0 0.8185085229835654 0.2604992491217227 0 0.82160137309373 0.2725777691303253 0 0.8246986908056665 0.2846460995983932 0 0.82779545216539 0.2967155293092545 0 0.8428967529814045 0.312135592407642 0 0.8460042120217549 0.3242029056263415 0 0.8491092280301453 0.3362713993588678 0 0.8522097137298408 0.3483466162434171 0 0.8553085145140196 0.3604263376766451 0 0.8584077522262097 0.3725067652527538 0 0.8766182654900999 0.4000326538098475 0 0.8797156322751856 0.412122667768098 0 0.882813115851555 0.4242148117236149 0 0.8859110823810071 0.4363042141064959 0 0.8890065576542 0.4483894994053096 0 0.904144649971007 0.4638077974273581 0 0.9072621686066572 0.4758608782816802 0 0.9103620014084587 0.4879548188193558 0 0.9134611446063963 0.5000501157443715 0 0.9165579960862559 0.512143899071382 0 0.9196570661646098 0.5242344547389858 0 0.9378940810245142 0.5517755312577841 0 0.9227623934712695 0.536321431500166 0 0.9409955000979882 0.5638767156091308 0 0.9440965120060804 0.5759782035982864 0 0.9471977945505375 0.5880781013065594 0 0.9502991136197987 0.6001792781434946 0 0.9534001628255097 0.6122819886544159 0 0.9681877468141347 0.6278425161514299 0 0.9712212706272927 0.6399653524450438 0 0.9747354322406601 0.6519656374551721 0 0.9780063161695683 0.6635262663587576 0 0.9899720740109756 0.6813915255340841 0 1 0.6874999999991772 0 0.6838633967711171 0.01003045734113664 0 0.689814814813818 0.01719202778676289 0 0.6909257155168147 0.02692405656112443 0 0.7051554576670395 0.04216372574310677 0 0.7081804337707673 0.05338701063878068 0 0.7111042879147544 0.06551180610078851 0 0.7141513352473392 0.0775647929053417 0 0.7172408443256867 0.08959508945635963 0 0.7203302397328173 0.1016266790314823 0 0.7234188106174767 0.1136615651129336 0 0.7384762716049698 0.1290407976308626 0 0.7415629982198232 0.1410786740448158 0 0.7446539829071089 0.1531159230000423 0 0.7477529495250943 0.1651583511920769 0 0.750843653044323 0.17720297599828 0 0.7538526450260593 0.1890273746038551 0 0.7698591272467602 0.2037889914882638 0 0.7727994027336759 0.2155140455231498 0 0.8034863916482089 0.2451724436146411 0 0.8308914385040252 0.3087862006990539 0 0.8615069755428929 0.3845880279339213 0 0.864603754260162 0.3966723856303879 0 0.8921171972199152 0.4604587507421867 0 0.9258641139524773 0.5484110661491575 0 0.9565006420770381 0.6243863527714651 0 0.9801625662911556 0.676154876398942 0 0.9882080550369314 0.6946376787725482 0 0.7878998096858069 0.2303827739110137 0 0.6774074074063782 -2.331090589952157e-19 0 0.692910418987316 0.0381611865562471 0 0.7265081094434198 0.1256974653729704 0 0.7572678850793365 0.2005830062833455 0 0.7757582594060165 0.2274363651978127 0 0.7913048032202578 0.2421436539004528 0 0.8065071566761707 0.2571570117168813 0 0.8096019566530066 0.2692257876703145 0 0.8126988114451186 0.2812936884545369 0 0.8157949723783743 0.2933618148092599 0 0.8188900781479561 0.3054287470425343 0 0.8339949658556353 0.3208508425260989 0 0.8370988992106452 0.332918656678179 0 0.8402001956492924 0.3449914149026677 0 0.8432982418045226 0.3570699999070222 0 0.8463965168799433 0.3691500652828392 0 0.8494945013080182 0.3812310590895176 0 0.867698361602694 0.4087635204473528 0 0.8707912083237553 0.4208593869605259 0 0.8738917184128577 0.4329459865137714 0 0.8769903119584163 0.4450355535931322 0 0.8800893234014641 0.4571159908834 0 0.8952289599809314 0.4725150961706057 0 0.8983388891966697 0.4845928566199076 0 0.9014383637525883 0.4966865963706414 0 0.9045365546993455 0.5087793423700685 0 0.9076347115687876 0.5208720207396066 0 0.9107368272130701 0.5329636528018731 0 0.9289659993975196 0.5605133074447418 0 0.9138365802566235 0.5450587707172685 0 0.9320669184303627 0.5726129832773811 0 0.9351675411113247 0.5847134569944749 0 0.938268064780462 0.5968140731940978 0 0.9413687294856861 0.6089154634137759 0 0.9444690350770339 0.6210153565384412 0 0.9595432350659628 0.6365064606178512 0 0.9627031966784944 0.6485195043554892 0 0.9660483928859547 0.6598191529803149 0 0.9693583159316074 0.6718484137514925 0 0.9818106419566434 0.6870056512394849 0 1 0.69999999999921 0 0.671378914299397 0.01082100182756728 0 0.6787459107757347 0.02183147375589425 0 0.680956044745367 0.03482318759758471 0 0.6960415227718872 0.05015747445461476 0 0.6991277453475803 0.0621845344214071 0 0.7021894442719681 0.07422594970691078 0 0.7052735310028636 0.08625819992546965 0 0.7083635659253795 0.09828708633598028 0 0.7114524704680951 0.1103188420371909 0 0.7145406554231448 0.1223537139196594 0 0.7295972440836888 0.1377348131975624 0 0.7326872627956736 0.149773538870217 0 0.735777760127035 0.1618140418602322 0 0.7388677747053076 0.173856745515916 0 0.7417963830157527 0.1857156787538373 0 0.7448574923786068 0.197470492759725 0 0.7607629320241092 0.21226823274982 0 0.763840264391427 0.224152693929008 0 0.7945760425218853 0.2538762771551963 0 0.8219879938329675 0.3174956854100953 0 0.8525926710656774 0.3933118604577684 0 0.855688618617383 0.4053992926999078 0 0.883203009914906 0.469178115072507 0 0.9169375208031404 0.557152904186258 0 0.9475634948271379 0.6331068543315125 0 0.9724755503776377 0.6839515703684568 0 0.9893891810619114 0.7070484700415121 0 0.9758750035030566 0.6945824718858983 0 1 0.712499999999243 0 0.7791501507346897 0.239129365185474 0 0.6649999999989588 -2.235633712131678e-19 0 0.6840421020196032 0.04684689889074423 0 0.717628378896582 0.1343904722390278 0 0.7485904162326067 0.2088812942677311 0 0.7668662612903877 0.2361436562999878 0 0.7824546348025307 0.2508619404123484 0 0.7976053930833721 0.2658730629974053 0 0.8007030289947523 0.277943251526717 0 0.8037962451120425 0.2900095460686832 0 0.8068921221314203 0.302076800795303 0 0.8099882642360035 0.3141432720626983 0 0.8250910701808026 0.3295643562106398 0 0.8281926283283809 0.341636995131248 0 0.831290169054005 0.3537130281740127 0 0.8343874646153088 0.3657921152263314 0 0.8374841531232803 0.3778745950984428 0 0.8405818184997861 0.3899547799425237 0 0.8587822434651717 0.4174895734774219 0 0.8618752797777983 0.4295857372208458 0 0.8649726386837872 0.4416743159457528 0 0.868073365682359 0.4537519113645312 0 0.8711810368910572 0.4658156101342634 0 0.8863135284607428 0.4812413538614937 0 0.8894168829917427 0.4933234734692443 0 0.8925155358597555 0.5054155532833767 0 0.8956137774643472 0.5175081139808281 0 0.8987128521945554 0.5296014659564524 0 0.9018125669683703 0.5416957993710289 0 0.9200384610681583 0.5692494567789822 0 0.9049117255200393 0.5537911627355022 0 0.9231386942865781 0.5813485950870676 0 0.9262384292012132 0.5934485772169585 0 0.9293383615294629 0.6055495261034455 0 0.9324384104649955 0.6176509251290357 0 0.9355438143004858 0.629720116467419 0 0.9506939106087801 0.6450853726367011 0 0.9540957137558678 0.6566196410829612 0 0.9577947098045507 0.6685379571708525 0 0.9612858019876298 0.6805973038580111 0 0.9804034410127093 0.7034572203484244 0 0.9891746830567355 0.7187498499542514 0 1 0.7249999999992761 0 1 0.7499999999993417 0 1 0.7624999999993747 0 0.9898228873478602 0.756249765303615 0 1 0.7374999999993089 0 0.9891624535375733 0.7439776244924785 0 0.989190573460159 0.7312748074564578 0 0.6588738436249254 0.01037788775306429 0 0.6649139594447996 0.02048472052276413 0 0.6689466825781196 0.03167978275995426 0 0.6720862265607171 0.04350753472163794 0 0.6871285359306473 0.05887134194141366 0 0.6902151876891286 0.07089664633490118 0 0.6933086124462128 0.08291995980665032 0 0.6963981771833151 0.09494608791613125 0 0.6994868286270902 0.106977322767121 0 0.7025748789240519 0.1190102902027201 0 0.705662792765935 0.1310434005835943 0 0.7207159877496807 0.1464291203770355 0 0.7238044457395821 0.1584695599157765 0 0.7268934129778279 0.1705113778992395 0 0.7299628628314914 0.1824611606785871 0 0.7329576560603965 0.1943189200457435 0 0.7360385955930587 0.2061232383983615 0 0.7518632612561372 0.2208811112871715 0 0.75495705684641 0.2328691040877156 0 0.7856862595559441 0.2625993040300152 0 0.8130868945573304 0.326211700053651 0 0.8436796043347535 0.4020346683074245 0 0.8467744470161671 0.4141205175731232 0 0.8742949618747756 0.4778795104990027 0 0.9080116948151938 0.5658868218116837 0 0.9387141540698238 0.6416396184969219 0 0.9643910764719406 0.6927014974420215 0 0.9788579628304079 0.7132196080147131 0 0.9687293878398567 0.7056567313819924 0 0.9895214136108333 0.7687499799728399 0 1 0.7749999999994076 0 0.7701104911926049 0.2477993864541075 0 0.6525925925915989 -2.552891331976816e-19 0 0.6751715990739308 0.05553174870625029 0 0.7087492707588475 0.14307880078688 0 0.7394411673235536 0.2178742939106496 0 0.7579817734476852 0.2448576747807991 0 0.773511685912892 0.2595720242868659 0 0.7887176308667329 0.2745998795007398 0 0.7917981368082431 0.2866575444686226 0 0.7948941142244563 0.2987248056809135 0 0.7979900446563125 0.3107914683033551 0 0.8010870654630798 0.3228592403318392 0 0.8161872602392927 0.3382822699912407 0 0.8192842061838934 0.3503556671115333 0 0.8223799903674464 0.3624317411721051 0 0.8254757164626563 0.3745132617235671 0 0.8285715224953826 0.3865988777870409 0 0.8316696046322507 0.3986780292591943 0 0.8498655454532343 0.4262089859627772 0 0.852956317923306 0.4383013965835574 0 0.8560543604048015 0.4503892470016302 0 0.8591635141740331 0.4624539513074715 0 0.8622771502173292 0.4745182325358476 0 0.8773963065418676 0.4899631094931055 0 0.8804951525389921 0.5020530573161612 0 0.883593203957919 0.5141446331785067 0 0.8866909843681761 0.5262378534629134 0 0.8897880745997456 0.5383336068722013 0 0.8928856936876405 0.5504297278986138 0 0.9111115832907921 0.5779831382890043 0 0.8959855096020346 0.5625240165887218 0 0.914211678870666 0.5900786835338047 0 0.9173142186670822 0.6021606472307709 0 0.9204098013627779 0.6142440600796477 0 0.9235070213665247 0.6263336226742539 0 0.9266761959061635 0.6383566566835643 0 0.9420219841485619 0.6534345833095467 0 0.9457824127587986 0.6652734308913816 0 0.949069288290398 0.6773810815178902 0 0.9523756683919361 0.6893592929582399 0 0.9784452147084344 0.7251513780938688 0 0.9793125463422697 0.7510512200436138 0 0.9809834615724887 0.7637189572225769 0 0.976517629037813 0.7388413005084558 0 0.9900103815041739 0.7812155351060579 0 1 0.7874999999994404 0 1 0.7999999999994734 0 0.989293952011057 0.7935433919761075 0 0.6455819636351395 0.01185060841821199 0 0.6534001017966359 0.01904792857546555 0 0.6568189875205473 0.02887660837446892 0 0.6601110674723406 0.04021012613403821 0 0.6632118848868149 0.05220027925106847 0 0.6782575913832813 0.06755672918588977 0 0.6813442173223679 0.07958238005151723 0 0.6844329910588006 0.09160871826861013 0 0.6875225253249716 0.1036372562476678 0 0.6906101348464758 0.115668265321826 0 0.6936978372755683 0.1276991349133094 0 0.6967853173446644 0.1397303933911446 0 0.7118348702082634 0.1551184941847807 0 0.7149240560274257 0.1671549201227506 0 0.7180126424802243 0.1791718166399514 0 0.7209914994357698 0.1911325710860267 0 0.724099103107701 0.2030103785979237 0 0.7272024243633503 0.2149135760108239 0 0.7429504380834243 0.2297754353039212 0 0.7461192743634772 0.2416302753807113 0 0.7768007804683446 0.2713325537512539 0 0.8041840145217112 0.3349287347769872 0 0.8347669393584854 0.4107567094796434 0 0.8378586181150905 0.4228408632155072 0 0.8653775776421054 0.4866032842782135 0 0.8990855713545886 0.5746188194942589 0 0.9299772773947999 0.6502990766519195 0 0.9554591383648926 0.7014409202391866 0 0.9683467502544656 0.719248402671431 0 0.9828974474912574 0.774999967285156 0 0.9891746826792014 0.8062499996071101 0 1 0.8124999999995064 0 0.7613595106818125 0.2565485636324997 0 0.6401851851842549 -2.135054025629611e-19 0 0.6663005320170835 0.06421666508574139 0 0.6998713094252588 0.151765017671649 0 0.7305509884917749 0.2270508585712094 0 0.7490835736109086 0.2535568027588291 0 0.7646584387761169 0.2682903974409718 0 0.7798247653715457 0.28332439185944 0 0.7829010549121947 0.2953759871466464 0 0.78599201563657 0.3074392582202471 0 0.789087444190799 0.3195061413873174 0 0.7921822798545823 0.3315751710532175 0 0.8072795099116846 0.3470006300234654 0 0.8103759196020905 0.3590704332006217 0 0.8134686042608954 0.3711391581221268 0 0.8165627738753751 0.3832427378561034 0 0.8196610586208402 0.3953212433296334 0 0.822758218212278 0.4074004424315766 0 0.8409521963851937 0.4349247284035028 0 0.8440484887981711 0.4470091563809572 0 0.8471425589941982 0.4590860502280241 0 0.8502540562717442 0.4711630437037335 0 0.8533608970325149 0.4832425592230948 0 0.8684756847550527 0.4986914908903829 0 0.8715724306156952 0.510782270253341 0 0.8746683522643118 0.5228761000069148 0 0.8777625623197844 0.5349753542396077 0 0.880860939142352 0.5470692295765205 0 0.8839595828389241 0.5591628873381475 0 0.9021846603832896 0.5867113696812776 0 0.8870597999451033 0.5712561295400667 0 0.9052891859511959 0.5987865300362495 0 0.9083952598647448 0.6108344403011162 0 0.9114874214460289 0.622901357836953 0 0.9146040388718483 0.6349845871913977 0 0.9177627205739824 0.6470530507477982 0 0.9334102964770438 0.6622515425961665 0 0.9364076513683531 0.6744071938071089 0 0.9401311661339607 0.6861689506932561 0 0.9434341593147958 0.6980884942329774 0 0.957779343209669 0.7139337353776646 0 0.9673409815632498 0.7310877120761227 0 0.970592977695604 0.7609481014153444 0 0.9678792963744358 0.7498462840184723 0 0.9733658425324336 0.7732402077688468 0 0.9782931810811977 0.7856376259904568 0 0.9790589496167615 0.7999186036602696 0 0.9893437381434431 0.8190427880523653 0 0.6328994822674934 0.009910993426371761 0 0.6450543053108616 0.02489077367212423 0 0.6481135841785325 0.03699694729601452 0 0.6512439781362743 0.04887609412056157 0 0.6543425037936934 0.06088295212455731 0 0.6693863143294073 0.07624215561337996 0 0.672472899466722 0.08826879223235889 0 0.6755599322414231 0.1002968063419534 0 0.678647087992726 0.1123263368703648 0 0.6817341722253647 0.1243569605244538 0 0.6848214572751873 0.1363871613413064 0 0.6879112865733426 0.1484169045458023 0 0.7029587692134966 0.1638020954197519 0 0.7060455575219434 0.175840908853207 0 0.7091328689234396 0.1878502623138665 0 0.712158782121438 0.199886233848102 0 0.7152676800260704 0.2119051496831532 0 0.7183957269292641 0.2237602973733246 0 0.7342652210219607 0.2385692755228874 0 0.7372136844169672 0.2503213508445965 0 0.7678807846180246 0.280031411641413 0 0.7952780557161948 0.3436447459009926 0 0.8258541916262795 0.4194792314164816 0 0.8289486999329051 0.431559142587541 0 0.8564556095979081 0.4953332947264794 0 0.8901596889742934 0.5833502650125373 0 0.9210344152216873 0.6590979283147701 0 0.9465306036396546 0.7101827692276256 0 0.9594478617263672 0.7244186372986317 0 0.9642746600399761 0.7402524375150795 0 0.9794512262882973 0.8134949513180063 0 1 0.8249999999995392 0 0.7523158276100148 0.2652169368045542 0 0.6277777777768813 -1.735268457475883e-19 0 0.6334313735721494 0.02152350213771248 0 0.6574292037826382 0.07290146719922297 0 0.691000270514564 0.1604515114132657 0 0.7217386062929975 0.235388271715826 0 0.7401810231843858 0.2622505118508447 0 0.755707047864716 0.27699128696673 0 0.7709016334387495 0.2920221289386871 0 0.7739956639936056 0.3040877937119678 0 0.7770901350977583 0.3161523379652521 0 0.7801837921307033 0.3282208640278413 0 0.7832786241683657 0.3402901855266569 0 0.7983725509288673 0.3557141776890754 0 0.8014678707276492 0.367784842736367 0 0.804562099591554 0.379862249746612 0 0.8076539815328425 0.391963177141947 0 0.8107502509769122 0.4040441955019382 0 0.8138466494227224 0.416122088012119 0 0.8320470974158282 0.4436382412761891 0 0.8351469436680177 0.4557182998080844 0 0.8382413673911886 0.467801891857433 0 0.8413459163199921 0.4798827465356889 0 0.8444401210215171 0.4919703952629704 0 0.8595464807627373 0.5074319957671805 0 0.8626405578058799 0.5195272823753754 0 0.8657353803755238 0.5316218846500242 0 0.8688364466628312 0.5437108240545094 0 0.8719355533204732 0.5558020377057405 0 0.8750354699166275 0.5678939282784923 0 0.8932565074560789 0.5954206657743534 0 0.8781352018625965 0.5799866728827402 0 0.8963779707178076 0.6074613477779106 0 0.8994951916691809 0.6195117799307109 0 0.9026279068443476 0.6315821976663236 0 0.9057137121715786 0.6436856735740757 0 0.9088303400638669 0.6557780552688269 0 0.9241642744642229 0.6711912451855488 0 0.927441517228995 0.6830898767303341 0 0.931297238604722 0.6948356154578583 0 0.9345145210785383 0.7068387156161962 0 0.9494078773531901 0.7222341479014335 0 0.9544136384751747 0.7342664849839832 0 0.958947596175126 0.7585898862527056 0 0.9620528320083312 0.7706940646215819 0 0.9558401014000657 0.7464875278288873 0 0.965189516564727 0.7826850139556102 0 0.9682625073269286 0.7949044243895239 0 0.9699517162235755 0.807698628499986 0 0.9880714028062195 0.8325820583806219 0 0.9784399248347836 0.8247622143652172 0 1 0.837499999999572 0 0.6215740740731995 0.008055175217386881 0 0.6226142038960264 0.0180938620688913 0 0.6361820646564726 0.03356627381318163 0 0.6392711019746994 0.04556180766171269 0 0.6423721780043616 0.05756230932286555 0 0.6454708418246391 0.06956858861135319 0 0.6605141379895645 0.08492789248819357 0 0.663599703842556 0.09695538599373303 0 0.6666858504648306 0.1089843593450374 0 0.6697719866348468 0.1210147292782463 0 0.6728582300197523 0.1330455231957331 0 0.6759452704761689 0.1450762124186343 0 0.679033399069421 0.1571077154945334 0 0.6940875928406873 0.1724879270589797 0 0.6971808192027303 0.1845006656329616 0 0.7002847156865847 0.1965122111781367 0 0.7033864572632745 0.2085477570469879 0 0.7064153551990099 0.2205298480698057 0 0.7093481371123725 0.2322685480702492 0 0.7251892022342941 0.2470677743714658 0 0.7282605048286239 0.2589625665042097 0 0.7589701687277843 0.2887390904200744 0 0.7863730864403401 0.3523590687685438 0 0.8169419903327135 0.428204402737867 0 0.8200400063852362 0.4402810148711783 0 0.847523074848482 0.504076649777271 0 0.8812296776248162 0.5920714774787971 0 0.9119307235306076 0.6678777359306102 0 0.9375977974664358 0.718919471965206 0 0.9712366983778747 0.8185555446884245 0 0.9906477732677827 0.8445922406344951 0 1 0.8499999999996051 0 0.74356005992052 0.2739601111567952 0 0.6153703703695189 -2.575902896010745e-19 0 0.6242352866541993 0.03023208178543004 0 0.6485555444517245 0.08158975100187409 0 0.682119195352514 0.1691340445630265 0 0.7127798271506333 0.2439429225316203 0 0.7312891245930947 0.270954331678282 0 0.7468570075358374 0.2857097743365724 0 0.7620012229642212 0.3007367759717634 0 0.7650951359741963 0.3127993202215065 0 0.7681845689731212 0.3248709083825215 0 0.7712766237508569 0.3369392146454758 0 0.7743669281308972 0.3490101848048188 0 0.7894665955959977 0.3644283398980381 0 0.7925605347140381 0.3765049225284721 0 0.7956508702894823 0.3885885475950587 0 0.7987399126307647 0.4007010658305492 0 0.8018397670758581 0.4127641003252865 0 0.804927654979876 0.4248591250475229 0 0.8231375721857312 0.4523597288020064 0 0.8262349832448022 0.4644409544149517 0 0.8293322878506976 0.4765232814693604 0 0.8324290140989218 0.4886056455455083 0 0.8355200236165263 0.5006958774217991 0 0.8506196453278211 0.5161707871123564 0 0.8537154832626067 0.5282630405248523 0 0.8568150370919319 0.5403510740319905 0 0.8599142397146884 0.5524402686504164 0 0.8630130229554713 0.5645314053065731 0 0.8661119371524844 0.5766234975473824 0 0.8843502807561148 0.6041184389066826 0 0.8692102844146496 0.5887171935997995 0 0.8874769399148976 0.6161524228684202 0 0.8906009703727326 0.6282188527704177 0 0.8937014800555627 0.6403160839371616 0 0.8968020151655021 0.6524139774564934 0 0.8999027144968869 0.6645120966550432 0 0.9151000786004261 0.6798447513488236 0 0.9187428928441773 0.6916687293709868 0 0.9223364068210025 0.7034985055127848 0 0.9255641835831939 0.7155574387039814 0 0.9407026607137966 0.7310224368142284 0 0.9438070883495552 0.7431251251774407 0 0.9500171996973843 0.7673308758017995 0 0.9469119119964161 0.7552279425491782 0 0.9531217935239413 0.7794353514354065 0 0.9562262923570334 0.7915404539521279 0 0.9593326025556926 0.8036397354759474 0 0.9618430231784063 0.8158301121439044 0 0.9766309640396392 0.8343232882866382 0 0.9664430232638653 0.827904153665508 0 0.9807351507939907 0.8432733432632511 0 0.98997504128936 0.8566591596657429 0 0.6101777611949745 0.01195742888136329 0 0.6125724222821762 0.02634951219338904 0 0.6273157036641835 0.04224789329029326 0 0.6304003549142615 0.0542471644576978 0 0.6335042873826039 0.06623724896131088 0 0.6365908674680456 0.07825596745296629 0 0.6516389300558404 0.09361846658765569 0 0.6547243102524367 0.1056456157752451 0 0.657809821486248 0.1176759850863448 0 0.6608964151021089 0.1297039990464647 0 0.6639826087625166 0.1417338823975297 0 0.66706902355828 0.1537650126091844 0 0.6701528124041506 0.1657950698864878 0 0.6852134292947681 0.1811499193124405 0 0.6883137267366248 0.1931691413690544 0 0.6914135337793491 0.2052022703477761 0 0.6945016101562584 0.2172434381131769 0 0.6973386085900362 0.2291073032629046 0 0.7002620726329293 0.2409409607609327 0 0.7162896978443909 0.255645943225372 0 0.7193708532760185 0.2676683592985283 0 0.7500910739195428 0.2974717860349871 0 0.7774620974788817 0.3610764831781788 0 0.8080212134790489 0.4369467157599527 0 0.8111252619564088 0.4490090355122221 0 0.8386020723670989 0.5128104089723567 0 0.8723134583021565 0.6007851069317777 0 0.903014064941468 0.6765889280400095 0 0.9286688377955886 0.7276596834450415 0 0.980913298767557 0.8523901885552486 0 1 0.862499999999638 0 0.7345279116801507 0.282629336206846 0 0.6029629629621372 -2.224571301482571e-19 0 0.6153685706866495 0.03891337235804023 0 0.6396777254851996 0.09028608233672365 0 0.6732428495037116 0.1778165437432451 0 0.7040673009629111 0.2524064073738263 0 0.7224045510288668 0.2796648737714247 0 0.7378844921333032 0.2944027137488787 0 0.753102350618884 0.3094474513749116 0 0.7561780407626656 0.321550932051022 0 0.7592659640498244 0.3336133241939779 0 0.7623475144637055 0.3457080152851136 0 0.7654446090067005 0.3577787544844938 0 0.7805613174758451 0.3731422879301068 0 0.7836493611402805 0.3852275906000374 0 0.7867402486867934 0.3973365849611256 0 0.7898206546847782 0.4094741039648058 0 0.7928886076635989 0.421576339885571 0 0.7959819088407315 0.4336485724370441 0 0.8142237580825002 0.4610818162195173 0 0.8173200865304588 0.4731640997020443 0 0.8204168819851337 0.4852465740234713 0 0.8235125038310732 0.4973277736432637 0 0.8266033110359766 0.5094216453979636 0 0.8416994339473233 0.5249019940358196 0 0.8447959152354896 0.5369902656684433 0 0.8478942914803866 0.5490785399213998 0 0.8509924240178756 0.5611685484263469 0 0.8540899705350941 0.5732603998630468 0 0.8571884591086837 0.58535324584279 0 0.8754482586066016 0.6128271627757359 0 0.8602832942620858 0.5974195726785395 0 0.8785704922438938 0.6248649741232346 0 0.8816747169949708 0.6369526192546097 0 0.8847748605252634 0.6490501292516777 0 0.8878747561024373 0.6611480749109913 0 0.8909760581304299 0.6732423674096973 0 0.9063555556587273 0.6884410988141988 0 0.9099265601511931 0.7003025283619227 0 0.9134871752550359 0.7122668540969693 0 0.9166277383577044 0.724308491772128 0 0.9317733663099015 0.7397624056304107 0 0.9348777986320143 0.7518649470600618 0 0.9410866188013165 0.7760714952285593 0 0.9379823124654093 0.7639676277519882 0 0.9441906716840635 0.7881763125551694 0 0.9472967194792626 0.8002748999497367 0 0.9504125445559056 0.8123607524571066 0 0.9536752951370522 0.8244677682313295 0 0.9685415664210848 0.8404663471391833 0 0.9718024057811893 0.8520157105590576 0 0.9893585753409183 0.8688289881822957 0 0.9777624066174768 0.8626776603570935 0 1 0.8749999999996708 0 1 0.887499999999704 0 1 0.8999999999997368 0 0.9901504819086443 0.8937555315026657 0 0.989440286238073 0.881250000002827 0 0.5964026079474412 0.01032653566646274 0 0.600844133503606 0.02159365949789747 0 0.6035522917339061 0.03509392938317935 0 0.6184515626558574 0.05093144355830332 0 0.6215323759908794 0.06293210293386728 0 0.6246246422853377 0.07494220115233564 0 0.6277066279186726 0.08696089553980776 0 0.642760605154485 0.1023159900923339 0 0.6458460414655756 0.1143410531507937 0 0.6489343249976895 0.1263661539222816 0 0.6520213051126816 0.1383919078832816 0 0.6551066215312927 0.1504217078588311 0 0.6581915347032419 0.1624537092793619 0 0.6612744429224032 0.1744837672111637 0 0.6763358720261624 0.189835688849327 0 0.6794420321882008 0.2018569964723424 0 0.6825297613160085 0.2138965870053277 0 0.6854907494919034 0.2258341036282684 0 0.6884438490341067 0.237705037587627 0 0.6915916211063509 0.2495785179231123 0 0.7073989745439841 0.2643286368504391 0 0.7104918791027679 0.2763845094912136 0 0.741169750844729 0.3061667824068874 0 0.7685528727793554 0.3698067848026308 0 0.7991052161747253 0.4456890243618211 0 0.8022117062351022 0.457731792359396 0 0.8296903024813688 0.5215394450661685 0 0.8634099151148958 0.6094710241131785 0 0.8941298564104624 0.6852444844496206 0 0.9197401232270964 0.7363996138312013 0 0.9566583407432488 0.8365490139682897 0 0.9899392050990337 0.9062831890118689 0 1 0.9124999999997696 0 0.7257453164399088 0.2913772421999061 0 0.5905555555547556 -2.084376460535988e-19 0 0.60650107750562 0.04759440031457939 0 0.6308044701635431 0.09897557756497723 0 0.6643592462663525 0.1865034852488348 0 0.695021283419615 0.2612986696355986 0 0.7135446528897109 0.2883997740086788 0 0.7289158923796513 0.3030613613080743 0 0.7441851042553594 0.3182010720132766 0 0.7472266513089842 0.3303967481199933 0 0.7503012560796037 0.3425108476533786 0 0.753400449713008 0.3545376292924226 0 0.7565377914743556 0.3665334295437979 0 0.7716555755961937 0.3818583414525049 0 0.7747363036035211 0.3939725486820574 0 0.7778443897719337 0.406055653094245 0 0.7808997879021672 0.4182064628715487 0 0.7839732628343102 0.4302939659520882 0 0.7870603492508387 0.4423472069456905 0 0.8053096544705781 0.4698052426744256 0 0.8084058337289753 0.4818854373082688 0 0.8115017774930759 0.4939693494014041 0 0.8145975836826796 0.5060501672768445 0 0.8176904217961757 0.5181406051916987 0 0.8327801843828785 0.5336288590346098 0 0.8358756745223667 0.5457174644300253 0 0.838973030524652 0.5578059184458461 0 0.8420699184511038 0.5698930182391024 0 0.8451676625396902 0.5819892017878053 0 0.8482586366499396 0.5940737762932754 0 0.8665382074627116 0.6215146602197589 0 0.8513747045169963 0.6061188595335603 0 0.8696489030869656 0.6335897032641784 0 0.8727487807714572 0.6456868580204591 0 0.8758491236266449 0.657783527753358 0 0.878949428547551 0.6698785709814512 0 0.8820534114355022 0.6819593811024794 0 0.8978010834327127 0.6971845942274406 0 0.9012380730669176 0.7090950205032917 0 0.9045984486482195 0.7209300550188595 0 0.9077076616370925 0.7330373055367154 0 0.9228443497760329 0.7485019321245342 0 0.9259485676588377 0.760604346661525 0 0.9290525421974348 0.7727073265097507 0 0.9321562961637123 0.7848110726716113 0 0.9352603391425428 0.7969132907525466 0 0.9383750050094758 0.8089859483485958 0 0.9414936431133872 0.8210873332550914 0 0.944616258646514 0.8331859829118186 0 0.9597648000111186 0.8486495752070785 0 0.9634504419256037 0.8604920149377141 0 0.9786583017313399 0.8762635434155814 0 0.9800364318391229 0.8887853977935875 0 0.9815314932491885 0.9009169620549528 0 0.9900447974762906 0.918465180285694 0 1 0.9249999999998024 0 1 0.9374999999998355 0 0.9895224579855861 0.9298547181611646 0 0.5842235477777177 0.009675746445041013 0 0.5886674194716921 0.01994708170892562 0 0.5916282730708895 0.03166205139833367 0 0.5945733334633225 0.04417512382781607 0 0.6095844220218248 0.05961417122327214 0 0.6126646020954185 0.0716306727518181 0 0.6157490928564066 0.08363631927424366 0 0.6188398518267406 0.09565079272240888 0 0.6338887434156099 0.1110014879121361 0 0.6369754847280249 0.1230253266593765 0 0.6400615029369503 0.1350503920979562 0 0.6431467164953698 0.1470773614877454 0 0.6462290128572092 0.1591097488683159 0 0.6493136790708678 0.1711389650633736 0 0.6523987012605125 0.1831664323433455 0 0.6674659718116269 0.1985209125157071 0 0.6705603099894198 0.2105508212821436 0 0.6736471443656707 0.2225901246072182 0 0.6765947118962189 0.2345717643262337 0 0.6796521826637104 0.2464606951432166 0 0.682797227129091 0.2583777691637708 0 0.6984882924738246 0.2732692635787056 0 0.7016513363770616 0.2851384709038781 0 0.7322133985249425 0.3148051642930416 0 0.7596530490572404 0.3785208910119296 0 0.7901941043524017 0.4543792907198528 0 0.7932910212451519 0.4664538924329256 0 0.8207623818853448 0.5302685385899758 0 0.8545015675388244 0.6181607825396999 0 0.8853264935250028 0.6939172966863366 0 0.9108116066254668 0.7451392143839179 0 0.9477283073408278 0.8452854957693493 0 0.9659831296589776 0.8728526442394987 0 0.9831890707248954 0.9124543356150444 0 0.9896640293834384 0.9425917265824297 0 1 0.9499999999998684 0 0.7166913998330539 0.300093138706478 0 0.5781481481473867 -2.204492761390973e-19 0 0.5976376834585378 0.05626091795634527 0 0.6219282107778076 0.1076682279058656 0 0.6554943310226763 0.195190322910049 0 0.6862389845326936 0.2701763736729998 0 0.7046260685113624 0.2970732416774874 0 0.7200238634394978 0.3118265699559178 0 0.7352857408689363 0.326909849121138 0 0.7383214640639638 0.3391168337255453 0 0.7413908062406431 0.3512065859343396 0 0.7445084553514006 0.3632275379041439 0 0.7476234840023649 0.3752233727962589 0 0.76273072929305 0.3906295977291933 0 0.765814365625981 0.402744066745833 0 0.7688912617673351 0.4148551909617127 0 0.7719727995104979 0.426946762806081 0 0.775062491588661 0.4390077632078833 0 0.7781599696121395 0.4510659063948126 0 0.796396272338581 0.4785219213768027 0 0.7994903295560266 0.4906054366714659 0 0.8025856399538676 0.5026894250221866 0 0.8056824999780549 0.5147716550799702 0 0.8087737415649244 0.5268546458596891 0 0.8238615044042895 0.542348846408604 0 0.8269574543172001 0.5544210370199518 0 0.8300501330924523 0.5665073793485028 0 0.8331465561506787 0.5785972994697292 0 0.8362427839868617 0.5906905416331464 0 0.8393364295095714 0.6027579965952696 0 0.8576243702442177 0.6302269477821831 0 0.8424617024820991 0.6148388733917172 0 0.8607238816551112 0.6423224985000177 0 0.8638235579478887 0.6544195537665624 0 0.866923357865273 0.6665179795890079 0 0.8700222752599429 0.6786147389387569 0 0.8731543210874667 0.6905938019921009 0 0.8889926192306213 0.705798068038205 0 0.8924891067094922 0.7177156805805676 0 0.8956717283881575 0.7296709251342693 0 0.8987797872326488 0.7417761024640689 0 0.9139154705566502 0.7572414374687138 0 0.9170193528522935 0.7693435095075783 0 0.9201232243122662 0.7814448190874498 0 0.9232267838598688 0.793541092693782 0 0.9263412994189136 0.8056244508832049 0 0.9294711157281726 0.8177162182515434 0 0.9325774999745634 0.8298205292718461 0 0.9356927216216205 0.8419217919881434 0 0.9508327361001444 0.8573873578967736 0 0.9539328204342115 0.8694820322976587 0 0.9688380720187409 0.8845848586408663 0 0.9715510365865283 0.8968584531995104 0 0.9740673233100506 0.9091296069741239 0 0.9784017778987184 0.9212825182736423 0 0.9795086187939495 0.9347366452623879 0 0.988043778428384 0.956199992370525 0 1 0.9624999999999012 0 0.5719499050392246 0.01023333040023989 0 0.5773294809025995 0.01876798104379689 0 0.5798495033650205 0.02916106173481437 0 0.5826213897732684 0.04085076481267313 0 0.5856835004304028 0.05292959814828196 0 0.6007173350013002 0.06829564842149013 0 0.6038007292610151 0.0803154702136931 0 0.6068804233581189 0.09232520827420623 0 0.6099702858858956 0.1043385277753529 0 0.6250185790313918 0.1196839036106342 0 0.6281037165209327 0.1317089692624575 0 0.6311886069954624 0.1437347479229836 0 0.6342729440267196 0.1557613327659008 0 0.637353125525712 0.1677930728670437 0 0.6404389199155253 0.1798170620966741 0 0.6435253838013225 0.1918446065064691 0 0.6585885152334543 0.2072125974780716 0 0.661678608562717 0.2192442308915876 0 0.6647626717407863 0.2312802877323632 0 0.6677379034746384 0.2433104190256693 0 0.6708589717487362 0.255330295965764 0 0.6739787877921951 0.2672910111094536 0 0.6895265935569737 0.2820479768560544 0 0.6927612633526712 0.2938407639727313 0 0.7232889527555785 0.3237402497864897 0 0.7507376871610513 0.3872642756834704 0 0.7812674748575122 0.4631236107804956 0 0.7843616757301285 0.4751886085419151 0 0.8118490500226158 0.5389800003563863 0 0.8455915384550414 0.6268822148377853 0 0.8767703993358169 0.7025178989955972 0 0.9018825023981397 0.753879393924855 0 0.9387967321115634 0.8540267699594554 0 0.9570065574643871 0.8815337364697952 0 0.9805225823692965 0.9465462953839241 0 0.9915243053284564 0.96865138010739 0 1 0.9749999999999343 0 0.7078430128206866 0.3087853776295443 0 0.5657407407400139 -2.299143775126039e-19 0 0.5887664323287575 0.06495656580263202 0 0.6130619593451037 0.1163467776143089 0 0.646621109485414 0.2038691742556197 0 0.677387874960679 0.2790146129893317 0 0.695747543942756 0.3057868044184812 0 0.711138468735323 0.320626472399152 0 0.7263452608115718 0.3357599547062468 0 0.7294112144883391 0.3478672242624228 0 0.7324994013733579 0.3599189804321656 0 0.735598799304675 0.3719452294258789 0 0.738708132479993 0.3839951578412318 0 0.7538067855906906 0.3994025244785018 0 0.7568809747802235 0.4115212275083208 0 0.7599730763935151 0.4235924139931853 0 0.7630671982015124 0.4356614473491686 0 0.7661613107299489 0.4477315122646255 0 0.7692515165045767 0.4597990284631099 0 0.7874666754289597 0.4872526731851278 0 0.7905691337224843 0.499322673439787 0 0.7936698155616109 0.5114088699229065 0 0.7967678627555236 0.5234947196621189 0 0.7998559169292883 0.535578110096108 0 0.814950852697 0.5510397133644439 0 0.8180373828281593 0.5631134575444171 0 0.8211357076557088 0.5751984920971349 0 0.8242371888737298 0.5872880473864801 0 0.8273179371017243 0.5993649343037627 0 0.8304304419456308 0.6114555194909311 0 0.8486984518540583 0.6389603445944665 0 0.8335551843983819 0.6235342102190191 0 0.8517988010002847 0.651052805224238 0 0.8548984156131697 0.6631518974064939 0 0.8579973563319973 0.6752511893247987 0 0.8610962988383432 0.6873467672806691 0 0.864480558477346 0.6990958017382838 0 0.8803305593137858 0.7143579172359972 0 0.8836279520253847 0.7263196709288908 0 0.886744017060217 0.7384179844577844 0 0.8898475541474618 0.7505195840876012 0 0.904986774882803 0.7659806792475798 0 0.9080904396397174 0.7780822498345447 0 0.9111925882120008 0.7901809409683288 0 0.9142989078751476 0.8022728779358921 0 0.9174293666683552 0.8143580482761835 0 0.9205500970883358 0.8264553997932993 0 0.9236570142200091 0.8385577108934996 0 0.9267610381925863 0.8506629495889966 0 0.9419017472082721 0.8661306486280078 0 0.9449981786758913 0.8782216874014955 0 0.960151746104125 0.8937031190764778 0 0.9632463479853445 0.9058128181394158 0 0.9662972904118858 0.9179335494524339 0 0.9690692263184336 0.9301251660511002 0 0.9721548438723907 0.9422391145512278 0 0.9741856165156895 0.9555585688902902 0 0.9804009332876753 0.9682506335298772 0 0.9885832225225962 0.9801157403062908 0 1 0.9874999999999672 0 0.5595370370363453 0.01067270362624106 0 0.5659155388471561 0.01722788746478639 0 0.5681361626213536 0.02658368418558337 0 0.5708025061405958 0.03785027418952917 0 0.5737063548189683 0.04968800570365933 0 0.5767988818204417 0.06165743894186235 0 0.5918496639902867 0.07697551712888297 0 0.5949303425247793 0.08899174153786747 0 0.5980160417984255 0.1010044777176637 0 0.60110126226123 0.1130140062346585 0 0.6161472485862719 0.1283677277856382 0 0.6192317920030437 0.1403932191764569 0 0.6223162597392121 0.1524184830319262 0 0.6253986064025335 0.1644459721191944 0 0.6284816711392879 0.176472612435321 0 0.6315697902122767 0.1884985710818134 0 0.6346559614593216 0.2005276772412279 0 0.6497107605288724 0.2159001230133225 0 0.6527970183240934 0.2279365383381953 0 0.6558819117380302 0.2399700527741002 0 0.6589574396465608 0.2519878764542224 0 0.6620624276065529 0.2640020922823203 0 0.6651073185013364 0.2759858782652148 0 0.6806318096449125 0.29084837601868 0 0.683867417025251 0.3025381616590288 0 0.7143292539909893 0.3324612200340971 0 0.7417979659566191 0.3960797030378769 0 0.7723465617006763 0.4718549381303578 0 0.775453565748355 0.4839159462444155 0 0.8029324330051794 0.5476665691601409 0 0.8366703129508886 0.6356113682632821 0 0.8681245465846797 0.7109554854283296 0 0.8929538209438093 0.7626193458972499 0 0.9298649876705504 0.8627689656598602 0 0.9481046870750364 0.8903306282875377 0 0.9908493236212098 0.9908493236212136 0 1 1 0 0.6990559706529188 0.3175614284233678 0 0.5533333333326755 -2.311092671924995e-19 0 0.5798979081492862 0.07364045266372708 0 0.6041921141868682 0.125026593059864 0 0.6377451737734013 0.2125568732703316 0 0.668419752754733 0.2877115784751643 0 0.6868538241396146 0.3144838326603833 0 0.7022897587522692 0.3293839885654962 0 0.7174221698280372 0.3445179568045161 0 0.7205140741959243 0.3565769888230145 0 0.7236067597000944 0.368637007432535 0 0.7266990573848482 0.3806981621037063 0 0.7297918010704003 0.3927602040002003 0 0.7448870112000031 0.4081592196457963 0 0.7479763690394384 0.4202366159929061 0 0.751068293055473 0.4323066623835052 0 0.7541614063561182 0.4443755051210573 0 0.7572541618622722 0.4564462844767903 0 0.7603466698914655 0.4685172079109154 0 0.7785506668136645 0.495980238811934 0 0.7816568336034526 0.5080558321577915 0 0.7847608665767537 0.5201360032482936 0 0.7878461670026187 0.5322270647206168 0 0.7909433148907158 0.5443002968362007 0 0.8060434601798178 0.5597458227569911 0 0.8091547690149428 0.5718229324893002 0 0.8122586993707225 0.5839058959380242 0 0.8153562148242451 0.595991732288735 0 0.8184555842991578 0.6080781423513528 0 0.82154368583042 0.6201683099580922 0 0.8397735983908419 0.6476969185048743 0 0.8246519447537533 0.6322532635719439 0 0.8428744257335322 0.6597882384456575 0 0.845973682041134 0.6718858164841858 0 0.8490723519345004 0.6839821813599896 0 0.8522522434979797 0.6958660660399737 0 0.8557181819803231 0.7076082365478152 0 0.8716099761108619 0.722991228806622 0 0.8747038551199336 0.7350696023064295 0 0.8778118264794825 0.747165160861902 0 0.8809157366490036 0.7592640236071998 0 0.8960583748029846 0.774719660782067 0 0.8991620447610296 0.7868210329892814 0 0.9022649513039168 0.7989214757283148 0 0.9053667143962939 0.8110126923580041 0 0.9085112710320472 0.8230941696591032 0 0.9116061204528852 0.8352062941772743 0 0.9147124015443757 0.847308670141917 0 0.9178175003757464 0.8594129803060127 0 0.9329691866535361 0.8748742802048248 0 0.9360740732199052 0.8869787985211498 0 0.9512163885532614 0.9024463735254212 0 0.9543150668644113 0.9145542255737301 0 0.9574304735334632 0.9266570507145975 0 0.960534142094655 0.9387574419600945 0 0.9630353410203821 0.9503338684468877 0 0.9686776586804535 0.9684675710971945 0 0.9749495861914173 0.9790241023362777 0 0.9811939558119311 0.98945610233919 0 0.987499999999948 1 0 0.5479058223416858 0.01072817081171049 0 0.5556346954650682 0.02238441881222455 0 0.5587180840114003 0.03439982900794061 0 0.5618015024563231 0.04641530428216173 0 0.5648365625657182 0.05837358329927184 0 0.5679328420931429 0.07035726534917776 0 0.5829809868470279 0.08565912342049355 0 0.5860645999667531 0.09767289536456607 0 0.5891473740398316 0.1096828432815896 0 0.5922347846514179 0.1216934004100707 0 0.6072767325318409 0.137052118155934 0 0.6103608121473042 0.1490766479182674 0 0.6134440339079126 0.1611023776120441 0 0.6165268644739345 0.1731281982556766 0 0.6196112794597836 0.1851553999857957 0 0.6226968646897214 0.197183707113173 0 0.6257820493194518 0.2092134091522378 0 0.6408312805493211 0.2245903315240396 0 0.6439161406909721 0.2366212126529368 0 0.6470058040425065 0.2486478912898245 0 0.6500989244166284 0.2606705313336559 0 0.6531944933089008 0.2726818209380397 0 0.6562895345332435 0.2846927495957334 0 0.6718520987929789 0.2994320179848982 0 0.674967194694837 0.3112280267729052 0 0.7054800698993438 0.3412145721179608 0 0.7328848014514011 0.404823267362336 0 0.7634406687368634 0.4805752507793418 0 0.7665551460798392 0.4926439680178178 0 0.7940432665500424 0.5563801723045602 0 0.8277511598532552 0.6443412578516048 0 0.8593558579102463 0.7196266202010354 0 0.8840245285330546 0.7713604328005351 0 0.9209264341745484 0.8715161889274683 0 0.9391778896456474 0.8990821597928577 0 0.9637701020759675 0.9599435835258876 0 0.690052118331327 0.3262465888488948 0 0.540925925925294 -2.256473561343121e-19 0 0.5710245782912352 0.082336236728457 0 0.5953212550664269 0.1337147847620379 0 0.6288674601564131 0.2212449840096399 0 0.6596632422996453 0.2962435482262408 0 0.6779592254531445 0.32317897160625 0 0.693342287927607 0.3380861152772223 0 0.708525235524881 0.3532259639474178 0 0.7116182660182636 0.365287186754892 0 0.7147081166636682 0.3773454668728738 0 0.7177997381525819 0.3894069439756567 0 0.720891756169121 0.4014697014070125 0 0.7359778850588992 0.416887513823032 0 0.7390709737485169 0.4289526586035977 0 0.7421639232650118 0.4410185412649431 0 0.7452541120767768 0.4530896988886396 0 0.748347155870842 0.4651579202760037 0 0.7514397050030491 0.4772285180822378 0 0.769649742866047 0.5047062708743039 0 0.7727447853503625 0.5167830786620344 0 0.7758274080054426 0.5289083782241176 0 0.7788946400757434 0.5410062821717411 0 0.7820063054998352 0.5530448750714843 0 0.7971464578591203 0.5684613878362745 0 0.8002385722165155 0.5805472480160035 0 0.8033358658458216 0.5926325916044977 0 0.8064333474038584 0.6047189485039324 0 0.8095323452658962 0.6168059488311928 0 0.8126336570404689 0.6288933639793086 0 0.8308516163178885 0.656431760196722 0 0.8157321699678614 0.6409824644386922 0 0.8339509815638944 0.6685234313303218 0 0.8370495424684676 0.6806179667534534 0 0.8401474991179003 0.6927127965746352 0 0.8435364606412349 0.7042303959360996 0 0.8471607580213544 0.716237864976264 0 0.8626742245295748 0.7317171416502825 0 0.8657771508242016 0.7438127497545269 0 0.8688826450760784 0.755907020957871 0 0.8719846257910858 0.7680080166890516 0 0.8871298949734183 0.783459250067895 0 0.8902337859136102 0.7955591883241789 0 0.8933370557698997 0.8076571892792112 0 0.8964479514909949 0.8197535924961807 0 0.8995568693104968 0.8318548051019549 0 0.9026632734675269 0.8439562433442914 0 0.9057661332036102 0.8560603484076542 0 0.9088740074688082 0.8681607591101806 0 0.9240369470451039 0.8836175974734923 0 0.9271412464238015 0.8957216866206085 0 0.9422837307018673 0.9111895139784556 0 0.9453929516168097 0.9232938618955651 0 0.9484974632187018 0.9353968009479965 0 0.9515961406262324 0.9474556761326989 0 0.9544794821811667 0.9593668360508414 0 0.9568504261655707 0.9693557167106921 0 0.9625010910931397 0.9787648356919236 0 0.9687498890657277 0.9891745504589343 0 0.9749999999998958 1 0 0.5348165180096195 0.01047462704212293 0 0.541056383723998 0.02104953742233695 0 0.5467962527619334 0.03145803060179575 0 0.5499618092097386 0.0431671024778818 0 0.5529370316838291 0.05509248340211472 0 0.555989945390082 0.06706811235032346 0 0.5590643072538702 0.07905007640792575 0 0.5741141553610782 0.09433905725203093 0 0.5771972867360392 0.1063502391566131 0 0.5802806588980749 0.1183642836982659 0 0.5833660423027982 0.1303822440806794 0 0.5984059556730867 0.1457373376993203 0 0.6014895052361169 0.1577602181208144 0 0.6045725595849738 0.1697849588308215 0 0.6076550196697658 0.1818113990411607 0 0.6107374220255903 0.1938403220874113 0 0.6138213997510658 0.205869060312806 0 0.6169049548680914 0.2179006833735815 0 0.6319514485628395 0.2332761394254213 0 0.6350348191355768 0.2453042736131976 0 0.6381280441578898 0.2573263856569573 0 0.6412217045880045 0.2693389006527946 0 0.6443449323015288 0.2812593912109567 0 0.6475548571927242 0.2929542667706607 0 0.6629501873835932 0.3079652099606268 0 0.6660246353899979 0.3198732421934983 0 0.6965905185116184 0.3499320619233278 0 0.7239835810942782 0.413533809986423 0 0.7545441404499185 0.4892856220548144 0 0.7576506702917699 0.5013450898832059 0 0.7851329186748993 0.5651018812677151 0 0.8188312291121044 0.6530722769563648 0 0.850548895111178 0.7283541527128364 0 0.8750966264187739 0.7801014610099588 0 0.9119901672892476 0.880256123697674 0 0.9302472119000134 0.9078259578239746 0 0.6812427179616071 0.3349776896456391 0 0.5285185185178921 -2.264314333541876e-19 0 0.5621565481033477 0.09102554351866242 0 0.5864517377763658 0.142400126347351 0 0.6199895632168777 0.2299322007886961 0 0.6509130231406003 0.3047054665703626 0 0.6690922440028525 0.3319015378231427 0 0.6843985441094783 0.3467617905620154 0 0.6996368255494991 0.3619440278452336 0 0.7027185844755159 0.3739936656082775 0 0.7058097445191842 0.3860532425010658 0 0.708900744605317 0.3981135413497692 0 0.7119914604396598 0.4101778093661216 0 0.7270755184496405 0.4255986924301284 0 0.7301672834359015 0.4376637473584462 0 0.7332602755620029 0.4497285020314877 0 0.7363490560829012 0.4617991577548112 0 0.7394431459427863 0.4738628039595437 0 0.7425367667231073 0.4859272567712569 0 0.7607403550571938 0.5134294177130403 0 0.7638252228475559 0.5255447649163968 0 0.7668692058595431 0.5377427302078162 0 0.7699660372238034 0.5497707541480602 0 0.7730760747313303 0.5618079377331129 0 0.7882248104002159 0.5771869228666807 0 0.7913014914644216 0.5892768523413628 0 0.7943977699575538 0.601362993979155 0 0.7974928118732783 0.6134504946764109 0 0.8005936811437212 0.6255375276471153 0 0.803710277478537 0.6376215182282715 0 0.8219298581962254 0.6651632537664581 0 0.8068085077460357 0.6497111127560441 0 0.8250275148617511 0.6772542083212222 0 0.8281759163927168 0.6892362711103245 0 0.8315118709930669 0.7009861154631384 0 0.8352068305521071 0.712898126267042 0 0.8386282070372253 0.7249970328516736 0 0.853750356884705 0.7404531676530161 0 0.8568536963944655 0.7525490307917548 0 0.8599566073752822 0.7646451150962695 0 0.8630629671130615 0.7767404722753342 0 0.8782020381258167 0.7921976368858643 0 0.8813058160646309 0.8042973839863853 0 0.8844106073538756 0.8163972065252824 0 0.8875136855985444 0.8284999033312915 0 0.8906172244775622 0.8406022438527851 0 0.893720891816233 0.8527050983841654 0 0.8968250823111605 0.8648064753299419 0 0.8999462866020256 0.8768970639371451 0 0.915105122146514 0.8923585013519684 0 0.9182095131327578 0.9044626888570662 0 0.9333537669859919 0.9199279479203315 0 0.9364611393446138 0.9320252986831133 0 0.9395726120993533 0.9440786732636247 0 0.9426261114650544 0.9559939700538268 0 0.9451281787769542 0.9677007634241714 0 0.9500065678643611 0.9783964421963568 0 0.9562510169379803 0.9891824831393299 0 0.9624999999998438 1 0 0.5220141312778033 0.01051102417343047 0 0.527954625325212 0.02078663968049385 0 0.5343609423491504 0.03073101342004423 0 0.5384517033537317 0.04023410513724609 0 0.5410916685434379 0.05179834768220822 0 0.544073354864345 0.06376980827729931 0 0.5471271308592894 0.07575553595540666 0 0.550200897311329 0.08772475461753505 0 0.5652495312405252 0.1030144542688324 0 0.5683329623020189 0.1150297116630594 0 0.5714160587908362 0.1270459577967681 0 0.5744993047881158 0.1390627155062211 0 0.5895356912804668 0.1544201308915168 0 0.5926183484649744 0.1664426618749842 0 0.5957036044678489 0.1784417416777573 0 0.5987791102331269 0.1904537319155644 0 0.6018561551725402 0.2024904696516389 0 0.6049440380458673 0.2145513802519401 0 0.6080275283102829 0.2265878232550242 0 0.6230734498256348 0.2419638916990036 0 0.6261595182509189 0.2539894243001715 0 0.6292470321578727 0.2660156946988627 0 0.6323250896577709 0.2780473414070522 0 0.6355188957510743 0.2898218574291141 0 0.6387602970969665 0.3015721734802408 0 0.654052581473949 0.3165486387782637 0 0.657130341433912 0.3285660292666822 0 0.6876512917540092 0.3585949397112947 0 0.715081621210984 0.4222450553727476 0 0.7456418858648832 0.4979936487950267 0 0.7487383768555778 0.5100712162442638 0 0.7761888104579162 0.5738757672248536 0 0.8099094602713411 0.6618004900613473 0 0.8417239662839634 0.7370930889447477 0 0.8661693962289752 0.7888365977799809 0 0.9030638983557746 0.8889946280957278 0 0.9213130370817817 0.9165680271332634 0 0.6722317249280877 0.3436791740313903 0 0.5161111111105618 -2.314428626491497e-19 0 0.5532989777434442 0.09968790680772154 0 0.5775830706783738 0.1510818003611512 0 0.6111115667453827 0.2386186512085607 0 0.642098030585402 0.3133037688585962 0 0.6601738496181409 0.3405698768520413 0 0.6755216894973936 0.3554858295084409 0 0.6907303698563859 0.3706426045070469 0 0.693821503854283 0.3827000070286996 0 0.6969116696718458 0.3947585138012644 0 0.7000020824387533 0.4068206319622896 0 0.7030910498779197 0.4188879886149842 0 0.7181707123041373 0.4343104168685351 0 0.7212614426076064 0.4463744611744719 0 0.7243548613147739 0.458439011310024 0 0.7274476419115397 0.4705047932399525 0 0.7305455158057578 0.4825690271837855 0 0.7336390714123019 0.4946390000002032 0 0.7518224607432288 0.5221807686561518 0 0.7548884415703232 0.5343264844138861 0 0.7579291355767638 0.5464866814727835 0 0.7610208615996049 0.5585360182314246 0 0.7641430878374539 0.5705994841144927 0 0.779271489024246 0.585951464949525 0 0.7823051580358265 0.5980298421467836 0 0.7854575403779616 0.6101074053598177 0 0.788466194647179 0.622204165870483 0 0.7916842886787795 0.6342702760545225 0 0.7947716038398119 0.6463599005586951 0 0.8130065475502644 0.6738910698547952 0 0.797872492322395 0.6584520086549879 0 0.8161021722328695 0.6859803142209721 0 0.8194317963947032 0.697851693258933 0 0.8228901440495182 0.7097193033016783 0 0.8266203662245536 0.7216529254311236 0 0.8297426103043807 0.7337217434964046 0 0.8448269409650103 0.7491877915859342 0 0.8479289393993992 0.7612824077638588 0 0.851031924617157 0.7733770470346307 0 0.8541386222470956 0.7854745960421132 0 0.8692745935990412 0.8009348001547759 0 0.8723778611505209 0.8130355522532142 0 0.8754812321010922 0.8251368050225959 0 0.878584728118607 0.8372384953599219 0 0.8816878325314008 0.8493410659837807 0 0.8847918564152646 0.8614412338609424 0 0.8879023595276995 0.8735326926413304 0 0.8910222046594646 0.8856317047480173 0 0.9061737023783555 0.9010980079242344 0 0.9092775583597895 0.9132037801815706 0 0.9244245312708667 0.9286650280076177 0 0.9275481240117871 0.9407403045890816 0 0.9307240541361876 0.9527507040766713 0 0.9340322951187531 0.9642411826772441 0 0.9362773734668458 0.9768192672182235 0 0.9437499267558628 0.9891746925128394 0 0.9499999999997918 1 0 0.5099048550852263 0.01074365642630496 0 0.5159097135269893 0.0213268977260312 0 0.5222833924445464 0.03126436030148555 0 0.5284939973056104 0.03896336427847939 0 0.5295652670154217 0.04863681794841513 0 0.5322128969993556 0.06047287643905132 0 0.5352092919822811 0.07244703815738647 0 0.5382491394490513 0.08439938533975132 0 0.5413523224993625 0.09634281957780137 0 0.5563850817120514 0.111691744870055 0 0.5594670955640294 0.1237102135757191 0 0.5625497676943256 0.135725498418814 0 0.5656321260434811 0.1477442612358436 0 0.5806657887524473 0.1631013079783103 0 0.5837427581873709 0.1750969678214221 0 0.5868328628067451 0.1870701680567464 0 0.5899029199715621 0.1990965080154468 0 0.592973540770787 0.2111197196878913 0 0.5960629127711645 0.2232131866446774 0 0.5991515529076703 0.2352737004760215 0 0.6141952721741178 0.2506488016233221 0 0.6172825142521807 0.2626775562446715 0 0.6203674406904148 0.2747112275684048 0 0.6233987474818448 0.2866918666827039 0 0.6266947402238713 0.298467224418647 0 0.6297860154811692 0.310272673587095 0 0.6451384164982695 0.3252734121627405 0 0.6482412218362633 0.3372645614375914 0 0.6787764277978646 0.3673893025367759 0 0.7061794742439564 0.4309573073086347 0 0.7367360596954324 0.506714419923138 0 0.739819997984997 0.5188211120531762 0 0.7672308750619231 0.5826655285682648 0 0.8009822560764769 0.6705358640622252 0 0.8328011976776557 0.7458275775727121 0 0.8572439050223601 0.7975723922675769 0 0.8941367791986132 0.8977341715177372 0 0.9123826004406023 0.9253091948269281 0 0.6633744457799889 0.3523501224362673 0 0.5037037037032137 -2.314411544056894e-19 0 0.5444409064314512 0.1083564283258255 0 0.5687146907465582 0.1597624621509079 0 0.6022342982572277 0.2473045120019664 0 0.6330350490957887 0.3220328172116954 0 0.6512858505727707 0.3492686929480939 0 0.6666623005254291 0.3642114356042476 0 0.6818486776358953 0.3793735920750809 0 0.6849247115854401 0.3914052824224038 0 0.6880142435658423 0.4034623033922375 0 0.6911033264719367 0.41552363524936 0 0.6941885158265673 0.4276054715967013 0 0.7092558998363346 0.4430239253654688 0 0.7123516693351115 0.455086385529787 0 0.715454648687972 0.4671484165471769 0 0.7185461380904441 0.479214983497388 0 0.7216416921280487 0.4912817955141643 0 0.7247370718047951 0.5033499830358127 0 0.7428808304927222 0.5309648014761933 0 0.7459418598119534 0.5431151438152898 0 0.7490188372959579 0.5552154947969471 0 0.7521141404109002 0.5672929125902396 0 0.7552104517972987 0.5793695586044246 0 0.7702885562978417 0.5947510771540084 0 0.773380969833368 0.6067841930583435 0 0.7764868372394373 0.6188721271200511 0 0.7795938233206867 0.6309864502387441 0 0.782728407114163 0.6430696836042041 0 0.7858360401165773 0.6551330038046462 0 0.8040822229210453 0.682618914650249 0 0.7889352230541647 0.6672141283702558 0 0.807165819482385 0.6946949586607269 0 0.8106625008814093 0.7065995858289328 0 0.8140015589488268 0.7185762197860683 0 0.8176117201603125 0.7304256698568162 0 0.8208366146484735 0.742306904284568 0 0.8359030779488804 0.757921662729621 0 0.839002094505643 0.770013139338574 0 0.8421046922147591 0.782108323647372 0 0.8452141368510822 0.7942103933752573 0 0.8603467662528193 0.8096724845835751 0 0.8634497041886791 0.8217735778181793 0 0.8665529700692812 0.8338748425315549 0 0.8696558515209231 0.8459762383806521 0 0.8727584105335092 0.8580790068746322 0 0.8758676317329014 0.870175441426115 0 0.8789892570058028 0.8822718461681517 0 0.882102032390951 0.8943705137685785 0 0.8972418202657336 0.9098390238591268 0 0.9003456730626572 0.9219448781032182 0 0.9155066662528958 0.937388888897326 0 0.9186724287595683 0.9494070563538762 0 0.9221774570215358 0.960927828208431 0 0.9260653082794355 0.969940177740213 0 0.9313152038940439 0.9892378571175771 0 0.9374999999997398 1 0 0.4974991058338875 0.01074357712906235 0 0.5036993861661728 0.0214858968539325 0 0.5104134137662549 0.0322338671273721 0 0.5175877512402831 0.04366958623651946 0 0.5201747641710658 0.05712012965627463 0 0.5232674353975173 0.06910904549195097 0 0.5263170865092622 0.08108253228928228 0 0.5294008561175759 0.09303474622387185 0 0.5324892781505254 0.1050125510980039 0 0.5475225251689724 0.1203753442744527 0 0.5506003934540484 0.132404938773185 0 0.5536824254063802 0.1444103533253735 0 0.5567614375339631 0.1564341081123225 0 0.5717871240823463 0.171765268944569 0 0.5748449427074727 0.1837439048893086 0 0.5779383593355012 0.1957211634986338 0 0.5810374915106735 0.2077237952822057 0 0.5841226462535688 0.219792244998412 0 0.5871935467833623 0.2318980387200566 0 0.5902753620873447 0.2439596853392675 0 0.6053184468331728 0.2593348540261798 0 0.6084028791317667 0.2713665165226701 0 0.6114870245517793 0.2834000552706791 0 0.6145225782669508 0.2953554920030207 0 0.6176209870712804 0.307189417479472 0 0.620879483393844 0.3190412680250053 0 0.6362732745643034 0.3339246574236143 0 0.6393525311679827 0.3459628590921359 0 0.6699001705429621 0.3760504146079033 0 0.6972627963881277 0.4396707643772698 0 0.727828025911293 0.5154285811999095 0 0.7308808142799397 0.5276027408327544 0 0.758291604105427 0.5914283079803172 0 0.7920553671203592 0.6792828759563471 0 0.8237649218344939 0.7543977176667603 0 0.8483168374220978 0.8063092209546247 0 0.8852061642357167 0.9064743419782738 0 0.9034504085710806 0.9340506665973067 0 0.923720562776629 0.9795645956501687 0 0.6545822392269525 0.361077969042958 0 0.4912962962957996 -2.308540161134749e-19 0 0.5355869868362907 0.1170577855115793 0 0.5598476080928853 0.16844097088466 0 0.593357282726888 0.2559904520945508 0 0.6241660456967437 0.3308456175201656 0 0.6423974857309966 0.3579659840712552 0 0.6578188303074141 0.3729149754931401 0 0.6729388821784369 0.3880539413476564 0 0.6760279459632332 0.4001100086923138 0 0.6791163156648536 0.4121702555290932 0 0.6821984362968526 0.4242418781066454 0 0.6852684482165783 0.4363087249790623 0 0.70028189390924 0.4517518538660444 0 0.7033870315508108 0.4638126176400482 0 0.7065513880032548 0.4758595152927106 0 0.7096308383485016 0.4879296787683338 0 0.7127254238204728 0.4999972326293259 0 0.7158304553332736 0.512063847294971 0 0.7339387969804819 0.5397381519671287 0 0.737016920962038 0.5518513988361037 0 0.7401100729850032 0.5639333234814492 0 0.7432049780465364 0.576009684491117 0 0.7462997702866082 0.5880871894639074 0 0.7613760965568501 0.6034749958555068 0 0.7644537872491182 0.6155294614742493 0 0.7675809172202127 0.6276338174299471 0 0.7707017466536843 0.6397421266970906 0 0.7738024563734544 0.6518175911570366 0 0.7769060579954756 0.6638847104826987 0 0.795159991317636 0.6913554222460451 0 0.7800070297412288 0.6759797124971348 0 0.7982474115527123 0.7034247742868032 0 0.8015413775837398 0.7154087436859103 0 0.8044564815867427 0.7276183743751089 0 0.8081816157679063 0.7389403348816638 0 0.8118599225942784 0.7505872375313054 0 0.8269803462104655 0.7666567021750508 0 0.8300565172479635 0.7787255821117572 0 0.8331855632296559 0.7908485239755298 0 0.8362879433819573 0.8029458297909807 0 0.8514199870855946 0.8184099676076043 0 0.8545222528763406 0.8305112564076897 0 0.8576244764711923 0.8426128134468919 0 0.8607270842655316 0.8547143718309184 0 0.8638307888723902 0.8668147658597048 0 0.8669381017051622 0.8789135598505807 0 0.870064793868965 0.8910064564418347 0 0.8731710246631598 0.9031095544657404 0 0.8883099043085912 0.9185798239072743 0 0.8914138519111154 0.9306856602687673 0 0.9065619044634713 0.9461610830091473 0 0.9096564966397547 0.9582762690247338 0 0.9144532418487391 0.9704222099170879 0 0.9249999999996876 1 0 0.9191413716211737 0.9895534388790561 0 0.4850926735031789 0.01071632196977994 0 0.4912952739636232 0.02148106283205967 0 0.4978936616037893 0.03185452266155947 0 0.5041001019563216 0.04239934606329802 0 0.5081943976317487 0.05391183611208111 0 0.5113198050432891 0.06576935927046625 0 0.5143871009441884 0.07777321479119637 0 0.5174594288323892 0.08977352212779606 0 0.5205407163022294 0.1017904774389427 0 0.5236325335985784 0.1137765707108308 0 0.5386590096637457 0.1291106933480632 0 0.5417327631574449 0.1411192776830437 0 0.5448075558029984 0.1531252255838753 0 0.547893995575393 0.165119044633997 0 0.5629306739837189 0.1804547673454223 0 0.5659535255329294 0.1924150313822866 0 0.5690964565366576 0.2043744278690985 0 0.5721974161126323 0.216365968284866 0 0.5752709695727937 0.2284327613707747 0 0.5783150048882058 0.2406170913927311 0 0.5813968662666472 0.2526476937849383 0 0.5964397773048793 0.268021739902278 0 0.599523265245566 0.280054097289532 0 0.6026070828072702 0.2920876491545957 0 0.6056906880027723 0.3041217632092716 0 0.6087224776638384 0.3161037157753046 0 0.6119463253542453 0.3278033665762997 0 0.6274364281219853 0.3426756379017423 0 0.6304647816613224 0.3546606106149424 0 0.660997107067399 0.3847484701143276 0 0.688260874297942 0.4483704492072003 0 0.718905705034388 0.5241664197178233 0 0.7219395568142636 0.5363764267968667 0 0.7493747848061144 0.6001483391571639 0 0.7831341330045167 0.6880319818284013 0 0.8143202463053534 0.762874434242317 0 0.8393905466595546 0.8150470026054669 0 0.8762744005904485 0.9152146871765928 0 0.8945134527925321 0.9428136374965906 0 0.9137318772959572 0.9813800256905609 0 0.6455969884104104 0.3697533324193513 0 0.4788888888884408 -2.279919506858177e-19 0 0.526719778670402 0.1257908392754552 0 0.550982126197158 0.1771152836664333 0 0.5844787019266761 0.2646672960695703 0 0.6152514049733584 0.3395797694999295 0 0.6335120266380561 0.3666650793122311 0 0.6488916761234104 0.3816202997090438 0 0.6640404789783453 0.3967652487669153 0 0.6671298573405008 0.4088239843438832 0 0.6702150864105367 0.4208879097072105 0 0.673298925190644 0.4329552715784457 0 0.6763906364113844 0.4450190825779379 0 0.6912508727980268 0.4604628277495458 0 0.6945602837103612 0.4725027757816919 0 0.6976046330408254 0.4846406746166909 0 0.7006624173841486 0.4966578915157638 0 0.7037659109283936 0.5087531818924016 0 0.7069117161178428 0.520780142785854 0 0.725015356790025 0.5484930150414363 0 0.7281067303766477 0.560576527697605 0 0.7312019230905649 0.5726505022255634 0 0.7342967702865137 0.584724613152022 0 0.7373910711286575 0.596797424240194 0 0.752466877049233 0.6122085963089599 0 0.7555666604088919 0.624289667376984 0 0.758682648449459 0.636383071672564 0 0.7617949124745632 0.6484634796701589 0 0.764891206883579 0.6605464793415158 0 0.7679884931332918 0.6726127293358525 0 0.7862421820736508 0.7000840112359329 0 0.7711026177530462 0.6846706296554871 0 0.7893416243955277 0.7121654140201947 0 0.7923488321765101 0.7241113039203321 0 0.7949902062334118 0.7357838779732661 0 0.7993347493842184 0.746919945268918 0 0.8023542374876247 0.7587406212355062 0 0.8173590735229408 0.7750474295794275 0 0.8209998101788553 0.7873266980588356 0 0.8242602785012794 0.7995830600147824 0 0.8273369879447228 0.811684311687462 0 0.8424889502719624 0.8271492291175249 0 0.8455937506280163 0.8392498695019779 0 0.8486961284907946 0.8513506136573666 0 0.8517988034188753 0.8634518412255404 0 0.8549020384594961 0.8755530912591899 0 0.8580091945048013 0.8876516555579838 0 0.8611279106665627 0.8997486895915575 0 0.8642339743319384 0.9118517753699488 0 0.8793780015012248 0.9273203383843626 0 0.8824817347212573 0.9394264051973248 0 0.8975871346530597 0.9550250653619855 0 0.9007410356316016 0.9669546701905795 0 0.9041638958614352 0.9779216790136964 0 0.9124999999996356 1 0 0.9071803143718091 0.9894382049927961 0 0.4726849432193074 0.01058346391888827 0 0.4784253112053202 0.02348767901456496 0 0.4870005652797608 0.03318500040204886 0 0.4938004000348987 0.04084942482361904 0 0.4961227104874659 0.05103973276411738 0 0.4993768404821323 0.06243276414679064 0 0.5024586848845419 0.07444328671773856 0 0.5055352678570989 0.08645471192314859 0 0.5086185308195037 0.09846469681154085 0 0.5116972721965589 0.1104753015963682 0 0.5147786163315818 0.122485745704442 0 0.529796238322305 0.1378253132643756 0 0.5328641538554061 0.1498226717104153 0 0.5359422334339142 0.1618063698149618 0 0.5390334307105451 0.1737840187536957 0 0.5540576951055628 0.1891230941502411 0 0.5571152164023762 0.2010855048820561 0 0.5602454067503959 0.2130471812360453 0 0.5633463126510118 0.2250390083939328 0 0.5664042091600113 0.2371226968945159 0 0.5694570646826924 0.2491967758331934 0 0.5725186839367855 0.2612699343295509 0 0.5875613223796604 0.2767078195447863 0 0.5906439458177652 0.2887413513305097 0 0.5937271889405643 0.3007745644968617 0 0.5968098523556923 0.3128092917533645 0 0.599832908722104 0.3247842158852405 0 0.6031162689394596 0.3364876234711873 0 0.6185231384971327 0.3514256928702059 0 0.6215775310390577 0.3633575126175332 0 0.6521090232802665 0.3934860567068599 0 0.679352168952979 0.45705718688116 0 0.7099747871316708 0.5329251506855187 0 0.713023712643898 0.5451128231223632 0 0.7404809393948408 0.6088727095581931 0 0.7742263182254731 0.6967152716948537 0 0.8047525990266359 0.7713169055332161 0 0.8304458760097636 0.8237900897665579 0 0.8673422274626327 0.9239546046661909 0 0.8855856824352102 0.951532944545013 0 0.6368006906440976 0.3784826846762556 0 0.4664814814811005 -2.16697365913308e-19 0 0.5178597550323287 0.1344961627750571 0 0.5421162348384929 0.1857883403922213 0 0.5755999791199577 0.2733662048273198 0 0.6063202232305848 0.3482406786599763 0 0.6246251620688376 0.3753614610939239 0 0.640027417030876 0.390336278844329 0 0.6551568610459449 0.4055031801697204 0 0.6582308381208898 0.417547601822942 0 0.661313991342545 0.4296080446359068 0 0.6644035880499773 0.4416637713656065 0 0.6674925737701073 0.4537227885803469 0 0.6822495019811616 0.4692064760583951 0 0.6854951873539442 0.4813602225378859 0 0.6886173485787208 0.4934561617339878 0 0.6916271623944358 0.5055574175404824 0 0.6948965883096055 0.5174636403753725 0 0.6979645220843282 0.5296009010485839 0 0.7161035323312647 0.557225024013995 0 0.7191995473085225 0.5692941472667566 0 0.7222952189291577 0.5813659790447562 0 0.725390734912665 0.5934393640592563 0 0.7284865965911725 0.6055128870638798 0 0.7435822976187568 0.6209475131672643 0 0.7466863702588699 0.6330243748398939 0 0.7497833539252667 0.6451038335096323 0 0.752879246802843 0.6571855129087708 0 0.7559736137902568 0.6692572501894979 0 0.7590798243650752 0.6813196633842836 0 0.7773240455675295 0.7088035243688445 0 0.7621940012587803 0.6933772726173194 0 0.780421254287487 0.7208917755976544 0 0.7833420489721531 0.732799637869859 0 0.7866177242021791 0.7442470730037756 0 0.7900548156060018 0.7552327852535429 0 0.7929054009648443 0.7674322126980889 0 0.8082780943712005 0.7836389073878337 0 0.8120485807234012 0.796034351268238 0 0.815304266104761 0.8082860854963932 0 0.8183330170110227 0.8204538024505932 0 0.8335612883725054 0.8358871888158531 0 0.8366652038586335 0.8479879476689703 0 0.8397680178313259 0.8600881045429479 0 0.8428703309005935 0.8721894856550491 0 0.8459751330653265 0.8842896454490025 0 0.8490817532396929 0.8963898684912119 0 0.8521901825006405 0.908490137277178 0 0.8553043358982126 0.9205897106556613 0 0.8704461487840457 0.9360604569825938 0 0.8735494773101092 0.948167464117324 0 0.8884772333248537 0.9643999587121722 0 0.8913512526395999 0.9768701624122282 0 0.8942933347236598 0.9890748667437749 0 0.8999999999995836 1 0 0.4602773066287014 0.01005916545107347 0 0.4652421967925594 0.02069012436578054 0 0.4776866993546273 0.03585170596574634 0 0.4838849608471559 0.04576852222707146 0 0.4874075532645864 0.05920227683658238 0 0.4905172973714608 0.07110730574419752 0 0.493598507619768 0.08311626966774445 0 0.4966792542029467 0.09512718140810041 0 0.4997596598281172 0.1071359743405925 0 0.5028415059645639 0.1191477443635462 0 0.5059219233701624 0.1311579831226766 0 0.5209383000021465 0.1464995218339424 0 0.52399411203607 0.1584824961131114 0 0.5270815501762695 0.1704657962978076 0 0.5301715338366585 0.1824499763259968 0 0.5451823642903639 0.1977741965703846 0 0.5482852350306491 0.209748434676181 0 0.5513918241247496 0.2217103870543617 0 0.5544766807514815 0.2337172247443689 0 0.5575233112222681 0.2457737467878956 0 0.5605946580324978 0.2578469108413015 0 0.5636526109315058 0.2699462940139856 0 0.5786822648631194 0.2853962278495089 0 0.5817650509664719 0.2974273395008264 0 0.5848515828139971 0.3094293750339898 0 0.5879184127231031 0.3214099157274904 0 0.5909069918517077 0.333337917752602 0 0.5939635455184521 0.3451580715218636 0 0.6096122479701821 0.3600182269958997 0 0.6126925179727246 0.3720547075916381 0 0.6431988675188234 0.4021910875667583 0 0.6704603124177826 0.4657020810345651 0 0.7010310932415802 0.5417410059798895 0 0.704100092181263 0.5538793591800077 0 0.7315849886377237 0.6175868644301444 0 0.7653071742255891 0.7054423762856677 0 0.7959260486203062 0.7803466485403873 0 0.8215342067781676 0.8325239305842772 0 0.8584112219085316 0.9326917082809213 0 0.8764708192500396 0.960925799533903 0 0.6278133814959009 0.3871647056590184 0 0.4540740740737055 -2.248368815366154e-19 0 0.4685976116533166 0.03225070585237641 0 0.5090035416493124 0.143168573766531 0 0.5332455695940097 0.194456643993233 0 0.5667252128582891 0.2820513081638787 0 0.5976410922551353 0.3566719895228215 0 0.615741516162743 0.3840601418034159 0 0.631098219703534 0.3990368307769476 0 0.6462398454201816 0.4142052633177379 0 0.6493293871656313 0.4262572287631947 0 0.6524186624121611 0.4383109566956607 0 0.6554945221296249 0.4504682861509199 0 0.6585577003896466 0.4628888512094718 0 0.6734827203533691 0.4780393712676075 0 0.6766042286520929 0.4902626761642874 0 0.6796501604159183 0.5023546132432958 0 0.6827606048886158 0.51436154051113 0 0.6858593856156114 0.5265022374971492 0 0.688952023285592 0.5385669104715285 0 0.7071980360694193 0.5659381540227345 0 0.7102927672181792 0.5780097669983855 0 0.7133874962533584 0.5900820158580889 0 0.7164833116081298 0.6021554310183268 0 0.7195787554228904 0.6142290347200943 0 0.7346795284065679 0.6296648953770535 0 0.7377738500355235 0.6417440948044165 0 0.7408683241933249 0.6538253590168313 0 0.7439635347876313 0.6659068460165884 0 0.7470577182386593 0.6779728130717799 0 0.7501683741872864 0.6900326410294828 0 0.768404284187267 0.7175299925685558 0 0.7532894257875162 0.7020881617607185 0 0.7715012218284776 0.729617765365622 0 0.7744131296045883 0.7415162241915176 0 0.7775713954127021 0.7532299674655513 0 0.7808262313125658 0.7655679691545585 0 0.7839293698237948 0.7773225253384407 0 0.7995937360817358 0.7928226316832094 0 0.8031543072393597 0.8050173943817583 0 0.8060361273496441 0.8172041997614276 0 0.8092980929025411 0.8292379904637528 0 0.8246348778463757 0.8446250320972452 0 0.8277375650537047 0.8567245953219637 0 0.8308400672803119 0.8688252744962753 0 0.8339430850910096 0.8809259980571191 0 0.8370469981741248 0.8930270722616428 0 0.8401513254289362 0.9051288706983246 0 0.8432643972342234 0.9172234644062742 0 0.846375748336098 0.9293174766968485 0 0.8615095132118186 0.9448168887769578 0 0.8645865325711901 0.9570170236522891 0 0.87672266503256 0.9754591915318743 0 0.8812499999995151 0.9891746824527096 0 0.8874999999995314 1 0 0.4478703787691451 0.01043700453555594 0 0.4529548569157568 0.01892977292842295 0 0.4573942335962971 0.02895307673926541 0 0.4717189563034174 0.04394116278877491 0 0.4753764538988651 0.0558142152333379 0 0.4785772458020343 0.0677731385360701 0 0.481658393729166 0.07977998714141742 0 0.4847377565174482 0.09178594416187125 0 0.4878196059051689 0.1037980143713546 0 0.4909003478562914 0.1158103569143522 0 0.4939817862779238 0.12782130912477 0 0.4970626173811062 0.1398311388624286 0 0.5120759914536118 0.1551704771172951 0 0.5151364831435882 0.1671521676898363 0 0.5182221710009678 0.1791360538223867 0 0.5213100154790167 0.1911269445301245 0 0.5363080421403471 0.2064330458975443 0 0.5394216126863018 0.2183967062534274 0 0.5425246490753017 0.2303823905167098 0 0.5456043922213718 0.2423985915899555 0 0.5486697300264626 0.2544215851934846 0 0.5517465473952731 0.266473128889699 0 0.5547910426970418 0.2786368474080557 0 0.5698052408164789 0.2940809577770953 0 0.5728865232313693 0.3061117548928119 0 0.5760153025216757 0.317972360066656 0 0.5789955399599017 0.3299011779889455 0 0.582066735707221 0.3418602824451307 0 0.5852730459545319 0.353677262495401 0 0.6007233897057487 0.3687350128034289 0 0.6038132726491107 0.3807577687583135 0 0.6342980195664043 0.4108949639165339 0 0.661540964337498 0.4747688823600724 0 0.6920865129690876 0.5505717207259738 0 0.6951947687037263 0.5625928002947167 0 0.7226732032037605 0.6263048753790749 0 0.7563880979612764 0.7141684092440709 0 0.787182683981093 0.7899523001463008 0 0.8126054153676967 0.8412615079361162 0 0.8494818707233024 0.9414230271485702 0 0.8676489706720037 0.9684230723188348 0 0.619016153388785 0.3958896363536832 0 0.4416666666663234 -2.410117771051668e-19 0 0.4604782359416209 0.04043001180047745 0 0.5001429564852822 0.1518401866862275 0 0.5243899158308511 0.2031379225279144 0 0.5578500552004875 0.2907346846911006 0 0.588698075907618 0.3654172713616184 0 0.6068597665328298 0.3927594760275059 0 0.6222354792204153 0.4077443123213637 0 0.6373470900099547 0.4229057603838804 0 0.6404348306992678 0.4349589809575568 0 0.6435235089703851 0.4470124210836967 0 0.6465710991854733 0.4592109279707379 0 0.6495615827894828 0.471506381294144 0 0.6645816978426601 0.4869847357969159 0 0.6676748851094189 0.4990368346212327 0 0.6707671871845706 0.5110913345368315 0 0.6738655857134264 0.5231483547398045 0 0.6769506108869394 0.5352045597542118 0 0.6800467066952309 0.547242063523487 0 0.6982915746026365 0.5746533749359807 0 0.701385636994444 0.5867252190015098 0 0.704479820939749 0.5987979701857589 0 0.70757423408498 0.6108714949573053 0 0.7106686748610621 0.622945750546158 0 0.7257652252330572 0.6383850877321194 0 0.7288598191951792 0.6504651099234673 0 0.7319529280230018 0.6625465921804174 0 0.7350440737999221 0.6746239516871178 0 0.7381506646864763 0.686687866419386 0 0.7412569522567493 0.698750611845212 0 0.75948496669836 0.7262557727919918 0 0.7443706250399353 0.7108138286337532 0 0.7625816156910608 0.7383434743534456 0 0.7656785516988504 0.7504309045958422 0 0.7687758398848753 0.7625194577668987 0 0.7718561095805879 0.7746136349470879 0 0.7749510806097377 0.7867054037086525 0 0.7907299828088277 0.8018907390978751 0 0.7937976234227754 0.8139904015159419 0 0.7964634462384038 0.8262020957654083 0 0.8004649213728091 0.8379487594215074 0 0.8157077981566619 0.8533614648411073 0 0.8188100484147345 0.8654617980930165 0 0.8219122630217925 0.8775619029990075 0 0.8250151052383591 0.8896634371687456 0 0.8281186373846612 0.9017640532229428 0 0.8312258603480379 0.9138614289191026 0 0.834338930893416 0.9259531621905317 0 0.8374622156211592 0.9380041587320579 0 0.8524750194006113 0.9537509616988447 0 0.8549566186338261 0.9672146340120299 0 0.8624662981349361 0.9784885244631158 0 0.86936037932858 0.9890325171879973 0 0.8749999999995011 1 0 0.4347591990546095 0.01118784869091584 0 0.4416671598842044 0.01707446876146019 0 0.4452778658236336 0.02636479771740216 0 0.4485460654753344 0.03711104627063678 0 0.4635597417396227 0.05243621015815728 0 0.4666397671674475 0.06444033101597652 0 0.4697198320783545 0.0764455948926487 0 0.4728005238598291 0.0884507788541562 0 0.4758801302725583 0.1004564112312914 0 0.4789604867536529 0.1124722181719201 0 0.4820422166534737 0.1244856644203384 0 0.4851240043012747 0.1364919231556917 0 0.4882046584296966 0.148500683277114 0 0.50321700984685 0.1638419566242429 0 0.5062801251970563 0.175817893370122 0 0.509366934058497 0.1877967935672874 0 0.5124484850143857 0.1997985200819376 0 0.527450369480137 0.2151079986661705 0 0.5305547429412446 0.2270962445154451 0 0.5336430886884984 0.2390886529308717 0 0.5367296508623062 0.2510896147553537 0 0.5398213280715692 0.2630958956744378 0 0.5428974777542955 0.2751337336751142 0 0.5459043564991427 0.2873217788870768 0 0.5609282414011614 0.3027632277226929 0 0.5640521884924209 0.3146325859168795 0 0.5671369960369463 0.3265647879797006 0 0.5701721876219369 0.3385205858328106 0 0.5732791444404403 0.350463734015442 0 0.5764040665327088 0.3624394058135834 0 0.5918239694517664 0.3775422560047861 0 0.5949563220018785 0.389481609348675 0 0.6254107662093388 0.4196026675709408 0 0.6525935301905786 0.4836324574787609 0 0.6831774299099003 0.5592544500194563 0 0.6862779943863555 0.5713143411904271 0 0.7137618996402928 0.6350223504721436 0 0.7474695163118324 0.7228944548026018 0 0.7782441585497107 0.7987471769510431 0 0.8036765808926277 0.8500027643383034 0 0.840664780663382 0.9497538291970917 0 0.6100408911139185 0.40456403223334 0 0.4292592592589891 -2.230864149965306e-19 0 0.4516261340715774 0.04910796654497613 0 0.4912767159428866 0.1605006552154841 0 0.5155200449465038 0.2118007137568668 0 0.5489677601462666 0.2993402683145773 0 0.5796193599185108 0.3745192457320209 0 0.5979740822494893 0.4014536546587444 0 0.613278683432413 0.4164553988865007 0 0.6284542068242402 0.43160463007045 0 0.6315413129287104 0.4436597807348527 0 0.6345918694736497 0.4557843938834154 0 0.6375890379777908 0.468055999312369 0 0.6406080150057515 0.4802764927629224 0 0.6556861895375385 0.495683871858255 0 0.6587783940262304 0.5077410285003492 0 0.6618713408798922 0.5197983647444535 0 0.6649649070545945 0.5318581976777956 0 0.6680501808551208 0.5439144137793838 0 0.6711477796197997 0.5559518923836732 0 0.6893802367692943 0.5833755819188552 0 0.6924778625403143 0.595441079633013 0 0.6955714273557125 0.6075137971837855 0 0.6986652187258227 0.6195871399964421 0 0.7017589964015443 0.6316615709235741 0 0.7168538577859148 0.6471033467975894 0 0.7199444873464916 0.6591861596549851 0 0.7230372318016408 0.6712667271629613 0 0.7261279799140425 0.6833436771410756 0 0.7292344030730973 0.6954027133327071 0 0.7323458847991164 0.7074673659759536 0 0.7505661506212252 0.7349811854885585 0 0.7354524726041235 0.7195411582753838 0 0.7536625697029667 0.7470684042452215 0 0.7567584756900798 0.7591565099172242 0 0.7598543957730122 0.77124613339398 0 0.7629509526805034 0.7833365069927357 0 0.7660505600152876 0.7954228120112204 0 0.7813802824705639 0.8108319216073153 0 0.7843030189019153 0.8229414458363117 0 0.7873652347207388 0.8350775993835688 0 0.7915969606217427 0.8467362061671669 0 0.8067816146403913 0.8621000993335978 0 0.809882162670856 0.8741986863944231 0 0.812983936917486 0.8862994535210734 0 0.8160860774696722 0.8984011870569834 0 0.8191907240305827 0.9104997971217087 0 0.82229878301607 0.9225986255529991 0 0.8254101406697655 0.9346986324599866 0 0.8286218839872072 0.9464159015916292 0 0.8425439837741379 0.9611025361276244 0 0.8497796803244214 0.9793008978154184 0 0.8562485903100845 0.9893417371713552 0 0.8624999999995662 1 0 0.4223376710538557 0.01035574728321663 0 0.4345540376872771 0.02294499784070171 0 0.4365654454360787 0.03387902642041055 0 0.4396923437060379 0.0458183056466088 0 0.4547029505781355 0.0611073424742017 0 0.4577830664781954 0.07311115227092899 0 0.4608636237069993 0.0851153477002994 0 0.4639440689476853 0.09712076519704158 0 0.4670236353919751 0.1091297156006147 0 0.4701013058682035 0.1211365305750134 0 0.4731807361745733 0.1331443894209943 0 0.4762618908584202 0.1451480247444997 0 0.4793366218626737 0.1571492865440273 0 0.4943506322885237 0.172481609881156 0 0.4974285032645365 0.1844609941103191 0 0.5005094272721722 0.1964614150242371 0 0.5035877661653612 0.2084691516150935 0 0.5185989394120771 0.2237992333237927 0 0.5216807642398643 0.2357926205191395 0 0.5247723831475143 0.2477809276305429 0 0.5278619468775122 0.2597741109671721 0 0.5309558618018565 0.271770122729633 0 0.5340050448695142 0.2838152470221555 0 0.5370288219323583 0.2958668613827298 0 0.5520879214358483 0.3112784777724096 0 0.5552210507888675 0.3232136499781756 0 0.5583337120931843 0.3351981009192385 0 0.5613729711394729 0.3472387398969629 0 0.564447580299573 0.3592719147697909 0 0.5675886398946745 0.3712361919858344 0 0.5830501835097516 0.3862855488285247 0 0.5860667372580318 0.398171177618317 0 0.6165036248924631 0.4283193175683284 0 0.6436988337443542 0.4923323015428541 0 0.6742646985299211 0.5679895849334238 0 0.6773712649063875 0.5800344469666014 0 0.7048500925244099 0.643739795391421 0 0.7385517175308048 0.7316195806782737 0 0.7691788924707963 0.8075126258753855 0 0.7947613409326276 0.8587485030602312 0 0.8328042750029482 0.9562074475695773 0 0.8434640275171007 0.9711688505201519 0 0.6011953587296313 0.413304536993685 0 0.4168518518516178 -2.296264021569239e-19 0 0.4260427085732729 0.01912916714509193 0 0.4427728926943756 0.05778600338917859 0 0.4824133388168265 0.1691418029796916 0 0.5066659824876637 0.2204783054179659 0 0.5401002306692343 0.3078684316156227 0 0.5708081542940544 0.3830295598498042 0 0.5890885989835485 0.4101468276257582 0 0.6042859804287114 0.4251975266313471 0 0.6195603282284703 0.4403087654726725 0 0.6226470231120923 0.4523606913262053 0 0.625660350679499 0.4645574286787955 0 0.6286639602642623 0.4768190584596445 0 0.631719493948537 0.488964036509927 0 0.6467894490893159 0.5043890786392093 0 0.6498813123566469 0.5164466866021136 0 0.6529735500097759 0.5285052783753688 0 0.6560648181576407 0.54056588382237 0 0.659154052892805 0.5526277469874941 0 0.6622483216294958 0.5646788820492674 0 0.6804770871856296 0.5920850297856008 0 0.6835701777223072 0.6041559416441046 0 0.6866630292305674 0.6162269811088894 0 0.68975596523727 0.6283013714891784 0 0.6928494506002342 0.6403771936444983 0 0.7079416227760602 0.6558215776114018 0 0.711030171577746 0.6679066042164585 0 0.7141223017128776 0.6799866151366566 0 0.7172172800005543 0.6920683769861596 0 0.7203280190171849 0.704116807107278 0 0.7234400487440241 0.7161796415184012 0 0.7416475234010245 0.7437062229542903 0 0.7265382296580815 0.7282598993266823 0 0.7447450294915583 0.7557881272898551 0 0.7478420758881897 0.7678742420242368 0 0.7509354843493347 0.7799661403828824 0 0.7540416839505141 0.7920500384130497 0 0.7571473028146974 0.8041346411125169 0 0.7723142529205825 0.8194966722092714 0 0.7754715620815839 0.8315172321468471 0 0.7786169232100963 0.8437505899206813 0 0.7827183181272859 0.8554794114537932 0 0.7978517982282368 0.8708346574867537 0 0.8009538177136162 0.8829348003684631 0 0.8040555676469366 0.8950361211016332 0 0.80715681873811 0.9071386132667484 0 0.8102641579151842 0.9192379223135805 0 0.8133714548814909 0.931340713931557 0 0.8164882694161564 0.9434019968749927 0 0.8209499844899083 0.9562503524121568 0 0.8312407421001065 0.9675146185193849 0 0.837490492328729 0.9790101821544822 0 0.8437457238884006 0.9893273799350862 0 0.8499999999996529 1 0 0.410491686378523 0.01065933571225462 0 0.4164272415210066 0.02097839568259648 0 0.4238883011541135 0.02989051038983025 0 0.4277526471242553 0.04258149862821319 0 0.4308444960315569 0.05450200060892094 0 0.4458505822585956 0.06978036785346417 0 0.44892768815491 0.08178003106557248 0 0.4520093991296953 0.09378552793651478 0 0.4550896898996196 0.1057894491056648 0 0.4581666518939476 0.1177955844958796 0 0.4612376876650509 0.1297932476607536 0 0.4643247646037159 0.1417996005440911 0 0.467400559778588 0.1538022655250797 0 0.4704774022279111 0.1658004024412417 0 0.4854938499351182 0.1811198373710346 0 0.4885722344518849 0.1931244563504517 0 0.4916493354456781 0.2051311620235582 0 0.4947264786641671 0.2171391857385424 0 0.5097446590553881 0.2324888841318846 0 0.512812727874245 0.2444795669849074 0 0.515906120342661 0.2564609996258134 0 0.5190062723994362 0.2684384229675085 0 0.5220887159110114 0.2804453659625558 0 0.5251456048949279 0.292466282028134 0 0.5282219846615011 0.3044836321097689 0 0.5432558813746787 0.3198590811194942 0 0.5463758644721214 0.3318544700511573 0 0.549457259407136 0.3438824677885152 0 0.5525312548774336 0.3559144329260188 0 0.5556118934983997 0.367941906569728 0 0.5587791505140338 0.3798097697320948 0 0.5741002528638934 0.3949034181137071 0 0.5771560740260313 0.4068378080791643 0 0.6074874366738188 0.437044089993051 0 0.6348027641252496 0.5010375167108941 0 0.6653654007275889 0.5767034969911186 0 0.6684756484670361 0.5887378938803066 0 0.695940293889638 0.6524578045917586 0 0.7296337396114955 0.7403445521243628 0 0.7602416662632926 0.8161868534477927 0 0.7858292535431758 0.8675022688530766 0 0.5921673783120299 0.4220199567280258 0 0.4044444444442361 -2.302362398413393e-19 0 0.4339219615220477 0.0664755271744539 0 0.4735543989122282 0.1777927145082122 0 0.4978038428477405 0.2291497191226121 0 0.5313059205165321 0.3165022128149597 0 0.5619822095692024 0.3916949600632064 0 0.580229533547175 0.418865867289072 0 0.5953560816964757 0.4339687025458128 0 0.6106424979574722 0.4490788109057784 0 0.613651870112687 0.4612955041584466 0 0.6166964915570926 0.4734341749130286 0 0.6197263907435056 0.485632559745482 0 0.6228169998080989 0.4976862898377655 0 0.6378932398615345 0.5130942394377759 0 0.6409840935716884 0.5251524402733552 0 0.6440750114494306 0.5372114548744039 0 0.6471652054871312 0.5492693044613711 0 0.650255061266816 0.5613186235926931 0 0.6533617888503844 0.5733532626707792 0 0.6715706778896499 0.6007986660037928 0 0.6746628827309156 0.6128677788683994 0 0.6777556337480241 0.6249402525343792 0 0.6808476509979495 0.6370160611715575 0 0.6839406239950934 0.6490939149238043 0 0.6990294195384396 0.6645352940132284 0 0.7021183292228856 0.6766167876647385 0 0.7052099757233362 0.6886978308357288 0 0.7083099280555538 0.7007560384366398 0 0.7114205694307637 0.7128267063938075 0 0.7145259992599189 0.7249008537058669 0 0.7327292107708651 0.7524283213312118 0 0.7176213087530013 0.7369833088192065 0 0.7358319039715256 0.7645012299907811 0 0.7389314907900216 0.7765900604496819 0 0.7420297637929099 0.7886750382315216 0 0.7451360400503521 0.8007650917474219 0 0.7482467070244644 0.8127973483419476 0 0.7635411879414701 0.8278665847045558 0 0.7669406031623764 0.840163014110671 0 0.7704560512440549 0.8525035326935367 0 0.7737720714250093 0.8642296731790023 0 0.7889251991516336 0.879575913784404 0 0.7920261499934579 0.8916722791906387 0 0.7951277180512094 0.9037726558722974 0 0.7982309592378286 0.9158738921795163 0 0.8013362075870246 0.9279758918289548 0 0.8044415313720858 0.9400800973432599 0 0.8077151495593057 0.9516209554953322 0 0.8184719965094667 0.9676625110777332 0 0.8249740132664072 0.978360893978678 0 0.8312437188579808 0.9892834916773321 0 0.8374999999997397 1 0 0.3982138243413652 0.01068764458504585 0 0.4035211201082667 0.02333058101669136 0 0.4119608746169439 0.03009211946147748 0 0.4157172220808835 0.03967080520836738 0 0.41892846947469 0.05118289198895704 0 0.4219986616679356 0.06316777682611416 0 0.4369985264797853 0.07846469638222808 0 0.4400741016016902 0.090451612115163 0 0.4431572224672684 0.1024559624353475 0 0.4462371717512452 0.1144567033355053 0 0.4493130261423905 0.1264553793261961 0 0.4523908260473699 0.1384540639018253 0 0.4554680473440269 0.1504537535323501 0 0.4585451603201771 0.1624534176196676 0 0.4616236822016522 0.1744532406753123 0 0.4766375326354891 0.1897880794700461 0 0.4797141427371363 0.2017916490422675 0 0.4827896003927353 0.213801018651732 0 0.4858625555195352 0.2258124740217682 0 0.5008764641065381 0.2411543408482948 0 0.5039614606901737 0.2531398612856042 0 0.5070484570362386 0.2651188984871161 0 0.5101433072141569 0.2771062168299937 0 0.5132235587095134 0.2891216973813019 0 0.5162994906087016 0.3011375580067361 0 0.5193805072246113 0.3131540444568597 0 0.5344204915248726 0.328511482229043 0 0.5375014635594234 0.3405365719877614 0 0.5405805453539037 0.3525596719629935 0 0.5436593362576456 0.3645888727775776 0 0.5467284009297703 0.3765482432122493 0 0.5499484369590938 0.3884838832279616 0 0.5652213011620957 0.4035607321623653 0 0.5682768563297298 0.4155356989461603 0 0.5985003160050889 0.4459628586164466 0 0.6259066446605752 0.5097418906071939 0 0.6564801631772532 0.5853750004752815 0 0.6595724312692868 0.5974438377831628 0 0.6870306039044169 0.6611695197173567 0 0.7207168442470822 0.7490642227068159 0 0.7515045168045592 0.8243781023373119 0 0.7768944514785062 0.8762070675962514 0 0.8119217647823743 0.9602786155019121 0 0.5832800791837324 0.4308028398319794 0 0.3920370370368669 -2.261732616059621e-19 0 0.4250710045188573 0.07515665934202413 0 0.4647042622889254 0.186452897509938 0 0.488940655632721 0.2378197949246999 0 0.5224679881013709 0.3251695635260886 0 0.5530829877515125 0.4004295805149313 0 0.5713498426145368 0.4275626501330665 0 0.5864152995754747 0.4427849434740277 0 0.6016329980602083 0.4580251636505022 0 0.6046832165668961 0.4701839063464718 0 0.6077586279153683 0.4822512636560388 0 0.6108329267037981 0.4943356788827648 0 0.6139222087177653 0.5063890653984017 0 0.628996564444831 0.5217995313210462 0 0.6320863472967224 0.533858133810119 0 0.635176303944773 0.5459169738156845 0 0.6382633618377337 0.5579664997281313 0 0.6413640633460806 0.5700077172466922 0 0.6444712396040229 0.5820389331426917 0 0.6626647421506623 0.6095108843079615 0 0.6657561885403976 0.6215790008684431 0 0.6688480857510447 0.6336503216998087 0 0.671939105484453 0.6457352829850214 0 0.6750324898744536 0.6578084600737072 0 0.6901205272541135 0.6732458730724487 0 0.6932106178377472 0.6853212118251174 0 0.6963018981312666 0.6973944939842799 0 0.6994112984817847 0.7094662410156236 0 0.7025153349665311 0.7215412214360492 0 0.7056102620533834 0.7336224559866066 0 0.7238216283509491 0.7611412572131466 0 0.7087049589365364 0.7457037675974441 0 0.7269319874286541 0.7732214924808417 0 0.7300316541589509 0.785309577964353 0 0.7331330861045253 0.7973958290045717 0 0.736237390226944 0.8094881404163514 0 0.7395584286475373 0.8210709287269321 0 0.7550401837903773 0.8365523181597928 0 0.758517710706678 0.848787827038613 0 0.7617052165479898 0.8608994930404436 0 0.7648653002043867 0.8728434594205613 0 0.7799965318966203 0.8883075984775873 0 0.783098570704026 0.9004071550187774 0 0.7862002778060254 0.9125088977658206 0 0.7893041736697888 0.9246111783028343 0 0.7924080784643788 0.9367145263291315 0 0.7957212292923664 0.9483081433028971 0 0.8004506216535225 0.959013344814894 0 0.8124443389704269 0.978523621611999 0 0.8059795783022423 0.9685190156729283 0 0.8187478075534852 0.9891711500764032 0 0.8249999999998263 1 0 0.3858324797383129 0.01049903975304194 0 0.3904440575733109 0.02117868711663253 0 0.4040719726999168 0.03593758719777984 0 0.4070026391001941 0.04785463382687682 0 0.410080328789762 0.05984988881398339 0 0.4131505222619288 0.07183710700268396 0 0.4281483159163652 0.08714496048481207 0 0.4312270734464033 0.09913136834436437 0 0.4343073179340861 0.1111255931611605 0 0.4373853317366622 0.1231218625192604 0 0.4404627667278296 0.1351189802206902 0 0.4435414060899873 0.1471201796043742 0 0.4466186221602875 0.1591201654779722 0 0.449695738060744 0.1711196394193967 0 0.4527738278257757 0.183119673754994 0 0.4677815229984199 0.1984537226539793 0 0.470856845345368 0.2104573732179121 0 0.4739290346318423 0.2224605949106843 0 0.4770021425805859 0.2344663949669565 0 0.4920169733036154 0.249820295029987 0 0.4951015924316488 0.2618000684730754 0 0.4981975041339921 0.2737731642224415 0 0.5012792196189306 0.2857811997774843 0 0.504357945396691 0.2977958350801638 0 0.507437644365858 0.3098110789719872 0 0.5105177986389378 0.3218282513344985 0 0.5255484671238626 0.3371915458072023 0 0.528628776041007 0.349209840831558 0 0.5317086975963879 0.3612300944709738 0 0.5347897730696468 0.3732467841963771 0 0.5378521601204446 0.3852443642201336 0 0.5409617383191593 0.3972304699339119 0 0.5562891970971395 0.4122987453132419 0 0.5594178156847984 0.4242532257160259 0 0.5896369307578287 0.4547516810698394 0 0.617010987911485 0.518445826700388 0 0.6475748788074948 0.5940894523086002 0 0.6506678091255782 0.6061545833174304 0 0.6781228600060017 0.6698819223274706 0 0.7118069266044428 0.7577790831036256 0 0.7432211759339619 0.8331543092621024 0 0.7679666641626415 0.8849426615846484 0 0.5744517156076573 0.4395341723824925 0 0.3796296296294944 -2.26759837825758e-19 0 0.3930625159218659 0.03306570677771739 0 0.4162248445979073 0.08382589598708205 0 0.4558503720926723 0.1951185887940175 0 0.4800790994672893 0.2464674805294839 0 0.5135974153832308 0.3338478094290956 0 0.5440541654248157 0.4093245950074806 0 0.5624691454112006 0.4362571502646749 0 0.5775749706706802 0.4515183548474759 0 0.5926831569612785 0.466878220806031 0 0.5957618363033634 0.4789359833667136 0 0.5988509056175554 0.4909852786817724 0 0.6019396390180504 0.5030360763212416 0 0.6050266822492808 0.515091183930906 0 0.620098636257181 0.5305055227103055 0 0.6231883315792355 0.542564077148762 0 0.6262778967885551 0.5546211401611111 0 0.6293649021304526 0.5666656287005345 0 0.6324736583241369 0.5787046379257696 0 0.6355773345745709 0.5907411983254434 0 0.6537590850409741 0.6182218975720524 0 0.6568492171849222 0.6302955864494132 0 0.6599403440797074 0.6423673461736292 0 0.6630318953598088 0.6544486960100938 0 0.6661242320933901 0.6665229884631135 0 0.6812176803309998 0.6819547839783826 0 0.6843154119534119 0.6940286974743407 0 0.6874052423142962 0.7061065862597989 0 0.6905057274928511 0.7181821619495538 0 0.6936006513318068 0.7302616286695639 0 0.6966954419869624 0.7423398981802435 0 0.7149144795584276 0.7698593603894396 0 0.6997928519764699 0.7544163469462845 0 0.7180200041368566 0.7819471509371296 0 0.7211179919087739 0.7940328267405287 0 0.7242212865972757 0.8061086969680634 0 0.7275659562907161 0.817922740944024 0 0.731353723546103 0.829857298828353 0 0.746635121500086 0.8452850620141291 0 0.7497358346285123 0.8573820139599506 0 0.752836699122544 0.8694798000142219 0 0.7559378577379511 0.8815784345900555 0 0.7710684368413584 0.8970428144588765 0 0.7741702782682435 0.9091439099005739 0 0.777272507927479 0.9212461880896028 0 0.7803747965314144 0.933349336428129 0 0.7836049784625271 0.945784993553541 0 0.7878599629760413 0.9574076604902287 0 0.7935060450088064 0.9679456784260659 0 0.7999539645310431 0.9784245915153224 0 0.8062324441938635 0.9892152345261888 0 0.8124999999999131 1 0 0.3734155673960002 0.01052626882073145 0 0.3781604093713918 0.01972331115935404 0 0.3817245815451916 0.03099025217234886 0 0.3951662106697215 0.04491671882564 0 0.3981562196769756 0.05651950358650955 0 0.4012321119745164 0.06850997594493625 0 0.4043077656849135 0.08049789670533292 0 0.4193025936300196 0.09581160937530118 0 0.422380219835388 0.1078001056849412 0 0.4254588215966411 0.1197899937484539 0 0.4285356583993282 0.1317825446360285 0 0.4316140348917024 0.1437835000219717 0 0.4346933105917639 0.1557919367123375 0 0.4377681201974616 0.1677974734562686 0 0.4408466199975212 0.1797933289543945 0 0.4439216621609011 0.1917896982832017 0 0.4589270505750849 0.2071178598346926 0 0.4619997207369911 0.2191193942141168 0 0.4650702341017622 0.2311156107534545 0 0.4681476695414508 0.2431169945800824 0 0.4831653459048653 0.2584599830669003 0 0.4862564432945124 0.2704338107061008 0 0.4893365124925472 0.2824427006732144 0 0.4924147873862926 0.2944546406588929 0 0.4954920435657686 0.3064695440752939 0 0.4985695432081563 0.3184868129016593 0 0.5016486510231127 0.3305043434585027 0 0.5166769690346035 0.3458679357700959 0 0.5197596413080295 0.357881558097418 0 0.5228436070124045 0.3698963466718785 0 0.525925872142552 0.3819215173609061 0 0.5290107649809478 0.3939483429466316 0 0.5320922595187833 0.4059781751367094 0 0.547578909646517 0.4210391946218259 0 0.5505218015014752 0.4329315792060047 0 0.5806941905276182 0.4635507513374664 0 0.6081143254452909 0.5271470628035303 0 0.6386720037204672 0.6027990964509874 0 0.6417630216722762 0.614865083020929 0 0.6692166579728612 0.678596311454608 0 0.7028982914015699 0.7664981642616491 0 0.7346187391966219 0.8419314684303387 0 0.7590389514677419 0.8936780676601841 0 0.5655749904242052 0.4482490091483026 0 0.3672222222221126 -2.437964251115502e-19 0 0.3834471529347886 0.04204041433721186 0 0.4073829700610849 0.09248507582268241 0 0.4469981362903666 0.2037831729574267 0 0.4712245432904628 0.2551145700308913 0 0.5047274665983685 0.3425220980575107 0 0.5352881292353515 0.4178906319791955 0 0.5535888850697973 0.444950948751158 0 0.5686766971312979 0.4602395716727271 0 0.5837837152140145 0.4755861056272215 0 0.5868715761283424 0.4876346091586617 0 0.589959163871287 0.4996841001453174 0 0.5930466332342726 0.5117346271129294 0 0.5961326995229097 0.5237868243423051 0 0.6112008320511153 0.5392097312041382 0 0.6142910025212036 0.5512694183202635 0 0.6173769304301667 0.5633205592314176 0 0.6204590196464844 0.5753627186493742 0 0.6235810924283408 0.5873885049598534 0 0.6266710663114026 0.5994509352137332 0 0.6448522872576893 0.626940521426665 0 0.6479410505749362 0.6390189701482477 0 0.6510320280995174 0.6510929676658964 0 0.6541240661905674 0.6631651604669577 0 0.6572120400967638 0.6752381389391453 0 0.6723099572676043 0.6906706110489139 0 0.6754040404932641 0.7027458867254428 0 0.6784979593647866 0.7148229578489237 0 0.6815921637737917 0.726901269448946 0 0.6846864929033954 0.7389801634006863 0 0.6877831004511297 0.751059103464419 0 0.7060029834878944 0.7785848635630629 0 0.6908819051947558 0.7631398360024181 0 0.709099634059049 0.7906734646322578 0 0.7121968764927538 0.8027628060332507 0 0.7153223913273371 0.814752302876434 0 0.7189448372023769 0.8266423678142197 0 0.7224507780089726 0.8385585603769963 0 0.7377093125961891 0.8540182924137384 0 0.7408096190240185 0.8661158089763112 0 0.7439098897977421 0.8782141791969938 0 0.7470106148398724 0.8903133383688552 0 0.7621397312174254 0.9057789046210956 0 0.7652410363563205 0.9178809550114031 0 0.7683420194699987 0.9299838544768612 0 0.7713593184488249 0.9424503014301403 0 0.7739093364568553 0.9560354868623593 0 0.7811582748839131 0.9677646945097722 0 0.7874822630728356 0.9783991777291251 0 0.7937485541083138 0.9891720439534089 0 0.7999999999999998 1 0 0.3608479085007796 0.01131711299877281 0 0.3676127635265427 0.01782247771715884 0 0.3703030044900693 0.02751222860728195 0 0.3720130284265313 0.03859520027587125 0 0.3861438485694251 0.05347098695788505 0 0.3893143702554686 0.06518207294431147 0 0.392389705330859 0.07716938448436587 0 0.3954654758041152 0.08915665331702539 0 0.4104585962187604 0.1044721318839799 0 0.4135356957859693 0.1164594701643976 0 0.4166116730328865 0.1284481381775235 0 0.41968853462043 0.1404401583125931 0 0.4227686847967752 0.1524580637203554 0 0.4258400121486872 0.1644656310079318 0 0.428917456653067 0.1764723252016413 0 0.4319961583651856 0.1884630512441475 0 0.4350709360590487 0.2004552211745506 0 0.4500737783079486 0.2157803886781647 0 0.4531453926402894 0.2277770511879484 0 0.4562224116439886 0.2397720439966597 0 0.459301040632043 0.2517692713344745 0 0.4743109604381851 0.2671084938357934 0 0.4773957878761129 0.2791058400284984 0 0.4804738623233195 0.29111402025407 0 0.4835485237545087 0.303129607520328 0 0.4866241922595406 0.3151449809267358 0 0.4897011650666622 0.3271620987833316 0 0.4927796392355965 0.3391792556564218 0 0.5078078051430067 0.3545386219706833 0 0.5108912063184605 0.3665542912937488 0 0.5139741301802073 0.3785756925672443 0 0.5170543689386523 0.3906020498756326 0 0.5201347538285257 0.402629061475935 0 0.5232066680823723 0.4145842383799628 0 0.5386942388617176 0.4297283288645022 0 0.5416493116283405 0.4416322456456528 0 0.5718074038950697 0.4722358832639569 0 0.5992161146797745 0.5358432879331407 0 0.6297686036856589 0.6115087638124783 0 0.6328583781002031 0.6235765477736611 0 0.6603028368800412 0.6873124527341858 0 0.6939851063971103 0.7752234289720538 0 0.7256856239450039 0.8506560311752279 0 0.7501111418865458 0.9024127573310199 0 0.5566774954973006 0.4569406578501483 0 0.3548148148147338 -2.071190435576085e-19 0 0.3743766019829304 0.05018506406561313 0 0.3985400738974395 0.1011416155292536 0 0.4381473909047544 0.2124469167515381 0 0.4623750068412745 0.2637707313727745 0 0.4958588131780651 0.3511960112418183 0 0.5263760513959881 0.4264034637631701 0 0.5447007826515112 0.4536350809124416 0 0.5597921776993845 0.4689387797478878 0 0.5748924209964393 0.4842886285705049 0 0.5779809410172623 0.4963331165484552 0 0.5810677831705686 0.508381808704094 0 0.5841539348325983 0.520430344193316 0 0.5872378793696255 0.5324818820515719 0 0.602302585380859 0.5479025764589115 0 0.6053929321084779 0.5599638040239872 0 0.6084808597926298 0.5720245981158487 0 0.6115707439384881 0.5840701608950187 0 0.6146706446308267 0.5961186201832837 0 0.6177634261798544 0.6081761789319338 0 0.635946101278496 0.6356554454646363 0 0.6390338382828948 0.647738918194722 0 0.6421252564560392 0.6598079093608133 0 0.6452170045904687 0.6718766644240111 0 0.6482901132320422 0.6839554693720692 0 0.6633988806382121 0.6993867844787381 0 0.6664910242320288 0.7114629173212064 0 0.6695836416625208 0.7235409943362369 0 0.6726782136684782 0.7356202606861137 0 0.6757725069197308 0.7477000402641697 0 0.678871178514963 0.7597811815137239 0 0.6970824835608164 0.7873109647675506 0 0.6819665681582381 0.7718648678399211 0 0.7001788645834072 0.79939957498195 0 0.7032749549993951 0.8114896202052984 0 0.7067463382815843 0.8234147207652261 0 0.71022983575955 0.8353485830942866 0 0.7136593875585822 0.8472905404228733 0 0.7287835491629424 0.8627516531166034 0 0.7318827289599946 0.8748495801957397 0 0.7349827327085149 0.8869484823541375 0 0.7380831154407402 0.8990481090807415 0 0.7532123990863507 0.9145139738060688 0 0.7563113074207013 0.9266174609273583 0 0.7594113557692624 0.9387219050694463 0 0.762513424002892 0.950826232190506 0 0.7688187901537931 0.9685605586237542 0 0.7749976575888931 0.978421689301661 0 0.7812462773462383 0.9892050250561503 0 0.7875000000000865 1 0 0.3487024672304909 0.00961453646855855 0 0.3605938600420898 0.02272001837871521 0 0.3608907111744807 0.03405162806172892 0 0.3624778104865815 0.04607150563299525 0 0.3773526941556729 0.06201962441997394 0 0.3804694543989093 0.07383723184031912 0 0.3835529706602607 0.08583487314334486 0 0.3866227433453091 0.0978205092671738 0 0.4016155191364809 0.113127841170954 0 0.4046906681744501 0.1251159060581648 0 0.4077700946688105 0.13710732092931 0 0.4108468151911803 0.14910995486269 0 0.413920276965301 0.1611193897093202 0 0.4169928026755476 0.1731329823671298 0 0.4200724465532995 0.1851398022413657 0 0.4231478287672771 0.1971279316097311 0 0.4262234568039607 0.2091163362564203 0 0.4412188290414987 0.2244420673887522 0 0.444293564146748 0.2364374523460244 0 0.4473686686752525 0.2484346001334344 0 0.4504458975482133 0.2604329581816194 0 0.4654584719106531 0.2757691033486707 0 0.468536342389588 0.2877742692474586 0 0.4716069032098162 0.2997889643018738 0 0.4746793537823155 0.3118054949051017 0 0.4777536449731505 0.3238229908303187 0 0.4808329388980251 0.3358374439718746 0 0.483911253222889 0.3478536318446572 0 0.4989390222270783 0.3632132758918448 0 0.5020207841763359 0.3752322173761081 0 0.5051004714446061 0.3872558541481356 0 0.5081796200180848 0.3992802261218146 0 0.5112320999388896 0.4112643150316155 0 0.5143921211779098 0.4231839939653854 0 0.5296557194702169 0.4383215510821241 0 0.5327423584231462 0.4502965317749544 0 0.5629081883940363 0.4809555255342866 0 0.5903242380607002 0.5445350033681191 0 0.6208629919047068 0.6202238307115786 0 0.6239519385841149 0.6322932487098309 0 0.6513921146494608 0.6960279622515299 0 0.6850655161813525 0.7839494735140119 0 0.7167574590080301 0.85938756324812 0 0.7411878403573792 0.9111467708542669 0 0.7629571282735332 0.9603551012961493 0 0.5477965920554234 0.4656291564653748 0 0.342407407407371 -1.994046754808917e-19 0 0.3530143564989354 0.01807327462199771 0 0.3654799234832248 0.0586218837137873 0 0.3896993062818803 0.1097986976622266 0 0.4292961769625472 0.2211073487201647 0 0.4535225816955166 0.2724333956366229 0 0.4869903125608532 0.3598706167499331 0 0.5176201330753553 0.4350364087028921 0 0.5358203763675203 0.4623261965618888 0 0.5509109479102358 0.4776405565868607 0 0.5660027013299125 0.4929865312904478 0 0.5690900657430625 0.5050310424712725 0 0.5721766924134103 0.5170787603300039 0 0.5752625367721289 0.5291259777524955 0 0.5783477699557024 0.5411758710941273 0 0.5934099960544862 0.5565923505460911 0 0.5964994214192292 0.5686620184573127 0 0.5995871204941837 0.5807331360625035 0 0.6026724140501337 0.5927841665815505 0 0.6057651248767414 0.6048417745176135 0 0.6088592687284524 0.6169071687283577 0 0.6270390376262984 0.6443772826398535 0 0.6301285298777249 0.656450809148615 0 0.6332165689976028 0.6685207123570465 0 0.6362840392987007 0.6805989002320215 0 0.6393762049622485 0.6926720494157017 0 0.65448431217961 0.7081041309837887 0 0.6575765711223255 0.7201811661236183 0 0.6606689595774583 0.7322598393877544 0 0.6637640756326521 0.7443395378233438 0 0.6668589651162719 0.7564209167442597 0 0.6699542835319047 0.7685036316774813 0 0.6881619276925243 0.7960367310649696 0 0.6730499726444024 0.7805881261548203 0 0.6913508658951325 0.8080135108877032 0 0.6947450082441698 0.820134020976398 0 0.6982372074088852 0.8321740080025642 0 0.7016073979250723 0.8440497248998684 0 0.7047297461944665 0.8560252182687982 0 0.7198564049460835 0.8714841434475471 0 0.7229554934716272 0.8835830794096279 0 0.726054958312628 0.8956829768939919 0 0.7291816864837302 0.9077735212126254 0 0.7442874968706964 0.9232481278891183 0 0.7473793177227177 0.9353552758523259 0 0.7504800297077597 0.9474605105744566 0 0.7534251725940094 0.9593434902480454 0 0.7624983285257199 0.9787291794763829 0 0.7565277066789757 0.9694485656891949 0 0.7687491893071283 0.9892372393527079 0 0.7750000000001732 1 0 0.3391021550848177 0.009256432877833693 0 0.341444242668379 0.01906117279318547 0 0.3506804956948796 0.02775324997686077 0 0.349641563684125 0.04163658660886518 0 0.3537072233211103 0.05497438473466773 0 0.3685910003983565 0.07060011318198281 0 0.3716381991537707 0.08254518044253291 0 0.3747112512776865 0.09451261566924359 0 0.377780598531621 0.1064871692006053 0 0.3927741598113565 0.1217850566541891 0 0.3958482730520966 0.1337725290315715 0 0.3989261016790466 0.1457620160521834 0 0.4020001553113355 0.1577625970203685 0 0.4050745483521864 0.1697838807804342 0 0.4081525961912415 0.1818043104202778 0 0.4112283476808819 0.1937985058741727 0 0.4143031389360988 0.2057865220589106 0 0.4173752691940387 0.217774077223627 0 0.4323491826666227 0.233106257944145 0 0.4354207915694497 0.245103725956435 0 0.4385066987931386 0.2570988900233164 0 0.4415831846697041 0.2690983784992254 0 0.4566010203916975 0.2844348388444518 0 0.4596663892697174 0.2964533876546969 0 0.4627366066892927 0.3084680323531488 0 0.4658080281220988 0.3204858046777693 0 0.4688871858220248 0.3324980780086002 0 0.4719652833713383 0.3445120108798457 0 0.4750435566040535 0.3565276448994156 0 0.490069705393153 0.371889285900331 0 0.493148691361014 0.383910505066729 0 0.4962275175729601 0.3959331621777643 0 0.4993031641854139 0.4079524139026217 0 0.5023641418852488 0.4199564701428514 0 0.5055536326896054 0.431859067771821 0 0.5208007035978449 0.4469859285417289 0 0.5238614340565824 0.4589865608257727 0 0.5540240259807641 0.4896492571398187 0 0.5814399216794832 0.5532238091821877 0 0.6119492595412328 0.6289680647273874 0 0.6150438798198655 0.6410237107927965 0 0.6424801276755918 0.7047443590212995 0 0.6761460747931834 0.7926741034838278 0 0.7078300168073649 0.8681180536057728 0 0.7323028059929131 0.919870780061375 0 0.5389223693795318 0.4743305039238651 0 0.3300000000000001 1.170509959489949e-18 0 0.3567878979566065 0.0674527853715981 0 0.3808575374846053 0.1184494824340509 0 0.420435134095574 0.2297634412399586 0 0.4446686252608311 0.2810968489844967 0 0.4781209655397602 0.3685456279604342 0 0.508825815258397 0.4437541968555935 0 0.5269394797621165 0.4710157539318579 0 0.5420223339522759 0.486340116709932 0 0.5571143143744154 0.5016804084783955 0 0.5601995899073722 0.5137280334683654 0 0.5632863539505205 0.5257752842998796 0 0.566373317839776 0.537822860398988 0 0.5694582404348727 0.5498777402476088 0 0.5845220906919198 0.5652903087235893 0 0.5876026049449248 0.5773726416430845 0 0.5906888660136015 0.5894366351865591 0 0.5937781434016033 0.601494730499002 0 0.5968696948560371 0.6135529676563957 0 0.5999592983825229 0.6256133953882633 0 0.6181335118349851 0.6530941947124123 0 0.6212204284862989 0.6651648024573874 0 0.6242966726858565 0.6772335509752831 0 0.6273738327410318 0.6893125810148986 0 0.6304680620759793 0.701386503424134 0 0.6455671547600423 0.7168215967063402 0 0.6486602483382281 0.7288997385813381 0 0.65175491558357 0.7409792162080855 0 0.6548490407268693 0.7530596908222267 0 0.6579424773438229 0.765141989937495 0 0.6610362692221166 0.7772260011699992 0 0.6792414459789555 0.8047619010265633 0 0.664131345618151 0.7893114085098361 0 0.6827278194712746 0.8167026150765225 0 0.6862284273840978 0.8288331252736344 0 0.6895850456746522 0.8406266135344179 0 0.6926987886847441 0.8526791898595728 0 0.6958018732813313 0.8647597818267307 0 0.710929739114744 0.8802148495983813 0 0.7140799320608292 0.8923013500667308 0 0.7172014062297329 0.9044111324339333 0 0.7203868531356574 0.9164593364996356 0 0.7354022300062155 0.9320038366331207 0 0.7384673440067453 0.944116257483382 0 0.7414800216849674 0.9561302012106124 0 0.7444238265181183 0.9677648648753022 0 0.7562492944176619 0.9891741982982465 0 0.7499986160515654 0.978349431190763 0 0.7625000000002599 1 0 0.3297692325813696 0.01233909407916814 0 0.339161105984423 0.0318731256228984 0 0.3439379922864534 0.05252995615478025 0 0.3443959202561271 0.06516031549050391 0 0.3597649190971441 0.07927919821775181 0 0.3628022351590539 0.09120624272071642 0 0.3658707608161035 0.1031817192410884 0 0.3689472119963472 0.1151437172527331 0 0.3839332254296894 0.1304421003444665 0 0.3870045168777444 0.1424270434629489 0 0.3900786835499397 0.1544103779947416 0 0.3931565791176802 0.1664371886269708 0 0.3962325199692253 0.1784561118121835 0 0.3993101634910554 0.1904664249960344 0 0.4023832723232111 0.2024548350735023 0 0.4054564462786525 0.2144425941179193 0 0.4085198329150219 0.2264243174238156 0 0.423485839890669 0.2417652956077014 0 0.4265505495789329 0.2537836705861095 0 0.4296160558044532 0.2657706191398131 0 0.4327077301966397 0.2777706498574546 0 0.4477286411884865 0.2931161825206471 0 0.4507888217494246 0.3051380386606022 0 0.4538638851243169 0.3171497327191111 0 0.4569423848957191 0.3291593258201992 0 0.4600208346718178 0.3411708918715936 0 0.4630986025214828 0.3531844485185728 0 0.4661765518856246 0.3651989292736412 0 0.4811990380799603 0.3805658717516884 0 0.4842768925228613 0.392587403749685 0 0.4873551024003092 0.4046094868365598 0 0.4904340747214549 0.4166336020874475 0 0.4935138291881477 0.4286585259071691 0 0.4967066309650305 0.4405712311735834 0 0.5118975153290581 0.4556426378513694 0 0.5149812245540584 0.4676762825145074 0 0.545135449038907 0.4983459565166942 0 0.5725382847917873 0.5619502344893809 0 0.6030493946355688 0.6376752645284247 0 0.6061401458308936 0.6497380802644294 0 0.6335623951963659 0.7134623367530587 0 0.6672538090521 0.8013007301325823 0 0.6989094926830278 0.8768291212624179 0 0.7234787158039474 0.9285860555024348 0 0.5300318309811581 0.4830159362274459 0 0.3290772530757082 0.02466093080454055 0 0.3369934200862787 0.04454555644399598 0 0.3486136544532022 0.07697744190129391 0 0.3720209736971201 0.1271190678395145 0 0.4115658700288772 0.2384375762906963 0 0.4357912357062229 0.2897709360995165 0 0.4692524809764215 0.3772204464816863 0 0.5000705057244 0.4524373163344633 0 0.5180604275943558 0.4797062657061982 0 0.5331385037594659 0.4950291268935281 0 0.5482237750463034 0.5103822710861746 0 0.551310481084047 0.5224242273825812 0 0.5543964582480745 0.5344715154751151 0 0.557480180372559 0.5465250967027043 0 0.5605586271262311 0.5585980403928961 0 0.5756188890325545 0.5740200910093997 0 0.5786934770458632 0.5860856368210706 0 0.5817809464521533 0.5981439209946462 0 0.5848793115273865 0.6101994894524161 0 0.5879688022732988 0.6222589318911625 0 0.5910572309648243 0.6343201291427999 0 0.6092261702801302 0.6618012064080875 0 0.6123027194409146 0.6738744700255554 0 0.6153777927654951 0.6859488998251253 0 0.6184675842856527 0.6980188514324212 0 0.6215651862804126 0.710093392644928 0 0.6366525934617193 0.7255400398384668 0 0.6397464196090021 0.7376184306237132 0 0.6428400149294764 0.7496984185863226 0 0.6459333341449357 0.7617793744643638 0 0.6490248050908028 0.7738629762247715 0 0.652117181772234 0.7859485393625003 0 0.6705395394386943 0.8130260183927415 0 0.6552120613855676 0.7980349962789602 0 0.6741566169633226 0.8252035158017615 0 0.6775496725330097 0.8373078180295243 0 0.6806770874399575 0.8493014093321006 0 0.683777606672396 0.8613946531596465 0 0.6868762912539328 0.8734921783342501 0 0.7020823955837677 0.8889225161140187 0 0.7052555996524759 0.900993545950433 0 0.7084182607266255 0.9131005001545991 0 0.7116173257118927 0.9251647802699775 0 0.7265271679794718 0.940705339488603 0 0.7295134449420907 0.9528334813123068 0 0.7330616000379109 0.9643524123929296 0 0.7357801114253822 0.9768732251707918 0 0.7434667505525057 0.988945993065416 0 0.7500000000003466 1 0 0.3279250292751364 0.03694827702208751 0 0.3347401126184948 0.05694515355907444 0 0.3391326780870119 0.07613194186283635 0 0.3511418703429098 0.08813048956398063 0 0.3540057509990073 0.09984752609769706 0 0.3570402863962487 0.1118274157105327 0 0.3601131150523846 0.123797449090607 0 0.3750938916552145 0.1390994226445246 0 0.3781652325873305 0.1510786964606353 0 0.381237509590135 0.1630572641638608 0 0.3843160333121002 0.1750982157781115 0 0.3873937722434799 0.1871336005099367 0 0.390468109420146 0.1991264733873335 0 0.3935412937443044 0.2111120877333547 0 0.3966138139121175 0.2230990169225849 0 0.3996606347796783 0.2350890725414969 0 0.4145997219667769 0.2504607277986627 0 0.4176733145610299 0.2624792842545198 0 0.4207590837719866 0.2744600983639096 0 0.4238363662303508 0.2864537369086849 0 0.4388573265965124 0.3017927689092368 0 0.4419262815108281 0.3138106462011961 0 0.4450022533777629 0.3258197415538424 0 0.4480789933408231 0.3378298255332773 0 0.4511552167616346 0.3498420133406195 0 0.4542324922392272 0.3618555392702222 0 0.4573082499699184 0.3738689269637707 0 0.4723276285373786 0.3892424938912951 0 0.4754042445332233 0.401264649859413 0 0.4784815699437565 0.4132877871836254 0 0.4815598850934766 0.4253117602759411 0 0.4846834850346359 0.4372538740131848 0 0.4878151111159151 0.4491205270632144 0 0.503040896838435 0.4643545057481178 0 0.5061014262415939 0.4763654146070262 0 0.5362472492426461 0.5070402004207917 0 0.5636386241550844 0.5706678706108247 0 0.594147055527708 0.6463826350581168 0 0.5972372473940089 0.6584465969864665 0 0.6246532700100641 0.7221780908918056 0 0.6583078562875019 0.8101221172495973 0 0.6900847674367424 0.885558108532705 0 0.7146359119975346 0.9373122600618972 0 0.521144229345357 0.4917142264879906 0 0.3263141726762666 0.04918394769234898 0 0.3324463734731842 0.06920642341299978 0 0.3404340567369659 0.08604007608826353 0 0.3631857239957166 0.1357711503045152 0 0.402694056525544 0.2471226031325425 0 0.4269198450985581 0.2984380391578221 0 0.4603804076345691 0.3858966756378575 0 0.4910742977165529 0.4610611484188473 0 0.509182841136827 0.4883977091344263 0 0.5242499299964523 0.5037183249983144 0 0.5393355666304342 0.5190748002502203 0 0.5424211332070527 0.5311203257693985 0 0.5454977743155988 0.5431886946203242 0 0.5485797906873067 0.5552475258181244 0 0.551656642315777 0.5673197744887337 0 0.5667092708675592 0.582728091537782 0 0.5697885667264537 0.5947857297094665 0 0.5728736735018213 0.6068503595633711 0 0.5759627145530019 0.6189093441729722 0 0.5790556527084911 0.6309680157124509 0 0.5821539972100418 0.6430271135348447 0 0.6003148773523754 0.6705093986446251 0 0.6033803750753337 0.6825889618428255 0 0.6064754530848125 0.6946499426802621 0 0.6095753188326859 0.7067222774001771 0 0.6126686761640906 0.7187924993295053 0 0.6277391596634213 0.7342574646555827 0 0.6308317703743983 0.746336910036031 0 0.6339245859715453 0.7584173163356563 0 0.6370193539181473 0.7704975377423627 0 0.6401028424700106 0.782585377124141 0 0.6431970793734869 0.7946720130941484 0 0.6623549440763682 0.8218288106989685 0 0.646283981627079 0.8067506204948376 0 0.6655595126028755 0.833870759102554 0 0.6686536414681358 0.8459382618409329 0 0.6717527834417284 0.8580313877138478 0 0.674856389731191 0.870118253465011 0 0.678023554864522 0.8821098830082381 0 0.6932660659241537 0.8976392651873311 0 0.6964537023235671 0.9097568978931458 0 0.6995946773064278 0.9218173078804696 0 0.702705773850028 0.9338906742967036 0 0.7176550593377408 0.9494047980558187 0 0.7212896300297387 0.9608074875438227 0 0.7252687991299755 0.9701828939161766 0 0.7312724814196456 0.989279103732696 0 0.7375000000004333 1 0 0.3242469361995939 0.06135083019142082 0 0.3301453215002839 0.08114027143393987 0 0.3424437603574685 0.0968754126792062 0 0.345365880004555 0.1084448389489044 0 0.3482100800789412 0.1204726931285853 0 0.3512811340363867 0.1324432945142711 0 0.3662555218490682 0.147748804771077 0 0.3693270901879637 0.1597257429891764 0 0.3723952279855205 0.1717018103321788 0 0.3754759406592449 0.1837551393796785 0 0.3785535467404739 0.1957834307480586 0 0.3816270146862706 0.2077829188329957 0 0.3846991058454284 0.2197666880657926 0 0.3877674590529224 0.2317464462880495 0 0.3908099428812725 0.2437560619739365 0 0.4057468654615835 0.2591623724344889 0 0.4088202023577094 0.2711528823612001 0 0.4119008334817376 0.2831334176617855 0 0.4149806374153345 0.2951288945546707 0 0.4299923675767476 0.3104663037092921 0 0.4330649370910404 0.3224801738546181 0 0.4361403585886899 0.3344882595647182 0 0.4392241338573389 0.3464579811861538 0 0.4422977861399556 0.3584448371362589 0 0.4453724242118678 0.3704896312465931 0 0.4484425345144481 0.3825584144123491 0 0.4634550474530538 0.3979187924384837 0 0.4665314967013433 0.4099409179735337 0 0.4696072977633231 0.4219656085056807 0 0.4726852167410298 0.4339895175807031 0 0.4758500067631284 0.4458865307561142 0 0.4790133012683389 0.4577662256969692 0 0.4941431903476858 0.4730232718363017 0 0.4972200742699189 0.4850543582696412 0 0.5273590127035681 0.5157324354647964 0 0.5547376407709864 0.5793744216240794 0 0.5852439493842192 0.6550901576016365 0 0.5883312734014995 0.6671526195058485 0 0.6157566397719494 0.7308802662526894 0 0.6494439884507152 0.8187711584729102 0 0.6812667712373525 0.894240590348334 0 0.7057966859784465 0.9459980192998395 0 0.7232614897144309 0.9796680690491063 0 0.5122589100840678 0.5004055582223588 0 0.3217262110703177 0.07343190798513609 0 0.3291143264823754 0.09396084763726845 0 0.3543106052533843 0.144407508554846 0 0.3938320368885389 0.2558185194326243 0 0.4180558771686829 0.3071342515721658 0 0.4515079423880887 0.3945735663926183 0 0.4822023828976885 0.4697180942835936 0 0.5002978002907015 0.4970832777749011 0 0.5153697743449946 0.5124133173805904 0 0.5304470607635047 0.5277703197383071 0 0.5335173437474952 0.5398351983681409 0 0.5365998996586928 0.5519050982231648 0 0.539676749802993 0.5639758109935294 0 0.5427482455171468 0.576031009361705 0 0.5577952682493926 0.5914381108685074 0 0.5608654343948136 0.6035000075233977 0 0.5639558977947037 0.6155608117346391 0 0.5670406986594257 0.6276200084225633 0 0.5701620702629601 0.6396697751500998 0 0.5732499717713107 0.6517344394479658 0 0.5914086239843445 0.6792123966821416 0 0.5944933981510163 0.6912867013921385 0 0.5975859737580671 0.7033554517518675 0 0.6006890394230812 0.7154235265620796 0 0.6037789918971767 0.7275028382479668 0 0.6188432179690286 0.7429603402121255 0 0.6219214275529942 0.7550510177093156 0 0.6250184779840402 0.7671287039101796 0 0.6281120778475506 0.7792114783950657 0 0.6311843834276519 0.7913078360681993 0 0.6342751986831602 0.8033944581721413 0 0.6535337701665914 0.8304820459781573 0 0.6373620505570756 0.8154734613312666 0 0.6566411214392454 0.8425907142690302 0 0.6597317898689806 0.8546734058565758 0 0.6628280724891673 0.8667601391635942 0 0.6659953257745618 0.8787870542284468 0 0.6692854528596218 0.8908595733364035 0 0.6844531593110186 0.9063639322853512 0 0.6875691731625591 0.918429415058062 0 0.6906727611312801 0.930526814536645 0 0.6937759727019498 0.9426297092526329 0 0.7089148660394763 0.9580980312107484 0 0.713696856940062 0.9707333413256846 0 0.7188863259466818 0.9898010745340133 0 0.7250000000005199 1 0 0.318755522742417 0.0854102846336937 0 0.3341401190231298 0.1059052011853115 0 0.3370560059956121 0.1172697018182334 0 0.3393805131288615 0.1291170338400031 0 0.342450190767413 0.1410850486767176 0 0.3574209827680431 0.1563922802853285 0 0.3604899219540236 0.168370340485254 0 0.3635571022881497 0.1803442759883619 0 0.36664106420259 0.1924472040858799 0 0.3697153792311118 0.2044552482925273 0 0.3727869951248391 0.2164355973095893 0 0.3758575900090433 0.2284173196020821 0 0.3789268923128786 0.2403986889153419 0 0.3819684971227241 0.252407702186241 0 0.3969037672684753 0.2678207077427861 0 0.3999721190539305 0.279815630110805 0 0.4030476139732731 0.2918092918940963 0 0.4061232885394058 0.3038046301334704 0 0.4211299379948652 0.3191419425607148 0 0.4242048745393052 0.3311467955909482 0 0.4272916285126392 0.3430976383772253 0 0.430378051638351 0.355051824548002 0 0.4334713453991306 0.3670869102434602 0 0.4365276712546631 0.3792136175885771 0 0.4395675659908409 0.3912329133741291 0 0.4545873889601054 0.4065720606548168 0 0.4576571157111705 0.4186184726520902 0 0.4607335604179288 0.4306423029238944 0 0.4638106738205143 0.442666663239328 0 0.4670128052409429 0.4544754912982352 0 0.470211317678271 0.4663792332582565 0 0.485260020890168 0.481707157909065 0 0.4883274344928858 0.49374461721567 0 0.5184549172285133 0.5244542753114023 0 0.5458048285267761 0.5880869339248704 0 0.5763395235243999 0.6637982099283348 0 0.5794268518248619 0.6758611980082179 0 0.6068713846397357 0.739582190266901 0 0.6404680125934692 0.8275718784864631 0 0.6724366860387507 0.9029690082143113 0 0.696879439785554 0.9547336255016802 0 0.713102365754268 0.9815254945314281 0 0.5033876137780494 0.5091153643105211 0 0.3153390259973944 0.09726920727041344 0 0.3224588761032581 0.1065029717368958 0 0.3452700781036782 0.1530044727771669 0 0.3850074095954525 0.2644428571160166 0 0.4091974394484022 0.31580508459242 0 0.4426483977955644 0.403213602194217 0 0.4733005849482609 0.4783634041394002 0 0.491393528742902 0.5057822944760423 0 0.5064766221457573 0.5211436037038538 0 0.5215387581910055 0.5365071374114924 0 0.5246164420561543 0.5485612441348861 0 0.5277072054018405 0.5606127074570494 0 0.5307704784318091 0.5726715707460374 0 0.5338348211045847 0.5847265260087195 0 0.5488658682097681 0.6001534808914499 0 0.5519541048687846 0.6122115727949919 0 0.5550426624398869 0.6242689301234611 0 0.5581319967917162 0.6363270919506423 0 0.5612551602855161 0.6483801704407962 0 0.5643451512881814 0.6604423906602376 0 0.5825145195486549 0.6879260039744778 0 0.5856147747860302 0.6999951935442058 0 0.5887119882219033 0.7120633512549956 0 0.5918086011847893 0.724132759027993 0 0.5948928306903615 0.7362090455615392 0 0.6099622244225238 0.7516621608762617 0 0.6130513410022594 0.7637457405666125 0 0.616142085478329 0.7758295289399325 0 0.6192080988796251 0.7879208041513101 0 0.6222778112797787 0.800024187065507 0 0.6254273369909098 0.8120697074456922 0 0.644659201407583 0.8392648568807288 0 0.6285311643057258 0.824153796689605 0 0.6477129213836802 0.85131835899407 0 0.6508021989919283 0.8634015731579806 0 0.6539097589652114 0.8754672900218711 0 0.6571545419310028 0.8875212020415142 0 0.6603664658083959 0.8995900806635595 0 0.6755364036896089 0.9150683760332773 0 0.6786397069494496 0.9271650722447852 0 0.6817425266367111 0.9392655894487528 0 0.6848456601173899 0.9513687976505198 0 0.6999717920831866 0.9670595336221435 0 0.7028522074501743 0.9790610262466025 0 0.7125000000006066 1 0 0.70638376887389 0.9905703456612017 0 0.3274639983418128 0.1148949988831531 0 0.3274823605208906 0.1257939046905716 0 0.3309952989264644 0.137409568061685 0 0.3335600343862657 0.1489136593359106 0 0.348586103144606 0.1650388792321921 0 0.3516546055597747 0.1770144247535093 0 0.3547226097387757 0.1889876826443849 0 0.3578051891168669 0.2011112288754783 0 0.3608803887896836 0.2130918500296122 0 0.3639515136047916 0.2250625823726734 0 0.3670155475098543 0.2370665783169958 0 0.3700820733341079 0.2490437161415294 0 0.3731223961147094 0.2610627198051392 0 0.3880544480890029 0.2764749364744526 0 0.3911225352568812 0.2884748655335203 0 0.3941961709734338 0.300468534743877 0 0.3972684764271513 0.3124663762455142 0 0.4122716271653836 0.3278076100227615 0 0.41534883884864 0.339793434737892 0 0.4184595515363886 0.3517028331877127 0 0.42157069207589 0.3636541177459588 0 0.4246814470740561 0.3756674331953723 0 0.4276817908788966 0.3877957194777015 0 0.4307174376002146 0.3997842998680873 0 0.4457243337114118 0.4151670122779577 0 0.4487857370330531 0.4272005868865494 0 0.4518695248979094 0.4392089653440462 0 0.455001846402919 0.4511015870140375 0 0.4581896855124856 0.4630527078247063 0 0.4613411125376051 0.4750224618812321 0 0.4763732189233097 0.4903929536945271 0 0.4794294109456708 0.5024274370102929 0 0.5095539233232406 0.5331905254403008 0 0.536886062682138 0.5968011311515419 0 0.5674344947050629 0.6725070339381456 0 0.5705248192939413 0.6845732728447448 0 0.5980044812072783 0.7482832014619439 0 0.6317014438986621 0.8362544654487644 0 0.6635078940456764 0.9116999471944927 0 0.687948353668098 0.9634735054747093 0 0.4944883854330394 0.5178147196605921 0 0.3114814991161837 0.1089920901182049 0 0.3185620961171061 0.1180648663926701 0 0.3352512797152066 0.1621838526771682 0 0.3761633120892655 0.2730725570548566 0 0.4003421133352279 0.3244621757474848 0 0.4338116448429379 0.4117350243096168 0 0.4644171341419175 0.4870440483039268 0 0.4824956808861007 0.5144743803867246 0 0.4975887448644948 0.5298476562622795 0 0.5126428620271264 0.5452312614759195 0 0.5157330869262975 0.5572659776033697 0 0.518810453890322 0.5693173750211279 0 0.5218745778642944 0.5813657342700168 0 0.5249283928180247 0.5934283621200256 0 0.5399677149357766 0.6088586734417551 0 0.5430560044856718 0.620915384346624 0 0.5461447931759038 0.6329729231876532 0 0.549233654566708 0.6450307142594099 0 0.5523523254041965 0.6570847888916412 0 0.5554393916749003 0.6691514133002167 0 0.5736154955231297 0.6966398697663686 0 0.5767144403874322 0.7087069669019381 0 0.5798118424798697 0.720775784631008 0 0.5829047895642874 0.7328499540534676 0 0.5859985551999201 0.7449250491235204 0 0.6010901278038303 0.7603626369953754 0 0.6041737027718403 0.7724403949686113 0 0.6072431155937943 0.7844872474623553 0 0.6103703431792061 0.7965136697781566 0 0.613615082658404 0.8086276033844004 0 0.616824527486845 0.8206405639228025 0 0.6357297269783578 0.8479953319473467 0 0.6200525018681573 0.8327857402235074 0 0.6387836482697096 0.8600662879361872 0 0.6418851121307391 0.872113285132569 0 0.6450854952774859 0.8841659875781996 0 0.6482847529007414 0.8962572264206063 0 0.6514787353896689 0.9083324519600063 0 0.6666079494052298 0.9237988222228127 0 0.6697094276713104 0.9359014161691622 0 0.6728124258216731 0.9480043134082863 0 0.6760396993712778 0.9598602305765526 0 0.6908498100507493 0.976089627810572 0 0.6930268299490812 0.9892014876093056 0 0.7000000000006934 1 0 0.3214975241460613 0.1358333380195625 0 0.3233494825655864 0.145521874531063 0 0.3262867082736827 0.1560276676095086 0 0.3400768719915069 0.1740180128309076 0 0.3428747819238578 0.1857130421182926 0 0.3458924526185753 0.1976510394373242 0 0.3489653352492973 0.2097475580764516 0 0.3520589267520712 0.2216760302541031 0 0.3551096334432585 0.2336881187236581 0 0.3581707286207462 0.2457114191684013 0 0.3612374974376533 0.2576873873602685 0 0.3642778782342668 0.2696926125558876 0 0.3792040822487202 0.2850885279787159 0 0.3822753180656749 0.2970852580339018 0 0.3853476299607914 0.3090610373000012 0 0.388417135747067 0.3210719784733077 0 0.4034203629436204 0.3364415328804802 0 0.4065207856918477 0.3483687400746698 0 0.4096313379550043 0.3603118996908819 0 0.4127958550346876 0.3722594081740863 0 0.4158781868607521 0.3842475632460838 0 0.4188335198906231 0.3963241993914544 0 0.4218845640335863 0.40832431059069 0 0.4368641901210004 0.4236920915467088 0 0.4399439335163685 0.4357001808365054 0 0.4430345238001993 0.4477087255372889 0 0.4462395575284255 0.4596883412046383 0 0.4493878178303036 0.4716779545106685 0 0.4524475689216625 0.4837084423898043 0 0.467457405803452 0.4990869633937801 0 0.4705094926842417 0.5111265172541897 0 0.5006727916768112 0.5418876134469079 0 0.5279917371050015 0.6055034101661887 0 0.5585297966713693 0.6812168504290177 0 0.5616202581518843 0.693283719108171 0 0.5890924411422435 0.7570016733085365 0 0.6234588398200153 0.8450058319673283 0 0.6545767290224084 0.9204355367634715 0 0.679425462698668 0.9719371113047157 0 0.4856124787812258 0.5265035004745328 0 0.3071883371916105 0.1205625376866856 0 0.3145893475091718 0.1289304509480578 0 0.3228746167341345 0.1650747917844284 0 0.3295915631835991 0.1721859186757381 0 0.3673021221447407 0.2816793015232468 0 0.3914918467041619 0.3330585705808827 0 0.4250113030752469 0.4203121035198961 0 0.4554836720258241 0.4957411112368116 0 0.4735931153342491 0.523169504242602 0 0.4886922060313847 0.5385450203322933 0 0.5037566901736683 0.5539303126999021 0 0.506840826881173 0.565972493976593 0 0.5099231331218661 0.5780165446646888 0 0.5129818305957433 0.5900697407101725 0 0.5160360663471167 0.6021331862379345 0 0.531070395958858 0.6175611119328468 0 0.534157730859521 0.6296189331300047 0 0.5372466859988637 0.6416770096608352 0 0.5403363528806441 0.6537361935129565 0 0.5434413528926777 0.6657964752000407 0 0.5465332290879146 0.6778609406822174 0 0.5647115026767205 0.7053513943630961 0 0.5678085890537116 0.7174193934883955 0 0.5709021381307665 0.7294913694340356 0 0.5739943795000814 0.7415661385758725 0 0.5770866903970153 0.753642234833344 0 0.5921869696720147 0.7690798873959622 0 0.5952737573059538 0.781154605155409 0 0.5983622865700429 0.7931652971078001 0 0.6017136645325841 0.8052632680962133 0 0.604992506966561 0.8172543712423669 0 0.608291296004394 0.8293026754495936 0 0.6267344153500641 0.8567927592632015 0 0.6115077396933027 0.8413571078629511 0 0.6298548562477025 0.8687683550598581 0 0.6330587006410885 0.8808385302584839 0 0.636248520132793 0.8929033768363911 0 0.6394378663603476 0.9049967382556965 0 0.6425438415957641 0.9170716245502335 0 0.6576770899039537 0.9325372818006222 0 0.6607796093701972 0.9446398620295996 0 0.6639307975809148 0.9565700004870504 0 0.6679803054707441 0.9686725809768404 0 0.6812153997648233 0.9832878687680034 0 0.68750000000078 1 0 0.3110711312081931 0.141510891866435 0 0.3160044066840932 0.1542570466923184 0 0.3309193269293745 0.1823302775624318 0 0.3339970053135152 0.1943088823404304 0 0.3370428570045025 0.2062813142686296 0 0.3400818754015457 0.2182618141305114 0 0.3431929167227564 0.2302348689412833 0 0.3462404350938088 0.2423147074398287 0 0.3493051846523898 0.2543317808032508 0 0.3523995770580228 0.2663356868997852 0 0.3554541162652167 0.2783217355423799 0 0.3703797136423584 0.2936709701405635 0 0.3734436058969002 0.3056507639994263 0 0.3765293271505794 0.3176485798872665 0 0.379601527373457 0.3296412070351362 0 0.3945888766520104 0.3449924069793118 0 0.3977097835313106 0.3569640927263266 0 0.4008288065388669 0.3689350480775258 0 0.403941455510607 0.3809092163550151 0 0.4069862307615343 0.3929227204031713 0 0.4100767810155482 0.4049279597616414 0 0.4131279811690681 0.4169449607374358 0 0.4281689523775631 0.4322931648372881 0 0.4312751158482556 0.4443006256391068 0 0.4343044127483868 0.4563329053390037 0 0.4374358843140116 0.4683349613841867 0 0.4405028532253026 0.4803561916433733 0 0.4435218446001457 0.4923933182586515 0 0.4585315060997484 0.507789712862933 0 0.4616171856213099 0.5198236826293838 0 0.491775996891414 0.5505823136483967 0 0.5190960887576896 0.6142039162809656 0 0.5496244114292261 0.6899268339755857 0 0.5527151796251245 0.7019944569671048 0 0.5801796109341055 0.7657193156512325 0 0.6147094958549356 0.8534039256208916 0 0.6456448637941578 0.9291730928526626 0 0.6724032072246046 0.9794295958381712 0 0.681307367926936 0.9930080947500076 0 0.4767227366426814 0.5352050583455578 0 0.302465544614508 0.1319643676188731 0 0.3184231737625757 0.1769942609775258 0 0.3104912237280419 0.1649782148059425 0 0.3585524886262496 0.2903024266393386 0 0.3826606618080168 0.3416212301182193 0 0.4162413365465318 0.4289476722632172 0 0.4465703964332823 0.5044412902660301 0 0.4647106715515661 0.5318591536295815 0 0.4797863356808377 0.5472421128801797 0 0.4948617599613878 0.5626231769226914 0 0.49794864988706 0.5746672485316459 0 0.5010302646475492 0.5867090237773857 0 0.5040831713345435 0.5987595981753074 0 0.5071351774716986 0.6108340899749485 0 0.5221717520122721 0.626262826393942 0 0.5252591763734527 0.6383219223222074 0 0.5283483597431372 0.6503817683510023 0 0.5314424269268511 0.6624426462805183 0 0.5345363329523872 0.6745049044296852 0 0.5376286780958435 0.6865698196772865 0 0.5558074535444868 0.7140629782424293 0 0.558900137580392 0.7261335978589182 0 0.5619919514394132 0.7382068519067752 0 0.5650837565048208 0.7502814171377824 0 0.5681729567785095 0.7623589599017084 0 0.5832721349808112 0.7777996411298618 0 0.5863651233466959 0.7898797088181274 0 0.5896448841820502 0.8017987504600338 0 0.5930087971583912 0.8138643633521006 0 0.5964522105091437 0.8259143409853906 0 0.5995954674973959 0.8378818115896547 0 0.6178365718555813 0.8653929249001832 0 0.6027153227432839 0.8499469128880582 0 0.6210097318890658 0.877437353462291 0 0.6242204810073818 0.8895240429803535 0 0.627403824609714 0.9016377355250083 0 0.6305118252296004 0.9137082596462538 0 0.6336127185739123 0.925809060076255 0 0.6487471655580165 0.941275256666265 0 0.6518578263265081 0.9533497342711393 0 0.6552319774285602 0.9675699887573505 0 0.6625000000018193 0.9783496902686202 0 0.6702948582348206 0.9892929630987478 0 0.6750000000008667 1 0 0.3040799168331502 0.1535066673553657 0 0.2973197266139516 0.1431816334807129 0 0.3216936668334331 0.1904297016725075 0 0.3250923255784822 0.2028515202124922 0 0.3282009407150446 0.2148980007687499 0 0.3312834839893715 0.2268808039362818 0 0.3343309143865896 0.2388764980436774 0 0.3373661941903553 0.2509062291172204 0 0.3404715823352972 0.2629796060792757 0 0.3435659490377569 0.2749871706562236 0 0.3466211845381146 0.2869744634034024 0 0.3616228994517379 0.3022850319817935 0 0.3646995428935966 0.3142690025956864 0 0.3677712372992935 0.3262571806160238 0 0.3708490739020812 0.3382467076055191 0 0.3857823291368843 0.3535990254988069 0 0.3889065652132506 0.3655774360367636 0 0.3920038467966326 0.3775733682422776 0 0.3950832557979204 0.3895691857344905 0 0.3981581224853981 0.4015827315222734 0 0.4011819745784891 0.413605725384698 0 0.4042448132503287 0.4256205655811963 0 0.419317837521846 0.4409624309987257 0 0.4223964937880855 0.4529786140096186 0 0.4254857315000545 0.4649938336163709 0 0.4285590849563183 0.4770064407157187 0 0.4316067632084492 0.489018436043112 0 0.4346428905711474 0.5010666480355863 0 0.4496453553758182 0.5164766684180846 0 0.4527325380813795 0.5285111861164676 0 0.482880864217719 0.5592760622185371 0 0.5101979360696148 0.6229050759336391 0 0.5407189277689933 0.6986368760607347 0 0.5438088480595977 0.7107054869850633 0 0.5712643783985427 0.7744383216393981 0 0.6058190646607086 0.8620173249669384 0 0.6367148920683765 0.9379105904763817 0 0.4678084493603831 0.5438949423314191 0 0.3039213344894464 0.1761132322732143 0 0.2981274775969648 0.1647692320968332 0 0.3092642110474035 0.187683491295304 0 0.3496855141269932 0.2989579851028987 0 0.3738901453053913 0.3502504876421296 0 0.4073274938059469 0.4376323719580453 0 0.4376940460471768 0.5131258131771032 0 0.4558174092489408 0.5405477268959621 0 0.470898958067015 0.5559297447875516 0 0.485967531717292 0.5713106304610746 0 0.4890579050049076 0.5833612769922747 0 0.492138548322288 0.5954032791972311 0 0.4951969526210031 0.6074511217133561 0 0.4982595083014003 0.6195165980039313 0 0.5132757140021749 0.6349668116117598 0 0.5163602242028712 0.6470266522673629 0 0.519450383472562 0.6590873424446263 0 0.5225417796196993 0.6711491937447994 0 0.525633669219399 0.6832132118288796 0 0.5287236361333996 0.6952789082241745 0 0.5468991057861969 0.7227758631497363 0 0.5499908002349171 0.7348476599797371 0 0.5530825578010053 0.7469212465990939 0 0.5561740933791716 0.7589963557292093 0 0.5592667902180429 0.7710711691208197 0 0.574356381594571 0.7865189615835922 0 0.5774503452096247 0.7986011561425205 0 0.5807716771489594 0.8105459793722076 0 0.5843877535691917 0.8224603053026159 0 0.5875722803483542 0.8345331666545652 0 0.5906948251527516 0.8465880848304366 0 0.6089905449452738 0.8740655136608139 0 0.5937979795357584 0.8586581828592565 0 0.6121629869994736 0.8861535211044291 0 0.615372396357886 0.8982546122122368 0 0.6184777102104058 0.9103502474547824 0 0.6215810281004752 0.9224461863624769 0 0.6246828598223555 0.9345462294514282 0 0.6398171588331573 0.9500134199199987 0 0.6429196508198428 0.9621171782369307 0 0.6529521297818314 0.9798537813982504 0 0.6562500813569379 0.9891747294236463 0 0.6625000000009533 1 0 0.2917580800931703 0.1541986468823488 0 0.3133428591290849 0.1996724184362225 0 0.3163296289305974 0.211575319001447 0 0.3193996714002735 0.2235513473084008 0 0.3224597970217538 0.2355315683007446 0 0.3255101815307024 0.2475388256403411 0 0.3285810379001414 0.2596391785021973 0 0.3316649232034317 0.2716619514347863 0 0.3346204760321818 0.283661497959961 0 0.3376666316474604 0.2956475261051295 0 0.3527792221172162 0.3109369068336937 0 0.3558522749223443 0.3229237431789153 0 0.358925425270084 0.3349131399193634 0 0.3619986601315919 0.3469052079157465 0 0.3770007732642544 0.3622354476691347 0 0.3800760872530273 0.3742346121690611 0 0.383144481730842 0.3862240319018175 0 0.3861958590668135 0.3982133377065616 0 0.3892423344768934 0.4102459991817539 0 0.392180947829868 0.4222899940341441 0 0.3952806964974395 0.4343003335318849 0 0.4104050619944466 0.4496477267852158 0 0.4135282217516494 0.4616533801853013 0 0.416615353599762 0.4736704944995685 0 0.4196959074243098 0.4856910504293281 0 0.4227318732607485 0.4977004014163303 0 0.4257818739186762 0.5097589602108804 0 0.4407648528352459 0.5251632863617971 0 0.443850645326579 0.5371998718123596 0 0.4739919539117253 0.5679659061678702 0 0.5013262793016553 0.6315915959654899 0 0.531823622527799 0.7073439821596211 0 0.5349080513067682 0.7194151544531093 0 0.5623544981187871 0.7831536513882275 0 0.5969461174348797 0.870702314884427 0 0.6277849390927031 0.9466481764731145 0 0.6448685935312151 0.9745573917151182 0 0.4589131523047946 0.5525831181470641 0 0.2916691790739486 0.1762105552581534 0 0.2969550259134763 0.1867160549044355 0 0.2857883835164893 0.1649999995364608 0 0.3015918288565501 0.1971872483779364 0 0.3408351814658346 0.3076103757761022 0 0.3650726732977695 0.358899802471747 0 0.3983583606537509 0.4463113742830909 0 0.4288128240713641 0.5218133952848217 0 0.4469356596143608 0.5492371154122259 0 0.4620188412757876 0.5646144600443347 0 0.4770785920086876 0.5800099861304671 0 0.4801670663861777 0.5920571209845036 0 0.4832474719781735 0.6040994501693853 0 0.4863170121953355 0.6161470179320565 0 0.4893832817981064 0.6282176745820192 0 0.5043833603458133 0.6436693325309896 0 0.5074609888332108 0.6557324143943473 0 0.5105530122884978 0.6677925403462123 0 0.5136398235391024 0.6798565660111433 0 0.5167292936807657 0.6919212910208832 0 0.5198285845957455 0.7039822740326339 0 0.5379897849263791 0.7314887261737847 0 0.5410815349576136 0.7435616994814047 0 0.5441732239844702 0.7556355663588027 0 0.5472652749881816 0.767709775257049 0 0.5503563871365872 0.779790118079823 0 0.5654421994296231 0.7952390311543424 0 0.5685558084191128 0.8072449894182864 0 0.5720812503049019 0.8191918232041172 0 0.575472712943666 0.8311372099684516 0 0.5786753249531154 0.8432263344170534 0 0.5817729965063093 0.8553169911644048 0 0.6001350587188651 0.8827953867137519 0 0.5849066120992455 0.867350539263208 0 0.6033177522803167 0.8948929031126774 0 0.6064382091222597 0.9069839088330459 0 0.6095496596563799 0.9190813233214216 0 0.6126513951101992 0.9311819982247213 0 0.6157534453907908 0.9432830921836037 0 0.6308864738027065 0.9587516006299313 0 0.6340471249647595 0.9703909001445676 0 0.644377128029669 0.9877715558330306 0 0.6500000000010401 1 0 0.3046047179879628 0.2084268259388491 0 0.3075262680288163 0.2202477707334207 0 0.310562983743637 0.2321876262782217 0 0.3136279943778172 0.2443423429327808 0 0.3166936145382858 0.2562973634231164 0 0.319762246730842 0.2683193330204138 0 0.3227485329046111 0.2803207118696011 0 0.3253693713724635 0.2923979382720325 0 0.3288194596839137 0.3043081866643392 0 0.343930815098662 0.31959017542267 0 0.3470036000080415 0.331578524844699 0 0.3500741211304366 0.3435698319031572 0 0.3531470159076141 0.3555631873027815 0 0.368147268657011 0.3708969208577234 0 0.3712126857674939 0.3828862534562971 0 0.3742818829476848 0.3948382615157131 0 0.3772972529657516 0.40680419944011 0 0.3802865140188749 0.41883982136071 0 0.3832172040190936 0.4309380661311057 0 0.3862882861718083 0.4429658425025603 0 0.4014522850273636 0.4583317529990478 0 0.4046705329072836 0.4703248446580161 0 0.4077448539333507 0.482346524376094 0 0.4108159205706793 0.4943618285622339 0 0.413848041352321 0.5063868124012706 0 0.4168813241095726 0.5184472398927896 0 0.4318832639795653 0.5338527424166808 0 0.4349695086563055 0.5458892459710011 0 0.4651016566379773 0.5766607607718183 0 0.4924464214476805 0.6402797279835631 0 0.5229636462056692 0.7160408426812035 0 0.5260386215523523 0.7281168253131304 0 0.5534449415414153 0.7918735141984384 0 0.5881094526334161 0.8794293541091809 0 0.6197521451138939 0.9554938851369569 0 0.6361589229773764 0.9802674819219079 0 0.4500205315514503 0.5612746743791901 0 0.2794189860462747 0.1755705847711164 0 0.2838596616936662 0.1880552963601287 0 0.2913291558559994 0.195436534089851 0 0.2929340618955787 0.2054594997944286 0 0.3318523518150771 0.3163483164335814 0 0.3562202587679399 0.3675590802676404 0 0.3893963404255009 0.4549902179217922 0 0.4199342462391196 0.5305024130042477 0 0.4380531523348182 0.5579273744395976 0 0.4531255066509651 0.5733131103290871 0 0.4681882695047542 0.5887061575221311 0 0.4712753620554825 0.6007532752144844 0 0.4743619529933478 0.612802543279642 0 0.4774338440417519 0.6248461245385832 0 0.4805099764400595 0.6369022565105954 0 0.4955005278681541 0.652359592985675 0 0.4985590109122625 0.664437584581831 0 0.5016672430806337 0.6764922642804488 0 0.5047788663141504 0.6885352414941294 0 0.507872538775747 0.7005964487847837 0 0.5110103642792501 0.7126601588074331 0 0.5290795557488027 0.74020238534503 0 0.5321715941660937 0.7522762865658378 0 0.5352643788810285 0.764351319239532 0 0.5383560197495664 0.7764265655051388 0 0.5414507982035314 0.7885060330092666 0 0.5565936879551653 0.8039055049983308 0 0.5599816807145606 0.8158742257716693 0 0.5633178690339218 0.8278882293914737 0 0.5666605279595816 0.8398912236456511 0 0.5697547390824074 0.8519607093080481 0 0.5728541413774599 0.864034033238132 0 0.5912834980198315 0.8915287134109847 0 0.5760444757983536 0.8760723515524348 0 0.5944078635792063 0.9036220677441269 0 0.5975156122599055 0.9157192739549583 0 0.6006201077182071 0.9278179094688445 0 0.6037227168071485 0.9399182835475339 0 0.6074340256004442 0.9537354350621021 0 0.6225630298370792 0.9674916432853721 0 0.6262520244436988 0.9789321089466402 0 0.6375000000011268 1 0 0.6312497439175404 0.9896854529701828 0 0.2956351892820548 0.216925770432568 0 0.2986661036442875 0.2288565067686702 0 0.3017630175872905 0.2409019421630287 0 0.3048045806805172 0.2529930516543034 0 0.3078630494463769 0.2649938853347338 0 0.3109274506727954 0.2769716255090116 0 0.3133141185967527 0.2890986202647542 0 0.316491630127939 0.3010694757115797 0 0.3198687827360192 0.3130604813592608 0 0.3349915862497556 0.3283186358545088 0 0.3381480322941013 0.3402615018983964 0 0.3412208863229159 0.3522286911284778 0 0.3442940899942274 0.3642215733282086 0 0.359291880606554 0.3795547486583914 0 0.3623626076745594 0.3915174493078806 0 0.3653820728941699 0.4035197283135891 0 0.3684145662550709 0.4154864850566328 0 0.3714479648446585 0.4274775642400687 0 0.374389832209127 0.4395579476327131 0 0.377374853386017 0.4516402457890736 0 0.3925154967454225 0.4670049852677041 0 0.3957928856214873 0.4790008957273347 0 0.3988696692651539 0.4910233140793674 0 0.4019402865145121 0.5030387565319323 0 0.4049776658570461 0.5150628172907061 0 0.408011820439908 0.5271261203808086 0 0.4230040601100674 0.542541314143096 0 0.4260856679427275 0.5545784832598072 0 0.456211837835779 0.5853565877644797 0 0.4835760722531401 0.6489712303171453 0 0.514075164310169 0.7247679671950226 0 0.5170989443166768 0.7368644697148777 0 0.5447647416194414 0.8005624573852967 0 0.5792471259306471 0.8881497280532719 0 0.6138788996462604 0.9633391417930195 0 0.4411383130623123 0.5699672297325554 0 0.2726587958667653 0.1858956186586593 0 0.2825815703443962 0.2007141903775654 0 0.2833563167813801 0.213147002676202 0 0.3226682856562779 0.3252020435246072 0 0.3473666255675961 0.3762185767874934 0 0.3804563852134892 0.4636563917155155 0 0.4110503015704396 0.5391906334803114 0 0.4291697891446219 0.5666180575110084 0 0.4442362104696296 0.5820066312147497 0 0.4592989443102191 0.5974029023398405 0 0.4623849671723886 0.6094513500348382 0 0.4654715475176154 0.6215014093657865 0 0.4685588829550602 0.6335528336393221 0 0.4716395226037023 0.6455965911973095 0 0.4866504765335972 0.6610257145829302 0 0.4897440764992192 0.6730519381050343 0 0.4929150645238072 0.6851290875649297 0 0.4960803372777585 0.6971488217416755 0 0.499153723949659 0.7092658640079358 0 0.5021578461360058 0.7214204497661595 0 0.5201688214061087 0.7489164476431527 0 0.5232604532969847 0.7609912466854041 0 0.526352051765689 0.7730674763092252 0 0.5295002400165573 0.7851094456299703 0 0.532824761142687 0.7972186511997253 0 0.5480376687509008 0.8125672794301276 0 0.5513158338787374 0.8245469006480103 0 0.5546213746124522 0.8366030593002493 0 0.557733838730798 0.8486096257940015 0 0.5608365804612762 0.8606712288243112 0 0.5639728737611732 0.8726874860216597 0 0.5823866903383981 0.9002581005358687 0 0.567176648988181 0.8847829686291564 0 0.5854877244383138 0.9123561254672001 0 0.5885901090450674 0.924454308895112 0 0.5916927046931483 0.936553700242151 0 0.5950088684623003 0.9485355928035585 0 0.6045226975029843 0.9662098530156609 0 0.6132734604042265 0.9762568819040971 0 0.6188787875374629 0.9890227298419152 0 0.6250000000012135 1 0 0.2748961207935918 0.1951828406359321 0 0.2865939423809802 0.2253799342068794 0 0.289846527179095 0.2376241186387572 0 0.2929057410831074 0.2496653373770982 0 0.295963758786718 0.2616654756350509 0 0.2990274875875235 0.2736419211915026 0 0.3014004739476505 0.2857733415886053 0 0.3044981509576455 0.2977507646594709 0 0.3076607030308269 0.3097352820076405 0 0.3107153878169425 0.3217517806753618 0 0.326158200996424 0.3369866608338029 0 0.3292952296610155 0.3488981581683456 0 0.3323684480994784 0.3608839321227155 0 0.3354401015554327 0.3728806895682919 0 0.3504362885539156 0.388215887965714 0 0.3535066736946684 0.4002096300263461 0 0.3564294538272846 0.4122623445348522 0 0.3595478013932071 0.4241506834824442 0 0.3625895415853695 0.4361312006612983 0 0.3655142284268981 0.4482319416181594 0 0.3685084591015403 0.4603155475841746 0 0.3835949011736887 0.475672826945756 0 0.3868353629232147 0.4876770894686103 0 0.3899945283750182 0.4997016768059153 0 0.3930656126291275 0.5117184503991019 0 0.3960933482538923 0.5237491852625278 0 0.3991340366093779 0.5358044333542703 0 0.4141194845652149 0.5512304156221134 0 0.4172022086618787 0.5632686804958403 0 0.4473220784122061 0.5940525267827118 0 0.4747225803332157 0.6576528896273027 0 0.50518156337106 0.7335050568873318 0 0.5081526668176712 0.7456059257470226 0 0.5361681446046669 0.8092724302734577 0 0.570356482650016 0.8968913520896831 0 0.5977465185590037 0.9587484104890501 0 0.4322548755209052 0.5786585392603533 0 0.2655172676938349 0.1959606607367931 0 0.2714709362505655 0.2070705915972573 0 0.27406715427881 0.2215133495701077 0 0.3137876423559137 0.3337089731235671 0 0.3385125890457923 0.384878845084657 0 0.3715872467428338 0.4723306656159377 0 0.4021539475221524 0.5478823236200863 0 0.4202855525138616 0.5753090103573226 0 0.4353446254735213 0.5907023534674131 0 0.4504076423927125 0.6060996228367199 0 0.4534930846127412 0.6181486639024943 0 0.4565788040575808 0.6301996084365317 0 0.4596749822128676 0.6422158223539446 0 0.4627912507161663 0.6542442525231886 0 0.4778005913355918 0.669681051880595 0 0.4810278145228861 0.6817688604129025 0 0.4842492833059576 0.6938331161087469 0 0.4874721307011574 0.7057581977895219 0 0.4903291265280352 0.7180111071580425 0 0.4932438876854176 0.7301904466842616 0 0.5112577293912692 0.7576309557408752 0 0.5144009462538516 0.7696206424092521 0 0.5176344162702485 0.7816897238519701 0 0.5209100910311429 0.7937904026828732 0 0.5242569382176006 0.8059730402621633 0 0.5394019237328342 0.8212421575040025 0 0.5426028126618317 0.8332200834712933 0 0.5457177273124104 0.8452417484946521 0 0.5488174494611209 0.8573168332493796 0 0.5519746773774102 0.8693555792088977 0 0.5551875491493495 0.8814371994603722 0 0.5734611402443084 0.9089920238422849 0 0.5583311342220377 0.8935309056804637 0 0.5765619984320927 0.9210904967339606 0 0.57966331379064 0.9331897449456464 0 0.5827647101157117 0.9452895680457669 0 0.5863625729726125 0.9585750341981997 0 0.5937518852086664 0.9675271251416246 0 0.6000130667619183 0.9783583961974194 0 0.606249567153085 0.9891748764461626 0 0.6125000000013001 1 0 0.2777412303265482 0.2340829546339937 0 0.2810083614677751 0.2463284895916008 0 0.2840650723841198 0.2583431677085172 0 0.2869991964585424 0.2703166381073314 0 0.2894955935561522 0.2824463991421897 0 0.2925673439521556 0.2944203374634929 0 0.2956591051792277 0.3064000792435927 0 0.2987117162662399 0.318380892352926 0 0.3017864777602047 0.3303649460136082 0 0.3172257100404112 0.3455968425668411 0 0.3203522209738947 0.3575693796914307 0 0.3235147156831429 0.3695414452596056 0 0.3265854861495909 0.3815398485481771 0 0.3415746879940132 0.3968818995943648 0 0.3446179016669172 0.4088926012195754 0 0.347699106637926 0.420895917177823 0 0.350813406244427 0.4328934390349651 0 0.3536983004011399 0.4448275593342146 0 0.3566162085841378 0.4569331900890582 0 0.3596402299730836 0.468990386208081 0 0.3746854251737985 0.4843438333905947 0 0.3778920513768465 0.4963089119812175 0 0.3810846957584467 0.5083462419152227 0 0.3841838665171451 0.5203925878196354 0 0.3872215358965296 0.5324150512606532 0 0.3902468720375681 0.5444882627542268 0 0.4052361171056725 0.5599188823267537 0 0.4083186699088652 0.5719576341092506 0 0.4384304835046027 0.6027480911187535 0 0.4659016072669602 0.6663149706327913 0 0.4961483893347119 0.7422561315122727 0 0.4992535575605275 0.7542787162105652 0 0.5274629033929555 0.8178367176005391 0 0.5614339645026987 0.9056285031262993 0 0.4233694621697048 0.5873519324789991 0 0.258004389624032 0.2057516340997823 0 0.2622086567131777 0.2175957452824904 0 0.2658330666699128 0.2306570956130606 0 0.3049519251207531 0.3423339039787038 0 0.3295851209756615 0.3935586918447653 0 0.3627077543114993 0.4809958631024218 0 0.3932862258333785 0.5565655522618177 0 0.4113994275026464 0.583999922533794 0 0.4264546427640798 0.5993963999489118 0 0.4415157104708187 0.6147957482551273 0 0.4446018337659409 0.6268405521582422 0 0.4476891630053174 0.638877068767459 0 0.4508541104713032 0.6508006196329832 0 0.4540320935724401 0.6628900448091161 0 0.4690858693268083 0.6783353486817517 0 0.4722806106889099 0.6904259163584535 0 0.4754937100277055 0.7024427622720477 0 0.4785440081118514 0.7144611938395266 0 0.4811883584898373 0.7266827512816668 0 0.4841669941589471 0.7388292399513849 0 0.5023462596607858 0.7663450097226185 0 0.5056980074568804 0.7783081920683698 0 0.5089697964936206 0.7903179451518212 0 0.5122743940461452 0.8024336100015897 0 0.5154566392084422 0.814440695728741 0 0.5306094604705284 0.8297814426287351 0 0.5337060074031929 0.8418669780940576 0 0.5368022316525682 0.8539526669360847 0 0.5399353846738409 0.8659724052373253 0 0.5431148247080927 0.878064936334007 0 0.5462753813191192 0.8901683024426851 0 0.5645336301002405 0.9177265035187717 0 0.5493974625809638 0.902265442201923 0 0.5676344735797284 0.9298253542622507 0 0.5707352913295131 0.9419251376521022 0 0.5736314227505958 0.9540882184439683 0 0.5848786202799977 0.9698155242996617 0 0.5879033988633862 0.9785831691671383 0 0.5938289164630288 0.9892206803255174 0 0.6000000000013869 1 0 0.2690983299827168 0.2429947401835564 0 0.2721719098622696 0.2549760922104461 0 0.2751738385171618 0.2669245693286826 0 0.2779533337431557 0.2788968796454663 0 0.2806385085519055 0.2911020807475563 0 0.2837271571127685 0.3030768490938803 0 0.2867949076581057 0.3150579920339078 0 0.2898648215095592 0.3270361297303435 0 0.2929402338061098 0.3390186373944304 0 0.3081370985518651 0.3543022673837128 0 0.3115398442572646 0.3662142567916747 0 0.3145159845598017 0.3782315991901813 0 0.3174736919375482 0.3902567708035259 0 0.3326434337617806 0.4055640988529594 0 0.3357818794000256 0.4175496538817782 0 0.3387957623211327 0.4295660871502527 0 0.3417792222398814 0.441573085031293 0 0.3446291591935168 0.4536410605426408 0 0.3476998750065981 0.4656508838306233 0 0.3507751410229178 0.4776707875746171 0 0.365850534986258 0.4929874041531965 0 0.3689972190375224 0.5049454311727473 0 0.3722017066951918 0.5170199135451252 0 0.3753176401623012 0.5290838764713421 0 0.3783462121474461 0.5411052592626564 0 0.381370697504449 0.5531792811336058 0 0.3963551035634434 0.5686058611121557 0 0.3994355988995967 0.5806466429912237 0 0.4295395749068707 0.6114430150600515 0 0.4571938857130524 0.6749876783636066 0 0.4872519385033237 0.7509215307706257 0 0.4903557455515771 0.7629448830058542 0 0.5185951606404872 0.8264210009291534 0 0.5525037694836011 0.914362744895993 0 0.5757039270403855 0.9665072520075826 0 0.4144819176502442 0.5960447034264382 0 0.2501306690957222 0.2152548451898965 0 0.2539881960149343 0.2269777280326661 0 0.2571371644034847 0.2396080536796922 0 0.2960182256014963 0.3510072051788037 0 0.320554346596488 0.4022559604748294 0 0.3538425910370921 0.4896763314304712 0 0.3844055714360849 0.565251895447562 0 0.4025155477216144 0.5926909242648654 0 0.417564485186437 0.6080905848883459 0 0.4326241666935999 0.6234895472140695 0 0.4357235848011701 0.6355088139431594 0 0.438905920651316 0.6474868542715559 0 0.4421662365193922 0.6594830631112389 0 0.4453616810937279 0.6715429756672956 0 0.4603455116054321 0.6870728760505211 0 0.4634977221934983 0.699065178417159 0 0.4665433924400075 0.7111106531971011 0 0.469133430216124 0.7233823385834189 0 0.4721712840583352 0.7354574102440916 0 0.4752550764474118 0.7475506446273061 0 0.4936045806889685 0.7747332754548253 0 0.4970202667338632 0.7868525052405837 0 0.5003228755047529 0.7989756675258436 0 0.5034853883561314 0.810978532335227 0 0.506582092622564 0.8230606941330968 0 0.5216916183806931 0.8385054534905964 0 0.5247872227422011 0.8505915522790107 0 0.527920311519617 0.8626123674629811 0 0.5310962604886886 0.8747038915955153 0 0.5342466884064648 0.8868072969929034 0 0.5373616403915743 0.8989024860314158 0 0.5556056784512415 0.9264610557676242 0 0.5404717862534163 0.9109984476421665 0 0.5587065082404445 0.9385605267928118 0 0.5618073995070126 0.9506612113195519 0 0.5649109450366137 0.9627574883161139 0 0.5774633374997805 0.9788221716207383 0 0.5817235934243994 0.9894482542618264 0 0.5875000000014736 1 0 0.2602465035463777 0.2516631556074789 0 0.2633020095241115 0.2635448369885185 0 0.2661194306127028 0.2756076318824486 0 0.2688703874232194 0.2876297847783518 0 0.2718231033177799 0.2997334332768037 0 0.2748860153221477 0.3117328123262291 0 0.2779391352664646 0.3237136118201916 0 0.2810244994749015 0.3356848411818127 0 0.2840930103926329 0.3476738497106007 0 0.2991385142590275 0.3629828262359229 0 0.30253882779417 0.3749028389893456 0 0.3054643573107683 0.3869335460747717 0 0.3084262435561246 0.3989580314977142 0 0.3236419126418811 0.4142543510086238 0 0.3267843346234878 0.4262382145484189 0 0.3296842289526514 0.4382773767407799 0 0.3327326498225568 0.4502978237590187 0 0.335756191349228 0.4623187083145716 0 0.3388269814089144 0.4743314643486509 0 0.3419073637063736 0.4863484815209387 0 0.3569781689807898 0.5016540538417279 0 0.3601932679120318 0.5136802591285328 0 0.36335975298684 0.5257369265141496 0 0.3664360904742093 0.5377615658501808 0 0.3694572479821914 0.549797424365091 0 0.3724820555900262 0.5618672927102824 0 0.3874724533473423 0.5772931798136435 0 0.3905523913536693 0.589332336113634 0 0.4206488712553222 0.6201362937427336 0 0.4484015195129031 0.6836556582215496 0 0.4783593668730569 0.7595500907054015 0 0.4815926967531569 0.7713588181826192 0 0.509678260813437 0.8351441681674662 0 0.5435774233486264 0.9230967247151476 0 0.5672890420860589 0.9754926866996347 0 0.4055923598143404 0.6047381071475667 0 0.2419071182073476 0.2244570029217542 0 0.2451916404039454 0.2363674663959099 0 0.2482146863606836 0.2484713845705648 0 0.2871667884297786 0.3596609899002879 0 0.311555676705932 0.4109438188413883 0 0.3449860563072629 0.4983654475157306 0 0.3755062253531761 0.5739436864839905 0 0.3936181297198559 0.6013858705158062 0 0.408674574901173 0.6167841633507276 0 0.4237505882211162 0.6321711717447506 0 0.4269122450232876 0.6441645823268186 0 0.4301130193298918 0.6561564835521606 0 0.4333761086433057 0.6681924931325115 0 0.4364642267992188 0.6802489463799558 0 0.4515293856373206 0.6956934055759333 0 0.4544842207464169 0.7077285183425188 0 0.4573798795592013 0.7199291039198353 0 0.4602055359301686 0.7321553463091641 0 0.4632579080730261 0.7441873190728472 0 0.4663451654142433 0.7562441961093685 0 0.4850686675753196 0.7834291987958035 0 0.4883769835824126 0.7955396292920072 0 0.4914739762575924 0.8076194461561217 0 0.4945702043793258 0.8197005402275915 0 0.4976659326976491 0.8317831240981091 0 0.5127739861191656 0.8472278970762706 0 0.5159054004158192 0.8592520740307765 0 0.5190805518876181 0.8713433326175944 0 0.5222279064809267 0.8834463677955798 0 0.5253351539168604 0.8955400335644527 0 0.5284433698726232 0.9076353933443664 0 0.5466779563396199 0.9351954081264316 0 0.5315499747907078 0.9197322492530401 0 0.5497778483395006 0.9472957339969006 0 0.5528880472539124 0.9593614629342976 0 0.5562095650129485 0.9713007073839907 0 0.5684794501439864 0.9885065901511541 0 0.5750000000015603 1 0 0.2514096002681295 0.2604508941297163 0 0.254399432905622 0.2722847615496772 0 0.2570175815629468 0.2843649590039959 0 0.259865379916181 0.2964447116796318 0 0.2629558709875305 0.3084065657096535 0 0.2660208167608634 0.3203874844891483 0 0.2690881621718684 0.3323642248326306 0 0.2721711096006042 0.3443440195924966 0 0.2752466055057292 0.3563294771764222 0 0.2903292197294093 0.3716322741850235 0 0.2934140984469427 0.3836218706492376 0 0.2964172975700234 0.3956301653186259 0 0.2995202811303768 0.4076178783841689 0 0.3146986653411393 0.4229307073822106 0 0.3177148528019914 0.4349460181837262 0 0.3207208700843874 0.4469687993469577 0 0.3238004537303664 0.4589798255782663 0 0.3268803202523333 0.4709923496293085 0 0.3299605805259271 0.4830073616318117 0 0.3330401866574688 0.4950234414250436 0 0.3480989439208997 0.5103788286570851 0 0.3513327555522072 0.5223766225086551 0 0.3544669078546654 0.5344037464963712 0 0.3575543920302748 0.5464404803669768 0 0.3605790381487931 0.5584825361708109 0 0.3635884265546723 0.570552991898862 0 0.3785822511594222 0.5859834472567634 0 0.3816429100819503 0.5980342547313325 0 0.4117596720184963 0.6288300125500018 0 0.439555604674587 0.6923071622497791 0 0.4695279666203021 0.7682289593455439 0 0.4731385843494443 0.780131686791124 0 0.5007609335147761 0.8438672905793961 0 0.5346503068490208 0.9318301863402129 0 0.5593773644002595 0.9822265720190667 0 0.3967008944016524 0.6134320408835209 0 0.2333452383417893 0.233345237241332 0 0.2362214882763206 0.2452223508026079 0 0.2391759543209492 0.2572882702855269 0 0.2783213260131743 0.3683172146662079 0 0.3026200451627692 0.4196193949642368 0 0.3361317786696684 0.5070072628802146 0 0.3666339003778036 0.5826198392081583 0 0.3847260372571816 0.6100801223249787 0 0.399784326668047 0.6254784840060061 0 0.4148485005804038 0.6408739182611088 0 0.4180354784510006 0.6528726761774727 0 0.4213467116220473 0.6648535727176347 0 0.4244734782810526 0.6768986515783668 0 0.4275671278732761 0.688953537228168 0 0.4426103700042084 0.704330374835904 0 0.4455286583590927 0.7165289608679067 0 0.4484133852945292 0.7286739322486627 0 0.4513030505097322 0.7408753005918169 0 0.4543563881175973 0.7529087035160379 0 0.4574352302997209 0.7649689643100677 0 0.476373424847202 0.7921873224868243 0 0.4794632191926107 0.8042602999934206 0 0.4825592022186834 0.8163408330533753 0 0.4856545900500956 0.8284223966627943 0 0.4887543138216698 0.8404880751793634 0 0.5038960453088901 0.8558995439966089 0 0.5070702573192661 0.8679839839965531 0 0.5102171853047505 0.8800864732022723 0 0.513315812997538 0.8921774613245173 0 0.5164167050846865 0.9042734579991071 0 0.5195220665447456 0.9163686757942181 0 0.5377501528993641 0.9439288953595025 0 0.5226238191238822 0.9284630519263953 0 0.54086812141597 0.955987549695655 0 0.5440740829747583 0.967980480798967 0 0.5487424347070081 0.9798574256051941 0 0.5625000000016469 1 0 0.5560363506844804 0.9920566371675689 0 0.242216988077243 0.2691879136800336 0 0.2451156880554823 0.2811166701920205 0 0.2479561721860607 0.2931458688881923 0 0.251034658377793 0.3050832828783866 0 0.2541052522304191 0.3170576696077222 0 0.2571766745035714 0.3290349215645985 0 0.2602481596839086 0.3410146264617593 0 0.2633262203745848 0.3529970981917541 0 0.2664014432778775 0.3649842920234179 0 0.2813957634333639 0.3803079046691398 0 0.2844701805075451 0.3923008732958606 0 0.2875691556434762 0.4042809787874849 0 0.2906773730339502 0.4162802506081812 0 0.3057132091598976 0.4316219913538935 0 0.3087806682440201 0.4436308122017631 0 0.311859299306611 0.4556396248992123 0 0.3149384988432817 0.467651167278785 0 0.3180163021363882 0.4796660991095124 0 0.3210936010943845 0.4916827186161629 0 0.3241662361997985 0.5036694585319705 0 0.3392150927259712 0.5190021719798623 0 0.3424170856045134 0.5309782863789003 0 0.3455852333640731 0.5430834400077196 0 0.3486854849090504 0.5551336744898846 0 0.3517027733537205 0.5671575003625585 0 0.3547358495742954 0.5792462424945538 0 0.3696655514182782 0.5946852689688649 0 0.3727502254281883 0.6067286194068618 0 0.4028697809632198 0.637526751865103 0 0.4306567699147743 0.7010134209189133 0 0.4606295245692525 0.7770246970711956 0 0.4642638362723005 0.7889279811977818 0 0.4918766128907792 0.8525328332461278 0 0.5257298513976122 0.940559575995205 0 0.3878095978364414 0.6221261976726737 0 0.2244570040053631 0.2419071172019055 0 0.2270385378579542 0.2538434220194847 0 0.2298199425179038 0.2657731694133605 0 0.2694749543058073 0.3769737561724194 0 0.2937639970441103 0.4282865582210527 0 0.3272731829383839 0.5156615327765364 0 0.3577115581378374 0.5913077558659826 0 0.3758344660750018 0.618773750739678 0 0.3908933901579832 0.6341737309227996 0 0.4059649669965468 0.6495447129407189 0 0.4092003028672476 0.6615524481004099 0 0.4124464629002497 0.6735411702100073 0 0.4155806231387879 0.6856007249881384 0 0.4186698409785057 0.6976577498894773 0 0.433704012611475 0.7130317357164974 0 0.4365998222515208 0.7251618038913649 0 0.4394633651574605 0.7373930779118888 0 0.4423508014044238 0.7495425297692521 0 0.4454404480681198 0.7616130736853386 0 0.4487132015720778 0.7736895358371639 0 0.4674607063549772 0.8009086754815563 0 0.4705489919309944 0.8129814345128517 0 0.4736442209310807 0.8250619455604377 0 0.4767393623540592 0.837141913523708 0 0.4798653569692428 0.8492003644437968 0 0.4950440371474645 0.8646206228062894 0 0.4981963034017604 0.8767242885721385 0 0.5012950502077775 0.8888163490181905 0 0.5043953978730553 0.9009102805186123 0 0.5074958505109197 0.9130053307150567 0 0.5105974035935725 0.9250989485836125 0 0.5288342844859701 0.9526510874765979 0 0.5137065918626668 0.9371928483857085 0 0.5319675528788081 0.9648337721561061 0 0.535275997739702 0.9781910066979526 0 0.5434762194535379 0.9899287996082833 0 0.5500000000017335 1 0 0.233049443262297 0.2778919967436084 0 0.2360545103387244 0.2898245212866156 0 0.2391334260288025 0.3017544202698125 0 0.2422008811554824 0.3137278660788872 0 0.2452686604387319 0.325704345721131 0 0.2483379363100372 0.3376837885118276 0 0.2514096197406365 0.3496658894467178 0 0.254481994598807 0.3616508199817721 0 0.2575559145970234 0.3736394785335437 0 0.2725492247407096 0.388959604792634 0 0.2756355215124064 0.4009486559388117 0 0.2787344069611142 0.4129408449883085 0 0.2818286969309872 0.4249486584833796 0 0.2968419537370093 0.440292776979981 0 0.299919828879843 0.4523002312086811 0 0.3029985681169092 0.4643095825853868 0 0.3060786915580457 0.4763225187918551 0 0.3091511229395472 0.4883389845497953 0 0.312216002290539 0.500348109712531 0 0.3153071119657762 0.5123284360753212 0 0.330420733910084 0.5276395485143849 0 0.3335853551961825 0.5397209848913269 0 0.3367018130440994 0.5517627715929707 0 0.3397965056584505 0.5638083434281461 0 0.342803084063775 0.5758466881587554 0 0.3457763832692164 0.5879458139435443 0 0.3607795012123123 0.603371738585105 0 0.3638603798333618 0.6154209172340627 0 0.3939774061960238 0.6462234708829115 0 0.4217508925656845 0.7097122555207928 0 0.4521757385754753 0.7857609726917448 0 0.4554331556485978 0.7976175218798023 0 0.4830283199768518 0.8612714287160361 0 0.5168136591644515 0.9492909312150023 0 0.3789178543383512 0.6308206936699796 0 0.2152548462463826 0.2501306681865424 0 0.2175462501884805 0.262069065960486 0 0.2198924814004989 0.2743583477910242 0 0.2606276323517144 0.3856270054749329 0 0.2849042669780451 0.4369544657703739 0 0.3183981441590057 0.5243223186774655 0 0.3488063824495235 0.6000248438992172 0 0.3669428015611342 0.6274673802638768 0 0.3820025782546735 0.6428639365303591 0 0.3970619261618696 0.6582746133862682 0 0.4003462710717717 0.6702279431703587 0 0.4035959812174495 0.6822505321606076 0 0.406682614040823 0.6943049838146297 0 0.4097693200046714 0.7063641454902 0 0.4248029914299131 0.7217349725179816 0 0.4277238203396848 0.733801956947371 0 0.4307044608848649 0.7459980502067712 0 0.4337710595702817 0.7580936779965681 0 0.4369403358017582 0.7702401627448832 0 0.4402306429282654 0.7825065280889945 0 0.4585397938018945 0.8096222340432889 0 0.4616348426337533 0.821701732922569 0 0.4647301482864731 0.8337793181307971 0 0.4678397803115472 0.8458541747461162 0 0.4709663352793464 0.8579351104359587 0 0.4861744093186069 0.8733614081054423 0 0.4892729907235167 0.8854533099031372 0 0.4923718497050976 0.8975469030388218 0 0.4954712469165741 0.9096417339306848 0 0.4985715686004117 0.9217357926763913 0 0.5016814973032344 0.9338291891792138 0 0.519884634006308 0.9613536934934384 0 0.5048010111158725 0.9459294480728662 0 0.5229341090442621 0.972902614755262 0 0.5312044259248477 0.9900586961350634 0 0.5375000000018204 1 0 0.2235093982010106 0.2864357776547938 0 0.2272328148306871 0.2984315407245848 0 0.2302980129622227 0.3103994194259642 0 0.2333632983625676 0.3223728750594608 0 0.236428225728083 0.3343514261623462 0 0.2394966507580949 0.346332738812166 0 0.2425655893470993 0.3583172502739717 0 0.2456311899446218 0.3703013500064565 0 0.2487045750292563 0.3822914100344975 0 0.2637084876431879 0.3976155324017288 0 0.2667983931011388 0.4096077662872903 0 0.2698954881092089 0.4216089867108305 0 0.2729685606910905 0.433616207639667 0 0.2879817628726379 0.448961558932622 0 0.2910592295169329 0.4609700326145532 0 0.2941368363450697 0.4729798437957237 0 0.2972082275522355 0.4849969990497938 0 0.3002783188605758 0.4970153494354494 0 0.3033449941897635 0.5090234388237179 0 0.3064331387489415 0.5210030615346481 0 0.3215391359128542 0.5363457146009581 0 0.3246470646990814 0.5483949676972718 0 0.3278195608242117 0.5604448342636039 0 0.3309111921849053 0.5724879747679666 0 0.3339300279375552 0.5845214302293005 0 0.3369804664360562 0.59660591292756 0 0.3518883848160567 0.6120678625951447 0 0.3549821488022817 0.6241064579025065 0 0.3850921751678659 0.6548891194760553 0 0.4128499568305327 0.7184176081109587 0 0.4434367226613278 0.7941859890967938 0 0.4465320078499435 0.8062633847942225 0 0.4741096168322133 0.8700088433541598 0 0.5079111887639075 0.9580329670648464 0 0.5249998407361941 0.9824626678945608 0 0.37002590671899 0.6395147552046299 0 0.2057516351208316 0.2580043888097723 0 0.2073765032535299 0.2701682111732392 0 0.2096562615653087 0.2840904442427342 0 0.2517820258125096 0.3942847802380774 0 0.2760437772585179 0.4456227293847825 0 0.3095312854693665 0.5330295558936967 0 0.3400522563385746 0.6086583283287899 0 0.3580628093096653 0.636155212758398 0 0.373115989739888 0.6515382070740907 0 0.3882977148294616 0.6669262867410277 0 0.3915798407513231 0.6789405560260378 0 0.3946961495115442 0.6909621161539697 0 0.3977838485413477 0.7030127674723914 0 0.4008691983647323 0.7150715986799641 0 0.4158873862694653 0.730437969387017 0 0.41894542980594 0.7425308877877259 0 0.4220905394702856 0.7546292153351369 0 0.425239518048901 0.76668676594715 0 0.4282471446229044 0.7788513949140844 0 0.4314113008387117 0.7908959966175853 0 0.44962640168656 0.818341629124173 0 0.4527209983243645 0.8304205207485632 0 0.4558258289113286 0.8424937251636004 0 0.4589359727966206 0.8545727390720604 0 0.4620604898809463 0.8666572000977509 0 0.4772374596434196 0.8820943811270755 0 0.4803486852950232 0.8941829236017151 0 0.4834471276697347 0.906277674564624 0 0.4865461412362748 0.9183730815984644 0 0.4896525634426682 0.9304649271838384 0 0.4927630825545086 0.9425663934812397 0 0.5107478372579085 0.9698626480906311 0 0.4958803566497261 0.9546534642704928 0 0.5142876030654631 0.9804349602817227 0 0.5250000000019071 1 0 0.51875133369704 0.9896091623879961 0 0.2153378447190853 0.295095507841581 0 0.2183981912777889 0.3070675581121002 0 0.2214594661180078 0.3190422563109396 0 0.2245215503275743 0.3310203849251571 0 0.2275886467120624 0.3429994624597201 0 0.2306110557939998 0.3549795292050646 0 0.2336699668062819 0.3669628740426175 0 0.2367656956534595 0.3789396393563095 0 0.239858034855191 0.3909494532212344 0 0.2548665689150569 0.4062802489046166 0 0.2579507579257247 0.4182767063610551 0 0.2610321119685822 0.4302783545409828 0 0.2641070229012026 0.4422840509476532 0 0.279121127867592 0.4576306346896181 0 0.2821991709409742 0.4696406511408087 0 0.285270958737833 0.4816516023215944 0 0.2883334368723419 0.4936736954043457 0 0.2914058637931583 0.5056914556232459 0 0.2944849481553244 0.5177117589065418 0 0.2975582148841874 0.5297169598951145 0 0.3126130973564084 0.5450393203588979 0 0.3157867780939039 0.5570978769681144 0 0.3189609204685763 0.5691558652145343 0 0.3220339406646701 0.5811774621850255 0 0.3250972523262756 0.5932200154763034 0 0.3282258592238219 0.6052689547600433 0 0.343138553562063 0.6207024522759367 0 0.3462244166754923 0.6327464017617253 0 0.3763217389270009 0.6635779791610913 0 0.4039574556426755 0.7271339697881304 0 0.4345249057872159 0.8029050479539025 0 0.4376191672297376 0.8149819839394141 0 0.4651906868941089 0.8787335316426966 0 0.4989839980430434 0.9667546928930338 0 0.3611487014076808 0.6481956237170058 0 0.195960661707354 0.2655172669775281 0 0.1970006024342291 0.2778793017016992 0 0.2062136034971734 0.2946002727942882 0 0.2429358194907508 0.402945859737715 0 0.2671837411778738 0.4542904118204792 0 0.3006459817548029 0.5417499602950968 0 0.3313126275365257 0.617309522880925 0 0.3493062414944836 0.6447901546879494 0 0.3643307927385974 0.6601732351408565 0 0.3795235383329413 0.675594957561961 0 0.3827003068828136 0.6876385499882495 0 0.3857953830345354 0.6996630140174619 0 0.3888636054422127 0.7117213243743745 0 0.3919476552608757 0.7237827080762452 0 0.4070526176199462 0.739197108002294 0 0.4101474452410744 0.7512619268072432 0 0.4132387585096285 0.7633307767403007 0 0.4163311060219644 0.7754011035103977 0 0.4194246269513784 0.7874731440032255 0 0.4225184958110926 0.7995473435865547 0 0.4407136445178095 0.8270587135218371 0 0.4438163234655682 0.8391344089873929 0 0.4469237506597373 0.8512130785689408 0 0.4500302200085023 0.8632997183064638 0 0.4531285733400289 0.8753867924594616 0 0.4683268346621904 0.890819804839598 0 0.4714211832587806 0.9029138860783266 0 0.4745209199125985 0.9150092179911362 0 0.4776253753337935 0.9271015946389455 0 0.4807399031011577 0.939197631440136 0 0.4838495143248197 0.9512927524020487 0 0.5018872613367286 0.9783923923827353 0 0.4869705093831994 0.9633252921506218 0 0.506405236320646 0.9893802761791521 0 0.5125000000019937 1 0 0.197426116523236 0.2903080303613088 0 0.2067192484101114 0.3039511534592171 0 0.2095578026815771 0.3157063952127803 0 0.2126151939670092 0.3276901859292972 0 0.215682451723364 0.3396659878458971 0 0.2187484011243649 0.3516440069406486 0 0.2216320156499456 0.3636255499863187 0 0.2248034124669436 0.3756160802704541 0 0.2279210130133753 0.3875991868159619 0 0.2310105543490024 0.3996089412547602 0 0.2460178873527872 0.4149412111628625 0 0.2490946584694652 0.4269418926092171 0 0.2521717113697795 0.4389456270316915 0 0.2552478486176527 0.4509505281748852 0 0.2702593999376531 0.4662996168715786 0 0.2733340551199905 0.4783101931358005 0 0.2764030549707077 0.4903201308108582 0 0.2794679274712692 0.5023429662602106 0 0.2825355460523401 0.514370254583301 0 0.2856165161713042 0.5263928350900837 0 0.2886994578382224 0.5384158938686832 0 0.3037809369995896 0.5537645626926074 0 0.3069688283136032 0.5658043109738061 0 0.3100769634551232 0.5778438084300405 0 0.3131733987129778 0.5898845243533393 0 0.3162574924368514 0.6019215068242796 0 0.319342032144932 0.6139602836408795 0 0.3343997866808927 0.629349990799874 0 0.3374877016343978 0.6413952514990275 0 0.367528132625515 0.6722095626540208 0 0.3950567445286533 0.7358417083460336 0 0.4256126301207185 0.8116233117480304 0 0.428707663906423 0.8236983214725541 0 0.4562675673643325 0.8874617818192903 0 0.4901672368732021 0.9746715550151507 0 0.3523995005298988 0.6568209564422826 0 0.1858956196113006 0.2726587952172654 0 0.1865427838113606 0.2851321559850409 0 0.1968993769643381 0.3014276566760871 0 0.2340834716791972 0.411603642002677 0 0.258321104377056 0.4629594987259826 0 0.2917881462469866 0.550429639061878 0 0.3224269715913273 0.6260013913316895 0 0.3405759993725725 0.6534404140612784 0 0.3555558336346033 0.6688421321106353 0 0.3707134959815349 0.68427681080134 0 0.3738095230029401 0.696306329205955 0 0.3768831799276646 0.7083627106941369 0 0.379884238950267 0.7204430926073327 0 0.383052313774546 0.7324891636574015 0 0.3981503589344034 0.7479063666162783 0 0.4012365063999309 0.7599749142711766 0 0.404326349021837 0.7720447907573054 0 0.407418205171751 0.7841171100484232 0 0.4105093036969921 0.7961916762241238 0 0.4136057796666778 0.8082652232841171 0 0.4318064980493964 0.8357749909042562 0 0.4349128130483454 0.8478536274573836 0 0.4380173081859745 0.859938735127475 0 0.4411152628975341 0.8720202115916998 0 0.4442249952603665 0.8840992998084887 0 0.4593876365525796 0.8995483262517492 0 0.4624958954605584 0.9116453692211373 0 0.4655946133755893 0.9237398714654235 0 0.4687046091077002 0.9358334128445126 0 0.4718165657347227 0.9479229017170048 0 0.4749344151679352 0.9599757184599076 0 0.4927698672159157 0.987666407759682 0 0.4781316098908315 0.9717312341378094 0 0.5000000000020587 1 0 0.187111966972492 0.296222476651553 0 0.1981140855422076 0.3126168387345776 0 0.2007133113435805 0.3243551457148893 0 0.2037782884524394 0.3363338054204413 0 0.2068083234569877 0.3483206497379288 0 0.2097305547254336 0.3603428640876928 0 0.2128243415655403 0.3722882026986933 0 0.2160009737231464 0.3842791422267784 0 0.2190876167175388 0.3962725425396183 0 0.2221529486570699 0.4082613634794642 0 0.2371598645404102 0.4236037168188407 0 0.2402356176595073 0.4356057397398693 0 0.2433128696599814 0.4476111672673563 0 0.2463872816443127 0.4596167607205585 0 0.2613940365825991 0.4749695788622412 0 0.2644688282530758 0.4869817148489612 0 0.267534272801805 0.4989960796595965 0 0.270595312221068 0.5110192753852997 0 0.2736642919942657 0.5230494103742489 0 0.2767508066984473 0.5350659845788007 0 0.2798466102525308 0.54708659727578 0 0.2949420873472383 0.5624578747661929 0 0.2980778128802364 0.5744871307377837 0 0.3012048855912323 0.5865360058970703 0 0.3042907998648092 0.5985724908995566 0 0.3073736338778043 0.6106106518847106 0 0.3104560968832691 0.6226513376897301 0 0.3255124880010015 0.6380447958776694 0 0.3285986391422285 0.6500904685818266 0 0.358737561110975 0.6808925219077878 0 0.38612700355028 0.7445630329513971 0 0.4167007615054856 0.8203405681663616 0 0.4197979313797033 0.8324169606767308 0 0.4473466774767215 0.896182935913748 0 0.4822601753694936 0.9801593107670212 0 0.3436337834152454 0.6654954089552434 0 0.1755705856782306 0.2794189854762972 0 0.1758013531169668 0.291758079617479 0 0.1861095453722411 0.3080602835634913 0 0.2252153970994448 0.4202511256790379 0 0.249458144848467 0.4716264867736709 0 0.2829458696446046 0.5591134524733132 0 0.3135392726110673 0.6346941366883572 0 0.331685161666235 0.6621384712736628 0 0.346754378909099 0.677540684449503 0 0.3618260581082375 0.6929475247017634 0 0.3649140169202544 0.7050027044775935 0 0.3678652993606857 0.7170931191982935 0 0.3709750232048528 0.7291538193700539 0 0.3741559552613997 0.7412186283112429 0 0.389212907720439 0.7566250397536711 0 0.3923116753747716 0.7686886882366294 0 0.3954075584265082 0.7807595497753008 0 0.398495137718244 0.7928355854382425 0 0.4015924881200641 0.804907291943013 0 0.4046934939452562 0.8169815176506317 0 0.4228970020869098 0.8444957259047136 0 0.4260027648730035 0.8565783037750518 0 0.4290989090786895 0.8686639525166469 0 0.4322024681536193 0.8807388773894671 0 0.4353221960295524 0.8928241845057385 0 0.4504712170373906 0.9082816212506495 0 0.4535698654269151 0.9203764721488181 0 0.4566728734704906 0.932471020885081 0 0.4597783236304488 0.9445674569204862 0 0.4628858250414433 0.956670974858996 0 0.4660890973667297 0.968403647175344 0 0.479117975611338 0.9892743215441416 0 0.4702356519768903 0.9788514684084282 0 0.4875000000020284 1 0 0.1807651195565161 0.3004930869915126 0 0.1888095220361607 0.3210308625759651 0 0.1918425125542123 0.3330125304631544 0 0.1948381622126329 0.3450095401969002 0 0.1978649865362686 0.3569997916644245 0 0.2008893177597188 0.3689934891487824 0 0.203970288697838 0.3809737498389336 0 0.2071436752254843 0.3929395249455353 0 0.2102127468287556 0.4049274053532729 0 0.213278185907169 0.4169148316214584 0 0.2282934368424783 0.4322576422412369 0 0.2313782031280819 0.4442710878667587 0 0.2344542664183184 0.4562760545171409 0 0.2375252860017376 0.4682828006311515 0 0.2525271175889662 0.4836413170519345 0 0.2556038987445864 0.4956558935454641 0 0.2586760467838665 0.5076626778916009 0 0.2617467073400369 0.519685138169148 0 0.2648152030898625 0.5317213640667225 0 0.2679257378119725 0.5437434417699906 0 0.2710328691159972 0.5557629287930684 0 0.2860909299984091 0.5711481526577705 0 0.2892425712234246 0.5831886390266858 0 0.2923268407428505 0.5952235738434409 0 0.2954144538843652 0.6072423178830609 0 0.2985018924721805 0.6192758512834039 0 0.3015861703053174 0.6313301931938919 0 0.3166233578655349 0.6467389212692713 0 0.3197066944723486 0.6587861904908872 0 0.3498424001470677 0.6895939056582422 0 0.3771669631794413 0.7532864487883236 0 0.4077871931340428 0.82905944485501 0 0.4108852195196627 0.841138201994864 0 0.4384470790467562 0.9049177051871028 0 0.3347722337920817 0.67418878746948 0 0.1650000004116476 0.2857883830112 0 0.1740376127643644 0.3059315081335269 0 0.1769345245766259 0.3177356474834381 0 0.2163504640150752 0.4289168081651422 0 0.2405898096040149 0.4802954949687243 0 0.2741383124345723 0.5678137729526014 0 0.3046592431064737 0.643384660051841 0 0.3227911333636898 0.6708359444244649 0 0.3378595885126501 0.6862405226690947 0 0.3529295498155945 0.7016497681963797 0 0.3558722955652299 0.7137431374013542 0 0.3589662720391763 0.7258008461284225 0 0.3620715338237007 0.7378628831459539 0 0.3651647581785508 0.7499295181767601 0 0.380296860600357 0.765328748800417 0 0.3833898700795585 0.777399086061907 0 0.3864836893419359 0.7894752841241268 0 0.3895817500351905 0.8015485893294936 0 0.3926785689137199 0.8136226941408696 0 0.3957777672487071 0.8256990360498997 0 0.4139857955077537 0.8532192066612687 0 0.4170827845350659 0.8653023761956212 0 0.4201805036905027 0.8773850245130436 0 0.4232963334551103 0.8894657366338813 0 0.4264179515929781 0.9015526286801842 0 0.4415462462549796 0.9170119523871395 0 0.4446463896759236 0.9291079456326498 0 0.4477493910392347 0.9412051652217245 0 0.4508537280242639 0.9533050346014386 0 0.453954468393295 0.9654064233439065 0 0.4573665529801861 0.977691523935885 0 0.4750000000019764 1 0 0.4674713721948201 0.9891631377937402 0 0.1646598256134487 0.2982707927826715 0 0.1799251130004329 0.3296718128045705 0 0.1829387277085512 0.3416562629847765 0 0.1859349495494465 0.3536733920736834 0 0.1889786517103705 0.365661580953381 0 0.1920479408863221 0.3776421877183945 0 0.1951264271765468 0.3896200391031365 0 0.1982569870254371 0.401601233911386 0 0.201344612416808 0.4135863868087666 0 0.2043944298380814 0.4255811689833953 0 0.2194363669524569 0.4409239788576504 0 0.2225212611202376 0.4529384594658942 0 0.2255964636634432 0.4649425814696933 0 0.2286669166026487 0.4769464012252507 0 0.2436590606322598 0.4923132725954339 0 0.2467483087638732 0.5043197777662521 0 0.2498312202529951 0.5163446827095824 0 0.2529139558273079 0.5283682076235738 0 0.2560031611570856 0.5404040412291253 0 0.2591060030390846 0.5524233878992145 0 0.2622385429266093 0.5644592063744048 0 0.2772697630873061 0.5798431140275305 0 0.2803631385609823 0.5918743196741088 0 0.2834444690685237 0.6039097140443489 0 0.2865536423789505 0.6158852234629711 0 0.2896506040763764 0.6279364014497008 0 0.2927156400252756 0.6400037701476028 0 0.3077334442517897 0.6554338582374568 0 0.3108124069871143 0.6674835030480327 0 0.340947442829777 0.6982926477136925 0 0.3682356530455089 0.7619912734603626 0 0.3988731085783326 0.8377781927134812 0 0.4019702864312338 0.8498596811579813 0 0.4295234436130821 0.9136478868321404 0 0.3258783036469221 0.682887192929486 0 0.1541986477213425 0.2917580796497491 0 0.163549319161518 0.3127522640287805 0 0.1680707860160749 0.3263380311356155 0 0.207485585539246 0.4375867969165433 0 0.231743993924709 0.48896364505996 0 0.2653057127298165 0.5764954960520717 0 0.2957677790467184 0.6520787048222123 0 0.3138965190861745 0.6795341342390119 0 0.3289633379749337 0.6949384834348289 0 0.3438788075673845 0.7103836706313696 0 0.3469711742772731 0.7224454664348428 0 0.3500613506066051 0.7345066609995144 0 0.3531505557025768 0.7465707606308524 0 0.3562466072223354 0.7586362735939689 0 0.3713747091799399 0.774046719896809 0 0.3744720615379776 0.7861167916887601 0 0.3775730054163129 0.7981877649652918 0 0.3806676107008669 0.8102629153654184 0 0.3837641361074262 0.8223392626913373 0 0.3868615777151312 0.834417857435837 0 0.4050680002884439 0.861941393412755 0 0.4081638422507411 0.8740266760015093 0 0.411267599602142 0.8861038617952918 0 0.414387281661867 0.8981898429195634 0 0.4175006007098264 0.9102833979289946 0 0.4326213785284395 0.9257423301365961 0 0.4357219136065013 0.9378401450047612 0 0.4388231178277807 0.9499393882859312 0 0.4419241567383833 0.9620396963278495 0 0.4451243273748606 0.9738382541334144 0 0.455930658600157 0.989673489234809 0 0.4625000000019244 1 0 0.1535066682257092 0.3040799164466825 0 0.1710736178425353 0.3383084096788255 0 0.1740188960263685 0.350334397868534 0 0.1770725122406593 0.3623273015950437 0 0.1801371005935619 0.3743102492888848 0 0.1832076499064857 0.3862912247345047 0 0.1862860285739172 0.3982785128636344 0 0.1893792125009685 0.4102650257582534 0 0.1924564763014798 0.4222568627207542 0 0.1955271092225203 0.4342544850625047 0 0.2105845390721676 0.4495986294784968 0 0.2136623166377698 0.4616055737227278 0 0.2167368831074828 0.4736117914229352 0 0.2198149455345032 0.4856239964929723 0 0.234824505279332 0.5009860856708993 0 0.2379097389761019 0.5130145211380898 0 0.2409954789010188 0.5250216020344193 0 0.2441087550504392 0.5370544689182333 0 0.2471813569594896 0.5490846286727323 0 0.2502733033253577 0.5611122777025827 0 0.2533560444600341 0.5731445573576328 0 0.2683990189708408 0.5885257211824088 0 0.271481959372158 0.6005591150778923 0 0.2745972599385038 0.6125361334656808 0 0.2777346114713187 0.6245548869885938 0 0.2807840155874003 0.6366147892143326 0 0.2838412272971075 0.6486859113190196 0 0.2988311840325493 0.6641311697424973 0 0.3019153873087558 0.6761809269418715 0 0.3319138128327855 0.7070210047337919 0 0.3593432699953685 0.7707005352271064 0 0.3899583031016459 0.8464981515361699 0 0.393053922476204 0.8585805037601524 0 0.4205978684347976 0.9223785342852185 0 0.4492893579745698 0.9820733356493863 0 0.3169733719454824 0.6915764606315639 0 0.1431816342860958 0.2973197262260995 0 0.151342408183162 0.3140413129439774 0 0.1592478604223009 0.3349783009601088 0 0.1561840013587424 0.3230119549070852 0 0.1986393532336743 0.446255302913983 0 0.2229017001214243 0.497642140284867 0 0.2564368462092104 0.5851770708416939 0 0.2868668496085586 0.6607758955015688 0 0.305000155695097 0.6882316495917675 0 0.3200135348048718 0.7035958044531878 0 0.3349976756312302 0.7190848151393375 0 0.338071523138043 0.7311504994385399 0 0.3411577285972025 0.7432138131709853 0 0.3442473748741171 0.755279194474384 0 0.3473380315378904 0.7673463595943489 0 0.3624392788298414 0.7827688951444126 0 0.3655710709603511 0.7948280514012749 0 0.3686628833004742 0.8069037388968221 0 0.3717561490658333 0.8189794461743366 0 0.374851879587603 0.831057898801764 0 0.3779473542160806 0.8431374257404438 0 0.3961503080113751 0.8706628585952665 0 0.3992461770953776 0.882747855793917 0 0.4023579812177377 0.8948303222233074 0 0.4054690935173617 0.9069184299239963 0 0.4085745514452088 0.9190135322733498 0 0.4236961162716879 0.9344749880131801 0 0.4267952537050342 0.9465731096471791 0 0.4298947022294964 0.9586732337795939 0 0.4331443196733218 0.9702362420676977 0 0.4377559720117228 0.9808134642970412 0 0.4500000000018723 1 0 0.4435120252844447 0.990212343175129 0 0.1423511935077425 0.3089101162530973 0 0.1622020239413894 0.3469772040097912 0 0.1651847708367656 0.3589748772441477 0 0.1682282759544389 0.3709791881614896 0 0.1712982622686467 0.3829616391695477 0 0.1743714219377525 0.3949457142183253 0 0.1774446796890039 0.4069324394745535 0 0.180519909631886 0.418923272557468 0 0.1835911955639197 0.430918150303868 0 0.1866883493210245 0.4429193846430605 0 0.2017234450677997 0.4582648680772248 0 0.2048021490147528 0.4702737197512198 0 0.2078796739625579 0.4822854517638778 0 0.2109581202407805 0.4943002095715028 0 0.2259842292576239 0.5096631571807938 0 0.2290648308399427 0.5216864200704618 0 0.2321507269547261 0.5337099199979 0 0.2352338021924791 0.5457368044435403 0 0.2383160042440817 0.5577656606811551 0 0.2413976602108693 0.569796264070203 0 0.2444784580144875 0.5818279190707508 0 0.2595200062835649 0.5972097746168002 0 0.2626327493831732 0.6091865741805748 0 0.2657716207085389 0.6212012699494266 0 0.2688805215925666 0.6332317991729063 0 0.2719131399553966 0.6453066998535818 0 0.274945549818888 0.6573815593405495 0 0.2899360908351422 0.6728288010326902 0 0.2930196463645097 0.684879767055923 0 0.3230696522993839 0.7157084333743174 0 0.3504291923955892 0.7794148639051536 0 0.3810427530245133 0.8552185857550421 0 0.384137721980669 0.8673000598231942 0 0.4116717883213473 0.9311093715832461 0 0.3080767541800958 0.7002746081905326 0 0.1319643683768501 0.3024655442838061 0 0.1437874017891619 0.3207378479097019 0 0.1472169210230908 0.3318449008037537 0 0.150384899938572 0.3436290502097509 0 0.1897771909241697 0.4549221480230772 0 0.2140369053716598 0.5063188836365335 0 0.2475590984111526 0.59385996050871 0 0.277977165282026 0.6694713539696393 0 0.2961040661543736 0.6969306835718139 0 0.3111091549769577 0.7123262035522367 0 0.3260956037111251 0.7277907426264103 0 0.3291659524310465 0.739857372726332 0 0.3322540921772922 0.7519213298923726 0 0.3353420674262825 0.7639879525191098 0 0.338432617415955 0.7760564575910408 0 0.3535201361109622 0.791484320125716 0 0.356657455218958 0.803546157529063 0 0.3597509706829018 0.8156201194186853 0 0.3628440739265387 0.8276970411691151 0 0.3659379864946082 0.8397763595995151 0 0.3690322981505932 0.851857372327999 0 0.3872353393073978 0.8793816568784224 0 0.3903355071902531 0.8914666607647621 0 0.3934422282394252 0.9035552821423142 0 0.3965508056997887 0.9156488899444678 0 0.3996480862598162 0.9277436808978707 0 0.4147687472918918 0.9432069144333989 0 0.417866222852692 0.9553061716423776 0 0.4208812856218008 0.9674142605182285 0 0.4245286571308164 0.9788137158011038 0 0.4309371446323245 0.9897068949555176 0 0.4375000000018203 1 0 0.1309451904939043 0.3163325794372193 0 0.1533020985817945 0.3556381880973801 0 0.1563195383645243 0.3676457793257503 0 0.1593876188641605 0.3796271413704613 0 0.1624573975449962 0.3916116185107483 0 0.165528605397126 0.4035984218904222 0 0.1686017508334277 0.4155883130306702 0 0.1716752996880116 0.4275788387100559 0 0.1747541474741738 0.4395831293894825 0 0.1778410995076893 0.4515830921654476 0 0.1928638708081757 0.4669316455565659 0 0.1959389879206643 0.478942315920215 0 0.1990136146032402 0.4909564408568011 0 0.2020885047257361 0.5029747331309549 0 0.217116679893164 0.5183396559564414 0 0.2201966100183399 0.5303645169466904 0 0.2232769917047785 0.542390479229909 0 0.2263573240872258 0.5544188078049923 0 0.229438247208831 0.56644860174352 0 0.2325188311482772 0.578479442806606 0 0.2355989664279617 0.5905110509021537 0 0.25066502284808 0.6058343103976056 0 0.2537984287704924 0.6178535727458725 0 0.2569212920928498 0.6298907724389293 0 0.2599939683318154 0.6419215912166459 0 0.2630162903214533 0.6539813236289799 0 0.2660586264487861 0.6660681717705094 0 0.2810459891625646 0.681526033563101 0 0.2841218442817959 0.6935798541664238 0 0.3141414806293114 0.7244143857205398 0 0.3415222703161426 0.7881260964290643 0 0.3721262961916972 0.863938532156706 0 0.3752240874711382 0.8760204315184493 0 0.4027434848828715 0.9398409737945466 0 0.2991803947272726 0.7089738249202452 0 0.1205625383650242 0.3071883369253822 0 0.1351762632430097 0.3283232231483088 0 0.138411998992498 0.3403745230660771 0 0.1413926603202422 0.3523259958728159 0 0.1809267226475614 0.4635900935829493 0 0.2051647122529921 0.5149948622074356 0 0.2387003445903857 0.6024829919560239 0 0.2690790155024477 0.6781680656778607 0 0.2872077261927157 0.7056305776579972 0 0.3022180409392569 0.7210216669674687 0 0.317191234786701 0.7364971957617216 0 0.3202626270557203 0.7485633467038081 0 0.3233513923316723 0.7606282833673754 0 0.326438969691543 0.7726965924324494 0 0.3295248891796819 0.784767705085079 0 0.344612951617134 0.8001952442478146 0 0.347743182189527 0.8122607044476112 0 0.3508385411576099 0.8243364457833279 0 0.3539307160526095 0.8364147189299428 0 0.3570231082392162 0.8484952798353326 0 0.3601160008391229 0.8605770958210651 0 0.3783254725480971 0.8881031293177696 0 0.3814273861405615 0.9001929544136553 0 0.3845287178463013 0.912284487144444 0 0.3876256444569889 0.9243774663122825 0 0.3907221195681125 0.9364725629132084 0 0.405838378566207 0.9519393301599528 0 0.4089361063658746 0.9640404412526636 0 0.4111695857941096 0.9774892603239651 0 0.4185521040012929 0.9888722584238507 0 0.4250000000017684 1 0 0.1176584056915207 0.319603675497876 0 0.1251449940738929 0.3269841773785124 0 0.1444070608389726 0.3643124018540941 0 0.1474769565971499 0.3762932893462936 0 0.1505434664654902 0.3882766995092995 0 0.153612317817245 0.4002634406335737 0 0.1566835243373703 0.4122529374761654 0 0.1597590274643932 0.4242456890099601 0 0.1628349945269685 0.4362438192154898 0 0.16591163356115 0.4482453191931663 0 0.1689915153860196 0.460248525393641 0 0.1840020703633489 0.4755949658976111 0 0.1870799013743465 0.4876052634481732 0 0.1901441066879257 0.4996281422095826 0 0.1932208192102878 0.5116481128962657 0 0.2082429218637619 0.5270187936349507 0 0.2113210758875587 0.5390439547459209 0 0.2144002992590882 0.5510719788588406 0 0.2174796179337015 0.5631008607143061 0 0.2205597582740484 0.5751312941131771 0 0.2236397655757024 0.5871480650705515 0 0.2267394022722592 0.5991400910099405 0 0.241826676412935 0.6145080110518276 0 0.2449380688677311 0.6265430279082015 0 0.2480340875538745 0.6385803903222212 0 0.2511060902848333 0.6506109952186977 0 0.254135029909318 0.6626845804149154 0 0.2571631765790547 0.6747755443349642 0 0.2721421727094663 0.6902283594760709 0 0.2752263418415546 0.7022804997274789 0 0.3052579977331706 0.7331154669090469 0 0.3326152627492477 0.7968383136877992 0 0.3632109712041978 0.8726597097820162 0 0.3663101267501003 0.8847437546466033 0 0.3938141676434067 0.9485726291073675 0 0.2902843009061808 0.7176742152681943 0 0.1089920907400804 0.3114814988985801 0 0.1266989534377206 0.3373277445798188 0 0.1294399451472741 0.3489937627447124 0 0.1324959174125795 0.3609771191673237 0 0.1720662675778497 0.4722516577116282 0 0.1962966568008704 0.523669476054663 0 0.2298702903576914 0.6111595804710901 0 0.2601756681131812 0.6868728642835212 0 0.2783111562602485 0.7143309486000767 0 0.2933123577135577 0.7297282909577026 0 0.3082910233958445 0.7452015337727469 0 0.3113627715066188 0.7572681148968555 0 0.3144478261325773 0.7693323637596582 0 0.3175313238853028 0.7814052622885193 0 0.3206160012346546 0.7934796465619196 0 0.3357098317046561 0.808910322588946 0 0.3388269135802184 0.8209776930838127 0 0.341920969798643 0.8330541430931246 0 0.3450140764220878 0.8451335884996523 0 0.3481064125795427 0.8572145768946666 0 0.3511992865193846 0.8692974381030344 0 0.369409488767406 0.8968309310722645 0 0.3725071833857516 0.9089212669286835 0 0.3756039443443532 0.9210121402368431 0 0.3787024126641401 0.9331054541944553 0 0.3818004753833951 0.9452012268032725 0 0.3969066378112697 0.960672710465556 0 0.3992086088809945 0.9720244799451186 0 0.4060585963203712 0.9897757533881119 0 0.4125000000017163 1 0 0.1055994419206815 0.3233950294739192 0 0.1144050854885389 0.3326543573744332 0 0.1355520891173352 0.3729594548003924 0 0.1386291981513795 0.384942335672781 0 0.1416958869085384 0.3969275007889865 0 0.1447656871876 0.4089165513458307 0 0.1478371265027505 0.4209090180479514 0 0.1509104974908764 0.4329052354546165 0 0.1539837116469588 0.4449045329279011 0 0.1570575865569765 0.4569080279243867 0 0.1601304074311801 0.4689132909182375 0 0.1751485745636554 0.4842502089759296 0 0.1782340512897115 0.496270707534917 0 0.1813110662429923 0.5082895511755221 0 0.1843879000165074 0.520308549735859 0 0.1993760180657307 0.5356929319077484 0 0.2024491007792733 0.5477218586604115 0 0.2055272962869567 0.5597518145303124 0 0.2086106771585998 0.5717811231610278 0 0.2116799943789709 0.5838103826583066 0 0.2147744769434342 0.595819288199118 0 0.2178844992278602 0.607831765126231 0 0.2329813639422747 0.6231938053147701 0 0.2360665644339604 0.6352316155755896 0 0.2391465256580224 0.6472705889761242 0 0.2422185409527153 0.6593016379797511 0 0.2452330766590281 0.6713634504498204 0 0.2482631351374778 0.6834808715569071 0 0.2632426830055263 0.6989285045271126 0 0.2663296913648172 0.7109794784734834 0 0.2963400158628865 0.7418210420650346 0 0.3237070462764319 0.805551101730637 0 0.3542941319584418 0.8813818364719392 0 0.3573897762445061 0.8934681378405305 0 0.3848973632885633 0.9573002955676911 0 0.4000768386432296 0.9818625332403914 0 0.281387007734597 0.7263742335242204 0 0.09726920781542421 0.3153390258292809 0 0.1174879225451877 0.3456746151002439 0 0.120552696284504 0.3576468688204518 0 0.1236310527671494 0.3696242309114758 0 0.1632131926973379 0.4809121211460329 0 0.1874661330759106 0.532330547633964 0 0.2210124412677802 0.619849656340893 0 0.2512758690873569 0.6955891878015108 0 0.2694141536154515 0.7230315012569261 0 0.2844206177986969 0.7384233450977941 0 0.2993899852820361 0.7539061983775222 0 0.3024600745838136 0.7659731331899194 0 0.3055391424345578 0.778044759800694 0 0.3086211215216644 0.7901174542002375 0 0.3117066641019044 0.8021921146355556 0 0.3268063034027949 0.8176226288493637 0 0.3299063126025588 0.829696152238935 0 0.3330052418051959 0.8417711642118521 0 0.3360963046577595 0.8538525932884663 0 0.3391883238119631 0.8659349653600288 0 0.3422815859775146 0.878018928362912 0 0.3604869726112436 0.9055575888875438 0 0.363582600275293 0.9176484427228174 0 0.3666800177583053 0.9297391424259549 0 0.3697810776613532 0.9418348029750657 0 0.3728826024859389 0.9539335690479877 0 0.3875165631809763 0.9689017271074936 0 0.3898173539379182 0.9798958759990358 0 0.4000000000016644 1 0 0.3941300482827548 0.9901272965457257 0 0.09259792384803907 0.3274485860825717 0 0.1025212563068229 0.3330840000668613 0 0.1055927909216614 0.3428021170155047 0 0.126705493357076 0.3816065861861504 0 0.129778416130669 0.3935913653409255 0 0.1328475122776229 0.4055782056785266 0 0.1359166779645808 0.417570216565345 0 0.1389852482024321 0.4295653784031098 0 0.142054396694885 0.4415639782480376 0 0.1451250379901062 0.453566629144302 0 0.148196797497422 0.4655719088515869 0 0.1512715267493691 0.4775743458320473 0 0.1663181374926853 0.4929207672384863 0 0.169403512432841 0.5049327252694594 0 0.1724808180358172 0.5169510021017797 0 0.1755589080115277 0.5289702214031756 0 0.1905412341437738 0.5443514873838026 0 0.1936189256488623 0.5563811632004581 0 0.196693977444047 0.5684204707502122 0 0.1997333634137473 0.5804625750686411 0 0.202801498435927 0.5924923979191327 0 0.2059044672581466 0.6045031762782634 0 0.2090174204821569 0.6165167074318213 0 0.2240964199562786 0.6318831029172007 0 0.2271785365729299 0.6439213896930477 0 0.2302584780240323 0.655961053763483 0 0.2333295129618293 0.6679915639351233 0 0.2363454178850356 0.6800981346707847 0 0.2393634423485213 0.6921891503606735 0 0.2543481189775043 0.7076272919977935 0 0.2574321806435328 0.7196799635854673 0 0.287456677098868 0.7505222189790379 0 0.3147976199366879 0.8142643021287495 0 0.345374912059105 0.8901048938179583 0 0.3484677049560598 0.9021936278929593 0 0.375980387795843 0.9660348865423484 0 0.2724901012629469 0.7350753432929936 0 0.08541028510750483 0.3187555226154595 0 0.1086509813117842 0.3543135948673558 0 0.1117146895562052 0.3662890311182392 0 0.1147864814879115 0.3782699472913419 0 0.154360832151677 0.4895810696305916 0 0.1786382622850866 0.5409923201152024 0 0.2121274096098423 0.628537229354747 0 0.242383598875728 0.7042930462215715 0 0.2605169295632036 0.7317326309809229 0 0.275513004834895 0.7471309994317379 0 0.2904842326885015 0.7626125477777809 0 0.2935491980036408 0.7746829442747905 0 0.296625310480349 0.786757401091041 0 0.2997089084778781 0.7988323535171952 0 0.3027969053893395 0.8109052056585787 0 0.3178945505379847 0.8263380034479261 0 0.320988794201131 0.838413533457132 0 0.3240846744878663 0.8504918484026492 0 0.3271771849499605 0.8625726449796339 0 0.330270093429416 0.8746553717455526 0 0.3333629580356561 0.8867398104275928 0 0.3515621080904479 0.9142844218836199 0 0.3546593564836863 0.9263762114521195 0 0.3577586131587038 0.9384706686546167 0 0.3608586558538173 0.9505679987951554 0 0.3639562262984922 0.9626675800011012 0 0.3787291099975639 0.9776545760583873 0 0.3818548293719843 0.9894948520374404 0 0.3875000000016123 1 0 0.08094311195476565 0.3269780553534091 0 0.09414737231062532 0.3397016253712872 0 0.09675303798480996 0.3509780988856558 0 0.1178587102819914 0.3902538638499212 0 0.1209294906915444 0.402240959403186 0 0.1239980789483116 0.4142311778628421 0 0.1270656880300826 0.4262233915994679 0 0.1301280013244625 0.4382222627524355 0 0.1331944816984326 0.4502248392431308 0 0.1362639767541786 0.4622296329300714 0 0.1393357077937883 0.4742365388580552 0 0.1424119875238631 0.4862407972936145 0 0.1574516545433099 0.5015891480558137 0 0.1605344332144027 0.5136066150056855 0 0.1636110449183758 0.5256258473181012 0 0.1666894689493444 0.5376467414858791 0 0.1817233326855189 0.5530137739886309 0 0.1847823255327447 0.565041671650846 0 0.1878086425636189 0.5770914726975425 0 0.1908452027200567 0.5891474024136749 0 0.1939214743990416 0.6011761088065087 0 0.1970216875807704 0.6131895243372151 0 0.2001540179485418 0.625188893153579 0 0.2152103458601116 0.6405716502639449 0 0.2182909815991019 0.6526123768544844 0 0.2213708465801943 0.6646518983349426 0 0.2244411516981687 0.6766831734678931 0 0.2274450314062544 0.6887689175836068 0 0.2304676016992752 0.7009047443296615 0 0.2454525454388714 0.7163309062506334 0 0.2485330138295504 0.7283818817115526 0 0.2785338681191277 0.7592279168238271 0 0.3058879670584149 0.8229781357133074 0 0.3364535309342537 0.8988271772482441 0 0.3395454232362295 0.9109177234181663 0 0.3672148065579915 0.9741940823715942 0 0.2635920055553047 0.7437758805583444 0 0.0734319083922034 0.3217262109774072 0 0.08245718050722456 0.3364843493984082 0 0.09981068587076802 0.3629536730056702 0 0.1028755722257878 0.3749335283280712 0 0.1059437622122692 0.3869163530077339 0 0.1454984939034965 0.4982492382175548 0 0.169770118844947 0.5496680700641043 0 0.2032432367988107 0.6372213531861646 0 0.2334802307267904 0.7129916735830881 0 0.2516192054559157 0.7404340899601982 0 0.2666194194530354 0.7558246835636788 0 0.2815731560171766 0.7713175438790164 0 0.2846266886432163 0.7833977283176354 0 0.2877065358700167 0.7954762867540001 0 0.2907969135039949 0.8075456587637591 0 0.2938866966424964 0.8196180408877962 0 0.3089803060263207 0.8350532683000709 0 0.3120736297771257 0.8471307195875865 0 0.3151668915360258 0.8592104348912255 0 0.3182595697914676 0.8712918950551588 0 0.3213520326349321 0.8833741936260673 0 0.3244448418934098 0.8954595540376595 0 0.3426366938073563 0.9230108314061256 0 0.3457324297976571 0.9351047681191736 0 0.3488313204524091 0.9472016072205532 0 0.3519282460250149 0.9593003000226584 0 0.3556065722028782 0.9706638140572084 0 0.3684931112715716 0.9873228808206092 0 0.3750000000015603 1 0 0.07020174675253556 0.3332228853944788 0 0.08483021077290986 0.3477034582704265 0 0.08790812358192618 0.3596195970907661 0 0.109012911438147 0.3989023007518354 0 0.112080625169072 0.4108921416299385 0 0.1151467804638672 0.4228830290226103 0 0.1182047519314865 0.4348822006559912 0 0.121263693108919 0.4468806492960538 0 0.1243317843180446 0.4588858830878845 0 0.1274010605662058 0.4708943535076714 0 0.1304735943642614 0.4829029958653016 0 0.1335488122227936 0.4949133602539261 0 0.1485884732651681 0.510261982050488 0 0.1516640273147018 0.5222803700116047 0 0.1547403235506103 0.5343012469830313 0 0.1578181560855192 0.5463227430316614 0 0.1728425494986019 0.5616853683505858 0 0.1758757766448071 0.5737283695243155 0 0.1789062012577114 0.5857806263696657 0 0.1819641824275877 0.5978308499547403 0 0.1850432529216462 0.6098612175965227 0 0.1881456695980692 0.6218719655213528 0 0.1912683140721444 0.6338771401302482 0 0.2063240668871012 0.6492606333902743 0 0.2093988149306691 0.6613048435262286 0 0.2124820603083662 0.673343464183912 0 0.2155518190638685 0.6853744732938217 0 0.2185578432244498 0.6974988544003976 0 0.2215630126543535 0.709585246786658 0 0.2365492529508245 0.7250299406679053 0 0.2396363293681021 0.7370829797011553 0 0.269641105946665 0.7679282275559772 0 0.2969766409867798 0.8316922829397096 0 0.3275388859173732 0.9075446664192586 0 0.3306261354587952 0.9196394348389403 0 0.3590589853633979 0.9801469084350117 0 0.2546944512769141 0.7524776744844056 0 0.06135083051289237 0.3242469361387681 0 0.07324742132774141 0.3448031275325934 0 0.09097019681512206 0.3715970811131151 0 0.09403318890178936 0.3835787353616767 0 0.09709713895695377 0.3955648909468488 0 0.1366354387047046 0.5069229586365986 0 0.1608972896578647 0.5583433294025641 0 0.1943425056807467 0.6459224735513952 0 0.2245630665287859 0.7216801624907093 0 0.2427212949752712 0.7491359166514482 0 0.25770272278067 0.7645333473450846 0 0.2726291829871071 0.7800230645734813 0 0.2757115059972353 0.7921128969863427 0 0.2787982300074234 0.804186524916335 0 0.2818809530681544 0.8162602752366049 0 0.2849661720615653 0.8283349601466199 0 0.3000678082369297 0.843768710726169 0 0.3031584152463677 0.8558476492619469 0 0.306249657452989 0.8679288514552497 0 0.3093417480852174 0.8800106647541192 0 0.312434260634994 0.8920936203597282 0 0.3155273832032509 0.9041778561450667 0 0.3337134162314177 0.9317378464767527 0 0.3368056883177798 0.9438342215462625 0 0.33990138063145 0.9559332642641 0 0.3429979177735549 0.9680336283657734 0 0.3484531327545344 0.9797373741464749 0 0.3625000000015083 1 0 0.3552646711958519 0.9896621348536108 0 0.05662185826500218 0.3353686972384284 0 0.06328921502737798 0.3432678759045937 0 0.07600645903369793 0.3562844600427626 0 0.07906704011101678 0.3682602996953228 0 0.1001634604201903 0.4075541296921931 0 0.1032305788527337 0.4195436576925449 0 0.1062910844091896 0.4315366970301558 0 0.1093462154698178 0.4435331159098267 0 0.1123999131025182 0.4555390693083385 0 0.1154665432230436 0.467551080289668 0 0.1185367669757961 0.479560079185875 0 0.1216099319860358 0.4915702236116142 0 0.1246903139439481 0.503581385101472 0 0.1397177331558174 0.5189369457097556 0 0.142792343279381 0.5309558063984149 0 0.1458691329238344 0.5429768544946219 0 0.1489459194592046 0.5549978553968609 0 0.1639429118912429 0.5703571292155759 0 0.1669720291249229 0.5824139488616787 0 0.1700050429799971 0.5944833593732234 0 0.1730845938174251 0.6065144425044861 0 0.1761625105563763 0.6185438029184085 0 0.1792565303003567 0.6305654537658983 0 0.1823356812801018 0.6426091753213057 0 0.1974183623960554 0.6579631719335659 0 0.2005065718131958 0.6699975164601935 0 0.2035932301915845 0.6820359054202562 0 0.2066632008077709 0.6940670231567193 0 0.2096576714122513 0.7061604316445 0 0.2126516623345683 0.7182756142715934 0 0.2276570982064955 0.733724280385382 0 0.2307383056945758 0.7457844210425527 0 0.2607033693976691 0.7766431550452926 0 0.2880537792818384 0.8404105764442683 0 0.3186188519670967 0.916270097525415 0 0.3217091406532875 0.9283660295821291 0 0.2457935047101148 0.7611767203962737 0 0.04918394794963005 0.3263141726374876 0 0.06459074222873507 0.3531659438648864 0 0.08212869327492198 0.3802384144641934 0 0.08518803016867946 0.3922239020080772 0 0.08824637018308809 0.4042157081690328 0 0.1277688057370042 0.5155948404863965 0 0.1520161202407093 0.5670025127024826 0 0.1854359659023672 0.6546261920066009 0 0.2157105460250313 0.7303296852216006 0 0.2338225921587397 0.7578374734249002 0 0.2488077516855218 0.7732281704829728 0 0.2637389851478783 0.7887464062757409 0 0.2668031373915724 0.8008254307737982 0 0.2698917499301278 0.812895700011925 0 0.2729569450521147 0.8249764347207379 0 0.2760420173380085 0.8370521506506037 0 0.2911464018511246 0.8524874688266937 0 0.2942410338173775 0.8645655389607896 0 0.297331801588652 0.8766474135153823 0 0.3004239065045176 0.8887306884685089 0 0.3035179305923579 0.9008159869001887 0 0.3066111867736205 0.9129021273873692 0 0.3247917678938358 0.9404625756142635 0 0.3278791029022189 0.9525647654255992 0 0.3309691625606044 0.9646645762658896 0 0.3345911312591932 0.9783653501683072 0 0.3427611780710743 0.9896689976728031 0 0.3500000000014564 1 0 0.04429600402661646 0.3375649506055399 0 0.05240490803401117 0.3483398150064503 0 0.06716395412850754 0.3649223814317727 0 0.07022434263510344 0.3769009619245224 0 0.09131336235105422 0.4162084296255695 0 0.09437920230170986 0.4281977869070258 0 0.09743531240585555 0.4401895137428822 0 0.100477926311944 0.452188943680316 0 0.1035428584954811 0.4641996750659665 0 0.1065997528569091 0.476214387730523 0 0.1096707989357715 0.4882268529318399 0 0.1127447514537051 0.5002388622748581 0 0.1158206139509291 0.5122523002553077 0 0.1308435654708714 0.5276122179622275 0 0.1339208287419561 0.5396313367211624 0 0.136997998155815 0.5516491110734907 0 0.1400767023512235 0.563663983644476 0 0.1550714145435949 0.5790457889851376 0 0.1581169439814532 0.5910845031690775 0 0.1611688428508914 0.6031355717000003 0 0.1642163520531986 0.6151881464784297 0 0.1672868109475338 0.6272282961028759 0 0.1703706110741656 0.6392596438740238 0 0.1734529621545037 0.6512937114929024 0 0.1885168706025956 0.6666625115475601 0 0.1916251195697844 0.6786858952731142 0 0.1947062133911973 0.6907305966503082 0 0.1977733160609078 0.7027586778960254 0 0.2007832959814317 0.7148426987314473 0 0.2038300330516744 0.7269120856691397 0 0.2187923499991742 0.7423863424887905 0 0.2218573467100133 0.7544644710816255 0 0.2518129955523557 0.7853464483168532 0 0.2791285629483151 0.8491292165038762 0 0.3097003797962525 0.9249904707797264 0 0.3127899680978993 0.9370895789173095 0 0.2368948296092153 0.7698787519821251 0 0.03694827719540712 0.3279250292556081 0 0.05543249582107437 0.3613780032711465 0 0.07328293966697907 0.3888828362535446 0 0.07633538678199164 0.4008709457843093 0 0.07939103974440165 0.4128688357723995 0 0.1188979781492477 0.5242678839245262 0 0.1431571145262663 0.5756777714513658 0 0.1765359396462944 0.6633276643131562 0 0.2069012932865008 0.7389677189366354 0 0.224923919791336 0.7665398446702536 0 0.2398963907908589 0.7819415020551685 0 0.2548357243548477 0.7974578858533712 0 0.2578966737255401 0.8095324910254784 0 0.2609437141666192 0.8216180515243676 0 0.2640265678764436 0.8336951586784362 0 0.267121842083121 0.8457682545524814 0 0.2822315822777616 0.8612020144133871 0 0.2853209973889897 0.8732845861457357 0 0.2884128424635329 0.8853670298029301 0 0.2915050990717352 0.897451815180719 0 0.2945973813773405 0.9095388524433299 0 0.2976903415131116 0.921627866389569 0 0.3158814626257829 0.9491880462202993 0 0.3189466046354941 0.9612472019416728 0 0.3219246418012573 0.9728184312939774 0 0.3307581332140058 0.9902491268684276 0 0.3375000000014043 1 0 0.03173184804960737 0.3391124097456674 0 0.03883629812126753 0.3486919779655069 0 0.04408889724367834 0.3590952458656838 0 0.05831765904576405 0.3735637467934328 0 0.06138335167203953 0.3855475173384895 0 0.08246053687689055 0.4248655438058025 0 0.08553079844254116 0.4368630936304246 0 0.08858021910727569 0.4488443322940651 0 0.09164527141928691 0.4608435181069316 0 0.09469735209742372 0.4728576624122854 0 0.0977460424596755 0.4848778764442375 0 0.1008042546013458 0.4968948324509496 0 0.1038783986261508 0.5089086150318164 0 0.1069529936809779 0.5209238819565221 0 0.1219739979093498 0.5362860029200214 0 0.1250503337684805 0.5483039664957875 0 0.1281303025876129 0.5603216189584989 0 0.1312143703449252 0.5723416143213843 0 0.146216675385731 0.5877078993302343 0 0.14926483157592 0.5997438892709032 0 0.1523049784485422 0.6118035087437884 0 0.1553248253078731 0.6238820944932755 0 0.1584055122795567 0.6359140895199712 0 0.1614861694829408 0.64794713704119 0 0.1645712292983098 0.6599806583129307 0 0.179629746953625 0.6753564288530318 0 0.1827297034581634 0.6873921541226616 0 0.1858168546507188 0.6994229928061513 0 0.1888863697393938 0.7114536986955767 0 0.1919406559260371 0.7235030510435098 0 0.1950172930470988 0.7355672390745228 0 0.2099478453411101 0.7510483148035433 0 0.2129423163198414 0.7631887904746381 0 0.2428957519373583 0.7940615701885746 0 0.2702117515394573 0.8578430460267191 0 0.3007806634467435 0.9337171591635042 0 0.3038763941714945 0.9458131921439361 0 0.3250000000013523 0.9822474940731389 0 0.2279957729575945 0.7785810286670537 0 0.02466093094002761 0.3290772530655549 0 0.04658650685375976 0.3703424651925398 0 0.06443298064502351 0.3975329312753634 0 0.06748407177015639 0.4095219925664401 0 0.07053378510494002 0.4215245883416129 0 0.110028275774781 0.53294071964194 0 0.1342982461099399 0.5843664576666342 0 0.1676541236119886 0.6720160027005414 0 0.1980962788776391 0.7476059276022741 0 0.2160242631766841 0.7752424035956627 0 0.2310038104377386 0.7906353319809121 0 0.2459173985373844 0.8061617109518675 0 0.2489478338992823 0.818253843898245 0 0.2520268125699021 0.8303340129830257 0 0.2551155292172152 0.8424075319603609 0 0.2582066235792861 0.8544824234948921 0 0.2733094075110306 0.8699221404967474 0 0.2764016295045217 0.8820034286015017 0 0.2794934261328468 0.894086870756291 0 0.2825845767659255 0.90617259438966 0 0.2856735078217963 0.9182622229021649 0 0.2887662635094854 0.9303530826477793 0 0.3069792106385192 0.9579120559569875 0 0.3098965409985973 0.9697656094294022 0 0.3138722769672661 0.980469210398739 0 0.3187076680193028 0.9899691865392093 0 0.3250000000013522 1 0 0.01910355599563414 0.3416049609949273 0 0.02699376760718262 0.350489030613143 0 0.03364212505264304 0.3577344705175521 0 0.03504080710797825 0.3674663138848341 0 0.04949896876939366 0.3822310262367742 0 0.05253390319950561 0.3941993757521293 0 0.07360388797432939 0.4335251355451618 0 0.07666929984612809 0.4455213100646588 0 0.07973905424449987 0.4575205947537285 0 0.08279246270812853 0.4695156284712723 0 0.0858498822008123 0.4815233280612636 0 0.08888604833072022 0.4935422847905023 0 0.09193688998364398 0.5055638870787239 0 0.09501036552388138 0.5175794010681249 0 0.09808340860274101 0.5295958090073734 0 0.1131040197953763 0.5449583396135504 0 0.1161820305896751 0.5569768523733843 0 0.1192624988475048 0.5689963500772252 0 0.122344967423767 0.5810196271864456 0 0.1373529870836994 0.5963872762470238 0 0.1404109811689086 0.6084127788650119 0 0.143444037734462 0.6204585716551109 0 0.1464641550212642 0.6325422873862306 0 0.1495285931976477 0.6445948557353672 0 0.1526074169882661 0.6566317274696718 0 0.1556888856897941 0.668667443776303 0 0.170747945587842 0.6840464396977008 0 0.1738380536318542 0.6960797337380141 0 0.1769274864126956 0.7081156960563613 0 0.1800108390273084 0.7201606549191008 0 0.1830880355161113 0.7322044138126368 0 0.1861780357114219 0.7442506133504981 0 0.201097486853492 0.7596766382372985 0 0.2040930330281122 0.7718231370839161 0 0.2339929668966972 0.8027612913130029 0 0.261299181895744 0.8665597894571818 0 0.2918617097321413 0.9424471106977437 0 0.2949584251483692 0.9545431728099892 0 0.2190968658030299 0.7872841572547482 0 0.01233909414075427 0.3297692325790653 0 0.03758867116394034 0.3788913023080416 0 0.05557823077946882 0.4061749199572673 0 0.05862815474099773 0.4181773895413753 0 0.06168209769172565 0.4301811888475703 0 0.1011583095025327 0.5416134200951568 0 0.1254229086599664 0.5930448258959982 0 0.1587728190587436 0.6807001215365297 0 0.1891830355987707 0.7562996492451994 0 0.2071250052280345 0.7839455157922207 0 0.2220769233561565 0.7993457824812261 0 0.2369797316926421 0.8148733698862118 0 0.2400305140265083 0.826964125440284 0 0.2431161259897095 0.8390460375402331 0 0.2462047342043227 0.8511202603018642 0 0.2492938652967269 0.8631965470068551 0 0.2643913024597097 0.8786399783359606 0 0.2674828407766203 0.8907219924713677 0 0.2705728735574829 0.9028057124561947 0 0.273658641709039 0.9148941329359264 0 0.2767487086137006 0.9269859460905773 0 0.2798396107541076 0.93907968741676 0 0.2980543475533264 0.9666426894582922 0 0.3015370206042455 0.9785427030112614 0 0.3061677903788416 0.9894718380454456 0 0.3125000000013003 1 0 0.009256432876112278 0.3391021550664352 0 0.01802511653078472 0.3539059740292884 0 0.02325085518310844 0.3629297842585931 0 0.02563606658352573 0.3755228766255705 0 0.04062692055884677 0.3908692206058422 0 0.04368098729019673 0.4028587701654214 0 0.06474612995746362 0.4421866178006699 0 0.06781807702920548 0.4541930811585569 0 0.07088486565683845 0.4661944697697641 0 0.07394843602084358 0.4781956664911023 0 0.07698081808433797 0.4901947242746205 0 0.08001525871912961 0.5022158811612691 0 0.08307069280835304 0.5142337313166753 0 0.0861398094414217 0.5262504820176398 0 0.08921228471753248 0.5382681259549914 0 0.1042343237826251 0.5536317783112964 0 0.1073125310958506 0.5656516088728664 0 0.110392758046888 0.5776732625192391 0 0.1134702651559185 0.5896970689484874 0 0.1285014521740693 0.6050712449600751 0 0.1315234335796788 0.6171108297852902 0 0.1345364541551664 0.6291756071117519 0 0.1375642544216961 0.6412503426819294 0 0.140644901008084 0.6532831564855287 0 0.1437254063829748 0.6653176913868519 0 0.1468065665703391 0.6773514299218985 0 0.1618632268126775 0.6927341972354275 0 0.1649532911798848 0.7047666005653663 0 0.1680382658783355 0.7168082911101987 0 0.171121055968961 0.728853483040539 0 0.1742045388991442 0.7408995730607451 0 0.1772728897910544 0.752931756132855 0 0.1921700465541757 0.7684003099574531 0 0.1951411833597679 0.7805947554892126 0 0.2250841854189035 0.8114899823892268 0 0.2523834314270186 0.8752750799811089 0 0.2829345478796352 0.9511754132147056 0 0.2860770458726095 0.9631579417881686 0 0.2101926652151563 0.7959824464790326 0 -1.994046754438084e-19 0.3300000000000001 0 0.009538839054963924 0.3489659719380149 0 0.02930978715654541 0.3870098002763879 0 0.04674777875872228 0.41484287370579 0 0.04979954944014401 0.4268392475391066 0 0.05281602300914968 0.4388370178213553 0 0.09228779729523341 0.5502867752909288 0 0.1165472643913441 0.60172290378342 0 0.149892385961166 0.6893852399812732 0 0.1802699163744232 0.7650005456642573 0 0.1982254437336231 0.7926484236104394 0 0.2131774348033373 0.8080791542212244 0 0.2280539149827837 0.8236219437747186 0 0.2311187672947854 0.8356824249089955 0 0.2341995941424087 0.8477598473201821 0 0.2372826347100022 0.8598358377882703 0 0.2403713913400587 0.8719131950534289 0 0.2554733084057692 0.8873569118465802 0 0.2585634201415171 0.8994397438474653 0 0.2616515947237888 0.9115245906182728 0 0.2647368992864003 0.9236178408144537 0 0.2678214004225304 0.9357178583639669 0 0.270911752559874 0.9478067380608254 0 0.2894158062660362 0.9745700733209045 0 0.2921176422946506 0.9876987828367506 0 0.3000000000012483 1 0 -2.05488348624496e-19 0.342407407407455 0 0.01074513000994136 0.3610185185186057 0 0.01272156387133658 0.3739316470831089 0 0.01956484800004732 0.3835041831774079 0 0.03175741618619274 0.3995160234432785 0 0.03481607756000983 0.41151321357471 0 0.05588399774377369 0.4508501830555178 0 0.05895575818410247 0.4628583528077879 0 0.06202697591581961 0.4748671851374993 0 0.06506280872717939 0.4868666157959869 0 0.06809267858886729 0.4988719005195735 0 0.07112833671026568 0.5108910908103692 0 0.07419473297798851 0.5229050281013709 0 0.07726670022129398 0.5349218608315811 0 0.08034109429889146 0.5469405867480102 0 0.09536459140544015 0.5623063061866252 0 0.09844185715212912 0.5743273220374953 0 0.1015185144084721 0.5863498797747982 0 0.1045925215683851 0.5983721993102419 0 0.1195894116009822 0.6137661253024933 0 0.1225746566716029 0.625843316110742 0 0.1256135638001263 0.6378941160490547 0 0.1286840310616284 0.6499322919293585 0 0.1317627705643273 0.6619682724494136 0 0.1348429521742193 0.6740029363509434 0 0.1379245236024942 0.6860368183293611 0 0.1529791426277177 0.7014172473937886 0 0.15606523889716 0.7134578881599182 0 0.1591488318710689 0.7255007486536771 0 0.1622307781755067 0.7375463784203909 0 0.1653126496116828 0.7495934552862114 0 0.1683834376773267 0.7616278207923214 0 0.1832241199263989 0.7771469359963226 0 0.1862735081469828 0.7892556593477618 0 0.2161627236035202 0.8201875638682156 0 0.2434625725144418 0.8839936369734009 0 0.274006066022323 0.9599046476387517 0 0.2773820649132542 0.9713082433972609 0 0.2012925539851384 0.8046853733353826 0 -2.314746070015032e-19 0.3548148148148881 0 0.02021494109163923 0.3939179085512121 0 0.03799288631349092 0.4235053539245084 0 0.04100728153462985 0.4355271516748114 0 0.04388790671760186 0.4474859101603341 0 0.08341619062218583 0.5589602570290163 0 0.1076386456641694 0.6103951839005987 0 0.141008037095024 0.6980716254706349 0 0.171385968698813 0.7735968018613942 0 0.1893256851250005 0.8013520242814425 0 0.2042555572411492 0.8167837767742643 0 0.2191471262468647 0.832345489741964 0 0.2222035062724502 0.8443985102368348 0 0.2252717963831824 0.856476013144896 0 0.2283610365500575 0.8685524339169762 0 0.2314513775437416 0.880629771793021 0 0.2465541064409812 0.8960752185646419 0 0.2496443037383843 0.9081588740080939 0 0.2527273584096099 0.920245040739472 0 0.2557996790611583 0.9323447983893829 0 0.258888724403585 0.9444747397403644 0 0.2619802320063556 0.9565355380264153 0 0.2813590072624408 0.9805124208762787 0 0.2875000000011962 1 0 -2.740515000598142e-19 0.3672222222223236 0 0.009941881297189648 0.3871386833507597 0 0.02180533029917211 0.4077551089106519 0 0.02667579914934154 0.4201825404032781 0 0.04695441177225102 0.4595007168560954 0 0.05005401558995552 0.4715107763735332 0 0.05311216186873066 0.4835259588401633 0 0.05614777826290615 0.4955324051349848 0 0.05918811459508908 0.5075458669465185 0 0.06224443122681236 0.5195570032961504 0 0.06532056147925153 0.5315752779773721 0 0.0683948643376443 0.5435940933554512 0 0.07146922243833481 0.5556136728342184 0 0.08649183722119415 0.5709811092431215 0 0.08956837035140634 0.5830030103520013 0 0.09264206740467028 0.5950239380916668 0 0.09570321548445887 0.6070386937747692 0 0.110659388674791 0.6224598015620912 0 0.1136541318424389 0.6345483594226563 0 0.1167240415203021 0.6465846880159178 0 0.1198012669258756 0.6586191735329076 0 0.1228802124945496 0.670653765975366 0 0.1259606108326147 0.682688300089498 0 0.1290422039874569 0.6947232412914598 0 0.1440941642846538 0.710107958935197 0 0.1471774815510643 0.7221491458020699 0 0.1502591790136052 0.7341926696434362 0 0.1533401022427026 0.7462347131432152 0 0.1564204526738203 0.758272884863793 0 0.1594834767112357 0.7702968403933638 0 0.1743953264239495 0.7857965361532652 0 0.1774210816812843 0.7979335441350154 0 0.2072562271283569 0.828947040285737 0 0.2345423662163861 0.8927116366070534 0 0.2656321719622797 0.9684929618287614 0 0.2790829353777096 0.9902258165705305 0 0.2689515838012387 0.980882427180361 0 0.1923926935999392 0.8133891060380946 0 -2.141707977468322e-19 0.3796296296297977 0 0.01033570666203234 0.399389597413509 0 0.02956050411170973 0.4323354225981789 0 0.03198681961568291 0.4441599580053857 0 0.03501414687160448 0.4560869047664744 0 0.07454351859554591 0.5676343392977919 0 0.09871052494464894 0.6191038149623121 0 0.1321249610573069 0.7067599758833523 0 0.1625335275989462 0.7823322195153307 0 0.1804435149098199 0.8100734921845982 0 0.1953673487644974 0.8255297286141071 0 0.2102295756171945 0.8410505539822901 0 0.2132644287544264 0.8531136797238381 0 0.2163494339515419 0.8651916204480928 0 0.2194395853718181 0.87726816527415 0 0.2225308626116601 0.8893474986188507 0 0.2376332648231496 0.9047945211215669 0 0.2407229221927897 0.9168777768234324 0 0.2437915541138596 0.9289720573770128 0 0.2468601496452975 0.9410682630093546 0 0.2499692178472234 0.9533828543390582 0 0.2531378418056451 0.9665658257502839 0 0.2750000000011442 1 0 -2.226546943092604e-19 0.3920370370372309 0 0.01005208728419306 0.4110444021865363 0 0.01745033236406407 0.4168530960568304 0 0.01912710481745996 0.428358634687371 0 0.03814196797597061 0.4681375719021646 0 0.0411328178228588 0.4801748726974887 0 0.04419014420131896 0.4921862117870622 0 0.04724076159625161 0.5041978769206048 0 0.05029979123626532 0.5162113110510836 0 0.05337436180861461 0.5282290185717831 0 0.05644893977305779 0.5402475849427849 0 0.05951883371705628 0.5522673063244833 0 0.06259608504195786 0.5642866091265111 0 0.07761846282074639 0.5796559706247338 0 0.08069470243269226 0.5916785134114126 0 0.08377156673813534 0.603701682239118 0 0.08679301949545912 0.615720938360255 0 0.101721985354886 0.6311696645742026 0 0.1047687685830287 0.6432327226581624 0 0.1078388580604532 0.6552719525959624 0 0.1109180390559582 0.6673044762509492 0 0.1139977777239552 0.6793388481175048 0 0.117077581067867 0.6913741930247352 0 0.1201584624647596 0.7034102599894235 0 0.135207342354787 0.7187987774972359 0 0.1382892828014105 0.7308395218530482 0 0.1413710731965401 0.7428775629217552 0 0.1444503784101191 0.7549102476338102 0 0.147541752697407 0.7669548931275036 0 0.1506357209211013 0.7789964221998413 0 0.1655337524912723 0.7945140560637676 0 0.1685320619089007 0.8066515945945686 0 0.198328566909709 0.8376325332475906 0 0.2256220133643423 0.9014291725708408 0 0.2594834206682826 0.9765114892789023 0 0.2686407902449677 0.9918342176552553 0 0.1834958915997724 0.8220963462297556 0 -2.165448860554172e-19 0.4044444444446639 0 0.02070371381884985 0.4401802481731996 0 0.02257830566463128 0.4523324622856282 0 0.02614966626548919 0.4644460676547886 0 0.06566897720429291 0.576308966084379 0 0.08974689499412938 0.6278386076019576 0 0.1232395561571602 0.7154479921161637 0 0.1537040048414023 0.7910252381539157 0 0.1715469228601398 0.8187811940475292 0 0.1864413218730589 0.834189665746104 0 0.2013076572981453 0.8497451080351996 0 0.2043504370289044 0.8618217640369382 0 0.2074364564087618 0.8739043993777609 0 0.2105245717232393 0.8859828545332809 0 0.2136129174289595 0.8980639708421292 0 0.2287125175862484 0.9135135991843039 0 0.2317899912215786 0.9255965500575158 0 0.2348492241527239 0.9376999152429205 0 0.2379379640530555 0.9497908073885413 0 0.2410033716882596 0.9616501505768683 0 0.2497607394556721 0.9784010608802219 0 0.2576694320436543 0.9880628445253851 0 0.2625000000010923 1 0 0.01035222479167979 0.4230562747469074 0 -2.230105324950251e-19 0.4168518518521316 0 0.01016565785034871 0.4353782490790712 0 0.02968191954385756 0.4766838349287823 0 0.03221530821323814 0.4888350529293182 0 0.03528488027035219 0.5008498686105838 0 0.03835839831552732 0.5128659328324521 0 0.04141927015982799 0.5248708915393371 0 0.04435572063978216 0.5369388407218058 0 0.04755302544908414 0.5489256595635287 0 0.05074649032819719 0.5608624951450814 0 0.05372125523308319 0.5729611872165199 0 0.06874484338407233 0.5883309555690095 0 0.07182076049290856 0.6003539043888798 0 0.07488620477554189 0.6123669096530546 0 0.07788345846463467 0.6244076538624255 0 0.09280948158083656 0.6398837970645278 0 0.09587734533788084 0.6519255083694405 0 0.09895760486465602 0.66395614418642 0 0.1020364946355327 0.6759886586588565 0 0.1051154060024736 0.6880232715506543 0 0.1081940926266971 0.7000593552159478 0 0.1112736034485533 0.7120968543802804 0 0.1263209183689044 0.7274872298870864 0 0.1294018967320239 0.7395270965544716 0 0.1324862804507152 0.7515611366931481 0 0.1355763177388071 0.7635955334073474 0 0.1386593527466546 0.7756425326538876 0 0.14175006217394 0.7876636911136916 0 0.1566260664366672 0.8032177497911173 0 0.1596210330742209 0.8153895313453847 0 0.1893692707770012 0.8463331028221061 0 0.2167021844689595 0.9101471079990595 0 0.2438898233093222 0.9710083305201883 0 0.1745931865600104 0.8307981266101716 0 0.01086455884544731 0.4476142719390788 0 0.01287239139192389 0.4617730354003824 0 0.0201728211721448 0.4726250204373728 0 0.0567956958370105 0.5849832274943807 0 0.08087330271016792 0.6365140363501047 0 0.1143540650350861 0.7241348677888884 0 0.1447288517033653 0.7997204414939223 0 0.1626307359190189 0.8274694047175465 0 0.1775466866827756 0.8428341499945521 0 0.1923507794713349 0.8584581835432404 0 0.195434653662112 0.8705396118373272 0 0.1985490046811144 0.8826043842422707 0 0.2016200687503404 0.8947007537450716 0 0.204693466986559 0.9067808741681511 0 0.2197901478326134 0.9222298878236627 0 0.2228653440356314 0.9343063431100979 0 0.2259470155696808 0.9464082036160447 0 0.2290108909436248 0.9584867536336502 0 0.2326896172819705 0.9694950246686344 0 0.2384469584705627 0.9793000257286429 0 0.2440010198317685 0.9893201440199972 0 0.2500000000010403 1 0 -2.189914550725901e-19 0.4292592592595735 0 -2.340473765015287e-19 0.4416666666670067 0 0.0199685219214514 0.485190398933951 0 0.02333878787560486 0.4975037058146077 0 0.02707738567758664 0.5093500095869909 0 0.02949897393087497 0.5214702112582975 0 0.03251773118300955 0.5333976018496172 0 0.03573672246145497 0.5452360002933797 0 0.03931454329613221 0.5571205189934078 0 0.04177519923186952 0.569613689646039 0 0.04484762371259491 0.581635596715688 0 0.05987078765764929 0.5970053313847983 0 0.06294416005449027 0.6090279644298308 0 0.0659610830058871 0.621049625565253 0 0.06897869866055847 0.6331264352931967 0 0.08392925785684492 0.6485725534982637 0 0.08699846012029935 0.6606081951249504 0 0.09007755375882447 0.6726385163103678 0 0.09315396620546411 0.6846733427002181 0 0.09623072868503148 0.6967091843906865 0 0.09930865641086567 0.7087462116429174 0 0.1023882814422201 0.7207833904881201 0 0.117434356283786 0.7361730160964214 0 0.1205162910504393 0.7482100303878679 0 0.1236017255763617 0.7602463492536369 0 0.1266856943308716 0.7722888823264445 0 0.1297742079897858 0.7843121242311054 0 0.1327383942263525 0.7964316874009555 0 0.1476093019140177 0.8119804407078404 0 0.1506529625212467 0.8241139335683745 0 0.1804927897274564 0.8549849011697349 0 0.2077822851584125 0.9188641178496583 0 0.165704846761684 0.8395149832857768 0 -2.773006688479682e-19 0.454074074074455 0 0.01010172212966043 0.4748127539528162 0 0.04792464771134079 0.5936617138659187 0 0.07197595179647466 0.6452432740697275 0 0.1054681678145561 0.7328212512663875 0 0.1356634506502385 0.8085607155231223 0 0.1537279356591508 0.8361726391694184 0 0.1686632347822311 0.8515426869144916 0 0.1834737460301575 0.8671611146428471 0 0.1865674709497198 0.8792231978760962 0 0.1897108065925129 0.8912754880840893 0 0.1927678441263658 0.9034273820120426 0 0.1958065473399073 0.9155328957922295 0 0.210868200518226 0.9309469879824067 0 0.2139500170571126 0.9430304955301669 0 0.2170252070416511 0.9551023181343652 0 0.2201792658261261 0.9670500009392111 0 0.2255014234596399 0.9785121846394567 0 0.2316262002713804 0.9895337133359693 0 0.2375000000009883 1 0 -2.176141338297587e-19 0.4664814814819164 0 0.01120555589929378 0.4971246575024424 0 0.008255159990081121 0.4854625991150682 0 0.01836997012520208 0.5054261398958221 0 0.01929501815712406 0.5164982389916632 0 0.0209888232759642 0.5293703598114081 0 0.02309630286821745 0.5424885627342755 0 0.03014818889578755 0.5531289370648648 0 0.0295265271545726 0.5647597098972722 0 0.03301895788002672 0.5784096959138971 0 0.0359930373724419 0.590331014343767 0 0.05099457327905849 0.6056812826769384 0 0.05406266682216371 0.6177009323825449 0 0.05707838570416535 0.6297478538259472 0 0.06008849731897128 0.6418167128184536 0 0.07504100559541041 0.6572605100108326 0 0.07811986932144767 0.6692891522321396 0 0.08119658005455013 0.6813200248553638 0 0.08426703409637241 0.6933604004353809 0 0.08734597756580835 0.705395152392587 0 0.09042411559982973 0.7174322070315144 0 0.09350301782559897 0.7294694759649991 0 0.1085488228056439 0.74485867821708 0 0.1116306261904232 0.7568966457880714 0 0.1147138292872575 0.768936359720887 0 0.1177946777145245 0.7809804885983965 0 0.1208057769953725 0.793077354687529 0 0.1237080158454126 0.8052557973563645 0 0.1386678384901213 0.8207227518969652 0 0.1417231694965689 0.8328356940012159 0 0.1716777407814176 0.8636925091149147 0 0.1988677230242215 0.9275887151568621 0 0.1567906312883146 0.8482060993143984 0 -1.778349738598452e-19 0.4788888888893493 0 0.03904616840928968 0.6023338305799411 0 0.06309684715686414 0.6539248699394349 0 0.09658256840463687 0.7415072754259334 0 0.1266406735609038 0.8173441077342373 0 0.1448191898155179 0.8448801268944053 0 0.1598060040863384 0.8602497086838633 0 0.1747432858983783 0.8758002201402729 0 0.1778633481461574 0.8878432195405493 0 0.180946342795445 0.8999581742161319 0 0.1839459828359449 0.9121579212349616 0 0.186890407756522 0.9242569206963714 0 0.2019544580576249 0.9396700506903487 0 0.2050203894759598 0.9517545390529777 0 0.2080436633774024 0.9638839160341415 0 0.2111549736380539 0.9771778131436777 0 0.2186759069018865 0.9894644994234597 0 0.2250000000009362 1 0 -2.413932307587368e-19 0.4912962962967826 0 0.009736575020622217 0.5105207178521544 0 0.009902801089446633 0.5232298826411427 0 0.01044785465207235 0.5352338267177371 0 0.02068253835408517 0.5554499764253932 0 0.02137448266640409 0.5754944759481523 0 0.02393107899997669 0.5872071712059687 0 0.02750669022109463 0.5989217306266049 0 0.04211914965062227 0.6143567370817831 0 0.04518287755584353 0.6263676997017209 0 0.04819649086156796 0.6384257171945157 0 0.05120654658333693 0.6505220940453921 0 0.06616359341173914 0.6659402996735352 0 0.06924152589582856 0.6779678288899252 0 0.07231252084479733 0.6900062968560802 0 0.07538577526382963 0.7020438574786884 0 0.0784625193533503 0.7140814575288802 0 0.08153959822028405 0.7261180501092067 0 0.08461803746617445 0.738155575184943 0 0.09966312761709831 0.7535449887898921 0 0.1027439849096762 0.7655845258823178 0 0.1058242505294182 0.7776262871031555 0 0.1088316235865266 0.7897625117937193 0 0.1117601250627279 0.8019177747897092 0 0.114690737993119 0.8140919402769994 0 0.1297174727977526 0.8295016198470024 0 0.1328160826591248 0.8415473761464732 0 0.1628873841639442 0.8724164231382806 0 0.189946482076243 0.9363109038333264 0 0.1479099626538807 0.8569336454483617 0 -2.09748032304309e-19 0.5037037037042374 0 0.0106952618661426 0.5472143826728059 0 0.01843788473637517 0.5653876261591837 0 0.03017046217154734 0.6110107797023331 0 0.05421063433624155 0.6625942857624643 0 0.0876973662356982 0.7501929831456179 0 0.1177095543310106 0.8261686843979877 0 0.1359288189637427 0.8535846815634677 0 0.1509570079437699 0.8689683528431233 0 0.1660250547583566 0.884512436476674 0 0.1692264252035251 0.8964611618207617 0 0.1721636498681638 0.9085838726043873 0 0.1750636918044418 0.9208301472667811 0 0.1779910709286956 0.9329895555802278 0 0.1930256721654151 0.9483886781429478 0 0.1960997456251702 0.9605191688135247 0 0.1991388751806685 0.9723580213113935 0 0.2060950206027676 0.9899143026595132 0 0.2125000000008843 1 0 -2.133289209412019e-19 0.5161111111116922 0 -2.250706177924107e-19 0.5285185185191253 0 -2.304003334490163e-19 0.5409259259265802 0 0.01019570734712097 0.5597745912001972 0 0.01127878476811945 0.5852611149977611 0 0.010410168159693 0.5714593773249043 0 0.01659939038059393 0.5970287968538877 0 0.02095527843415487 0.6066524588976543 0 0.03324383527101166 0.6230303039844025 0 0.03630772616412625 0.6350409941255218 0 0.03932904352410808 0.6470083976955945 0 0.04235483398032922 0.6591631619993693 0 0.05728677430729896 0.6746195392413369 0 0.06035949280722044 0.6866498742875221 0 0.06342471695098285 0.6986957951896021 0 0.06650222929102989 0.7107315357063447 0 0.06957742017932037 0.7227679424549405 0 0.07265546470935967 0.734803054500664 0 0.07573372005759957 0.746839820430608 0 0.0907758963902426 0.7622325111879045 0 0.09385571196434715 0.7742723325357621 0 0.0969344489679715 0.7863128790792139 0 0.09978840351023908 0.7985848992864547 0 0.1027361924456978 0.8107341453371882 0 0.1057320041351129 0.8228229385781781 0 0.1208100764573385 0.8382121943612196 0 0.1239200986412888 0.8502465804647041 0 0.1540769325310452 0.8810744900797105 0 0.1810135283200531 0.9450234340607866 0 0.200436584950817 0.9817211116772848 0 0.1390148529762039 0.8656433986034082 0 -2.196387897674255e-19 0.553333333334035 0 0.02010220307079489 0.6182449011460176 0 0.045332653390574 0.6712715331490086 0 0.07881081083047398 0.7588797210763601 0 0.1088166572676533 0.8348695663444897 0 0.1270261166035637 0.8622944947448429 0 0.1421083325636372 0.8777016830951739 0 0.1572345119815171 0.8931293082786903 0 0.1603067443337954 0.9051196327076302 0 0.1632336923877638 0.9173659954279564 0 0.1661773832485033 0.9295085606836783 0 0.1691281155444581 0.941712828466758 0 0.1840975376631997 0.957110286672221 0 0.1872723358883759 0.9696195716674688 0 0.1906262473857077 0.9812775162545593 0 0.1939860701619427 0.9912375737946502 0 0.2000000000008322 1 0 -2.242587647943823e-19 0.5657407407414689 0 0.007014306737326893 0.5967662205081262 0 -2.42970747607477e-19 0.5781481481489229 0 0.01039764632674357 0.6080560861594284 0 0.02448989845754734 0.6312748660302875 0 0.02773537731557692 0.6432887865581074 0 0.03067105924879579 0.6556585730164659 0 0.03337906679891893 0.6679240883272912 0 0.04840896269294076 0.6832968958926455 0 0.05148198245182859 0.695318986923088 0 0.0545507002848526 0.707379796235948 0 0.05761909000365032 0.7194174347116628 0 0.06069512135057198 0.7314506877818173 0 0.06377267652850829 0.7434841392629331 0 0.06684877189299551 0.75552263620092 0 0.08188849517417221 0.7709196491171213 0 0.08496778871762158 0.7829592749633517 0 0.0879447984183547 0.7950390706534265 0 0.09066537000230751 0.8074348205971404 0 0.09375717453015367 0.8194852775983124 0 0.09684232685795012 0.8315292433720117 0 0.1119206968596061 0.8469017923771506 0 0.1150389065864364 0.8589364144047847 0 0.1452313181669729 0.8897512526725457 0 0.1721222697793198 0.9537851902780307 0 0.1301143537600904 0.8743508045666103 0 -1.511041647619487e-19 0.5905555555563561 0 0.009240315921960007 0.618967659618633 0 0.01294809306537377 0.6283064704719534 0 0.03645602968622723 0.6799494993340407 0 0.06992330734664394 0.7675663583507324 0 0.09993314929322367 0.8435626795521795 0 0.1181257139905958 0.8709978982961638 0 0.1332183272161145 0.8864023756443629 0 0.1483466101913609 0.901801829750668 0 0.1513761826047226 0.9138542565864016 0 0.1543629291766224 0.9260194608457312 0 0.1573192496979775 0.9382028410610301 0 0.1602677772724116 0.9504268704688142 0 0.1751632093193202 0.966198259247505 0 0.1781513940446531 0.9786469236774783 0 0.1817288061968835 0.9904012896250941 0 0.1875000000007802 1 0 -2.239890159539098e-19 0.6029629629638108 0 -1.990574794931772e-19 0.6153703703712552 0 0.01654051199968606 0.6385723078417781 0 0.01924485185332633 0.6509050409477108 0 0.02156261271282654 0.6637832401793174 0 0.02423403860868365 0.6762468188359508 0 0.03953236711409585 0.6919746407184272 0 0.04266537532439686 0.7039931437117027 0 0.0456664784732909 0.7160615306414774 0 0.04873679816469921 0.7280998821071925 0 0.05181379796467044 0.740131116702745 0 0.05488936389131176 0.7521648047136037 0 0.05796278407417494 0.7642022380853042 0 0.0730016906697456 0.7796062347242931 0 0.07605901797040639 0.7916233201461325 0 0.07898137201027944 0.803727335466328 0 0.0817775501815057 0.8161315542531511 0 0.08488996063536287 0.8282024750648886 0 0.08795309866241048 0.8402233714860463 0 0.1030312177712251 0.8556006088256636 0 0.1061346311435643 0.8676450392680827 0 0.1363247184906605 0.898459619354452 0 0.1631971158818175 0.962576599154951 0 0.121214497110366 0.8830578220396007 0 -1.645053530525166e-19 0.6277777777786987 0 0.007636394457164435 0.6357683286379329 0 0.02767446101211617 0.6882477839795379 0 0.06103676063961881 0.7762478737262726 0 0.09104570036530073 0.852258698945273 0 0.1092246943666333 0.8797036894872259 0 0.1243092534147686 0.8951145266774988 0 0.1394193828773986 0.9105215737873592 0 0.1425184297013501 0.9226025202664069 0 0.1455602200231621 0.9346910885664818 0 0.1484190729227076 0.9468582373347181 0 0.1513859331062867 0.9590490414427789 0 0.1661342880297559 0.9749661142731421 0 0.1681031194383308 0.9887789589793521 0 0.1750000000007281 1 0 0.009036066215009651 0.6463083793612537 0 0.01024424914297311 0.6585859769509715 0 0.01110164059416885 0.6711290657382634 0 0.01342018527536714 0.685072298400171 0 0.0310581931788992 0.7005029972550902 0 0.0339137724232738 0.7126494433447399 0 0.03685935554540981 0.7247296506180165 0 0.03985658979391934 0.7367805751109058 0 0.04293304313128585 0.7488103816901994 0 0.04595675128826434 0.7608382675706361 0 0.04900319221677778 0.772881519430295 0 0.06411238795414617 0.7882883395484953 0 0.06718148031324818 0.8003180335555143 0 0.07014435156726587 0.8122379320748124 0 0.07302513580450846 0.8246721222119331 0 0.0759988370615936 0.8368939104372976 0 0.07906318196720635 0.8489154541660123 0 0.09414144603985621 0.8643032883386162 0 0.09723495106202504 0.8763526840012609 0 0.1274234190773476 0.9071661575942782 0 0.1546315462306884 0.97117374626919 0 0.1123128428418199 0.8917636394594733 0 -1.946574749699407e-19 0.6401851851861536 0 0.02013859750407292 0.6971672849959479 0 0.05214294726079644 0.7849276058486206 0 0.08215607137566078 0.8609579962858321 0 0.100323283409041 0.8884087599660864 0 0.1154049688449469 0.9038240886178546 0 0.1305191274346685 0.919243121636069 0 0.1336163307822216 0.9313233703525287 0 0.1366705291275756 0.9433648446880184 0 0.1398167399005681 0.955489939025305 0 0.1436474288868706 0.9678841871915356 0 0.1566499906962767 0.9828519327258789 0 0.1625000000006761 1 0 -2.206844907601194e-19 0.6525925925936004 0 -2.391546580850717e-19 0.6650000000010198 0 -2.891013984594795e-19 0.6774074074084014 0 0.009848545095010314 0.6959633227264429 0 0.02240886441207342 0.7093904886637818 0 0.02548645111038758 0.7212330994696069 0 0.02837038412263715 0.7333112365928758 0 0.03127771392907052 0.7453833374223167 0 0.03410354683897358 0.7574758704161676 0 0.0367807700884529 0.7695058979414628 0 0.04013913994935929 0.7815672334094746 0 0.05522802664501425 0.7969747025569951 0 0.05828459584096659 0.8089903116055803 0 0.06120496225191389 0.8211652882208151 0 0.064135153129409 0.8334015732206348 0 0.06709068128852327 0.8455662158575505 0 0.07017602242560021 0.8576094811363656 0 0.08524610452136144 0.8730047027055861 0 0.08833570627203279 0.88505487664201 0 0.1185115962114317 0.9158902648629575 0 0.1477135383631483 0.9787381021573568 0 0.15632176433465 0.9926157041468472 0 0.1034122572433372 0.9004710401805242 0 -2.12160123078542e-19 0.6898148148157615 0 0.01098381475710704 0.7065363788175217 0 0.04327036867125317 0.7936170732734064 0 0.07326428260070431 0.8696536997388629 0 0.09142283192316009 0.8971142345133616 0 0.1065055920967852 0.9125339209946713 0 0.1216204533988819 0.9279699194717663 0 0.1246981888881936 0.9400422463166838 0 0.1277914324070223 0.952126780116294 0 0.130343527512668 0.9661468277025863 0 0.1374167614606717 0.9779907810718834 0 0.1453753391948138 0.9890618700996182 0 0.1500000000006241 1 0 -2.366164208275167e-19 0.702222222223143 0 0.0125628674179675 0.720315734364399 0 0.01936867844484303 0.7292066944995464 0 0.0204070836274815 0.7399924718648169 0 0.02210856466830327 0.7523963833188041 0 0.02304667717296609 0.7661098430637858 0 0.02825008935096352 0.7781946086628559 0 0.03150197134059179 0.7904834281231414 0 0.04634156974335685 0.8056574943952773 0 0.04939839954821944 0.8176718753102399 0 0.05230756722448969 0.829886372399545 0 0.05511921192001294 0.8422170311958259 0 0.05820440987676585 0.8542592578281838 0 0.06128801180810694 0.8663040905469416 0 0.07635206281251437 0.8817024816277251 0 0.07943751925265578 0.8937561158844984 0 0.1095994973550786 0.9246040364027212 0 0.09451076851806778 0.9091779726090818 0 -2.706328165127418e-19 0.7146296296305247 0 0.0344059891014438 0.8023200981431123 0 0.06437246491041158 0.8783510279951396 0 0.08252265564100698 0.905815217983936 0 0.09759639969157163 0.9212477661991422 0 0.1127816858883616 0.936730298546555 0 0.1159084253648644 0.9487117434468532 0 0.1186625608369057 0.960330302936995 0 0.125163954027398 0.978738472899239 0 0.1315171752761906 0.9893233096237961 0 0.1375000000005722 1 0 0.01063489701494257 0.7335065408714849 0 -2.290999368791001e-19 0.7270370370379063 0 0.01068226358509248 0.7461506384838743 0 0.01052552339112552 0.7580555555562996 0 0.01846500708485248 0.7766666666673864 0 0.02034972560395897 0.786986079299154 0 0.02252978610056638 0.7992342157498021 0 0.0374578890222532 0.8143405207965531 0 0.04052774355561552 0.8263674659918302 0 0.04345993294176748 0.8384950004579249 0 0.0463294084439193 0.8507840237570682 0 0.04931729840003585 0.8629526157696674 0 0.0523995975958543 0.8749979863180293 0 0.06745713216862562 0.8903996375341736 0 0.07054139360993628 0.9024526930095748 0 0.1007360019009113 0.9333692746954138 0 0.1199058150692392 0.9704673306768524 0 0.0856030453743452 0.9178866389591757 0 0.01074513000987598 0.7704629629636879 0 0.02556467541232573 0.8109929533629689 0 0.05548120082517946 0.887045973485977 0 0.07362150053258884 0.9145073959778086 0 0.08869335347297719 0.9299687662798748 0 0.1039316327222738 0.945456588397779 0 0.1071494529960635 0.9575889256820885 0 0.1101585715003323 0.969431307049743 0 0.1187255508009514 0.989625669597852 0 0.1136156815287297 0.9793678382629581 0 0.1250000000005201 1 0 -2.301203208298123e-19 0.7394444444452664 0 -2.267437795719332e-19 0.7518518518526135 0 -2.314746070000947e-19 0.7642592592599864 0 0.01014495260677591 0.7826249061991071 0 0.01120654714000377 0.7947126503926315 0 0.01204650220310994 0.8087297480481456 0 0.02888022378295878 0.8229477482057552 0 0.0318315156527508 0.8351070319991587 0 0.03448996380167402 0.8473831317060694 0 0.03735051979225994 0.8596035946373132 0 0.04042947453775911 0.8716481151537678 0 0.04350959260789353 0.8836947513136334 0 0.05856398146325752 0.8990932655065726 0 0.061645572601483 0.9111445251704604 0 0.09183377500940589 0.9420925858781485 0 0.07669978112496423 0.9265926647389274 0 -2.185454169032567e-19 0.7766666666673897 0 0.01790150431267568 0.8209045307955377 0 0.04659049999680995 0.8957395079865156 0 0.06471483923527556 0.9232245656494392 0 0.07978660684140057 0.9386833200731119 0 0.09510483044306987 0.9542475148659635 0 0.09828102537852836 0.9663563869650469 0 0.1015075316564056 0.9783678607198135 0 0.1125000000004681 1 0 0.1062326661180515 0.98957638863425 0 -2.414145843443683e-19 0.7890740740747345 0 -2.595091321024261e-19 0.8014814814820663 0 0.007659093437550587 0.8202820314773155 0 0.02227705449946761 0.8309842618071659 0 0.02202689873909458 0.8434619980348582 0 0.02571825889567783 0.8561698928641415 0 0.0291121514119192 0.8681297844223429 0 0.03153574028324043 0.8803542437390169 0 0.03462026339727104 0.8923886889253163 0 0.04967094304776858 0.9077852275060025 0 0.0527354086806541 0.9198564730481509 0 0.08287600190713666 0.9507572283856371 0 0.06778699465422132 0.93530651691191 0 -1.649943408599567e-19 0.8138888888894698 0 0.01074513000985824 0.8325000000005206 0 0.03769968050463557 0.9044294179781913 0 0.05579977781774189 0.9319398180493796 0 0.07086319358062187 0.9473843621078984 0 0.08608659080243651 0.9629228484720871 0 0.08916065112366328 0.9752000347302392 0 0.09227222596843403 0.9885597147892659 0 0.100000000000416 1 0 -2.314746069997125e-19 0.8262962962968514 0 0.01770561571062424 0.8518102171591275 0 0.01875915539748156 0.8632403583731229 0 0.02034439483750664 0.8758401373925894 0 0.0207691931534746 0.8886436952736487 0 0.02575998688591712 0.9009830937278512 0 0.04077539956673282 0.9164709885970231 0 0.04381270143027786 0.9285847740963132 0 0.07395582530201859 0.9594607581860614 0 0.058864550940679 0.9440254316324165 0 -2.159243766922262e-19 0.8387037037041898 0 0.01002328302844232 0.8458565171752915 0 0.02909798591088885 0.9129495667056544 0 0.04687406774245845 0.9406689181966926 0 0.06195314400170087 0.9560959990088717 0 0.07714121066020241 0.9715151676995754 0 0.07943590363479958 0.9832177419144666 0 0.08750000000036418 1 0 0.00966205371107683 0.8575520730414828 0 0.01001245781808463 0.8699400453590537 0 0.01044219762696097 0.8817253423844794 0 0.01325956569204109 0.8995281940246469 0 0.01739343365240101 0.9095806845698687 0 0.03222038845295235 0.9251037474132452 0 0.03488720474403965 0.9373136954529492 0 0.06558908639933492 0.968033455766419 0 0.08125000000033815 0.9929679638744889 0 0.04995765633593776 0.9527315027059549 0 -2.081426733347761e-19 0.8511111111115716 0 0.008703089016920403 0.8912364162511431 0 0.02123199815275999 0.9214480505532622 0 0.0379718063414232 0.9493690247252197 0 0.05307744544833749 0.9660859351440793 0 0.06813145603316532 0.9802582787896873 0 0.07009802327163879 0.9908281048876433 0 0.07500000000031215 1 0 -2.156911769718937e-19 0.8635185185189749 0 -2.249487525694452e-19 0.8759259259263068 0 -1.874843866967546e-19 0.8883333333336515 0 0.007873617356454012 0.9078283486315754 0 -1.696156753412193e-19 0.9007407407410541 0 0.009421965220881234 0.9179117840476348 0 0.02320504774824458 0.9339544180050137 0 0.02650796986162177 0.9458779258356392 0 0.05919253806203584 0.9760649361160629 0 0.04108625169301738 0.9606406635099669 0 0.01073380926912327 0.9308761652437699 0 0.03009778655120334 0.9575128649184438 0 0.0497920411485948 0.978218491690378 0 0.05750603581220406 0.9878510050303527 0 0.06250000000026001 1 0 -2.029706196823594e-19 0.9131481481483844 0 -2.312307324248895e-19 0.9255555555557315 0 0.01305921606844361 0.9443848520097852 0 0.02031374232405159 0.9538813000424332 0 0.04344597508876561 0.9706739678193997 0 0.03278331587450484 0.9681158626426246 0 -2.813252984741873e-19 0.9379629629631598 0 0.02147332676306314 0.9641383566169485 0 0.03777573718165236 0.9789435439754534 0 0.04398138870425789 0.9889692833136482 0 0.05000000000020799 1 0 -2.381299110335398e-19 0.9503703703705488 0 0.01105407148739446 0.9573445012354284 0 0.02354467416009922 0.9776776440488528 0 0.01123701724674287 0.9703286271462014 0 0.03136482680520059 0.989238428595329 0 0.03750000000015596 1 0 -2.420709799371812e-19 0.9627777777778791 0 0.01070907755474483 0.981763581542736 0 -2.306979548911671e-19 0.9751851851852423 0 0.01889585481454671 0.9898221880454791 0 0.02500000000010405 1 0 0.009092035120625565 0.9909330519583847 0 -1.958631728460727e-19 0.9875925925926617 0 0.01250000000005203 1 0 1.19191560794115e-18 1 0 </DataArray>
      </Points>
      <Cells>
        <DataArray type="Int32" Name="connectivity" format="ascii">0 1 2 1 3 2 4 0 2 3 5 2 6 0 4 5 4 2 3 7 5 6 4 8 4 5 9 7 10 5 11 6 8 8 4 9 5 12 9 7 13 10 5 10 12 14 11 8 15 8 9 12 16 9 10 13 17 13 18 17 12 10 19 20 11 14 14 8 15 16 15 9 21 16 12 10 17 19 18 22 17 18 23 22 21 12 19 20 14 24 25 14 15 16 25 15 21 26 16 19 17 27 17 22 27 22 23 28 23 29 28 30 21 19 31 20 24 14 32 24 32 14 25 16 26 25 33 26 21 30 19 27 22 34 27 22 28 34 28 29 35 33 21 30 36 31 24 32 36 24 37 32 25 26 37 25 38 26 33 34 30 27 34 28 39 29 40 35 28 35 39 33 30 41 42 31 36 32 43 36 37 43 32 38 37 26 38 33 44 30 34 41 45 34 39 40 46 35 39 35 47 40 48 46 48 49 50 44 33 41 51 42 36 43 52 36 53 43 37 53 37 38 54 38 44 34 45 41 55 45 39 35 46 47 55 39 47 46 48 50 49 56 50 49 57 56 58 44 41 59 42 51 52 51 36 60 52 43 60 43 53 53 38 54 61 54 44 45 58 41 55 62 45 46 63 47 63 55 47 46 50 64 50 56 65 56 57 66 57 67 66 67 68 69 58 61 44 59 51 70 51 52 71 60 72 52 60 53 73 73 53 54 61 74 54 62 58 45 75 62 55 63 46 64 75 55 63 64 50 65 56 76 65 56 66 76 67 69 66 69 68 77 68 78 77 58 79 61 80 59 70 51 71 70 52 72 71 81 72 60 81 60 73 74 73 54 82 74 61 62 79 58 83 62 75 84 63 64 75 63 84 85 64 65 76 85 65 76 66 86 66 69 86 87 69 77 78 88 77 79 82 61 80 70 89 71 90 70 72 91 71 92 72 81 81 73 93 73 74 93 82 94 74 83 79 62 83 75 95 85 84 64 95 75 84 85 76 96 76 86 96 86 69 87 87 77 97 78 98 88 77 88 97 99 82 79 100 80 89 70 90 89 91 90 71 92 91 72 92 81 101 101 81 93 74 94 93 102 94 82 99 79 83 103 83 95 85 104 84 104 95 84 105 85 96 86 106 96 86 87 107 87 97 108 88 98 109 97 88 110 98 111 109 111 112 113 102 82 99 114 100 89 89 90 115 91 116 90 92 117 91 118 92 101 119 101 93 94 119 93 102 120 94 99 83 103 121 103 95 105 104 85 104 121 95 106 105 96 106 86 107 107 87 108 108 97 122 88 109 110 122 97 110 109 111 113 112 123 113 112 124 123 102 99 125 126 100 114 114 89 115 90 116 115 91 117 116 118 117 92 118 101 127 101 119 127 94 120 119 128 120 102 99 103 125 103 121 129 105 130 104 104 130 121 131 105 106 132 106 107 133 107 108 134 108 122 109 135 110 135 122 110 136 109 113 123 136 113 123 124 137 124 138 137 139 140 141 138 139 142 128 102 125 126 114 143 144 114 115 116 144 115 116 117 145 118 146 117 147 118 127 119 148 127 119 120 148 128 149 120 125 103 129 121 150 129 131 130 105 130 150 121 131 106 132 133 132 107 134 133 108 151 134 122 136 135 109 135 151 122 136 123 152 123 137 152 137 138 142 139 141 142 141 140 153 140 154 153 155 128 125 156 126 143 114 144 143 116 145 144 117 146 145 147 146 118 157 147 127 148 157 127 120 149 148 158 149 128 155 125 129 150 159 129 131 160 130 130 160 150 161 131 132 133 162 132 163 133 134 151 164 134 136 165 135 135 165 151 166 136 152 137 167 152 137 142 168 142 141 169 170 141 153 154 171 153 158 128 155 172 156 143 143 144 173 145 174 144 146 175 145 176 146 147 177 147 157 157 148 178 148 149 178 158 179 149 159 155 129 150 180 159 161 160 131 150 160 180 162 161 132 163 162 133 164 163 134 164 151 181 166 165 136 151 165 181 167 166 152 167 137 168 168 142 169 169 141 170 171 170 153 171 154 182 154 183 182 158 155 184 185 156 172 172 143 173 144 174 173 175 174 145 176 175 146 176 147 177 177 157 186 157 178 186 149 179 178 187 179 158 184 155 159 180 188 159 161 189 160 160 189 180 162 190 161 163 191 162 192 163 164 193 164 181 166 194 165 165 194 181 195 166 167 196 167 168 197 168 169 198 169 170 171 199 170 200 171 182 183 201 182 183 202 201 187 158 184 185 172 203 172 173 204 174 205 173 175 206 174 207 175 176 176 177 208 209 177 186 178 210 186 179 210 178 187 211 179 188 184 159 212 188 180 161 190 189 189 212 180 162 191 190 192 191 163 192 164 193 213 193 181 195 194 166 194 213 181 195 167 196 197 196 168 198 197 169 199 198 170 200 199 171 201 200 182 201 202 214 202 215 214 216 187 184 217 185 203 203 172 204 173 205 204 174 206 205 207 206 175 207 176 208 208 177 209 218 209 186 210 218 186 179 211 210 219 211 187 188 216 184 212 220 188 189 190 221 189 221 212 190 191 222 192 223 191 224 192 193 213 225 193 226 194 195 226 213 194 227 195 196 197 228 196 229 197 198 199 230 198 231 199 200 200 201 232 233 201 214 215 234 214 201 233 232 215 235 234 235 236 237 219 187 216 238 217 203 239 203 204 205 239 204 206 240 205 207 241 206 242 207 208 243 208 209 218 244 209 218 210 245 210 211 245 219 246 211 188 220 216 212 247 220 221 190 222 212 221 247 191 223 222 224 223 192 225 224 193 248 225 213 226 195 227 248 213 226 228 227 196 229 228 197 230 229 198 231 230 199 231 200 249 249 200 232 234 233 214 233 250 232 235 237 234 237 236 251 236 252 251 253 219 216 254 217 238 238 203 255 203 239 255 205 240 239 206 241 240 242 241 207 243 242 208 244 243 209 256 244 218 256 218 245 211 246 245 257 246 219 220 253 216 220 247 258 259 221 222 247 221 259 223 260 222 224 261 223 225 262 224 263 225 248 264 226 227 248 226 264 228 265 227 229 266 228 267 229 230 268 230 231 269 231 249 250 249 232 270 233 234 270 250 233 234 237 271 272 237 251 251 252 273 252 274 273 274 275 276 257 219 253 254 238 277 278 238 255 239 279 255 240 279 239 240 241 280 242 281 241 282 242 243 283 243 244 284 244 256 256 245 285 245 246 285 257 286 246 253 220 258 247 287 258 260 259 222 247 259 287 223 261 260 224 262 261 263 262 225 263 248 288 265 264 227 248 264 288 228 266 265 267 266 229 267 230 268 268 231 269 289 269 249 250 289 249 270 234 271 290 250 270 237 272 271 291 272 251 291 251 273 274 276 273 276 275 292 275 293 292 257 253 294 295 254 277 238 278 277 296 278 255 279 296 255 279 240 280 241 281 280 282 281 242 282 243 283 283 244 284 284 256 297 256 285 297 246 286 285 298 286 257 294 253 258 287 299 258 260 300 259 259 300 287 260 261 301 261 262 302 263 303 262 304 263 288 305 264 265 288 264 305 266 306 265 307 266 267 267 268 308 309 268 269 289 310 269 290 289 250 311 270 271 290 270 311 272 312 271 291 313 272 314 291 273 276 314 273 276 292 315 292 293 316 298 257 294 317 295 277 278 317 277 296 318 278 319 296 279 319 279 280 281 320 280 321 281 282 282 283 322 283 284 323 324 284 297 285 325 297 286 325 285 298 326 286 299 294 258 327 299 287 260 301 300 300 327 287 301 261 302 262 303 302 304 303 263 328 304 288 306 305 265 328 288 305 307 306 266 307 267 308 308 268 309 310 309 269 289 329 310 290 329 289 312 311 271 330 290 311 272 313 312 314 313 291 314 276 315 315 292 331 293 332 316 292 316 331 333 298 294 334 295 317 278 318 317 296 335 318 319 335 296 320 319 280 321 320 281 321 282 322 322 283 323 323 284 324 336 324 297 325 336 297 286 326 325 337 326 298 299 333 294 327 338 299 300 301 339 300 339 327 301 302 340 303 341 302 304 342 303 328 343 304 306 344 305 344 328 305 345 306 307 346 307 308 347 308 309 310 348 309 310 329 349 330 329 290 312 350 311 350 330 311 313 351 312 352 313 314 353 314 315 354 315 331 332 355 316 316 356 331 332 357 355 357 358 359 337 298 333 360 334 317 317 318 361 318 335 362 319 363 335 320 363 319 364 320 321 365 321 322 366 322 323 367 323 324 336 368 324 325 369 336 325 326 369 337 370 326 299 338 333 327 371 338 339 301 340 327 339 371 302 341 340 303 342 341 304 343 342 328 372 343 345 344 306 344 372 328 345 307 346 346 308 347 348 347 309 310 349 348 329 373 349 330 373 329 351 350 312 374 330 350 352 351 313 352 314 353 354 353 315 354 331 375 316 355 356 331 356 375 355 357 359 358 376 359 358 377 376 378 337 333 379 334 360 360 317 361 361 318 362 362 335 380 335 363 380 364 363 320 364 321 365 366 365 322 367 366 323 368 367 324 368 336 381 336 369 381 326 370 369 382 370 337 338 378 333 338 371 383 384 339 340 339 384 371 341 385 340 341 342 386 342 343 387 343 372 388 389 344 345 389 372 344 345 346 390 391 346 347 348 392 347 349 393 348 373 394 349 374 373 330 395 350 351 374 350 395 396 351 352 397 352 353 354 398 353 399 354 375 356 355 400 356 401 375 402 355 359 359 376 403 376 377 404 377 405 404 405 406 407 382 337 378 379 360 408 360 361 409 410 361 362 411 362 380 363 412 380 364 412 363 413 364 365 366 414 365 367 415 366 416 367 368 417 368 381 369 418 381 369 370 418 382 419 370 378 338 383 371 420 383 385 384 340 371 384 420 341 386 385 386 342 387 343 388 387 372 421 388 389 345 390 389 421 372 390 346 391 392 391 347 393 392 348 394 393 349 422 394 373 422 373 374 395 351 396 374 395 423 396 352 397 398 397 353 399 398 354 401 399 375 355 402 400 401 356 400 402 359 403 376 424 403 376 404 424 405 407 404 407 406 425 406 426 425 382 378 427 428 379 408 408 360 409 361 410 409 410 362 411 429 411 380 412 429 380 413 412 364 414 413 365 415 414 366 416 415 367 416 368 417 430 417 381 418 430 381 370 419 418 431 419 382 427 378 383 420 432 383 385 433 384 384 433 420 385 386 434 435 386 387 388 436 387 388 421 437 438 389 390 438 421 389 439 390 391 392 440 391 393 441 392 442 393 394 443 394 422 422 374 423 395 396 444 423 395 444 445 396 397 398 446 397 399 447 398 448 399 401 402 449 400 449 401 400 450 402 403 424 450 403 404 451 424 407 451 404 407 425 452 426 453 425 426 454 453 454 455 456 431 382 427 457 428 408 408 409 458 410 459 409 460 410 411 461 411 429 412 462 429 413 462 412 463 413 414 464 414 415 465 415 416 466 416 417 430 467 417 418 468 430 419 468 418 431 469 419 432 427 383 470 432 420 385 434 433 433 470 420 434 386 435 436 435 387 436 388 437 421 471 437 439 438 390 438 471 421 440 439 391 392 441 440 442 441 393 442 394 443 443 422 472 472 422 423 444 396 445 473 423 444 446 445 397 398 447 446 448 447 399 448 401 474 450 449 402 474 401 449 450 424 475 424 451 475 451 407 452 452 425 476 425 453 476 453 454 456 455 477 456 455 478 477 479 431 427 480 428 457 457 408 458 409 459 458 460 459 410 461 460 411 481 461 429 462 481 429 463 462 413 463 414 464 464 415 465 465 416 466 467 466 417 430 482 467 430 468 482 419 469 468 483 469 431 432 479 427 470 484 432 433 434 485 433 485 470 434 435 486 487 435 436 488 436 437 471 489 437 490 438 439 490 471 438 491 439 440 441 492 440 493 441 442 442 443 494 443 472 495 472 423 473 496 444 445 496 473 444 446 497 445 447 498 446 499 447 448 448 474 500 501 449 450 474 449 501 502 450 475 451 503 475 504 451 452 505 452 476 453 506 476 453 456 506 456 477 507 477 478 508 478 509 508 483 431 479 480 457 510 457 458 511 459 512 458 460 513 459 461 514 460 481 515 461 516 481 462 516 462 463 463 464 517 464 465 518 465 466 519 466 467 520 482 521 467 482 468 522 468 469 522 483 523 469 432 484 479 470 524 484 485 434 486 470 485 524 486 435 487 487 436 488 489 488 437 471 525 489 491 490 439 490 525 471 492 491 440 493 492 441 493 442 494 494 443 495 495 472 526 526 472 473 497 496 445 496 527 473 498 497 446 499 498 447 499 448 500 474 528 500 501 450 502 474 501 528 503 502 475 504 503 451 505 504 452 505 476 529 476 506 529 506 456 507 507 477 530 531 477 508 509 532 508 509 533 532 533 534 535 536 483 479 537 480 510 510 457 511 458 512 511 459 513 512 460 514 513 461 515 514 481 538 515 516 538 481 516 463 517 464 518 517 518 465 519 519 466 520 467 521 520 482 539 521 482 522 539 469 523 522 540 523 483 484 536 479 484 524 541 542 485 486 524 485 542 486 487 543 544 487 488 489 545 488 489 525 546 491 547 490 490 547 525 492 548 491 549 492 493 550 493 494 551 494 495 552 495 526 527 526 473 497 553 496 496 553 527 498 554 497 555 498 499 499 500 556 500 528 557 558 501 502 528 501 558 503 559 502 504 560 503 561 504 505 562 505 529 506 563 529 563 506 507 477 531 530 564 507 530 532 531 508 532 533 535 534 565 535 534 566 565 540 483 536 537 510 567 568 510 511 512 568 511 512 513 569 513 514 570 514 515 571 515 538 572 573 538 516 573 516 517 517 518 574 575 518 519 576 519 520 521 577 520 539 578 521 522 579 539 523 579 522 540 580 523 536 484 541 524 581 541 542 486 543 581 524 542 487 544 543 545 544 488 489 546 545 546 525 582 491 548 547 525 547 582 549 548 492 549 493 550 551 550 494 552 551 495 583 552 526 527 583 526 497 554 553 527 553 584 555 554 498 555 499 556 556 500 557 528 585 557 559 558 502 528 558 585 503 560 559 561 560 504 561 505 562 563 562 529 564 563 507 531 586 530 586 564 530 532 587 531 588 532 535 535 565 589 565 566 590 566 591 590 540 536 592 593 537 567 510 568 567 568 512 569 513 570 569 514 571 570 571 515 572 538 594 572 573 594 538 573 517 574 574 518 575 576 575 519 577 576 520 521 578 577 595 578 539 579 595 539 523 580 579 596 580 540 592 536 541 581 597 541 598 542 543 598 581 542 544 599 543 545 600 544 545 546 601 602 546 582 547 548 603 547 603 582 549 604 548 605 549 550 551 606 550 552 607 551 608 552 583 527 584 583 553 554 609 584 553 609 555 610 554 611 555 556 612 556 557 585 613 557 614 558 559 585 558 614 560 615 559 561 616 560 617 561 562 618 562 563 564 619 563 587 586 531 586 620 564 587 532 588 588 535 589 565 621 589 622 565 590 591 623 590 624 625 626 591 624 627 596 540 592 628 593 567 568 629 567 630 568 569 570 631 569 571 632 570 633 571 572 594 634 572 635 594 573 635 573 574 636 574 575 576 637 575 638 576 577 578 639 577 640 578 595 595 579 641 579 580 641 596 642 580 597 592 541 581 643 597 599 598 543 598 643 581 544 600 599 545 601 600 601 546 602 644 602 582 548 604 603 603 644 582 605 604 549 606 605 550 551 607 606 608 607 552 645 608 583 584 645 583 554 610 609 584 609 646 611 610 555 612 611 556 613 612 557 613 585 647 615 614 559 647 585 614 560 616 615 617 616 561 618 617 562 619 618 563 564 620 619 648 586 587 648 620 586 587 588 649 650 588 589 565 622 621 621 650 589 623 622 590 623 591 627 624 626 627 626 625 651 625 652 651 653 596 592 654 593 628 629 628 567 630 629 568 631 630 569 632 631 570 632 571 633 634 633 572 594 655 634 635 655 594 636 635 574 637 636 575 638 637 576 639 638 577 640 639 578 640 595 656 595 641 656 580 642 641 657 642 596 597 653 592 597 643 658 659 598 599 659 643 598 600 660 599 600 601 661 601 602 662 602 644 663 603 604 664 603 664 644 605 665 604 666 605 606 607 667 606 668 607 608 669 608 645 584 646 645 610 670 609 609 670 646 611 671 610 672 611 612 613 673 612 674 613 647 615 675 614 675 647 614 615 616 676 617 677 616 678 617 618 679 618 619 620 680 619 648 587 649 681 620 648 649 588 650 622 682 621 682 650 621 623 683 622 684 623 627 626 684 627 626 651 685 652 686 651 652 687 686 657 596 653 654 628 688 689 628 629 630 689 629 631 690 630 691 631 632 632 633 692 693 633 634 655 694 634 695 655 635 695 635 636 696 636 637 697 637 638 698 638 639 699 639 640 700 640 656 641 701 656 642 701 641 657 702 642 653 597 658 643 703 658 660 659 599 659 703 643 600 661 660 661 601 662 662 602 663 644 704 663 604 665 664 644 664 704 666 665 605 667 666 606 668 667 607 668 608 669 705 669 645 646 705 645 610 671 670 646 670 706 672 671 611 673 672 612 674 673 613 707 674 647 615 676 675 675 707 647 616 677 676 678 677 617 678 618 679 680 679 619 681 680 620 648 649 708 681 648 708 649 650 709 683 682 622 650 682 709 684 683 623 684 626 685 685 651 710 651 686 710 686 687 711 657 653 712 713 654 688 628 714 688 628 689 714 630 690 689 691 690 631 691 632 692 633 693 692 694 693 634 715 694 655 715 655 695 695 636 696 696 637 697 697 638 698 698 639 699 699 640 700 700 656 716 656 701 716 642 702 701 717 702 657 712 653 658 703 718 658 660 719 659 659 719 703 660 661 720 721 661 662 722 662 663 704 723 663 665 724 664 664 724 704 666 725 665 667 726 666 668 727 667 728 668 669 729 669 705 646 706 705 670 671 730 706 670 730 672 731 671 732 672 673 733 673 674 734 674 707 676 735 675 735 707 675 676 677 736 678 737 677 738 678 679 680 739 679 740 680 681 649 741 708 742 681 708 741 649 709 683 743 682 682 744 709 745 683 684 746 684 685 747 685 710 710 686 748 687 749 711 686 711 748 749 750 751 717 657 712 752 713 688 688 714 753 714 689 754 689 690 755 691 756 690 757 691 692 693 758 692 694 759 693 760 694 715 715 695 761 695 696 761 696 697 762 697 698 763 698 699 764 699 700 765 766 700 716 701 767 716 701 702 767 717 768 702 718 712 658 703 769 718 660 720 719 703 719 769 720 661 721 722 721 662 723 722 663 770 723 704 665 725 724 724 770 704 666 726 725 667 727 726 728 727 668 729 728 669 771 729 705 706 771 705 671 731 730 772 706 730 732 731 672 732 673 733 733 674 734 734 707 773 735 676 736 773 707 735 677 737 736 738 737 678 739 738 679 740 739 680 740 681 742 741 774 708 774 742 708 744 741 709 745 743 683 682 743 744 745 684 746 747 746 685 775 747 710 775 710 748 749 751 711 711 776 748 751 750 777 750 778 777 779 717 712 780 713 752 752 688 753 714 781 753 754 689 755 714 754 781 690 756 755 757 756 691 758 757 692 759 758 693 760 759 694 760 715 782 715 761 782 696 762 761 697 763 762 763 698 764 764 699 765 765 700 766 783 766 716 767 783 716 702 768 767 784 768 717 718 779 712 718 769 785 719 720 786 769 719 786 720 721 787 788 721 722 722 723 789 770 790 723 724 725 791 770 724 791 725 726 792 726 727 793 728 794 727 795 728 729 796 729 771 706 772 771 731 797 730 797 772 730 798 731 732 732 733 799 733 734 800 734 773 801 802 735 736 773 735 802 737 803 736 738 804 737 805 738 739 806 739 740 807 740 742 808 774 741 774 809 742 808 741 744 810 743 745 743 811 744 812 745 746 747 813 746 814 747 775 776 775 748 751 776 711 815 751 777 778 816 777 778 817 816 784 717 779 818 780 752 819 752 753 781 819 753 820 754 755 781 754 821 756 820 755 757 822 756 758 823 757 759 824 758 760 825 759 826 760 782 782 761 827 761 762 827 762 763 828 829 763 764 830 764 765 831 765 766 783 832 766 767 833 783 768 833 767 784 834 768 779 718 785 769 835 785 720 787 786 835 769 786 787 721 788 788 722 789 723 790 789 836 790 770 725 792 791 836 770 791 792 726 793 727 794 793 795 794 728 795 729 796 837 796 771 772 837 771 798 797 731 797 838 772 798 732 799 733 800 799 734 801 800 801 773 839 803 802 736 839 773 802 737 804 803 805 804 738 805 739 806 806 740 807 809 807 742 808 840 774 774 840 809 811 808 744 810 811 743 810 745 812 813 812 746 814 813 747 841 814 775 776 841 775 776 751 842 751 815 842 816 815 777 817 843 816 817 844 843 784 779 845 846 780 818 818 752 819 781 847 819 754 820 821 847 781 821 756 822 820 757 823 822 758 824 823 759 825 824 826 825 760 848 826 782 848 782 827 827 762 828 828 763 829 830 829 764 831 830 765 832 831 766 849 832 783 833 849 783 768 834 833 850 834 784 845 779 785 835 851 785 787 852 786 852 835 786 853 787 788 854 788 789 790 855 789 856 790 836 792 857 791 857 836 791 792 793 858 793 794 859 795 860 794 861 795 796 837 862 796 772 838 837 863 797 798 863 838 797 864 798 799 800 865 799 801 866 800 801 839 867 802 803 868 839 802 868 804 869 803 870 804 805 805 806 871 806 807 872 873 807 809 808 874 840 840 875 809 811 874 808 810 876 811 877 810 812 813 878 812 814 879 813 880 814 841 881 841 776 881 776 842 815 882 842 883 815 816 816 843 884 843 844 885 844 886 885 850 784 845 846 818 887 818 819 888 847 889 819 820 890 821 890 847 821 820 822 891 822 823 892 823 824 893 824 825 894 826 895 825 896 826 848 897 848 827 897 827 828 898 828 829 830 899 829 831 900 830 901 831 832 902 832 849 849 833 903 833 834 903 850 904 834 851 845 785 835 905 851 787 853 852 852 905 835 854 853 788 855 854 789 856 855 790 856 836 906 857 792 858 906 836 857 793 859 858 794 860 859 861 860 795 862 861 796 907 862 837 838 907 837 863 798 864 908 838 863 865 864 799 800 866 865 801 867 866 867 839 909 803 869 868 909 839 868 870 869 804 870 805 871 806 872 871 872 807 873 875 873 809 840 874 910 840 910 875 811 876 874 877 876 810 878 877 812 813 879 878 880 879 814 880 841 911 911 841 881 882 881 842 883 882 815 883 816 884 884 843 912 843 885 912 886 913 885 914 850 845 915 846 887 887 818 888 819 889 888 916 889 847 820 891 890 916 847 890 891 822 892 823 893 892 893 824 894 825 895 894 896 895 826 917 896 848 897 917 848 898 897 828 899 898 829 830 900 899 901 900 831 901 832 902 902 849 918 849 903 918 834 904 903 919 904 850 851 914 845 851 905 920 853 921 852 921 905 852 854 922 853 855 923 854 924 855 856 856 906 925 926 857 858 906 857 926 859 927 858 860 928 859 861 929 860 862 930 861 907 931 862 908 907 838 863 864 932 908 863 932 933 864 865 866 934 865 866 867 935 936 867 909 869 937 868 937 909 868 870 938 869 939 870 871 871 872 940 941 872 873 875 942 873 910 874 943 910 944 875 874 876 943 877 945 876 946 877 878 879 947 878 948 879 880 880 911 949 911 881 950 950 881 882 951 882 883 952 883 884 953 884 912 912 885 954 886 955 913 885 913 954 919 850 914 956 915 887 957 887 888 889 957 888 916 958 889 891 959 890 959 916 890 960 891 892 893 961 892 893 894 962 894 895 963 896 964 895 965 896 917 966 917 897 966 897 898 899 967 898 900 968 899 969 900 901 901 902 970 971 902 918 903 972 918 904 972 903 919 973 904 914 851 920 905 974 920 853 922 921 921 974 905 854 923 922 924 923 855 924 856 925 925 906 975 927 926 858 975 906 926 859 928 927 860 929 928 861 930 929 862 931 930 976 931 907 976 907 908 864 933 932 908 932 977 934 933 865 866 935 934 935 867 936 978 936 909 869 938 937 937 978 909 939 938 870 939 871 940 940 872 941 942 941 873 944 942 875 910 943 979 944 910 979 876 945 943 946 945 877 947 946 878 948 947 879 948 880 949 911 980 949 911 950 980 950 882 951 951 883 952 953 952 884 981 953 912 981 912 954 913 955 982 913 983 954 955 984 982 919 914 985 986 915 956 957 956 887 889 958 957 987 958 916 891 960 959 987 916 959 961 960 892 961 893 962 894 963 962 895 964 963 965 964 896 965 917 988 988 917 966 967 966 898 968 967 899 969 968 900 969 901 970 970 902 971 989 971 918 972 989 918 904 973 972 990 973 919 985 914 920 974 991 920 921 922 992 921 992 974 922 923 993 924 994 923 995 924 925 996 925 975 927 997 926 997 975 926 928 998 927 928 929 999 929 930 1000 930 931 1001 976 1002 931 976 908 977 932 933 1003 977 932 1003 934 1004 933 934 935 1005 935 936 1006 936 978 1007 937 938 1008 937 1008 978 939 1009 938 1010 939 940 1011 940 941 942 1012 941 1013 942 944 943 1014 979 1015 944 979 945 1014 943 1016 945 946 1017 946 947 1018 947 948 1019 948 949 980 1020 949 980 950 1021 1021 950 951 1022 951 952 953 1023 952 981 1024 953 983 981 954 913 982 1025 983 913 1025 984 1026 982 984 1027 1026 1028 1029 1030 1031 1028 1032 1027 1031 1033 990 919 985 986 956 1034 956 957 1035 958 1036 957 987 1037 958 960 1038 959 1038 987 959 1039 960 961 1040 961 962 963 1041 962 964 1042 963 1043 964 965 965 988 1044 988 966 1045 1045 966 967 1046 967 968 1047 968 969 1048 969 970 970 971 1049 989 1050 971 972 1051 989 972 973 1051 990 1052 973 991 985 920 974 1053 991 992 922 993 974 992 1053 923 994 993 995 994 924 996 995 925 1054 996 975 998 997 927 997 1054 975 928 999 998 999 929 1000 930 1001 1000 931 1002 1001 1055 1002 976 1055 976 977 933 1004 1003 1056 977 1003 934 1005 1004 1005 935 1006 1006 936 1007 978 1057 1007 938 1009 1008 1008 1057 978 1010 1009 939 1011 1010 940 1012 1011 941 1013 1012 942 1015 1013 944 1014 1058 979 1058 1015 979 1016 1014 945 1016 946 1017 1017 947 1018 1018 948 1019 1020 1019 949 1020 980 1059 980 1021 1059 1021 951 1022 1023 1022 952 1024 1023 953 1060 1024 981 1060 981 983 982 1061 1025 1062 983 1025 982 1026 1061 1026 1027 1033 1028 1030 1032 1030 1029 1063 1033 1031 1032 1029 1064 1063 1065 990 985 1066 986 1034 1034 956 1035 957 1036 1035 958 1037 1036 987 1067 1037 1039 1038 960 1038 1067 987 1039 961 1040 1041 1040 962 963 1042 1041 1043 1042 964 1043 965 1044 988 1068 1044 988 1045 1068 1045 967 1046 1046 968 1047 1047 969 1048 1048 970 1049 971 1050 1049 989 1069 1050 989 1051 1069 973 1052 1051 1070 1052 990 991 1065 985 991 1053 1071 1072 992 993 1053 992 1072 994 1073 993 995 1074 994 1075 995 996 1054 1076 996 998 1077 997 997 1077 1054 998 999 1078 1079 999 1000 1001 1080 1000 1002 1081 1001 1055 1082 1002 1056 1055 977 1004 1083 1003 1083 1056 1003 1004 1005 1084 1085 1005 1006 1086 1006 1007 1057 1087 1007 1009 1088 1008 1008 1088 1057 1089 1009 1010 1090 1010 1011 1091 1011 1012 1092 1012 1013 1093 1013 1015 1094 1058 1014 1095 1015 1058 1094 1014 1016 1016 1017 1096 1017 1018 1097 1018 1019 1098 1099 1019 1020 1100 1020 1059 1059 1021 1101 1101 1021 1022 1023 1102 1022 1024 1103 1023 1060 1104 1024 1060 983 1062 1061 1062 1025 1061 1026 1105 1105 1026 1033 1032 1030 1106 1030 1063 1107 1108 1033 1032 1063 1064 1109 1064 1110 1109 1110 1111 1112 1070 990 1065 1113 1066 1034 1034 1035 1114 1036 1115 1035 1036 1037 1116 1037 1067 1117 1118 1038 1039 1118 1067 1038 1119 1039 1040 1041 1120 1040 1041 1042 1121 1043 1122 1042 1123 1043 1044 1044 1068 1124 1045 1125 1068 1045 1046 1125 1046 1047 1126 1047 1048 1127 1128 1048 1049 1050 1129 1049 1069 1130 1050 1051 1131 1069 1052 1131 1051 1070 1132 1052 1065 991 1071 1053 1133 1071 1073 1072 993 1053 1072 1133 994 1074 1073 1075 1074 995 1076 1075 996 1134 1076 1054 998 1078 1077 1077 1134 1054 1078 999 1079 1080 1079 1000 1001 1081 1080 1002 1082 1081 1135 1082 1055 1135 1055 1056 1004 1084 1083 1056 1083 1136 1084 1005 1085 1085 1006 1086 1087 1086 1007 1137 1087 1057 1089 1088 1009 1088 1137 1057 1089 1010 1090 1090 1011 1091 1091 1012 1092 1092 1013 1093 1093 1015 1095 1138 1058 1094 1095 1058 1138 1094 1016 1096 1017 1097 1096 1018 1098 1097 1098 1019 1099 1099 1020 1100 1139 1100 1059 1139 1059 1101 1102 1101 1022 1023 1103 1102 1024 1104 1103 1140 1104 1060 1140 1060 1062 1062 1061 1141 1061 1105 1141 1105 1033 1108 1106 1030 1107 1108 1032 1106 1107 1063 1142 1063 1109 1142 1110 1112 1109 1112 1111 1143 1111 1144 1143 1070 1065 1145 1146 1066 1113 1113 1034 1114 1035 1115 1114 1036 1116 1115 1116 1037 1117 1067 1147 1117 1118 1039 1119 1118 1147 1067 1120 1119 1040 1120 1041 1121 1042 1122 1121 1123 1122 1043 1123 1044 1124 1124 1068 1148 1068 1125 1148 1125 1046 1126 1047 1127 1126 1127 1048 1128 1129 1128 1049 1050 1130 1129 1149 1130 1069 1131 1149 1069 1052 1132 1131 1150 1132 1070 1145 1065 1071 1133 1151 1071 1072 1073 1152 1133 1072 1152 1073 1074 1153 1075 1154 1074 1076 1155 1075 1134 1156 1076 1077 1078 1157 1077 1157 1134 1078 1079 1158 1079 1080 1159 1081 1160 1080 1081 1082 1161 1135 1162 1082 1135 1056 1136 1083 1084 1163 1136 1083 1163 1084 1085 1164 1165 1085 1086 1087 1166 1086 1137 1167 1087 1168 1088 1089 1168 1137 1088 1089 1090 1169 1090 1091 1170 1091 1092 1171 1092 1093 1172 1093 1095 1173 1138 1094 1174 1095 1138 1175 1094 1096 1174 1096 1097 1176 1097 1098 1177 1098 1099 1178 1179 1099 1100 1139 1180 1100 1181 1139 1101 1102 1181 1101 1102 1103 1182 1103 1104 1183 1140 1184 1104 1185 1140 1062 1185 1062 1141 1105 1186 1141 1105 1108 1186 1187 1106 1107 1188 1108 1106 1189 1107 1142 1109 1190 1142 1109 1112 1190 1112 1143 1191 1144 1192 1143 1150 1070 1145 1146 1113 1193 1194 1113 1114 1115 1194 1114 1115 1116 1195 1116 1117 1196 1147 1197 1117 1198 1118 1119 1198 1147 1118 1120 1199 1119 1200 1120 1121 1122 1201 1121 1202 1122 1123 1203 1123 1124 1204 1124 1148 1148 1125 1205 1125 1126 1205 1126 1127 1206 1207 1127 1128 1208 1128 1129 1130 1209 1129 1210 1130 1149 1149 1131 1211 1131 1132 1211 1150 1212 1132 1151 1145 1071 1133 1213 1151 1152 1073 1153 1213 1133 1152 1074 1154 1153 1075 1155 1154 1076 1156 1155 1134 1214 1156 1157 1078 1158 1134 1157 1214 1158 1079 1159 1080 1160 1159 1160 1081 1161 1082 1162 1161 1215 1162 1135 1215 1135 1136 1163 1084 1164 1216 1136 1163 1164 1085 1165 1166 1165 1086 1087 1167 1166 1217 1167 1137 1168 1089 1169 1217 1137 1168 1090 1170 1169 1091 1171 1170 1171 1092 1172 1172 1093 1173 1095 1175 1173 1218 1138 1174 1175 1138 1218 1174 1096 1176 1176 1097 1177 1177 1098 1178 1178 1099 1179 1180 1179 1100 1219 1180 1139 1219 1139 1181 1102 1182 1181 1182 1103 1183 1104 1184 1183 1220 1184 1140 1220 1140 1185 1185 1141 1221 1141 1186 1221 1186 1108 1222 1187 1188 1106 1189 1187 1107 1108 1188 1222 1190 1189 1142 1190 1112 1191 1191 1143 1223 1144 1224 1192 1143 1192 1223 1225 1150 1145 1226 1146 1193 1113 1227 1193 1227 1113 1194 1194 1115 1195 1116 1196 1195 1117 1197 1196 1147 1228 1197 1199 1198 1119 1198 1228 1147 1200 1199 1120 1201 1200 1121 1202 1201 1122 1202 1123 1203 1204 1203 1124 1229 1204 1148 1229 1148 1205 1126 1206 1205 1206 1127 1207 1208 1207 1128 1209 1208 1129 1210 1209 1130 1210 1149 1230 1149 1211 1230 1132 1212 1211 1231 1212 1150 1151 1225 1145 1151 1213 1232 1233 1152 1153 1233 1213 1152 1154 1234 1153 1154 1155 1235 1155 1156 1236 1156 1214 1237 1238 1157 1158 1214 1157 1238 1239 1158 1159 1160 1240 1159 1241 1160 1161 1162 1242 1161 1215 1243 1162 1216 1215 1136 1244 1163 1164 1244 1216 1163 1245 1164 1165 1166 1246 1165 1167 1247 1166 1248 1167 1217 1249 1168 1169 1217 1168 1249 1170 1250 1169 1170 1171 1251 1252 1171 1172 1253 1172 1173 1175 1254 1173 1255 1218 1174 1175 1218 1256 1255 1174 1176 1257 1176 1177 1258 1177 1178 1259 1178 1179 1180 1260 1179 1219 1261 1180 1262 1219 1181 1182 1262 1181 1263 1182 1183 1184 1264 1183 1220 1265 1184 1220 1185 1266 1266 1185 1221 1186 1267 1221 1267 1186 1222 1187 1268 1188 1269 1187 1189 1188 1270 1222 1189 1190 1271 1272 1190 1191 1273 1191 1223 1192 1224 1274 1192 1275 1223 1224 1276 1274 1231 1150 1225 1226 1193 1277 1227 1278 1193 1279 1227 1194 1279 1194 1195 1196 1280 1195 1196 1197 1281 1197 1228 1282 1199 1283 1198 1198 1283 1228 1200 1284 1199 1201 1285 1200 1202 1286 1201 1287 1202 1203 1204 1288 1203 1229 1289 1204 1290 1229 1205 1206 1290 1205 1291 1206 1207 1208 1292 1207 1209 1293 1208 1294 1209 1210 1295 1210 1230 1211 1296 1230 1212 1296 1211 1231 1297 1212 1225 1151 1232 1213 1298 1232 1234 1233 1153 1233 1298 1213 1154 1235 1234 1235 1155 1236 1156 1237 1236 1237 1214 1299 1239 1238 1158 1299 1214 1238 1240 1239 1159 1241 1240 1160 1242 1241 1161 1162 1243 1242 1215 1300 1243 1216 1300 1215 1245 1244 1164 1301 1216 1244 1246 1245 1165 1166 1247 1246 1248 1247 1167 1248 1217 1302 1250 1249 1169 1217 1249 1302 1250 1170 1251 1171 1252 1251 1253 1252 1172 1254 1253 1173 1175 1256 1254 1303 1218 1255 1256 1218 1303 1255 1176 1257 1258 1257 1177 1259 1258 1178 1260 1259 1179 1180 1261 1260 1304 1261 1219 1304 1219 1262 1263 1262 1182 1264 1263 1183 1184 1265 1264 1305 1265 1220 1305 1220 1266 1267 1266 1221 1270 1267 1222 1269 1268 1187 1188 1268 1270 1269 1189 1271 1190 1272 1271 1273 1272 1191 1273 1223 1306 1192 1274 1275 1223 1275 1306 1274 1276 1307 1276 1308 1307 1231 1225 1309 1310 1226 1277 1193 1278 1277 1227 1311 1278 1279 1311 1227 1280 1279 1195 1280 1196 1281 1197 1282 1281 1228 1312 1282 1199 1284 1283 1228 1283 1312 1200 1285 1284 1201 1286 1285 1287 1286 1202 1288 1287 1203 1204 1289 1288 1313 1289 1229 1313 1229 1290 1290 1206 1291 1292 1291 1207 1208 1293 1292 1294 1293 1209 1294 1210 1295 1314 1295 1230 1296 1314 1230 1212 1297 1296 1315 1297 1231 1309 1225 1232 1298 1316 1232 1234 1317 1233 1233 1317 1298 1234 1235 1318 1235 1236 1319 1237 1320 1236 1237 1299 1321 1239 1322 1238 1322 1299 1238 1323 1239 1240 1241 1324 1240 1242 1325 1241 1242 1243 1326 1243 1300 1327 1301 1300 1216 1245 1328 1244 1328 1301 1244 1329 1245 1246 1247 1330 1246 1331 1247 1248 1248 1302 1332 1333 1249 1250 1249 1333 1302 1334 1250 1251 1252 1335 1251 1253 1336 1252 1337 1253 1254 1256 1338 1254 1303 1255 1339 1256 1303 1340 1339 1255 1257 1258 1341 1257 1259 1342 1258 1343 1259 1260 1261 1344 1260 1345 1261 1304 1304 1262 1346 1346 1262 1263 1263 1264 1347 1265 1348 1264 1305 1349 1265 1350 1305 1266 1267 1350 1266 1351 1267 1270 1269 1352 1268 1268 1353 1270 1354 1269 1271 1272 1355 1271 1356 1272 1273 1357 1273 1306 1275 1274 1358 1275 1359 1306 1360 1274 1307 1308 1361 1307 1315 1231 1309 1362 1310 1277 1278 1362 1277 1278 1311 1363 1364 1311 1279 1364 1279 1280 1365 1280 1281 1282 1366 1281 1282 1312 1367 1283 1284 1368 1312 1283 1368 1284 1285 1369 1285 1286 1370 1287 1371 1286 1372 1287 1288 1289 1373 1288 1374 1289 1313 1313 1290 1375 1375 1290 1291 1292 1376 1291 1293 1377 1292 1378 1293 1294 1379 1294 1295 1314 1380 1295 1296 1381 1314 1296 1297 1381 1315 1382 1297 1316 1309 1232 1298 1383 1316 1234 1318 1317 1298 1317 1383 1318 1235 1319 1236 1320 1319 1237 1321 1320 1321 1299 1384 1323 1322 1239 1384 1299 1322 1324 1323 1240 1241 1325 1324 1242 1326 1325 1326 1243 1327 1300 1385 1327 1301 1385 1300 1329 1328 1245 1328 1386 1301 1330 1329 1246 1331 1330 1247 1331 1248 1332 1302 1387 1332 1334 1333 1250 1333 1387 1302 1335 1334 1251 1252 1336 1335 1337 1336 1253 1338 1337 1254 1256 1340 1338 1388 1303 1339 1340 1303 1388 1341 1339 1257 1258 1342 1341 1343 1342 1259 1344 1343 1260 1345 1344 1261 1345 1304 1389 1304 1346 1389 1346 1263 1347 1264 1348 1347 1265 1349 1348 1305 1390 1349 1350 1390 1305 1351 1350 1267 1353 1351 1270 1354 1352 1269 1268 1352 1353 1355 1354 1271 1356 1355 1272 1356 1273 1357 1359 1357 1306 1274 1360 1358 1359 1275 1358 1360 1307 1391 1308 1392 1361 1307 1361 1391 1393 1315 1309 1394 1310 1362 1362 1278 1363 1311 1395 1363 1364 1395 1311 1364 1280 1365 1366 1365 1281 1282 1367 1366 1312 1396 1367 1284 1369 1368 1396 1312 1368 1369 1285 1370 1286 1371 1370 1372 1371 1287 1373 1372 1288 1374 1373 1289 1374 1313 1397 1397 1313 1375 1376 1375 1291 1377 1376 1292 1378 1377 1293 1378 1294 1379 1380 1379 1295 1314 1398 1380 1314 1381 1398 1297 1382 1381 1399 1382 1315 1316 1393 1309 1316 1383 1400 1317 1318 1401 1317 1401 1383 1402 1318 1319 1320 1403 1319 1320 1321 1404 1321 1384 1405 1406 1322 1323 1384 1322 1406 1323 1324 1407 1324 1325 1408 1325 1326 1409 1410 1326 1327 1385 1411 1327 1301 1386 1385 1329 1412 1328 1328 1412 1386 1330 1413 1329 1331 1414 1330 1415 1331 1332 1332 1387 1416 1334 1417 1333 1333 1417 1387 1418 1334 1335 1336 1419 1335 1337 1420 1336 1338 1421 1337 1338 1340 1422 1423 1388 1339 1340 1388 1424 1341 1423 1339 1341 1342 1425 1343 1426 1342 1344 1427 1343 1345 1428 1344 1429 1345 1389 1389 1346 1430 1430 1346 1347 1348 1431 1347 1348 1349 1432 1349 1390 1433 1434 1390 1350 1434 1350 1351 1435 1351 1353 1436 1352 1354 1352 1437 1353 1438 1354 1355 1439 1355 1356 1440 1356 1357 1359 1441 1357 1360 1442 1358 1442 1359 1358 1443 1360 1391 1361 1392 1444 1361 1445 1391 1392 1446 1444 1447 1448 1449 1446 1447 1450 1399 1315 1393 1394 1362 1451 1362 1363 1452 1395 1453 1363 1454 1395 1364 1454 1364 1365 1366 1455 1365 1366 1367 1456 1367 1396 1457 1369 1458 1368 1458 1396 1368 1459 1369 1370 1370 1371 1460 1372 1461 1371 1462 1372 1373 1463 1373 1374 1464 1374 1397 1465 1397 1375 1376 1465 1375 1377 1466 1376 1467 1377 1378 1378 1379 1468 1379 1380 1469 1398 1470 1380 1398 1381 1471 1381 1382 1471 1399 1472 1382 1393 1316 1400 1383 1473 1400 1401 1318 1402 1401 1473 1383 1403 1402 1319 1403 1320 1404 1404 1321 1405 1384 1474 1405 1406 1323 1407 1384 1406 1474 1407 1324 1408 1325 1409 1408 1326 1410 1409 1411 1410 1327 1411 1385 1475 1385 1386 1475 1329 1413 1412 1386 1412 1476 1330 1414 1413 1415 1414 1331 1415 1332 1416 1416 1387 1477 1418 1417 1334 1387 1417 1477 1419 1418 1335 1336 1420 1419 1337 1421 1420 1338 1422 1421 1422 1340 1424 1388 1423 1478 1424 1388 1478 1341 1425 1423 1342 1426 1425 1343 1427 1426 1344 1428 1427 1429 1428 1345 1429 1389 1479 1389 1430 1479 1431 1430 1347 1348 1432 1431 1432 1349 1433 1390 1480 1433 1434 1480 1390 1434 1351 1435 1437 1435 1353 1436 1437 1352 1436 1354 1438 1438 1355 1439 1439 1356 1440 1441 1440 1357 1359 1481 1441 1443 1442 1360 1442 1481 1359 1445 1443 1391 1361 1444 1445 1446 1450 1444 1450 1447 1449 1448 1482 1449 1448 1483 1482 1399 1393 1484 1485 1394 1451 1362 1452 1451 1363 1453 1452 1395 1486 1453 1454 1486 1395 1455 1454 1365 1455 1366 1456 1367 1457 1456 1396 1487 1457 1458 1369 1459 1458 1487 1396 1459 1370 1460 1371 1461 1460 1462 1461 1372 1462 1373 1463 1463 1374 1464 1488 1464 1397 1465 1488 1397 1376 1466 1465 1467 1466 1377 1467 1378 1468 1468 1379 1469 1380 1470 1469 1398 1489 1470 1398 1471 1489 1382 1472 1471 1490 1472 1399 1484 1393 1400 1473 1491 1400 1401 1402 1492 1401 1492 1473 1493 1402 1403 1494 1403 1404 1495 1404 1405 1405 1474 1496 1497 1406 1407 1474 1406 1497 1498 1407 1408 1409 1499 1408 1410 1500 1409 1501 1410 1411 1502 1411 1475 1386 1476 1475 1412 1413 1503 1476 1412 1503 1413 1414 1504 1415 1505 1414 1506 1415 1416 1507 1416 1477 1418 1508 1417 1417 1508 1477 1419 1509 1418 1419 1420 1510 1420 1421 1511 1421 1422 1512 1513 1422 1424 1423 1514 1478 1515 1424 1478 1425 1514 1423 1426 1516 1425 1426 1427 1517 1427 1428 1518 1429 1519 1428 1520 1429 1479 1479 1430 1521 1521 1430 1431 1432 1522 1431 1523 1432 1433 1480 1524 1433 1525 1480 1434 1525 1434 1435 1437 1526 1435 1527 1437 1436 1436 1438 1528 1438 1439 1529 1439 1440 1530 1440 1441 1531 1481 1532 1441 1533 1442 1443 1533 1481 1442 1534 1443 1445 1444 1535 1445 1444 1450 1535 1450 1449 1536 1449 1482 1537 1482 1483 1538 1483 1539 1538 1539 1540 1541 1490 1399 1484 1485 1451 1542 1452 1543 1451 1453 1544 1452 1453 1486 1545 1454 1546 1486 1455 1546 1454 1547 1455 1456 1457 1548 1456 1457 1487 1549 1550 1458 1459 1550 1487 1458 1551 1459 1460 1461 1552 1460 1553 1461 1462 1462 1463 1554 1463 1464 1555 1556 1464 1488 1465 1557 1488 1466 1557 1465 1467 1558 1466 1559 1467 1468 1560 1468 1469 1470 1561 1469 1489 1562 1470 1471 1563 1489 1472 1563 1471 1490 1564 1472 1491 1484 1400 1473 1565 1491 1492 1402 1493 1473 1492 1565 1494 1493 1403 1495 1494 1404 1495 1405 1496 1474 1566 1496 1498 1497 1407 1474 1497 1566 1499 1498 1408 1500 1499 1409 1501 1500 1410 1501 1411 1502 1567 1502 1475 1476 1567 1475 1503 1413 1504 1476 1503 1568 1414 1505 1504 1506 1505 1415 1507 1506 1416 1569 1507 1477 1418 1509 1508 1508 1569 1477 1419 1510 1509 1510 1420 1511 1421 1512 1511 1512 1422 1513 1513 1424 1515 1514 1570 1478 1570 1515 1478 1425 1516 1514 1426 1517 1516 1517 1427 1518 1428 1519 1518 1520 1519 1429 1571 1520 1479 1571 1479 1521 1522 1521 1431 1523 1522 1432 1524 1523 1433 1480 1572 1524 1525 1572 1480 1526 1525 1435 1527 1526 1437 1527 1436 1528 1438 1529 1528 1529 1439 1530 1530 1440 1531 1441 1532 1531 1573 1532 1481 1533 1443 1534 1573 1481 1533 1574 1534 1445 1535 1574 1445 1535 1450 1536 1536 1449 1537 1537 1482 1575 1482 1538 1575 1539 1541 1538 1540 1576 1541 1540 1577 1576 1578 1490 1484 1579 1485 1542 1451 1543 1542 1544 1543 1452 1453 1545 1544 1545 1486 1580 1486 1546 1580 1547 1546 1455 1548 1547 1456 1548 1457 1549 1487 1581 1549 1550 1459 1551 1550 1581 1487 1552 1551 1460 1553 1552 1461 1553 1462 1554 1463 1555 1554 1555 1464 1556 1582 1556 1488 1557 1582 1488 1466 1558 1557 1559 1558 1467 1560 1559 1468 1561 1560 1469 1470 1562 1561 1583 1562 1489 1563 1583 1489 1472 1564 1563 1584 1564 1490 1491 1578 1484 1491 1565 1585 1492 1493 1586 1565 1492 1586 1494 1587 1493 1588 1494 1495 1589 1495 1496 1566 1590 1496 1591 1497 1498 1566 1497 1591 1592 1498 1499 1500 1593 1499 1594 1500 1501 1595 1501 1502 1567 1596 1502 1476 1568 1567 1597 1503 1504 1568 1503 1597 1505 1598 1504 1506 1599 1505 1600 1506 1507 1507 1569 1601 1508 1509 1602 1508 1602 1569 1509 1510 1603 1510 1511 1604 1512 1605 1511 1512 1513 1606 1607 1513 1515 1608 1570 1514 1570 1609 1515 1516 1608 1514 1516 1517 1610 1611 1517 1518 1519 1612 1518 1520 1613 1519 1614 1520 1571 1571 1521 1615 1521 1522 1615 1523 1616 1522 1524 1617 1523 1524 1572 1618 1525 1619 1572 1526 1619 1525 1620 1526 1527 1527 1528 1621 1528 1529 1622 1623 1529 1530 1624 1530 1531 1532 1625 1531 1573 1626 1532 1627 1533 1534 1573 1533 1627 1574 1628 1534 1629 1574 1535 1629 1535 1536 1630 1536 1537 1631 1537 1575 1538 1632 1575 1541 1632 1538 1541 1576 1633 1576 1577 1634 1577 1635 1634 1584 1490 1578 1636 1579 1542 1542 1543 1637 1544 1638 1543 1544 1545 1639 1640 1545 1580 1546 1641 1580 1547 1641 1546 1642 1547 1548 1643 1548 1549 1581 1644 1549 1645 1550 1551 1645 1581 1550 1552 1646 1551 1647 1552 1553 1553 1554 1648 1554 1555 1649 1555 1556 1650 1651 1556 1582 1557 1652 1582 1557 1558 1652 1559 1653 1558 1654 1559 1560 1655 1560 1561 1562 1656 1561 1657 1562 1583 1583 1563 1658 1563 1564 1658 1584 1659 1564 1491 1585 1578 1585 1565 1660 1493 1587 1586 1660 1565 1586 1588 1587 1494 1588 1495 1589 1590 1589 1496 1566 1661 1590 1591 1498 1592 1566 1591 1661 1593 1592 1499 1594 1593 1500 1594 1501 1595 1596 1595 1502 1596 1567 1662 1567 1568 1662 1598 1597 1504 1568 1597 1663 1505 1599 1598 1600 1599 1506 1600 1507 1601 1569 1664 1601 1602 1509 1603 1569 1602 1664 1510 1604 1603 1511 1605 1604 1512 1606 1605 1606 1513 1607 1609 1607 1515 1608 1665 1570 1570 1665 1609 1516 1610 1608 1610 1517 1611 1612 1611 1518 1519 1613 1612 1614 1613 1520 1614 1571 1666 1666 1571 1615 1522 1616 1615 1523 1617 1616 1524 1618 1617 1618 1572 1667 1572 1619 1667 1620 1619 1526 1620 1527 1621 1528 1622 1621 1622 1529 1623 1624 1623 1530 1625 1624 1531 1532 1626 1625 1668 1626 1573 1628 1627 1534 1668 1573 1627 1574 1669 1628 1629 1669 1574 1630 1629 1536 1631 1630 1537 1632 1631 1575 1632 1541 1633 1633 1576 1670 1576 1634 1670 1635 1671 1634 1635 1672 1671 1673 1584 1578 1674 1579 1636 1636 1542 1637 1543 1638 1637 1544 1639 1638 1639 1545 1640 1675 1640 1580 1641 1675 1580 1642 1641 1547 1642 1548 1643 1644 1643 1549 1581 1676 1644 1646 1645 1551 1645 1676 1581 1647 1646 1552 1647 1553 1648 1554 1649 1648 1649 1555 1650 1650 1556 1651 1677 1651 1582 1652 1677 1582 1558 1653 1652 1654 1653 1559 1654 1560 1655 1656 1655 1561 1657 1656 1562 1657 1583 1678 1678 1583 1658 1564 1659 1658 1679 1659 1584 1585 1673 1578 1585 1660 1680 1587 1681 1586 1681 1660 1586 1588 1682 1587 1683 1588 1589 1590 1684 1589 1590 1661 1685 1591 1592 1686 1661 1591 1686 1593 1687 1592 1594 1688 1593 1689 1594 1595 1596 1690 1595 1691 1596 1662 1568 1663 1662 1597 1598 1692 1663 1597 1692 1598 1599 1693 1600 1694 1599 1695 1600 1601 1601 1664 1696 1602 1603 1697 1664 1602 1697 1603 1604 1698 1604 1605 1699 1605 1606 1700 1606 1607 1701 1702 1607 1609 1608 1703 1665 1665 1704 1609 1608 1610 1703 1705 1610 1611 1706 1611 1612 1613 1707 1612 1708 1613 1614 1709 1614 1666 1710 1666 1615 1616 1710 1615 1617 1711 1616 1617 1618 1712 1713 1618 1667 1619 1714 1667 1620 1714 1619 1715 1620 1621 1621 1622 1716 1717 1622 1623 1624 1718 1623 1719 1624 1625 1626 1720 1625 1668 1721 1626 1628 1722 1627 1722 1668 1627 1628 1669 1723 1629 1724 1669 1630 1724 1629 1725 1630 1631 1632 1726 1631 1727 1632 1633 1728 1633 1670 1634 1729 1670 1634 1671 1730 1671 1672 1731 1672 1732 1731 1679 1584 1673 1674 1636 1733 1636 1637 1734 1638 1735 1637 1638 1639 1736 1639 1640 1737 1640 1675 1738 1739 1675 1641 1739 1641 1642 1642 1643 1740 1741 1643 1644 1676 1742 1644 1646 1743 1645 1645 1743 1676 1647 1744 1646 1745 1647 1648 1648 1649 1746 1747 1649 1650 1748 1650 1651 1677 1749 1651 1750 1677 1652 1653 1750 1652 1751 1653 1654 1752 1654 1655 1656 1753 1655 1657 1754 1656 1755 1657 1678 1756 1678 1658 1659 1756 1658 1679 1757 1659 1673 1585 1680 1660 1758 1680 1587 1682 1681 1758 1660 1681 1683 1682 1588 1684 1683 1589 1684 1590 1685 1661 1759 1685 1592 1687 1686 1759 1661 1686 1593 1688 1687 1689 1688 1594 1690 1689 1595 1691 1690 1596 1760 1691 1662 1663 1760 1662 1692 1598 1693 1663 1692 1761 1599 1694 1693 1695 1694 1600 1695 1601 1696 1696 1664 1762 1697 1603 1698 1762 1664 1697 1698 1604 1699 1699 1605 1700 1700 1606 1701 1701 1607 1702 1704 1702 1609 1665 1703 1763 1704 1665 1763 1703 1610 1705 1706 1705 1611 1707 1706 1612 1708 1707 1613 1708 1614 1709 1764 1709 1666 1710 1764 1666 1711 1710 1616 1617 1712 1711 1712 1618 1713 1765 1713 1667 1714 1765 1667 1715 1714 1620 1715 1621 1716 1716 1622 1717 1718 1717 1623 1719 1718 1624 1720 1719 1625 1626 1721 1720 1668 1766 1721 1722 1628 1723 1722 1766 1668 1669 1767 1723 1669 1724 1767 1725 1724 1630 1726 1725 1631 1727 1726 1632 1728 1727 1633 1729 1728 1670 1729 1634 1730 1671 1731 1730 1731 1732 1768 1732 1769 1768 1679 1673 1770 1771 1674 1733 1733 1636 1734 1637 1735 1734 1735 1638 1736 1736 1639 1737 1640 1738 1737 1675 1772 1738 1739 1772 1675 1739 1642 1740 1740 1643 1741 1742 1741 1644 1676 1773 1742 1646 1744 1743 1676 1743 1773 1745 1744 1647 1745 1648 1746 1746 1649 1747 1748 1747 1650 1749 1748 1651 1677 1774 1749 1750 1774 1677 1751 1750 1653 1751 1654 1752 1753 1752 1655 1656 1754 1753 1755 1754 1657 1775 1755 1678 1756 1775 1678 1659 1757 1756 1776 1757 1679 1770 1673 1680 1758 1777 1680 1682 1778 1681 1778 1758 1681 1683 1779 1682 1684 1780 1683 1781 1684 1685 1759 1782 1685 1686 1687 1783 1759 1686 1783 1687 1688 1784 1689 1785 1688 1786 1689 1690 1787 1690 1691 1788 1691 1760 1760 1663 1761 1692 1693 1789 1692 1789 1761 1693 1694 1790 1695 1791 1694 1792 1695 1696 1793 1696 1762 1794 1697 1698 1794 1762 1697 1795 1698 1699 1796 1699 1700 1797 1700 1701 1798 1701 1702 1704 1799 1702 1703 1800 1763 1801 1704 1763 1703 1705 1800 1705 1706 1802 1707 1803 1706 1804 1707 1708 1708 1709 1805 1709 1764 1806 1710 1807 1764 1711 1807 1710 1711 1712 1808 1712 1713 1809 1713 1765 1810 1714 1811 1765 1715 1811 1714 1812 1715 1716 1813 1716 1717 1718 1814 1717 1719 1815 1718 1720 1816 1719 1720 1721 1817 1721 1766 1818 1819 1722 1723 1819 1766 1722 1767 1820 1723 1724 1821 1767 1725 1821 1724 1726 1822 1725 1727 1823 1726 1824 1727 1728 1825 1728 1729 1826 1729 1730 1731 1827 1730 1828 1731 1768 1769 1829 1768 1776 1679 1770 1830 1771 1733 1831 1733 1734 1735 1831 1734 1832 1735 1736 1833 1736 1737 1738 1834 1737 1772 1835 1738 1836 1772 1739 1836 1739 1740 1837 1740 1741 1742 1838 1741 1742 1773 1839 1743 1744 1840 1773 1743 1840 1745 1841 1744 1842 1745 1746 1843 1746 1747 1748 1844 1747 1845 1748 1749 1774 1846 1749 1847 1774 1750 1847 1750 1751 1751 1752 1848 1849 1752 1753 1754 1850 1753 1755 1851 1754 1852 1755 1775 1775 1756 1853 1756 1757 1853 1776 1854 1757 1777 1770 1680 1758 1855 1777 1682 1779 1778 1778 1855 1758 1683 1780 1779 1781 1780 1684 1782 1781 1685 1856 1782 1759 1783 1687 1784 1856 1759 1783 1688 1785 1784 1786 1785 1689 1786 1690 1787 1787 1691 1788 1788 1760 1857 1857 1760 1761 1789 1693 1790 1789 1858 1761 1694 1791 1790 1792 1791 1695 1793 1792 1696 1859 1793 1762 1795 1794 1698 1794 1859 1762 1796 1795 1699 1797 1796 1700 1798 1797 1701 1799 1798 1702 1801 1799 1704 1800 1860 1763 1860 1801 1763 1800 1705 1802 1706 1803 1802 1804 1803 1707 1804 1708 1805 1805 1709 1806 1764 1861 1806 1807 1861 1764 1711 1808 1807 1808 1712 1809 1713 1810 1809 1765 1862 1810 1811 1862 1765 1812 1811 1715 1813 1812 1716 1814 1813 1717 1718 1815 1814 1719 1816 1815 1720 1817 1816 1817 1721 1818 1766 1863 1818 1820 1819 1723 1819 1863 1766 1820 1767 1864 1767 1821 1864 1725 1822 1821 1726 1823 1822 1824 1823 1727 1824 1728 1825 1825 1729 1865 1729 1826 1865 1827 1826 1730 1828 1827 1731 1829 1828 1768 1866 1776 1770 1867 1771 1830 1831 1830 1733 1832 1831 1735 1833 1832 1736 1834 1833 1737 1738 1835 1834 1772 1868 1835 1836 1868 1772 1837 1836 1740 1838 1837 1741 1742 1839 1838 1839 1773 1869 1744 1841 1840 1869 1773 1840 1842 1841 1745 1843 1842 1746 1844 1843 1747 1845 1844 1748 1846 1845 1749 1870 1846 1774 1870 1774 1847 1847 1751 1848 1848 1752 1849 1850 1849 1753 1754 1851 1850 1852 1851 1755 1852 1775 1871 1775 1853 1871 1757 1854 1853 1872 1854 1776 1777 1866 1770 1777 1855 1873 1778 1779 1874 1778 1874 1855 1779 1780 1875 1781 1876 1780 1782 1877 1781 1856 1878 1782 1879 1783 1784 1879 1856 1783 1785 1880 1784 1881 1785 1786 1786 1787 1882 1787 1788 1883 1884 1788 1857 1858 1857 1761 1789 1790 1885 1789 1885 1858 1791 1886 1790 1792 1887 1791 1793 1888 1792 1859 1889 1793 1890 1794 1795 1890 1859 1794 1796 1891 1795 1892 1796 1797 1798 1893 1797 1894 1798 1799 1801 1895 1799 1860 1800 1896 1897 1801 1860 1800 1802 1896 1803 1898 1802 1899 1803 1804 1900 1804 1805 1901 1805 1806 1861 1902 1806 1807 1903 1861 1808 1903 1807 1904 1808 1809 1810 1905 1809 1862 1906 1810 1811 1907 1862 1812 1907 1811 1908 1812 1813 1909 1813 1814 1815 1910 1814 1815 1816 1911 1816 1817 1912 1913 1817 1818 1863 1914 1818 1820 1915 1819 1819 1915 1863 1916 1820 1864 1821 1917 1864 1821 1822 1917 1822 1823 1918 1824 1919 1823 1920 1824 1825 1921 1825 1865 1826 1922 1865 1827 1923 1826 1924 1827 1828 1829 1925 1828 1872 1776 1866 1926 1867 1830 1830 1831 1927 1832 1928 1831 1929 1832 1833 1930 1833 1834 1835 1931 1834 1835 1868 1932 1933 1868 1836 1933 1836 1837 1934 1837 1838 1839 1935 1838 1839 1869 1936 1840 1841 1937 1869 1840 1937 1842 1938 1841 1939 1842 1843 1940 1843 1844 1941 1844 1845 1942 1845 1846 1943 1846 1870 1870 1847 1944 1847 1848 1944 1945 1848 1849 1850 1946 1849 1851 1947 1850 1948 1851 1852 1949 1852 1871 1853 1950 1871 1854 1950 1853 1872 1951 1854 1866 1777 1873 1855 1952 1873 1874 1779 1875 1855 1874 1952 1780 1876 1875 1781 1877 1876 1782 1878 1877 1856 1953 1878 1880 1879 1784 1879 1953 1856 1881 1880 1785 1881 1786 1882 1787 1883 1882 1883 1788 1884 1884 1857 1954 1857 1858 1954 1790 1886 1885 1885 1955 1858 1791 1887 1886 1792 1888 1887 1793 1889 1888 1859 1956 1889 1891 1890 1795 1890 1956 1859 1892 1891 1796 1893 1892 1797 1894 1893 1798 1895 1894 1799 1897 1895 1801 1957 1860 1896 1957 1897 1860 1802 1898 1896 1899 1898 1803 1899 1804 1900 1900 1805 1901 1902 1901 1806 1902 1861 1958 1861 1903 1958 1904 1903 1808 1905 1904 1809 1906 1905 1810 1906 1862 1959 1862 1907 1959 1908 1907 1812 1908 1813 1909 1910 1909 1814 1815 1911 1910 1911 1816 1912 1817 1913 1912 1914 1913 1818 1914 1863 1960 1916 1915 1820 1863 1915 1960 1961 1916 1864 1917 1961 1864 1917 1822 1918 1823 1919 1918 1920 1919 1824 1921 1920 1825 1922 1921 1865 1826 1923 1922 1924 1923 1827 1925 1924 1828 1872 1866 1962 1963 1867 1926 1926 1830 1927 1831 1928 1927 1929 1928 1832 1929 1833 1930 1931 1930 1834 1931 1835 1932 1868 1964 1932 1933 1964 1868 1933 1837 1934 1935 1934 1838 1935 1839 1936 1869 1965 1936 1841 1938 1937 1965 1869 1937 1939 1938 1842 1939 1843 1940 1940 1844 1941 1941 1845 1942 1942 1846 1943 1943 1870 1966 1966 1870 1944 1944 1848 1945 1946 1945 1849 1947 1946 1850 1948 1947 1851 1948 1852 1949 1967 1949 1871 1950 1967 1871 1854 1951 1950 1968 1951 1872 1962 1866 1873 1952 1969 1873 1970 1874 1875 1952 1874 1970 1876 1971 1875 1876 1877 1972 1877 1878 1973 1878 1953 1974 1880 1975 1879 1879 1975 1953 1976 1880 1881 1881 1882 1977 1882 1883 1978 1883 1884 1979 1980 1884 1954 1858 1955 1954 1886 1981 1885 1981 1955 1885 1886 1887 1982 1887 1888 1983 1888 1889 1984 1889 1956 1985 1891 1986 1890 1890 1986 1956 1892 1987 1891 1893 1988 1892 1894 1989 1893 1895 1990 1894 1897 1991 1895 1992 1957 1896 1957 1993 1897 1898 1992 1896 1994 1898 1899 1899 1900 1995 1996 1900 1901 1902 1997 1901 1998 1902 1958 1903 1999 1958 1904 1999 1903 2000 1904 1905 2001 1905 1906 1906 1959 2002 1907 2003 1959 1908 2003 1907 2004 1908 1909 1910 2005 1909 1911 2006 1910 2007 1911 1912 1913 2008 1912 2009 1913 1914 1914 1960 2010 1916 2011 1915 1915 2011 1960 2012 1916 1961 1961 1917 2013 1917 1918 2013 1919 2014 1918 1920 2015 1919 2016 1920 1921 2017 1921 1922 1923 2018 1922 1924 2019 1923 1925 2020 1924 1968 1872 1962 1963 1926 2021 1926 1927 2022 1928 2023 1927 1929 2024 1928 2025 1929 1930 2026 1930 1931 2027 1931 1932 1964 2028 1932 2029 1964 1933 2029 1933 1934 1935 2030 1934 2031 1935 1936 1965 2032 1936 1938 2033 1937 2033 1965 1937 2034 1938 1939 1939 1940 2035 1940 1941 2036 1941 1942 2037 1942 1943 2038 1943 1966 2039 2040 1966 1944 2040 1944 1945 1946 2041 1945 1947 2042 1946 1948 2043 1947 2044 1948 1949 1967 2045 1949 1950 2046 1967 1950 1951 2046 1968 2047 1951 1969 1962 1873 1952 2048 1969 1971 1970 1875 1952 1970 2048 1876 1972 1971 1972 1877 1973 1878 1974 1973 1974 1953 2049 1976 1975 1880 1953 1975 2049 1976 1881 1977 1882 1978 1977 1978 1883 1979 1979 1884 1980 2050 1980 1954 1955 2050 1954 1886 1982 1981 1981 2051 1955 1982 1887 1983 1983 1888 1984 1889 1985 1984 1985 1956 2052 1891 1987 1986 1956 1986 2052 1892 1988 1987 1893 1989 1988 1894 1990 1989 1895 1991 1990 1897 1993 1991 1992 2053 1957 1957 2053 1993 1994 1992 1898 1994 1899 1995 1995 1900 1996 1997 1996 1901 1998 1997 1902 2054 1998 1958 1999 2054 1958 2000 1999 1904 2000 1905 2001 2001 1906 2002 1959 2055 2002 2003 2055 1959 2004 2003 1908 2005 2004 1909 1910 2006 2005 2007 2006 1911 2008 2007 1912 2009 2008 1913 2009 1914 2010 1960 2056 2010 2012 2011 1916 2011 2056 1960 2012 1961 2057 2057 1961 2013 1918 2014 2013 1919 2015 2014 2016 2015 1920 2016 1921 2017 2018 2017 1922 2019 2018 1923 1924 2020 2019 2058 1968 1962 2059 1963 2021 2021 1926 2022 1927 2023 2022 1928 2024 2023 2025 2024 1929 2026 2025 1930 2027 2026 1931 2028 2027 1932 1964 2060 2028 2029 2060 1964 2030 2029 1934 2031 2030 1935 2032 2031 1936 1965 2061 2032 2034 2033 1938 2033 2061 1965 2034 1939 2035 1940 2036 2035 2036 1941 2037 1942 2038 2037 1943 2039 2038 2039 1966 2062 2062 1966 2040 2041 2040 1945 1946 2042 2041 1947 2043 2042 2044 2043 1948 2045 2044 1949 1967 2063 2045 1967 2046 2063 1951 2047 2046 2064 2047 1968 1969 2058 1962 1969 2048 2065 1971 2066 1970 1970 2066 2048 1971 1972 2067 2068 1972 1973 1973 1974 2069 1974 2049 2070 1976 2071 1975 1975 2071 2049 2072 1976 1977 1977 1978 2073 2074 1978 1979 2075 1979 1980 2050 2076 1980 1955 2051 2050 1981 1982 2077 1981 2077 2051 2078 1982 1983 2079 1983 1984 1985 2080 1984 2081 1985 2052 1986 1987 2082 1986 2082 2052 1987 1988 2083 1988 1989 2084 1989 1990 2085 1990 1991 2086 1991 1993 2087 1992 2088 2053 1993 2053 2089 1994 2088 1992 2090 1994 1995 2091 1995 1996 1997 2092 1996 1998 2093 1997 2054 2094 1998 2095 2054 1999 2095 1999 2000 2000 2001 2096 2097 2001 2002 2055 2098 2002 2003 2099 2055 2004 2099 2003 2100 2004 2005 2006 2101 2005 2102 2006 2007 2103 2007 2008 2104 2008 2009 2105 2009 2010 2056 2106 2010 2012 2107 2011 2011 2107 2056 2108 2012 2057 2109 2057 2013 2014 2109 2013 2014 2015 2110 2016 2111 2015 2112 2016 2017 2018 2113 2017 2114 2018 2019 2020 2115 2019 2064 1968 2058 2059 2021 2116 2117 2021 2022 2023 2118 2022 2023 2024 2119 2025 2120 2024 2121 2025 2026 2122 2026 2027 2123 2027 2028 2060 2124 2028 2125 2060 2029 2125 2029 2030 2031 2126 2030 2127 2031 2032 2061 2128 2032 2129 2033 2034 2129 2061 2033 2130 2034 2035 2035 2036 2131 2036 2037 2132 2037 2038 2133 2039 2134 2038 2039 2062 2135 2062 2040 2136 2136 2040 2041 2042 2137 2041 2043 2138 2042 2139 2043 2044 2140 2044 2045 2063 2141 2045 2063 2046 2142 2046 2047 2142 2064 2143 2047 1969 2065 2058 2065 2048 2144 1971 2067 2066 2048 2066 2144 2067 1972 2068 2068 1973 2069 1974 2070 2069 2070 2049 2145 2072 2071 1976 2049 2071 2145 2072 1977 2073 2073 1978 2074 2075 2074 1979 2076 2075 1980 2050 2146 2076 2051 2146 2050 2077 1982 2078 2051 2077 2147 2079 2078 1983 2080 2079 1984 1985 2081 2080 2081 2052 2148 2082 1987 2083 2052 2082 2148 1988 2084 2083 2084 1989 2085 1990 2086 2085 2086 1991 2087 1993 2089 2087 2053 2088 2149 2089 2053 2149 2090 2088 1994 2091 2090 1995 2092 2091 1996 1997 2093 2092 1998 2094 2093 2054 2150 2094 2095 2150 2054 2095 2000 2096 2096 2001 2097 2098 2097 2002 2151 2098 2055 2099 2151 2055 2100 2099 2004 2101 2100 2005 2102 2101 2006 2102 2007 2103 2103 2008 2104 2104 2009 2105 2106 2105 2010 2056 2152 2106 2108 2107 2012 2056 2107 2152 2153 2108 2057 2109 2153 2057 2014 2110 2109 2015 2111 2110 2112 2111 2016 2113 2112 2017 2114 2113 2018 2115 2114 2019 2154 2064 2058 2155 2059 2116 2021 2117 2116 2118 2117 2022 2118 2023 2119 2024 2120 2119 2121 2120 2025 2121 2026 2122 2122 2027 2123 2124 2123 2028 2060 2156 2124 2125 2156 2060 2126 2125 2030 2127 2126 2031 2128 2127 2032 2157 2128 2061 2129 2034 2130 2157 2061 2129 2130 2035 2131 2131 2036 2132 2037 2133 2132 2038 2134 2133 2039 2135 2134 2135 2062 2158 2158 2062 2136 2137 2136 2041 2042 2138 2137 2139 2138 2043 2139 2044 2140 2141 2140 2045 2063 2159 2141 2159 2063 2142 2047 2143 2142 2160 2143 2064 2065 2154 2058 2065 2144 2161 2066 2067 2162 2144 2066 2162 2067 2068 2163 2164 2068 2069 2070 2165 2069 2166 2070 2145 2072 2167 2071 2071 2167 2145 2168 2072 2073 2169 2073 2074 2075 2170 2074 2171 2075 2076 2146 2172 2076 2051 2147 2146 2077 2078 2173 2147 2077 2173 2174 2078 2079 2175 2079 2080 2081 2176 2080 2177 2081 2148 2082 2083 2178 2148 2082 2178 2084 2179 2083 2084 2085 2180 2086 2181 2085 2182 2086 2087 2087 2089 2183 2088 2184 2149 2089 2149 2185 2090 2184 2088 2186 2090 2091 2187 2091 2092 2093 2188 2092 2093 2094 2189 2094 2150 2190 2191 2150 2095 2191 2095 2096 2192 2096 2097 2098 2193 2097 2151 2194 2098 2099 2195 2151 2100 2195 2099 2101 2196 2100 2197 2101 2102 2102 2103 2198 2103 2104 2199 2200 2104 2105 2106 2201 2105 2152 2202 2106 2108 2203 2107 2107 2203 2152 2204 2108 2153 2153 2109 2205 2109 2110 2205 2111 2206 2110 2207 2111 2112 2112 2113 2208 2114 2209 2113 2115 2210 2114 2160 2064 2154 2211 2155 2116 2117 2212 2116 2213 2117 2118 2214 2118 2119 2120 2214 2119 2215 2120 2121 2121 2122 2216 2217 2122 2123 2124 2218 2123 2124 2156 2219 2125 2220 2156 2126 2220 2125 2127 2221 2126 2128 2222 2127 2157 2223 2128 2129 2130 2224 2157 2129 2224 2225 2130 2131 2226 2131 2132 2133 2227 2132 2133 2134 2228 2134 2135 2229 2135 2158 2230 2231 2158 2136 2137 2231 2136 2138 2232 2137 2233 2138 2139 2234 2139 2140 2141 2235 2140 2141 2159 2236 2237 2159 2142 2143 2237 2142 2160 2238 2143 2154 2065 2161 2144 2239 2161 2067 2163 2162 2239 2144 2162 2163 2068 2164 2165 2164 2069 2166 2165 2070 2240 2166 2145 2168 2167 2072 2167 2240 2145 2169 2168 2073 2170 2169 2074 2171 2170 2075 2172 2171 2076 2146 2241 2172 2146 2147 2241 2078 2174 2173 2242 2147 2173 2175 2174 2079 2176 2175 2080 2177 2176 2081 2243 2177 2148 2083 2179 2178 2243 2148 2178 2084 2180 2179 2085 2181 2180 2086 2182 2181 2182 2087 2183 2089 2185 2183 2184 2244 2149 2149 2244 2185 2186 2184 2090 2186 2091 2187 2188 2187 2092 2093 2189 2188 2189 2094 2190 2150 2245 2190 2191 2245 2150 2192 2191 2096 2193 2192 2097 2098 2194 2193 2151 2246 2194 2151 2195 2246 2100 2196 2195 2197 2196 2101 2197 2102 2198 2103 2199 2198 2199 2104 2200 2201 2200 2105 2106 2202 2201 2247 2202 2152 2204 2203 2108 2203 2247 2152 2204 2153 2248 2248 2153 2205 2110 2206 2205 2207 2206 2111 2207 2112 2208 2113 2249 2208 2114 2210 2209 2209 2249 2113 2160 2154 2250 2251 2155 2211 2212 2211 2116 2213 2212 2117 2214 2213 2118 2215 2214 2120 2215 2121 2216 2216 2122 2217 2218 2217 2123 2124 2219 2218 2219 2156 2252 2156 2220 2252 2126 2221 2220 2127 2222 2221 2128 2223 2222 2253 2223 2157 2224 2130 2225 2253 2157 2224 2226 2225 2131 2227 2226 2132 2227 2133 2228 2134 2229 2228 2135 2230 2229 2230 2158 2254 2254 2158 2231 2232 2231 2137 2233 2232 2138 2233 2139 2234 2235 2234 2140 2235 2141 2236 2159 2255 2236 2237 2255 2159 2143 2238 2237 2256 2238 2160 2250 2154 2161 2239 2257 2161 2163 2258 2162 2258 2239 2162 2163 2164 2259 2260 2164 2165 2165 2166 2261 2240 2262 2166 2168 2263 2167 2167 2263 2240 2169 2264 2168 2170 2265 2169 2171 2266 2170 2172 2267 2171 2172 2241 2268 2241 2147 2242 2173 2174 2269 2242 2173 2269 2175 2270 2174 2271 2175 2176 2272 2176 2177 2273 2177 2243 2178 2179 2274 2243 2178 2274 2179 2180 2275 2180 2181 2276 2182 2277 2181 2278 2182 2183 2185 2279 2183 2184 2280 2244 2244 2281 2185 2186 2280 2184 2282 2186 2187 2188 2283 2187 2188 2189 2284 2189 2190 2285 2245 2286 2190 2191 2287 2245 2192 2287 2191 2288 2192 2193 2194 2289 2193 2194 2246 2290 2246 2195 2291 2195 2196 2291 2197 2292 2196 2293 2197 2198 2198 2199 2294 2199 2200 2295 2296 2200 2201 2202 2297 2201 2247 2298 2202 2299 2203 2204 2299 2247 2203 2204 2248 2300 2301 2248 2205 2206 2301 2205 2207 2302 2206 2303 2207 2208 2249 2303 2208 2210 2304 2209 2209 2305 2249 2256 2160 2250 2251 2211 2306 2307 2211 2212 2308 2212 2213 2213 2214 2309 2215 2310 2214 2311 2215 2216 2312 2216 2217 2218 2313 2217 2218 2219 2314 2315 2219 2252 2220 2316 2252 2220 2221 2316 2221 2222 2317 2222 2223 2318 2253 2319 2223 2320 2224 2225 2320 2253 2224 2226 2321 2225 2227 2322 2226 2323 2227 2228 2229 2324 2228 2230 2325 2229 2230 2254 2326 2254 2231 2327 2327 2231 2232 2328 2232 2233 2329 2233 2234 2235 2330 2234 2331 2235 2236 2255 2332 2236 2237 2333 2255 2237 2238 2333 2256 2334 2238 2257 2250 2161 2239 2335 2257 2163 2259 2258 2258 2335 2239 2259 2164 2260 2260 2165 2261 2166 2262 2261 2240 2336 2262 2168 2264 2263 2240 2263 2336 2169 2265 2264 2170 2266 2265 2171 2267 2266 2172 2268 2267 2268 2241 2337 2241 2242 2337 2174 2270 2269 2338 2242 2269 2271 2270 2175 2271 2176 2272 2272 2177 2273 2273 2243 2339 2179 2275 2274 2339 2243 2274 2275 2180 2276 2181 2277 2276 2278 2277 2182 2279 2278 2183 2281 2279 2185 2244 2280 2340 2281 2244 2340 2282 2280 2186 2283 2282 2187 2283 2188 2284 2284 2189 2285 2190 2286 2285 2245 2341 2286 2245 2287 2341 2288 2287 2192 2289 2288 2193 2194 2290 2289 2290 2246 2342 2342 2246 2291 2196 2292 2291 2293 2292 2197 2293 2198 2294 2294 2199 2295 2295 2200 2296 2297 2296 2201 2202 2298 2297 2247 2343 2298 2299 2204 2300 2299 2343 2247 2300 2248 2344 2248 2301 2344 2206 2302 2301 2303 2302 2207 2303 2249 2345 2304 2305 2209 2249 2305 2345 2346 2256 2250 2347 2251 2306 2306 2211 2307 2307 2212 2308 2308 2213 2309 2214 2310 2309 2311 2310 2215 2311 2216 2312 2313 2312 2217 2218 2314 2313 2219 2315 2314 2348 2315 2252 2316 2348 2252 2316 2221 2317 2317 2222 2318 2223 2319 2318 2349 2319 2253 2321 2320 2225 2349 2253 2320 2226 2322 2321 2323 2322 2227 2324 2323 2228 2325 2324 2229 2230 2326 2325 2326 2254 2350 2254 2327 2350 2327 2232 2328 2328 2233 2329 2330 2329 2234 2331 2330 2235 2332 2331 2236 2332 2255 2351 2255 2333 2351 2238 2334 2333 2352 2334 2256 2257 2346 2250 2257 2335 2353 2258 2259 2354 2258 2354 2335 2259 2260 2355 2356 2260 2261 2262 2357 2261 2262 2336 2358 2263 2264 2359 2336 2263 2359 2264 2265 2360 2265 2266 2361 2266 2267 2362 2267 2268 2363 2364 2268 2337 2242 2338 2337 2270 2365 2269 2365 2338 2269 2366 2270 2271 2271 2272 2367 2272 2273 2368 2369 2273 2339 2275 2370 2274 2370 2339 2274 2371 2275 2276 2277 2372 2276 2278 2373 2277 2374 2278 2279 2375 2279 2281 2280 2376 2340 2281 2340 2377 2282 2376 2280 2378 2282 2283 2379 2283 2284 2284 2285 2380 2286 2381 2285 2341 2382 2286 2287 2383 2341 2288 2383 2287 2289 2384 2288 2289 2290 2385 2290 2342 2386 2342 2291 2387 2291 2292 2387 2293 2388 2292 2389 2293 2294 2390 2294 2295 2391 2295 2296 2297 2392 2296 2297 2298 2393 2298 2343 2394 2395 2299 2300 2395 2343 2299 2396 2300 2344 2301 2397 2344 2302 2397 2301 2398 2302 2303 2399 2303 2345 2304 2400 2305 2305 2401 2345 2352 2256 2346 2402 2347 2306 2306 2307 2403 2307 2308 2404 2308 2309 2405 2310 2406 2309 2311 2407 2310 2408 2311 2312 2409 2312 2313 2314 2410 2313 2315 2411 2314 2412 2315 2348 2316 2413 2348 2413 2316 2317 2414 2317 2318 2319 2415 2318 2349 2416 2319 2417 2320 2321 2349 2320 2417 2322 2418 2321 2323 2419 2322 2420 2323 2324 2324 2325 2421 2325 2326 2422 2423 2326 2350 2350 2327 2424 2327 2328 2424 2328 2329 2425 2426 2329 2330 2427 2330 2331 2428 2331 2332 2429 2332 2351 2333 2430 2351 2333 2334 2430 2352 2431 2334 2346 2257 2353 2335 2432 2353 2354 2259 2355 2335 2354 2432 2260 2356 2355 2357 2356 2261 2262 2358 2357 2358 2336 2433 2264 2360 2359 2336 2359 2433 2265 2361 2360 2361 2266 2362 2267 2363 2362 2363 2268 2364 2364 2337 2434 2337 2338 2434 2366 2365 2270 2365 2435 2338 2366 2271 2367 2367 2272 2368 2368 2273 2369 2436 2369 2339 2275 2371 2370 2436 2339 2370 2372 2371 2276 2277 2373 2372 2374 2373 2278 2374 2279 2375 2375 2281 2377 2376 2437 2340 2340 2437 2377 2378 2376 2282 2378 2283 2379 2379 2284 2380 2285 2381 2380 2286 2382 2381 2341 2438 2382 2383 2438 2341 2288 2384 2383 2289 2385 2384 2385 2290 2386 2342 2439 2386 2439 2342 2387 2292 2388 2387 2389 2388 2293 2390 2389 2294 2391 2390 2295 2392 2391 2296 2297 2393 2392 2393 2298 2394 2343 2440 2394 2396 2395 2300 2395 2440 2343 2441 2396 2344 2397 2441 2344 2398 2397 2302 2398 2303 2399 2401 2399 2345 2400 2401 2305 2352 2346 2442 2443 2347 2402 2402 2306 2403 2307 2404 2403 2404 2308 2405 2309 2406 2405 2310 2407 2406 2408 2407 2311 2409 2408 2312 2410 2409 2313 2411 2410 2314 2412 2411 2315 2444 2412 2348 2413 2444 2348 2414 2413 2317 2415 2414 2318 2319 2416 2415 2445 2416 2349 2418 2417 2321 2445 2349 2417 2322 2419 2418 2420 2419 2323 2420 2324 2421 2325 2422 2421 2422 2326 2423 2446 2423 2350 2446 2350 2424 2328 2425 2424 2425 2329 2426 2426 2330 2427 2427 2331 2428 2428 2332 2429 2447 2429 2351 2430 2447 2351 2334 2431 2430 2448 2431 2352 2442 2346 2353 2432 2449 2353 2450 2354 2355 2432 2354 2450 2355 2356 2451 2357 2452 2356 2357 2358 2453 2454 2358 2433 2360 2455 2359 2359 2455 2433 2360 2361 2456 2457 2361 2362 2362 2363 2458 2363 2364 2459 2460 2364 2434 2338 2435 2434 2461 2365 2366 2461 2435 2365 2462 2366 2367 2463 2367 2368 2464 2368 2369 2436 2465 2369 2371 2466 2370 2466 2436 2370 2467 2371 2372 2373 2468 2372 2469 2373 2374 2374 2375 2470 2471 2375 2377 2376 2472 2437 2437 2473 2377 2378 2472 2376 2474 2378 2379 2475 2379 2380 2380 2381 2476 2381 2382 2477 2382 2438 2478 2383 2479 2438 2383 2384 2479 2384 2385 2480 2481 2385 2386 2439 2482 2386 2483 2439 2387 2388 2483 2387 2389 2484 2388 2485 2389 2390 2486 2390 2391 2487 2391 2392 2393 2488 2392 2393 2394 2489 2440 2490 2394 2491 2395 2396 2491 2440 2395 2492 2396 2441 2493 2441 2397 2493 2397 2398 2494 2398 2399 2401 2495 2399 2400 2496 2401 2448 2352 2442 2443 2402 2497 2402 2403 2498 2403 2404 2499 2500 2404 2405 2406 2500 2405 2406 2407 2501 2408 2502 2407 2503 2408 2409 2504 2409 2410 2505 2410 2411 2506 2411 2412 2507 2412 2444 2508 2444 2413 2508 2413 2414 2509 2414 2415 2416 2510 2415 2445 2511 2416 2512 2417 2418 2512 2445 2417 2419 2513 2418 2420 2514 2419 2515 2420 2421 2421 2422 2516 2422 2423 2517 2446 2518 2423 2519 2446 2424 2425 2519 2424 2425 2426 2520 2426 2427 2521 2427 2428 2522 2523 2428 2429 2447 2524 2429 2525 2447 2430 2431 2525 2430 2448 2526 2431 2449 2442 2353 2432 2527 2449 2450 2355 2451 2527 2432 2450 2356 2452 2451 2357 2453 2452 2453 2358 2454 2454 2433 2528 2360 2456 2455 2433 2455 2528 2361 2457 2456 2457 2362 2458 2363 2459 2458 2459 2364 2460 2529 2460 2434 2435 2529 2434 2461 2366 2462 2461 2530 2435 2463 2462 2367 2464 2463 2368 2465 2464 2369 2436 2531 2465 2467 2466 2371 2466 2531 2436 2468 2467 2372 2469 2468 2373 2469 2374 2470 2470 2375 2471 2473 2471 2377 2437 2472 2532 2437 2532 2473 2474 2472 2378 2475 2474 2379 2475 2380 2476 2381 2477 2476 2477 2382 2478 2438 2533 2478 2479 2533 2438 2384 2480 2479 2480 2385 2481 2482 2481 2386 2534 2482 2439 2534 2439 2483 2388 2484 2483 2485 2484 2389 2485 2390 2486 2486 2391 2487 2488 2487 2392 2488 2393 2489 2394 2490 2489 2535 2490 2440 2491 2396 2492 2535 2440 2491 2492 2441 2536 2536 2441 2493 2493 2398 2494 2495 2494 2399 2401 2496 2495 2537 2448 2442 2538 2443 2497 2497 2402 2498 2403 2539 2498 2404 2500 2499 2539 2403 2499 2406 2501 2500 2407 2502 2501 2503 2502 2408 2503 2409 2504 2504 2410 2505 2505 2411 2506 2506 2412 2507 2507 2444 2540 2540 2444 2508 2508 2414 2509 2510 2509 2415 2416 2511 2510 2541 2511 2445 2513 2512 2418 2541 2445 2512 2419 2514 2513 2515 2514 2420 2515 2421 2516 2516 2422 2517 2423 2518 2517 2446 2542 2518 2519 2542 2446 2425 2520 2519 2520 2426 2521 2427 2522 2521 2522 2428 2523 2524 2523 2429 2447 2543 2524 2525 2543 2447 2431 2526 2525 2544 2526 2448 2449 2537 2442 2449 2527 2545 2546 2450 2451 2546 2527 2450 2452 2547 2451 2452 2453 2548 2453 2454 2549 2550 2454 2528 2456 2551 2455 2455 2551 2528 2457 2552 2456 2553 2457 2458 2459 2554 2458 2555 2459 2460 2460 2529 2556 2435 2530 2529 2557 2461 2462 2557 2530 2461 2463 2558 2462 2559 2463 2464 2560 2464 2465 2531 2561 2465 2562 2466 2467 2562 2531 2466 2563 2467 2468 2564 2468 2469 2565 2469 2470 2566 2470 2471 2473 2567 2471 2472 2568 2532 2532 2569 2473 2474 2568 2472 2570 2474 2475 2571 2475 2476 2477 2572 2476 2573 2477 2478 2533 2574 2478 2575 2533 2479 2480 2575 2479 2480 2481 2576 2577 2481 2482 2534 2578 2482 2579 2534 2483 2484 2579 2483 2580 2484 2485 2485 2486 2581 2582 2486 2487 2488 2583 2487 2584 2488 2489 2489 2490 2585 2535 2586 2490 2491 2492 2587 2535 2491 2587 2492 2536 2588 2536 2493 2589 2493 2494 2589 2590 2494 2495 2496 2591 2495 2544 2448 2537 2592 2538 2497 2497 2498 2593 2539 2594 2498 2500 2595 2499 2595 2539 2499 2501 2596 2500 2502 2597 2501 2598 2502 2503 2503 2504 2599 2504 2505 2600 2505 2506 2601 2506 2507 2602 2507 2540 2603 2540 2508 2604 2604 2508 2509 2510 2605 2509 2510 2511 2606 2541 2607 2511 2608 2512 2513 2541 2512 2608 2514 2609 2513 2515 2610 2514 2611 2515 2516 2612 2516 2517 2518 2613 2517 2518 2542 2614 2519 2615 2542 2519 2520 2615 2616 2520 2521 2521 2522 2617 2522 2523 2618 2619 2523 2524 2543 2620 2524 2525 2621 2543 2525 2526 2621 2544 2622 2526 2537 2449 2545 2527 2623 2545 2547 2546 2451 2546 2623 2527 2452 2548 2547 2548 2453 2549 2454 2550 2549 2624 2550 2528 2552 2551 2456 2551 2624 2528 2553 2552 2457 2554 2553 2458 2459 2555 2554 2555 2460 2556 2556 2529 2625 2529 2530 2625 2558 2557 2462 2557 2626 2530 2559 2558 2463 2559 2464 2560 2561 2560 2465 2627 2561 2531 2562 2467 2563 2627 2531 2562 2563 2468 2564 2564 2469 2565 2566 2565 2470 2567 2566 2471 2473 2569 2567 2568 2628 2532 2532 2628 2569 2570 2568 2474 2570 2475 2571 2572 2571 2476 2477 2573 2572 2574 2573 2478 2533 2629 2574 2575 2629 2533 2480 2576 2575 2576 2481 2577 2578 2577 2482 2534 2630 2578 2579 2630 2534 2580 2579 2484 2580 2485 2581 2581 2486 2582 2583 2582 2487 2584 2583 2488 2584 2489 2585 2490 2586 2585 2631 2586 2535 2492 2588 2587 2631 2535 2587 2588 2536 2632 2632 2536 2589 2494 2590 2589 2591 2590 2495 2544 2537 2633 2634 2538 2592 2592 2497 2593 2498 2594 2593 2635 2594 2539 2596 2595 2500 2595 2635 2539 2501 2597 2596 2598 2597 2502 2598 2503 2599 2599 2504 2600 2505 2601 2600 2601 2506 2602 2507 2603 2602 2603 2540 2636 2636 2540 2604 2605 2604 2509 2510 2606 2605 2511 2607 2606 2637 2607 2541 2609 2608 2513 2637 2541 2608 2514 2610 2609 2611 2610 2515 2612 2611 2516 2613 2612 2517 2613 2518 2614 2542 2638 2614 2542 2615 2638 2615 2520 2616 2616 2521 2617 2617 2522 2618 2618 2523 2619 2620 2619 2524 2543 2639 2620 2543 2621 2639 2526 2622 2621 2640 2622 2544 2633 2537 2545 2623 2641 2545 2547 2642 2546 2546 2642 2623 2547 2548 2643 2644 2548 2549 2550 2645 2549 2646 2550 2624 2552 2647 2551 2551 2647 2624 2648 2552 2553 2553 2554 2649 2555 2650 2554 2651 2555 2556 2652 2556 2625 2530 2626 2625 2558 2653 2557 2557 2653 2626 2559 2654 2558 2655 2559 2560 2561 2656 2560 2657 2561 2627 2562 2563 2658 2627 2562 2658 2563 2564 2659 2564 2565 2660 2661 2565 2566 2662 2566 2567 2569 2663 2567 2568 2664 2628 2569 2628 2665 2570 2664 2568 2666 2570 2571 2667 2571 2572 2573 2668 2572 2669 2573 2574 2629 2670 2574 2629 2575 2671 2575 2576 2671 2672 2576 2577 2577 2578 2673 2578 2630 2674 2579 2675 2630 2580 2675 2579 2676 2580 2581 2677 2581 2582 2583 2678 2582 2679 2583 2584 2680 2584 2585 2586 2681 2585 2682 2586 2631 2587 2588 2683 2631 2587 2683 2588 2632 2684 2632 2589 2685 2590 2686 2589 2591 2687 2590 2640 2544 2633 2634 2592 2688 2592 2593 2689 2594 2690 2593 2635 2691 2594 2692 2595 2596 2692 2635 2595 2597 2693 2596 2598 2694 2597 2695 2598 2599 2696 2599 2600 2601 2697 2600 2601 2602 2698 2603 2699 2602 2603 2636 2700 2701 2636 2604 2701 2604 2605 2606 2702 2605 2607 2703 2606 2704 2607 2637 2609 2705 2608 2705 2637 2608 2610 2706 2609 2611 2707 2610 2612 2708 2611 2709 2612 2613 2710 2613 2614 2638 2711 2614 2638 2615 2712 2615 2616 2712 2713 2616 2617 2714 2617 2618 2715 2618 2619 2620 2716 2619 2639 2717 2620 2621 2718 2639 2622 2718 2621 2640 2719 2622 2641 2633 2545 2623 2720 2641 2547 2643 2642 2623 2642 2720 2643 2548 2644 2645 2644 2549 2646 2645 2550 2721 2646 2624 2648 2647 2552 2647 2721 2624 2648 2553 2649 2554 2650 2649 2651 2650 2555 2651 2556 2652 2722 2652 2625 2626 2722 2625 2558 2654 2653 2626 2653 2723 2655 2654 2559 2656 2655 2560 2657 2656 2561 2657 2627 2724 2563 2659 2658 2627 2658 2724 2564 2660 2659 2660 2565 2661 2661 2566 2662 2663 2662 2567 2569 2665 2663 2628 2664 2725 2665 2628 2725 2666 2664 2570 2667 2666 2571 2668 2667 2572 2669 2668 2573 2670 2669 2574 2726 2670 2629 2726 2629 2671 2576 2672 2671 2672 2577 2673 2578 2674 2673 2674 2630 2727 2630 2675 2727 2676 2675 2580 2677 2676 2581 2678 2677 2582 2679 2678 2583 2679 2584 2680 2681 2680 2585 2682 2681 2586 2682 2631 2728 2588 2684 2683 2728 2631 2683 2684 2632 2685 2589 2686 2685 2590 2687 2686 2729 2640 2633 2730 2634 2688 2688 2592 2689 2593 2690 2689 2594 2691 2690 2635 2731 2691 2693 2692 2596 2692 2731 2635 2597 2694 2693 2695 2694 2598 2696 2695 2599 2697 2696 2600 2697 2601 2698 2602 2699 2698 2603 2700 2699 2700 2636 2732 2732 2636 2701 2702 2701 2605 2606 2703 2702 2704 2703 2607 2704 2637 2733 2609 2706 2705 2733 2637 2705 2610 2707 2706 2611 2708 2707 2709 2708 2612 2710 2709 2613 2711 2710 2614 2638 2734 2711 2638 2712 2734 2712 2616 2713 2714 2713 2617 2715 2714 2618 2716 2715 2619 2620 2717 2716 2735 2717 2639 2718 2735 2639 2622 2719 2718 2736 2719 2640 2641 2729 2633 2641 2720 2737 2642 2643 2738 2720 2642 2738 2643 2644 2739 2740 2644 2645 2646 2741 2645 2721 2742 2646 2743 2647 2648 2743 2721 2647 2744 2648 2649 2650 2745 2649 2651 2746 2650 2747 2651 2652 2722 2748 2652 2626 2723 2722 2653 2654 2749 2723 2653 2749 2655 2750 2654 2656 2751 2655 2657 2752 2656 2753 2657 2724 2658 2659 2754 2724 2658 2754 2660 2755 2659 2660 2661 2756 2757 2661 2662 2663 2758 2662 2663 2665 2759 2664 2760 2725 2665 2725 2761 2666 2760 2664 2762 2666 2667 2763 2667 2668 2764 2668 2669 2765 2669 2670 2766 2670 2726 2767 2726 2671 2672 2767 2671 2768 2672 2673 2674 2769 2673 2674 2727 2770 2675 2771 2727 2676 2771 2675 2772 2676 2677 2773 2677 2678 2774 2678 2679 2775 2679 2680 2681 2776 2680 2682 2777 2681 2778 2682 2728 2683 2684 2779 2728 2683 2779 2780 2684 2685 2686 2781 2685 2687 2782 2686 2736 2640 2729 2783 2730 2688 2784 2688 2689 2690 2784 2689 2690 2691 2785 2691 2731 2786 2787 2692 2693 2787 2731 2692 2694 2788 2693 2695 2789 2694 2696 2790 2695 2791 2696 2697 2697 2698 2792 2698 2699 2793 2699 2700 2794 2700 2732 2795 2732 2701 2796 2796 2701 2702 2703 2797 2702 2704 2798 2703 2799 2704 2733 2706 2800 2705 2800 2733 2705 2706 2707 2801 2707 2708 2802 2709 2803 2708 2804 2709 2710 2710 2711 2805 2711 2734 2806 2734 2712 2807 2807 2712 2713 2714 2808 2713 2715 2809 2714 2810 2715 2716 2717 2811 2716 2812 2717 2735 2735 2718 2813 2718 2719 2813 2736 2814 2719 2729 2641 2737 2720 2815 2737 2643 2739 2738 2815 2720 2738 2739 2644 2740 2741 2740 2645 2646 2742 2741 2721 2816 2742 2743 2648 2744 2743 2816 2721 2745 2744 2649 2650 2746 2745 2747 2746 2651 2748 2747 2652 2748 2722 2817 2722 2723 2817 2654 2750 2749 2818 2723 2749 2655 2751 2750 2656 2752 2751 2753 2752 2657 2819 2753 2724 2659 2755 2754 2819 2724 2754 2660 2756 2755 2756 2661 2757 2758 2757 2662 2758 2663 2759 2665 2761 2759 2760 2820 2725 2725 2820 2761 2762 2760 2666 2762 2667 2763 2763 2668 2764 2764 2669 2765 2765 2670 2766 2766 2726 2821 2821 2726 2767 2768 2767 2672 2769 2768 2673 2769 2674 2770 2727 2822 2770 2771 2822 2727 2772 2771 2676 2772 2677 2773 2773 2678 2774 2774 2679 2775 2776 2775 2680 2681 2777 2776 2778 2777 2682 2778 2728 2823 2779 2684 2824 2728 2779 2823 2684 2780 2824 2781 2780 2685 2782 2781 2686 2736 2729 2825 2826 2730 2783 2783 2688 2827 2688 2784 2827 2690 2785 2784 2691 2786 2785 2731 2828 2786 2788 2787 2693 2787 2828 2731 2694 2789 2788 2695 2790 2789 2791 2790 2696 2791 2697 2792 2698 2793 2792 2793 2699 2794 2700 2795 2794 2795 2732 2829 2829 2732 2796 2797 2796 2702 2703 2798 2797 2799 2798 2704 2830 2799 2733 2800 2706 2801 2830 2733 2800 2801 2707 2802 2708 2803 2802 2804 2803 2709 2804 2710 2805 2805 2711 2806 2806 2734 2831 2831 2734 2807 2808 2807 2713 2714 2809 2808 2810 2809 2715 2811 2810 2716 2812 2811 2717 2812 2735 2832 2735 2813 2832 2719 2814 2813 2833 2814 2736 2825 2729 2737 2815 2834 2737 2739 2835 2738 2835 2815 2738 2739 2740 2836 2740 2741 2837 2741 2742 2838 2742 2816 2839 2840 2743 2744 2840 2816 2743 2745 2841 2744 2746 2842 2745 2843 2746 2747 2844 2747 2748 2845 2748 2817 2723 2818 2817 2750 2846 2749 2846 2818 2749 2750 2751 2847 2751 2752 2848 2753 2849 2752 2850 2753 2819 2755 2851 2754 2851 2819 2754 2756 2852 2755 2756 2757 2853 2854 2757 2758 2758 2759 2855 2761 2856 2759 2857 2820 2760 2820 2858 2761 2857 2760 2762 2762 2763 2859 2763 2764 2860 2764 2765 2861 2765 2766 2862 2766 2821 2863 2821 2767 2864 2864 2767 2768 2865 2768 2769 2866 2769 2770 2822 2867 2770 2868 2822 2771 2868 2771 2772 2772 2773 2869 2773 2774 2870 2871 2774 2775 2775 2776 2872 2777 2873 2776 2874 2777 2778 2875 2778 2823 2876 2779 2824 2779 2876 2823 2780 2877 2824 2781 2878 2780 2782 2879 2781 2833 2736 2825 2826 2783 2880 2881 2783 2827 2784 2882 2827 2785 2882 2784 2786 2883 2785 2786 2828 2884 2788 2885 2787 2787 2885 2828 2788 2789 2886 2789 2790 2887 2791 2888 2790 2889 2791 2792 2792 2793 2890 2891 2793 2794 2795 2892 2794 2893 2795 2829 2894 2829 2796 2797 2894 2796 2798 2895 2797 2896 2798 2799 2897 2799 2830 2898 2800 2801 2898 2830 2800 2899 2801 2802 2803 2900 2802 2804 2901 2803 2902 2804 2805 2903 2805 2806 2904 2806 2831 2905 2831 2807 2808 2905 2807 2809 2906 2808 2907 2809 2810 2908 2810 2811 2909 2811 2812 2910 2812 2832 2813 2911 2832 2814 2911 2813 2833 2912 2814 2834 2825 2737 2815 2913 2834 2739 2836 2835 2835 2913 2815 2836 2740 2837 2741 2838 2837 2838 2742 2839 2816 2914 2839 2841 2840 2744 2840 2914 2816 2745 2842 2841 2843 2842 2746 2843 2747 2844 2844 2748 2845 2915 2845 2817 2818 2915 2817 2750 2847 2846 2846 2916 2818 2847 2751 2848 2752 2849 2848 2850 2849 2753 2850 2819 2917 2755 2852 2851 2819 2851 2917 2756 2853 2852 2853 2757 2854 2854 2758 2855 2759 2856 2855 2858 2856 2761 2918 2820 2857 2918 2858 2820 2857 2762 2859 2763 2860 2859 2764 2861 2860 2861 2765 2862 2766 2863 2862 2821 2919 2863 2821 2864 2919 2864 2768 2865 2865 2769 2866 2867 2866 2770 2822 2920 2867 2868 2920 2822 2868 2772 2869 2773 2870 2869 2870 2774 2871 2871 2775 2872 2776 2873 2872 2874 2873 2777 2874 2778 2875 2876 2875 2823 2877 2876 2824 2878 2877 2780 2781 2879 2878 2921 2833 2825 2922 2826 2880 2880 2783 2881 2882 2881 2827 2883 2882 2785 2883 2786 2884 2828 2923 2884 2788 2886 2885 2828 2885 2923 2886 2789 2887 2790 2888 2887 2889 2888 2791 2889 2792 2890 2890 2793 2891 2892 2891 2794 2892 2795 2893 2924 2893 2829 2894 2924 2829 2895 2894 2797 2896 2895 2798 2896 2799 2897 2897 2830 2925 2899 2898 2801 2925 2830 2898 2900 2899 2802 2803 2901 2900 2902 2901 2804 2903 2902 2805 2904 2903 2806 2926 2904 2831 2905 2926 2831 2906 2905 2808 2907 2906 2809 2907 2810 2908 2908 2811 2909 2909 2812 2910 2927 2910 2832 2911 2927 2832 2814 2912 2911 2928 2912 2833 2834 2921 2825 2834 2913 2929 2835 2836 2930 2835 2930 2913 2931 2836 2837 2838 2932 2837 2933 2838 2839 2914 2934 2839 2935 2840 2841 2935 2914 2840 2842 2936 2841 2937 2842 2843 2843 2844 2938 2844 2845 2939 2845 2915 2940 2818 2916 2915 2846 2847 2941 2846 2941 2916 2847 2848 2942 2848 2849 2943 2850 2944 2849 2945 2850 2917 2851 2852 2946 2917 2851 2946 2852 2853 2947 2853 2854 2948 2949 2854 2855 2856 2950 2855 2858 2951 2856 2918 2857 2952 2953 2858 2918 2952 2857 2859 2859 2860 2954 2860 2861 2955 2956 2861 2862 2863 2957 2862 2863 2919 2958 2919 2864 2959 2864 2865 2959 2865 2866 2960 2866 2867 2961 2920 2962 2867 2963 2920 2868 2963 2868 2869 2869 2870 2964 2870 2871 2965 2966 2871 2872 2873 2967 2872 2968 2873 2874 2969 2874 2875 2876 2970 2875 2971 2876 2877 2972 2877 2878 2879 2973 2878 2928 2833 2921 2922 2880 2974 2975 2880 2881 2881 2882 2976 2883 2977 2882 2978 2883 2884 2923 2979 2884 2885 2886 2980 2885 2980 2923 2981 2886 2887 2888 2982 2887 2889 2983 2888 2984 2889 2890 2985 2890 2891 2892 2986 2891 2987 2892 2893 2924 2988 2893 2894 2989 2924 2895 2989 2894 2990 2895 2896 2896 2897 2991 2897 2925 2992 2993 2898 2899 2925 2898 2993 2994 2899 2900 2901 2995 2900 2902 2996 2901 2997 2902 2903 2998 2903 2904 2926 2999 2904 2905 3000 2926 2906 3000 2905 3001 2906 2907 2907 2908 3002 2908 2909 3003 2909 2910 3004 3005 2910 2927 2911 3006 2927 2911 2912 3006 2928 3007 2912 2921 2834 2929 2913 3008 2929 2930 2836 2931 2913 2930 3008 2932 2931 2837 2838 2933 2932 2934 2933 2839 2914 3009 2934 2936 2935 2841 2935 3009 2914 2937 2936 2842 2937 2843 2938 2844 2939 2938 2939 2845 2940 2915 3010 2940 2916 3010 2915 2941 2847 2942 2916 2941 3011 2942 2848 2943 2849 2944 2943 2945 2944 2850 3012 2945 2917 2852 2947 2946 3012 2917 2946 2947 2853 2948 2948 2854 2949 2950 2949 2855 2856 2951 2950 2953 2951 2858 2918 2952 3013 2953 2918 3013 2952 2859 2954 2954 2860 2955 2955 2861 2956 2957 2956 2862 2957 2863 2958 2958 2919 3014 3014 2919 2959 2959 2865 2960 2866 2961 2960 2867 2962 2961 3015 2962 2920 3015 2920 2963 2963 2869 2964 2964 2870 2965 2965 2871 2966 2967 2966 2872 2968 2967 2873 2968 2874 2969 2969 2875 3016 2971 2970 2876 2875 2970 3016 2971 2877 2972 2973 2972 2878 2928 2921 3017 3018 2922 2974 2974 2880 2975 2975 2881 2976 2882 2977 2976 2978 2977 2883 2979 2978 2884 3019 2979 2923 2980 2886 2981 2980 3019 2923 2982 2981 2887 2888 2983 2982 2984 2983 2889 2985 2984 2890 2986 2985 2891 2987 2986 2892 2988 2987 2893 3020 2988 2924 2989 3020 2924 2990 2989 2895 2990 2896 2991 2897 2992 2991 2925 3021 2992 2993 2899 2994 2925 2993 3021 2995 2994 2900 2901 2996 2995 2997 2996 2902 2997 2903 2998 2999 2998 2904 2926 3022 2999 3000 3022 2926 3001 3000 2906 3001 2907 3002 2908 3003 3002 3003 2909 3004 3004 2910 3005 3023 3005 2927 3006 3023 2927 2912 3007 3006 3024 3007 2928 3017 2921 2929 3008 3025 2929 2930 2931 3026 3008 2930 3026 3027 2931 2932 2932 2933 3028 2934 3029 2933 2934 3009 3030 2936 3031 2935 2935 3031 3009 2937 3032 2936 3033 2937 2938 2938 2939 3034 3035 2939 2940 3010 3036 2940 2916 3011 3010 3037 2941 2942 3011 2941 3037 3038 2942 2943 2944 3039 2943 2945 3040 2944 3041 2945 3012 2946 2947 3042 3012 2946 3042 2947 2948 3043 3044 2948 2949 2950 3045 2949 2951 3046 2950 3047 2951 2953 3013 2952 3048 3049 2953 3013 3048 2952 2954 3050 2954 2955 3051 2955 2956 2957 3052 2956 3053 2957 2958 3054 2958 3014 3055 3014 2959 3055 2959 2960 2961 3056 2960 2962 3057 2961 3015 3058 2962 3015 2963 3059 3059 2963 2964 3060 2964 2965 3061 2965 2966 2967 3062 2966 3063 2967 2968 2968 2969 3064 3065 2969 3016 3066 2970 2971 2970 3067 3016 3068 2971 2972 2973 3069 2972 3024 2928 3017 3070 3018 2974 3071 2974 2975 3072 2975 2976 2977 3072 2976 2978 3073 2977 3074 2978 2979 3075 2979 3019 2980 2981 3076 2980 3076 3019 2981 2982 3077 2982 2983 3078 2984 3079 2983 2985 3080 2984 2986 3081 2985 2987 3082 2986 2988 3083 2987 3020 3084 2988 3085 3020 2989 3085 2989 2990 2990 2991 3086 2991 2992 3087 3021 3088 2992 3089 2993 2994 3021 2993 3089 2995 3090 2994 2995 2996 3091 2997 3092 2996 3093 2997 2998 2999 3094 2998 3022 3095 2999 3096 3022 3000 3096 3000 3001 3001 3002 3097 3002 3003 3098 3099 3003 3004 3100 3004 3005 3023 3101 3005 3006 3102 3023 3007 3102 3006 3024 3103 3007 3025 3017 2929 3008 3104 3025 2931 3027 3026 3104 3008 3026 3027 2932 3028 2933 3029 3028 2934 3030 3029 3030 3009 3105 2936 3032 3031 3009 3031 3105 3033 3032 2937 3033 2938 3034 3034 2939 3035 3036 3035 2940 3010 3106 3036 3010 3011 3106 3038 3037 2942 3011 3037 3107 3039 3038 2943 2944 3040 3039 3041 3040 2945 3041 3012 3108 3042 2947 3043 3108 3012 3042 3043 2948 3044 3045 3044 2949 3046 3045 2950 3047 3046 2951 3047 2953 3049 3109 3013 3048 3049 3013 3109 3050 3048 2954 3051 3050 2955 3052 3051 2956 3053 3052 2957 3053 2958 3054 3110 3054 3014 3055 3110 3014 3056 3055 2960 3057 3056 2961 2962 3058 3057 3111 3058 3015 3111 3015 3059 3060 3059 2964 3061 3060 2965 3062 3061 2966 3063 3062 2967 3063 2968 3064 3064 2969 3065 3067 3065 3016 3066 3067 2970 3068 3066 2971 3069 3068 2972 3112 3024 3017 3113 3018 3070 3070 2974 3071 3071 2975 3114 2975 3072 3114 2977 3073 3072 3074 3073 2978 3074 2979 3075 3115 3075 3019 2981 3077 3076 3076 3115 3019 2982 3078 3077 2983 3079 3078 2984 3080 3079 2985 3081 3080 2986 3082 3081 2987 3083 3082 2988 3084 3083 3020 3116 3084 3085 3116 3020 3085 2990 3086 2991 3087 3086 2992 3088 3087 3021 3117 3088 3090 3089 2994 3021 3089 3117 2995 3091 3090 2996 3092 3091 3093 3092 2997 3094 3093 2998 3095 3094 2999 3118 3095 3022 3118 3022 3096 3096 3001 3097 3097 3002 3098 3098 3003 3099 3100 3099 3004 3101 3100 3005 3023 3119 3101 3102 3119 3023 3007 3103 3102 3120 3103 3024 3025 3112 3017 3025 3104 3121 3027 3122 3026 3122 3104 3026 3123 3027 3028 3029 3124 3028 3029 3030 3125 3126 3030 3105 3031 3032 3127 3031 3127 3105 3033 3128 3032 3129 3033 3034 3130 3034 3035 3036 3131 3035 3106 3132 3036 3011 3107 3106 3133 3037 3038 3107 3037 3133 3134 3038 3039 3039 3040 3135 3041 3136 3040 3137 3041 3108 3138 3042 3043 3138 3108 3042 3139 3043 3044 3045 3140 3044 3046 3141 3045 3142 3046 3047 3047 3049 3143 3144 3109 3048 3145 3049 3109 3050 3144 3048 3146 3050 3051 3052 3147 3051 3053 3148 3052 3149 3053 3054 3110 3150 3054 3151 3110 3055 3056 3151 3055 3152 3056 3057 3058 3153 3057 3154 3058 3111 3155 3111 3059 3060 3155 3059 3156 3060 3061 3062 3157 3061 3158 3062 3063 3159 3063 3064 3160 3064 3065 3067 3161 3065 3162 3067 3066 3066 3068 3163 3069 3164 3068 3120 3024 3112 3113 3070 3165 3070 3071 3166 3167 3071 3114 3072 3168 3114 3072 3073 3168 3074 3169 3073 3170 3074 3075 3115 3171 3075 3077 3172 3076 3172 3115 3076 3077 3078 3173 3079 3174 3078 3079 3080 3175 3080 3081 3176 3081 3082 3177 3082 3083 3178 3083 3084 3179 3084 3116 3180 3181 3116 3085 3181 3085 3086 3087 3182 3086 3087 3088 3183 3088 3117 3184 3185 3089 3090 3117 3089 3185 3091 3186 3090 3092 3187 3091 3188 3092 3093 3189 3093 3094 3190 3094 3095 3191 3095 3118 3118 3096 3192 3192 3096 3097 3193 3097 3098 3194 3098 3099 3100 3195 3099 3196 3100 3101 3119 3197 3101 3119 3102 3198 3102 3103 3198 3120 3199 3103 3112 3025 3121 3104 3200 3121 3123 3122 3027 3122 3200 3104 3124 3123 3028 3029 3125 3124 3125 3030 3126 3201 3126 3105 3032 3128 3127 3127 3201 3105 3129 3128 3033 3130 3129 3034 3131 3130 3035 3036 3132 3131 3202 3132 3106 3107 3202 3106 3133 3038 3134 3107 3133 3203 3134 3039 3135 3040 3136 3135 3137 3136 3041 3204 3137 3108 3139 3138 3043 3138 3204 3108 3140 3139 3044 3045 3141 3140 3142 3141 3046 3142 3047 3143 3143 3049 3145 3144 3205 3109 3205 3145 3109 3146 3144 3050 3147 3146 3051 3052 3148 3147 3149 3148 3053 3150 3149 3054 3110 3206 3150 3151 3206 3110 3152 3151 3056 3153 3152 3057 3154 3153 3058 3154 3111 3207 3207 3111 3155 3156 3155 3060 3157 3156 3061 3158 3157 3062 3158 3063 3159 3159 3064 3160 3161 3160 3065 3162 3161 3067 3162 3066 3163 3068 3164 3163 3120 3112 3208 3209 3113 3165 3165 3070 3166 3071 3167 3166 3210 3167 3114 3168 3210 3114 3073 3169 3168 3170 3169 3074 3171 3170 3075 3211 3171 3115 3077 3173 3172 3211 3115 3172 3078 3174 3173 3079 3175 3174 3175 3080 3176 3176 3081 3177 3082 3178 3177 3178 3083 3179 3084 3180 3179 3116 3212 3180 3181 3212 3116 3182 3181 3086 3182 3087 3183 3183 3088 3184 3184 3117 3213 3186 3185 3090 3213 3117 3185 3187 3186 3091 3188 3187 3092 3188 3093 3189 3189 3094 3190 3190 3095 3191 3191 3118 3214 3118 3192 3214 3192 3097 3193 3194 3193 3098 3195 3194 3099 3196 3195 3100 3197 3196 3101 3215 3197 3119 3215 3119 3198 3103 3199 3198 3216 3199 3120 3208 3112 3121 3200 3217 3121 3123 3218 3122 3122 3218 3200 3124 3219 3123 3124 3125 3220 3125 3126 3221 3126 3201 3222 3127 3128 3223 3127 3223 3201 3129 3224 3128 3225 3129 3130 3226 3130 3131 3132 3227 3131 3202 3228 3132 3107 3203 3202 3133 3134 3229 3203 3133 3229 3134 3135 3230 3136 3231 3135 3232 3136 3137 3233 3137 3204 3139 3234 3138 3234 3204 3138 3235 3139 3140 3141 3236 3140 3237 3141 3142 3142 3143 3238 3239 3143 3145 3144 3240 3205 3205 3241 3145 3146 3240 3144 3242 3146 3147 3148 3243 3147 3244 3148 3149 3149 3150 3245 3206 3246 3150 3151 3247 3206 3152 3247 3151 3153 3248 3152 3249 3153 3154 3154 3207 3250 3207 3155 3251 3251 3155 3156 3252 3156 3157 3253 3157 3158 3158 3159 3254 3255 3159 3160 3161 3256 3160 3257 3161 3162 3258 3162 3163 3164 3259 3163 3216 3120 3208 3260 3209 3165 3165 3166 3261 3167 3262 3166 3263 3167 3210 3168 3264 3210 3169 3264 3168 3170 3265 3169 3171 3266 3170 3211 3267 3171 3173 3268 3172 3268 3211 3172 3174 3269 3173 3174 3175 3270 3175 3176 3271 3272 3176 3177 3178 3273 3177 3274 3178 3179 3179 3180 3275 3212 3276 3180 3277 3212 3181 3277 3181 3182 3278 3182 3183 3279 3183 3184 3280 3184 3213 3186 3281 3185 3281 3213 3185 3187 3282 3186 3283 3187 3188 3188 3189 3284 3189 3190 3285 3190 3191 3286 3287 3191 3214 3214 3192 3288 3288 3192 3193 3194 3289 3193 3195 3290 3194 3291 3195 3196 3292 3196 3197 3293 3197 3215 3294 3215 3198 3199 3294 3198 3216 3295 3199 3217 3208 3121 3200 3296 3217 3123 3219 3218 3200 3218 3296 3124 3220 3219 3220 3125 3221 3221 3126 3222 3201 3297 3222 3128 3224 3223 3223 3297 3201 3225 3224 3129 3225 3130 3226 3227 3226 3131 3132 3228 3227 3202 3298 3228 3202 3203 3298 3229 3134 3230 3299 3203 3229 3135 3231 3230 3232 3231 3136 3232 3137 3233 3233 3204 3300 3235 3234 3139 3300 3204 3234 3236 3235 3140 3237 3236 3141 3237 3142 3238 3238 3143 3239 3241 3239 3145 3205 3240 3301 3205 3301 3241 3242 3240 3146 3243 3242 3147 3244 3243 3148 3244 3149 3245 3150 3246 3245 3206 3302 3246 3206 3247 3302 3152 3248 3247 3249 3248 3153 3249 3154 3250 3250 3207 3303 3207 3251 3303 3251 3156 3252 3252 3157 3253 3253 3158 3254 3159 3255 3254 3256 3255 3160 3257 3256 3161 3258 3257 3162 3259 3258 3163 3304 3216 3208 3305 3209 3260 3260 3165 3261 3166 3262 3261 3263 3262 3167 3306 3263 3210 3264 3306 3210 3169 3265 3264 3170 3266 3265 3171 3267 3266 3211 3307 3267 3269 3268 3173 3268 3307 3211 3174 3270 3269 3270 3175 3271 3176 3272 3271 3273 3272 3177 3178 3274 3273 3274 3179 3275 3180 3276 3275 3212 3308 3276 3277 3308 3212 3277 3182 3278 3279 3278 3183 3280 3279 3184 3309 3280 3213 3186 3282 3281 3281 3309 3213 3283 3282 3187 3283 3188 3284 3189 3285 3284 3190 3286 3285 3286 3191 3287 3287 3214 3310 3310 3214 3288 3289 3288 3193 3194 3290 3289 3291 3290 3195 3291 3196 3292 3292 3197 3293 3293 3215 3311 3215 3294 3311 3199 3295 3294 3312 3295 3216 3217 3304 3208 3217 3296 3313 3218 3219 3314 3296 3218 3314 3219 3220 3315 3316 3220 3221 3317 3221 3222 3222 3297 3318 3224 3319 3223 3223 3319 3297 3225 3320 3224 3321 3225 3226 3227 3322 3226 3227 3228 3323 3228 3298 3324 3298 3203 3299 3325 3229 3230 3325 3299 3229 3231 3326 3230 3327 3231 3232 3232 3233 3328 3233 3300 3329 3330 3234 3235 3300 3234 3330 3331 3235 3236 3332 3236 3237 3333 3237 3238 3334 3238 3239 3241 3335 3239 3240 3336 3301 3241 3301 3337 3242 3336 3240 3338 3242 3243 3339 3243 3244 3340 3244 3245 3246 3341 3245 3246 3302 3342 3302 3247 3343 3247 3248 3343 3249 3344 3248 3345 3249 3250 3346 3250 3303 3303 3251 3347 3251 3252 3347 3252 3253 3348 3349 3253 3254 3255 3350 3254 3256 3351 3255 3352 3256 3257 3257 3258 3353 3259 3354 3258 3312 3216 3304 3305 3260 3355 3356 3260 3261 3262 3356 3261 3263 3357 3262 3358 3263 3306 3264 3359 3306 3264 3265 3359 3265 3266 3360 3266 3267 3361 3267 3307 3362 3269 3363 3268 3268 3363 3307 3269 3270 3364 3365 3270 3271 3272 3366 3271 3367 3272 3273 3274 3368 3273 3369 3274 3275 3276 3370 3275 3276 3308 3371 3372 3308 3277 3372 3277 3278 3279 3373 3278 3280 3374 3279 3375 3280 3309 3282 3376 3281 3281 3376 3309 3377 3282 3283 3378 3283 3284 3285 3379 3284 3286 3380 3285 3286 3287 3381 3382 3287 3310 3383 3310 3288 3289 3383 3288 3290 3384 3289 3385 3290 3291 3291 3292 3386 3292 3293 3387 3388 3293 3311 3294 3389 3311 3295 3389 3294 3312 3390 3295 3217 3313 3304 3313 3296 3391 3219 3315 3314 3391 3296 3314 3315 3220 3316 3317 3316 3221 3317 3222 3318 3318 3297 3392 3224 3320 3319 3297 3319 3392 3321 3320 3225 3322 3321 3226 3322 3227 3323 3228 3324 3323 3324 3298 3393 3298 3299 3393 3326 3325 3230 3299 3325 3394 3327 3326 3231 3327 3232 3328 3233 3329 3328 3300 3395 3329 3330 3235 3331 3300 3330 3395 3331 3236 3332 3332 3237 3333 3333 3238 3334 3335 3334 3239 3335 3241 3337 3336 3396 3301 3301 3396 3337 3338 3336 3242 3338 3243 3339 3339 3244 3340 3341 3340 3245 3246 3342 3341 3342 3302 3397 3397 3302 3343 3248 3344 3343 3345 3344 3249 3346 3345 3250 3398 3346 3303 3398 3303 3347 3252 3348 3347 3348 3253 3349 3350 3349 3254 3350 3255 3399 3352 3351 3256 3255 3351 3399 3352 3257 3353 3258 3354 3353 3400 3312 3304 3401 3305 3355 3355 3260 3402 3260 3356 3402 3262 3357 3356 3358 3357 3263 3403 3358 3306 3359 3403 3306 3265 3360 3359 3360 3266 3361 3267 3362 3361 3362 3307 3404 3269 3364 3363 3307 3363 3404 3364 3270 3365 3366 3365 3271 3367 3366 3272 3368 3367 3273 3369 3368 3274 3370 3369 3275 3370 3276 3371 3308 3405 3371 3372 3405 3308 3373 3372 3278 3374 3373 3279 3375 3374 3280 3406 3375 3309 3377 3376 3282 3376 3406 3309 3377 3283 3378 3379 3378 3284 3285 3380 3379 3286 3381 3380 3381 3287 3382 3407 3382 3310 3383 3407 3310 3289 3384 3383 3385 3384 3290 3385 3291 3386 3386 3292 3387 3387 3293 3388 3408 3388 3311 3389 3408 3311 3295 3390 3389 3409 3390 3312 3313 3400 3304 3313 3391 3410 3315 3411 3314 3411 3391 3314 3315 3316 3412 3413 3316 3317 3414 3317 3318 3415 3318 3392 3319 3320 3416 3392 3319 3416 3321 3417 3320 3418 3321 3322 3419 3322 3323 3324 3420 3323 3421 3324 3393 3393 3299 3394 3326 3422 3325 3325 3422 3394 3423 3326 3327 3424 3327 3328 3329 3425 3328 3395 3426 3329 3330 3331 3427 3395 3330 3427 3331 3332 3428 3332 3333 3429 3430 3333 3334 3335 3431 3334 3432 3335 3337 3433 3396 3336 3396 3434 3337 3433 3336 3338 3338 3339 3435 3339 3340 3436 3340 3341 3437 3342 3438 3341 3439 3342 3397 3440 3397 3343 3344 3440 3343 3441 3344 3345 3442 3345 3346 3443 3346 3398 3398 3347 3444 3347 3348 3444 3348 3349 3445 3446 3349 3350 3447 3350 3399 3352 3448 3351 3351 3449 3399 3450 3352 3353 3354 3451 3353 3409 3312 3400 3401 3355 3452 3453 3355 3402 3356 3454 3402 3357 3454 3356 3358 3455 3357 3403 3456 3358 3457 3403 3359 3360 3457 3359 3458 3360 3361 3361 3362 3459 3362 3404 3460 3363 3364 3461 3404 3363 3461 3364 3365 3462 3463 3365 3366 3367 3464 3366 3368 3465 3367 3369 3466 3368 3467 3369 3370 3468 3370 3371 3405 3469 3371 3470 3405 3372 3470 3372 3373 3471 3373 3374 3472 3374 3375 3473 3375 3406 3474 3376 3377 3474 3406 3376 3377 3378 3475 3476 3378 3379 3380 3477 3379 3380 3381 3478 3381 3382 3479 3480 3382 3407 3481 3407 3383 3384 3481 3383 3482 3384 3385 3385 3386 3483 3484 3386 3387 3485 3387 3388 3408 3486 3388 3389 3487 3408 3389 3390 3487 3409 3488 3390 3400 3313 3410 3391 3489 3410 3315 3412 3411 3391 3411 3489 3412 3316 3413 3413 3317 3414 3415 3414 3318 3490 3415 3392 3320 3417 3416 3490 3392 3416 3418 3417 3321 3418 3322 3419 3420 3419 3323 3324 3421 3420 3421 3393 3491 3393 3394 3491 3423 3422 3326 3422 3492 3394 3423 3327 3424 3425 3424 3328 3426 3425 3329 3426 3395 3493 3331 3428 3427 3493 3395 3427 3332 3429 3428 3429 3333 3430 3431 3430 3334 3432 3431 3335 3434 3432 3337 3494 3396 3433 3494 3434 3396 3433 3338 3435 3339 3436 3435 3436 3340 3437 3341 3438 3437 3342 3439 3438 3495 3439 3397 3440 3495 3397 3441 3440 3344 3441 3345 3442 3442 3346 3443 3443 3398 3496 3496 3398 3444 3348 3445 3444 3445 3349 3446 3447 3446 3350 3449 3447 3399 3450 3448 3352 3351 3448 3449 3451 3450 3353 3409 3400 3497 3498 3401 3452 3355 3453 3452 3454 3453 3402 3455 3454 3357 3358 3456 3455 3499 3456 3403 3499 3403 3457 3360 3458 3457 3458 3361 3459 3362 3460 3459 3404 3500 3460 3364 3462 3461 3404 3461 3500 3462 3365 3463 3464 3463 3366 3465 3464 3367 3368 3466 3465 3467 3466 3369 3468 3467 3370 3469 3468 3371 3501 3469 3405 3501 3405 3470 3470 3373 3471 3471 3374 3472 3472 3375 3473 3473 3406 3502 3474 3377 3475 3502 3406 3474 3378 3476 3475 3477 3476 3379 3477 3380 3478 3381 3479 3478 3479 3382 3480 3480 3407 3503 3503 3407 3481 3482 3481 3384 3482 3385 3483 3483 3386 3484 3485 3484 3387 3486 3485 3388 3486 3408 3504 3408 3487 3504 3390 3488 3487 3505 3488 3409 3497 3400 3410 3489 3506 3410 3412 3507 3411 3411 3507 3489 3412 3413 3508 3509 3413 3414 3415 3510 3414 3511 3415 3490 3417 3512 3416 3512 3490 3416 3418 3513 3417 3514 3418 3419 3420 3515 3419 3421 3516 3420 3517 3421 3491 3394 3492 3491 3518 3422 3423 3518 3492 3422 3423 3424 3519 3520 3424 3425 3426 3521 3425 3522 3426 3493 3428 3523 3427 3523 3493 3427 3429 3524 3428 3429 3430 3525 3526 3430 3431 3527 3431 3432 3528 3432 3434 3494 3433 3529 3530 3434 3494 3529 3433 3435 3435 3436 3531 3532 3436 3437 3438 3533 3437 3438 3439 3534 3495 3535 3439 3536 3495 3440 3536 3440 3441 3441 3442 3537 3442 3443 3538 3443 3496 3539 3540 3496 3444 3445 3540 3444 3445 3446 3541 3542 3446 3447 3543 3447 3449 3544 3448 3450 3448 3545 3449 3451 3546 3450 3505 3409 3497 3547 3498 3452 3453 3547 3452 3548 3453 3454 3548 3454 3455 3455 3456 3549 3499 3550 3456 3551 3499 3457 3458 3551 3457 3552 3458 3459 3460 3553 3459 3460 3500 3554 3461 3462 3555 3500 3461 3555 3462 3463 3556 3557 3463 3464 3558 3464 3465 3466 3559 3465 3467 3560 3466 3468 3561 3467 3469 3562 3468 3563 3469 3501 3501 3470 3564 3470 3471 3564 3471 3472 3565 3472 3473 3566 3473 3502 3567 3568 3474 3475 3502 3474 3568 3476 3569 3475 3477 3570 3476 3571 3477 3478 3479 3572 3478 3479 3480 3573 3480 3503 3574 3503 3481 3575 3575 3481 3482 3576 3482 3483 3577 3483 3484 3485 3578 3484 3579 3485 3486 3580 3486 3504 3487 3581 3504 3488 3581 3487 3505 3582 3488 3506 3497 3410 3489 3583 3506 3412 3508 3507 3489 3507 3583 3508 3413 3509 3510 3509 3414 3511 3510 3415 3584 3511 3490 3417 3513 3512 3584 3490 3512 3514 3513 3418 3515 3514 3419 3516 3515 3420 3517 3516 3421 3585 3517 3491 3492 3585 3491 3518 3423 3519 3586 3492 3518 3424 3520 3519 3521 3520 3425 3522 3521 3426 3587 3522 3493 3524 3523 3428 3523 3587 3493 3429 3525 3524 3525 3430 3526 3526 3431 3527 3527 3432 3528 3528 3434 3530 3494 3529 3588 3530 3494 3588 3529 3435 3531 3531 3436 3532 3533 3532 3437 3533 3438 3534 3439 3535 3534 3589 3535 3495 3589 3495 3536 3536 3441 3537 3442 3538 3537 3538 3443 3539 3539 3496 3590 3496 3540 3590 3445 3541 3540 3541 3446 3542 3542 3447 3543 3545 3543 3449 3544 3545 3448 3546 3544 3450 3591 3505 3497 3592 3547 3453 3592 3453 3548 3593 3548 3455 3456 3550 3549 3593 3455 3549 3499 3594 3550 3551 3594 3499 3552 3551 3458 3553 3552 3459 3553 3460 3554 3500 3595 3554 3462 3556 3555 3595 3500 3555 3556 3463 3557 3557 3464 3558 3559 3558 3465 3466 3560 3559 3467 3561 3560 3468 3562 3561 3563 3562 3469 3563 3501 3596 3501 3564 3596 3471 3565 3564 3565 3472 3566 3473 3567 3566 3567 3502 3597 3569 3568 3475 3502 3568 3597 3476 3570 3569 3571 3570 3477 3572 3571 3478 3479 3573 3572 3573 3480 3574 3503 3598 3574 3503 3575 3598 3575 3482 3576 3577 3576 3483 3578 3577 3484 3579 3578 3485 3579 3486 3580 3599 3580 3504 3581 3599 3504 3488 3582 3581 3600 3582 3505 3506 3591 3497 3506 3583 3601 3507 3508 3602 3583 3507 3602 3508 3509 3603 3604 3509 3510 3605 3510 3511 3511 3584 3606 3513 3607 3512 3607 3584 3512 3608 3513 3514 3609 3514 3515 3610 3515 3516 3611 3516 3517 3612 3517 3585 3586 3585 3492 3518 3519 3613 3586 3518 3613 3519 3520 3614 3521 3615 3520 3522 3616 3521 3587 3617 3522 3618 3523 3524 3618 3587 3523 3525 3619 3524 3525 3526 3620 3526 3527 3621 3527 3528 3622 3528 3530 3623 3588 3529 3624 3625 3530 3588 3624 3529 3531 3626 3531 3532 3533 3627 3532 3628 3533 3534 3535 3629 3534 3630 3535 3589 3589 3536 3631 3631 3536 3537 3537 3538 3632 3633 3538 3539 3634 3539 3590 3540 3635 3590 3540 3541 3635 3541 3542 3636 3637 3542 3543 3545 3638 3543 3544 3639 3545 3546 3640 3544 3600 3505 3591 3641 3592 3548 3593 3641 3548 3550 3642 3549 3642 3593 3549 3550 3594 3643 3551 3644 3594 3552 3644 3551 3553 3645 3552 3646 3553 3554 3595 3647 3554 3556 3648 3555 3648 3595 3555 3556 3557 3649 3557 3558 3650 3558 3559 3651 3559 3560 3652 3560 3561 3653 3561 3562 3654 3563 3655 3562 3656 3563 3596 3564 3657 3596 3565 3657 3564 3658 3565 3566 3566 3567 3659 3567 3597 3660 3568 3569 3661 3568 3661 3597 3569 3570 3662 3571 3663 3570 3572 3664 3571 3572 3573 3665 3666 3573 3574 3598 3667 3574 3575 3668 3598 3575 3576 3668 3669 3576 3577 3670 3577 3578 3671 3578 3579 3579 3580 3672 3580 3599 3673 3581 3674 3599 3581 3582 3674 3600 3675 3582 3591 3506 3601 3583 3676 3601 3508 3603 3602 3676 3583 3602 3603 3509 3604 3604 3510 3605 3605 3511 3606 3584 3677 3606 3608 3607 3513 3607 3677 3584 3608 3514 3609 3609 3515 3610 3610 3516 3611 3611 3517 3612 3612 3585 3678 3678 3585 3586 3613 3519 3614 3679 3586 3613 3520 3615 3614 3521 3616 3615 3522 3617 3616 3587 3680 3617 3619 3618 3524 3618 3680 3587 3525 3620 3619 3620 3526 3621 3527 3622 3621 3528 3623 3622 3623 3530 3625 3681 3588 3624 3681 3625 3588 3626 3624 3531 3627 3626 3532 3628 3627 3533 3629 3628 3534 3630 3629 3535 3630 3589 3682 3589 3631 3682 3631 3537 3632 3632 3538 3633 3634 3633 3539 3683 3634 3590 3635 3683 3590 3541 3636 3635 3636 3542 3637 3638 3637 3543 3639 3638 3545 3544 3640 3639 3600 3591 3684 3685 3641 3593 3550 3686 3642 3685 3593 3642 3594 3687 3643 3686 3550 3643 3594 3644 3687 3552 3645 3644 3646 3645 3553 3647 3646 3554 3595 3688 3647 3556 3649 3648 3648 3688 3595 3649 3557 3650 3558 3651 3650 3559 3652 3651 3652 3560 3653 3653 3561 3654 3562 3655 3654 3656 3655 3563 3689 3656 3596 3657 3689 3596 3565 3658 3657 3658 3566 3659 3567 3660 3659 3597 3690 3660 3569 3662 3661 3597 3661 3690 3570 3663 3662 3571 3664 3663 3572 3665 3664 3665 3573 3666 3667 3666 3574 3691 3667 3598 3668 3691 3598 3668 3576 3669 3669 3577 3670 3670 3578 3671 3671 3579 3672 3672 3580 3673 3599 3692 3673 3674 3692 3599 3582 3675 3674 3693 3675 3600 3684 3591 3601 3676 3694 3601 3603 3695 3602 3695 3676 3602 3603 3604 3696 3604 3605 3697 3698 3605 3606 3677 3699 3606 3700 3607 3608 3700 3677 3607 3608 3609 3701 3609 3610 3702 3610 3611 3703 3611 3612 3704 3612 3678 3705 3678 3586 3679 3706 3613 3614 3706 3679 3613 3615 3707 3614 3615 3616 3708 3616 3617 3709 3617 3680 3710 3619 3711 3618 3618 3711 3680 3619 3620 3712 3713 3620 3621 3621 3622 3714 3623 3715 3622 3623 3625 3716 3717 3681 3624 3718 3625 3681 3626 3717 3624 3627 3719 3626 3628 3720 3627 3629 3721 3628 3722 3629 3630 3723 3630 3682 3682 3631 3724 3724 3631 3632 3725 3632 3633 3634 3726 3633 3727 3634 3683 3683 3635 3728 3635 3636 3728 3636 3637 3729 3637 3638 3730 3731 3638 3639 3640 3732 3639 3693 3600 3684 3686 3733 3642 3733 3685 3642 3687 3734 3643 3734 3686 3643 3644 3735 3687 3644 3645 3735 3646 3736 3645 3647 3737 3646 3647 3688 3738 3648 3649 3739 3648 3739 3688 3740 3649 3650 3651 3741 3650 3651 3652 3742 3652 3653 3743 3744 3653 3654 3655 3745 3654 3746 3655 3656 3656 3689 3747 3657 3748 3689 3658 3748 3657 3749 3658 3659 3660 3750 3659 3660 3690 3751 3661 3662 3752 3690 3661 3752 3663 3753 3662 3663 3664 3754 3664 3665 3755 3665 3666 3756 3757 3666 3667 3691 3758 3667 3668 3759 3691 3668 3669 3759 3669 3670 3760 3670 3671 3761 3762 3671 3672 3763 3672 3673 3692 3764 3673 3674 3765 3692 3674 3675 3765 3693 3766 3675 3694 3684 3601 3676 3767 3694 3603 3696 3695 3695 3767 3676 3696 3604 3697 3605 3698 3697 3699 3698 3606 3768 3699 3677 3700 3608 3701 3768 3677 3700 3609 3702 3701 3610 3703 3702 3703 3611 3704 3612 3705 3704 3678 3769 3705 3678 3679 3769 3707 3706 3614 3770 3679 3706 3615 3708 3707 3708 3616 3709 3617 3710 3709 3680 3771 3710 3619 3712 3711 3680 3711 3771 3712 3620 3713 3713 3621 3714 3622 3715 3714 3623 3716 3715 3716 3625 3718 3772 3681 3717 3718 3681 3772 3626 3719 3717 3627 3720 3719 3628 3721 3720 3722 3721 3629 3722 3630 3723 3773 3723 3682 3773 3682 3724 3725 3724 3632 3726 3725 3633 3727 3726 3634 3727 3683 3774 3774 3683 3728 3728 3636 3729 3729 3637 3730 3638 3775 3730 3731 3775 3638 3732 3731 3639 3776 3693 3684 3777 3733 3686 3778 3734 3687 3734 3777 3686 3735 3778 3687 3645 3736 3735 3646 3737 3736 3647 3738 3737 3738 3688 3779 3739 3649 3740 3688 3739 3779 3741 3740 3650 3741 3651 3742 3742 3652 3743 3653 3744 3743 3745 3744 3654 3746 3745 3655 3746 3656 3747 3689 3780 3747 3748 3780 3689 3749 3748 3658 3750 3749 3659 3750 3660 3751 3690 3781 3751 3662 3753 3752 3781 3690 3752 3663 3754 3753 3754 3664 3755 3665 3756 3755 3756 3666 3757 3758 3757 3667 3691 3782 3758 3691 3759 3782 3759 3669 3760 3670 3761 3760 3761 3671 3762 3763 3762 3672 3764 3763 3673 3692 3783 3764 3692 3765 3783 3675 3766 3765 3784 3766 3693 3694 3776 3684 3694 3767 3785 3695 3696 3786 3695 3786 3767 3787 3696 3697 3697 3698 3788 3699 3789 3698 3790 3699 3768 3700 3701 3791 3768 3700 3791 3702 3792 3701 3703 3793 3702 3703 3704 3794 3705 3795 3704 3769 3796 3705 3769 3679 3770 3706 3707 3797 3770 3706 3797 3707 3708 3798 3799 3708 3709 3710 3800 3709 3710 3771 3801 3711 3712 3802 3771 3711 3802 3712 3713 3803 3804 3713 3714 3715 3805 3714 3715 3716 3806 3716 3718 3807 3808 3772 3717 3809 3718 3772 3719 3808 3717 3719 3720 3810 3720 3721 3811 3722 3812 3721 3813 3722 3723 3773 3814 3723 3815 3773 3724 3725 3815 3724 3726 3816 3725 3727 3817 3726 3818 3727 3774 3819 3774 3728 3819 3728 3729 3820 3729 3730 3775 3820 3730 3731 3821 3775 3732 3822 3731 3784 3693 3776 3823 3734 3778 3823 3777 3734 3778 3735 3824 3735 3736 3824 3736 3737 3825 3737 3738 3826 3827 3738 3779 3739 3740 3828 3739 3828 3779 3829 3740 3741 3741 3742 3830 3831 3742 3743 3744 3832 3743 3745 3833 3744 3746 3834 3745 3835 3746 3747 3747 3780 3836 3748 3837 3780 3749 3837 3748 3750 3838 3749 3839 3750 3751 3781 3840 3751 3753 3841 3752 3841 3781 3752 3753 3754 3842 3754 3755 3843 3755 3756 3844 3756 3757 3845 3757 3758 3846 3758 3782 3847 3782 3759 3848 3759 3760 3848 3761 3849 3760 3761 3762 3850 3851 3762 3763 3763 3764 3852 3783 3853 3764 3765 3854 3783 3766 3854 3765 3855 3766 3784 3694 3785 3776 3767 3856 3785 3786 3696 3787 3786 3856 3767 3787 3697 3788 3698 3789 3788 3790 3789 3699 3790 3768 3857 3701 3792 3791 3857 3768 3791 3793 3792 3702 3793 3703 3794 3704 3795 3794 3705 3796 3795 3769 3858 3796 3769 3770 3858 3797 3707 3798 3859 3770 3797 3798 3708 3799 3800 3799 3709 3800 3710 3801 3801 3771 3860 3712 3803 3802 3771 3802 3860 3803 3713 3804 3805 3804 3714 3715 3806 3805 3716 3807 3806 3807 3718 3809 3808 3861 3772 3861 3809 3772 3719 3810 3808 3810 3720 3811 3721 3812 3811 3813 3812 3722 3814 3813 3723 3773 3862 3814 3815 3862 3773 3725 3816 3815 3726 3817 3816 3818 3817 3727 3863 3818 3774 3819 3863 3774 3820 3819 3729 3820 3775 3864 3822 3821 3731 3775 3821 3864 3865 3784 3776 3866 3823 3778 3867 3778 3824 3736 3825 3824 3737 3826 3825 3826 3738 3827 3868 3827 3779 3828 3740 3829 3828 3868 3779 3829 3741 3830 3742 3831 3830 3832 3831 3743 3744 3833 3832 3745 3834 3833 3835 3834 3746 3835 3747 3836 3836 3780 3869 3780 3837 3869 3749 3838 3837 3839 3838 3750 3840 3839 3751 3781 3870 3840 3753 3842 3841 3841 3870 3781 3842 3754 3843 3843 3755 3844 3844 3756 3845 3757 3846 3845 3758 3847 3846 3847 3782 3871 3871 3782 3848 3760 3849 3848 3761 3850 3849 3850 3762 3851 3851 3763 3852 3764 3853 3852 3872 3853 3783 3854 3872 3783 3855 3854 3766 3855 3784 3873 3785 3865 3776 3856 3874 3785 3786 3787 3875 3856 3786 3875 3787 3788 3876 3789 3877 3788 3878 3789 3790 3790 3857 3879 3792 3880 3791 3880 3857 3791 3793 3881 3792 3882 3793 3794 3795 3883 3794 3795 3796 3884 3858 3885 3796 3858 3770 3859 3886 3797 3798 3886 3859 3797 3887 3798 3799 3800 3888 3799 3889 3800 3801 3890 3801 3860 3802 3803 3891 3860 3802 3891 3803 3804 3892 3804 3805 3893 3806 3894 3805 3807 3895 3806 3807 3809 3896 3861 3808 3897 3898 3809 3861 3808 3810 3897 3899 3810 3811 3812 3900 3811 3901 3812 3813 3813 3814 3902 3862 3903 3814 3815 3904 3862 3815 3816 3904 3816 3817 3905 3818 3906 3817 3907 3818 3863 3908 3863 3819 3908 3819 3820 3909 3820 3864 3822 3910 3821 3821 3911 3864 3873 3784 3865 3867 3866 3778 3867 3824 3912 3824 3825 3912 3826 3913 3825 3826 3827 3914 3915 3827 3868 3828 3829 3916 3828 3916 3868 3917 3829 3830 3831 3918 3830 3832 3919 3831 3832 3833 3920 3833 3834 3921 3835 3922 3834 3923 3835 3836 3924 3836 3869 3837 3925 3869 3837 3838 3925 3839 3926 3838 3840 3927 3839 3840 3870 3928 3841 3842 3929 3841 3929 3870 3930 3842 3843 3931 3843 3844 3932 3844 3845 3846 3933 3845 3846 3847 3934 3847 3871 3935 3936 3871 3848 3849 3936 3848 3849 3850 3937 3850 3851 3938 3939 3851 3852 3853 3940 3852 3872 3941 3853 3942 3872 3854 3942 3854 3855 3855 3873 3943 3874 3865 3785 3944 3874 3856 3787 3876 3875 3944 3856 3875 3788 3877 3876 3878 3877 3789 3878 3790 3879 3857 3945 3879 3792 3881 3880 3945 3857 3880 3882 3881 3793 3883 3882 3794 3883 3795 3884 3796 3885 3884 3858 3946 3885 3858 3859 3946 3887 3886 3798 3947 3859 3886 3888 3887 3799 3889 3888 3800 3890 3889 3801 3948 3890 3860 3891 3803 3892 3948 3860 3891 3804 3893 3892 3805 3894 3893 3806 3895 3894 3807 3896 3895 3896 3809 3898 3949 3861 3897 3898 3861 3949 3810 3899 3897 3900 3899 3811 3901 3900 3812 3901 3813 3902 3814 3903 3902 3862 3950 3903 3862 3904 3950 3904 3816 3905 3817 3906 3905 3907 3906 3818 3907 3863 3951 3951 3863 3908 3908 3820 3909 3911 3909 3864 3821 3910 3911 3873 3865 3952 3953 3866 3867 3954 3867 3912 3825 3913 3912 3826 3914 3913 3914 3827 3915 3955 3915 3868 3916 3829 3917 3916 3955 3868 3918 3917 3830 3919 3918 3831 3832 3920 3919 3920 3833 3921 3834 3922 3921 3923 3922 3835 3924 3923 3836 3956 3924 3869 3925 3956 3869 3838 3926 3925 3839 3927 3926 3840 3928 3927 3928 3870 3957 3929 3842 3930 3870 3929 3957 3930 3843 3931 3932 3931 3844 3933 3932 3845 3933 3846 3934 3847 3935 3934 3935 3871 3958 3871 3936 3958 3849 3937 3936 3937 3850 3938 3938 3851 3939 3940 3939 3852 3853 3941 3940 3959 3941 3872 3959 3872 3942 3942 3855 3943 3873 3960 3943 3952 3865 3874 3961 3874 3944 3876 3962 3875 3962 3944 3875 3877 3963 3876 3964 3877 3878 3878 3879 3965 3945 3966 3879 3881 3967 3880 3967 3945 3880 3882 3968 3881 3969 3882 3883 3883 3884 3970 3885 3971 3884 3885 3946 3972 3946 3859 3947 3973 3886 3887 3947 3886 3973 3888 3974 3887 3889 3975 3888 3976 3889 3890 3948 3977 3890 3978 3891 3892 3978 3948 3891 3893 3979 3892 3893 3894 3980 3894 3895 3981 3895 3896 3982 3896 3898 3983 3984 3949 3897 3898 3949 3985 3899 3984 3897 3900 3986 3899 3987 3900 3901 3988 3901 3902 3903 3989 3902 3903 3950 3990 3904 3991 3950 3991 3904 3905 3906 3992 3905 3993 3906 3907 3907 3951 3994 3951 3908 3995 3995 3908 3909 3996 3909 3911 3910 3997 3911 3873 3952 3960 3953 3867 3954 3913 3954 3912 3913 3914 3998 3914 3915 3999 3915 3955 4000 3916 3917 4001 3916 4001 3955 4002 3917 3918 3918 3919 4003 3919 3920 4004 3920 3921 4005 3922 4006 3921 3923 4007 3922 4008 3923 3924 3924 3956 4009 3925 4010 3956 3926 4010 3925 3926 3927 4011 3927 3928 4012 3928 3957 4013 3929 3930 4014 3929 4014 3957 4015 3930 3931 3932 4016 3931 3933 4017 3932 4018 3933 3934 3934 3935 4019 4020 3935 3958 3958 3936 4021 3936 3937 4021 3937 3938 4022 4023 3938 3939 3940 4024 3939 3941 4025 3940 4026 3941 3959 3959 3942 4027 3942 3943 4027 3960 4028 3943 3952 3874 3961 3961 3944 4029 3963 3962 3876 4029 3944 3962 3964 3963 3877 3964 3878 3965 3879 3966 3965 3945 4030 3966 3881 3968 3967 3967 4030 3945 3969 3968 3882 3969 3883 3970 3884 3971 3970 3885 3972 3971 3946 4031 3972 3946 3947 4031 3974 3973 3887 4032 3947 3973 3888 3975 3974 3976 3975 3889 3977 3976 3890 4033 3977 3948 3979 3978 3892 4033 3948 3978 3979 3893 3980 3980 3894 3981 3895 3982 3981 3982 3896 3983 3983 3898 3985 3949 3984 4034 3949 4034 3985 3899 3986 3984 3987 3986 3900 3987 3901 3988 3989 3988 3902 3903 3990 3989 3990 3950 4035 3950 3991 4035 3992 3991 3905 3993 3992 3906 3993 3907 3994 3951 4036 3994 3951 3995 4036 3996 3995 3909 3997 3996 3911 3952 4037 3960 4038 3953 3954 3913 4039 3954 3914 3999 3998 4039 3913 3998 3999 3915 4000 3955 4040 4000 4001 3917 4002 3955 4001 4041 4002 3918 4003 3919 4004 4003 4004 3920 4005 3921 4006 4005 3922 4007 4006 4008 4007 3923 4008 3924 4009 4009 3956 4042 3956 4010 4042 3926 4011 4010 4011 3927 4012 3928 4013 4012 4013 3957 4043 4014 3930 4015 3957 4014 4043 4016 4015 3931 3932 4017 4016 4018 4017 3933 4018 3934 4019 4019 3935 4020 4044 4020 3958 4044 3958 4021 4021 3937 4022 4022 3938 4023 4024 4023 3939 4025 4024 3940 4026 4025 3941 4026 3959 4045 4045 3959 4027 3943 4028 4027 4046 4028 3960 3952 3961 4037 3961 4029 4047 4048 3962 3963 4029 3962 4048 4049 3963 3964 4050 3964 3965 3965 3966 4051 3966 4030 4052 3967 3968 4053 3967 4053 4030 3969 4054 3968 4055 3969 3970 3971 4056 3970 3971 3972 4057 4031 4058 3972 4031 3947 4032 3974 4059 3973 4059 4032 3973 3974 3975 4060 3976 4061 3975 4062 3976 3977 4063 3977 4033 3979 4064 3978 4064 4033 3978 4065 3979 3980 4066 3980 3981 3981 3982 4067 4068 3982 3983 4069 3983 3985 3984 4070 4034 4034 4071 3985 3986 4070 3984 4072 3986 3987 3987 3988 4073 3988 3989 4074 3990 4075 3989 4076 3990 4035 3991 4077 4035 3992 4077 3991 4078 3992 3993 4079 3993 3994 3994 4036 4080 4036 3995 4081 3995 3996 4081 3997 4082 3996 4037 4046 3960 4039 4038 3954 3999 4083 3998 4083 4039 3998 4084 3999 4000 4040 3955 4041 4040 4084 4000 4001 4002 4085 4001 4085 4041 4086 4002 4003 4004 4087 4003 4088 4004 4005 4006 4089 4005 4006 4007 4090 4008 4091 4007 4092 4008 4009 4093 4009 4042 4042 4010 4094 4010 4011 4094 4011 4012 4095 4012 4013 4096 4013 4043 4097 4014 4015 4098 4043 4014 4098 4015 4016 4099 4017 4100 4016 4018 4101 4017 4102 4018 4019 4103 4019 4020 4044 4104 4020 4105 4044 4021 4105 4021 4022 4106 4022 4023 4024 4107 4023 4025 4108 4024 4109 4025 4026 4026 4045 4110 4111 4045 4027 4028 4111 4027 4046 4112 4028 4037 3961 4047 4029 4113 4047 4048 3963 4049 4029 4048 4113 4049 3964 4050 4050 3965 4051 4051 3966 4052 4030 4114 4052 3968 4054 4053 4030 4053 4114 4055 4054 3969 4056 4055 3970 4056 3971 4057 3972 4058 4057 4031 4115 4058 4031 4032 4115 3974 4060 4059 4116 4032 4059 3975 4061 4060 4062 4061 3976 4062 3977 4063 4063 4033 4117 4065 4064 3979 4117 4033 4064 4066 4065 3980 4066 3981 4067 4067 3982 4068 4069 4068 3983 4071 4069 3985 4070 4118 4034 4118 4071 4034 4072 4070 3986 4072 3987 4073 4073 3988 4074 3989 4075 4074 3990 4076 4075 4119 4076 4035 4077 4119 4035 4078 4077 3992 4078 3993 4079 4079 3994 4080 4080 4036 4120 4036 4081 4120 4081 3996 4121 3996 4082 4121 4046 4037 4122 4123 4038 4039 4084 4083 3999 4123 4039 4083 4124 4040 4041 4040 4125 4084 4085 4002 4086 4085 4124 4041 4087 4086 4003 4087 4004 4088 4089 4088 4005 4089 4006 4090 4007 4091 4090 4092 4091 4008 4093 4092 4009 4126 4093 4042 4126 4042 4094 4094 4011 4095 4095 4012 4096 4096 4013 4097 4097 4043 4127 4098 4015 4099 4127 4043 4098 4016 4100 4099 4017 4101 4100 4102 4101 4018 4103 4102 4019 4104 4103 4020 4128 4104 4044 4128 4044 4105 4106 4105 4022 4107 4106 4023 4024 4108 4107 4109 4108 4025 4109 4026 4110 4045 4129 4110 4129 4045 4111 4028 4112 4111 4130 4112 4046 4122 4037 4047 4047 4113 4131 4048 4049 4132 4113 4048 4132 4049 4050 4133 4134 4050 4051 4135 4051 4052 4114 4136 4052 4054 4137 4053 4053 4137 4114 4055 4138 4054 4139 4055 4056 4056 4057 4140 4058 4141 4057 4115 4142 4058 4115 4032 4116 4060 4143 4059 4143 4116 4059 4061 4144 4060 4145 4061 4062 4062 4063 4146 4063 4117 4147 4148 4064 4065 4117 4064 4148 4149 4065 4066 4150 4066 4067 4151 4067 4068 4069 4152 4068 4071 4153 4069 4154 4118 4070 4118 4155 4071 4154 4070 4072 4156 4072 4073 4157 4073 4074 4075 4158 4074 4076 4159 4075 4119 4160 4076 4161 4119 4077 4161 4077 4078 4078 4079 4162 4163 4079 4080 4164 4080 4120 4081 4165 4120 4165 4081 4121 4082 4166 4121 4130 4046 4122 4083 4084 4167 4168 4123 4083 4124 4125 4040 4084 4125 4167 4085 4086 4169 4085 4169 4124 4170 4086 4087 4171 4087 4088 4089 4172 4088 4173 4089 4090 4090 4091 4174 4092 4175 4091 4176 4092 4093 4126 4177 4093 4178 4126 4094 4178 4094 4095 4179 4095 4096 4180 4096 4097 4181 4097 4127 4182 4098 4099 4182 4127 4098 4100 4183 4099 4101 4184 4100 4185 4101 4102 4186 4102 4103 4187 4103 4104 4188 4104 4128 4189 4128 4105 4106 4189 4105 4190 4106 4107 4108 4191 4107 4192 4108 4109 4109 4110 4193 4129 4194 4110 4195 4129 4111 4112 4195 4111 4130 4196 4112 4122 4047 4131 4113 4197 4131 4049 4133 4132 4197 4113 4132 4133 4050 4134 4135 4134 4051 4136 4135 4052 4114 4198 4136 4054 4138 4137 4114 4137 4198 4139 4138 4055 4139 4056 4140 4057 4141 4140 4142 4141 4058 4115 4199 4142 4115 4116 4199 4144 4143 4060 4200 4116 4143 4145 4144 4061 4145 4062 4146 4063 4147 4146 4147 4117 4201 4148 4065 4149 4117 4148 4201 4149 4066 4150 4151 4150 4067 4152 4151 4068 4069 4153 4152 4071 4155 4153 4202 4118 4154 4202 4155 4118 4154 4072 4156 4157 4156 4073 4158 4157 4074 4075 4159 4158 4076 4160 4159 4119 4203 4160 4161 4203 4119 4161 4078 4162 4162 4079 4163 4164 4163 4080 4165 4164 4120 4166 4165 4121 4204 4130 4122 4168 4083 4167 4205 4125 4124 4125 4206 4167 4169 4086 4170 4169 4207 4124 4170 4087 4171 4172 4171 4088 4173 4172 4089 4173 4090 4174 4091 4175 4174 4176 4175 4092 4177 4176 4093 4208 4177 4126 4208 4126 4178 4179 4178 4095 4180 4179 4096 4181 4180 4097 4209 4181 4127 4183 4182 4099 4182 4209 4127 4184 4183 4100 4185 4184 4101 4185 4102 4186 4186 4103 4187 4187 4104 4188 4188 4128 4210 4210 4128 4189 4190 4189 4106 4191 4190 4107 4192 4191 4108 4192 4109 4193 4110 4194 4193 4129 4211 4194 4195 4211 4129 4112 4196 4195 4212 4196 4130 4204 4122 4131 4197 4213 4131 4133 4214 4132 4214 4197 4132 4133 4134 4215 4216 4134 4135 4135 4136 4217 4136 4198 4218 4137 4138 4219 4198 4137 4219 4139 4220 4138 4221 4139 4140 4141 4222 4140 4142 4223 4141 4142 4199 4224 4199 4116 4200 4225 4143 4144 4200 4143 4225 4226 4144 4145 4145 4146 4227 4146 4147 4228 4147 4201 4229 4148 4149 4230 4148 4230 4201 4231 4149 4150 4232 4150 4151 4152 4233 4151 4152 4153 4234 4155 4235 4153 4202 4154 4236 4237 4155 4202 4236 4154 4156 4157 4238 4156 4158 4239 4157 4158 4159 4240 4159 4160 4241 4203 4242 4160 4243 4203 4161 4243 4161 4162 4244 4162 4163 4163 4164 4245 4165 4246 4164 4166 4247 4165 4212 4130 4204 4248 4168 4167 4205 4206 4125 4207 4205 4124 4206 4248 4167 4169 4170 4249 4169 4249 4207 4250 4170 4171 4172 4251 4171 4252 4172 4173 4173 4174 4253 4175 4254 4174 4255 4175 4176 4256 4176 4177 4257 4177 4208 4258 4208 4178 4179 4258 4178 4259 4179 4180 4181 4260 4180 4261 4181 4209 4183 4262 4182 4182 4262 4209 4263 4183 4184 4264 4184 4185 4185 4186 4265 4186 4187 4266 4187 4188 4267 4188 4210 4268 4210 4189 4269 4269 4189 4190 4270 4190 4191 4271 4191 4192 4272 4192 4193 4193 4194 4273 4194 4211 4274 4195 4275 4211 4195 4196 4275 4212 4276 4196 4213 4204 4131 4197 4277 4213 4133 4215 4214 4214 4277 4197 4215 4134 4216 4216 4135 4217 4217 4136 4218 4198 4278 4218 4138 4220 4219 4198 4219 4278 4221 4220 4139 4222 4221 4140 4141 4223 4222 4142 4224 4223 4224 4199 4279 4199 4200 4279 4225 4144 4226 4200 4225 4280 4226 4145 4227 4227 4146 4228 4228 4147 4229 4201 4281 4229 4230 4149 4231 4230 4281 4201 4232 4231 4150 4233 4232 4151 4152 4234 4233 4153 4235 4234 4237 4235 4155 4202 4236 4282 4237 4202 4282 4238 4236 4156 4157 4239 4238 4158 4240 4239 4240 4159 4241 4160 4242 4241 4283 4242 4203 4283 4203 4243 4244 4243 4162 4284 4244 4163 4164 4246 4245 4284 4163 4245 4165 4247 4246 4212 4204 4285 4286 4206 4205 4205 4207 4287 4288 4248 4206 4249 4170 4250 4207 4249 4289 4251 4250 4171 4252 4251 4172 4252 4173 4253 4174 4254 4253 4255 4254 4175 4255 4176 4256 4256 4177 4257 4257 4208 4290 4290 4208 4258 4259 4258 4179 4260 4259 4180 4261 4260 4181 4291 4261 4209 4263 4262 4183 4262 4291 4209 4263 4184 4264 4264 4185 4265 4186 4266 4265 4266 4187 4267 4188 4268 4267 4268 4210 4292 4210 4269 4292 4269 4190 4270 4270 4191 4271 4271 4192 4272 4272 4193 4273 4273 4194 4274 4211 4293 4274 4275 4293 4211 4196 4276 4275 4294 4276 4212 4285 4204 4213 4277 4295 4213 4215 4296 4214 4296 4277 4214 4215 4216 4297 4298 4216 4217 4299 4217 4218 4218 4278 4300 4220 4301 4219 4219 4301 4278 4221 4302 4220 4303 4221 4222 4223 4304 4222 4223 4224 4305 4224 4279 4306 4200 4280 4279 4225 4226 4307 4225 4307 4280 4308 4226 4227 4309 4227 4228 4310 4228 4229 4229 4281 4311 4230 4231 4312 4230 4312 4281 4313 4231 4232 4232 4233 4314 4234 4315 4233 4235 4316 4234 4317 4235 4237 4282 4236 4318 4319 4237 4282 4236 4238 4318 4239 4320 4238 4239 4240 4321 4322 4240 4241 4242 4323 4241 4324 4242 4283 4283 4243 4325 4325 4243 4244 4326 4244 4284 4246 4327 4245 4327 4284 4245 4247 4328 4246 4294 4212 4285 4288 4206 4286 4286 4205 4287 4287 4207 4289 4249 4250 4329 4249 4329 4289 4330 4250 4251 4331 4251 4252 4332 4252 4253 4254 4333 4253 4334 4254 4255 4255 4256 4335 4256 4257 4336 4257 4290 4337 4290 4258 4338 4338 4258 4259 4339 4259 4260 4340 4260 4261 4341 4261 4291 4342 4262 4263 4342 4291 4262 4263 4264 4343 4264 4265 4344 4266 4345 4265 4266 4267 4346 4268 4347 4267 4348 4268 4292 4269 4349 4292 4269 4270 4349 4270 4271 4350 4271 4272 4351 4352 4272 4273 4353 4273 4274 4293 4354 4274 4355 4293 4275 4276 4355 4275 4294 4356 4276 4295 4285 4213 4277 4357 4295 4215 4297 4296 4296 4357 4277 4297 4216 4298 4299 4298 4217 4299 4218 4300 4300 4278 4358 4220 4302 4301 4278 4301 4358 4303 4302 4221 4304 4303 4222 4223 4305 4304 4305 4224 4306 4279 4359 4306 4280 4359 4279 4307 4226 4308 4307 4360 4280 4309 4308 4227 4310 4309 4228 4310 4229 4311 4311 4281 4361 4312 4231 4313 4281 4312 4361 4313 4232 4314 4233 4315 4314 4316 4315 4234 4317 4316 4235 4317 4237 4319 4362 4282 4318 4362 4319 4282 4238 4320 4318 4320 4239 4321 4240 4322 4321 4323 4322 4241 4324 4323 4242 4324 4283 4363 4283 4325 4363 4325 4244 4326 4326 4284 4364 4328 4327 4246 4284 4327 4364 4365 4294 4285 4366 4288 4286 4367 4286 4287 4287 4289 4368 4329 4250 4330 4329 4369 4289 4330 4251 4331 4332 4331 4252 4333 4332 4253 4334 4333 4254 4334 4255 4335 4256 4336 4335 4257 4337 4336 4337 4290 4370 4290 4338 4370 4338 4259 4339 4339 4260 4340 4340 4261 4341 4341 4291 4371 4342 4263 4343 4371 4291 4342 4343 4264 4344 4265 4345 4344 4266 4346 4345 4267 4347 4346 4268 4348 4347 4372 4348 4292 4349 4372 4292 4349 4270 4350 4271 4351 4350 4351 4272 4352 4353 4352 4273 4354 4353 4274 4293 4373 4354 4355 4373 4293 4276 4356 4355 4374 4356 4294 4295 4365 4285 4295 4357 4375 4296 4297 4376 4296 4376 4357 4297 4298 4377 4378 4298 4299 4379 4299 4300 4380 4300 4358 4301 4302 4381 4301 4381 4358 4303 4382 4302 4304 4383 4303 4304 4305 4384 4385 4305 4306 4306 4359 4386 4280 4360 4359 4307 4308 4387 4307 4387 4360 4388 4308 4309 4310 4389 4309 4390 4310 4311 4391 4311 4361 4312 4313 4392 4312 4392 4361 4393 4313 4314 4315 4394 4314 4316 4395 4315 4396 4316 4317 4397 4317 4319 4398 4362 4318 4319 4362 4399 4320 4398 4318 4400 4320 4321 4321 4322 4401 4323 4402 4322 4403 4323 4324 4404 4324 4363 4325 4405 4363 4325 4326 4405 4406 4326 4364 4328 4407 4327 4327 4408 4364 4374 4294 4365 4367 4366 4286 4367 4287 4368 4289 4369 4368 4329 4330 4409 4329 4409 4369 4330 4331 4410 4331 4332 4411 4333 4412 4332 4413 4333 4334 4414 4334 4335 4336 4415 4335 4337 4416 4336 4417 4337 4370 4338 4418 4370 4338 4339 4418 4339 4340 4419 4340 4341 4420 4341 4371 4421 4342 4343 4422 4371 4342 4422 4423 4343 4344 4344 4345 4424 4345 4346 4425 4346 4347 4426 4348 4427 4347 4372 4428 4348 4372 4349 4429 4429 4349 4350 4351 4430 4350 4351 4352 4431 4432 4352 4353 4353 4354 4433 4354 4373 4434 4355 4435 4373 4355 4356 4435 4374 4436 4356 4365 4295 4375 4357 4437 4375 4297 4377 4376 4376 4437 4357 4377 4298 4378 4378 4299 4379 4380 4379 4300 4380 4358 4438 4302 4382 4381 4358 4381 4438 4303 4383 4382 4304 4384 4383 4384 4305 4385 4385 4306 4386 4386 4359 4439 4359 4360 4439 4387 4308 4388 4360 4387 4440 4389 4388 4309 4390 4389 4310 4391 4390 4311 4391 4361 4441 4392 4313 4393 4361 4392 4441 4394 4393 4314 4315 4395 4394 4396 4395 4316 4396 4317 4397 4397 4319 4399 4398 4442 4362 4362 4442 4399 4400 4398 4320 4400 4321 4401 4322 4402 4401 4403 4402 4323 4403 4324 4404 4404 4363 4443 4363 4405 4443 4405 4326 4406 4408 4406 4364 4407 4408 4327 4374 4365 4444 4445 4366 4367 4446 4367 4368 4369 4446 4368 4409 4330 4410 4369 4409 4447 4331 4411 4410 4332 4412 4411 4413 4412 4333 4413 4334 4414 4415 4414 4335 4416 4415 4336 4416 4337 4417 4448 4417 4370 4418 4448 4370 4418 4339 4419 4340 4420 4419 4341 4421 4420 4421 4371 4449 4422 4343 4423 4449 4371 4422 4423 4344 4424 4345 4425 4424 4425 4346 4426 4347 4427 4426 4428 4427 4348 4450 4428 4372 4450 4372 4429 4430 4429 4350 4351 4431 4430 4431 4352 4432 4432 4353 4433 4433 4354 4434 4373 4451 4434 4435 4451 4373 4356 4436 4435 4452 4436 4374 4365 4375 4444 4437 4453 4375 4377 4454 4376 4454 4437 4376 4377 4378 4455 4456 4378 4379 4380 4457 4379 4458 4380 4438 4381 4382 4459 4438 4381 4459 4382 4383 4460 4383 4384 4461 4384 4385 4462 4385 4386 4463 4464 4386 4439 4360 4440 4439 4387 4388 4465 4387 4465 4440 4466 4388 4389 4467 4389 4390 4468 4390 4391 4469 4391 4441 4392 4393 4470 4441 4392 4470 4393 4394 4471 4395 4472 4394 4473 4395 4396 4396 4397 4474 4475 4397 4399 4476 4442 4398 4442 4477 4399 4476 4398 4400 4478 4400 4401 4402 4479 4401 4480 4402 4403 4403 4404 4481 4482 4404 4443 4405 4483 4443 4483 4405 4406 4408 4484 4406 4407 4485 4408 4452 4374 4444 4445 4367 4486 4367 4446 4486 4369 4447 4446 4487 4409 4410 4447 4409 4487 4411 4488 4410 4412 4489 4411 4490 4412 4413 4491 4413 4414 4415 4492 4414 4416 4493 4415 4494 4416 4417 4495 4417 4448 4448 4418 4496 4418 4419 4496 4420 4497 4419 4421 4498 4420 4421 4449 4499 4500 4422 4423 4449 4422 4500 4501 4423 4424 4425 4502 4424 4503 4425 4426 4427 4504 4426 4428 4505 4427 4450 4506 4428 4507 4450 4429 4430 4507 4429 4430 4431 4508 4431 4432 4509 4510 4432 4433 4511 4433 4434 4451 4512 4434 4513 4451 4435 4436 4513 4435 4452 4514 4436 4375 4453 4444 4437 4515 4453 4377 4455 4454 4454 4515 4437 4455 4378 4456 4457 4456 4379 4458 4457 4380 4516 4458 4438 4382 4460 4459 4516 4438 4459 4383 4461 4460 4461 4384 4462 4462 4385 4463 4386 4464 4463 4517 4464 4439 4440 4517 4439 4465 4388 4466 4465 4518 4440 4466 4389 4467 4467 4390 4468 4468 4391 4469 4469 4441 4519 4393 4471 4470 4519 4441 4470 4394 4472 4471 4473 4472 4395 4473 4396 4474 4474 4397 4475 4477 4475 4399 4476 4520 4442 4442 4520 4477 4476 4400 4478 4479 4478 4401 4480 4479 4402 4480 4403 4481 4481 4404 4521 4404 4482 4521 4483 4482 4443 4484 4483 4406 4408 4485 4484 4522 4452 4444 4523 4445 4486 4446 4524 4486 4446 4447 4524 4488 4487 4410 4525 4447 4487 4489 4488 4411 4490 4489 4412 4490 4413 4491 4492 4491 4414 4415 4493 4492 4494 4493 4416 4495 4494 4417 4495 4448 4526 4526 4448 4496 4419 4497 4496 4498 4497 4420 4421 4499 4498 4499 4449 4527 4501 4500 4423 4527 4449 4500 4502 4501 4424 4425 4503 4502 4504 4503 4426 4427 4505 4504 4428 4506 4505 4528 4506 4450 4528 4450 4507 4507 4430 4508 4431 4509 4508 4509 4432 4510 4511 4510 4433 4512 4511 4434 4451 4529 4512 4513 4529 4451 4436 4514 4513 4452 4530 4514 4453 4522 4444 4453 4515 4531 4455 4532 4454 4532 4515 4454 4455 4456 4533 4534 4456 4457 4535 4457 4458 4536 4458 4516 4460 4537 4459 4537 4516 4459 4460 4461 4538 4539 4461 4462 4540 4462 4463 4464 4541 4463 4542 4464 4517 4440 4518 4517 4465 4466 4543 4465 4543 4518 4466 4467 4544 4467 4468 4545 4468 4469 4546 4547 4469 4519 4471 4548 4470 4548 4519 4470 4472 4549 4471 4550 4472 4473 4551 4473 4474 4552 4474 4475 4477 4553 4475 4554 4520 4476 4520 4555 4477 4554 4476 4478 4479 4556 4478 4557 4479 4480 4558 4480 4481 4559 4481 4521 4482 4560 4521 4483 4561 4482 4562 4483 4484 4485 4563 4484 4522 4530 4452 4524 4523 4486 4447 4525 4524 4487 4488 4564 4525 4487 4564 4489 4565 4488 4566 4489 4490 4490 4491 4567 4568 4491 4492 4493 4569 4492 4494 4570 4493 4495 4571 4494 4572 4495 4526 4573 4526 4496 4497 4573 4496 4498 4574 4497 4499 4575 4498 4499 4527 4576 4501 4577 4500 4577 4527 4500 4578 4501 4502 4503 4579 4502 4580 4503 4504 4504 4505 4581 4505 4506 4582 4528 4583 4506 4528 4507 4584 4507 4508 4584 4509 4585 4508 4509 4510 4586 4587 4510 4511 4511 4512 4588 4529 4589 4512 4513 4590 4529 4513 4514 4590 4514 4530 4591 4522 4453 4531 4515 4592 4531 4455 4533 4532 4532 4592 4515 4533 4456 4534 4534 4457 4535 4535 4458 4536 4536 4516 4593 4537 4460 4538 4593 4516 4537 4538 4461 4539 4540 4539 4462 4541 4540 4463 4542 4541 4464 4594 4542 4517 4518 4594 4517 4543 4466 4544 4518 4543 4595 4467 4545 4544 4545 4468 4546 4469 4547 4546 4596 4547 4519 4549 4548 4471 4548 4596 4519 4550 4549 4472 4550 4473 4551 4551 4474 4552 4553 4552 4475 4555 4553 4477 4554 4597 4520 4520 4597 4555 4556 4554 4478 4557 4556 4479 4557 4480 4558 4558 4481 4559 4560 4559 4521 4482 4561 4560 4562 4561 4483 4563 4562 4484 4598 4530 4522 4599 4523 4524 4525 4600 4524 4488 4565 4564 4601 4525 4564 4566 4565 4489 4566 4490 4567 4491 4568 4567 4569 4568 4492 4493 4570 4569 4494 4571 4570 4572 4571 4495 4602 4572 4526 4573 4602 4526 4497 4574 4573 4498 4575 4574 4499 4576 4575 4576 4527 4603 4578 4577 4501 4603 4527 4577 4579 4578 4502 4580 4579 4503 4580 4504 4581 4505 4582 4581 4506 4583 4582 4604 4583 4528 4604 4528 4584 4508 4585 4584 4509 4586 4585 4586 4510 4587 4587 4511 4588 4512 4589 4588 4529 4605 4589 4529 4590 4605 4590 4514 4591 4530 4606 4591 4598 4522 4531 4592 4607 4531 4532 4533 4608 4532 4608 4592 4533 4534 4609 4534 4535 4610 4535 4536 4611 4536 4593 4612 4613 4537 4538 4593 4537 4613 4614 4538 4539 4540 4615 4539 4616 4540 4541 4541 4542 4617 4594 4618 4542 4518 4595 4594 4619 4543 4544 4595 4543 4619 4544 4545 4620 4621 4545 4546 4547 4622 4546 4596 4623 4547 4549 4624 4548 4548 4624 4596 4625 4549 4550 4550 4551 4626 4627 4551 4552 4553 4628 4552 4555 4629 4553 4554 4630 4597 4555 4597 4631 4556 4630 4554 4632 4556 4557 4557 4558 4633 4634 4558 4559 4559 4560 4635 4560 4561 4636 4562 4637 4561 4563 4638 4562 4598 4606 4530 4600 4599 4524 4601 4600 4525 4565 4639 4564 4639 4601 4564 4640 4565 4566 4641 4566 4567 4568 4642 4567 4569 4643 4568 4569 4570 4644 4570 4571 4645 4572 4646 4571 4602 4647 4572 4602 4573 4648 4573 4574 4648 4574 4575 4649 4575 4576 4650 4576 4603 4651 4652 4577 4578 4603 4577 4652 4653 4578 4579 4654 4579 4580 4655 4580 4581 4582 4656 4581 4582 4583 4657 4604 4658 4583 4604 4584 4659 4584 4585 4659 4585 4586 4660 4586 4587 4661 4662 4587 4588 4588 4589 4663 4589 4605 4664 4605 4590 4665 4665 4590 4591 4591 4606 4666 4607 4598 4531 4592 4667 4607 4608 4533 4609 4592 4608 4667 4534 4610 4609 4610 4535 4611 4611 4536 4612 4612 4593 4668 4614 4613 4538 4593 4613 4668 4615 4614 4539 4616 4615 4540 4616 4541 4617 4542 4618 4617 4594 4669 4618 4594 4595 4669 4619 4544 4620 4595 4619 4670 4620 4545 4621 4622 4621 4546 4623 4622 4547 4671 4623 4596 4625 4624 4549 4624 4671 4596 4625 4550 4626 4626 4551 4627 4628 4627 4552 4629 4628 4553 4555 4631 4629 4597 4630 4672 4631 4597 4672 4632 4630 4556 4632 4557 4633 4633 4558 4634 4673 4634 4559 4560 4636 4635 4673 4559 4635 4561 4637 4636 4562 4638 4637 4598 4674 4606 4675 4599 4600 4600 4601 4676 4640 4639 4565 4639 4677 4601 4640 4566 4641 4642 4641 4567 4568 4643 4642 4569 4644 4643 4644 4570 4645 4571 4646 4645 4572 4647 4646 4678 4647 4602 4678 4602 4648 4574 4649 4648 4649 4575 4650 4576 4651 4650 4651 4603 4679 4652 4578 4653 4603 4652 4679 4653 4579 4654 4654 4580 4655 4656 4655 4581 4582 4657 4656 4583 4658 4657 4680 4658 4604 4680 4604 4659 4585 4660 4659 4586 4661 4660 4661 4587 4662 4662 4588 4663 4663 4589 4664 4605 4681 4664 4605 4665 4681 4665 4591 4666 4666 4606 4682 4607 4674 4598 4607 4667 4683 4684 4608 4609 4667 4608 4684 4609 4610 4685 4686 4610 4611 4687 4611 4612 4688 4612 4668 4613 4614 4689 4668 4613 4689 4615 4690 4614 4691 4615 4616 4692 4616 4617 4618 4693 4617 4618 4669 4694 4669 4595 4670 4695 4619 4620 4670 4619 4695 4696 4620 4621 4622 4697 4621 4698 4622 4623 4671 4699 4623 4700 4624 4625 4700 4671 4624 4701 4625 4626 4702 4626 4627 4628 4703 4627 4704 4628 4629 4629 4631 4705 4630 4706 4672 4707 4631 4672 4632 4706 4630 4708 4632 4633 4709 4633 4634 4673 4710 4634 4636 4711 4635 4711 4673 4635 4637 4712 4636 4638 4713 4637 4606 4674 4682 4675 4600 4676 4601 4677 4676 4714 4639 4640 4714 4677 4639 4640 4641 4715 4641 4642 4716 4643 4717 4642 4643 4644 4718 4719 4644 4645 4645 4646 4720 4646 4647 4721 4678 4722 4647 4723 4678 4648 4649 4723 4648 4649 4650 4724 4650 4651 4725 4726 4651 4679 4652 4653 4727 4652 4727 4679 4653 4654 4728 4654 4655 4729 4730 4655 4656 4657 4731 4656 4658 4732 4657 4733 4658 4680 4734 4680 4659 4660 4734 4659 4661 4735 4660 4661 4662 4736 4737 4662 4663 4738 4663 4664 4681 4739 4664 4681 4665 4740 4740 4665 4666 4741 4666 4682 4607 4683 4674 4683 4667 4742 4684 4609 4685 4667 4684 4742 4685 4610 4686 4687 4686 4611 4688 4687 4612 4743 4688 4668 4614 4690 4689 4743 4668 4689 4691 4690 4615 4692 4691 4616 4693 4692 4617 4618 4694 4693 4694 4669 4744 4744 4669 4670 4696 4695 4620 4745 4670 4695 4697 4696 4621 4698 4697 4622 4699 4698 4623 4746 4699 4671 4700 4625 4701 4746 4671 4700 4701 4626 4702 4703 4702 4627 4704 4703 4628 4704 4629 4705 4631 4707 4705 4706 4747 4672 4747 4707 4672 4708 4706 4632 4709 4708 4633 4710 4709 4634 4748 4710 4673 4636 4712 4711 4748 4673 4711 4713 4712 4637 4674 4749 4682 4750 4675 4676 4677 4751 4676 4714 4640 4715 4752 4677 4714 4715 4641 4716 4642 4717 4716 4717 4643 4718 4718 4644 4719 4719 4645 4720 4646 4721 4720 4647 4722 4721 4753 4722 4678 4753 4678 4723 4723 4649 4724 4724 4650 4725 4651 4726 4725 4754 4726 4679 4727 4653 4728 4727 4754 4679 4654 4729 4728 4655 4730 4729 4731 4730 4656 4657 4732 4731 4733 4732 4658 4733 4680 4755 4755 4680 4734 4735 4734 4660 4661 4736 4735 4736 4662 4737 4738 4737 4663 4739 4738 4664 4681 4756 4739 4681 4740 4756 4741 4740 4666 4757 4741 4682 4674 4683 4749 4758 4683 4742 4759 4684 4685 4742 4684 4759 4760 4685 4686 4687 4761 4686 4688 4762 4687 4763 4688 4743 4690 4764 4689 4764 4743 4689 4765 4690 4691 4691 4692 4766 4693 4767 4692 4693 4694 4768 4694 4744 4769 4744 4670 4745 4696 4770 4695 4770 4745 4695 4771 4696 4697 4698 4772 4697 4699 4773 4698 4774 4699 4746 4700 4701 4775 4746 4700 4775 4776 4701 4702 4703 4777 4702 4778 4703 4704 4779 4704 4705 4707 4780 4705 4781 4747 4706 4747 4782 4707 4781 4706 4708 4783 4708 4709 4784 4709 4710 4785 4710 4748 4712 4786 4711 4786 4748 4711 4713 4787 4712 4749 4757 4682 4751 4750 4676 4752 4751 4677 4788 4714 4715 4752 4714 4788 4789 4715 4716 4717 4790 4716 4791 4717 4718 4718 4719 4792 4793 4719 4720 4721 4794 4720 4721 4722 4795 4753 4796 4722 4753 4723 4797 4723 4724 4797 4798 4724 4725 4726 4799 4725 4754 4800 4726 4801 4727 4728 4754 4727 4801 4729 4802 4728 4730 4803 4729 4804 4730 4731 4732 4805 4731 4806 4732 4733 4733 4755 4807 4755 4734 4808 4808 4734 4735 4736 4809 4735 4736 4737 4810 4811 4737 4738 4738 4739 4812 4739 4756 4813 4756 4740 4814 4814 4740 4741 4757 4815 4741 4749 4683 4758 4758 4742 4816 4760 4759 4685 4816 4742 4759 4761 4760 4686 4687 4762 4761 4763 4762 4688 4817 4763 4743 4765 4764 4690 4764 4817 4743 4765 4691 4766 4692 4767 4766 4693 4768 4767 4768 4694 4769 4769 4744 4818 4818 4744 4745 4771 4770 4696 4770 4819 4745 4772 4771 4697 4698 4773 4772 4774 4773 4699 4774 4746 4820 4775 4701 4776 4820 4746 4775 4777 4776 4702 4778 4777 4703 4778 4704 4779 4780 4779 4705 4782 4780 4707 4821 4747 4781 4821 4782 4747 4781 4708 4783 4783 4709 4784 4784 4710 4785 4785 4748 4822 4712 4787 4786 4822 4748 4786 4749 4823 4757 4824 4750 4751 4825 4751 4752 4789 4788 4715 4752 4788 4826 4790 4789 4716 4791 4790 4717 4791 4718 4792 4719 4793 4792 4794 4793 4720 4794 4721 4795 4722 4796 4795 4827 4796 4753 4827 4753 4797 4724 4798 4797 4799 4798 4725 4726 4800 4799 4828 4800 4754 4802 4801 4728 4828 4754 4801 4803 4802 4729 4804 4803 4730 4805 4804 4731 4806 4805 4732 4806 4733 4807 4807 4755 4829 4755 4808 4829 4809 4808 4735 4736 4810 4809 4810 4737 4811 4811 4738 4812 4739 4813 4812 4813 4756 4830 4756 4814 4830 4815 4814 4741 4815 4757 4831 4749 4758 4823 4832 4758 4816 4760 4833 4759 4833 4816 4759 4834 4760 4761 4762 4835 4761 4763 4836 4762 4837 4763 4817 4838 4764 4765 4838 4817 4764 4765 4766 4839 4766 4767 4840 4767 4768 4841 4842 4768 4769 4843 4769 4818 4819 4818 4745 4771 4844 4770 4770 4844 4819 4772 4845 4771 4773 4846 4772 4847 4773 4774 4774 4820 4848 4849 4775 4776 4820 4775 4849 4777 4850 4776 4851 4777 4778 4778 4779 4852 4779 4780 4853 4782 4854 4780 4821 4781 4855 4856 4782 4821 4781 4783 4855 4783 4784 4857 4784 4785 4858 4785 4822 4859 4787 4860 4786 4822 4786 4861 4757 4823 4831 4824 4751 4825 4825 4752 4826 4862 4788 4789 4826 4788 4862 4789 4790 4863 4791 4864 4790 4865 4791 4792 4793 4866 4792 4867 4793 4794 4794 4795 4868 4796 4869 4795 4827 4870 4796 4871 4827 4797 4798 4871 4797 4872 4798 4799 4799 4800 4873 4828 4874 4800 4802 4875 4801 4875 4828 4801 4803 4876 4802 4877 4803 4804 4878 4804 4805 4879 4805 4806 4880 4806 4807 4881 4807 4829 4829 4808 4882 4808 4809 4882 4809 4810 4883 4810 4811 4884 4885 4811 4812 4812 4813 4886 4813 4830 4887 4814 4888 4830 4888 4814 4815 4889 4815 4831 4823 4758 4832 4890 4832 4816 4834 4833 4760 4833 4890 4816 4835 4834 4761 4762 4836 4835 4837 4836 4763 4837 4817 4891 4838 4765 4839 4891 4817 4838 4839 4766 4840 4767 4841 4840 4841 4768 4842 4843 4842 4769 4892 4843 4818 4819 4892 4818 4771 4845 4844 4819 4844 4893 4846 4845 4772 4847 4846 4773 4847 4774 4848 4848 4820 4894 4850 4849 4776 4894 4820 4849 4851 4850 4777 4851 4778 4852 4852 4779 4853 4780 4854 4853 4856 4854 4782 4895 4821 4855 4856 4821 4895 4783 4857 4855 4857 4784 4858 4858 4785 4859 4859 4822 4861 4786 4860 4861 4823 4896 4831 4897 4824 4825 4898 4825 4826 4862 4789 4863 4826 4862 4899 4790 4864 4863 4865 4864 4791 4866 4865 4792 4867 4866 4793 4867 4794 4868 4795 4869 4868 4796 4870 4869 4900 4870 4827 4900 4827 4871 4872 4871 4798 4872 4799 4873 4800 4874 4873 4901 4874 4828 4802 4876 4875 4901 4828 4875 4877 4876 4803 4877 4804 4878 4878 4805 4879 4879 4806 4880 4881 4880 4807 4881 4829 4902 4829 4882 4902 4809 4883 4882 4810 4884 4883 4884 4811 4885 4885 4812 4886 4886 4813 4887 4830 4903 4887 4830 4888 4903 4889 4888 4815 4904 4889 4831 4823 4832 4896 4905 4832 4890 4906 4833 4834 4906 4890 4833 4834 4835 4907 4836 4908 4835 4909 4836 4837 4837 4891 4910 4911 4838 4839 4891 4838 4911 4912 4839 4840 4841 4913 4840 4841 4842 4914 4915 4842 4843 4916 4843 4892 4892 4819 4893 4844 4845 4917 4844 4917 4893 4846 4918 4845 4919 4846 4847 4920 4847 4848 4921 4848 4894 4850 4922 4849 4922 4894 4849 4851 4923 4850 4924 4851 4852 4925 4852 4853 4854 4926 4853 4927 4854 4856 4895 4855 4928 4856 4895 4929 4855 4857 4928 4930 4857 4858 4931 4858 4859 4932 4859 4861 4860 4933 4861 4896 4904 4831 4898 4897 4825 4898 4826 4899 4934 4862 4863 4862 4934 4899 4864 4935 4863 4865 4936 4864 4866 4937 4865 4867 4938 4866 4939 4867 4868 4869 4940 4868 4870 4941 4869 4942 4870 4900 4900 4871 4943 4943 4871 4872 4944 4872 4873 4874 4945 4873 4901 4946 4874 4876 4947 4875 4947 4901 4875 4948 4876 4877 4877 4878 4949 4878 4879 4950 4879 4880 4951 4952 4880 4881 4953 4881 4902 4882 4954 4902 4883 4954 4882 4884 4955 4883 4884 4885 4956 4957 4885 4886 4958 4886 4887 4903 4959 4887 4888 4960 4903 4889 4960 4888 4904 4961 4889 4896 4832 4905 4905 4890 4962 4906 4834 4907 4962 4890 4906 4835 4908 4907 4909 4908 4836 4909 4837 4910 4891 4963 4910 4912 4911 4839 4891 4911 4963 4913 4912 4840 4841 4914 4913 4914 4842 4915 4915 4843 4916 4916 4892 4964 4892 4893 4964 4845 4918 4917 4917 4965 4893 4919 4918 4846 4919 4847 4920 4920 4848 4921 4966 4921 4894 4850 4923 4922 4922 4966 4894 4924 4923 4851 4925 4924 4852 4926 4925 4853 4927 4926 4854 4927 4856 4929 4967 4895 4928 4929 4895 4967 4928 4857 4930 4931 4930 4858 4932 4931 4859 4933 4932 4861 4896 4968 4904 4969 4897 4898 4970 4898 4899 4935 4934 4863 4934 4971 4899 4864 4936 4935 4865 4937 4936 4866 4938 4937 4939 4938 4867 4940 4939 4868 4941 4940 4869 4942 4941 4870 4942 4900 4972 4900 4943 4972 4943 4872 4944 4945 4944 4873 4874 4946 4945 4901 4973 4946 4948 4947 4876 4947 4973 4901 4948 4877 4949 4949 4878 4950 4879 4951 4950 4951 4880 4952 4952 4881 4953 4974 4953 4902 4954 4974 4902 4955 4954 4883 4884 4956 4955 4956 4885 4957 4958 4957 4886 4959 4958 4887 4903 4975 4959 4960 4975 4903 4889 4961 4960 4904 4976 4961 4896 4905 4968 4905 4962 4977 4978 4906 4907 4962 4906 4978 4908 4979 4907 4909 4980 4908 4981 4909 4910 4910 4963 4982 4983 4911 4912 4963 4911 4983 4912 4913 4984 4913 4914 4985 4914 4915 4986 4915 4916 4987 4988 4916 4964 4893 4965 4964 4918 4989 4917 4917 4989 4965 4990 4918 4919 4919 4920 4991 4992 4920 4921 4966 4993 4921 4922 4923 4994 4922 4994 4966 4924 4995 4923 4996 4924 4925 4926 4997 4925 4998 4926 4927 4999 4927 4929 5000 4967 4928 5001 4929 4967 5000 4928 4930 4931 5002 4930 4932 5003 4931 4933 5004 4932 4904 4968 4976 4969 4898 4970 4971 4970 4899 4935 5005 4934 4934 5005 4971 4935 4936 5006 4936 4937 5007 4937 4938 5008 4939 5009 4938 4940 5010 4939 4941 5011 4940 4942 5012 4941 5013 4942 4972 4972 4943 5014 5014 4943 4944 4945 5015 4944 4945 4946 5016 4946 4973 5017 5018 4947 4948 5018 4973 4947 5019 4948 4949 5020 4949 4950 4950 4951 5021 4951 4952 5022 5023 4952 4953 4974 5024 4953 4954 5025 4974 4955 5025 4954 4955 4956 5026 4956 4957 5027 5028 4957 4958 4958 4959 5029 4959 4975 5030 4960 5031 4975 4960 4961 5031 4961 4976 5032 4968 4905 4977 4962 5033 4977 4979 4978 4907 4962 4978 5033 4908 4980 4979 4981 4980 4909 4981 4910 4982 4982 4963 5034 4983 4912 4984 4963 4983 5034 4984 4913 4985 4985 4914 4986 4986 4915 4987 4987 4916 4988 5035 4988 4964 4965 5035 4964 4990 4989 4918 4989 5036 4965 4990 4919 4991 4991 4920 4992 4993 4992 4921 4993 4966 5037 4923 4995 4994 4966 4994 5037 4996 4995 4924 4997 4996 4925 4998 4997 4926 4998 4927 4999 5001 4999 4929 5000 5038 4967 5038 5001 4967 5002 5000 4930 5002 4931 5039 4932 5004 5003 4931 5003 5039 4976 4968 5040 5041 4969 4970 4971 5042 4970 4935 5006 5005 4971 5005 5043 5006 4936 5007 4937 5008 5007 4938 5009 5008 4939 5010 5009 4940 5011 5010 4941 5012 5011 5013 5012 4942 5044 5013 4972 5044 4972 5014 5015 5014 4944 4945 5016 5015 5016 4946 5017 4973 5045 5017 5018 4948 5019 5018 5045 4973 5020 5019 4949 5020 4950 5021 4951 5022 5021 5022 4952 5023 5024 5023 4953 5024 4974 5046 4974 5025 5046 4955 5026 5025 4956 5027 5026 5027 4957 5028 5028 4958 5029 5029 4959 5030 5030 4975 5047 4975 5031 5047 5031 4961 5032 4976 5048 5032 5040 4968 4977 4977 5033 5049 5050 4978 4979 5033 4978 5050 4980 5051 4979 4981 5052 4980 5053 4981 4982 5054 4982 5034 5055 4983 4984 5034 4983 5055 5056 4984 4985 5057 4985 4986 5058 4986 4987 5059 4987 4988 5035 5060 4988 5036 5035 4965 5061 4989 4990 5061 5036 4989 5062 4990 4991 5063 4991 4992 4993 5064 4992 5065 4993 5037 4995 5066 4994 4994 5066 5037 4996 5067 4995 4997 5068 4996 5069 4997 4998 4998 4999 5070 4999 5001 5071 5072 5038 5000 5038 5073 5001 5072 5000 5002 5074 5002 5039 5004 5075 5003 5003 5076 5039 4976 5040 5048 5042 5041 4970 5042 4971 5043 5005 5006 5077 5005 5077 5043 5078 5006 5007 5008 5079 5007 5009 5080 5008 5009 5010 5081 5010 5011 5082 5011 5012 5083 5013 5084 5012 5085 5013 5044 5086 5044 5014 5015 5086 5014 5015 5016 5087 5088 5016 5017 5045 5089 5017 5090 5018 5019 5090 5045 5018 5020 5091 5019 5092 5020 5021 5022 5093 5021 5022 5023 5094 5095 5023 5024 5096 5024 5046 5025 5097 5046 5026 5097 5025 5027 5098 5026 5027 5028 5099 5100 5028 5029 5101 5029 5030 5102 5030 5047 5047 5031 5103 5031 5032 5103 5032 5048 5104 5040 4977 5049 5049 5033 5105 5051 5050 4979 5033 5050 5105 4980 5052 5051 5053 5052 4981 5054 5053 4982 5106 5054 5034 5056 5055 4984 5106 5034 5055 5057 5056 4985 5058 5057 4986 5059 5058 4987 5060 5059 4988 5035 5107 5060 5036 5107 5035 5061 4990 5062 5108 5036 5061 5062 4991 5063 5064 5063 4992 5065 5064 4993 5109 5065 5037 4995 5067 5066 5066 5109 5037 4996 5068 5067 5069 5068 4997 5069 4998 5070 5070 4999 5071 5001 5073 5071 5110 5038 5072 5110 5073 5038 5072 5002 5074 5076 5074 5039 5075 5076 5003 5048 5040 5111 5112 5041 5042 5113 5042 5043 5077 5006 5078 5043 5077 5114 5079 5078 5007 5080 5079 5008 5009 5081 5080 5081 5010 5082 5011 5083 5082 5012 5084 5083 5085 5084 5013 5085 5044 5115 5044 5086 5115 5015 5087 5086 5016 5088 5087 5089 5088 5017 5116 5089 5045 5091 5090 5019 5116 5045 5090 5092 5091 5020 5093 5092 5021 5022 5094 5093 5094 5023 5095 5095 5024 5096 5117 5096 5046 5097 5117 5046 5098 5097 5026 5027 5099 5098 5099 5028 5100 5101 5100 5029 5102 5101 5030 5118 5102 5047 5118 5047 5103 5103 5032 5104 5104 5048 5119 5111 5040 5049 5120 5049 5105 5050 5051 5121 5105 5050 5121 5052 5122 5051 5123 5052 5053 5124 5053 5054 5125 5054 5106 5056 5126 5055 5126 5106 5055 5127 5056 5057 5058 5128 5057 5129 5058 5059 5060 5130 5059 5107 5131 5060 5108 5107 5036 5061 5062 5132 5108 5061 5132 5133 5062 5063 5064 5134 5063 5135 5064 5065 5136 5065 5109 5066 5067 5137 5109 5066 5137 5067 5068 5138 5069 5139 5068 5140 5069 5070 5141 5070 5071 5073 5142 5071 5110 5072 5143 5144 5073 5110 5143 5072 5074 5076 5145 5074 5075 5146 5076 5048 5111 5119 5113 5112 5042 5113 5043 5147 5077 5078 5148 5077 5148 5114 5147 5043 5114 5149 5078 5079 5080 5150 5079 5080 5081 5151 5152 5081 5082 5082 5083 5153 5084 5154 5083 5085 5155 5084 5156 5085 5115 5086 5157 5115 5087 5157 5086 5087 5088 5158 5089 5159 5088 5160 5089 5116 5161 5090 5091 5116 5090 5161 5162 5091 5092 5092 5093 5163 5094 5164 5093 5094 5095 5165 5166 5095 5096 5117 5167 5096 5168 5117 5097 5098 5168 5097 5098 5099 5169 5099 5100 5170 5171 5100 5101 5102 5172 5101 5173 5102 5118 5174 5118 5103 5174 5103 5104 5175 5104 5119 5111 5049 5120 5176 5120 5105 5051 5122 5121 5176 5105 5121 5123 5122 5052 5123 5053 5124 5124 5054 5125 5125 5106 5177 5127 5126 5056 5177 5106 5126 5128 5127 5057 5129 5128 5058 5130 5129 5059 5131 5130 5060 5178 5131 5107 5178 5107 5108 5132 5062 5133 5108 5132 5179 5134 5133 5063 5135 5134 5064 5135 5065 5136 5136 5109 5180 5067 5138 5137 5109 5137 5180 5068 5139 5138 5140 5139 5069 5141 5140 5070 5142 5141 5071 5144 5142 5073 5110 5143 5181 5144 5110 5181 5145 5143 5074 5076 5146 5145 5119 5111 5182 5183 5112 5113 5113 5147 5184 5078 5149 5148 5148 5185 5114 5185 5147 5114 5150 5149 5079 5080 5151 5150 5151 5081 5152 5152 5082 5153 5083 5154 5153 5084 5155 5154 5156 5155 5085 5186 5156 5115 5157 5186 5115 5157 5087 5158 5088 5159 5158 5160 5159 5089 5160 5116 5187 5161 5091 5162 5116 5161 5187 5162 5092 5163 5093 5164 5163 5094 5165 5164 5165 5095 5166 5167 5166 5096 5188 5167 5117 5188 5117 5168 5168 5098 5169 5099 5170 5169 5170 5100 5171 5172 5171 5101 5173 5172 5102 5189 5173 5118 5174 5189 5118 5175 5174 5104 5190 5175 5119 5182 5111 5120 5176 5191 5120 5122 5192 5121 5192 5176 5121 5193 5122 5123 5123 5124 5194 5124 5125 5195 5125 5177 5196 5197 5126 5127 5177 5126 5197 5198 5127 5128 5199 5128 5129 5200 5129 5130 5201 5130 5131 5202 5131 5178 5178 5108 5179 5203 5132 5133 5179 5132 5203 5134 5204 5133 5205 5134 5135 5135 5136 5206 5207 5136 5180 5138 5208 5137 5137 5208 5180 5139 5209 5138 5210 5139 5140 5140 5141 5211 5142 5212 5141 5144 5213 5142 5143 5214 5181 5215 5144 5181 5214 5143 5145 5146 5216 5145 5190 5119 5182 5183 5113 5184 5184 5147 5217 5148 5149 5218 5148 5218 5185 5217 5147 5185 5150 5219 5149 5150 5151 5220 5151 5152 5221 5222 5152 5153 5154 5223 5153 5155 5224 5154 5156 5225 5155 5186 5226 5156 5227 5186 5157 5227 5157 5158 5159 5228 5158 5229 5159 5160 5230 5160 5187 5161 5162 5231 5161 5231 5187 5232 5162 5163 5163 5164 5233 5165 5234 5164 5165 5166 5235 5236 5166 5167 5237 5167 5188 5188 5168 5238 5168 5169 5238 5169 5170 5239 5170 5171 5240 5241 5171 5172 5242 5172 5173 5243 5173 5189 5244 5189 5174 5244 5174 5175 5190 5245 5175 5191 5182 5120 5176 5246 5191 5193 5192 5122 5192 5246 5176 5193 5123 5194 5124 5195 5194 5125 5196 5195 5196 5177 5247 5197 5127 5198 5177 5197 5247 5198 5128 5199 5199 5129 5200 5200 5130 5201 5201 5131 5202 5202 5178 5248 5248 5178 5179 5204 5203 5133 5249 5179 5203 5205 5204 5134 5205 5135 5206 5206 5136 5207 5250 5207 5180 5209 5208 5138 5208 5250 5180 5210 5209 5139 5210 5140 5211 5141 5212 5211 5142 5213 5212 5215 5213 5144 5181 5214 5251 5215 5181 5251 5216 5214 5145 5252 5190 5182 5253 5183 5184 5254 5184 5217 5149 5219 5218 5218 5255 5185 5255 5217 5185 5150 5220 5219 5220 5151 5221 5152 5222 5221 5223 5222 5153 5224 5223 5154 5155 5225 5224 5156 5226 5225 5186 5256 5226 5227 5256 5186 5228 5227 5158 5229 5228 5159 5229 5160 5230 5230 5187 5257 5231 5162 5232 5187 5231 5257 5232 5163 5233 5164 5234 5233 5165 5235 5234 5235 5166 5236 5236 5167 5237 5237 5188 5258 5258 5188 5238 5169 5239 5238 5170 5240 5239 5240 5171 5241 5241 5172 5242 5242 5173 5243 5243 5189 5259 5259 5189 5244 5245 5244 5175 5260 5245 5190 5191 5252 5182 5246 5261 5191 5262 5192 5193 5262 5246 5192 5263 5193 5194 5195 5264 5194 5196 5265 5195 5266 5196 5247 5197 5198 5267 5197 5267 5247 5198 5199 5268 5199 5200 5269 5200 5201 5270 5201 5202 5271 5202 5248 5272 5249 5248 5179 5204 5273 5203 5273 5249 5203 5205 5274 5204 5275 5205 5206 5276 5206 5207 5250 5277 5207 5209 5278 5208 5208 5278 5250 5279 5209 5210 5280 5210 5211 5212 5281 5211 5213 5282 5212 5283 5213 5215 5214 5284 5251 5285 5215 5251 5216 5286 5214 5260 5190 5252 5254 5253 5184 5254 5217 5287 5219 5288 5218 5288 5255 5218 5217 5255 5287 5219 5220 5289 5290 5220 5221 5222 5291 5221 5223 5292 5222 5224 5293 5223 5224 5225 5294 5225 5226 5295 5226 5256 5296 5227 5297 5256 5228 5297 5227 5298 5228 5229 5229 5230 5299 5230 5257 5300 5231 5232 5301 5231 5301 5257 5302 5232 5233 5233 5234 5303 5234 5235 5304 5235 5236 5305 5236 5237 5306 5237 5258 5307 5308 5258 5238 5239 5308 5238 5240 5309 5239 5240 5241 5310 5241 5242 5311 5242 5243 5312 5243 5259 5313 5259 5244 5314 5314 5244 5245 5315 5245 5260 5191 5261 5252 5316 5261 5246 5262 5193 5263 5316 5246 5262 5264 5263 5194 5265 5264 5195 5265 5196 5266 5266 5247 5317 5267 5198 5268 5247 5267 5317 5199 5269 5268 5269 5200 5270 5270 5201 5271 5202 5272 5271 5272 5248 5318 5318 5248 5249 5204 5274 5273 5249 5273 5319 5275 5274 5205 5276 5275 5206 5277 5276 5207 5320 5277 5250 5279 5278 5209 5278 5320 5250 5279 5210 5280 5281 5280 5211 5212 5282 5281 5283 5282 5213 5283 5215 5285 5214 5286 5284 5284 5285 5251 5321 5260 5252 5322 5253 5254 5323 5254 5287 5219 5289 5288 5288 5324 5255 5255 5323 5287 5289 5220 5290 5291 5290 5221 5222 5292 5291 5293 5292 5223 5293 5224 5294 5225 5295 5294 5295 5226 5296 5256 5325 5296 5256 5297 5325 5298 5297 5228 5298 5229 5299 5299 5230 5300 5257 5326 5300 5301 5232 5302 5301 5326 5257 5302 5233 5303 5234 5304 5303 5235 5305 5304 5305 5236 5306 5306 5237 5307 5258 5327 5307 5258 5308 5327 5309 5308 5239 5240 5310 5309 5310 5241 5311 5242 5312 5311 5312 5243 5313 5259 5328 5313 5259 5314 5328 5314 5245 5315 5315 5260 5329 5261 5321 5252 5330 5261 5316 5331 5262 5263 5316 5262 5331 5263 5264 5332 5265 5333 5264 5334 5265 5266 5335 5266 5317 5336 5267 5268 5267 5336 5317 5269 5337 5268 5338 5269 5270 5270 5271 5339 5272 5340 5271 5272 5318 5341 5318 5249 5319 5274 5342 5273 5273 5342 5319 5275 5343 5274 5344 5275 5276 5276 5277 5345 5320 5346 5277 5347 5278 5279 5347 5320 5278 5279 5280 5348 5280 5281 5349 5282 5350 5281 5351 5282 5283 5352 5283 5285 5286 5353 5284 5284 5354 5285 5329 5260 5321 5322 5254 5355 5355 5254 5323 5288 5289 5356 5288 5356 5324 5255 5324 5323 5289 5290 5357 5290 5291 5358 5292 5359 5291 5360 5292 5293 5293 5294 5361 5295 5362 5294 5363 5295 5296 5325 5364 5296 5297 5365 5325 5298 5365 5297 5366 5298 5299 5367 5299 5300 5300 5326 5368 5301 5302 5369 5301 5369 5326 5370 5302 5303 5303 5304 5371 5304 5305 5372 5373 5305 5306 5374 5306 5307 5327 5375 5307 5308 5376 5327 5309 5376 5308 5309 5310 5377 5378 5310 5311 5311 5312 5379 5312 5313 5380 5313 5328 5381 5328 5314 5382 5314 5315 5382 5315 5329 5383 5330 5321 5261 5330 5316 5384 5331 5263 5332 5316 5331 5384 5264 5333 5332 5334 5333 5265 5335 5334 5266 5385 5335 5317 5337 5336 5268 5336 5385 5317 5269 5338 5337 5338 5270 5339 5271 5340 5339 5272 5341 5340 5341 5318 5386 5386 5318 5319 5274 5343 5342 5342 5387 5319 5344 5343 5275 5344 5276 5345 5277 5346 5345 5388 5346 5320 5347 5279 5348 5388 5320 5347 5348 5280 5349 5281 5350 5349 5351 5350 5282 5351 5283 5352 5354 5352 5285 5353 5354 5284 5329 5321 5389 5390 5322 5355 5391 5355 5323 5356 5289 5357 5324 5356 5392 5324 5391 5323 5290 5358 5357 5291 5359 5358 5360 5359 5292 5360 5293 5361 5294 5362 5361 5362 5295 5363 5364 5363 5296 5393 5364 5325 5365 5393 5325 5366 5365 5298 5367 5366 5299 5367 5300 5368 5368 5326 5394 5369 5302 5370 5326 5369 5394 5370 5303 5371 5371 5304 5372 5305 5373 5372 5374 5373 5306 5375 5374 5307 5395 5375 5327 5376 5395 5327 5309 5377 5376 5377 5310 5378 5378 5311 5379 5379 5312 5380 5313 5381 5380 5328 5396 5381 5396 5328 5382 5315 5383 5382 5329 5397 5383 5389 5321 5330 5330 5384 5398 5399 5331 5332 5331 5399 5384 5333 5400 5332 5334 5401 5333 5402 5334 5335 5403 5335 5385 5337 5404 5336 5336 5404 5385 5338 5405 5337 5406 5338 5339 5340 5407 5339 5340 5341 5408 5341 5386 5409 5387 5386 5319 5343 5410 5342 5342 5410 5387 5411 5343 5344 5412 5344 5345 5346 5413 5345 5388 5414 5346 5415 5347 5348 5388 5347 5415 5416 5348 5349 5350 5417 5349 5418 5350 5351 5351 5352 5419 5352 5354 5420 5353 5421 5354 5329 5389 5397 5390 5355 5422 5355 5391 5422 5356 5357 5423 5392 5356 5423 5324 5392 5391 5358 5424 5357 5359 5425 5358 5426 5359 5360 5427 5360 5361 5362 5428 5361 5429 5362 5363 5364 5430 5363 5393 5431 5364 5365 5432 5393 5366 5432 5365 5433 5366 5367 5434 5367 5368 5435 5368 5394 5369 5370 5436 5394 5369 5436 5437 5370 5371 5438 5371 5372 5373 5439 5372 5374 5440 5373 5375 5441 5374 5395 5442 5375 5376 5443 5395 5376 5377 5443 5377 5378 5444 5445 5378 5379 5446 5379 5380 5381 5447 5380 5396 5448 5381 5449 5396 5382 5383 5449 5382 5397 5450 5383 5389 5330 5398 5384 5451 5398 5400 5399 5332 5399 5451 5384 5333 5401 5400 5402 5401 5334 5402 5335 5403 5452 5403 5385 5337 5405 5404 5404 5452 5385 5406 5405 5338 5407 5406 5339 5407 5340 5408 5341 5409 5408 5409 5386 5453 5453 5386 5387 5411 5410 5343 5410 5454 5387 5411 5344 5412 5413 5412 5345 5346 5414 5413 5455 5414 5388 5416 5415 5348 5455 5388 5415 5417 5416 5349 5418 5417 5350 5418 5351 5419 5419 5352 5456 5354 5421 5420 5352 5420 5456 5397 5389 5457 5458 5390 5422 5422 5391 5459 5357 5424 5423 5460 5392 5423 5391 5392 5461 5425 5424 5358 5426 5425 5359 5426 5360 5427 5428 5427 5361 5429 5428 5362 5430 5429 5363 5431 5430 5364 5431 5393 5462 5393 5432 5462 5433 5432 5366 5433 5367 5434 5435 5434 5368 5463 5435 5394 5370 5437 5436 5463 5394 5436 5438 5437 5371 5439 5438 5372 5440 5439 5373 5441 5440 5374 5375 5442 5441 5395 5464 5442 5395 5443 5464 5443 5377 5444 5444 5378 5445 5446 5445 5379 5447 5446 5380 5448 5447 5381 5396 5465 5448 5449 5465 5396 5450 5449 5383 5397 5466 5450 5457 5389 5398 5398 5451 5467 5400 5468 5399 5399 5468 5451 5400 5401 5469 5402 5470 5401 5471 5402 5403 5452 5472 5403 5404 5405 5473 5452 5404 5473 5406 5474 5405 5407 5475 5406 5476 5407 5408 5408 5409 5477 5409 5453 5478 5454 5453 5387 5479 5410 5411 5479 5454 5410 5480 5411 5412 5412 5413 5481 5413 5414 5482 5455 5483 5414 5416 5484 5415 5484 5455 5415 5417 5485 5416 5486 5417 5418 5487 5418 5419 5488 5419 5456 5421 5489 5420 5420 5490 5456 5397 5457 5466 5491 5458 5422 5391 5461 5459 5491 5422 5459 5423 5424 5492 5461 5392 5460 5460 5423 5492 5425 5493 5424 5494 5425 5426 5495 5426 5427 5428 5496 5427 5497 5428 5429 5498 5429 5430 5499 5430 5431 5431 5462 5500 5432 5501 5462 5433 5501 5432 5502 5433 5434 5435 5503 5434 5463 5504 5435 5437 5505 5436 5505 5463 5436 5438 5506 5437 5439 5507 5438 5440 5508 5439 5509 5440 5441 5442 5510 5441 5442 5464 5511 5464 5443 5512 5512 5443 5444 5513 5444 5445 5446 5514 5445 5515 5446 5447 5447 5448 5516 5448 5465 5517 5449 5518 5465 5450 5518 5449 5450 5466 5519 5457 5398 5467 5467 5451 5520 5400 5469 5468 5451 5468 5520 5401 5470 5469 5471 5470 5402 5472 5471 5403 5521 5472 5452 5405 5474 5473 5521 5452 5473 5406 5475 5474 5476 5475 5407 5476 5408 5477 5409 5478 5477 5478 5453 5522 5522 5453 5454 5479 5411 5480 5523 5454 5479 5480 5412 5481 5413 5482 5481 5414 5483 5482 5524 5483 5455 5485 5484 5416 5524 5455 5484 5486 5485 5417 5486 5418 5487 5487 5419 5488 5490 5488 5456 5489 5490 5420 5466 5457 5525 5526 5458 5491 5461 5527 5459 5527 5491 5459 5424 5493 5492 5461 5460 5528 5529 5460 5492 5494 5493 5425 5494 5426 5495 5496 5495 5427 5497 5496 5428 5497 5429 5498 5498 5430 5499 5499 5431 5500 5462 5530 5500 5462 5501 5530 5502 5501 5433 5503 5502 5434 5504 5503 5435 5531 5504 5463 5506 5505 5437 5531 5463 5505 5507 5506 5438 5439 5508 5507 5509 5508 5440 5510 5509 5441 5442 5511 5510 5511 5464 5532 5464 5512 5532 5512 5444 5513 5514 5513 5445 5515 5514 5446 5515 5447 5516 5516 5448 5517 5465 5533 5517 5465 5518 5533 5450 5519 5518 5466 5534 5519 5525 5457 5467 5535 5467 5520 5469 5536 5468 5468 5536 5520 5470 5537 5469 5471 5538 5470 5472 5539 5471 5521 5540 5472 5474 5541 5473 5541 5521 5473 5474 5475 5542 5476 5543 5475 5544 5476 5477 5478 5545 5477 5478 5522 5546 5522 5454 5523 5479 5480 5547 5523 5479 5547 5548 5480 5481 5482 5549 5481 5483 5550 5482 5551 5483 5524 5552 5484 5485 5524 5484 5552 5553 5485 5486 5486 5487 5554 5555 5487 5488 5490 5556 5488 5489 5557 5490 5466 5525 5534 5526 5491 5558 5461 5528 5527 5558 5491 5527 5493 5559 5492 5528 5460 5529 5559 5529 5492 5494 5560 5493 5561 5494 5495 5496 5562 5495 5563 5496 5497 5497 5498 5564 5498 5499 5565 5566 5499 5500 5530 5567 5500 5501 5568 5530 5502 5568 5501 5503 5569 5502 5504 5570 5503 5531 5571 5504 5506 5572 5505 5572 5531 5505 5573 5506 5507 5508 5574 5507 5575 5508 5509 5510 5576 5509 5510 5511 5577 5578 5511 5532 5532 5512 5579 5579 5512 5513 5514 5580 5513 5515 5581 5514 5582 5515 5516 5583 5516 5517 5533 5584 5517 5533 5518 5585 5518 5519 5585 5534 5586 5519 5535 5525 5467 5587 5535 5520 5537 5536 5469 5536 5587 5520 5470 5538 5537 5471 5539 5538 5472 5540 5539 5588 5540 5521 5541 5474 5542 5588 5521 5541 5475 5543 5542 5544 5543 5476 5545 5544 5477 5478 5546 5545 5546 5522 5589 5522 5523 5589 5547 5480 5548 5590 5523 5547 5549 5548 5481 5482 5550 5549 5551 5550 5483 5551 5524 5591 5552 5485 5553 5524 5552 5591 5553 5486 5554 5554 5487 5555 5556 5555 5488 5490 5557 5556 5534 5525 5592 5593 5526 5558 5528 5594 5527 5594 5558 5527 5493 5560 5559 5528 5529 5595 5596 5529 5559 5561 5560 5494 5562 5561 5495 5563 5562 5496 5563 5497 5564 5564 5498 5565 5565 5499 5566 5567 5566 5500 5597 5567 5530 5568 5597 5530 5502 5569 5568 5503 5570 5569 5504 5571 5570 5531 5598 5571 5573 5572 5506 5572 5598 5531 5574 5573 5507 5575 5574 5508 5576 5575 5509 5510 5577 5576 5577 5511 5578 5578 5532 5599 5599 5532 5579 5580 5579 5513 5514 5581 5580 5582 5581 5515 5583 5582 5516 5584 5583 5517 5533 5600 5584 5600 5533 5585 5519 5586 5585 5534 5601 5586 5592 5525 5535 5535 5587 5602 5537 5603 5536 5536 5603 5587 5537 5538 5604 5538 5539 5605 5539 5540 5606 5588 5607 5540 5541 5542 5608 5588 5541 5608 5543 5609 5542 5544 5610 5543 5545 5611 5544 5545 5546 5612 5613 5546 5589 5589 5523 5590 5614 5547 5548 5614 5590 5547 5549 5615 5548 5550 5616 5549 5617 5550 5551 5618 5551 5591 5552 5553 5619 5552 5619 5591 5620 5553 5554 5621 5554 5555 5556 5622 5555 5557 5623 5556 5534 5592 5601 5624 5593 5558 5528 5595 5594 5558 5594 5625 5560 5626 5559 5595 5529 5596 5626 5596 5559 5561 5627 5560 5562 5628 5561 5629 5562 5563 5630 5563 5564 5631 5564 5565 5632 5565 5566 5567 5633 5566 5597 5634 5567 5568 5635 5597 5568 5569 5635 5569 5570 5636 5570 5571 5637 5571 5598 5638 5573 5639 5572 5572 5639 5598 5574 5640 5573 5575 5641 5574 5576 5642 5575 5576 5577 5643 5577 5578 5644 5645 5578 5599 5646 5599 5579 5580 5646 5579 5580 5581 5647 5582 5648 5581 5649 5582 5583 5583 5584 5650 5584 5600 5651 5652 5600 5585 5586 5652 5585 5586 5601 5653 5592 5535 5602 5602 5587 5654 5537 5604 5603 5587 5603 5654 5604 5538 5605 5605 5539 5606 5540 5607 5606 5655 5607 5588 5542 5609 5608 5655 5588 5608 5543 5610 5609 5544 5611 5610 5545 5612 5611 5612 5546 5613 5613 5589 5656 5656 5589 5590 5615 5614 5548 5614 5657 5590 5616 5615 5549 5617 5616 5550 5617 5551 5618 5618 5591 5658 5619 5553 5620 5591 5619 5658 5621 5620 5554 5622 5621 5555 5623 5622 5556 5601 5592 5659 5660 5593 5624 5624 5558 5625 5595 5661 5594 5594 5661 5625 5560 5627 5626 5662 5595 5596 5596 5626 5663 5561 5628 5627 5629 5628 5562 5629 5563 5630 5631 5630 5564 5632 5631 5565 5633 5632 5566 5567 5634 5633 5597 5664 5634 5597 5635 5664 5635 5569 5636 5570 5637 5636 5637 5571 5638 5598 5665 5638 5573 5640 5639 5598 5639 5665 5574 5641 5640 5575 5642 5641 5576 5643 5642 5643 5577 5644 5644 5578 5645 5666 5645 5599 5646 5666 5599 5646 5580 5647 5581 5648 5647 5649 5648 5582 5649 5583 5650 5650 5584 5651 5600 5667 5651 5652 5667 5600 5652 5586 5653 5601 5668 5653 5659 5592 5602 5669 5602 5654 5603 5604 5670 5603 5670 5654 5671 5604 5605 5672 5605 5606 5607 5673 5606 5655 5674 5607 5609 5675 5608 5675 5655 5608 5609 5610 5676 5610 5611 5677 5611 5612 5678 5612 5613 5679 5680 5613 5656 5657 5656 5590 5615 5681 5614 5681 5657 5614 5616 5682 5615 5683 5616 5617 5617 5618 5684 5618 5658 5685 5619 5620 5686 5619 5686 5658 5687 5620 5621 5621 5622 5688 5623 5689 5622 5601 5659 5668 5660 5624 5690 5691 5624 5625 5662 5661 5595 5661 5691 5625 5626 5627 5692 5662 5596 5663 5626 5692 5663 5627 5628 5693 5629 5694 5628 5695 5629 5630 5631 5696 5630 5697 5631 5632 5633 5698 5632 5634 5699 5633 5634 5664 5700 5664 5635 5701 5635 5636 5701 5636 5637 5702 5637 5638 5703 5638 5665 5704 5639 5640 5705 5665 5639 5705 5640 5641 5706 5641 5642 5707 5642 5643 5708 5709 5643 5644 5710 5644 5645 5666 5711 5645 5712 5666 5646 5712 5646 5647 5648 5713 5647 5649 5714 5648 5715 5649 5650 5716 5650 5651 5667 5717 5651 5718 5667 5652 5718 5652 5653 5668 5719 5653 5669 5659 5602 5720 5669 5654 5670 5604 5671 5670 5720 5654 5672 5671 5605 5673 5672 5606 5607 5674 5673 5721 5674 5655 5609 5676 5675 5721 5655 5675 5610 5677 5676 5677 5611 5678 5612 5679 5678 5679 5613 5680 5722 5680 5656 5657 5722 5656 5615 5682 5681 5723 5657 5681 5683 5682 5616 5683 5617 5684 5684 5618 5685 5685 5658 5724 5686 5620 5687 5658 5686 5724 5687 5621 5725 5622 5689 5688 5621 5688 5725 5668 5659 5726 5727 5660 5690 5690 5624 5691 5662 5728 5661 5661 5728 5691 5692 5627 5693 5729 5662 5663 5692 5730 5663 5628 5694 5693 5695 5694 5629 5696 5695 5630 5697 5696 5631 5698 5697 5632 5699 5698 5633 5634 5700 5699 5700 5664 5731 5731 5664 5701 5701 5636 5702 5702 5637 5703 5703 5638 5704 5704 5665 5732 5640 5706 5705 5665 5705 5732 5706 5641 5707 5642 5708 5707 5708 5643 5709 5709 5644 5710 5711 5710 5645 5666 5733 5711 5712 5733 5666 5713 5712 5647 5648 5714 5713 5715 5714 5649 5716 5715 5650 5717 5716 5651 5667 5734 5717 5718 5734 5667 5719 5718 5653 5668 5735 5719 5726 5659 5669 5669 5720 5736 5670 5671 5737 5670 5737 5720 5738 5671 5672 5672 5673 5739 5673 5674 5740 5721 5741 5674 5676 5742 5675 5742 5721 5675 5676 5677 5743 5677 5678 5744 5679 5745 5678 5679 5680 5746 5747 5680 5722 5723 5722 5657 5682 5748 5681 5748 5723 5681 5749 5682 5683 5750 5683 5684 5751 5684 5685 5752 5685 5724 5686 5687 5753 5724 5686 5753 5754 5687 5725 5689 5755 5688 5688 5756 5725 5668 5726 5735 5757 5727 5690 5690 5691 5758 5729 5728 5662 5728 5759 5691 5760 5692 5693 5730 5729 5663 5730 5692 5760 5694 5761 5693 5695 5762 5694 5696 5763 5695 5697 5764 5696 5698 5765 5697 5699 5766 5698 5699 5700 5767 5700 5731 5768 5769 5731 5701 5769 5701 5702 5770 5702 5703 5771 5703 5704 5772 5704 5732 5705 5706 5773 5732 5705 5773 5706 5707 5774 5707 5708 5775 5708 5709 5776 5777 5709 5710 5711 5778 5710 5711 5733 5779 5780 5733 5712 5713 5780 5712 5713 5714 5781 5715 5782 5714 5783 5715 5716 5716 5717 5784 5717 5734 5785 5718 5786 5734 5719 5786 5718 5719 5735 5787 5726 5669 5736 5736 5720 5788 5737 5671 5738 5720 5737 5788 5738 5672 5739 5673 5740 5739 5674 5741 5740 5789 5741 5721 5742 5676 5743 5789 5721 5742 5677 5744 5743 5678 5745 5744 5679 5746 5745 5746 5680 5747 5747 5722 5790 5790 5722 5723 5749 5748 5682 5791 5723 5748 5749 5683 5750 5751 5750 5684 5752 5751 5685 5792 5752 5724 5753 5687 5754 5792 5724 5753 5756 5754 5725 5755 5756 5688 5735 5726 5793 5794 5727 5757 5757 5690 5758 5691 5759 5758 5729 5795 5728 5728 5795 5759 5761 5760 5693 5796 5729 5730 5730 5760 5797 5694 5762 5761 5695 5763 5762 5696 5764 5763 5697 5765 5764 5698 5766 5765 5699 5767 5766 5767 5700 5768 5768 5731 5798 5731 5769 5798 5770 5769 5702 5771 5770 5703 5772 5771 5704 5799 5772 5732 5773 5706 5774 5799 5732 5773 5707 5775 5774 5708 5776 5775 5776 5709 5777 5778 5777 5710 5778 5711 5779 5733 5800 5779 5780 5800 5733 5713 5781 5780 5714 5782 5781 5783 5782 5715 5783 5716 5784 5784 5717 5785 5734 5801 5785 5734 5786 5801 5719 5787 5786 5735 5802 5787 5793 5726 5736 5803 5736 5788 5737 5738 5804 5737 5804 5788 5805 5738 5739 5740 5806 5739 5740 5741 5807 5789 5808 5741 5742 5743 5809 5789 5742 5809 5744 5810 5743 5744 5745 5811 5746 5812 5745 5746 5747 5813 5747 5790 5814 5790 5723 5791 5815 5748 5749 5791 5748 5815 5816 5749 5750 5751 5817 5750 5752 5818 5751 5819 5752 5792 5820 5753 5754 5820 5792 5753 5756 5821 5754 5755 5822 5756 5735 5793 5802 5794 5757 5823 5824 5757 5758 5759 5824 5758 5796 5795 5729 5759 5795 5825 5761 5826 5760 5796 5730 5797 5760 5826 5797 5762 5827 5761 5762 5763 5828 5763 5764 5829 5764 5765 5830 5765 5766 5831 5766 5767 5832 5833 5767 5768 5834 5768 5798 5769 5835 5798 5770 5835 5769 5771 5836 5770 5837 5771 5772 5772 5799 5838 5839 5773 5774 5839 5799 5773 5775 5840 5774 5776 5841 5775 5776 5777 5842 5843 5777 5778 5844 5778 5779 5800 5845 5779 5846 5800 5780 5781 5846 5780 5782 5847 5781 5783 5848 5782 5849 5783 5784 5850 5784 5785 5801 5851 5785 5801 5786 5852 5786 5787 5852 5802 5853 5787 5803 5793 5736 5854 5803 5788 5804 5738 5805 5804 5854 5788 5806 5805 5739 5806 5740 5807 5741 5808 5807 5855 5808 5789 5743 5810 5809 5855 5789 5809 5810 5744 5811 5745 5812 5811 5746 5813 5812 5813 5747 5814 5790 5856 5814 5790 5791 5856 5815 5749 5816 5791 5815 5857 5817 5816 5750 5751 5818 5817 5819 5818 5752 5819 5792 5858 5821 5820 5754 5858 5792 5820 5756 5822 5821 5802 5793 5859 5860 5794 5823 5757 5861 5823 5861 5757 5824 5759 5825 5824 5796 5862 5795 5795 5862 5825 5827 5826 5761 5863 5796 5797 5826 5864 5797 5762 5828 5827 5828 5763 5829 5764 5830 5829 5830 5765 5831 5766 5832 5831 5832 5767 5833 5833 5768 5834 5865 5834 5798 5835 5865 5798 5770 5836 5835 5837 5836 5771 5837 5772 5838 5799 5866 5838 5840 5839 5774 5839 5866 5799 5841 5840 5775 5776 5842 5841 5842 5777 5843 5843 5778 5844 5845 5844 5779 5800 5867 5845 5846 5867 5800 5781 5847 5846 5782 5848 5847 5849 5848 5783 5850 5849 5784 5851 5850 5785 5801 5868 5851 5868 5801 5852 5787 5853 5852 5802 5869 5853 5859 5793 5803 5803 5854 5870 5804 5805 5871 5804 5871 5854 5806 5872 5805 5873 5806 5807 5808 5874 5807 5855 5875 5808 5810 5876 5809 5876 5855 5809 5877 5810 5811 5812 5878 5811 5812 5813 5879 5880 5813 5814 5814 5856 5881 5856 5791 5857 5815 5816 5882 5815 5882 5857 5883 5816 5817 5818 5884 5817 5885 5818 5819 5819 5858 5886 5887 5820 5821 5858 5820 5887 5822 5888 5821 5802 5859 5869 5889 5860 5823 5861 5889 5823 5890 5861 5824 5825 5890 5824 5863 5862 5796 5862 5891 5825 5827 5892 5826 5864 5863 5797 5892 5864 5826 5827 5828 5893 5894 5828 5829 5830 5895 5829 5830 5831 5896 5832 5897 5831 5832 5833 5898 5899 5833 5834 5865 5900 5834 5835 5901 5865 5835 5836 5901 5837 5902 5836 5903 5837 5838 5866 5904 5838 5905 5839 5840 5905 5866 5839 5840 5841 5906 5841 5842 5907 5842 5843 5908 5909 5843 5844 5845 5910 5844 5845 5867 5911 5846 5912 5867 5846 5847 5912 5847 5848 5913 5849 5914 5848 5915 5849 5850 5850 5851 5916 5851 5868 5917 5918 5868 5852 5853 5918 5852 5853 5869 5919 5859 5803 5870 5870 5854 5920 5805 5872 5871 5854 5871 5920 5873 5872 5806 5874 5873 5807 5808 5875 5874 5855 5921 5875 5877 5876 5810 5876 5921 5855 5878 5877 5811 5812 5879 5878 5879 5813 5880 5880 5814 5881 5881 5856 5922 5856 5857 5922 5882 5816 5883 5882 5923 5857 5884 5883 5817 5885 5884 5818 5885 5819 5886 5886 5858 5924 5888 5887 5821 5858 5887 5924 5869 5859 5925 5926 5860 5889 5861 5927 5889 5890 5927 5861 5891 5890 5825 5863 5928 5862 5862 5928 5891 5827 5893 5892 5864 5929 5863 5892 5930 5864 5893 5828 5894 5895 5894 5829 5830 5896 5895 5831 5897 5896 5832 5898 5897 5898 5833 5899 5900 5899 5834 5900 5865 5931 5865 5901 5931 5836 5902 5901 5903 5902 5837 5904 5903 5838 5932 5904 5866 5905 5840 5906 5932 5866 5905 5841 5907 5906 5842 5908 5907 5908 5843 5909 5910 5909 5844 5845 5911 5910 5867 5933 5911 5867 5912 5933 5912 5847 5913 5848 5914 5913 5915 5914 5849 5915 5850 5916 5916 5851 5917 5868 5934 5917 5918 5934 5868 5918 5853 5919 5869 5935 5919 5925 5859 5870 5936 5870 5920 5871 5872 5937 5871 5937 5920 5873 5938 5872 5874 5939 5873 5874 5875 5940 5875 5921 5941 5877 5942 5876 5876 5942 5921 5878 5943 5877 5878 5879 5944 5945 5879 5880 5946 5880 5881 5947 5881 5922 5857 5923 5922 5882 5883 5948 5882 5948 5923 5949 5883 5884 5950 5884 5885 5951 5885 5886 5952 5886 5924 5888 5953 5887 5887 5954 5924 5869 5925 5935 5955 5926 5889 5889 5927 5956 5890 5957 5927 5891 5957 5890 5863 5929 5928 5891 5928 5958 5892 5893 5959 5864 5930 5929 5892 5959 5930 5893 5894 5960 5894 5895 5961 5896 5962 5895 5896 5897 5963 5897 5898 5964 5898 5899 5965 5966 5899 5900 5967 5900 5931 5901 5968 5931 5901 5902 5968 5903 5969 5902 5970 5903 5904 5971 5904 5932 5972 5905 5906 5932 5905 5972 5907 5973 5906 5908 5974 5907 5908 5909 5975 5976 5909 5910 5911 5977 5910 5911 5933 5978 5933 5912 5979 5979 5912 5913 5914 5980 5913 5915 5981 5914 5982 5915 5916 5983 5916 5917 5934 5984 5917 5985 5934 5918 5985 5918 5919 5935 5986 5919 5936 5925 5870 5987 5936 5920 5872 5938 5937 5937 5987 5920 5873 5939 5938 5874 5940 5939 5940 5875 5941 5921 5988 5941 5877 5943 5942 5921 5942 5988 5878 5944 5943 5944 5879 5945 5945 5880 5946 5947 5946 5881 5947 5922 5989 5922 5923 5989 5948 5883 5949 5923 5948 5990 5949 5884 5950 5950 5885 5951 5952 5951 5886 5954 5952 5924 5953 5954 5887 5935 5925 5991 5992 5926 5955 5955 5889 5956 5927 5993 5956 5927 5957 5993 5891 5958 5957 5928 5929 5994 5958 5928 5994 5959 5893 5960 5929 5930 5995 5930 5959 5996 5960 5894 5961 5895 5962 5961 5896 5963 5962 5963 5897 5964 5898 5965 5964 5965 5899 5966 5966 5900 5967 5997 5967 5931 5968 5997 5931 5902 5969 5968 5970 5969 5903 5970 5904 5971 5971 5932 5998 5973 5972 5906 5932 5972 5998 5907 5974 5973 5908 5975 5974 5975 5909 5976 5977 5976 5910 5977 5911 5978 5933 5999 5978 5999 5933 5979 5980 5979 5913 5914 5981 5980 5982 5981 5915 5983 5982 5916 5984 5983 5917 5934 6000 5984 5985 6000 5934 5986 5985 5919 5935 6001 5986 5991 5925 5936 5936 5987 6002 5938 6003 5937 5937 6003 5987 5938 5939 6004 5939 5940 6005 6006 5940 5941 5988 6007 5941 5942 5943 6008 5988 5942 6008 5943 5944 6009 5944 5945 6010 6011 5945 5946 5947 6012 5946 6013 5947 5989 5989 5923 5990 5948 5949 6014 5948 6014 5990 5949 5950 6015 5950 5951 6016 6017 5951 5952 5952 5954 6018 5953 6019 5954 5935 5991 6001 5992 5955 6020 6021 5955 5956 5993 6021 5956 5957 6022 5993 5957 5958 6022 5929 5995 5994 6023 5958 5994 6024 5959 5960 5930 5996 5995 5996 5959 6024 6025 5960 5961 5961 5962 6026 5962 5963 6027 6028 5963 5964 5965 6029 5964 5965 5966 6030 6031 5966 5967 5997 6032 5967 5968 6033 5997 5969 6033 5968 6034 5969 5970 5970 5971 6035 6036 5971 5998 5972 5973 6037 5998 5972 6037 5973 5974 6038 5975 6039 5974 5975 5976 6040 6041 5976 5977 6042 5977 5978 5999 6043 5978 5999 5979 6044 5979 5980 6044 5980 5981 6045 5982 6046 5981 6047 5982 5983 5983 5984 6048 5984 6000 6049 5985 6050 6000 5986 6050 5985 5986 6001 6051 5991 5936 6002 6002 5987 6052 5938 6004 6003 5987 6003 6052 6004 5939 6005 5940 6006 6005 6007 6006 5941 6007 5988 6053 5943 6009 6008 5988 6008 6053 5944 6010 6009 6010 5945 6011 6012 6011 5946 6013 6012 5947 6054 6013 5989 6054 5989 5990 6014 5949 6015 5990 6014 6055 5950 6016 6015 6016 5951 6017 6017 5952 6018 5954 6019 6018 6001 5991 6056 6057 5992 6020 6020 5955 6021 6058 6021 5993 6022 6058 5993 6022 5958 6023 5994 5995 6059 6023 5994 6059 6025 6024 5960 5996 6060 5995 5996 6024 6061 6025 5961 6026 5962 6027 6026 6027 5963 6028 6029 6028 5964 5965 6030 6029 6030 5966 6031 6032 6031 5967 6062 6032 5997 6033 6062 5997 6034 6033 5969 6034 5970 6035 6035 5971 6036 6063 6036 5998 6037 5973 6038 6063 5998 6037 5974 6039 6038 5975 6040 6039 6040 5976 6041 6041 5977 6042 6043 6042 5978 6064 6043 5999 6064 5999 6044 5980 6045 6044 5981 6046 6045 6047 6046 5982 6047 5983 6048 6048 5984 6049 6049 6000 6065 6000 6050 6065 5986 6051 6050 6001 6066 6051 6056 5991 6002 6067 6002 6052 6003 6004 6068 6003 6068 6052 6069 6004 6005 6006 6070 6005 6071 6006 6007 6007 6053 6072 6009 6073 6008 6008 6073 6053 6010 6074 6009 6010 6011 6075 6076 6011 6012 6077 6012 6013 6078 6013 6054 6054 5990 6055 6014 6015 6079 6055 6014 6079 6015 6016 6080 6016 6017 6081 6082 6017 6018 6019 6083 6018 6001 6056 6066 6084 6057 6020 6085 6020 6021 6021 6058 6086 6022 6087 6058 6022 6023 6087 5995 6060 6059 6088 6023 6059 6089 6024 6025 5996 6061 6060 6061 6024 6089 6090 6025 6026 6026 6027 6091 6027 6028 6092 6028 6029 6093 6029 6030 6094 6030 6031 6095 6096 6031 6032 6097 6032 6062 6098 6062 6033 6098 6033 6034 6099 6034 6035 6100 6035 6036 6063 6101 6036 6102 6037 6038 6102 6063 6037 6038 6039 6103 6039 6040 6104 6040 6041 6105 6106 6041 6042 6043 6107 6042 6064 6108 6043 6109 6064 6044 6045 6109 6044 6045 6046 6110 6047 6111 6046 6112 6047 6048 6113 6048 6049 6114 6049 6065 6065 6050 6115 6050 6051 6115 6066 6116 6051 6067 6056 6002 6117 6067 6052 6068 6004 6069 6068 6117 6052 6070 6069 6005 6071 6070 6006 6071 6007 6072 6053 6118 6072 6009 6074 6073 6073 6118 6053 6010 6075 6074 6075 6011 6076 6076 6012 6077 6077 6013 6078 6078 6054 6119 6119 6054 6055 6079 6015 6080 6120 6055 6079 6080 6016 6081 6081 6017 6121 6017 6082 6121 6083 6082 6018 6066 6056 6122 6123 6057 6084 6084 6020 6085 6085 6021 6086 6058 6124 6086 6058 6087 6124 6087 6023 6088 6059 6060 6125 6088 6059 6125 6090 6089 6025 6060 6061 6126 6061 6089 6127 6090 6026 6091 6091 6027 6092 6028 6093 6092 6029 6094 6093 6030 6095 6094 6095 6031 6096 6096 6032 6097 6097 6062 6128 6128 6062 6098 6098 6034 6099 6099 6035 6100 6101 6100 6036 6129 6101 6063 6102 6038 6103 6129 6063 6102 6103 6039 6104 6040 6105 6104 6105 6041 6106 6107 6106 6042 6043 6108 6107 6130 6108 6064 6130 6064 6109 6109 6045 6110 6046 6111 6110 6112 6111 6047 6113 6112 6048 6114 6113 6049 6131 6114 6065 6131 6065 6115 6051 6116 6115 6066 6132 6116 6122 6056 6067 6067 6117 6133 6068 6069 6134 6068 6134 6117 6135 6069 6070 6071 6136 6070 6137 6071 6072 6118 6138 6072 6073 6074 6139 6118 6073 6139 6075 6140 6074 6075 6076 6141 6076 6077 6142 6077 6078 6143 6144 6078 6119 6120 6119 6055 6145 6079 6080 6145 6120 6079 6146 6080 6081 6147 6081 6121 6082 6148 6121 6083 6149 6082 6066 6122 6132 6123 6084 6150 6084 6085 6151 6085 6086 6152 6124 6153 6086 6124 6087 6154 6154 6087 6088 6060 6126 6125 6155 6088 6125 6156 6089 6090 6061 6127 6126 6127 6089 6156 6157 6090 6091 6158 6091 6092 6092 6093 6159 6093 6094 6160 6095 6161 6094 6095 6096 6162 6096 6097 6163 6097 6128 6164 6128 6098 6165 6098 6099 6165 6166 6099 6100 6101 6167 6100 6129 6168 6101 6169 6102 6103 6129 6102 6169 6170 6103 6104 6105 6171 6104 6105 6106 6172 6173 6106 6107 6108 6174 6107 6175 6108 6130 6130 6109 6176 6176 6109 6110 6111 6177 6110 6112 6178 6111 6179 6112 6113 6180 6113 6114 6131 6181 6114 6182 6131 6115 6116 6182 6115 6116 6132 6183 6122 6067 6133 6133 6117 6184 6069 6135 6134 6117 6134 6184 6136 6135 6070 6137 6136 6071 6138 6137 6072 6185 6138 6118 6074 6140 6139 6185 6118 6139 6075 6141 6140 6141 6076 6142 6077 6143 6142 6143 6078 6144 6186 6144 6119 6120 6186 6119 6146 6145 6080 6187 6120 6145 6146 6081 6147 6148 6147 6121 6149 6148 6082 6132 6122 6188 6189 6123 6150 6084 6151 6150 6151 6085 6152 6086 6153 6152 6124 6190 6153 6124 6154 6190 6155 6154 6088 6125 6126 6191 6155 6125 6191 6156 6090 6157 6127 6192 6126 6127 6156 6193 6158 6157 6091 6158 6092 6159 6159 6093 6160 6094 6161 6160 6095 6162 6161 6162 6096 6163 6097 6164 6163 6164 6128 6194 6194 6128 6165 6165 6099 6166 6167 6166 6100 6101 6168 6167 6195 6168 6129 6170 6169 6103 6195 6129 6169 6171 6170 6104 6105 6172 6171 6172 6106 6173 6174 6173 6107 6175 6174 6108 6175 6130 6196 6196 6130 6176 6177 6176 6110 6111 6178 6177 6179 6178 6112 6179 6113 6180 6181 6180 6114 6197 6181 6131 6197 6131 6182 6116 6183 6182 6132 6198 6183 6188 6122 6133 6199 6133 6184 6134 6135 6200 6134 6200 6184 6136 6201 6135 6137 6202 6136 6138 6203 6137 6185 6204 6138 6140 6205 6139 6205 6185 6139 6140 6141 6206 6207 6141 6142 6143 6208 6142 6143 6144 6209 6210 6144 6186 6187 6186 6120 6211 6145 6146 6187 6145 6211 6212 6146 6147 6148 6213 6147 6149 6214 6148 6132 6188 6198 6189 6150 6215 6150 6151 6216 6217 6151 6152 6153 6217 6152 6153 6190 6218 6190 6154 6219 6219 6154 6155 6126 6192 6191 6220 6155 6191 6221 6156 6157 6127 6193 6192 6193 6156 6221 6158 6222 6157 6223 6158 6159 6224 6159 6160 6160 6161 6225 6161 6162 6226 6227 6162 6163 6164 6228 6163 6164 6194 6229 6230 6194 6165 6230 6165 6166 6167 6231 6166 6168 6232 6167 6233 6168 6195 6170 6234 6169 6234 6195 6169 6235 6170 6171 6172 6236 6171 6172 6173 6237 6238 6173 6174 6239 6174 6175 6175 6196 6240 6241 6196 6176 6177 6241 6176 6178 6242 6177 6179 6243 6178 6244 6179 6180 6181 6245 6180 6246 6181 6197 6247 6197 6182 6183 6247 6182 6198 6248 6183 6199 6188 6133 6249 6199 6184 6135 6201 6200 6200 6249 6184 6136 6202 6201 6137 6203 6202 6138 6204 6203 6185 6250 6204 6140 6206 6205 6205 6250 6185 6206 6141 6207 6208 6207 6142 6143 6209 6208 6209 6144 6210 6210 6186 6251 6251 6186 6187 6211 6146 6212 6187 6211 6252 6213 6212 6147 6148 6214 6213 6198 6188 6253 6254 6189 6215 6150 6255 6215 6151 6217 6216 6255 6150 6216 6153 6218 6217 6218 6190 6256 6190 6219 6256 6219 6155 6220 6191 6192 6257 6220 6191 6257 6222 6221 6157 6192 6193 6258 6193 6221 6259 6223 6222 6158 6224 6223 6159 6224 6160 6225 6161 6226 6225 6226 6162 6227 6228 6227 6163 6164 6229 6228 6229 6194 6260 6260 6194 6230 6231 6230 6166 6167 6232 6231 6233 6232 6168 6233 6195 6261 6235 6234 6170 6261 6195 6234 6236 6235 6171 6172 6237 6236 6237 6173 6238 6238 6174 6239 6239 6175 6240 6240 6196 6262 6262 6196 6241 6177 6242 6241 6178 6243 6242 6244 6243 6179 6245 6244 6180 6246 6245 6181 6246 6197 6263 6197 6247 6263 6248 6247 6183 6198 6264 6248 6253 6188 6199 6199 6249 6265 6201 6266 6200 6200 6266 6249 6201 6202 6267 6202 6203 6268 6203 6204 6269 6204 6250 6270 6205 6206 6271 6205 6271 6250 6272 6206 6207 6207 6208 6273 6208 6209 6274 6209 6210 6275 6210 6251 6276 6251 6187 6252 6211 6212 6277 6252 6211 6277 6278 6212 6213 6214 6279 6213 6198 6253 6264 6280 6254 6215 6255 6280 6215 6217 6281 6216 6281 6255 6216 6218 6282 6217 6218 6256 6283 6219 6284 6256 6219 6220 6284 6257 6192 6258 6285 6220 6257 6286 6221 6222 6193 6259 6258 6259 6221 6286 6287 6222 6223 6288 6223 6224 6289 6224 6225 6226 6290 6225 6291 6226 6227 6292 6227 6228 6229 6293 6228 6229 6260 6294 6295 6260 6230 6231 6295 6230 6232 6296 6231 6297 6232 6233 6233 6261 6298 6299 6234 6235 6261 6234 6299 6236 6300 6235 6236 6237 6301 6237 6238 6302 6238 6239 6303 6304 6239 6240 6305 6240 6262 6306 6262 6241 6242 6306 6241 6242 6243 6307 6244 6308 6243 6309 6244 6245 6310 6245 6246 6311 6246 6263 6247 6312 6263 6248 6312 6247 6248 6264 6313 6253 6199 6265 6249 6314 6265 6201 6267 6266 6249 6266 6314 6267 6202 6268 6203 6269 6268 6269 6204 6270 6270 6250 6315 6271 6206 6272 6250 6271 6315 6272 6207 6273 6273 6208 6274 6209 6275 6274 6210 6276 6275 6276 6251 6316 6316 6251 6252 6212 6278 6277 6317 6252 6277 6279 6278 6213 6264 6253 6318 6319 6280 6255 6282 6281 6217 6281 6319 6255 6282 6218 6283 6256 6320 6283 6284 6320 6256 6284 6220 6285 6321 6257 6258 6321 6285 6257 6286 6222 6287 6258 6259 6322 6259 6286 6323 6287 6223 6288 6288 6224 6289 6290 6289 6225 6226 6291 6290 6291 6227 6292 6293 6292 6228 6229 6294 6293 6294 6260 6324 6324 6260 6295 6296 6295 6231 6297 6296 6232 6297 6233 6298 6298 6261 6325 6300 6299 6235 6261 6299 6325 6236 6301 6300 6301 6237 6302 6238 6303 6302 6303 6239 6304 6304 6240 6305 6326 6305 6262 6306 6326 6262 6242 6307 6306 6243 6308 6307 6309 6308 6244 6309 6245 6310 6310 6246 6311 6327 6311 6263 6312 6327 6263 6248 6313 6312 6264 6328 6313 6318 6253 6265 6314 6329 6265 6266 6267 6330 6266 6330 6314 6331 6267 6268 6269 6332 6268 6269 6270 6333 6334 6270 6315 6271 6272 6335 6271 6335 6315 6336 6272 6273 6337 6273 6274 6275 6338 6274 6276 6339 6275 6276 6316 6340 6317 6316 6252 6277 6278 6341 6317 6277 6341 6279 6342 6278 6264 6318 6328 6343 6281 6282 6343 6319 6281 6344 6282 6283 6320 6344 6283 6284 6345 6320 6284 6285 6345 6321 6258 6322 6346 6285 6321 6286 6287 6347 6259 6323 6322 6286 6347 6323 6287 6288 6348 6288 6289 6349 6289 6290 6350 6291 6351 6290 6352 6291 6292 6293 6353 6292 6293 6294 6354 6294 6324 6355 6324 6295 6356 6356 6295 6296 6357 6296 6297 6358 6297 6298 6359 6298 6325 6300 6360 6299 6299 6360 6325 6300 6301 6361 6362 6301 6302 6303 6363 6302 6303 6304 6364 6365 6304 6305 6326 6366 6305 6306 6367 6326 6307 6367 6306 6308 6368 6307 6369 6308 6309 6309 6310 6370 6310 6311 6371 6372 6311 6327 6327 6312 6373 6312 6313 6373 6328 6374 6313 6329 6318 6265 6375 6329 6314 6330 6267 6331 6330 6375 6314 6332 6331 6268 6332 6269 6333 6270 6334 6333 6334 6315 6376 6335 6272 6336 6315 6335 6376 6337 6336 6273 6338 6337 6274 6275 6339 6338 6276 6340 6339 6340 6316 6377 6377 6316 6317 6278 6378 6341 6379 6317 6341 6342 6378 6278 6328 6318 6380 6381 6343 6282 6344 6381 6282 6344 6320 6382 6320 6345 6382 6345 6285 6346 6383 6321 6322 6346 6321 6383 6347 6287 6348 6322 6323 6384 6347 6385 6323 6288 6349 6348 6349 6289 6350 6290 6351 6350 6352 6351 6291 6353 6352 6292 6293 6354 6353 6354 6294 6355 6324 6386 6355 6324 6356 6386 6356 6296 6357 6357 6297 6358 6359 6358 6298 6359 6325 6387 6300 6361 6360 6325 6360 6387 6361 6301 6362 6363 6362 6302 6303 6364 6363 6364 6304 6365 6366 6365 6305 6366 6326 6388 6326 6367 6388 6368 6367 6307 6369 6368 6308 6369 6309 6370 6310 6371 6370 6371 6311 6372 6389 6372 6327 6389 6327 6373 6313 6374 6373 6328 6390 6374 6380 6318 6329 6329 6375 6391 6330 6331 6392 6330 6392 6375 6393 6331 6332 6394 6332 6333 6334 6395 6333 6396 6334 6376 6335 6336 6397 6335 6397 6376 6398 6336 6337 6337 6338 6399 6339 6400 6338 6340 6401 6339 6340 6377 6402 6377 6317 6379 6378 6379 6341 6342 6403 6378 6328 6380 6390 6404 6381 6344 6404 6344 6382 6345 6405 6382 6345 6346 6406 6383 6322 6384 6346 6383 6407 6408 6347 6348 6323 6385 6384 6347 6408 6385 6349 6409 6348 6410 6349 6350 6351 6411 6350 6352 6412 6351 6353 6413 6352 6353 6354 6414 6354 6355 6415 6386 6416 6355 6356 6417 6386 6356 6357 6417 6418 6357 6358 6359 6419 6358 6420 6359 6387 6360 6361 6421 6360 6421 6387 6361 6362 6422 6362 6363 6423 6364 6424 6363 6364 6365 6425 6426 6365 6366 6427 6366 6388 6367 6428 6388 6368 6428 6367 6429 6368 6369 6369 6370 6430 6370 6371 6431 6432 6371 6372 6389 6433 6372 6434 6389 6373 6374 6434 6373 6374 6390 6435 6380 6329 6391 6391 6375 6436 6331 6393 6392 6375 6392 6436 6394 6393 6332 6395 6394 6333 6396 6395 6334 6437 6396 6376 6397 6336 6398 6397 6437 6376 6398 6337 6399 6338 6400 6399 6401 6400 6339 6340 6402 6401 6402 6377 6438 6377 6379 6438 6379 6378 6439 6378 6403 6439 6390 6380 6440 6441 6404 6382 6405 6345 6406 6405 6441 6382 6346 6407 6406 6383 6384 6442 6383 6442 6407 6409 6408 6348 6385 6443 6384 6408 6444 6385 6410 6409 6349 6411 6410 6350 6351 6412 6411 6352 6413 6412 6353 6414 6413 6414 6354 6415 6355 6416 6415 6445 6416 6386 6417 6445 6386 6417 6357 6418 6419 6418 6358 6420 6419 6359 6446 6420 6387 6421 6361 6422 6421 6446 6387 6362 6423 6422 6363 6424 6423 6364 6425 6424 6425 6365 6426 6426 6366 6427 6447 6427 6388 6428 6447 6388 6429 6428 6368 6429 6369 6430 6430 6370 6431 6431 6371 6432 6433 6432 6372 6448 6433 6389 6448 6389 6434 6434 6374 6435 6390 6449 6435 6440 6380 6391 6450 6391 6436 6392 6393 6451 6392 6451 6436 6394 6452 6393 6395 6453 6394 6396 6454 6395 6437 6455 6396 6397 6398 6456 6397 6456 6437 6457 6398 6399 6400 6458 6399 6401 6459 6400 6401 6402 6460 6461 6402 6438 6379 6462 6438 6462 6379 6439 6403 6463 6439 6390 6440 6449 6464 6405 6406 6465 6441 6405 6407 6464 6406 6384 6443 6442 6442 6466 6407 6409 6467 6408 6385 6444 6443 6408 6467 6444 6410 6468 6409 6411 6469 6410 6411 6412 6470 6412 6413 6471 6413 6414 6472 6473 6414 6415 6415 6416 6474 6445 6475 6416 6417 6476 6445 6417 6418 6476 6477 6418 6419 6478 6419 6420 6420 6446 6479 6421 6422 6480 6421 6480 6446 6423 6481 6422 6424 6482 6423 6424 6425 6483 6425 6426 6484 6426 6427 6485 6486 6427 6447 6487 6447 6428 6487 6428 6429 6488 6429 6430 6489 6430 6431 6490 6431 6432 6433 6491 6432 6492 6433 6448 6493 6448 6434 6493 6434 6435 6449 6494 6435 6450 6440 6391 6495 6450 6436 6393 6452 6451 6451 6495 6436 6394 6453 6452 6395 6454 6453 6396 6455 6454 6437 6496 6455 6456 6398 6457 6437 6456 6496 6458 6457 6399 6400 6459 6458 6401 6460 6459 6460 6402 6497 6402 6461 6497 6462 6461 6438 6463 6462 6439 6449 6440 6498 6464 6465 6405 6466 6464 6407 6443 6499 6442 6499 6466 6442 6409 6468 6467 6443 6444 6500 6444 6467 6501 6410 6469 6468 6411 6470 6469 6470 6412 6471 6413 6472 6471 6472 6414 6473 6473 6415 6474 6416 6475 6474 6445 6502 6475 6445 6476 6502 6476 6418 6477 6477 6419 6478 6478 6420 6479 6446 6503 6479 6422 6481 6480 6446 6480 6503 6482 6481 6423 6424 6483 6482 6483 6425 6484 6426 6485 6484 6485 6427 6486 6486 6447 6504 6504 6447 6487 6487 6429 6488 6488 6430 6489 6490 6489 6431 6491 6490 6432 6492 6491 6433 6492 6448 6505 6505 6448 6493 6494 6493 6435 6449 6506 6494 6498 6440 6450 6450 6495 6507 6452 6508 6451 6508 6495 6451 6452 6453 6509 6453 6454 6510 6454 6455 6511 6455 6496 6512 6456 6457 6513 6496 6456 6513 6457 6458 6514 6458 6459 6515 6459 6460 6516 6517 6460 6497 6461 6518 6497 6462 6519 6461 6463 6520 6462 6449 6498 6506 6521 6465 6464 6521 6464 6466 6499 6443 6500 6499 6522 6466 6467 6468 6523 6500 6444 6501 6467 6523 6501 6468 6469 6524 6469 6470 6525 6526 6470 6471 6472 6527 6471 6472 6473 6528 6529 6473 6474 6475 6530 6474 6475 6502 6531 6502 6476 6532 6476 6477 6532 6477 6478 6533 6534 6478 6479 6503 6535 6479 6480 6481 6536 6503 6480 6536 6482 6537 6481 6482 6483 6538 6483 6484 6539 6485 6540 6484 6485 6486 6541 6486 6504 6542 6504 6487 6543 6487 6488 6543 6544 6488 6489 6490 6545 6489 6491 6546 6490 6547 6491 6492 6492 6505 6548 6505 6493 6549 6493 6494 6549 6494 6506 6550 6498 6450 6507 6495 6551 6507 6452 6509 6508 6508 6551 6495 6509 6453 6510 6454 6511 6510 6455 6512 6511 6512 6496 6552 6513 6457 6514 6552 6496 6513 6514 6458 6515 6459 6516 6515 6516 6460 6517 6518 6517 6497 6461 6519 6518 6520 6519 6462 6506 6498 6553 6522 6521 6466 6554 6499 6500 6554 6522 6499 6523 6468 6524 6555 6500 6501 6523 6555 6501 6469 6525 6524 6525 6470 6526 6527 6526 6471 6472 6528 6527 6528 6473 6529 6530 6529 6474 6475 6531 6530 6531 6502 6556 6502 6532 6556 6477 6533 6532 6533 6478 6534 6535 6534 6479 6503 6557 6535 6481 6537 6536 6557 6503 6536 6482 6538 6537 6538 6483 6539 6484 6540 6539 6485 6541 6540 6486 6542 6541 6542 6504 6558 6558 6504 6543 6543 6488 6544 6545 6544 6489 6490 6546 6545 6547 6546 6491 6547 6492 6548 6505 6559 6548 6505 6549 6559 6494 6550 6549 6506 6560 6550 6553 6498 6507 6507 6551 6561 6508 6509 6562 6508 6562 6551 6563 6509 6510 6511 6564 6510 6512 6565 6511 6512 6552 6566 6567 6513 6514 6552 6513 6567 6568 6514 6515 6515 6516 6569 6516 6517 6570 6571 6517 6518 6519 6572 6518 6520 6573 6519 6506 6553 6560 6574 6554 6500 6575 6523 6524 6555 6574 6500 6555 6523 6576 6524 6525 6577 6525 6526 6578 6526 6527 6579 6528 6580 6527 6528 6529 6581 6530 6582 6529 6530 6531 6583 6584 6531 6556 6532 6585 6556 6533 6585 6532 6533 6534 6586 6534 6535 6587 6535 6557 6588 6537 6589 6536 6589 6557 6536 6537 6538 6590 6591 6538 6539 6540 6592 6539 6541 6593 6540 6542 6594 6541 6542 6558 6595 6558 6543 6596 6596 6543 6544 6545 6597 6544 6546 6598 6545 6599 6546 6547 6600 6547 6548 6559 6601 6548 6559 6549 6602 6549 6550 6602 6560 6603 6550 6553 6507 6561 6561 6551 6604 6562 6509 6563 6551 6562 6604 6564 6563 6510 6511 6565 6564 6512 6566 6565 6566 6552 6605 6568 6567 6514 6605 6552 6567 6568 6515 6569 6516 6570 6569 6570 6517 6571 6572 6571 6518 6519 6573 6572 6560 6553 6606 6523 6575 6576 6575 6524 6577 6607 6574 6555 6607 6555 6576 6525 6578 6577 6578 6526 6579 6527 6580 6579 6580 6528 6581 6529 6582 6581 6530 6583 6582 6583 6531 6584 6608 6584 6556 6585 6608 6556 6533 6586 6585 6586 6534 6587 6535 6588 6587 6557 6609 6588 6537 6590 6589 6589 6609 6557 6590 6538 6591 6592 6591 6539 6540 6593 6592 6541 6594 6593 6542 6595 6594 6595 6558 6610 6610 6558 6596 6597 6596 6544 6545 6598 6597 6599 6598 6546 6599 6547 6600 6601 6600 6548 6559 6611 6601 6611 6559 6602 6550 6603 6602 6560 6612 6603 6606 6553 6561 6613 6561 6604 6562 6563 6614 6562 6614 6604 6563 6564 6615 6564 6565 6616 6565 6566 6617 6566 6605 6618 6568 6619 6567 6619 6605 6567 6620 6568 6569 6570 6621 6569 6570 6571 6622 6571 6572 6623 6573 6624 6572 6560 6606 6612 6575 6625 6576 6626 6575 6577 6625 6607 6576 6578 6626 6577 6578 6579 6627 6580 6628 6579 6629 6580 6581 6582 6629 6581 6582 6583 6630 6583 6584 6631 6584 6608 6632 6585 6633 6608 6585 6586 6633 6634 6586 6587 6588 6635 6587 6609 6636 6588 6589 6590 6637 6589 6637 6609 6590 6591 6638 6591 6592 6639 6592 6593 6640 6593 6594 6641 6595 6642 6594 6595 6610 6643 6644 6610 6596 6597 6644 6596 6598 6645 6597 6646 6598 6599 6599 6600 6647 6600 6601 6648 6601 6611 6649 6650 6611 6602 6603 6650 6602 6603 6612 6651 6613 6606 6561 6652 6613 6604 6614 6563 6615 6614 6652 6604 6615 6564 6616 6565 6617 6616 6566 6618 6617 6618 6605 6653 6620 6619 6568 6653 6605 6619 6621 6620 6569 6570 6622 6621 6622 6571 6623 6572 6624 6623 6612 6606 6654 6655 6625 6575 6655 6575 6626 6626 6578 6627 6579 6628 6627 6656 6628 6580 6656 6580 6629 6629 6582 6657 6583 6631 6630 6582 6630 6657 6631 6584 6632 6608 6658 6632 6608 6633 6658 6633 6586 6634 6635 6634 6587 6636 6635 6588 6609 6659 6636 6637 6590 6638 6609 6637 6659 6638 6591 6639 6592 6640 6639 6640 6593 6641 6594 6642 6641 6595 6643 6642 6643 6610 6660 6660 6610 6644 6645 6644 6597 6646 6645 6598 6646 6599 6647 6647 6600 6648 6601 6649 6648 6611 6661 6649 6650 6661 6611 6650 6603 6651 6612 6662 6651 6654 6606 6613 6663 6613 6652 6664 6614 6615 6652 6614 6664 6665 6615 6616 6617 6666 6616 6618 6667 6617 6618 6653 6668 6669 6619 6620 6653 6619 6669 6620 6621 6670 6621 6622 6671 6672 6622 6623 6624 6673 6623 6612 6654 6662 6674 6655 6626 6674 6626 6627 6628 6675 6627 6676 6628 6656 6656 6629 6677 6677 6629 6657 6631 6678 6630 6630 6679 6657 6631 6632 6680 6632 6658 6681 6633 6682 6658 6633 6634 6682 6683 6634 6635 6635 6636 6684 6636 6659 6685 6686 6637 6638 6659 6637 6686 6687 6638 6639 6640 6688 6639 6689 6640 6641 6642 6690 6641 6642 6643 6691 6643 6660 6692 6660 6644 6693 6693 6644 6645 6694 6645 6646 6646 6647 6695 6696 6647 6648 6649 6697 6648 6661 6698 6649 6699 6661 6650 6699 6650 6651 6662 6700 6651 6654 6613 6663 6701 6663 6652 6665 6664 6615 6701 6652 6664 6666 6665 6616 6667 6666 6617 6618 6668 6667 6653 6702 6668 6669 6620 6670 6653 6669 6702 6670 6621 6671 6671 6622 6703 6622 6672 6703 6673 6672 6623 6662 6654 6704 6675 6674 6627 6676 6675 6628 6705 6676 6656 6705 6656 6677 6679 6677 6657 6631 6680 6678 6678 6679 6630 6680 6632 6681 6658 6706 6681 6682 6706 6658 6682 6634 6683 6683 6635 6684 6636 6685 6684 6659 6707 6685 6687 6686 6638 6659 6686 6707 6688 6687 6639 6640 6689 6688 6690 6689 6641 6642 6691 6690 6691 6643 6692 6660 6708 6692 6660 6693 6708 6693 6645 6694 6694 6646 6695 6695 6647 6696 6697 6696 6648 6698 6697 6649 6709 6698 6661 6709 6661 6699 6700 6699 6651 6662 6710 6700 6704 6654 6663 6701 6711 6663 6665 6712 6664 6712 6701 6664 6713 6665 6666 6666 6667 6714 6667 6668 6715 6702 6716 6668 6717 6669 6670 6702 6669 6717 6718 6670 6671 6719 6671 6703 6672 6720 6703 6673 6721 6672 6662 6704 6710 6722 6705 6677 6679 6722 6677 6678 6680 6723 6724 6679 6678 6725 6680 6681 6706 6725 6681 6682 6726 6706 6682 6683 6726 6727 6683 6684 6685 6728 6684 6707 6729 6685 6730 6686 6687 6707 6686 6730 6687 6688 6731 6688 6689 6732 6690 6733 6689 6690 6691 6734 6691 6692 6735 6692 6708 6736 6693 6737 6708 6693 6694 6737 6738 6694 6695 6739 6695 6696 6697 6740 6696 6698 6741 6697 6742 6698 6709 6709 6699 6743 6699 6700 6743 6710 6744 6700 6711 6704 6663 6701 6745 6711 6713 6712 6665 6712 6745 6701 6713 6666 6714 6714 6667 6715 6668 6716 6715 6702 6746 6716 6718 6717 6670 6702 6717 6746 6719 6718 6671 6720 6719 6703 6672 6721 6720 6710 6704 6747 6724 6722 6679 6680 6725 6723 6748 6678 6723 6748 6724 6678 6725 6706 6749 6706 6726 6750 6726 6683 6727 6728 6727 6684 6729 6728 6685 6707 6751 6729 6730 6687 6731 6707 6730 6751 6731 6688 6732 6689 6733 6732 6690 6734 6733 6734 6691 6735 6692 6736 6735 6708 6752 6736 6737 6752 6708 6737 6694 6738 6739 6738 6695 6740 6739 6696 6697 6741 6740 6742 6741 6698 6742 6709 6753 6753 6709 6743 6700 6744 6743 6710 6754 6744 6747 6704 6711 6745 6755 6711 6713 6756 6712 6712 6756 6745 6757 6713 6714 6758 6714 6715 6715 6716 6759 6716 6746 6760 6761 6717 6718 6746 6717 6761 6762 6718 6719 6763 6719 6720 6721 6764 6720 6710 6747 6754 6725 6765 6723 6765 6748 6723 6766 6725 6749 6706 6750 6749 6750 6726 6767 6726 6727 6767 6727 6728 6768 6729 6769 6728 6729 6751 6770 6771 6730 6731 6751 6730 6771 6772 6731 6732 6733 6773 6732 6733 6734 6774 6775 6734 6735 6736 6776 6735 6752 6777 6736 6737 6778 6752 6737 6738 6778 6779 6738 6739 6739 6740 6780 6741 6781 6740 6742 6782 6741 6783 6742 6753 6784 6753 6743 6744 6784 6743 6744 6754 6785 6755 6747 6711 6755 6745 6786 6757 6756 6713 6745 6756 6786 6758 6757 6714 6758 6715 6759 6716 6760 6759 6746 6787 6760 6761 6718 6762 6746 6761 6787 6762 6719 6763 6764 6763 6720 6754 6747 6788 6766 6765 6725 6789 6766 6749 6750 6789 6749 6750 6767 6790 6727 6768 6767 6728 6769 6768 6729 6770 6769 6751 6791 6770 6772 6771 6731 6751 6771 6791 6773 6772 6732 6733 6774 6773 6774 6734 6775 6776 6775 6735 6777 6776 6736 6752 6792 6777 6778 6792 6752 6778 6738 6779 6779 6739 6780 6740 6781 6780 6741 6782 6781 6783 6782 6742 6793 6783 6753 6784 6793 6753 6744 6785 6784 6754 6794 6785 6788 6747 6755 6795 6755 6786 6757 6796 6756 6756 6796 6786 6758 6797 6757 6798 6758 6759 6760 6799 6759 6787 6800 6760 6801 6761 6762 6787 6761 6801 6802 6762 6763 6764 6803 6763 6754 6788 6794 6789 6750 6790 6767 6804 6790 6768 6804 6767 6769 6805 6768 6770 6806 6769 6770 6791 6807 6808 6771 6772 6791 6771 6808 6772 6773 6809 6773 6774 6810 6774 6775 6811 6812 6775 6776 6776 6777 6813 6777 6792 6814 6778 6815 6792 6778 6779 6815 6816 6779 6780 6781 6817 6780 6781 6782 6818 6783 6819 6782 6820 6783 6793 6793 6784 6821 6784 6785 6821 6794 6822 6785 6788 6755 6795 6823 6795 6786 6757 6797 6796 6796 6823 6786 6798 6797 6758 6799 6798 6759 6800 6799 6760 6787 6824 6800 6802 6801 6762 6787 6801 6824 6803 6802 6763 6794 6788 6825 6826 6789 6790 6804 6826 6790 6805 6804 6768 6769 6806 6805 6806 6770 6807 6807 6791 6827 6808 6772 6809 6791 6808 6827 6773 6810 6809 6774 6811 6810 6811 6775 6812 6812 6776 6813 6813 6777 6814 6792 6828 6814 6792 6815 6828 6815 6779 6816 6817 6816 6780 6781 6818 6817 6782 6819 6818 6820 6819 6783 6820 6793 6829 6829 6793 6821 6785 6822 6821 6794 6830 6822 6825 6788 6795 6823 6831 6795 6796 6797 6832 6796 6832 6823 6798 6833 6797 6834 6798 6799 6799 6800 6835 6800 6824 6836 6801 6802 6837 6824 6801 6837 6803 6838 6802 6794 6825 6830 6839 6826 6804 6839 6804 6805 6806 6840 6805 6841 6806 6807 6842 6807 6827 6808 6809 6843 6808 6843 6827 6810 6844 6809 6811 6845 6810 6811 6812 6846 6847 6812 6813 6848 6813 6814 6828 6849 6814 6815 6850 6828 6815 6816 6850 6851 6816 6817 6818 6852 6817 6819 6853 6818 6820 6854 6819 6855 6820 6829 6856 6829 6821 6822 6856 6821 6830 6857 6822 6831 6825 6795 6823 6858 6831 6797 6833 6832 6823 6832 6858 6834 6833 6798 6834 6799 6835 6800 6836 6835 6836 6824 6859 6837 6802 6860 6824 6837 6859 6802 6838 6860 6830 6825 6861 6840 6839 6805 6841 6840 6806 6862 6841 6807 6842 6862 6807 6863 6842 6827 6809 6844 6843 6843 6863 6827 6810 6845 6844 6811 6846 6845 6846 6812 6847 6848 6847 6813 6849 6848 6814 6864 6849 6828 6850 6864 6828 6850 6816 6851 6852 6851 6817 6853 6852 6818 6819 6854 6853 6855 6854 6820 6865 6855 6829 6856 6865 6829 6822 6857 6856 6830 6866 6857 6861 6825 6831 6858 6867 6831 6833 6868 6832 6832 6868 6858 6869 6833 6834 6870 6834 6835 6835 6836 6871 6872 6836 6859 6873 6837 6860 6837 6873 6859 6838 6874 6860 6830 6861 6866 6875 6862 6842 6875 6842 6863 6843 6844 6876 6843 6876 6863 6844 6845 6877 6845 6846 6878 6846 6847 6879 6880 6847 6848 6881 6848 6849 6849 6864 6882 6850 6883 6864 6850 6851 6883 6884 6851 6852 6852 6853 6885 6854 6886 6853 6855 6887 6854 6865 6888 6855 6889 6865 6856 6857 6889 6856 6857 6866 6890 6867 6861 6831 6891 6867 6858 6869 6868 6833 6868 6891 6858 6869 6834 6870 6870 6835 6871 6836 6872 6871 6873 6872 6859 6874 6873 6860 6866 6861 6892 6893 6875 6863 6876 6844 6877 6876 6893 6863 6845 6878 6877 6846 6879 6878 6879 6847 6880 6880 6848 6881 6881 6849 6882 6864 6894 6882 6864 6883 6894 6883 6851 6884 6884 6852 6885 6853 6886 6885 6854 6887 6886 6855 6888 6887 6865 6895 6888 6889 6895 6865 6857 6890 6889 6890 6866 6896 6892 6861 6867 6897 6867 6891 6898 6868 6869 6898 6891 6868 6869 6870 6899 6900 6870 6871 6872 6901 6871 6873 6902 6872 6874 6903 6873 6866 6892 6896 6904 6876 6877 6905 6893 6876 6878 6904 6877 6879 6906 6878 6879 6880 6907 6880 6881 6908 6881 6882 6909 6882 6894 6910 6883 6911 6894 6883 6884 6911 6912 6884 6885 6886 6913 6885 6886 6887 6914 6887 6888 6915 6888 6895 6916 6889 6917 6895 6889 6890 6917 6890 6896 6918 6892 6867 6897 6897 6891 6919 6898 6869 6899 6919 6891 6898 6870 6900 6899 6900 6871 6920 6902 6901 6872 6871 6901 6920 6873 6903 6902 6892 6921 6896 6904 6905 6876 6906 6904 6878 6906 6879 6907 6880 6922 6907 6922 6880 6908 6881 6909 6908 6882 6910 6909 6894 6923 6910 6911 6923 6894 6911 6884 6912 6913 6912 6885 6886 6914 6913 6887 6915 6914 6915 6888 6916 6895 6924 6916 6895 6917 6924 6917 6890 6918 6918 6896 6925 6892 6897 6921 6897 6919 6926 6927 6898 6899 6919 6898 6927 6900 6928 6899 6929 6900 6920 6902 6930 6901 6901 6931 6920 6903 6932 6902 6896 6921 6925 6933 6905 6904 6933 6904 6906 6934 6906 6907 6922 6935 6907 6936 6922 6908 6909 6936 6908 6910 6937 6909 6923 6938 6910 6911 6939 6923 6911 6912 6939 6940 6912 6913 6914 6941 6913 6915 6942 6914 6915 6916 6943 6916 6924 6944 6924 6917 6945 6945 6917 6918 6946 6918 6925 6897 6926 6921 6926 6919 6947 6928 6927 6899 6947 6919 6927 6929 6928 6900 6931 6929 6920 6932 6930 6902 6901 6930 6931 6921 6948 6925 6934 6933 6906 6935 6934 6907 6949 6935 6922 6949 6922 6936 6937 6936 6909 6938 6937 6910 6923 6950 6938 6923 6939 6950 6939 6912 6940 6941 6940 6913 6942 6941 6914 6915 6943 6942 6943 6916 6944 6924 6951 6944 6924 6945 6951 6946 6945 6918 6946 6925 6952 6926 6948 6921 6926 6947 6953 6928 6954 6927 6954 6947 6927 6929 6955 6928 6956 6929 6931 6932 6957 6930 6930 6958 6931 6925 6948 6952 6959 6949 6936 6937 6959 6936 6960 6937 6938 6938 6950 6961 6950 6939 6962 6939 6940 6962 6940 6941 6963 6942 6964 6941 6942 6943 6965 6966 6943 6944 6951 6967 6944 6951 6945 6968 6968 6945 6946 6969 6946 6952 6926 6953 6948 6953 6947 6970 6955 6954 6928 6970 6947 6954 6956 6955 6929 6958 6956 6931 6930 6957 6958 6948 6971 6952 6960 6959 6937 6972 6960 6938 6950 6973 6961 6972 6938 6961 6973 6950 6962 6940 6963 6962 6941 6964 6963 6942 6965 6964 6943 6966 6965 6967 6966 6944 6951 6974 6967 6951 6968 6974 6968 6946 6969 6975 6969 6952 6948 6953 6971 6953 6970 6976 6954 6955 6977 6970 6954 6977 6956 6978 6955 6979 6956 6958 6957 6980 6958 6971 6975 6952 6973 6981 6961 6981 6972 6961 6963 6973 6962 6963 6964 6982 6964 6965 6983 6965 6966 6984 6967 6985 6966 6967 6974 6986 6974 6968 6987 6968 6969 6987 6988 6969 6975 6953 6976 6971 6976 6970 6989 6955 6978 6977 6989 6970 6977 6979 6978 6956 6980 6979 6958 6971 6990 6975 6991 6981 6973 6973 6963 6992 6964 6983 6982 6992 6963 6982 6965 6984 6983 6966 6985 6984 6967 6986 6985 6986 6974 6993 6993 6974 6987 6969 6988 6987 6994 6988 6975 6976 6990 6971 6976 6989 6995 6978 6996 6977 6996 6989 6977 6979 6997 6978 6980 6998 6979 6990 6994 6975 6991 6973 6992 6983 6999 6982 6999 6992 6982 6984 7000 6983 6985 7001 6984 6985 6986 7002 6986 6993 7003 7004 6993 6987 6988 7004 6987 6994 7005 6988 6976 6995 6990 6995 6989 7006 6997 6996 6978 7006 6989 6996 6997 6979 7007 6979 6998 7007 6990 7008 6994 7009 6991 6992 7000 6999 6983 6999 7009 6992 7001 7000 6984 7001 6985 7010 7002 6986 7003 6985 7002 7010 7003 6993 7011 6993 7004 7011 6988 7005 7004 6994 7012 7005 6990 6995 7008 6995 7006 7013 7014 6996 6997 7006 6996 7014 7015 6997 7007 6998 7016 7007 6994 7008 7012 7017 6999 7000 7017 7009 6999 7001 7018 7000 7019 7001 7010 7002 7003 7020 7002 7021 7010 7022 7003 7011 7004 7023 7011 7005 7023 7004 7005 7012 7024 7008 6995 7013 7013 7006 7025 7014 6997 7015 7006 7014 7025 7016 7015 7007 7012 7008 7026 7018 7017 7000 7019 7018 7001 7021 7019 7010 7021 7002 7020 7003 7022 7020 7027 7022 7011 7023 7027 7011 7005 7024 7023 7024 7012 7028 7026 7008 7013 7029 7013 7025 7030 7014 7015 7014 7030 7025 7016 7031 7015 7012 7026 7028 7032 7021 7020 7022 7032 7020 7033 7022 7027 7023 7034 7027 7023 7024 7034 7024 7028 7035 7026 7013 7036 7013 7029 7036 7030 7029 7025 7031 7030 7015 7028 7026 7037 7033 7032 7022 7038 7033 7027 7034 7038 7027 7034 7024 7035 7028 7039 7035 7037 7026 7036 7029 7040 7036 7030 7041 7029 7031 7042 7030 7039 7028 7037 7043 7038 7034 7044 7034 7035 7039 7044 7035 7040 7037 7036 7029 7041 7040 7030 7042 7041 7045 7039 7037 7044 7043 7034 7046 7044 7039 7040 7045 7037 7041 7047 7040 7042 7048 7041 7045 7046 7039 7049 7043 7044 7049 7044 7046 7040 7047 7045 7048 7047 7041 7045 7050 7046 7051 7049 7046 7045 7047 7052 7048 7053 7047 7050 7045 7052 7050 7051 7046 7047 7053 7052 7050 7052 7054 7055 7051 7050 7053 7056 7052 7055 7050 7054 7052 7056 7054 7057 7055 7054 7056 7057 7054 </DataArray>
        <DataArray type="Int32" Name="offsets" format="ascii">3 6 9 12 15 18 21 24 27 30 33 36 39 42 45 48 51 54 57 60 63 66 69 72 75 78 81 84 87 90 93 96 99 102 105 108 111 114 117 120 123 126 129 132 135 138 141 144 147 150 153 156 159 162 165 168 171 174 177 180 183 186 189 192 195 198 201 204 207 210 213 216 219 222 225 228 231 234 237 240 243 246 249 252 255 258 261 264 267 270 273 276 279 282 285 288 291 294 297 300 303 306 309 312 315 318 321 324 327 330 333 336 339 342 345 348 351 354 357 360 363 366 369 372 375 378 381 384 387 390 393 396 399 402 405 408 411 414 417 420 423 426 429 432 435 438 441 444 447 450 453 456 459 462 465 468 471 474 477 480 483 486 489 492 495 498 501 504 507 510 513 516 519 522 525 528 531 534 537 540 543 546 549 552 555 558 561 564 567 570 573 576 579 582 585 588 591 594 597 600 603 606 609 612 615 618 621 624 627 630 633 636 639 642 645 648 651 654 657 660 663 666 669 672 675 678 681 684 687 690 693 696 699 702 705 708 711 714 717 720 723 726 729 732 735 738 741 744 747 750 753 756 759 762 765 768 771 774 777 780 783 786 789 792 795 798 801 804 807 810 813 816 819 822 825 828 831 834 837 840 843 846 849 852 855 858 861 864 867 870 873 876 879 882 885 888 891 894 897 900 903 906 909 912 915 918 921 924 927 930 933 936 939 942 945 948 951 954 957 960 963 966 969 972 975 978 981 984 987 990 993 996 999 1002 1005 1008 1011 1014 1017 1020 1023 1026 1029 1032 1035 1038 1041 1044 1047 1050 1053 1056 1059 1062 1065 1068 1071 1074 1077 1080 1083 1086 1089 1092 1095 1098 1101 1104 1107 1110 1113 1116 1119 1122 1125 1128 1131 1134 1137 1140 1143 1146 1149 1152 1155 1158 1161 1164 1167 1170 1173 1176 1179 1182 1185 1188 1191 1194 1197 1200 1203 1206 1209 1212 1215 1218 1221 1224 1227 1230 1233 1236 1239 1242 1245 1248 1251 1254 1257 1260 1263 1266 1269 1272 1275 1278 1281 1284 1287 1290 1293 1296 1299 1302 1305 1308 1311 1314 1317 1320 1323 1326 1329 1332 1335 1338 1341 1344 1347 1350 1353 1356 1359 1362 1365 1368 1371 1374 1377 1380 1383 1386 1389 1392 1395 1398 1401 1404 1407 1410 1413 1416 1419 1422 1425 1428 1431 1434 1437 1440 1443 1446 1449 1452 1455 1458 1461 1464 1467 1470 1473 1476 1479 1482 1485 1488 1491 1494 1497 1500 1503 1506 1509 1512 1515 1518 1521 1524 1527 1530 1533 1536 1539 1542 1545 1548 1551 1554 1557 1560 1563 1566 1569 1572 1575 1578 1581 1584 1587 1590 1593 1596 1599 1602 1605 1608 1611 1614 1617 1620 1623 1626 1629 1632 1635 1638 1641 1644 1647 1650 1653 1656 1659 1662 1665 1668 1671 1674 1677 1680 1683 1686 1689 1692 1695 1698 1701 1704 1707 1710 1713 1716 1719 1722 1725 1728 1731 1734 1737 1740 1743 1746 1749 1752 1755 1758 1761 1764 1767 1770 1773 1776 1779 1782 1785 1788 1791 1794 1797 1800 1803 1806 1809 1812 1815 1818 1821 1824 1827 1830 1833 1836 1839 1842 1845 1848 1851 1854 1857 1860 1863 1866 1869 1872 1875 1878 1881 1884 1887 1890 1893 1896 1899 1902 1905 1908 1911 1914 1917 1920 1923 1926 1929 1932 1935 1938 1941 1944 1947 1950 1953 1956 1959 1962 1965 1968 1971 1974 1977 1980 1983 1986 1989 1992 1995 1998 2001 2004 2007 2010 2013 2016 2019 2022 2025 2028 2031 2034 2037 2040 2043 2046 2049 2052 2055 2058 2061 2064 2067 2070 2073 2076 2079 2082 2085 2088 2091 2094 2097 2100 2103 2106 2109 2112 2115 2118 2121 2124 2127 2130 2133 2136 2139 2142 2145 2148 2151 2154 2157 2160 2163 2166 2169 2172 2175 2178 2181 2184 2187 2190 2193 2196 2199 2202 2205 2208 2211 2214 2217 2220 2223 2226 2229 2232 2235 2238 2241 2244 2247 2250 2253 2256 2259 2262 2265 2268 2271 2274 2277 2280 2283 2286 2289 2292 2295 2298 2301 2304 2307 2310 2313 2316 2319 2322 2325 2328 2331 2334 2337 2340 2343 2346 2349 2352 2355 2358 2361 2364 2367 2370 2373 2376 2379 2382 2385 2388 2391 2394 2397 2400 2403 2406 2409 2412 2415 2418 2421 2424 2427 2430 2433 2436 2439 2442 2445 2448 2451 2454 2457 2460 2463 2466 2469 2472 2475 2478 2481 2484 2487 2490 2493 2496 2499 2502 2505 2508 2511 2514 2517 2520 2523 2526 2529 2532 2535 2538 2541 2544 2547 2550 2553 2556 2559 2562 2565 2568 2571 2574 2577 2580 2583 2586 2589 2592 2595 2598 2601 2604 2607 2610 2613 2616 2619 2622 2625 2628 2631 2634 2637 2640 2643 2646 2649 2652 2655 2658 2661 2664 2667 2670 2673 2676 2679 2682 2685 2688 2691 2694 2697 2700 2703 2706 2709 2712 2715 2718 2721 2724 2727 2730 2733 2736 2739 2742 2745 2748 2751 2754 2757 2760 2763 2766 2769 2772 2775 2778 2781 2784 2787 2790 2793 2796 2799 2802 2805 2808 2811 2814 2817 2820 2823 2826 2829 2832 2835 2838 2841 2844 2847 2850 2853 2856 2859 2862 2865 2868 2871 2874 2877 2880 2883 2886 2889 2892 2895 2898 2901 2904 2907 2910 2913 2916 2919 2922 2925 2928 2931 2934 2937 2940 2943 2946 2949 2952 2955 2958 2961 2964 2967 2970 2973 2976 2979 2982 2985 2988 2991 2994 2997 3000 3003 3006 3009 3012 3015 3018 3021 3024 3027 3030 3033 3036 3039 3042 3045 3048 3051 3054 3057 3060 3063 3066 3069 3072 3075 3078 3081 3084 3087 3090 3093 3096 3099 3102 3105 3108 3111 3114 3117 3120 3123 3126 3129 3132 3135 3138 3141 3144 3147 3150 3153 3156 3159 3162 3165 3168 3171 3174 3177 3180 3183 3186 3189 3192 3195 3198 3201 3204 3207 3210 3213 3216 3219 3222 3225 3228 3231 3234 3237 3240 3243 3246 3249 3252 3255 3258 3261 3264 3267 3270 3273 3276 3279 3282 3285 3288 3291 3294 3297 3300 3303 3306 3309 3312 3315 3318 3321 3324 3327 3330 3333 3336 3339 3342 3345 3348 3351 3354 3357 3360 3363 3366 3369 3372 3375 3378 3381 3384 3387 3390 3393 3396 3399 3402 3405 3408 3411 3414 3417 3420 3423 3426 3429 3432 3435 3438 3441 3444 3447 3450 3453 3456 3459 3462 3465 3468 3471 3474 3477 3480 3483 3486 3489 3492 3495 3498 3501 3504 3507 3510 3513 3516 3519 3522 3525 3528 3531 3534 3537 3540 3543 3546 3549 3552 3555 3558 3561 3564 3567 3570 3573 3576 3579 3582 3585 3588 3591 3594 3597 3600 3603 3606 3609 3612 3615 3618 3621 3624 3627 3630 3633 3636 3639 3642 3645 3648 3651 3654 3657 3660 3663 3666 3669 3672 3675 3678 3681 3684 3687 3690 3693 3696 3699 3702 3705 3708 3711 3714 3717 3720 3723 3726 3729 3732 3735 3738 3741 3744 3747 3750 3753 3756 3759 3762 3765 3768 3771 3774 3777 3780 3783 3786 3789 3792 3795 3798 3801 3804 3807 3810 3813 3816 3819 3822 3825 3828 3831 3834 3837 3840 3843 3846 3849 3852 3855 3858 3861 3864 3867 3870 3873 3876 3879 3882 3885 3888 3891 3894 3897 3900 3903 3906 3909 3912 3915 3918 3921 3924 3927 3930 3933 3936 3939 3942 3945 3948 3951 3954 3957 3960 3963 3966 3969 3972 3975 3978 3981 3984 3987 3990 3993 3996 3999 4002 4005 4008 4011 4014 4017 4020 4023 4026 4029 4032 4035 4038 4041 4044 4047 4050 4053 4056 4059 4062 4065 4068 4071 4074 4077 4080 4083 4086 4089 4092 4095 4098 4101 4104 4107 4110 4113 4116 4119 4122 4125 4128 4131 4134 4137 4140 4143 4146 4149 4152 4155 4158 4161 4164 4167 4170 4173 4176 4179 4182 4185 4188 4191 4194 4197 4200 4203 4206 4209 4212 4215 4218 4221 4224 4227 4230 4233 4236 4239 4242 4245 4248 4251 4254 4257 4260 4263 4266 4269 4272 4275 4278 4281 4284 4287 4290 4293 4296 4299 4302 4305 4308 4311 4314 4317 4320 4323 4326 4329 4332 4335 4338 4341 4344 4347 4350 4353 4356 4359 4362 4365 4368 4371 4374 4377 4380 4383 4386 4389 4392 4395 4398 4401 4404 4407 4410 4413 4416 4419 4422 4425 4428 4431 4434 4437 4440 4443 4446 4449 4452 4455 4458 4461 4464 4467 4470 4473 4476 4479 4482 4485 4488 4491 4494 4497 4500 4503 4506 4509 4512 4515 4518 4521 4524 4527 4530 4533 4536 4539 4542 4545 4548 4551 4554 4557 4560 4563 4566 4569 4572 4575 4578 4581 4584 4587 4590 4593 4596 4599 4602 4605 4608 4611 4614 4617 4620 4623 4626 4629 4632 4635 4638 4641 4644 4647 4650 4653 4656 4659 4662 4665 4668 4671 4674 4677 4680 4683 4686 4689 4692 4695 4698 4701 4704 4707 4710 4713 4716 4719 4722 4725 4728 4731 4734 4737 4740 4743 4746 4749 4752 4755 4758 4761 4764 4767 4770 4773 4776 4779 4782 4785 4788 4791 4794 4797 4800 4803 4806 4809 4812 4815 4818 4821 4824 4827 4830 4833 4836 4839 4842 4845 4848 4851 4854 4857 4860 4863 4866 4869 4872 4875 4878 4881 4884 4887 4890 4893 4896 4899 4902 4905 4908 4911 4914 4917 4920 4923 4926 4929 4932 4935 4938 4941 4944 4947 4950 4953 4956 4959 4962 4965 4968 4971 4974 4977 4980 4983 4986 4989 4992 4995 4998 5001 5004 5007 5010 5013 5016 5019 5022 5025 5028 5031 5034 5037 5040 5043 5046 5049 5052 5055 5058 5061 5064 5067 5070 5073 5076 5079 5082 5085 5088 5091 5094 5097 5100 5103 5106 5109 5112 5115 5118 5121 5124 5127 5130 5133 5136 5139 5142 5145 5148 5151 5154 5157 5160 5163 5166 5169 5172 5175 5178 5181 5184 5187 5190 5193 5196 5199 5202 5205 5208 5211 5214 5217 5220 5223 5226 5229 5232 5235 5238 5241 5244 5247 5250 5253 5256 5259 5262 5265 5268 5271 5274 5277 5280 5283 5286 5289 5292 5295 5298 5301 5304 5307 5310 5313 5316 5319 5322 5325 5328 5331 5334 5337 5340 5343 5346 5349 5352 5355 5358 5361 5364 5367 5370 5373 5376 5379 5382 5385 5388 5391 5394 5397 5400 5403 5406 5409 5412 5415 5418 5421 5424 5427 5430 5433 5436 5439 5442 5445 5448 5451 5454 5457 5460 5463 5466 5469 5472 5475 5478 5481 5484 5487 5490 5493 5496 5499 5502 5505 5508 5511 5514 5517 5520 5523 5526 5529 5532 5535 5538 5541 5544 5547 5550 5553 5556 5559 5562 5565 5568 5571 5574 5577 5580 5583 5586 5589 5592 5595 5598 5601 5604 5607 5610 5613 5616 5619 5622 5625 5628 5631 5634 5637 5640 5643 5646 5649 5652 5655 5658 5661 5664 5667 5670 5673 5676 5679 5682 5685 5688 5691 5694 5697 5700 5703 5706 5709 5712 5715 5718 5721 5724 5727 5730 5733 5736 5739 5742 5745 5748 5751 5754 5757 5760 5763 5766 5769 5772 5775 5778 5781 5784 5787 5790 5793 5796 5799 5802 5805 5808 5811 5814 5817 5820 5823 5826 5829 5832 5835 5838 5841 5844 5847 5850 5853 5856 5859 5862 5865 5868 5871 5874 5877 5880 5883 5886 5889 5892 5895 5898 5901 5904 5907 5910 5913 5916 5919 5922 5925 5928 5931 5934 5937 5940 5943 5946 5949 5952 5955 5958 5961 5964 5967 5970 5973 5976 5979 5982 5985 5988 5991 5994 5997 6000 6003 6006 6009 6012 6015 6018 6021 6024 6027 6030 6033 6036 6039 6042 6045 6048 6051 6054 6057 6060 6063 6066 6069 6072 6075 6078 6081 6084 6087 6090 6093 6096 6099 6102 6105 6108 6111 6114 6117 6120 6123 6126 6129 6132 6135 6138 6141 6144 6147 6150 6153 6156 6159 6162 6165 6168 6171 6174 6177 6180 6183 6186 6189 6192 6195 6198 6201 6204 6207 6210 6213 6216 6219 6222 6225 6228 6231 6234 6237 6240 6243 6246 6249 6252 6255 6258 6261 6264 6267 6270 6273 6276 6279 6282 6285 6288 6291 6294 6297 6300 6303 6306 6309 6312 6315 6318 6321 6324 6327 6330 6333 6336 6339 6342 6345 6348 6351 6354 6357 6360 6363 6366 6369 6372 6375 6378 6381 6384 6387 6390 6393 6396 6399 6402 6405 6408 6411 6414 6417 6420 6423 6426 6429 6432 6435 6438 6441 6444 6447 6450 6453 6456 6459 6462 6465 6468 6471 6474 6477 6480 6483 6486 6489 6492 6495 6498 6501 6504 6507 6510 6513 6516 6519 6522 6525 6528 6531 6534 6537 6540 6543 6546 6549 6552 6555 6558 6561 6564 6567 6570 6573 6576 6579 6582 6585 6588 6591 6594 6597 6600 6603 6606 6609 6612 6615 6618 6621 6624 6627 6630 6633 6636 6639 6642 6645 6648 6651 6654 6657 6660 6663 6666 6669 6672 6675 6678 6681 6684 6687 6690 6693 6696 6699 6702 6705 6708 6711 6714 6717 6720 6723 6726 6729 6732 6735 6738 6741 6744 6747 6750 6753 6756 6759 6762 6765 6768 6771 6774 6777 6780 6783 6786 6789 6792 6795 6798 6801 6804 6807 6810 6813 6816 6819 6822 6825 6828 6831 6834 6837 6840 6843 6846 6849 6852 6855 6858 6861 6864 6867 6870 6873 6876 6879 6882 6885 6888 6891 6894 6897 6900 6903 6906 6909 6912 6915 6918 6921 6924 6927 6930 6933 6936 6939 6942 6945 6948 6951 6954 6957 6960 6963 6966 6969 6972 6975 6978 6981 6984 6987 6990 6993 6996 6999 7002 7005 7008 7011 7014 7017 7020 7023 7026 7029 7032 7035 7038 7041 7044 7047 7050 7053 7056 7059 7062 7065 7068 7071 7074 7077 7080 7083 7086 7089 7092 7095 7098 7101 7104 7107 7110 7113 7116 7119 7122 7125 7128 7131 7134 7137 7140 7143 7146 7149 7152 7155 7158 7161 7164 7167 7170 7173 7176 7179 7182 7185 7188 7191 7194 7197 7200 7203 7206 7209 7212 7215 7218 7221 7224 7227 7230 7233 7236 7239 7242 7245 7248 7251 7254 7257 7260 7263 7266 7269 7272 7275 7278 7281 7284 7287 7290 7293 7296 7299 7302 7305 7308 7311 7314 7317 7320 7323 7326 7329 7332 7335 7338 7341 7344 7347 7350 7353 7356 7359 7362 7365 7368 7371 7374 7377 7380 7383 7386 7389 7392 7395 7398 7401 7404 7407 7410 7413 7416 7419 7422 7425 7428 7431 7434 7437 7440 7443 7446 7449 7452 7455 7458 7461 7464 7467 7470 7473 7476 7479 7482 7485 7488 7491 7494 7497 7500 7503 7506 7509 7512 7515 7518 7521 7524 7527 7530 7533 7536 7539 7542 7545 7548 7551 7554 7557 7560 7563 7566 7569 7572 7575 7578 7581 7584 7587 7590 7593 7596 7599 7602 7605 7608 7611 7614 7617 7620 7623 7626 7629 7632 7635 7638 7641 7644 7647 7650 7653 7656 7659 7662 7665 7668 7671 7674 7677 7680 7683 7686 7689 7692 7695 7698 7701 7704 7707 7710 7713 7716 7719 7722 7725 7728 7731 7734 7737 7740 7743 7746 7749 7752 7755 7758 7761 7764 7767 7770 7773 7776 7779 7782 7785 7788 7791 7794 7797 7800 7803 7806 7809 7812 7815 7818 7821 7824 7827 7830 7833 7836 7839 7842 7845 7848 7851 7854 7857 7860 7863 7866 7869 7872 7875 7878 7881 7884 7887 7890 7893 7896 7899 7902 7905 7908 7911 7914 7917 7920 7923 7926 7929 7932 7935 7938 7941 7944 7947 7950 7953 7956 7959 7962 7965 7968 7971 7974 7977 7980 7983 7986 7989 7992 7995 7998 8001 8004 8007 8010 8013 8016 8019 8022 8025 8028 8031 8034 8037 8040 8043 8046 8049 8052 8055 8058 8061 8064 8067 8070 8073 8076 8079 8082 8085 8088 8091 8094 8097 8100 8103 8106 8109 8112 8115 8118 8121 8124 8127 8130 8133 8136 8139 8142 8145 8148 8151 8154 8157 8160 8163 8166 8169 8172 8175 8178 8181 8184 8187 8190 8193 8196 8199 8202 8205 8208 8211 8214 8217 8220 8223 8226 8229 8232 8235 8238 8241 8244 8247 8250 8253 8256 8259 8262 8265 8268 8271 8274 8277 8280 8283 8286 8289 8292 8295 8298 8301 8304 8307 8310 8313 8316 8319 8322 8325 8328 8331 8334 8337 8340 8343 8346 8349 8352 8355 8358 8361 8364 8367 8370 8373 8376 8379 8382 8385 8388 8391 8394 8397 8400 8403 8406 8409 8412 8415 8418 8421 8424 8427 8430 8433 8436 8439 8442 8445 8448 8451 8454 8457 8460 8463 8466 8469 8472 8475 8478 8481 8484 8487 8490 8493 8496 8499 8502 8505 8508 8511 8514 8517 8520 8523 8526 8529 8532 8535 8538 8541 8544 8547 8550 8553 8556 8559 8562 8565 8568 8571 8574 8577 8580 8583 8586 8589 8592 8595 8598 8601 8604 8607 8610 8613 8616 8619 8622 8625 8628 8631 8634 8637 8640 8643 8646 8649 8652 8655 8658 8661 8664 8667 8670 8673 8676 8679 8682 8685 8688 8691 8694 8697 8700 8703 8706 8709 8712 8715 8718 8721 8724 8727 8730 8733 8736 8739 8742 8745 8748 8751 8754 8757 8760 8763 8766 8769 8772 8775 8778 8781 8784 8787 8790 8793 8796 8799 8802 8805 8808 8811 8814 8817 8820 8823 8826 8829 8832 8835 8838 8841 8844 8847 8850 8853 8856 8859 8862 8865 8868 8871 8874 8877 8880 8883 8886 8889 8892 8895 8898 8901 8904 8907 8910 8913 8916 8919 8922 8925 8928 8931 8934 8937 8940 8943 8946 8949 8952 8955 8958 8961 8964 8967 8970 8973 8976 8979 8982 8985 8988 8991 8994 8997 9000 9003 9006 9009 9012 9015 9018 9021 9024 9027 9030 9033 9036 9039 9042 9045 9048 9051 9054 9057 9060 9063 9066 9069 9072 9075 9078 9081 9084 9087 9090 9093 9096 9099 9102 9105 9108 9111 9114 9117 9120 9123 9126 9129 9132 9135 9138 9141 9144 9147 9150 9153 9156 9159 9162 9165 9168 9171 9174 9177 9180 9183 9186 9189 9192 9195 9198 9201 9204 9207 9210 9213 9216 9219 9222 9225 9228 9231 9234 9237 9240 9243 9246 9249 9252 9255 9258 9261 9264 9267 9270 9273 9276 9279 9282 9285 9288 9291 9294 9297 9300 9303 9306 9309 9312 9315 9318 9321 9324 9327 9330 9333 9336 9339 9342 9345 9348 9351 9354 9357 9360 9363 9366 9369 9372 9375 9378 9381 9384 9387 9390 9393 9396 9399 9402 9405 9408 9411 9414 9417 9420 9423 9426 9429 9432 9435 9438 9441 9444 9447 9450 9453 9456 9459 9462 9465 9468 9471 9474 9477 9480 9483 9486 9489 9492 9495 9498 9501 9504 9507 9510 9513 9516 9519 9522 9525 9528 9531 9534 9537 9540 9543 9546 9549 9552 9555 9558 9561 9564 9567 9570 9573 9576 9579 9582 9585 9588 9591 9594 9597 9600 9603 9606 9609 9612 9615 9618 9621 9624 9627 9630 9633 9636 9639 9642 9645 9648 9651 9654 9657 9660 9663 9666 9669 9672 9675 9678 9681 9684 9687 9690 9693 9696 9699 9702 9705 9708 9711 9714 9717 9720 9723 9726 9729 9732 9735 9738 9741 9744 9747 9750 9753 9756 9759 9762 9765 9768 9771 9774 9777 9780 9783 9786 9789 9792 9795 9798 9801 9804 9807 9810 9813 9816 9819 9822 9825 9828 9831 9834 9837 9840 9843 9846 9849 9852 9855 9858 9861 9864 9867 9870 9873 9876 9879 9882 9885 9888 9891 9894 9897 9900 9903 9906 9909 9912 9915 9918 9921 9924 9927 9930 9933 9936 9939 9942 9945 9948 9951 9954 9957 9960 9963 9966 9969 9972 9975 9978 9981 9984 9987 9990 9993 9996 9999 10002 10005 10008 10011 10014 10017 10020 10023 10026 10029 10032 10035 10038 10041 10044 10047 10050 10053 10056 10059 10062 10065 10068 10071 10074 10077 10080 10083 10086 10089 10092 10095 10098 10101 10104 10107 10110 10113 10116 10119 10122 10125 10128 10131 10134 10137 10140 10143 10146 10149 10152 10155 10158 10161 10164 10167 10170 10173 10176 10179 10182 10185 10188 10191 10194 10197 10200 10203 10206 10209 10212 10215 10218 10221 10224 10227 10230 10233 10236 10239 10242 10245 10248 10251 10254 10257 10260 10263 10266 10269 10272 10275 10278 10281 10284 10287 10290 10293 10296 10299 10302 10305 10308 10311 10314 10317 10320 10323 10326 10329 10332 10335 10338 10341 10344 10347 10350 10353 10356 10359 10362 10365 10368 10371 10374 10377 10380 10383 10386 10389 10392 10395 10398 10401 10404 10407 10410 10413 10416 10419 10422 10425 10428 10431 10434 10437 10440 10443 10446 10449 10452 10455 10458 10461 10464 10467 10470 10473 10476 10479 10482 10485 10488 10491 10494 10497 10500 10503 10506 10509 10512 10515 10518 10521 10524 10527 10530 10533 10536 10539 10542 10545 10548 10551 10554 10557 10560 10563 10566 10569 10572 10575 10578 10581 10584 10587 10590 10593 10596 10599 10602 10605 10608 10611 10614 10617 10620 10623 10626 10629 10632 10635 10638 10641 10644 10647 10650 10653 10656 10659 10662 10665 10668 10671 10674 10677 10680 10683 10686 10689 10692 10695 10698 10701 10704 10707 10710 10713 10716 10719 10722 10725 10728 10731 10734 10737 10740 10743 10746 10749 10752 10755 10758 10761 10764 10767 10770 10773 10776 10779 10782 10785 10788 10791 10794 10797 10800 10803 10806 10809 10812 10815 10818 10821 10824 10827 10830 10833 10836 10839 10842 10845 10848 10851 10854 10857 10860 10863 10866 10869 10872 10875 10878 10881 10884 10887 10890 10893 10896 10899 10902 10905 10908 10911 10914 10917 10920 10923 10926 10929 10932 10935 10938 10941 10944 10947 10950 10953 10956 10959 10962 10965 10968 10971 10974 10977 10980 10983 10986 10989 10992 10995 10998 11001 11004 11007 11010 11013 11016 11019 11022 11025 11028 11031 11034 11037 11040 11043 11046 11049 11052 11055 11058 11061 11064 11067 11070 11073 11076 11079 11082 11085 11088 11091 11094 11097 11100 11103 11106 11109 11112 11115 11118 11121 11124 11127 11130 11133 11136 11139 11142 11145 11148 11151 11154 11157 11160 11163 11166 11169 11172 11175 11178 11181 11184 11187 11190 11193 11196 11199 11202 11205 11208 11211 11214 11217 11220 11223 11226 11229 11232 11235 11238 11241 11244 11247 11250 11253 11256 11259 11262 11265 11268 11271 11274 11277 11280 11283 11286 11289 11292 11295 11298 11301 11304 11307 11310 11313 11316 11319 11322 11325 11328 11331 11334 11337 11340 11343 11346 11349 11352 11355 11358 11361 11364 11367 11370 11373 11376 11379 11382 11385 11388 11391 11394 11397 11400 11403 11406 11409 11412 11415 11418 11421 11424 11427 11430 11433 11436 11439 11442 11445 11448 11451 11454 11457 11460 11463 11466 11469 11472 11475 11478 11481 11484 11487 11490 11493 11496 11499 11502 11505 11508 11511 11514 11517 11520 11523 11526 11529 11532 11535 11538 11541 11544 11547 11550 11553 11556 11559 11562 11565 11568 11571 11574 11577 11580 11583 11586 11589 11592 11595 11598 11601 11604 11607 11610 11613 11616 11619 11622 11625 11628 11631 11634 11637 11640 11643 11646 11649 11652 11655 11658 11661 11664 11667 11670 11673 11676 11679 11682 11685 11688 11691 11694 11697 11700 11703 11706 11709 11712 11715 11718 11721 11724 11727 11730 11733 11736 11739 11742 11745 11748 11751 11754 11757 11760 11763 11766 11769 11772 11775 11778 11781 11784 11787 11790 11793 11796 11799 11802 11805 11808 11811 11814 11817 11820 11823 11826 11829 11832 11835 11838 11841 11844 11847 11850 11853 11856 11859 11862 11865 11868 11871 11874 11877 11880 11883 11886 11889 11892 11895 11898 11901 11904 11907 11910 11913 11916 11919 11922 11925 11928 11931 11934 11937 11940 11943 11946 11949 11952 11955 11958 11961 11964 11967 11970 11973 11976 11979 11982 11985 11988 11991 11994 11997 12000 12003 12006 12009 12012 12015 12018 12021 12024 12027 12030 12033 12036 12039 12042 12045 12048 12051 12054 12057 12060 12063 12066 12069 12072 12075 12078 12081 12084 12087 12090 12093 12096 12099 12102 12105 12108 12111 12114 12117 12120 12123 12126 12129 12132 12135 12138 12141 12144 12147 12150 12153 12156 12159 12162 12165 12168 12171 12174 12177 12180 12183 12186 12189 12192 12195 12198 12201 12204 12207 12210 12213 12216 12219 12222 12225 12228 12231 12234 12237 12240 12243 12246 12249 12252 12255 12258 12261 12264 12267 12270 12273 12276 12279 12282 12285 12288 12291 12294 12297 12300 12303 12306 12309 12312 12315 12318 12321 12324 12327 12330 12333 12336 12339 12342 12345 12348 12351 12354 12357 12360 12363 12366 12369 12372 12375 12378 12381 12384 12387 12390 12393 12396 12399 12402 12405 12408 12411 12414 12417 12420 12423 12426 12429 12432 12435 12438 12441 12444 12447 12450 12453 12456 12459 12462 12465 12468 12471 12474 12477 12480 12483 12486 12489 12492 12495 12498 12501 12504 12507 12510 12513 12516 12519 12522 12525 12528 12531 12534 12537 12540 12543 12546 12549 12552 12555 12558 12561 12564 12567 12570 12573 12576 12579 12582 12585 12588 12591 12594 12597 12600 12603 12606 12609 12612 12615 12618 12621 12624 12627 12630 12633 12636 12639 12642 12645 12648 12651 12654 12657 12660 12663 12666 12669 12672 12675 12678 12681 12684 12687 12690 12693 12696 12699 12702 12705 12708 12711 12714 12717 12720 12723 12726 12729 12732 12735 12738 12741 12744 12747 12750 12753 12756 12759 12762 12765 12768 12771 12774 12777 12780 12783 12786 12789 12792 12795 12798 12801 12804 12807 12810 12813 12816 12819 12822 12825 12828 12831 12834 12837 12840 12843 12846 12849 12852 12855 12858 12861 12864 12867 12870 12873 12876 12879 12882 12885 12888 12891 12894 12897 12900 12903 12906 12909 12912 12915 12918 12921 12924 12927 12930 12933 12936 12939 12942 12945 12948 12951 12954 12957 12960 12963 12966 12969 12972 12975 12978 12981 12984 12987 12990 12993 12996 12999 13002 13005 13008 13011 13014 13017 13020 13023 13026 13029 13032 13035 13038 13041 13044 13047 13050 13053 13056 13059 13062 13065 13068 13071 13074 13077 13080 13083 13086 13089 13092 13095 13098 13101 13104 13107 13110 13113 13116 13119 13122 13125 13128 13131 13134 13137 13140 13143 13146 13149 13152 13155 13158 13161 13164 13167 13170 13173 13176 13179 13182 13185 13188 13191 13194 13197 13200 13203 13206 13209 13212 13215 13218 13221 13224 13227 13230 13233 13236 13239 13242 13245 13248 13251 13254 13257 13260 13263 13266 13269 13272 13275 13278 13281 13284 13287 13290 13293 13296 13299 13302 13305 13308 13311 13314 13317 13320 13323 13326 13329 13332 13335 13338 13341 13344 13347 13350 13353 13356 13359 13362 13365 13368 13371 13374 13377 13380 13383 13386 13389 13392 13395 13398 13401 13404 13407 13410 13413 13416 13419 13422 13425 13428 13431 13434 13437 13440 13443 13446 13449 13452 13455 13458 13461 13464 13467 13470 13473 13476 13479 13482 13485 13488 13491 13494 13497 13500 13503 13506 13509 13512 13515 13518 13521 13524 13527 13530 13533 13536 13539 13542 13545 13548 13551 13554 13557 13560 13563 13566 13569 13572 13575 13578 13581 13584 13587 13590 13593 13596 13599 13602 13605 13608 13611 13614 13617 13620 13623 13626 13629 13632 13635 13638 13641 13644 13647 13650 13653 13656 13659 13662 13665 13668 13671 13674 13677 13680 13683 13686 13689 13692 13695 13698 13701 13704 13707 13710 13713 13716 13719 13722 13725 13728 13731 13734 13737 13740 13743 13746 13749 13752 13755 13758 13761 13764 13767 13770 13773 13776 13779 13782 13785 13788 13791 13794 13797 13800 13803 13806 13809 13812 13815 13818 13821 13824 13827 13830 13833 13836 13839 13842 13845 13848 13851 13854 13857 13860 13863 13866 13869 13872 13875 13878 13881 13884 13887 13890 13893 13896 13899 13902 13905 13908 13911 13914 13917 13920 13923 13926 13929 13932 13935 13938 13941 13944 13947 13950 13953 13956 13959 13962 13965 13968 13971 13974 13977 13980 13983 13986 13989 13992 13995 13998 14001 14004 14007 14010 14013 14016 14019 14022 14025 14028 14031 14034 14037 14040 14043 14046 14049 14052 14055 14058 14061 14064 14067 14070 14073 14076 14079 14082 14085 14088 14091 14094 14097 14100 14103 14106 14109 14112 14115 14118 14121 14124 14127 14130 14133 14136 14139 14142 14145 14148 14151 14154 14157 14160 14163 14166 14169 14172 14175 14178 14181 14184 14187 14190 14193 14196 14199 14202 14205 14208 14211 14214 14217 14220 14223 14226 14229 14232 14235 14238 14241 14244 14247 14250 14253 14256 14259 14262 14265 14268 14271 14274 14277 14280 14283 14286 14289 14292 14295 14298 14301 14304 14307 14310 14313 14316 14319 14322 14325 14328 14331 14334 14337 14340 14343 14346 14349 14352 14355 14358 14361 14364 14367 14370 14373 14376 14379 14382 14385 14388 14391 14394 14397 14400 14403 14406 14409 14412 14415 14418 14421 14424 14427 14430 14433 14436 14439 14442 14445 14448 14451 14454 14457 14460 14463 14466 14469 14472 14475 14478 14481 14484 14487 14490 14493 14496 14499 14502 14505 14508 14511 14514 14517 14520 14523 14526 14529 14532 14535 14538 14541 14544 14547 14550 14553 14556 14559 14562 14565 14568 14571 14574 14577 14580 14583 14586 14589 14592 14595 14598 14601 14604 14607 14610 14613 14616 14619 14622 14625 14628 14631 14634 14637 14640 14643 14646 14649 14652 14655 14658 14661 14664 14667 14670 14673 14676 14679 14682 14685 14688 14691 14694 14697 14700 14703 14706 14709 14712 14715 14718 14721 14724 14727 14730 14733 14736 14739 14742 14745 14748 14751 14754 14757 14760 14763 14766 14769 14772 14775 14778 14781 14784 14787 14790 14793 14796 14799 14802 14805 14808 14811 14814 14817 14820 14823 14826 14829 14832 14835 14838 14841 14844 14847 14850 14853 14856 14859 14862 14865 14868 14871 14874 14877 14880 14883 14886 14889 14892 14895 14898 14901 14904 14907 14910 14913 14916 14919 14922 14925 14928 14931 14934 14937 14940 14943 14946 14949 14952 14955 14958 14961 14964 14967 14970 14973 14976 14979 14982 14985 14988 14991 14994 14997 15000 15003 15006 15009 15012 15015 15018 15021 15024 15027 15030 15033 15036 15039 15042 15045 15048 15051 15054 15057 15060 15063 15066 15069 15072 15075 15078 15081 15084 15087 15090 15093 15096 15099 15102 15105 15108 15111 15114 15117 15120 15123 15126 15129 15132 15135 15138 15141 15144 15147 15150 15153 15156 15159 15162 15165 15168 15171 15174 15177 15180 15183 15186 15189 15192 15195 15198 15201 15204 15207 15210 15213 15216 15219 15222 15225 15228 15231 15234 15237 15240 15243 15246 15249 15252 15255 15258 15261 15264 15267 15270 15273 15276 15279 15282 15285 15288 15291 15294 15297 15300 15303 15306 15309 15312 15315 15318 15321 15324 15327 15330 15333 15336 15339 15342 15345 15348 15351 15354 15357 15360 15363 15366 15369 15372 15375 15378 15381 15384 15387 15390 15393 15396 15399 15402 15405 15408 15411 15414 15417 15420 15423 15426 15429 15432 15435 15438 15441 15444 15447 15450 15453 15456 15459 15462 15465 15468 15471 15474 15477 15480 15483 15486 15489 15492 15495 15498 15501 15504 15507 15510 15513 15516 15519 15522 15525 15528 15531 15534 15537 15540 15543 15546 15549 15552 15555 15558 15561 15564 15567 15570 15573 15576 15579 15582 15585 15588 15591 15594 15597 15600 15603 15606 15609 15612 15615 15618 15621 15624 15627 15630 15633 15636 15639 15642 15645 15648 15651 15654 15657 15660 15663 15666 15669 15672 15675 15678 15681 15684 15687 15690 15693 15696 15699 15702 15705 15708 15711 15714 15717 15720 15723 15726 15729 15732 15735 15738 15741 15744 15747 15750 15753 15756 15759 15762 15765 15768 15771 15774 15777 15780 15783 15786 15789 15792 15795 15798 15801 15804 15807 15810 15813 15816 15819 15822 15825 15828 15831 15834 15837 15840 15843 15846 15849 15852 15855 15858 15861 15864 15867 15870 15873 15876 15879 15882 15885 15888 15891 15894 15897 15900 15903 15906 15909 15912 15915 15918 15921 15924 15927 15930 15933 15936 15939 15942 15945 15948 15951 15954 15957 15960 15963 15966 15969 15972 15975 15978 15981 15984 15987 15990 15993 15996 15999 16002 16005 16008 16011 16014 16017 16020 16023 16026 16029 16032 16035 16038 16041 16044 16047 16050 16053 16056 16059 16062 16065 16068 16071 16074 16077 16080 16083 16086 16089 16092 16095 16098 16101 16104 16107 16110 16113 16116 16119 16122 16125 16128 16131 16134 16137 16140 16143 16146 16149 16152 16155 16158 16161 16164 16167 16170 16173 16176 16179 16182 16185 16188 16191 16194 16197 16200 16203 16206 16209 16212 16215 16218 16221 16224 16227 16230 16233 16236 16239 16242 16245 16248 16251 16254 16257 16260 16263 16266 16269 16272 16275 16278 16281 16284 16287 16290 16293 16296 16299 16302 16305 16308 16311 16314 16317 16320 16323 16326 16329 16332 16335 16338 16341 16344 16347 16350 16353 16356 16359 16362 16365 16368 16371 16374 16377 16380 16383 16386 16389 16392 16395 16398 16401 16404 16407 16410 16413 16416 16419 16422 16425 16428 16431 16434 16437 16440 16443 16446 16449 16452 16455 16458 16461 16464 16467 16470 16473 16476 16479 16482 16485 16488 16491 16494 16497 16500 16503 16506 16509 16512 16515 16518 16521 16524 16527 16530 16533 16536 16539 16542 16545 16548 16551 16554 16557 16560 16563 16566 16569 16572 16575 16578 16581 16584 16587 16590 16593 16596 16599 16602 16605 16608 16611 16614 16617 16620 16623 16626 16629 16632 16635 16638 16641 16644 16647 16650 16653 16656 16659 16662 16665 16668 16671 16674 16677 16680 16683 16686 16689 16692 16695 16698 16701 16704 16707 16710 16713 16716 16719 16722 16725 16728 16731 16734 16737 16740 16743 16746 16749 16752 16755 16758 16761 16764 16767 16770 16773 16776 16779 16782 16785 16788 16791 16794 16797 16800 16803 16806 16809 16812 16815 16818 16821 16824 16827 16830 16833 16836 16839 16842 16845 16848 16851 16854 16857 16860 16863 16866 16869 16872 16875 16878 16881 16884 16887 16890 16893 16896 16899 16902 16905 16908 16911 16914 16917 16920 16923 16926 16929 16932 16935 16938 16941 16944 16947 16950 16953 16956 16959 16962 16965 16968 16971 16974 16977 16980 16983 16986 16989 16992 16995 16998 17001 17004 17007 17010 17013 17016 17019 17022 17025 17028 17031 17034 17037 17040 17043 17046 17049 17052 17055 17058 17061 17064 17067 17070 17073 17076 17079 17082 17085 17088 17091 17094 17097 17100 17103 17106 17109 17112 17115 17118 17121 17124 17127 17130 17133 17136 17139 17142 17145 17148 17151 17154 17157 17160 17163 17166 17169 17172 17175 17178 17181 17184 17187 17190 17193 17196 17199 17202 17205 17208 17211 17214 17217 17220 17223 17226 17229 17232 17235 17238 17241 17244 17247 17250 17253 17256 17259 17262 17265 17268 17271 17274 17277 17280 17283 17286 17289 17292 17295 17298 17301 17304 17307 17310 17313 17316 17319 17322 17325 17328 17331 17334 17337 17340 17343 17346 17349 17352 17355 17358 17361 17364 17367 17370 17373 17376 17379 17382 17385 17388 17391 17394 17397 17400 17403 17406 17409 17412 17415 17418 17421 17424 17427 17430 17433 17436 17439 17442 17445 17448 17451 17454 17457 17460 17463 17466 17469 17472 17475 17478 17481 17484 17487 17490 17493 17496 17499 17502 17505 17508 17511 17514 17517 17520 17523 17526 17529 17532 17535 17538 17541 17544 17547 17550 17553 17556 17559 17562 17565 17568 17571 17574 17577 17580 17583 17586 17589 17592 17595 17598 17601 17604 17607 17610 17613 17616 17619 17622 17625 17628 17631 17634 17637 17640 17643 17646 17649 17652 17655 17658 17661 17664 17667 17670 17673 17676 17679 17682 17685 17688 17691 17694 17697 17700 17703 17706 17709 17712 17715 17718 17721 17724 17727 17730 17733 17736 17739 17742 17745 17748 17751 17754 17757 17760 17763 17766 17769 17772 17775 17778 17781 17784 17787 17790 17793 17796 17799 17802 17805 17808 17811 17814 17817 17820 17823 17826 17829 17832 17835 17838 17841 17844 17847 17850 17853 17856 17859 17862 17865 17868 17871 17874 17877 17880 17883 17886 17889 17892 17895 17898 17901 17904 17907 17910 17913 17916 17919 17922 17925 17928 17931 17934 17937 17940 17943 17946 17949 17952 17955 17958 17961 17964 17967 17970 17973 17976 17979 17982 17985 17988 17991 17994 17997 18000 18003 18006 18009 18012 18015 18018 18021 18024 18027 18030 18033 18036 18039 18042 18045 18048 18051 18054 18057 18060 18063 18066 18069 18072 18075 18078 18081 18084 18087 18090 18093 18096 18099 18102 18105 18108 18111 18114 18117 18120 18123 18126 18129 18132 18135 18138 18141 18144 18147 18150 18153 18156 18159 18162 18165 18168 18171 18174 18177 18180 18183 18186 18189 18192 18195 18198 18201 18204 18207 18210 18213 18216 18219 18222 18225 18228 18231 18234 18237 18240 18243 18246 18249 18252 18255 18258 18261 18264 18267 18270 18273 18276 18279 18282 18285 18288 18291 18294 18297 18300 18303 18306 18309 18312 18315 18318 18321 18324 18327 18330 18333 18336 18339 18342 18345 18348 18351 18354 18357 18360 18363 18366 18369 18372 18375 18378 18381 18384 18387 18390 18393 18396 18399 18402 18405 18408 18411 18414 18417 18420 18423 18426 18429 18432 18435 18438 18441 18444 18447 18450 18453 18456 18459 18462 18465 18468 18471 18474 18477 18480 18483 18486 18489 18492 18495 18498 18501 18504 18507 18510 18513 18516 18519 18522 18525 18528 18531 18534 18537 18540 18543 18546 18549 18552 18555 18558 18561 18564 18567 18570 18573 18576 18579 18582 18585 18588 18591 18594 18597 18600 18603 18606 18609 18612 18615 18618 18621 18624 18627 18630 18633 18636 18639 18642 18645 18648 18651 18654 18657 18660 18663 18666 18669 18672 18675 18678 18681 18684 18687 18690 18693 18696 18699 18702 18705 18708 18711 18714 18717 18720 18723 18726 18729 18732 18735 18738 18741 18744 18747 18750 18753 18756 18759 18762 18765 18768 18771 18774 18777 18780 18783 18786 18789 18792 18795 18798 18801 18804 18807 18810 18813 18816 18819 18822 18825 18828 18831 18834 18837 18840 18843 18846 18849 18852 18855 18858 18861 18864 18867 18870 18873 18876 18879 18882 18885 18888 18891 18894 18897 18900 18903 18906 18909 18912 18915 18918 18921 18924 18927 18930 18933 18936 18939 18942 18945 18948 18951 18954 18957 18960 18963 18966 18969 18972 18975 18978 18981 18984 18987 18990 18993 18996 18999 19002 19005 19008 19011 19014 19017 19020 19023 19026 19029 19032 19035 19038 19041 19044 19047 19050 19053 19056 19059 19062 19065 19068 19071 19074 19077 19080 19083 19086 19089 19092 19095 19098 19101 19104 19107 19110 19113 19116 19119 19122 19125 19128 19131 19134 19137 19140 19143 19146 19149 19152 19155 19158 19161 19164 19167 19170 19173 19176 19179 19182 19185 19188 19191 19194 19197 19200 19203 19206 19209 19212 19215 19218 19221 19224 19227 19230 19233 19236 19239 19242 19245 19248 19251 19254 19257 19260 19263 19266 19269 19272 19275 19278 19281 19284 19287 19290 19293 19296 19299 19302 19305 19308 19311 19314 19317 19320 19323 19326 19329 19332 19335 19338 19341 19344 19347 19350 19353 19356 19359 19362 19365 19368 19371 19374 19377 19380 19383 19386 19389 19392 19395 19398 19401 19404 19407 19410 19413 19416 19419 19422 19425 19428 19431 19434 19437 19440 19443 19446 19449 19452 19455 19458 19461 19464 19467 19470 19473 19476 19479 19482 19485 19488 19491 19494 19497 19500 19503 19506 19509 19512 19515 19518 19521 19524 19527 19530 19533 19536 19539 19542 19545 19548 19551 19554 19557 19560 19563 19566 19569 19572 19575 19578 19581 19584 19587 19590 19593 19596 19599 19602 19605 19608 19611 19614 19617 19620 19623 19626 19629 19632 19635 19638 19641 19644 19647 19650 19653 19656 19659 19662 19665 19668 19671 19674 19677 19680 19683 19686 19689 19692 19695 19698 19701 19704 19707 19710 19713 19716 19719 19722 19725 19728 19731 19734 19737 19740 19743 19746 19749 19752 19755 19758 19761 19764 19767 19770 19773 19776 19779 19782 19785 19788 19791 19794 19797 19800 19803 19806 19809 19812 19815 19818 19821 19824 19827 19830 19833 19836 19839 19842 19845 19848 19851 19854 19857 19860 19863 19866 19869 19872 19875 19878 19881 19884 19887 19890 19893 19896 19899 19902 19905 19908 19911 19914 19917 19920 19923 19926 19929 19932 19935 19938 19941 19944 19947 19950 19953 19956 19959 19962 19965 19968 19971 19974 19977 19980 19983 19986 19989 19992 19995 19998 20001 20004 20007 20010 20013 20016 20019 20022 20025 20028 20031 20034 20037 20040 20043 20046 20049 20052 20055 20058 20061 20064 20067 20070 20073 20076 20079 20082 20085 20088 20091 20094 20097 20100 20103 20106 20109 20112 20115 20118 20121 20124 20127 20130 20133 20136 20139 20142 20145 20148 20151 20154 20157 20160 20163 20166 20169 20172 20175 20178 20181 20184 20187 20190 20193 20196 20199 20202 20205 20208 20211 20214 20217 20220 20223 20226 20229 20232 20235 20238 20241 20244 20247 20250 20253 20256 20259 20262 20265 20268 20271 20274 20277 20280 20283 20286 20289 20292 20295 20298 20301 20304 20307 20310 20313 20316 20319 20322 20325 20328 20331 20334 20337 20340 20343 20346 20349 20352 20355 20358 20361 20364 20367 20370 20373 20376 20379 20382 20385 20388 20391 20394 20397 20400 20403 20406 20409 20412 20415 20418 20421 20424 20427 20430 20433 20436 20439 20442 20445 20448 20451 20454 20457 20460 20463 20466 20469 20472 20475 20478 20481 20484 20487 20490 20493 20496 20499 20502 20505 20508 20511 20514 20517 20520 20523 20526 20529 20532 20535 20538 20541 20544 20547 20550 20553 20556 20559 20562 20565 20568 20571 20574 20577 20580 20583 20586 20589 20592 20595 20598 20601 20604 20607 20610 20613 20616 20619 20622 20625 20628 20631 20634 20637 20640 20643 20646 20649 20652 20655 20658 20661 20664 20667 20670 20673 20676 20679 20682 20685 20688 20691 20694 20697 20700 20703 20706 20709 20712 20715 20718 20721 20724 20727 20730 20733 20736 20739 20742 20745 20748 20751 20754 20757 20760 20763 20766 20769 20772 20775 20778 20781 20784 20787 20790 20793 20796 20799 20802 20805 20808 20811 20814 20817 20820 20823 20826 20829 20832 20835 20838 20841 20844 20847 20850 20853 20856 20859 20862 20865 20868 20871 20874 20877 20880 20883 20886 20889 20892 20895 20898 20901 20904 20907 20910 20913 20916 20919 20922 20925 20928 20931 20934 20937 20940 20943 20946 20949 20952 20955 20958 20961 20964 20967 20970 20973 20976 20979 20982 20985 20988 20991 20994 20997 21000 21003 21006 21009 21012 21015 21018 21021 21024 21027 21030 21033 21036 21039 21042 21045 21048 21051 21054 21057 21060 21063 21066 21069 21072 21075 21078 21081 21084 21087 21090 21093 21096 21099 21102 21105 21108 21111 21114 21117 21120 21123 21126 21129 21132 21135 21138 21141 21144 21147 21150 21153 21156 21159 21162 21165 21168 21171 21174 21177 21180 21183 21186 21189 21192 21195 21198 21201 21204 21207 21210 21213 21216 21219 21222 21225 21228 21231 21234 21237 21240 21243 21246 21249 21252 21255 21258 21261 21264 21267 21270 21273 21276 21279 21282 21285 21288 21291 21294 21297 21300 21303 21306 21309 21312 21315 21318 21321 21324 21327 21330 21333 21336 21339 21342 21345 21348 21351 21354 21357 21360 21363 21366 21369 21372 21375 21378 21381 21384 21387 21390 21393 21396 21399 21402 21405 21408 21411 21414 21417 21420 21423 21426 21429 21432 21435 21438 21441 21444 21447 21450 21453 21456 21459 21462 21465 21468 21471 21474 21477 21480 21483 21486 21489 21492 21495 21498 21501 21504 21507 21510 21513 21516 21519 21522 21525 21528 21531 21534 21537 21540 21543 21546 21549 21552 21555 21558 21561 21564 21567 21570 21573 21576 21579 21582 21585 21588 21591 21594 21597 21600 21603 21606 21609 21612 21615 21618 21621 21624 21627 21630 21633 21636 21639 21642 21645 21648 21651 21654 21657 21660 21663 21666 21669 21672 21675 21678 21681 21684 21687 21690 21693 21696 21699 21702 21705 21708 21711 21714 21717 21720 21723 21726 21729 21732 21735 21738 21741 21744 21747 21750 21753 21756 21759 21762 21765 21768 21771 21774 21777 21780 21783 21786 21789 21792 21795 21798 21801 21804 21807 21810 21813 21816 21819 21822 21825 21828 21831 21834 21837 21840 21843 21846 21849 21852 21855 21858 21861 21864 21867 21870 21873 21876 21879 21882 21885 21888 21891 21894 21897 21900 21903 21906 21909 21912 21915 21918 21921 21924 21927 21930 21933 21936 21939 21942 21945 21948 21951 21954 21957 21960 21963 21966 21969 21972 21975 21978 21981 21984 21987 21990 21993 21996 21999 22002 22005 22008 22011 22014 22017 22020 22023 22026 22029 22032 22035 22038 22041 22044 22047 22050 22053 22056 22059 22062 22065 22068 22071 22074 22077 22080 22083 22086 22089 22092 22095 22098 22101 22104 22107 22110 22113 22116 22119 22122 22125 22128 22131 22134 22137 22140 22143 22146 22149 22152 22155 22158 22161 22164 22167 22170 22173 22176 22179 22182 22185 22188 22191 22194 22197 22200 22203 22206 22209 22212 22215 22218 22221 22224 22227 22230 22233 22236 22239 22242 22245 22248 22251 22254 22257 22260 22263 22266 22269 22272 22275 22278 22281 22284 22287 22290 22293 22296 22299 22302 22305 22308 22311 22314 22317 22320 22323 22326 22329 22332 22335 22338 22341 22344 22347 22350 22353 22356 22359 22362 22365 22368 22371 22374 22377 22380 22383 22386 22389 22392 22395 22398 22401 22404 22407 22410 22413 22416 22419 22422 22425 22428 22431 22434 22437 22440 22443 22446 22449 22452 22455 22458 22461 22464 22467 22470 22473 22476 22479 22482 22485 22488 22491 22494 22497 22500 22503 22506 22509 22512 22515 22518 22521 22524 22527 22530 22533 22536 22539 22542 22545 22548 22551 22554 22557 22560 22563 22566 22569 22572 22575 22578 22581 22584 22587 22590 22593 22596 22599 22602 22605 22608 22611 22614 22617 22620 22623 22626 22629 22632 22635 22638 22641 22644 22647 22650 22653 22656 22659 22662 22665 22668 22671 22674 22677 22680 22683 22686 22689 22692 22695 22698 22701 22704 22707 22710 22713 22716 22719 22722 22725 22728 22731 22734 22737 22740 22743 22746 22749 22752 22755 22758 22761 22764 22767 22770 22773 22776 22779 22782 22785 22788 22791 22794 22797 22800 22803 22806 22809 22812 22815 22818 22821 22824 22827 22830 22833 22836 22839 22842 22845 22848 22851 22854 22857 22860 22863 22866 22869 22872 22875 22878 22881 22884 22887 22890 22893 22896 22899 22902 22905 22908 22911 22914 22917 22920 22923 22926 22929 22932 22935 22938 22941 22944 22947 22950 22953 22956 22959 22962 22965 22968 22971 22974 22977 22980 22983 22986 22989 22992 22995 22998 23001 23004 23007 23010 23013 23016 23019 23022 23025 23028 23031 23034 23037 23040 23043 23046 23049 23052 23055 23058 23061 23064 23067 23070 23073 23076 23079 23082 23085 23088 23091 23094 23097 23100 23103 23106 23109 23112 23115 23118 23121 23124 23127 23130 23133 23136 23139 23142 23145 23148 23151 23154 23157 23160 23163 23166 23169 23172 23175 23178 23181 23184 23187 23190 23193 23196 23199 23202 23205 23208 23211 23214 23217 23220 23223 23226 23229 23232 23235 23238 23241 23244 23247 23250 23253 23256 23259 23262 23265 23268 23271 23274 23277 23280 23283 23286 23289 23292 23295 23298 23301 23304 23307 23310 23313 23316 23319 23322 23325 23328 23331 23334 23337 23340 23343 23346 23349 23352 23355 23358 23361 23364 23367 23370 23373 23376 23379 23382 23385 23388 23391 23394 23397 23400 23403 23406 23409 23412 23415 23418 23421 23424 23427 23430 23433 23436 23439 23442 23445 23448 23451 23454 23457 23460 23463 23466 23469 23472 23475 23478 23481 23484 23487 23490 23493 23496 23499 23502 23505 23508 23511 23514 23517 23520 23523 23526 23529 23532 23535 23538 23541 23544 23547 23550 23553 23556 23559 23562 23565 23568 23571 23574 23577 23580 23583 23586 23589 23592 23595 23598 23601 23604 23607 23610 23613 23616 23619 23622 23625 23628 23631 23634 23637 23640 23643 23646 23649 23652 23655 23658 23661 23664 23667 23670 23673 23676 23679 23682 23685 23688 23691 23694 23697 23700 23703 23706 23709 23712 23715 23718 23721 23724 23727 23730 23733 23736 23739 23742 23745 23748 23751 23754 23757 23760 23763 23766 23769 23772 23775 23778 23781 23784 23787 23790 23793 23796 23799 23802 23805 23808 23811 23814 23817 23820 23823 23826 23829 23832 23835 23838 23841 23844 23847 23850 23853 23856 23859 23862 23865 23868 23871 23874 23877 23880 23883 23886 23889 23892 23895 23898 23901 23904 23907 23910 23913 23916 23919 23922 23925 23928 23931 23934 23937 23940 23943 23946 23949 23952 23955 23958 23961 23964 23967 23970 23973 23976 23979 23982 23985 23988 23991 23994 23997 24000 24003 24006 24009 24012 24015 24018 24021 24024 24027 24030 24033 24036 24039 24042 24045 24048 24051 24054 24057 24060 24063 24066 24069 24072 24075 24078 24081 24084 24087 24090 24093 24096 24099 24102 24105 24108 24111 24114 24117 24120 24123 24126 24129 24132 24135 24138 24141 24144 24147 24150 24153 24156 24159 24162 24165 24168 24171 24174 24177 24180 24183 24186 24189 24192 24195 24198 24201 24204 24207 24210 24213 24216 24219 24222 24225 24228 24231 24234 24237 24240 24243 24246 24249 24252 24255 24258 24261 24264 24267 24270 24273 24276 24279 24282 24285 24288 24291 24294 24297 24300 24303 24306 24309 24312 24315 24318 24321 24324 24327 24330 24333 24336 24339 24342 24345 24348 24351 24354 24357 24360 24363 24366 24369 24372 24375 24378 24381 24384 24387 24390 24393 24396 24399 24402 24405 24408 24411 24414 24417 24420 24423 24426 24429 24432 24435 24438 24441 24444 24447 24450 24453 24456 24459 24462 24465 24468 24471 24474 24477 24480 24483 24486 24489 24492 24495 24498 24501 24504 24507 24510 24513 24516 24519 24522 24525 24528 24531 24534 24537 24540 24543 24546 24549 24552 24555 24558 24561 24564 24567 24570 24573 24576 24579 24582 24585 24588 24591 24594 24597 24600 24603 24606 24609 24612 24615 24618 24621 24624 24627 24630 24633 24636 24639 24642 24645 24648 24651 24654 24657 24660 24663 24666 24669 24672 24675 24678 24681 24684 24687 24690 24693 24696 24699 24702 24705 24708 24711 24714 24717 24720 24723 24726 24729 24732 24735 24738 24741 24744 24747 24750 24753 24756 24759 24762 24765 24768 24771 24774 24777 24780 24783 24786 24789 24792 24795 24798 24801 24804 24807 24810 24813 24816 24819 24822 24825 24828 24831 24834 24837 24840 24843 24846 24849 24852 24855 24858 24861 24864 24867 24870 24873 24876 24879 24882 24885 24888 24891 24894 24897 24900 24903 24906 24909 24912 24915 24918 24921 24924 24927 24930 24933 24936 24939 24942 24945 24948 24951 24954 24957 24960 24963 24966 24969 24972 24975 24978 24981 24984 24987 24990 24993 24996 24999 25002 25005 25008 25011 25014 25017 25020 25023 25026 25029 25032 25035 25038 25041 25044 25047 25050 25053 25056 25059 25062 25065 25068 25071 25074 25077 25080 25083 25086 25089 25092 25095 25098 25101 25104 25107 25110 25113 25116 25119 25122 25125 25128 25131 25134 25137 25140 25143 25146 25149 25152 25155 25158 25161 25164 25167 25170 25173 25176 25179 25182 25185 25188 25191 25194 25197 25200 25203 25206 25209 25212 25215 25218 25221 25224 25227 25230 25233 25236 25239 25242 25245 25248 25251 25254 25257 25260 25263 25266 25269 25272 25275 25278 25281 25284 25287 25290 25293 25296 25299 25302 25305 25308 25311 25314 25317 25320 25323 25326 25329 25332 25335 25338 25341 25344 25347 25350 25353 25356 25359 25362 25365 25368 25371 25374 25377 25380 25383 25386 25389 25392 25395 25398 25401 25404 25407 25410 25413 25416 25419 25422 25425 25428 25431 25434 25437 25440 25443 25446 25449 25452 25455 25458 25461 25464 25467 25470 25473 25476 25479 25482 25485 25488 25491 25494 25497 25500 25503 25506 25509 25512 25515 25518 25521 25524 25527 25530 25533 25536 25539 25542 25545 25548 25551 25554 25557 25560 25563 25566 25569 25572 25575 25578 25581 25584 25587 25590 25593 25596 25599 25602 25605 25608 25611 25614 25617 25620 25623 25626 25629 25632 25635 25638 25641 25644 25647 25650 25653 25656 25659 25662 25665 25668 25671 25674 25677 25680 25683 25686 25689 25692 25695 25698 25701 25704 25707 25710 25713 25716 25719 25722 25725 25728 25731 25734 25737 25740 25743 25746 25749 25752 25755 25758 25761 25764 25767 25770 25773 25776 25779 25782 25785 25788 25791 25794 25797 25800 25803 25806 25809 25812 25815 25818 25821 25824 25827 25830 25833 25836 25839 25842 25845 25848 25851 25854 25857 25860 25863 25866 25869 25872 25875 25878 25881 25884 25887 25890 25893 25896 25899 25902 25905 25908 25911 25914 25917 25920 25923 25926 25929 25932 25935 25938 25941 25944 25947 25950 25953 25956 25959 25962 25965 25968 25971 25974 25977 25980 25983 25986 25989 25992 25995 25998 26001 26004 26007 26010 26013 26016 26019 26022 26025 26028 26031 26034 26037 26040 26043 26046 26049 26052 26055 26058 26061 26064 26067 26070 26073 26076 26079 26082 26085 26088 26091 26094 26097 26100 26103 26106 26109 26112 26115 26118 26121 26124 26127 26130 26133 26136 26139 26142 26145 26148 26151 26154 26157 26160 26163 26166 26169 26172 26175 26178 26181 26184 26187 26190 26193 26196 26199 26202 26205 26208 26211 26214 26217 26220 26223 26226 26229 26232 26235 26238 26241 26244 26247 26250 26253 26256 26259 26262 26265 26268 26271 26274 26277 26280 26283 26286 26289 26292 26295 26298 26301 26304 26307 26310 26313 26316 26319 26322 26325 26328 26331 26334 26337 26340 26343 26346 26349 26352 26355 26358 26361 26364 26367 26370 26373 26376 26379 26382 26385 26388 26391 26394 26397 26400 26403 26406 26409 26412 26415 26418 26421 26424 26427 26430 26433 26436 26439 26442 26445 26448 26451 26454 26457 26460 26463 26466 26469 26472 26475 26478 26481 26484 26487 26490 26493 26496 26499 26502 26505 26508 26511 26514 26517 26520 26523 26526 26529 26532 26535 26538 26541 26544 26547 26550 26553 26556 26559 26562 26565 26568 26571 26574 26577 26580 26583 26586 26589 26592 26595 26598 26601 26604 26607 26610 26613 26616 26619 26622 26625 26628 26631 26634 26637 26640 26643 26646 26649 26652 26655 26658 26661 26664 26667 26670 26673 26676 26679 26682 26685 26688 26691 26694 26697 26700 26703 26706 26709 26712 26715 26718 26721 26724 26727 26730 26733 26736 26739 26742 26745 26748 26751 26754 26757 26760 26763 26766 26769 26772 26775 26778 26781 26784 26787 26790 26793 26796 26799 26802 26805 26808 26811 26814 26817 26820 26823 26826 26829 26832 26835 26838 26841 26844 26847 26850 26853 26856 26859 26862 26865 26868 26871 26874 26877 26880 26883 26886 26889 26892 26895 26898 26901 26904 26907 26910 26913 26916 26919 26922 26925 26928 26931 26934 26937 26940 26943 26946 26949 26952 26955 26958 26961 26964 26967 26970 26973 26976 26979 26982 26985 26988 26991 26994 26997 27000 27003 27006 27009 27012 27015 27018 27021 27024 27027 27030 27033 27036 27039 27042 27045 27048 27051 27054 27057 27060 27063 27066 27069 27072 27075 27078 27081 27084 27087 27090 27093 27096 27099 27102 27105 27108 27111 27114 27117 27120 27123 27126 27129 27132 27135 27138 27141 27144 27147 27150 27153 27156 27159 27162 27165 27168 27171 27174 27177 27180 27183 27186 27189 27192 27195 27198 27201 27204 27207 27210 27213 27216 27219 27222 27225 27228 27231 27234 27237 27240 27243 27246 27249 27252 27255 27258 27261 27264 27267 27270 27273 27276 27279 27282 27285 27288 27291 27294 27297 27300 27303 27306 27309 27312 27315 27318 27321 27324 27327 27330 27333 27336 27339 27342 27345 27348 27351 27354 27357 27360 27363 27366 27369 27372 27375 27378 27381 27384 27387 27390 27393 27396 27399 27402 27405 27408 27411 27414 27417 27420 27423 27426 27429 27432 27435 27438 27441 27444 27447 27450 27453 27456 27459 27462 27465 27468 27471 27474 27477 27480 27483 27486 27489 27492 27495 27498 27501 27504 27507 27510 27513 27516 27519 27522 27525 27528 27531 27534 27537 27540 27543 27546 27549 27552 27555 27558 27561 27564 27567 27570 27573 27576 27579 27582 27585 27588 27591 27594 27597 27600 27603 27606 27609 27612 27615 27618 27621 27624 27627 27630 27633 27636 27639 27642 27645 27648 27651 27654 27657 27660 27663 27666 27669 27672 27675 27678 27681 27684 27687 27690 27693 27696 27699 27702 27705 27708 27711 27714 27717 27720 27723 27726 27729 27732 27735 27738 27741 27744 27747 27750 27753 27756 27759 27762 27765 27768 27771 27774 27777 27780 27783 27786 27789 27792 27795 27798 27801 27804 27807 27810 27813 27816 27819 27822 27825 27828 27831 27834 27837 27840 27843 27846 27849 27852 27855 27858 27861 27864 27867 27870 27873 27876 27879 27882 27885 27888 27891 27894 27897 27900 27903 27906 27909 27912 27915 27918 27921 27924 27927 27930 27933 27936 27939 27942 27945 27948 27951 27954 27957 27960 27963 27966 27969 27972 27975 27978 27981 27984 27987 27990 27993 27996 27999 28002 28005 28008 28011 28014 28017 28020 28023 28026 28029 28032 28035 28038 28041 28044 28047 28050 28053 28056 28059 28062 28065 28068 28071 28074 28077 28080 28083 28086 28089 28092 28095 28098 28101 28104 28107 28110 28113 28116 28119 28122 28125 28128 28131 28134 28137 28140 28143 28146 28149 28152 28155 28158 28161 28164 28167 28170 28173 28176 28179 28182 28185 28188 28191 28194 28197 28200 28203 28206 28209 28212 28215 28218 28221 28224 28227 28230 28233 28236 28239 28242 28245 28248 28251 28254 28257 28260 28263 28266 28269 28272 28275 28278 28281 28284 28287 28290 28293 28296 28299 28302 28305 28308 28311 28314 28317 28320 28323 28326 28329 28332 28335 28338 28341 28344 28347 28350 28353 28356 28359 28362 28365 28368 28371 28374 28377 28380 28383 28386 28389 28392 28395 28398 28401 28404 28407 28410 28413 28416 28419 28422 28425 28428 28431 28434 28437 28440 28443 28446 28449 28452 28455 28458 28461 28464 28467 28470 28473 28476 28479 28482 28485 28488 28491 28494 28497 28500 28503 28506 28509 28512 28515 28518 28521 28524 28527 28530 28533 28536 28539 28542 28545 28548 28551 28554 28557 28560 28563 28566 28569 28572 28575 28578 28581 28584 28587 28590 28593 28596 28599 28602 28605 28608 28611 28614 28617 28620 28623 28626 28629 28632 28635 28638 28641 28644 28647 28650 28653 28656 28659 28662 28665 28668 28671 28674 28677 28680 28683 28686 28689 28692 28695 28698 28701 28704 28707 28710 28713 28716 28719 28722 28725 28728 28731 28734 28737 28740 28743 28746 28749 28752 28755 28758 28761 28764 28767 28770 28773 28776 28779 28782 28785 28788 28791 28794 28797 28800 28803 28806 28809 28812 28815 28818 28821 28824 28827 28830 28833 28836 28839 28842 28845 28848 28851 28854 28857 28860 28863 28866 28869 28872 28875 28878 28881 28884 28887 28890 28893 28896 28899 28902 28905 28908 28911 28914 28917 28920 28923 28926 28929 28932 28935 28938 28941 28944 28947 28950 28953 28956 28959 28962 28965 28968 28971 28974 28977 28980 28983 28986 28989 28992 28995 28998 29001 29004 29007 29010 29013 29016 29019 29022 29025 29028 29031 29034 29037 29040 29043 29046 29049 29052 29055 29058 29061 29064 29067 29070 29073 29076 29079 29082 29085 29088 29091 29094 29097 29100 29103 29106 29109 29112 29115 29118 29121 29124 29127 29130 29133 29136 29139 29142 29145 29148 29151 29154 29157 29160 29163 29166 29169 29172 29175 29178 29181 29184 29187 29190 29193 29196 29199 29202 29205 29208 29211 29214 29217 29220 29223 29226 29229 29232 29235 29238 29241 29244 29247 29250 29253 29256 29259 29262 29265 29268 29271 29274 29277 29280 29283 29286 29289 29292 29295 29298 29301 29304 29307 29310 29313 29316 29319 29322 29325 29328 29331 29334 29337 29340 29343 29346 29349 29352 29355 29358 29361 29364 29367 29370 29373 29376 29379 29382 29385 29388 29391 29394 29397 29400 29403 29406 29409 29412 29415 29418 29421 29424 29427 29430 29433 29436 29439 29442 29445 29448 29451 29454 29457 29460 29463 29466 29469 29472 29475 29478 29481 29484 29487 29490 29493 29496 29499 29502 29505 29508 29511 29514 29517 29520 29523 29526 29529 29532 29535 29538 29541 29544 29547 29550 29553 29556 29559 29562 29565 29568 29571 29574 29577 29580 29583 29586 29589 29592 29595 29598 29601 29604 29607 29610 29613 29616 29619 29622 29625 29628 29631 29634 29637 29640 29643 29646 29649 29652 29655 29658 29661 29664 29667 29670 29673 29676 29679 29682 29685 29688 29691 29694 29697 29700 29703 29706 29709 29712 29715 29718 29721 29724 29727 29730 29733 29736 29739 29742 29745 29748 29751 29754 29757 29760 29763 29766 29769 29772 29775 29778 29781 29784 29787 29790 29793 29796 29799 29802 29805 29808 29811 29814 29817 29820 29823 29826 29829 29832 29835 29838 29841 29844 29847 29850 29853 29856 29859 29862 29865 29868 29871 29874 29877 29880 29883 29886 29889 29892 29895 29898 29901 29904 29907 29910 29913 29916 29919 29922 29925 29928 29931 29934 29937 29940 29943 29946 29949 29952 29955 29958 29961 29964 29967 29970 29973 29976 29979 29982 29985 29988 29991 29994 29997 30000 30003 30006 30009 30012 30015 30018 30021 30024 30027 30030 30033 30036 30039 30042 30045 30048 30051 30054 30057 30060 30063 30066 30069 30072 30075 30078 30081 30084 30087 30090 30093 30096 30099 30102 30105 30108 30111 30114 30117 30120 30123 30126 30129 30132 30135 30138 30141 30144 30147 30150 30153 30156 30159 30162 30165 30168 30171 30174 30177 30180 30183 30186 30189 30192 30195 30198 30201 30204 30207 30210 30213 30216 30219 30222 30225 30228 30231 30234 30237 30240 30243 30246 30249 30252 30255 30258 30261 30264 30267 30270 30273 30276 30279 30282 30285 30288 30291 30294 30297 30300 30303 30306 30309 30312 30315 30318 30321 30324 30327 30330 30333 30336 30339 30342 30345 30348 30351 30354 30357 30360 30363 30366 30369 30372 30375 30378 30381 30384 30387 30390 30393 30396 30399 30402 30405 30408 30411 30414 30417 30420 30423 30426 30429 30432 30435 30438 30441 30444 30447 30450 30453 30456 30459 30462 30465 30468 30471 30474 30477 30480 30483 30486 30489 30492 30495 30498 30501 30504 30507 30510 30513 30516 30519 30522 30525 30528 30531 30534 30537 30540 30543 30546 30549 30552 30555 30558 30561 30564 30567 30570 30573 30576 30579 30582 30585 30588 30591 30594 30597 30600 30603 30606 30609 30612 30615 30618 30621 30624 30627 30630 30633 30636 30639 30642 30645 30648 30651 30654 30657 30660 30663 30666 30669 30672 30675 30678 30681 30684 30687 30690 30693 30696 30699 30702 30705 30708 30711 30714 30717 30720 30723 30726 30729 30732 30735 30738 30741 30744 30747 30750 30753 30756 30759 30762 30765 30768 30771 30774 30777 30780 30783 30786 30789 30792 30795 30798 30801 30804 30807 30810 30813 30816 30819 30822 30825 30828 30831 30834 30837 30840 30843 30846 30849 30852 30855 30858 30861 30864 30867 30870 30873 30876 30879 30882 30885 30888 30891 30894 30897 30900 30903 30906 30909 30912 30915 30918 30921 30924 30927 30930 30933 30936 30939 30942 30945 30948 30951 30954 30957 30960 30963 30966 30969 30972 30975 30978 30981 30984 30987 30990 30993 30996 30999 31002 31005 31008 31011 31014 31017 31020 31023 31026 31029 31032 31035 31038 31041 31044 31047 31050 31053 31056 31059 31062 31065 31068 31071 31074 31077 31080 31083 31086 31089 31092 31095 31098 31101 31104 31107 31110 31113 31116 31119 31122 31125 31128 31131 31134 31137 31140 31143 31146 31149 31152 31155 31158 31161 31164 31167 31170 31173 31176 31179 31182 31185 31188 31191 31194 31197 31200 31203 31206 31209 31212 31215 31218 31221 31224 31227 31230 31233 31236 31239 31242 31245 31248 31251 31254 31257 31260 31263 31266 31269 31272 31275 31278 31281 31284 31287 31290 31293 31296 31299 31302 31305 31308 31311 31314 31317 31320 31323 31326 31329 31332 31335 31338 31341 31344 31347 31350 31353 31356 31359 31362 31365 31368 31371 31374 31377 31380 31383 31386 31389 31392 31395 31398 31401 31404 31407 31410 31413 31416 31419 31422 31425 31428 31431 31434 31437 31440 31443 31446 31449 31452 31455 31458 31461 31464 31467 31470 31473 31476 31479 31482 31485 31488 31491 31494 31497 31500 31503 31506 31509 31512 31515 31518 31521 31524 31527 31530 31533 31536 31539 31542 31545 31548 31551 31554 31557 31560 31563 31566 31569 31572 31575 31578 31581 31584 31587 31590 31593 31596 31599 31602 31605 31608 31611 31614 31617 31620 31623 31626 31629 31632 31635 31638 31641 31644 31647 31650 31653 31656 31659 31662 31665 31668 31671 31674 31677 31680 31683 31686 31689 31692 31695 31698 31701 31704 31707 31710 31713 31716 31719 31722 31725 31728 31731 31734 31737 31740 31743 31746 31749 31752 31755 31758 31761 31764 31767 31770 31773 31776 31779 31782 31785 31788 31791 31794 31797 31800 31803 31806 31809 31812 31815 31818 31821 31824 31827 31830 31833 31836 31839 31842 31845 31848 31851 31854 31857 31860 31863 31866 31869 31872 31875 31878 31881 31884 31887 31890 31893 31896 31899 31902 31905 31908 31911 31914 31917 31920 31923 31926 31929 31932 31935 31938 31941 31944 31947 31950 31953 31956 31959 31962 31965 31968 31971 31974 31977 31980 31983 31986 31989 31992 31995 31998 32001 32004 32007 32010 32013 32016 32019 32022 32025 32028 32031 32034 32037 32040 32043 32046 32049 32052 32055 32058 32061 32064 32067 32070 32073 32076 32079 32082 32085 32088 32091 32094 32097 32100 32103 32106 32109 32112 32115 32118 32121 32124 32127 32130 32133 32136 32139 32142 32145 32148 32151 32154 32157 32160 32163 32166 32169 32172 32175 32178 32181 32184 32187 32190 32193 32196 32199 32202 32205 32208 32211 32214 32217 32220 32223 32226 32229 32232 32235 32238 32241 32244 32247 32250 32253 32256 32259 32262 32265 32268 32271 32274 32277 32280 32283 32286 32289 32292 32295 32298 32301 32304 32307 32310 32313 32316 32319 32322 32325 32328 32331 32334 32337 32340 32343 32346 32349 32352 32355 32358 32361 32364 32367 32370 32373 32376 32379 32382 32385 32388 32391 32394 32397 32400 32403 32406 32409 32412 32415 32418 32421 32424 32427 32430 32433 32436 32439 32442 32445 32448 32451 32454 32457 32460 32463 32466 32469 32472 32475 32478 32481 32484 32487 32490 32493 32496 32499 32502 32505 32508 32511 32514 32517 32520 32523 32526 32529 32532 32535 32538 32541 32544 32547 32550 32553 32556 32559 32562 32565 32568 32571 32574 32577 32580 32583 32586 32589 32592 32595 32598 32601 32604 32607 32610 32613 32616 32619 32622 32625 32628 32631 32634 32637 32640 32643 32646 32649 32652 32655 32658 32661 32664 32667 32670 32673 32676 32679 32682 32685 32688 32691 32694 32697 32700 32703 32706 32709 32712 32715 32718 32721 32724 32727 32730 32733 32736 32739 32742 32745 32748 32751 32754 32757 32760 32763 32766 32769 32772 32775 32778 32781 32784 32787 32790 32793 32796 32799 32802 32805 32808 32811 32814 32817 32820 32823 32826 32829 32832 32835 32838 32841 32844 32847 32850 32853 32856 32859 32862 32865 32868 32871 32874 32877 32880 32883 32886 32889 32892 32895 32898 32901 32904 32907 32910 32913 32916 32919 32922 32925 32928 32931 32934 32937 32940 32943 32946 32949 32952 32955 32958 32961 32964 32967 32970 32973 32976 32979 32982 32985 32988 32991 32994 32997 33000 33003 33006 33009 33012 33015 33018 33021 33024 33027 33030 33033 33036 33039 33042 33045 33048 33051 33054 33057 33060 33063 33066 33069 33072 33075 33078 33081 33084 33087 33090 33093 33096 33099 33102 33105 33108 33111 33114 33117 33120 33123 33126 33129 33132 33135 33138 33141 33144 33147 33150 33153 33156 33159 33162 33165 33168 33171 33174 33177 33180 33183 33186 33189 33192 33195 33198 33201 33204 33207 33210 33213 33216 33219 33222 33225 33228 33231 33234 33237 33240 33243 33246 33249 33252 33255 33258 33261 33264 33267 33270 33273 33276 33279 33282 33285 33288 33291 33294 33297 33300 33303 33306 33309 33312 33315 33318 33321 33324 33327 33330 33333 33336 33339 33342 33345 33348 33351 33354 33357 33360 33363 33366 33369 33372 33375 33378 33381 33384 33387 33390 33393 33396 33399 33402 33405 33408 33411 33414 33417 33420 33423 33426 33429 33432 33435 33438 33441 33444 33447 33450 33453 33456 33459 33462 33465 33468 33471 33474 33477 33480 33483 33486 33489 33492 33495 33498 33501 33504 33507 33510 33513 33516 33519 33522 33525 33528 33531 33534 33537 33540 33543 33546 33549 33552 33555 33558 33561 33564 33567 33570 33573 33576 33579 33582 33585 33588 33591 33594 33597 33600 33603 33606 33609 33612 33615 33618 33621 33624 33627 33630 33633 33636 33639 33642 33645 33648 33651 33654 33657 33660 33663 33666 33669 33672 33675 33678 33681 33684 33687 33690 33693 33696 33699 33702 33705 33708 33711 33714 33717 33720 33723 33726 33729 33732 33735 33738 33741 33744 33747 33750 33753 33756 33759 33762 33765 33768 33771 33774 33777 33780 33783 33786 33789 33792 33795 33798 33801 33804 33807 33810 33813 33816 33819 33822 33825 33828 33831 33834 33837 33840 33843 33846 33849 33852 33855 33858 33861 33864 33867 33870 33873 33876 33879 33882 33885 33888 33891 33894 33897 33900 33903 33906 33909 33912 33915 33918 33921 33924 33927 33930 33933 33936 33939 33942 33945 33948 33951 33954 33957 33960 33963 33966 33969 33972 33975 33978 33981 33984 33987 33990 33993 33996 33999 34002 34005 34008 34011 34014 34017 34020 34023 34026 34029 34032 34035 34038 34041 34044 34047 34050 34053 34056 34059 34062 34065 34068 34071 34074 34077 34080 34083 34086 34089 34092 34095 34098 34101 34104 34107 34110 34113 34116 34119 34122 34125 34128 34131 34134 34137 34140 34143 34146 34149 34152 34155 34158 34161 34164 34167 34170 34173 34176 34179 34182 34185 34188 34191 34194 34197 34200 34203 34206 34209 34212 34215 34218 34221 34224 34227 34230 34233 34236 34239 34242 34245 34248 34251 34254 34257 34260 34263 34266 34269 34272 34275 34278 34281 34284 34287 34290 34293 34296 34299 34302 34305 34308 34311 34314 34317 34320 34323 34326 34329 34332 34335 34338 34341 34344 34347 34350 34353 34356 34359 34362 34365 34368 34371 34374 34377 34380 34383 34386 34389 34392 34395 34398 34401 34404 34407 34410 34413 34416 34419 34422 34425 34428 34431 34434 34437 34440 34443 34446 34449 34452 34455 34458 34461 34464 34467 34470 34473 34476 34479 34482 34485 34488 34491 34494 34497 34500 34503 34506 34509 34512 34515 34518 34521 34524 34527 34530 34533 34536 34539 34542 34545 34548 34551 34554 34557 34560 34563 34566 34569 34572 34575 34578 34581 34584 34587 34590 34593 34596 34599 34602 34605 34608 34611 34614 34617 34620 34623 34626 34629 34632 34635 34638 34641 34644 34647 34650 34653 34656 34659 34662 34665 34668 34671 34674 34677 34680 34683 34686 34689 34692 34695 34698 34701 34704 34707 34710 34713 34716 34719 34722 34725 34728 34731 34734 34737 34740 34743 34746 34749 34752 34755 34758 34761 34764 34767 34770 34773 34776 34779 34782 34785 34788 34791 34794 34797 34800 34803 34806 34809 34812 34815 34818 34821 34824 34827 34830 34833 34836 34839 34842 34845 34848 34851 34854 34857 34860 34863 34866 34869 34872 34875 34878 34881 34884 34887 34890 34893 34896 34899 34902 34905 34908 34911 34914 34917 34920 34923 34926 34929 34932 34935 34938 34941 34944 34947 34950 34953 34956 34959 34962 34965 34968 34971 34974 34977 34980 34983 34986 34989 34992 34995 34998 35001 35004 35007 35010 35013 35016 35019 35022 35025 35028 35031 35034 35037 35040 35043 35046 35049 35052 35055 35058 35061 35064 35067 35070 35073 35076 35079 35082 35085 35088 35091 35094 35097 35100 35103 35106 35109 35112 35115 35118 35121 35124 35127 35130 35133 35136 35139 35142 35145 35148 35151 35154 35157 35160 35163 35166 35169 35172 35175 35178 35181 35184 35187 35190 35193 35196 35199 35202 35205 35208 35211 35214 35217 35220 35223 35226 35229 35232 35235 35238 35241 35244 35247 35250 35253 35256 35259 35262 35265 35268 35271 35274 35277 35280 35283 35286 35289 35292 35295 35298 35301 35304 35307 35310 35313 35316 35319 35322 35325 35328 35331 35334 35337 35340 35343 35346 35349 35352 35355 35358 35361 35364 35367 35370 35373 35376 35379 35382 35385 35388 35391 35394 35397 35400 35403 35406 35409 35412 35415 35418 35421 35424 35427 35430 35433 35436 35439 35442 35445 35448 35451 35454 35457 35460 35463 35466 35469 35472 35475 35478 35481 35484 35487 35490 35493 35496 35499 35502 35505 35508 35511 35514 35517 35520 35523 35526 35529 35532 35535 35538 35541 35544 35547 35550 35553 35556 35559 35562 35565 35568 35571 35574 35577 35580 35583 35586 35589 35592 35595 35598 35601 35604 35607 35610 35613 35616 35619 35622 35625 35628 35631 35634 35637 35640 35643 35646 35649 35652 35655 35658 35661 35664 35667 35670 35673 35676 35679 35682 35685 35688 35691 35694 35697 35700 35703 35706 35709 35712 35715 35718 35721 35724 35727 35730 35733 35736 35739 35742 35745 35748 35751 35754 35757 35760 35763 35766 35769 35772 35775 35778 35781 35784 35787 35790 35793 35796 35799 35802 35805 35808 35811 35814 35817 35820 35823 35826 35829 35832 35835 35838 35841 35844 35847 35850 35853 35856 35859 35862 35865 35868 35871 35874 35877 35880 35883 35886 35889 35892 35895 35898 35901 35904 35907 35910 35913 35916 35919 35922 35925 35928 35931 35934 35937 35940 35943 35946 35949 35952 35955 35958 35961 35964 35967 35970 35973 35976 35979 35982 35985 35988 35991 35994 35997 36000 36003 36006 36009 36012 36015 36018 36021 36024 36027 36030 36033 36036 36039 36042 36045 36048 36051 36054 36057 36060 36063 36066 36069 36072 36075 36078 36081 36084 36087 36090 36093 36096 36099 36102 36105 36108 36111 36114 36117 36120 36123 36126 36129 36132 36135 36138 36141 36144 36147 36150 36153 36156 36159 36162 36165 36168 36171 36174 36177 36180 36183 36186 36189 36192 36195 36198 36201 36204 36207 36210 36213 36216 36219 36222 36225 36228 36231 36234 36237 36240 36243 36246 36249 36252 36255 36258 36261 36264 36267 36270 36273 36276 36279 36282 36285 36288 36291 36294 36297 36300 36303 36306 36309 36312 36315 36318 36321 36324 36327 36330 36333 36336 36339 36342 36345 36348 36351 36354 36357 36360 36363 36366 36369 36372 36375 36378 36381 36384 36387 36390 36393 36396 36399 36402 36405 36408 36411 36414 36417 36420 36423 36426 36429 36432 36435 36438 36441 36444 36447 36450 36453 36456 36459 36462 36465 36468 36471 36474 36477 36480 36483 36486 36489 36492 36495 36498 36501 36504 36507 36510 36513 36516 36519 36522 36525 36528 36531 36534 36537 36540 36543 36546 36549 36552 36555 36558 36561 36564 36567 36570 36573 36576 36579 36582 36585 36588 36591 36594 36597 36600 36603 36606 36609 36612 36615 36618 36621 36624 36627 36630 36633 36636 36639 36642 36645 36648 36651 36654 36657 36660 36663 36666 36669 36672 36675 36678 36681 36684 36687 36690 36693 36696 36699 36702 36705 36708 36711 36714 36717 36720 36723 36726 36729 36732 36735 36738 36741 36744 36747 36750 36753 36756 36759 36762 36765 36768 36771 36774 36777 36780 36783 36786 36789 36792 36795 36798 36801 36804 36807 36810 36813 36816 36819 36822 36825 36828 36831 36834 36837 36840 36843 36846 36849 36852 36855 36858 36861 36864 36867 36870 36873 36876 36879 36882 36885 36888 36891 36894 36897 36900 36903 36906 36909 36912 36915 36918 36921 36924 36927 36930 36933 36936 36939 36942 36945 36948 36951 36954 36957 36960 36963 36966 36969 36972 36975 36978 36981 36984 36987 36990 36993 36996 36999 37002 37005 37008 37011 37014 37017 37020 37023 37026 37029 37032 37035 37038 37041 37044 37047 37050 37053 37056 37059 37062 37065 37068 37071 37074 37077 37080 37083 37086 37089 37092 37095 37098 37101 37104 37107 37110 37113 37116 37119 37122 37125 37128 37131 37134 37137 37140 37143 37146 37149 37152 37155 37158 37161 37164 37167 37170 37173 37176 37179 37182 37185 37188 37191 37194 37197 37200 37203 37206 37209 37212 37215 37218 37221 37224 37227 37230 37233 37236 37239 37242 37245 37248 37251 37254 37257 37260 37263 37266 37269 37272 37275 37278 37281 37284 37287 37290 37293 37296 37299 37302 37305 37308 37311 37314 37317 37320 37323 37326 37329 37332 37335 37338 37341 37344 37347 37350 37353 37356 37359 37362 37365 37368 37371 37374 37377 37380 37383 37386 37389 37392 37395 37398 37401 37404 37407 37410 37413 37416 37419 37422 37425 37428 37431 37434 37437 37440 37443 37446 37449 37452 37455 37458 37461 37464 37467 37470 37473 37476 37479 37482 37485 37488 37491 37494 37497 37500 37503 37506 37509 37512 37515 37518 37521 37524 37527 37530 37533 37536 37539 37542 37545 37548 37551 37554 37557 37560 37563 37566 37569 37572 37575 37578 37581 37584 37587 37590 37593 37596 37599 37602 37605 37608 37611 37614 37617 37620 37623 37626 37629 37632 37635 37638 37641 37644 37647 37650 37653 37656 37659 37662 37665 37668 37671 37674 37677 37680 37683 37686 37689 37692 37695 37698 37701 37704 37707 37710 37713 37716 37719 37722 37725 37728 37731 37734 37737 37740 37743 37746 37749 37752 37755 37758 37761 37764 37767 37770 37773 37776 37779 37782 37785 37788 37791 37794 37797 37800 37803 37806 37809 37812 37815 37818 37821 37824 37827 37830 37833 37836 37839 37842 37845 37848 37851 37854 37857 37860 37863 37866 37869 37872 37875 37878 37881 37884 37887 37890 37893 37896 37899 37902 37905 37908 37911 37914 37917 37920 37923 37926 37929 37932 37935 37938 37941 37944 37947 37950 37953 37956 37959 37962 37965 37968 37971 37974 37977 37980 37983 37986 37989 37992 37995 37998 38001 38004 38007 38010 38013 38016 38019 38022 38025 38028 38031 38034 38037 38040 38043 38046 38049 38052 38055 38058 38061 38064 38067 38070 38073 38076 38079 38082 38085 38088 38091 38094 38097 38100 38103 38106 38109 38112 38115 38118 38121 38124 38127 38130 38133 38136 38139 38142 38145 38148 38151 38154 38157 38160 38163 38166 38169 38172 38175 38178 38181 38184 38187 38190 38193 38196 38199 38202 38205 38208 38211 38214 38217 38220 38223 38226 38229 38232 38235 38238 38241 38244 38247 38250 38253 38256 38259 38262 38265 38268 38271 38274 38277 38280 38283 38286 38289 38292 38295 38298 38301 38304 38307 38310 38313 38316 38319 38322 38325 38328 38331 38334 38337 38340 38343 38346 38349 38352 38355 38358 38361 38364 38367 38370 38373 38376 38379 38382 38385 38388 38391 38394 38397 38400 38403 38406 38409 38412 38415 38418 38421 38424 38427 38430 38433 38436 38439 38442 38445 38448 38451 38454 38457 38460 38463 38466 38469 38472 38475 38478 38481 38484 38487 38490 38493 38496 38499 38502 38505 38508 38511 38514 38517 38520 38523 38526 38529 38532 38535 38538 38541 38544 38547 38550 38553 38556 38559 38562 38565 38568 38571 38574 38577 38580 38583 38586 38589 38592 38595 38598 38601 38604 38607 38610 38613 38616 38619 38622 38625 38628 38631 38634 38637 38640 38643 38646 38649 38652 38655 38658 38661 38664 38667 38670 38673 38676 38679 38682 38685 38688 38691 38694 38697 38700 38703 38706 38709 38712 38715 38718 38721 38724 38727 38730 38733 38736 38739 38742 38745 38748 38751 38754 38757 38760 38763 38766 38769 38772 38775 38778 38781 38784 38787 38790 38793 38796 38799 38802 38805 38808 38811 38814 38817 38820 38823 38826 38829 38832 38835 38838 38841 38844 38847 38850 38853 38856 38859 38862 38865 38868 38871 38874 38877 38880 38883 38886 38889 38892 38895 38898 38901 38904 38907 38910 38913 38916 38919 38922 38925 38928 38931 38934 38937 38940 38943 38946 38949 38952 38955 38958 38961 38964 38967 38970 38973 38976 38979 38982 38985 38988 38991 38994 38997 39000 39003 39006 39009 39012 39015 39018 39021 39024 39027 39030 39033 39036 39039 39042 39045 39048 39051 39054 39057 39060 39063 39066 39069 39072 39075 39078 39081 39084 39087 39090 39093 39096 39099 39102 39105 39108 39111 39114 39117 39120 39123 39126 39129 39132 39135 39138 39141 39144 39147 39150 39153 39156 39159 39162 39165 39168 39171 39174 39177 39180 39183 39186 39189 39192 39195 39198 39201 39204 39207 39210 39213 39216 39219 39222 39225 39228 39231 39234 39237 39240 39243 39246 39249 39252 39255 39258 39261 39264 39267 39270 39273 39276 39279 39282 39285 39288 39291 39294 39297 39300 39303 39306 39309 39312 39315 39318 39321 39324 39327 39330 39333 39336 39339 39342 39345 39348 39351 39354 39357 39360 39363 39366 39369 39372 39375 39378 39381 39384 39387 39390 39393 39396 39399 39402 39405 39408 39411 39414 39417 39420 39423 39426 39429 39432 39435 39438 39441 39444 39447 39450 39453 39456 39459 39462 39465 39468 39471 39474 39477 39480 39483 39486 39489 39492 39495 39498 39501 39504 39507 39510 39513 39516 39519 39522 39525 39528 39531 39534 39537 39540 39543 39546 39549 39552 39555 39558 39561 39564 39567 39570 39573 39576 39579 39582 39585 39588 39591 39594 39597 39600 39603 39606 39609 39612 39615 39618 39621 39624 39627 39630 39633 39636 39639 39642 39645 39648 39651 39654 39657 39660 39663 39666 39669 39672 39675 39678 39681 39684 39687 39690 39693 39696 39699 39702 39705 39708 39711 39714 39717 39720 39723 39726 39729 39732 39735 39738 39741 39744 39747 39750 39753 39756 39759 39762 39765 39768 39771 39774 39777 39780 39783 39786 39789 39792 39795 39798 39801 39804 39807 39810 39813 39816 39819 39822 39825 39828 39831 39834 39837 39840 39843 39846 39849 39852 39855 39858 39861 39864 39867 39870 39873 39876 39879 39882 39885 39888 39891 39894 39897 39900 39903 39906 39909 39912 39915 39918 39921 39924 39927 39930 39933 39936 39939 39942 39945 39948 39951 39954 39957 39960 39963 39966 39969 39972 39975 39978 39981 39984 39987 39990 39993 39996 39999 40002 40005 40008 40011 40014 40017 40020 40023 40026 40029 40032 40035 40038 40041 40044 40047 40050 40053 40056 40059 40062 40065 40068 40071 40074 40077 40080 40083 40086 40089 40092 40095 40098 40101 40104 40107 40110 40113 40116 40119 40122 40125 40128 40131 40134 40137 40140 40143 40146 40149 40152 40155 40158 40161 40164 40167 40170 40173 40176 40179 40182 40185 40188 40191 40194 40197 40200 40203 40206 40209 40212 40215 40218 40221 40224 40227 40230 40233 40236 40239 40242 40245 40248 40251 40254 40257 40260 40263 40266 40269 40272 40275 40278 40281 40284 40287 40290 40293 40296 40299 40302 40305 40308 40311 40314 40317 40320 40323 40326 40329 40332 40335 40338 40341 40344 40347 40350 40353 40356 40359 40362 40365 40368 40371 40374 40377 40380 40383 40386 40389 40392 40395 40398 40401 40404 40407 40410 40413 40416 40419 40422 40425 40428 40431 40434 40437 40440 40443 40446 40449 40452 40455 40458 40461 40464 40467 40470 40473 40476 40479 40482 40485 40488 40491 40494 40497 40500 40503 40506 40509 40512 40515 40518 40521 40524 40527 40530 40533 40536 40539 40542 40545 40548 40551 40554 40557 40560 40563 40566 40569 40572 40575 40578 40581 40584 40587 40590 40593 40596 40599 40602 40605 40608 40611 40614 40617 40620 40623 40626 40629 40632 40635 40638 40641 40644 40647 40650 40653 40656 40659 40662 40665 40668 40671 40674 40677 40680 40683 40686 40689 40692 40695 40698 40701 40704 40707 40710 40713 40716 40719 40722 40725 40728 40731 40734 40737 40740 40743 40746 40749 40752 40755 40758 40761 40764 40767 40770 40773 40776 40779 40782 40785 40788 40791 40794 40797 40800 40803 40806 40809 40812 40815 40818 40821 40824 40827 40830 40833 40836 40839 40842 40845 40848 40851 40854 40857 40860 40863 40866 40869 40872 40875 40878 40881 40884 40887 40890 40893 40896 40899 40902 40905 40908 40911 40914 40917 40920 40923 40926 40929 40932 40935 40938 40941 40944 40947 40950 40953 40956 40959 40962 40965 40968 40971 40974 40977 40980 40983 40986 40989 40992 40995 40998 41001 41004 41007 41010 41013 41016 41019 41022 41025 41028 41031 41034 41037 41040 41043 41046 41049 41052 41055 41058 41061 41064 41067 41070 41073 41076 41079 41082 41085 41088 41091 41094 41097 41100 41103 41106 41109 41112 41115 41118 41121 41124 41127 41130 41133 41136 41139 41142 41145 41148 41151 41154 41157 41160 41163 41166 41169 41172 41175 41178 41181 41184 41187 41190 41193 41196 41199 41202 41205 41208 41211 41214 41217 41220 41223 41226 41229 41232 41235 41238 41241 41244 41247 41250 41253 41256 41259 41262 41265 41268 41271 41274 41277 41280 41283 41286 41289 41292 41295 41298 41301 41304 41307 41310 41313 41316 41319 41322 41325 41328 41331 41334 41337 41340 41343 41346 41349 41352 41355 41358 41361 41364 41367 41370 41373 41376 41379 41382 41385 41388 41391 41394 41397 41400 41403 41406 41409 41412 </DataArray>
        <DataArray type="Int8" Name="types" format="ascii">69 69 69 69 69 69 69 69 69 69 69 69 69 69 69 69 69 69 69 69 69 69 69 69 69 69 69 69 69 69 69 69 69 69 69 69 69 69 69 69 69 69 69 69 69 69 69 69 69 69 69 69 69 69 69 69 69 69 69 69 69 69 69 69 69 69 69 69 69 69 69 69 69 69 69 69 69 69 69 69 69 69 69 69 69 69 69 69 69 69 69 69 69 69 69 69 69 69 69 69 69 69 69 69 69 69 69 69 69 69 69 69 69 69 69 69 69 69 69 69 69 69 69 69 69 69 69 69 69 69 69 69 69 69 69 69 69 69 69 69 69 69 69 69 69 69 69 69 69 69 69 69 69 69 69 69 69 69 69 69 69 69 69 69 69 69 69 69 69 69 69 69 69 69 69 69 69 69 69 69 69 69 69 69 69 69 69 69 69 69 69 69 69 69 69 69 69 69 69 69 69 69 69 69 69 69 69 69 69 69 69 69 69 69 69 69 69 69 69 69 69 69 69 69 69 69 69 69 69 69 69 69 69 69 69 69 69 69 69 69 69 69 69 69 69 69 69 69 69 69 69 69 69 69 69 69 69 69 69 69 69 69 69 69 69 69 69 69 69 69 69 69 69 69 69 69 69 69 69 69 69 69 69 69 69 69 69 69 69 69 69 69 69 69 69 69 69 69 69 69 69 69 69 69 69 69 69 69 69 69 69 69 69 69 69 69 69 69 69 69 69 69 69 69 69 69 69 69 69 69 69 69 69 69 69 69 69 69 69 69 69 69 69 69 69 69 69 69 69 69 69 69 69 69 69 69 69 69 69 69 69 69 69 69 69 69 69 69 69 69 69 69 69 69 69 69 69 69 69 69 69 69 69 69 69 69 69 69 69 69 69 69 69 69 69 69 69 69 69 69 69 69 69 69 69 69 69 69 69 69 69 69 69 69 69 69 69 69 69 69 69 69 69 69 69 69 69 69 69 69 69 69 69 69 69 69 69 69 69 69 69 69 69 69 69 69 69 69 69 69 69 69 69 69 69 69 69 69 69 69 69 69 69 69 69 69 69 69 69 69 69 69 69 69 69 69 69 69 69 69 69 69 69 69 69 69 69 69 69 69 69 69 69 69 69 69 69 69 69 69 69 69 69 69 69 69 69 69 69 69 69 69 69 69 69 69 69 69 69 69 69 69 69 69 69 69 69 69 69 69 69 69 69 69 69 69 69 69 69 69 69 69 69 69 69 69 69 69 69 69 69 69 69 69 69 69 69 69 69 69 69 69 69 69 69 69 69 69 69 69 69 69 69 69 69 69 69 69 69 69 69 69 69 69 69 69 69 69 69 69 69 69 69 69 69 69 69 69 69 69 69 69 69 69 69 69 69 69 69 69 69 69 69 69 69 69 69 69 69 69 69 69 69 69 69 69 69 69 69 69 69 69 69 69 69 69 69 69 69 69 69 69 69 69 69 69 69 69 69 69 69 69 69 69 69 69 69 69 69 69 69 69 69 69 69 69 69 69 69 69 69 69 69 69 69 69 69 69 69 69 69 69 69 69 69 69 69 69 69 69 69 69 69 69 69 69 69 69 69 69 69 69 69 69 69 69 69 69 69 69 69 69 69 69 69 69 69 69 69 69 69 69 69 69 69 69 69 69 69 69 69 69 69 69 69 69 69 69 69 69 69 69 69 69 69 69 69 69 69 69 69 69 69 69 69 69 69 69 69 69 69 69 69 69 69 69 69 69 69 69 69 69 69 69 69 69 69 69 69 69 69 69 69 69 69 69 69 69 69 69 69 69 69 69 69 69 69 69 69 69 69 69 69 69 69 69 69 69 69 69 69 69 69 69 69 69 69 69 69 69 69 69 69 69 69 69 69 69 69 69 69 69 69 69 69 69 69 69 69 69 69 69 69 69 69 69 69 69 69 69 69 69 69 69 69 69 69 69 69 69 69 69 69 69 69 69 69 69 69 69 69 69 69 69 69 69 69 69 69 69 69 69 69 69 69 69 69 69 69 69 69 69 69 69 69 69 69 69 69 69 69 69 69 69 69 69 69 69 69 69 69 69 69 69 69 69 69 69 69 69 69 69 69 69 69 69 69 69 69 69 69 69 69 69 69 69 69 69 69 69 69 69 69 69 69 69 69 69 69 69 69 69 69 69 69 69 69 69 69 69 69 69 69 69 69 69 69 69 69 69 69 69 69 69 69 69 69 69 69 69 69 69 69 69 69 69 69 69 69 69 69 69 69 69 69 69 69 69 69 69 69 69 69 69 69 69 69 69 69 69 69 69 69 69 69 69 69 69 69 69 69 69 69 69 69 69 69 69 69 69 69 69 69 69 69 69 69 69 69 69 69 69 69 69 69 69 69 69 69 69 69 69 69 69 69 69 69 69 69 69 69 69 69 69 69 69 69 69 69 69 69 69 69 69 69 69 69 69 69 69 69 69 69 69 69 69 69 69 69 69 69 69 69 69 69 69 69 69 69 69 69 69 69 69 69 69 69 69 69 69 69 69 69 69 69 69 69 69 69 69 69 69 69 69 69 69 69 69 69 69 69 69 69 69 69 69 69 69 69 69 69 69 69 69 69 69 69 69 69 69 69 69 69 69 69 69 69 69 69 69 69 69 69 69 69 69 69 69 69 69 69 69 69 69 69 69 69 69 69 69 69 69 69 69 69 69 69 69 69 69 69 69 69 69 69 69 69 69 69 69 69 69 69 69 69 69 69 69 69 69 69 69 69 69 69 69 69 69 69 69 69 69 69 69 69 69 69 69 69 69 69 69 69 69 69 69 69 69 69 69 69 69 69 69 69 69 69 69 69 69 69 69 69 69 69 69 69 69 69 69 69 69 69 69 69 69 69 69 69 69 69 69 69 69 69 69 69 69 69 69 69 69 69 69 69 69 69 69 69 69 69 69 69 69 69 69 69 69 69 69 69 69 69 69 69 69 69 69 69 69 69 69 69 69 69 69 69 69 69 69 69 69 69 69 69 69 69 69 69 69 69 69 69 69 69 69 69 69 69 69 69 69 69 69 69 69 69 69 69 69 69 69 69 69 69 69 69 69 69 69 69 69 69 69 69 69 69 69 69 69 69 69 69 69 69 69 69 69 69 69 69 69 69 69 69 69 69 69 69 69 69 69 69 69 69 69 69 69 69 69 69 69 69 69 69 69 69 69 69 69 69 69 69 69 69 69 69 69 69 69 69 69 69 69 69 69 69 69 69 69 69 69 69 69 69 69 69 69 69 69 69 69 69 69 69 69 69 69 69 69 69 69 69 69 69 69 69 69 69 69 69 69 69 69 69 69 69 69 69 69 69 69 69 69 69 69 69 69 69 69 69 69 69 69 69 69 69 69 69 69 69 69 69 69 69 69 69 69 69 69 69 69 69 69 69 69 69 69 69 69 69 69 69 69 69 69 69 69 69 69 69 69 69 69 69 69 69 69 69 69 69 69 69 69 69 69 69 69 69 69 69 69 69 69 69 69 69 69 69 69 69 69 69 69 69 69 69 69 69 69 69 69 69 69 69 69 69 69 69 69 69 69 69 69 69 69 69 69 69 69 69 69 69 69 69 69 69 69 69 69 69 69 69 69 69 69 69 69 69 69 69 69 69 69 69 69 69 69 69 69 69 69 69 69 69 69 69 69 69 69 69 69 69 69 69 69 69 69 69 69 69 69 69 69 69 69 69 69 69 69 69 69 69 69 69 69 69 69 69 69 69 69 69 69 69 69 69 69 69 69 69 69 69 69 69 69 69 69 69 69 69 69 69 69 69 69 69 69 69 69 69 69 69 69 69 69 69 69 69 69 69 69 69 69 69 69 69 69 69 69 69 69 69 69 69 69 69 69 69 69 69 69 69 69 69 69 69 69 69 69 69 69 69 69 69 69 69 69 69 69 69 69 69 69 69 69 69 69 69 69 69 69 69 69 69 69 69 69 69 69 69 69 69 69 69 69 69 69 69 69 69 69 69 69 69 69 69 69 69 69 69 69 69 69 69 69 69 69 69 69 69 69 69 69 69 69 69 69 69 69 69 69 69 69 69 69 69 69 69 69 69 69 69 69 69 69 69 69 69 69 69 69 69 69 69 69 69 69 69 69 69 69 69 69 69 69 69 69 69 69 69 69 69 69 69 69 69 69 69 69 69 69 69 69 69 69 69 69 69 69 69 69 69 69 69 69 69 69 69 69 69 69 69 69 69 69 69 69 69 69 69 69 69 69 69 69 69 69 69 69 69 69 69 69 69 69 69 69 69 69 69 69 69 69 69 69 69 69 69 69 69 69 69 69 69 69 69 69 69 69 69 69 69 69 69 69 69 69 69 69 69 69 69 69 69 69 69 69 69 69 69 69 69 69 69 69 69 69 69 69 69 69 69 69 69 69 69 69 69 69 69 69 69 69 69 69 69 69 69 69 69 69 69 69 69 69 69 69 69 69 69 69 69 69 69 69 69 69 69 69 69 69 69 69 69 69 69 69 69 69 69 69 69 69 69 69 69 69 69 69 69 69 69 69 69 69 69 69 69 69 69 69 69 69 69 69 69 69 69 69 69 69 69 69 69 69 69 69 69 69 69 69 69 69 69 69 69 69 69 69 69 69 69 69 69 69 69 69 69 69 69 69 69 69 69 69 69 69 69 69 69 69 69 69 69 69 69 69 69 69 69 69 69 69 69 69 69 69 69 69 69 69 69 69 69 69 69 69 69 69 69 69 69 69 69 69 69 69 69 69 69 69 69 69 69 69 69 69 69 69 69 69 69 69 69 69 69 69 69 69 69 69 69 69 69 69 69 69 69 69 69 69 69 69 69 69 69 69 69 69 69 69 69 69 69 69 69 69 69 69 69 69 69 69 69 69 69 69 69 69 69 69 69 69 69 69 69 69 69 69 69 69 69 69 69 69 69 69 69 69 69 69 69 69 69 69 69 69 69 69 69 69 69 69 69 69 69 69 69 69 69 69 69 69 69 69 69 69 69 69 69 69 69 69 69 69 69 69 69 69 69 69 69 69 69 69 69 69 69 69 69 69 69 69 69 69 69 69 69 69 69 69 69 69 69 69 69 69 69 69 69 69 69 69 69 69 69 69 69 69 69 69 69 69 69 69 69 69 69 69 69 69 69 69 69 69 69 69 69 69 69 69 69 69 69 69 69 69 69 69 69 69 69 69 69 69 69 69 69 69 69 69 69 69 69 69 69 69 69 69 69 69 69 69 69 69 69 69 69 69 69 69 69 69 69 69 69 69 69 69 69 69 69 69 69 69 69 69 69 69 69 69 69 69 69 69 69 69 69 69 69 69 69 69 69 69 69 69 69 69 69 69 69 69 69 69 69 69 69 69 69 69 69 69 69 69 69 69 69 69 69 69 69 69 69 69 69 69 69 69 69 69 69 69 69 69 69 69 69 69 69 69 69 69 69 69 69 69 69 69 69 69 69 69 69 69 69 69 69 69 69 69 69 69 69 69 69 69 69 69 69 69 69 69 69 69 69 69 69 69 69 69 69 69 69 69 69 69 69 69 69 69 69 69 69 69 69 69 69 69 69 69 69 69 69 69 69 69 69 69 69 69 69 69 69 69 69 69 69 69 69 69 69 69 69 69 69 69 69 69 69 69 69 69 69 69 69 69 69 69 69 69 69 69 69 69 69 69 69 69 69 69 69 69 69 69 69 69 69 69 69 69 69 69 69 69 69 69 69 69 69 69 69 69 69 69 69 69 69 69 69 69 69 69 69 69 69 69 69 69 69 69 69 69 69 69 69 69 69 69 69 69 69 69 69 69 69 69 69 69 69 69 69 69 69 69 69 69 69 69 69 69 69 69 69 69 69 69 69 69 69 69 69 69 69 69 69 69 69 69 69 69 69 69 69 69 69 69 69 69 69 69 69 69 69 69 69 69 69 69 69 69 69 69 69 69 69 69 69 69 69 69 69 69 69 69 69 69 69 69 69 69 69 69 69 69 69 69 69 69 69 69 69 69 69 69 69 69 69 69 69 69 69 69 69 69 69 69 69 69 69 69 69 69 69 69 69 69 69 69 69 69 69 69 69 69 69 69 69 69 69 69 69 69 69 69 69 69 69 69 69 69 69 69 69 69 69 69 69 69 69 69 69 69 69 69 69 69 69 69 69 69 69 69 69 69 69 69 69 69 69 69 69 69 69 69 69 69 69 69 69 69 69 69 69 69 69 69 69 69 69 69 69 69 69 69 69 69 69 69 69 69 69 69 69 69 69 69 69 69 69 69 69 69 69 69 69 69 69 69 69 69 69 69 69 69 69 69 69 69 69 69 69 69 69 69 69 69 69 69 69 69 69 69 69 69 69 69 69 69 69 69 69 69 69 69 69 69 69 69 69 69 69 69 69 69 69 69 69 69 69 69 69 69 69 69 69 69 69 69 69 69 69 69 69 69 69 69 69 69 69 69 69 69 69 69 69 69 69 69 69 69 69 69 69 69 69 69 69 69 69 69 69 69 69 69 69 69 69 69 69 69 69 69 69 69 69 69 69 69 69 69 69 69 69 69 69 69 69 69 69 69 69 69 69 69 69 69 69 69 69 69 69 69 69 69 69 69 69 69 69 69 69 69 69 69 69 69 69 69 69 69 69 69 69 69 69 69 69 69 69 69 69 69 69 69 69 69 69 69 69 69 69 69 69 69 69 69 69 69 69 69 69 69 69 69 69 69 69 69 69 69 69 69 69 69 69 69 69 69 69 69 69 69 69 69 69 69 69 69 69 69 69 69 69 69 69 69 69 69 69 69 69 69 69 69 69 69 69 69 69 69 69 69 69 69 69 69 69 69 69 69 69 69 69 69 69 69 69 69 69 69 69 69 69 69 69 69 69 69 69 69 69 69 69 69 69 69 69 69 69 69 69 69 69 69 69 69 69 69 69 69 69 69 69 69 69 69 69 69 69 69 69 69 69 69 69 69 69 69 69 69 69 69 69 69 69 69 69 69 69 69 69 69 69 69 69 69 69 69 69 69 69 69 69 69 69 69 69 69 69 69 69 69 69 69 69 69 69 69 69 69 69 69 69 69 69 69 69 69 69 69 69 69 69 69 69 69 69 69 69 69 69 69 69 69 69 69 69 69 69 69 69 69 69 69 69 69 69 69 69 69 69 69 69 69 69 69 69 69 69 69 69 69 69 69 69 69 69 69 69 69 69 69 69 69 69 69 69 69 69 69 69 69 69 69 69 69 69 69 69 69 69 69 69 69 69 69 69 69 69 69 69 69 69 69 69 69 69 69 69 69 69 69 69 69 69 69 69 69 69 69 69 69 69 69 69 69 69 69 69 69 69 69 69 69 69 69 69 69 69 69 69 69 69 69 69 69 69 69 69 69 69 69 69 69 69 69 69 69 69 69 69 69 69 69 69 69 69 69 69 69 69 69 69 69 69 69 69 69 69 69 69 69 69 69 69 69 69 69 69 69 69 69 69 69 69 69 69 69 69 69 69 69 69 69 69 69 69 69 69 69 69 69 69 69 69 69 69 69 69 69 69 69 69 69 69 69 69 69 69 69 69 69 69 69 69 69 69 69 69 69 69 69 69 69 69 69 69 69 69 69 69 69 69 69 69 69 69 69 69 69 69 69 69 69 69 69 69 69 69 69 69 69 69 69 69 69 69 69 69 69 69 69 69 69 69 69 69 69 69 69 69 69 69 69 69 69 69 69 69 69 69 69 69 69 69 69 69 69 69 69 69 69 69 69 69 69 69 69 69 69 69 69 69 69 69 69 69 69 69 69 69 69 69 69 69 69 69 69 69 69 69 69 69 69 69 69 69 69 69 69 69 69 69 69 69 69 69 69 69 69 69 69 69 69 69 69 69 69 69 69 69 69 69 69 69 69 69 69 69 69 69 69 69 69 69 69 69 69 69 69 69 69 69 69 69 69 69 69 69 69 69 69 69 69 69 69 69 69 69 69 69 69 69 69 69 69 69 69 69 69 69 69 69 69 69 69 69 69 69 69 69 69 69 69 69 69 69 69 69 69 69 69 69 69 69 69 69 69 69 69 69 69 69 69 69 69 69 69 69 69 69 69 69 69 69 69 69 69 69 69 69 69 69 69 69 69 69 69 69 69 69 69 69 69 69 69 69 69 69 69 69 69 69 69 69 69 69 69 69 69 69 69 69 69 69 69 69 69 69 69 69 69 69 69 69 69 69 69 69 69 69 69 69 69 69 69 69 69 69 69 69 69 69 69 69 69 69 69 69 69 69 69 69 69 69 69 69 69 69 69 69 69 69 69 69 69 69 69 69 69 69 69 69 69 69 69 69 69 69 69 69 69 69 69 69 69 69 69 69 69 69 69 69 69 69 69 69 69 69 69 69 69 69 69 69 69 69 69 69 69 69 69 69 69 69 69 69 69 69 69 69 69 69 69 69 69 69 69 69 69 69 69 69 69 69 69 69 69 69 69 69 69 69 69 69 69 69 69 69 69 69 69 69 69 69 69 69 69 69 69 69 69 69 69 69 69 69 69 69 69 69 69 69 69 69 69 69 69 69 69 69 69 69 69 69 69 69 69 69 69 69 69 69 69 69 69 69 69 69 69 69 69 69 69 69 69 69 69 69 69 69 69 69 69 69 69 69 69 69 69 69 69 69 69 69 69 69 69 69 69 69 69 69 69 69 69 69 69 69 69 69 69 69 69 69 69 69 69 69 69 69 69 69 69 69 69 69 69 69 69 69 69 69 69 69 69 69 69 69 69 69 69 69 69 69 69 69 69 69 69 69 69 69 69 69 69 69 69 69 69 69 69 69 69 69 69 69 69 69 69 69 69 69 69 69 69 69 69 69 69 69 69 69 69 69 69 69 69 69 69 69 69 69 69 69 69 69 69 69 69 69 69 69 69 69 69 69 69 69 69 69 69 69 69 69 69 69 69 69 69 69 69 69 69 69 69 69 69 69 69 69 69 69 69 69 69 69 69 69 69 69 69 69 69 69 69 69 69 69 69 69 69 69 69 69 69 69 69 69 69 69 69 69 69 69 69 69 69 69 69 69 69 69 69 69 69 69 69 69 69 69 69 69 69 69 69 69 69 69 69 69 69 69 69 69 69 69 69 69 69 69 69 69 69 69 69 69 69 69 69 69 69 69 69 69 69 69 69 69 69 69 69 69 69 69 69 69 69 69 69 69 69 69 69 69 69 69 69 69 69 69 69 69 69 69 69 69 69 69 69 69 69 69 69 69 69 69 69 69 69 69 69 69 69 69 69 69 69 69 69 69 69 69 69 69 69 69 69 69 69 69 69 69 69 69 69 69 69 69 69 69 69 69 69 69 69 69 69 69 69 69 69 69 69 69 69 69 69 69 69 69 69 69 69 69 69 69 69 69 69 69 69 69 69 69 69 69 69 69 69 69 69 69 69 69 69 69 69 69 69 69 69 69 69 69 69 69 69 69 69 69 69 69 69 69 69 69 69 69 69 69 69 69 69 69 69 69 69 69 69 69 69 69 69 69 69 69 69 69 69 69 69 69 69 69 69 69 69 69 69 69 69 69 69 69 69 69 69 69 69 69 69 69 69 69 69 69 69 69 69 69 69 69 69 69 69 69 69 69 69 69 69 69 69 69 69 69 69 69 69 69 69 69 69 69 69 69 69 69 69 69 69 69 69 69 69 69 69 69 69 69 69 69 69 69 69 69 69 69 69 69 69 69 69 69 69 69 69 69 69 69 69 69 69 69 69 69 69 69 69 69 69 69 69 69 69 69 69 69 69 69 69 69 69 69 69 69 69 69 69 69 69 69 69 69 69 69 69 69 69 69 69 69 69 69 69 69 69 69 69 69 69 69 69 69 69 69 69 69 69 69 69 69 69 69 69 69 69 69 69 69 69 69 69 69 69 69 69 69 69 69 69 69 69 69 69 69 69 69 69 69 69 69 69 69 69 69 69 69 69 69 69 69 69 69 69 69 69 69 69 69 69 69 69 69 69 69 69 69 69 69 69 69 69 69 69 69 69 69 69 69 69 69 69 69 69 69 69 69 69 69 69 69 69 69 69 69 69 69 69 69 69 69 69 69 69 69 69 69 69 69 69 69 69 69 69 69 69 69 69 69 69 69 69 69 69 69 69 69 69 69 69 69 69 69 69 69 69 69 69 69 69 69 69 69 69 69 69 69 69 69 69 69 69 69 69 69 69 69 69 69 69 69 69 69 69 69 69 69 69 69 69 69 69 69 69 69 69 69 69 69 69 69 69 69 69 69 69 69 69 69 69 69 69 69 69 69 69 69 69 69 69 69 69 69 69 69 69 69 69 69 69 69 69 69 69 69 69 69 69 69 69 69 69 69 69 69 69 69 69 69 69 69 69 69 69 69 69 69 69 69 69 69 69 69 69 69 69 69 69 69 69 69 69 69 69 69 69 69 69 69 69 69 69 69 69 69 69 69 69 69 69 69 69 69 69 69 69 69 69 69 69 69 69 69 69 69 69 69 69 69 69 69 69 69 69 69 69 69 69 69 69 69 69 69 69 69 69 69 69 69 69 69 69 69 69 69 69 69 69 69 69 69 69 69 69 69 69 69 69 69 69 69 69 69 69 69 69 69 69 69 69 69 69 69 69 69 69 69 69 69 69 69 69 69 69 69 69 69 69 69 69 69 69 69 69 69 69 69 69 69 69 69 69 69 69 69 69 69 69 69 69 69 69 69 69 69 69 69 69 69 69 69 69 69 69 69 69 69 69 69 69 69 69 69 69 69 69 69 69 69 69 69 69 69 69 69 69 69 69 69 69 69 69 69 69 69 69 69 69 69 69 69 69 69 69 69 69 69 69 69 69 69 69 69 69 69 69 69 69 69 69 69 69 69 69 69 69 69 69 69 69 69 69 69 69 69 69 69 69 69 69 69 69 69 69 69 69 69 69 69 69 69 69 69 69 69 69 69 69 69 69 69 69 69 69 69 69 69 69 69 69 69 69 69 69 69 69 69 69 69 69 69 69 69 69 69 69 69 69 69 69 69 69 69 69 69 69 69 69 69 69 69 69 69 69 69 69 69 69 69 69 69 69 69 69 69 69 69 69 69 69 69 69 69 69 69 69 69 69 69 69 69 69 69 69 69 69 69 69 69 69 69 69 69 69 69 69 69 69 69 69 69 69 69 69 69 69 69 69 69 69 69 69 69 69 69 69 69 69 69 69 69 69 69 69 69 69 69 69 69 69 69 69 69 69 69 69 69 69 69 69 69 69 69 69 69 69 69 69 69 69 69 69 69 69 69 69 69 69 69 69 69 69 69 69 69 69 69 69 69 69 69 69 69 69 69 69 69 69 69 69 69 69 69 69 69 69 69 69 69 69 69 69 69 69 69 69 69 69 69 69 69 69 69 69 69 69 69 69 69 69 69 69 69 69 69 69 69 69 69 69 69 69 69 69 69 69 69 69 69 69 69 69 69 69 69 69 69 69 69 69 69 69 69 69 69 69 69 69 69 69 69 69 69 69 69 69 69 69 69 69 69 69 69 69 69 69 69 69 69 69 69 69 69 69 69 69 69 69 69 69 69 69 69 69 69 69 69 69 69 69 69 69 69 69 69 69 69 69 69 69 69 69 69 69 69 69 69 69 69 69 69 69 69 69 69 69 69 69 69 69 69 69 69 69 69 69 69 69 69 69 69 69 69 69 69 69 69 69 69 69 69 69 69 69 69 69 69 69 69 69 69 69 69 69 69 69 69 69 69 69 69 69 69 69 69 69 69 69 69 69 69 69 69 69 69 69 69 69 69 69 69 69 69 69 69 69 69 69 69 69 69 69 69 69 69 69 69 69 69 69 69 69 69 69 69 69 69 69 69 69 69 69 69 69 69 69 69 69 69 69 69 69 69 69 69 69 69 69 69 69 69 69 69 69 69 69 69 69 69 69 69 69 69 69 69 69 69 69 69 69 69 69 69 69 69 69 69 69 69 69 69 69 69 69 69 69 69 69 69 69 69 69 69 69 69 69 69 69 69 69 69 69 69 69 69 69 69 69 69 69 69 69 69 69 69 69 69 69 69 69 69 69 69 69 69 69 69 69 69 69 69 69 69 69 69 69 69 69 69 69 69 69 69 69 69 69 69 69 69 69 69 69 69 69 69 69 69 69 69 69 69 69 69 69 69 69 69 69 69 69 69 69 69 69 69 69 69 69 69 69 69 69 69 69 69 69 69 69 69 69 69 69 69 69 69 69 69 69 69 69 69 69 69 69 69 69 69 69 69 69 69 69 69 69 69 69 69 69 69 69 69 69 69 69 69 69 69 69 69 69 69 69 69 69 69 69 69 69 69 69 69 69 69 69 69 69 69 69 69 69 69 69 69 69 69 69 69 69 69 69 69 69 69 69 69 69 69 69 69 69 69 69 69 69 69 69 69 69 69 69 69 69 69 69 69 69 69 69 69 69 69 69 69 69 69 69 69 69 69 69 69 69 69 69 69 69 69 69 69 69 69 69 69 69 69 69 69 69 69 69 69 69 69 69 69 69 69 69 69 69 69 69 69 69 69 69 69 69 69 69 69 69 69 69 69 69 69 69 69 69 69 69 69 69 69 69 69 69 69 69 69 69 69 69 69 69 69 69 69 69 69 69 69 69 69 69 69 69 69 69 69 69 69 69 69 69 69 69 69 69 69 69 69 69 69 69 69 69 69 69 69 69 69 69 69 69 69 69 69 69 69 69 69 69 69 69 69 69 69 69 69 69 69 69 69 69 69 69 69 69 69 69 69 69 69 69 69 69 69 69 69 69 69 69 69 69 69 69 69 69 69 69 69 69 69 69 69 69 69 69 69 69 69 69 69 69 69 69 69 69 69 69 69 69 69 69 69 69 69 69 69 69 69 69 69 69 69 69 69 69 69 69 69 69 69 69 69 69 69 69 69 69 69 69 69 69 69 69 69 69 69 69 69 69 69 69 69 69 69 69 69 69 69 69 69 69 69 69 69 69 69 69 69 69 69 69 69 69 69 69 69 69 69 69 69 69 69 69 69 69 69 69 69 69 69 69 69 69 69 69 69 69 69 69 69 69 69 69 69 69 69 69 69 69 69 69 69 69 69 69 69 69 69 69 69 69 69 69 69 69 69 69 69 69 69 69 69 69 69 69 69 69 69 69 69 69 69 69 69 69 69 69 69 69 69 69 69 69 69 69 69 69 69 69 69 69 69 69 69 69 69 69 69 69 69 69 69 69 69 69 69 69 69 69 69 69 69 69 69 69 69 69 69 69 69 69 69 69 69 69 69 69 69 69 69 69 69 69 69 69 69 69 69 69 69 69 69 69 69 69 69 69 69 69 69 69 69 69 69 69 69 69 69 69 69 69 69 69 69 69 69 69 69 69 69 69 69 69 69 69 69 69 69 69 69 69 69 69 69 69 69 69 69 69 69 69 69 69 69 69 69 69 69 69 69 69 69 69 69 69 69 69 69 69 69 69 69 69 69 69 69 69 69 69 69 69 69 69 69 69 69 69 69 69 69 69 69 69 69 69 69 69 69 69 69 69 69 69 69 69 69 69 69 69 69 69 69 69 69 69 69 69 69 69 69 69 69 69 69 69 69 69 69 69 69 69 69 69 69 69 69 69 69 69 69 69 69 69 69 69 69 69 69 69 69 69 69 69 69 69 69 69 69 69 69 69 69 69 69 69 69 69 69 69 69 69 69 69 69 69 69 69 69 69 69 69 69 69 69 69 69 69 69 69 69 69 69 69 69 69 69 69 69 69 69 69 69 69 69 69 69 69 69 69 69 69 69 69 69 69 69 69 69 69 69 69 69 69 69 69 69 69 69 69 69 69 69 69 69 69 69 69 69 69 69 69 69 69 69 69 69 69 69 69 69 69 69 69 69 69 69 69 69 69 69 69 69 69 69 69 69 69 69 69 69 69 69 69 69 69 69 69 69 69 69 69 69 69 69 69 69 69 69 69 69 69 69 69 69 69 69 69 69 69 69 69 69 69 69 69 69 69 69 69 69 69 69 69 69 69 69 69 69 69 69 69 69 69 69 69 69 69 69 69 69 69 69 69 69 69 69 69 69 69 69 69 69 69 69 69 69 69 69 69 69 69 69 69 69 69 69 69 69 69 69 69 69 69 69 69 69 69 69 69 69 69 69 69 69 69 69 69 69 69 69 69 69 69 69 69 69 69 69 69 69 69 69 69 69 69 69 69 69 69 69 69 69 69 69 69 69 69 69 69 69 69 69 69 69 69 69 69 69 69 69 69 69 69 69 69 69 69 69 69 69 69 69 69 69 69 69 69 69 69 69 69 69 69 69 69 69 69 69 69 69 69 69 69 69 69 69 69 69 69 69 69 69 69 69 69 69 69 69 69 69 69 69 69 69 69 69 69 69 69 69 69 69 69 69 69 69 69 69 69 69 69 69 69 69 69 69 69 69 69 69 69 69 69 69 69 69 69 69 69 69 69 69 69 69 69 69 69 69 69 69 69 69 69 69 69 69 69 69 69 69 69 69 69 69 69 69 69 69 69 69 69 69 69 69 69 69 69 69 69 69 69 69 69 69 69 69 69 69 69 69 69 69 69 69 69 69 69 69 69 69 69 69 69 69 69 69 69 69 69 69 69 69 69 69 69 69 69 69 69 69 69 69 69 69 69 69 69 69 69 69 69 69 69 69 69 69 69 69 69 69 69 69 69 69 69 69 69 69 69 69 69 69 69 69 69 69 69 69 69 69 69 69 69 69 69 69 69 69 69 69 69 69 69 69 69 69 69 69 69 69 69 69 69 69 69 69 69 69 69 69 69 69 69 69 69 69 69 69 69 69 69 69 69 69 69 69 69 69 69 69 69 69 69 69 69 69 69 69 69 69 69 69 69 69 69 69 69 69 69 69 69 69 69 69 69 69 69 69 69 69 69 69 69 69 69 69 69 69 69 69 69 69 69 69 69 69 69 69 69 69 69 69 69 69 69 69 69 69 69 69 69 69 69 69 69 69 69 69 69 69 69 69 69 69 69 69 69 69 69 69 69 69 69 69 69 69 69 69 69 69 69 69 69 69 69 69 69 69 69 69 69 69 69 69 69 69 69 69 69 69 69 69 69 69 69 69 69 69 69 69 69 69 69 69 69 69 69 69 69 69 69 69 69 69 69 69 69 69 69 69 69 69 69 69 69 69 69 69 69 69 69 69 69 69 69 69 69 69 69 69 69 69 69 69 69 69 69 69 69 69 69 69 69 69 69 69 69 69 69 69 69 69 69 69 69 69 69 69 69 69 69 69 69 69 69 69 69 69 69 69 69 69 69 69 69 69 69 69 69 69 69 69 69 69 69 69 69 69 69 69 69 69 69 69 69 69 69 69 69 69 69 69 69 69 69 69 69 69 69 69 69 69 69 69 69 69 69 69 69 69 69 69 69 69 69 69 69 69 69 69 69 69 69 69 69 69 69 69 69 69 69 69 69 69 69 69 69 69 69 69 69 69 69 69 69 69 69 69 69 69 69 69 69 69 69 69 69 69 69 69 69 69 69 69 69 69 69 69 69 69 69 69 69 69 69 69 69 69 69 69 69 69 69 69 69 69 69 69 69 69 69 69 69 69 69 69 69 69 69 69 69 69 69 69 69 69 69 69 69 69 69 69 69 69 69 69 69 69 69 69 69 69 69 69 69 69 69 69 69 69 69 69 69 69 69 69 69 69 69 69 69 69 69 69 69 69 69 69 69 69 69 69 69 69 69 69 69 69 69 69 69 69 69 69 69 69 69 69 69 69 69 69 69 69 69 69 69 69 69 69 69 69 69 69 69 69 69 69 69 69 69 69 69 69 69 69 69 69 69 69 69 69 69 69 69 69 69 69 69 69 69 69 69 69 69 69 69 69 69 69 69 69 69 69 69 69 69 69 69 69 69 69 69 69 69 69 69 69 69 69 69 69 69 69 69 69 69 69 69 69 69 69 69 69 69 69 69 69 69 69 69 69 69 69 69 69 69 69 69 69 69 69 69 69 69 69 69 69 69 69 69 69 69 69 69 69 69 69 69 69 69 69 69 69 69 69 69 69 69 69 69 69 69 69 69 69 69 69 69 69 69 69 69 69 69 69 69 69 69 69 69 69 69 69 69 69 69 69 69 69 69 69 69 69 69 69 69 69 69 69 69 69 69 69 69 69 69 69 69 69 69 69 69 69 69 69 69 69 69 69 69 69 69 69 69 69 69 69 69 69 69 69 69 69 69 69 69 69 69 69 69 69 69 69 69 69 69 69 69 69 69 69 69 69 69 69 69 69 69 69 69 69 69 69 69 69 69 69 69 69 69 69 69 69 69 69 69 69 69 69 69 69 69 69 69 69 69 69 69 69 69 69 69 69 69 69 69 69 69 69 69 69 69 69 69 69 69 69 69 69 69 69 69 69 69 69 69 69 69 69 69 69 69 69 69 69 69 69 69 69 69 69 69 69 69 69 69 69 69 69 69 69 69 69 69 69 69 69 69 69 69 69 69 69 69 69 69 69 69 69 69 69 69 69 69 69 69 69 69 69 69 69 69 69 69 69 69 69 69 69 69 69 69 69 69 69 69 69 69 69 69 69 69 69 69 69 69 69 69 69 69 69 69 69 69 69 69 69 69 69 69 69 69 69 69 69 69 69 69 69 69 69 69 69 69 69 69 69 69 69 69 69 69 69 69 69 69 69 69 69 69 69 69 69 69 69 69 69 69 69 69 69 69 69 69 69 69 69 69 69 69 69 69 69 69 69 69 69 69 69 69 69 69 69 69 69 69 69 69 69 69 69 69 69 69 69 69 69 69 69 69 69 69 69 69 69 69 69 69 69 69 69 69 69 69 69 69 69 69 69 69 69 69 69 69 69 69 69 69 69 69 69 69 69 69 69 69 69 69 69 69 69 69 69 69 69 69 69 69 69 69 69 69 69 69 69 69 69 69 69 69 69 69 69 69 69 69 69 69 69 69 69 69 69 69 69 69 69 69 69 69 69 69 69 69 69 69 69 69 69 69 69 69 69 69 69 69 69 69 69 69 69 69 69 69 69 69 69 69 69 69 69 69 69 69 69 69 69 69 69 69 69 69 69 69 69 69 69 69 69 69 69 69 69 69 69 69 69 69 69 69 69 69 69 69 69 69 69 69 69 69 69 69 69 69 69 69 69 69 69 69 69 69 69 69 69 69 69 69 69 69 69 69 69 69 69 69 69 69 69 69 69 69 69 69 69 69 69 69 69 69 69 69 69 69 69 69 69 69 69 69 69 69 69 69 69 69 69 69 69 69 69 69 69 69 69 69 69 69 69 69 69 69 69 69 69 69 69 69 69 69 69 69 69 69 69 69 69 69 69 69 69 69 69 69 69 69 69 69 69 69 69 69 69 69 69 69 69 69 69 69 69 69 69 69 69 69 69 69 69 69 69 69 69 69 69 69 69 69 69 69 69 69 69 69 69 69 69 69 69 69 69 69 69 69 69 69 69 69 69 69 69 69 69 69 69 69 69 69 69 69 69 69 69 69 69 69 69 69 69 69 69 69 69 69 69 69 69 69 69 69 69 69 69 69 69 69 69 69 69 69 69 69 69 69 69 69 69 69 69 69 69 69 69 69 69 69 69 69 69 69 69 69 69 69 69 69 69 69 69 69 69 69 69 69 69 69 69 69 69 69 69 69 69 69 69 69 69 69 69 69 69 69 69 69 69 69 69 69 69 69 69 69 69 69 69 69 69 69 69 69 69 69 69 69 69 69 69 69 69 69 69 69 69 69 69 69 69 69 69 69 69 69 69 69 69 69 69 69 69 69 69 69 69 69 69 69 69 69 69 69 69 69 69 69 69 69 69 69 69 69 69 69 69 69 69 69 69 69 69 69 69 69 69 69 69 69 69 69 69 69 69 69 69 69 69 69 69 69 69 69 69 69 69 69 69 69 69 69 69 69 69 69 69 69 69 69 69 69 69 69 69 69 69 69 69 69 69 69 69 69 69 69 69 69 69 69 69 69 69 69 69 69 69 69 69 69 69 69 69 69 69 69 69 69 69 69 69 69 69 69 69 69 69 69 69 69 69 69 69 69 69 69 69 69 69 69 69 69 69 69 69 69 69 69 69 69 69 69 69 69 69 69 69 69 69 69 69 69 69 69 69 69 69 69 69 69 69 69 69 69 69 69 69 69 69 69 69 69 69 69 69 69 69 69 69 69 69 69 69 69 69 69 69 69 69 69 69 69 69 69 69 69 69 69 69 69 69 69 69 69 69 69 69 69 69 69 69 69 69 69 69 69 69 69 69 69 69 69 69 69 69 69 69 69 69 69 69 69 69 69 69 69 69 69 69 69 69 69 69 69 69 69 69 69 69 69 69 69 69 69 69 69 69 69 69 69 69 69 69 69 69 69 69 69 69 69 69 69 69 69 69 69 69 69 69 69 69 69 69 69 69 69 69 69 69 69 69 69 69 69 69 69 69 69 69 69 69 69 69 69 69 69 69 69 69 69 69 69 69 69 69 69 69 69 69 69 69 69 69 69 69 69 69 69 69 69 69 69 69 69 69 69 69 69 69 69 69 69 69 69 69 69 69 69 69 69 69 69 69 69 69 69 69 69 69 69 69 69 69 69 69 69 69 69 69 69 69 69 69 69 69 69 69 69 69 69 69 69 69 69 69 69 69 69 69 69 69 69 69 69 69 69 69 69 69 69 69 69 69 69 69 69 69 69 69 69 69 69 69 69 69 69 69 69 69 69 69 69 69 69 69 69 69 69 69 69 69 69 69 69 69 69 69 69 69 69 69 69 69 69 69 69 69 69 69 69 69 69 69 69 69 69 69 69 69 69 69 69 69 69 69 69 69 69 69 69 69 69 69 69 69 69 69 69 69 69 69 69 69 69 69 69 69 69 69 69 69 69 69 69 69 69 69 69 69 69 69 69 69 69 69 69 69 69 69 69 69 69 69 69 69 69 69 69 69 69 69 69 69 69 69 69 69 69 69 69 69 69 69 69 69 69 69 69 69 69 69 69 69 69 69 69 69 69 69 69 69 69 69 69 69 69 69 69 69 69 69 69 69 69 69 69 69 69 69 69 69 69 69 69 69 69 69 69 69 69 69 69 69 69 69 69 69 69 69 69 69 69 69 69 69 69 69 69 69 69 69 69 69 69 69 69 69 69 69 69 69 69 69 69 69 69 69 69 69 69 69 69 69 69 69 69 69 69 69 69 69 69 69 69 69 69 69 69 69 69 69 69 69 69 69 69 69 69 69 69 69 69 69 69 69 69 69 69 69 69 69 69 69 69 69 69 69 69 69 69 69 69 69 69 69 69 69 69 69 69 69 69 69 69 69 69 69 69 69 69 69 69 69 69 69 69 69 69 69 69 69 69 69 69 69 69 69 69 69 69 69 69 69 69 69 69 69 69 69 69 69 69 69 69 69 69 69 69 69 69 69 69 69 69 69 69 69 69 69 69 69 69 69 69 69 69 69 69 69 69 69 69 69 69 69 69 69 69 69 69 69 69 69 69 69 69 69 69 69 69 69 69 69 69 69 69 69 69 69 69 69 69 69 69 69 69 69 69 69 69 69 69 69 69 69 69 69 69 69 69 69 69 69 69 69 69 69 69 69 69 69 69 69 69 69 69 69 69 69 69 69 69 69 69 69 69 69 69 69 69 69 69 69 69 69 69 69 69 69 69 69 69 69 69 69 69 69 69 69 69 69 69 69 69 69 69 69 69 69 69 69 69 69 69 69 69 69 69 69 69 69 69 69 69 69 69 69 69 69 69 69 69 69 69 69 69 69 69 69 69 69 69 69 69 69 69 69 69 69 69 69 69 69 69 69 69 69 69 69 69 69 69 69 69 69 69 69 69 69 69 69 69 69 69 69 69 69 69 69 69 69 69 69 69 69 69 69 69 69 69 69 69 69 69 69 69 69 69 69 69 69 69 69 69 69 69 69 69 69 69 69 69 69 69 69 69 69 69 69 69 69 69 69 69 69 69 69 69 69 69 69 69 69 69 69 69 69 69 69 69 69 69 69 69 69 69 69 69 69 69 69 69 69 69 69 69 69 69 69 69 69 69 69 69 69 69 69 69 69 69 69 69 69 69 69 69 69 69 69 69 69 69 69 69 69 69 69 69 69 69 69 69 69 69 69 69 69 69 69 69 69 69 69 69 69 69 69 69 69 69 69 69 69 69 69 69 69 69 69 69 69 69 69 69 69 69 69 69 69 69 69 69 69 69 69 69 69 69 69 69 69 69 69 69 69 69 69 69 69 69 69 69 69 69 69 69 69 69 69 69 69 69 69 69 69 69 69 69 69 69 69 69 69 69 69 69 69 69 69 69 69 69 69 69 69 69 69 69 69 69 69 69 69 69 69 69 69 69 69 69 69 69 69 69 69 69 69 69 69 69 69 69 69 69 69 69 69 69 69 69 69 69 69 69 69 69 69 69 69 69 69 69 69 69 69 69 69 69 69 69 69 69 69 69 69 69 69 69 69 69 69 69 69 69 69 69 69 69 69 69 69 69 69 69 69 69 69 69 69 69 69 69 69 69 69 69 69 69 69 69 69 69 69 69 69 69 69 69 69 69 69 69 69 69 69 69 69 69 69 69 69 69 69 69 69 69 69 69 69 69 69 69 69 69 69 69 69 69 69 69 69 69 69 69 69 69 69 69 69 69 69 69 69 69 69 69 69 69 69 69 69 69 69 69 69 69 69 69 69 69 69 69 69 69 69 69 69 69 69 69 69 69 69 69 69 69 69 69 69 69 69 69 69 69 69 69 69 69 69 69 69 69 69 69 69 69 69 69 69 69 69 69 69 69 69 69 69 69 69 69 69 69 69 69 69 69 69 69 69 69 69 69 69 69 69 69 69 69 69 69 69 69 69 69 69 69 69 69 69 69 69 69 69 69 69 69 69 69 69 69 69 69 69 69 69 69 69 69 69 69 69 69 69 69 69 69 69 69 69 69 69 69 69 69 69 69 69 69 69 69 69 69 69 69 69 69 69 69 69 69 69 69 69 69 69 69 69 69 69 69 69 69 69 69 69 69 69 69 69 69 69 69 69 69 69 69 69 69 69 69 69 69 69 69 69 69 69 69 69 69 69 69 69 69 69 69 69 69 69 69 69 69 69 69 69 69 69 69 69 69 69 69 69 69 69 69 69 69 69 69 69 69 69 69 69 69 69 69 69 69 69 69 69 69 69 69 69 69 69 69 69 69 69 69 69 69 69 69 69 69 69 69 69 69 69 69 69 69 69 69 69 69 69 69 69 69 69 69 69 69 69 69 69 69 69 69 69 69 69 69 69 69 69 69 69 69 69 69 69 69 69 69 69 69 69 69 69 69 69 69 69 69 69 69 69 69 69 69 69 69 69 69 69 69 69 69 69 69 69 69 69 69 69 69 69 69 69 69 69 69 69 69 69 69 69 69 69 69 69 69 69 69 69 69 69 69 69 69 69 69 69 69 69 69 69 69 69 69 69 69 69 69 69 69 69 69 69 69 69 69 69 69 69 69 69 69 69 69 69 69 69 69 69 69 69 69 69 69 69 69 69 69 69 69 69 69 69 69 69 69 69 69 69 69 69 69 69 69 69 69 69 69 69 69 69 69 69 69 69 69 69 69 69 69 69 69 69 69 69 69 69 69 69 69 69 69 69 69 69 69 69 69 69 69 69 69 69 69 69 69 69 69 69 69 69 69 69 69 69 69 69 69 69 69 69 69 69 69 69 69 69 69 69 69 69 69 69 69 69 69 69 69 69 69 69 69 69 69 69 69 69 69 69 69 69 69 69 69 69 69 69 69 69 69 69 69 69 69 69 69 69 69 69 69 69 69 69 69 69 69 69 69 69 69 69 69 69 69 69 69 69 69 69 69 69 69 69 69 69 69 69 69 69 69 69 69 69 69 69 69 69 69 69 69 69 69 69 69 69 69 69 69 69 69 69 69 69 69 69 69 69 69 69 69 69 69 69 69 69 69 69 69 69 69 69 69 69 69 69 69 69 69 69 69 69 69 69 69 69 69 69 69 69 69 69 69 69 69 69 69 69 69 69 69 69 69 69 69 69 69 69 69 69 69 69 69 69 69 69 69 69 69 69 69 69 69 69 69 69 69 69 69 69 69 69 69 69 69 69 69 69 69 69 69 69 69 69 69 69 69 69 69 69 69 69 69 69 69 69 69 69 69 69 69 69 69 69 69 69 69 69 69 69 69 69 69 69 69 69 69 69 69 69 69 69 69 69 69 69 69 69 69 69 69 69 69 69 69 69 69 69 69 69 69 69 69 69 69 69 69 69 69 69 69 69 69 69 69 69 69 69 69 69 69 69 69 69 69 69 69 69 69 69 69 69 69 69 69 69 69 69 69 69 69 69 69 69 69 69 69 69 69 69 69 69 69 69 69 69 69 69 69 69 69 69 69 69 69 69 69 69 69 69 69 69 69 69 69 69 69 69 69 69 69 69 69 69 69 69 69 69 69 69 69 69 69 69 69 69 69 69 69 69 69 69 69 69 69 69 69 69 69 69 69 69 69 69 69 69 69 69 69 69 69 69 69 69 69 69 69 69 69 69 69 69 69 69 69 69 69 69 69 69 69 69 69 69 69 69 69 69 69 69 69 69 69 69 69 69 69 69 69 69 69 69 69 69 69 69 69 69 69 69 69 69 69 69 69 69 69 69 69 69 69 69 69 69 69 69 69 69 69 69 69 69 69 69 69 69 69 69 69 69 69 69 69 69 69 69 69 69 69 69 69 69 69 69 69 69 69 69 69 69 69 69 69 69 69 69 69 69 69 69 69 69 69 69 69 69 69 69 69 69 69 69 69 69 69 69 69 69 69 69 69 69 69 69 69 69 69 69 69 69 69 69 69 69 69 69 69 69 69 69 69 69 69 69 69 69 69 69 69 69 69 69 69 69 69 69 69 69 69 69 69 69 69 69 69 69 69 69 69 69 69 69 69 69 69 69 69 69 69 69 69 69 69 69 69 69 69 69 69 69 69 69 69 69 69 69 69 69 69 69 69 69 69 69 69 69 69 69 69 69 69 69 69 69 69 69 69 69 69 69 69 69 69 69 69 69 69 69 69 69 69 69 69 69 69 69 69 69 69 69 69 69 69 69 69 69 69 69 69 69 69 69 69 69 69 69 69 69 69 69 69 69 69 69 69 69 69 69 69 69 69 69 69 69 69 69 69 69 69 69 69 69 69 69 69 69 69 69 69 69 69 69 69 69 69 69 69 69 69 69 69 69 69 69 69 69 69 69 69 69 69 69 69 69 69 69 69 69 69 69 69 69 69 69 69 69 69 69 69 69 69 69 69 69 69 69 69 69 69 69 69 69 69 69 69 69 69 69 69 69 69 69 69 69 69 69 69 69 69 69 69 69 69 69 69 69 69 69 69 69 69 69 69 69 69 69 69 69 69 69 69 69 69 69 69 69 69 69 69 69 69 69 69 69 69 69 69 69 69 69 69 69 69 69 69 69 69 69 69 69 69 69 69 69 69 69 69 69 69 69 69 69 69 69 69 69 69 69 69 69 69 69 69 69 69 69 69 69 69 69 69 69 69 69 69 69 69 69 69 69 69 69 69 69 69 69 69 69 69 69 69 69 69 69 69 69 69 69 69 69 69 69 69 69 69 69 69 69 69 69 69 69 69 69 69 69 69 69 69 69 69 69 69 69 69 69 69 69 69 69 69 69 69 69 69 69 69 69 69 69 69 69 69 69 69 69 69 69 69 69 69 69 69 69 69 69 69 69 69 69 69 69 69 69 69 69 69 69 69 69 69 69 69 69 69 69 69 69 69 69 69 69 69 69 69 69 69 69 69 69 69 69 69 69 69 69 69 69 69 69 69 69 69 69 69 69 69 69 69 69 69 69 69 69 69 69 69 69 69 69 69 69 69 69 69 69 69 69 69 69 69 69 69 69 69 69 69 69 69 69 69 69 69 69 69 69 69 69 69 69 69 69 69 69 69 69 69 69 69 69 69 69 69 69 69 69 69 69 69 69 69 69 69 69 69 69 69 69 69 69 69 69 69 69 69 69 69 69 69 69 69 69 69 69 69 69 69 69 69 69 69 69 69 69 69 69 69 69 69 69 69 69 69 69 69 69 69 69 69 69 69 69 69 69 69 69 69 69 69 69 69 69 69 69 69 69 69 69 69 69 69 69 69 69 69 69 69 69 69 69 69 69 69 69 69 69 69 69 69 69 69 69 69 69 69 69 69 69 69 69 69 69 69 69 69 69 69 69 69 69 69 69 69 69 69 69 69 69 69 69 69 69 69 69 69 69 69 69 69 69 69 69 69 69 69 69 69 69 69 69 69 69 69 69 69 69 69 69 69 69 69 69 69 69 69 69 69 69 69 69 69 69 69 69 69 69 69 69 69 69 69 69 69 69 69 69 69 69 69 69 69 69 69 69 69 69 69 69 69 69 69 69 69 69 69 69 69 69 69 69 69 69 69 69 69 69 69 69 69 69 69 69 69 69 69 69 69 69 69 69 69 69 69 69 69 69 69 69 69 69 69 69 69 69 69 69 69 69 69 69 69 69 69 69 69 69 69 69 69 69 69 69 69 69 69 69 69 69 69 69 69 69 69 69 69 69 69 69 69 69 69 69 69 69 69 69 69 69 69 69 69 69 69 69 69 69 69 69 69 69 69 69 69 69 69 69 69 69 69 69 69 69 69 69 69 69 69 69 69 69 69 69 69 69 69 69 69 69 69 69 69 69 69 69 69 69 69 69 69 69 69 69 69 69 69 69 69 69 69 69 69 69 69 69 69 69 69 69 69 69 69 69 69 69 69 69 69 69 69 69 69 69 69 69 69 69 69 69 69 69 69 69 69 69 69 69 69 69 69 69 69 69 69 69 69 69 69 69 69 69 69 69 69 69 69 69 69 69 69 69 69 69 69 69 69 69 69 69 69 69 69 69 69 69 69 69 69 69 69 69 69 69 69 69 69 69 69 69 69 69 69 69 69 69 69 69 69 69 69 69 69 69 69 69 69 69 69 69 69 69 69 69 69 69 69 69 69 69 69 69 69 69 69 69 69 69 69 69 69 69 69 69 69 69 69 69 69 69 69 69 69 69 69 69 69 69 69 69 69 69 69 69 69 69 69 69 69 69 69 69 69 69 69 69 69 69 69 69 69 69 69 69 69 69 69 69 69 69 69 69 69 69 69 69 69 69 69 69 69 69 69 69 69 69 69 69 69 69 69 69 69 69 69 69 69 69 69 69 69 69 69 69 69 69 69 69 69 69 69 69 69 69 69 69 69 69 69 69 69 69 69 69 69 69 69 69 69 69 69 69 69 69 69 69 69 69 69 69 69 69 69 69 69 69 69 69 69 69 69 69 69 69 69 69 69 69 69 69 69 69 69 69 69 69 69 69 69 69 69 69 69 69 69 69 69 69 69 69 69 69 69 69 69 69 69 69 69 69 69 69 69 69 69 69 69 69 69 69 69 69 69 69 69 69 69 69 69 69 69 69 69 69 69 69 69 69 69 69 69 69 69 69 69 69 69 69 69 69 69 69 69 69 69 69 69 69 69 69 69 69 69 69 69 69 69 69 69 69 69 69 69 69 69 69 69 69 69 69 69 69 69 69 69 69 69 69 69 69 69 69 69 69 69 69 69 69 69 69 69 69 69 69 69 69 69 69 69 69 69 69 69 69 69 69 69 69 69 69 69 69 69 69 69 69 69 69 69 69 69 69 69 69 69 69 69 69 69 69 69 69 69 69 69 69 69 69 69 69 69 69 69 69 69 69 69 69 69 69 69 69 69 69 69 69 69 69 69 69 69 69 69 69 69 69 69 69 69 69 69 69 69 69 69 69 69 69 69 69 69 69 69 69 69 69 69 69 69 69 69 69 69 69 69 69 69 69 69 69 69 69 69 69 69 69 69 69 69 69 69 69 69 69 69 69 69 69 69 69 69 69 69 69 69 69 69 69 69 69 69 69 69 69 69 69 69 69 69 69 69 69 69 69 69 69 69 69 69 69 69 69 69 69 69 69 69 69 69 69 69 69 69 69 69 69 69 69 69 69 69 69 69 69 69 69 69 69 69 69 69 69 69 69 69 69 69 69 69 69 69 69 69 69 69 69 69 69 69 69 69 69 69 69 69 69 69 69 69 69 69 69 69 69 69 69 69 69 69 69 69 69 69 69 69 69 69 69 69 69 69 69 69 69 69 69 69 69 69 69 69 69 69 69 69 69 69 69 69 69 69 69 69 69 69 69 69 69 69 69 69 69 69 69 69 69 69 69 69 69 69 69 69 69 69 69 69 69 69 69 69 69 69 69 69 69 69 69 69 69 69 69 69 69 69 69 69 69 69 69 69 69 69 69 69 69 69 69 69 69 69 69 69 69 69 69 69 69 69 69 69 69 69 69 69 69 69 69 69 69 69 69 69 69 69 69 69 69 69 69 69 69 69 69 69 69 69 69 69 69 69 69 69 69 69 69 69 69 69 69 69 69 69 69 69 69 69 69 69 69 69 69 69 69 69 69 69 69 69 69 69 69 69 69 69 69 69 69 69 69 69 69 69 69 69 69 69 69 69 69 69 69 69 69 69 69 69 69 69 69 69 69 69 69 69 69 69 69 69 69 69 69 69 69 69 69 69 69 69 69 69 69 69 69 69 69 69 69 69 69 69 69 69 69 69 69 69 69 69 69 69 69 69 69 69 69 69 69 69 69 69 69 69 69 69 69 69 69 69 69 69 69 69 69 69 69 69 69 69 69 69 69 69 69 69 69 69 69 69 69 69 69 69 69 69 69 69 69 69 69 69 69 69 69 69 69 69 69 69 69 69 69 69 69 69 69 69 69 69 69 69 69 69 69 69 69 69 69 69 69 69 69 69 69 69 69 69 69 69 69 69 69 69 69 69 69 69 69 69 69 69 69 69 69 69 69 69 69 69 69 69 69 69 69 69 69 69 69 69 69 69 69 69 69 69 69 69 69 69 69 69 69 69 69 69 69 69 69 69 69 69 69 69 69 69 69 69 69 69 69 69 69 69 69 69 69 69 69 69 69 69 69 69 69 69 69 69 69 69 69 69 69 69 69 69 69 69 69 69 69 69 69 69 69 69 69 69 69 69 69 69 69 69 69 69 69 69 69 69 69 69 69 69 69 69 69 69 69 69 69 69 69 69 69 69 69 69 69 69 69 69 69 69 69 69 69 69 69 69 69 69 69 69 69 69 69 69 69 69 69 69 69 69 69 69 69 69 69 69 69 69 69 69 69 69 69 69 69 69 69 69 69 69 69 69 69 69 69 69 69 69 69 69 69 69 69 69 69 69 69 69 69 69 69 69 69 69 69 69 69 69 69 69 69 69 69 69 69 69 69 69 69 69 69 69 69 69 69 69 69 69 69 69 69 69 69 69 69 69 69 69 69 69 69 69 69 69 69 69 69 69 69 69 69 69 69 69 69 69 69 69 69 69 69 69 69 69 69 69 69 69 69 69 69 69 69 69 69 69 69 69 69 69 69 69 69 69 69 69 69 69 69 69 69 69 69 69 69 69 69 69 69 69 69 69 69 69 69 69 69 69 69 69 69 69 69 69 69 69 69 69 69 69 69 69 69 69 69 69 69 69 69 69 69 69 69 69 69 69 69 69 69 69 69 69 69 69 69 69 69 69 69 69 69 69 69 69 69 69 69 69 69 69 69 69 69 69 69 69 69 69 69 69 69 69 69 69 69 69 69 69 69 69 69 69 69 69 69 69 69 69 69 69 69 69 69 69 69 69 69 69 69 69 69 69 69 69 69 69 69 69 69 69 69 69 69 69 69 69 69 69 69 69 69 69 69 69 69 69 69 69 69 69 69 69 69 69 69 69 69 69 69 69 69 69 69 69 69 69 69 69 69 69 69 69 69 69 69 69 69 69 69 69 69 69 69 69 69 69 69 69 69 69 69 69 69 69 69 69 69 69 69 69 69 69 69 69 69 69 69 69 69 69 69 69 69 69 69 69 69 69 69 69 69 69 69 69 69 69 69 69 69 69 69 69 69 69 69 69 69 69 69 69 69 69 69 69 69 69 69 69 69 69 69 69 69 69 69 69 69 69 69 69 69 69 69 69 69 69 69 69 69 69 69 69 69 69 69 69 69 69 69 69 69 69 69 69 69 69 69 69 69 69 69 69 69 69 69 69 69 69 69 69 69 69 69 69 69 69 69 69 69 69 69 69 69 69 69 69 69 69 69 69 69 69 69 69 69 69 69 69 69 69 69 69 69 69 69 69 69 69 69 69 69 69 69 69 69 69 69 69 69 69 69 69 69 69 69 69 69 69 69 69 69 69 69 69 69 69 69 69 69 69 69 69 69 69 69 69 69 69 69 69 69 69 69 69 69 69 69 69 69 69 69 69 69 69 69 69 69 69 69 69 69 69 69 69 69 69 69 69 69 69 69 69 69 69 69 69 69 69 69 69 69 69 69 69 69 69 69 69 69 69 69 69 69 69 69 69 69 69 69 69 69 69 69 69 69 69 69 69 69 69 69 69 69 69 69 69 69 69 69 69 69 69 69 69 69 69 69 69 69 69 69 69 69 69 69 69 69 69 69 69 69 69 69 69 69 69 69 69 69 69 69 69 69 69 69 69 69 69 69 69 69 69 69 69 69 69 69 69 69 69 69 69 69 69 69 69 69 69 69 69 69 69 69 69 69 69 69 69 69 69 69 69 69 69 69 69 69 69 69 69 69 69 69 69 69 69 69 69 69 69 69 69 69 69 69 69 69 69 69 69 69 69 69 69 69 69 69 69 69 69 69 69 69 69 69 69 69 69 69 69 69 69 69 69 69 69 69 69 69 69 69 69 69 69 69 69 69 69 69 69 69 69 69 69 69 69 69 69 69 69 69 69 69 69 69 69 69 69 69 69 69 69 69 69 69 69 69 69 69 69 69 69 69 69 69 69 69 69 69 69 69 69 69 69 69 69 69 69 69 69 69 69 69 69 69 69 69 69 69 69 69 69 69 69 69 69 69 69 69 69 69 69 69 69 69 69 69 69 69 69 69 69 69 69 69 69 69 69 69 69 69 69 69 69 69 69 69 69 69 69 69 69 69 69 69 69 69 69 69 69 69 69 69 69 69 69 69 69 69 69 69 69 69 69 69 69 69 69 69 69 69 69 69 69 69 69 69 69 69 69 69 69 69 69 69 69 69 69 69 69 69 69 69 69 69 69 69 69 69 69 69 69 69 69 69 69 69 69 69 69 69 69 69 69 69 69 69 69 69 69 69 69 69 69 69 69 69 69 69 69 69 69 69 69 69 69 69 69 69 69 69 69 69 69 69 69 69 69 69 69 69 69 69 69 69 69 69 69 69 69 69 69 69 69 69 69 69 69 69 69 69 69 69 69 69 69 69 69 69 69 69 69 69 69 69 69 69 69 69 69 69 69 69 69 69 69 69 69 69 69 69 69 69 69 69 69 69 69 69 69 69 69 69 69 69 69 69 69 69 69 69 69 69 69 69 69 69 69 69 69 69 69 69 69 69 69 69 69 69 69 69 69 69 69 69 69 69 69 69 69 69 69 69 69 69 69 69 69 69 69 69 69 69 69 69 69 69 69 69 69 69 69 69 69 69 69 69 69 69 69 69 69 69 69 69 69 69 69 69 69 69 69 69 69 69 69 69 69 69 69 69 69 69 69 69 69 69 69 69 69 69 69 69 69 69 69 69 69 69 69 69 69 69 69 69 69 69 69 69 69 69 69 69 69 69 69 69 69 69 69 69 69 69 69 69 69 69 69 69 69 69 69 69 69 69 69 69 69 69 69 69 69 69 69 69 69 69 69 69 69 69 69 69 69 69 69 69 69 69 69 69 69 69 69 69 69 69 69 69 69 69 69 69 69 69 69 69 69 69 69 69 69 69 69 69 69 69 69 69 69 69 69 69 69 69 69 69 69 69 69 69 69 69 69 69 69 69 69 69 69 69 69 69 69 69 69 69 69 69 69 69 69 69 69 69 69 69 69 69 69 69 69 69 69 69 69 69 69 69 69 69 69 69 69 69 69 69 69 69 69 69 69 69 69 69 69 69 69 69 69 69 69 69 69 69 69 69 69 69 69 69 69 69 69 69 69 69 69 69 69 69 69 69 69 69 69 69 69 69 69 69 69 69 69 69 69 69 69 69 69 69 69 69 69 69 69 69 69 69 69 69 69 69 69 69 69 69 69 69 69 69 69 69 69 69 69 69 69 69 69 69 69 69 69 69 69 69 69 69 69 69 69 69 69 69 69 69 69 69 69 69 69 69 69 69 69 69 69 69 69 69 69 69 69 69 69 69 69 69 69 69 69 69 69 69 69 69 69 69 69 69 69 69 69 69 69 69 69 69 69 69 69 69 69 69 69 69 69 69 69 69 69 69 69 69 69 69 69 69 69 69 69 69 69 69 69 69 69 69 69 69 69 69 69 69 69 69 69 69 69 69 69 69 69 69 69 69 69 69 69 69 69 69 69 69 69 69 69 69 69 69 69 69 69 69 69 69 69 69 69 69 69 69 69 69 69 69 69 69 69 69 69 69 69 69 69 69 69 69 69 69 69 69 69 69 69 69 69 69 69 69 69 69 69 69 69 69 69 69 69 69 69 69 69 69 69 69 69 69 69 69 69 69 69 69 69 69 69 69 69 69 69 69 69 69 69 69 69 69 69 69 69 69 69 69 69 69 69 69 69 69 69 69 69 69 69 69 69 69 69 69 69 69 69 69 69 69 69 69 69 69 69 69 69 69 69 69 69 69 69 69 69 69 69 69 69 69 69 69 69 69 69 69 69 69 69 69 69 69 69 69 69 69 69 69 69 69 69 69 69 69 69 69 69 69 69 69 69 69 69 69 69 69 69 69 69 69 69 69 69 69 69 69 69 69 69 69 69 69 69 69 69 69 69 69 69 69 69 69 69 69 69 69 69 69 69 69 69 69 69 69 69 69 69 69 69 69 69 69 69 69 69 69 69 69 69 69 69 69 69 69 69 69 69 69 69 69 69 69 69 69 69 69 69 69 69 69 69 69 69 69 69 69 69 69 69 69 69 69 69 69 69 69 69 69 69 69 69 69 69 69 69 69 69 69 69 69 69 69 69 69 69 69 69 69 69 69 69 69 69 69 69 69 69 </DataArray>
      </Cells>
      <CellData>
        <DataArray type="UInt8" Name="vtkGhostType" format="ascii" RangeMin="0" RangeMax="1">0 0 0 0 0 0 0 0 0 0 0 0 0 0 0 0 0 0 0 0 0 0 0 0 0 0 0 0 0 0 0 0 0 0 0 0 0 0 0 0 0 0 0 0 0 0 0 0 0 0 0 0 0 0 0 0 0 0 0 0 0 0 0 0 0 0 0 0 0 0 0 0 0 0 0 0 0 0 0 0 0 0 0 0 0 0 0 0 0 0 0 0 0 0 0 0 0 0 0 0 0 0 0 0 0 0 0 0 0 0 0 0 0 0 0 0 0 0 0 0 0 0 0 0 0 0 0 0 0 0 0 0 0 0 0 0 0 0 0 0 0 0 0 0 0 0 0 0 0 0 0 0 0 0 0 0 0 0 0 0 0 0 0 0 0 0 0 0 0 0 0 0 0 0 0 0 0 0 0 0 0 0 0 0 0 0 0 0 0 0 0 0 0 0 0 0 0 0 0 0 0 0 0 0 0 0 0 0 0 0 0 0 0 0 0 0 0 0 0 0 0 0 0 0 0 0 0 0 0 0 0 0 0 0 0 0 0 0 0 0 0 0 0 0 0 0 0 0 0 0 0 0 0 0 0 0 0 0 0 0 0 0 0 0 0 0 0 0 0 0 0 0 0 0 0 0 0 0 0 0 0 0 0 0 0 0 0 0 0 0 0 0 0 0 0 0 0 0 0 0 0 0 0 0 0 0 0 0 0 0 0 0 0 0 0 0 0 0 0 0 0 0 0 0 0 0 0 0 0 0 0 0 0 0 0 0 0 0 0 0 0 0 0 0 0 0 0 0 0 0 0 0 0 0 0 0 0 0 0 0 0 0 0 0 0 0 0 0 0 0 0 0 0 0 0 0 0 0 0 0 0 0 0 0 0 0 0 0 0 0 0 0 0 0 0 0 0 0 0 0 0 0 0 0 0 0 0 0 0 0 0 0 0 0 0 0 0 0 0 0 0 0 0 0 0 0 0 0 0 0 0 0 0 0 0 0 0 0 0 0 0 0 0 0 0 0 0 0 0 0 0 0 0 0 0 0 0 0 0 0 0 0 0 0 0 0 0 0 0 0 0 0 0 0 0 0 0 0 0 0 0 0 0 0 0 0 0 0 0 0 0 0 0 0 0 0 0 0 0 0 0 0 0 0 0 0 0 0 0 0 0 0 0 0 0 0 0 0 0 0 0 0 0 0 0 0 0 0 0 0 0 0 0 0 0 0 0 0 0 0 0 0 0 0 0 0 0 0 0 0 0 0 0 0 0 0 0 0 0 0 0 0 0 0 0 0 0 0 0 0 0 0 0 0 0 0 0 0 0 0 0 0 0 0 0 0 0 0 0 0 0 0 0 0 0 0 0 0 0 0 0 0 0 0 0 0 0 0 0 0 0 0 0 0 0 0 0 0 0 0 0 0 0 0 0 0 0 0 0 0 0 0 0 0 0 0 0 0 0 0 0 0 0 0 0 0 0 0 0 0 0 0 0 0 0 0 0 0 0 0 0 0 0 0 0 0 0 0 0 0 0 0 0 0 0 0 0 0 0 0 0 0 0 0 0 0 0 0 0 0 0 0 0 0 0 0 0 0 0 0 0 0 0 0 0 0 0 0 0 0 0 0 0 0 0 0 0 0 0 0 0 0 0 0 0 0 0 0 0 0 0 0 0 0 0 0 0 0 0 0 0 0 0 0 0 0 0 0 0 0 0 0 0 0 0 0 0 0 0 0 0 0 0 0 0 0 0 0 0 0 0 0 0 0 0 0 0 0 0 0 0 0 0 0 0 0 0 0 0 0 0 0 0 0 0 0 0 0 0 0 0 0 0 0 0 0 0 0 0 0 0 0 0 0 0 0 0 0 0 0 0 0 0 0 0 0 0 0 0 0 0 0 0 0 0 0 0 0 0 0 0 0 0 0 0 0 0 0 0 0 0 0 0 0 0 0 0 0 0 0 0 0 0 0 0 0 0 0 0 0 0 0 0 0 0 0 0 0 0 0 0 0 0 0 0 0 0 0 0 0 0 0 0 0 0 0 0 0 0 0 0 0 0 0 0 0 0 0 0 0 0 0 0 0 0 0 0 0 0 0 0 0 0 0 0 0 0 0 0 0 0 0 0 0 0 0 0 0 0 0 0 0 0 0 0 0 0 0 0 0 0 0 0 0 0 0 0 0 0 0 0 0 0 0 0 0 0 0 0 0 0 0 0 0 0 0 0 0 0 0 0 0 0 0 0 0 0 0 0 0 0 0 0 0 0 0 0 0 0 0 0 0 0 0 0 0 0 0 0 0 0 0 0 0 0 0 0 0 0 0 0 0 0 0 0 0 0 0 0 0 0 0 0 0 0 0 0 0 0 0 0 0 0 0 0 0 0 0 0 0 0 0 0 0 0 0 0 0 0 0 0 0 0 0 0 0 0 0 0 0 0 0 0 0 0 0 0 0 0 0 0 0 0 0 0 0 0 0 0 0 0 0 0 0 0 0 0 0 0 0 0 0 0 0 0 0 0 0 0 0 0 0 0 0 0 0 0 0 0 0 0 0 0 0 0 0 0 0 0 0 0 0 0 0 0 0 0 0 0 0 0 0 0 0 0 0 0 0 0 0 0 0 0 0 0 0 0 0 0 0 0 0 0 0 0 0 0 0 0 0 0 0 0 0 0 0 0 0 0 0 0 0 0 0 0 0 0 0 0 0 0 0 0 0 0 0 0 0 0 0 0 0 0 0 0 0 0 0 0 0 0 0 0 0 0 0 0 0 0 0 0 0 0 0 0 0 0 0 0 0 0 0 0 0 0 0 0 0 0 0 0 0 0 0 0 0 0 0 0 0 0 0 0 0 0 0 0 0 0 0 0 0 0 0 0 0 0 0 0 0 0 0 0 0 0 0 0 0 0 0 0 0 0 0 0 0 0 0 0 0 0 0 0 0 0 0 0 0 0 0 0 0 0 0 0 0 0 0 0 0 0 0 0 0 0 0 0 0 0 0 0 0 0 0 0 0 0 0 0 0 0 0 0 0 0 0 0 0 0 0 0 0 0 0 0 0 0 0 0 0 0 0 0 0 0 0 0 0 0 0 0 0 0 0 0 0 0 0 0 0 0 0 0 0 0 0 0 0 0 0 0 0 0 0 0 0 0 0 0 0 0 0 0 0 0 0 0 0 0 0 0 0 0 0 0 0 0 0 0 0 0 0 0 0 0 0 0 0 0 0 0 0 0 0 0 0 0 0 0 0 0 0 0 0 0 0 0 0 0 0 0 0 0 0 0 0 0 0 0 0 0 0 0 0 0 0 0 0 0 0 0 0 0 0 0 0 0 0 0 0 0 0 0 0 0 0 0 0 0 0 0 0 0 0 0 0 0 0 0 0 0 0 0 0 0 0 0 0 0 0 0 0 0 0 0 0 0 0 0 0 0 0 0 0 0 0 0 0 0 0 0 0 0 0 0 0 0 0 0 0 0 0 0 0 0 0 0 0 0 0 0 0 0 0 0 0 0 0 0 0 0 0 0 0 0 0 0 0 0 0 0 0 0 0 0 0 0 0 0 0 0 0 0 0 0 0 0 0 0 0 0 0 0 0 0 0 0 0 0 0 0 0 0 0 0 0 0 0 0 0 0 0 0 0 0 0 0 0 0 0 0 0 0 0 0 0 0 0 0 0 0 0 0 0 0 0 0 0 0 0 0 0 0 0 0 0 0 0 0 0 0 0 0 0 0 0 0 0 0 0 0 0 0 0 0 0 0 0 0 0 0 0 0 0 0 0 0 0 0 0 0 0 0 0 0 0 0 0 0 0 0 0 0 0 0 0 0 0 0 0 0 0 0 0 0 0 0 0 0 0 0 0 0 0 0 0 0 0 0 0 0 0 0 0 0 0 0 0 0 0 0 0 0 0 0 0 0 0 0 0 0 0 0 0 0 0 0 0 0 0 0 0 0 0 0 0 0 0 0 0 0 0 0 0 0 0 0 0 0 0 0 0 0 0 0 0 0 0 0 0 0 0 0 0 0 0 0 0 0 0 0 0 0 0 0 0 0 0 0 0 0 0 0 0 0 0 0 0 0 0 0 0 0 0 0 0 0 0 0 0 0 0 0 0 0 0 0 0 0 0 0 0 0 0 0 0 0 0 0 0 0 0 0 0 0 0 0 0 0 0 0 0 0 0 0 0 0 0 0 0 0 0 0 0 0 0 0 0 0 0 0 0 0 0 0 0 0 0 0 0 0 0 0 0 0 0 0 0 0 0 0 0 0 0 0 0 0 0 0 0 0 0 0 0 0 0 0 0 0 0 0 0 0 0 0 0 0 0 0 0 0 0 0 0 0 0 0 0 0 0 0 0 0 0 0 0 0 0 0 0 0 0 0 0 0 0 0 0 0 0 0 0 0 0 0 0 0 0 0 0 0 0 0 0 0 0 0 0 0 0 0 0 0 0 0 0 0 0 0 0 0 0 0 0 0 0 0 0 0 0 0 0 0 0 0 0 0 0 0 0 0 0 0 0 0 0 0 0 0 0 0 0 0 0 0 0 0 0 0 0 0 0 0 0 0 0 0 0 0 0 0 0 0 0 0 0 0 0 0 0 0 0 0 0 0 0 0 0 0 0 0 0 0 0 0 0 0 0 0 0 0 0 0 0 0 0 0 0 0 0 0 0 0 0 0 0 0 0 0 0 0 0 0 0 0 0 0 0 0 0 0 0 0 0 0 0 0 0 0 0 0 0 0 0 0 0 0 0 0 0 0 0 0 0 0 0 0 0 0 0 0 0 0 0 0 0 0 0 0 0 0 0 0 0 0 0 0 0 0 0 0 0 0 0 0 0 0 0 0 0 0 0 0 0 0 0 0 0 0 0 0 0 0 0 0 0 0 0 0 0 0 0 0 0 0 0 0 0 0 0 0 0 0 0 0 0 0 0 0 0 0 0 0 0 0 0 0 0 0 0 0 0 0 0 0 0 0 0 0 0 0 0 0 0 0 0 0 0 0 0 0 0 0 0 0 0 0 0 0 0 0 0 0 0 0 0 0 0 0 0 0 0 0 0 0 0 0 0 0 0 0 0 0 0 0 0 0 0 0 0 0 0 0 0 0 0 0 0 0 0 0 0 0 0 0 0 0 0 0 0 0 0 0 0 0 0 0 0 0 0 0 0 0 0 0 0 0 0 0 0 0 0 0 0 0 0 0 0 0 0 0 0 0 0 0 0 0 0 0 0 0 0 0 0 0 0 0 0 0 0 0 0 0 0 0 0 0 0 0 0 0 0 0 0 0 0 0 0 0 0 0 0 0 0 0 0 0 0 0 0 0 0 0 0 0 0 0 0 0 0 0 0 0 0 0 0 0 0 0 0 0 0 0 0 0 0 0 0 0 0 0 0 0 0 0 0 0 0 0 0 0 0 0 0 0 0 0 0 0 0 0 0 0 0 0 0 0 0 0 0 0 0 0 0 0 0 0 0 0 0 0 0 0 0 0 0 0 0 0 0 0 0 0 0 0 0 0 0 0 0 0 0 0 0 0 0 0 0 0 0 0 0 0 0 0 0 0 0 0 0 0 0 0 0 0 0 0 0 0 0 0 0 0 0 0 0 0 0 0 0 0 0 0 0 0 0 0 0 0 0 0 0 0 0 0 0 0 0 0 0 0 0 0 0 0 0 0 0 0 0 0 0 0 0 0 0 0 0 0 0 0 0 0 0 0 0 0 0 0 0 0 0 0 0 0 0 0 0 0 0 0 0 0 0 0 0 0 0 0 0 0 0 0 0 0 0 0 0 0 0 0 0 0 0 0 0 0 0 0 0 0 0 0 0 0 0 0 0 0 0 0 0 0 0 0 0 0 0 0 0 0 0 0 0 0 0 0 0 0 0 0 0 0 0 0 0 0 0 0 0 0 0 0 0 0 0 0 0 0 0 0 0 0 0 0 0 0 0 0 0 0 0 0 0 0 0 0 0 0 0 0 0 0 0 0 0 0 0 0 0 0 0 0 0 0 0 0 0 0 0 0 0 0 0 0 0 0 0 0 0 0 0 0 0 0 0 0 0 0 0 0 0 0 0 0 0 0 0 0 0 0 0 0 0 0 0 0 0 0 0 0 0 0 0 0 0 0 0 0 0 0 0 0 0 0 0 0 0 0 0 0 0 0 0 0 0 0 0 0 0 0 0 0 0 0 0 0 0 0 0 0 0 0 0 0 0 0 0 0 0 0 0 0 0 0 0 0 0 0 0 0 0 0 0 0 0 0 0 0 0 0 0 0 0 0 0 0 0 0 0 0 0 0 0 0 0 0 0 0 0 0 0 0 0 0 0 0 0 0 0 0 0 0 0 0 0 0 0 0 0 0 0 0 0 0 0 0 0 0 0 0 0 0 0 0 0 0 0 0 0 0 0 0 0 0 0 0 0 0 0 0 0 0 0 0 0 0 0 0 0 0 0 0 0 0 0 0 0 0 0 0 0 0 0 0 0 0 0 0 0 0 0 0 0 0 0 0 0 0 0 0 0 0 0 0 0 0 0 0 0 0 0 0 0 0 0 0 0 0 0 0 0 0 0 0 0 0 0 0 0 0 0 0 0 0 0 0 0 0 0 0 0 0 0 0 0 0 0 0 0 0 0 0 0 0 0 0 0 0 0 0 0 0 0 0 0 0 0 0 0 0 0 0 0 0 0 0 0 0 0 0 0 0 0 0 0 0 0 0 0 0 0 0 0 0 0 0 0 0 0 0 0 0 0 0 0 0 0 0 0 0 0 0 0 0 0 0 0 0 0 0 0 0 0 0 0 0 0 0 0 0 0 0 0 0 0 0 0 0 0 0 0 0 0 0 0 0 0 0 0 0 0 0 0 0 0 0 0 0 0 0 0 0 0 0 0 0 0 0 0 0 0 0 0 0 0 0 0 0 0 0 0 0 0 0 0 0 0 0 0 0 0 0 0 0 0 0 0 0 0 0 0 0 0 0 0 0 0 0 0 0 0 0 0 0 0 0 0 0 0 0 0 0 0 0 0 0 0 0 0 0 0 0 0 0 0 0 0 0 0 0 0 0 0 0 0 0 0 0 0 0 0 0 0 0 0 0 0 0 0 0 0 0 0 0 0 0 0 0 0 0 0 0 0 0 0 0 0 0 0 0 0 0 0 0 0 0 0 0 0 0 0 0 0 0 0 0 0 0 0 0 0 0 0 0 0 0 0 0 0 0 0 0 0 0 0 0 0 0 0 0 0 0 0 0 0 0 0 0 0 0 0 0 0 0 0 0 0 0 0 0 0 0 0 0 0 0 0 0 0 0 0 0 0 0 0 0 0 0 0 0 0 0 0 0 0 0 0 0 0 0 0 0 0 0 0 0 0 0 0 0 0 0 0 0 0 0 0 0 0 0 0 0 0 0 0 0 0 0 0 0 0 0 0 0 0 0 0 0 0 0 0 0 0 0 0 0 0 0 0 0 0 0 0 0 0 0 0 0 0 0 0 0 0 0 0 0 0 0 0 0 0 0 0 0 0 0 0 0 0 0 0 0 0 0 0 0 0 0 0 0 0 0 0 0 0 0 0 0 0 0 0 0 0 0 0 0 0 0 0 0 0 0 0 0 0 0 0 0 0 0 0 0 0 0 0 0 0 0 0 0 0 0 0 0 0 0 0 0 0 0 0 0 0 0 0 0 0 0 0 0 0 0 0 0 0 0 0 0 0 0 0 0 0 0 0 0 0 0 0 0 0 0 0 0 0 0 0 0 0 0 0 0 0 0 0 0 0 0 0 0 0 0 0 0 0 0 0 0 0 0 0 0 0 0 0 0 0 0 0 0 0 0 0 0 0 0 0 0 0 0 0 0 0 0 0 0 0 0 0 0 0 0 0 0 0 0 0 0 0 0 0 0 0 0 0 0 0 0 0 0 0 0 0 0 0 0 0 0 0 0 0 0 0 0 0 0 0 0 0 0 0 0 0 0 0 0 0 0 0 0 0 0 0 0 0 0 0 0 0 0 0 0 0 0 0 0 0 0 0 0 0 0 0 0 0 0 0 0 0 0 0 0 0 0 0 0 0 0 0 0 0 0 0 0 0 0 0 0 0 0 0 0 0 0 0 0 0 0 0 0 0 0 0 0 0 0 0 0 0 0 0 0 0 0 0 0 0 0 0 0 0 0 0 0 0 0 0 0 0 0 0 0 0 0 0 0 0 0 0 0 0 0 0 0 0 0 0 0 0 0 0 0 0 0 0 0 0 0 0 0 0 0 0 0 0 0 0 0 0 0 0 0 0 0 0 0 0 0 0 0 0 0 0 0 0 0 0 0 0 0 0 0 0 0 0 0 0 0 0 0 0 0 0 0 0 0 0 0 0 0 0 0 0 0 0 0 0 0 0 0 0 0 0 0 0 0 0 0 0 0 0 0 0 0 0 0 0 0 0 0 0 0 0 0 0 0 0 0 0 0 0 0 0 0 0 0 0 0 0 0 0 0 0 0 0 0 0 0 0 0 0 0 0 0 0 0 0 0 0 0 0 0 0 0 0 0 0 0 0 0 0 0 0 0 0 0 0 0 0 0 0 0 0 0 0 0 0 0 0 0 0 0 0 0 0 0 0 0 0 0 0 0 0 0 0 0 0 0 0 0 0 0 0 0 0 0 0 0 0 0 0 0 0 0 0 0 0 0 0 0 0 0 0 0 0 0 0 0 0 0 0 0 0 0 0 0 0 0 0 0 0 0 0 0 0 0 0 0 0 0 0 0 0 0 0 0 0 0 0 0 0 0 0 0 0 0 0 0 0 0 0 0 0 0 0 0 0 0 0 0 0 0 0 0 0 0 0 0 0 0 0 0 0 0 0 0 0 0 0 0 0 0 0 0 0 0 0 0 0 0 0 0 0 0 0 0 0 0 0 0 0 0 0 0 0 0 0 0 0 0 0 0 0 0 0 0 0 0 0 0 0 0 0 0 0 0 0 0 0 0 0 0 0 0 0 0 0 0 0 0 0 0 0 0 0 0 0 0 0 0 0 0 0 0 0 0 0 0 0 0 0 0 0 0 0 0 0 0 0 0 0 0 0 0 0 0 0 0 0 0 0 0 0 0 0 0 0 0 0 0 0 0 0 0 0 0 0 0 0 0 0 0 0 0 0 0 0 0 0 0 0 0 0 0 0 0 0 0 0 0 0 0 0 0 0 0 0 0 0 0 0 0 0 0 0 0 0 0 0 0 0 0 0 0 0 0 0 0 0 0 0 0 0 0 0 0 0 0 0 0 0 0 0 0 0 0 0 0 0 0 0 0 0 0 0 0 0 0 0 0 0 0 0 0 0 0 0 0 0 0 0 0 0 0 0 0 0 0 0 0 0 0 0 0 0 0 0 0 0 0 0 0 0 0 0 0 0 0 0 0 0 0 0 0 0 0 0 0 0 0 0 0 0 0 0 0 0 0 0 0 0 0 0 0 0 0 0 0 0 0 0 0 0 0 0 0 0 0 0 0 0 0 0 0 0 0 0 0 0 0 0 0 0 0 0 0 0 0 0 0 0 0 0 0 0 0 0 0 0 0 0 0 0 0 0 0 0 0 0 0 0 0 0 0 0 0 0 0 0 0 0 0 0 0 0 0 0 0 0 0 0 0 0 0 0 0 0 0 0 0 0 0 0 0 0 0 0 0 0 0 0 0 0 0 0 0 0 0 0 0 0 0 0 0 0 0 0 0 0 0 0 0 0 0 0 0 0 0 0 0 0 0 0 0 0 0 0 0 0 0 0 0 0 0 0 0 0 0 0 0 0 0 0 0 0 0 0 0 0 0 0 0 0 0 0 0 0 0 0 0 0 0 0 0 0 0 0 0 0 0 0 0 0 0 0 0 0 0 0 0 0 0 0 0 0 0 0 0 0 0 0 0 0 0 0 0 0 0 0 0 0 0 0 0 0 0 0 0 0 0 0 0 0 0 0 0 0 0 0 0 0 0 0 0 0 0 0 0 0 0 0 0 0 0 0 0 0 0 0 0 0 0 0 0 0 0 0 0 0 0 0 0 0 0 0 0 0 0 0 0 0 0 0 0 0 0 0 0 0 0 0 0 0 0 0 0 0 0 0 0 0 0 0 0 0 0 0 0 0 0 0 0 0 0 0 0 0 0 0 0 0 0 0 0 0 0 0 0 0 0 0 0 0 0 0 0 0 0 0 0 0 0 0 0 0 0 0 0 0 0 0 0 0 0 0 0 0 0 0 0 0 0 0 0 0 0 0 0 0 0 0 0 0 0 0 0 0 0 0 0 0 0 0 0 0 0 0 0 0 0 0 0 0 0 0 0 0 0 0 0 0 0 0 0 0 0 0 0 0 0 0 0 0 0 0 0 0 0 0 0 0 0 0 0 0 0 0 0 0 0 0 0 0 0 0 0 0 0 0 0 0 0 0 0 0 0 0 0 0 0 0 0 0 0 0 0 0 0 0 0 0 0 0 0 0 0 0 0 0 0 0 0 0 0 0 0 0 0 0 0 0 0 0 0 0 0 0 0 0 0 0 0 0 0 0 0 0 0 0 0 0 0 0 0 0 0 0 0 0 0 0 0 0 0 0 0 0 0 0 0 0 0 0 0 0 0 0 0 0 0 0 0 0 0 0 0 0 0 0 0 0 0 0 0 0 0 0 0 0 0 0 0 0 0 0 0 0 0 0 0 0 0 0 0 0 0 0 0 0 0 0 0 0 0 0 0 0 0 0 0 0 0 0 0 0 0 0 0 0 0 0 0 0 0 0 0 0 0 0 0 0 0 0 0 0 0 0 0 0 0 0 0 0 0 0 0 0 0 0 0 0 0 0 0 0 0 0 0 0 0 0 0 0 0 0 0 0 0 0 0 0 0 0 0 0 0 0 0 0 0 0 0 0 0 0 0 0 0 0 0 0 0 0 0 0 0 0 0 0 0 0 0 0 0 0 0 0 0 0 0 0 0 0 0 0 0 0 0 0 0 0 0 0 0 0 0 0 0 0 0 0 0 0 0 0 0 0 0 0 0 0 0 0 0 0 0 0 0 0 0 0 0 0 0 0 0 0 0 0 0 0 0 0 0 0 0 0 0 0 0 0 0 0 0 0 0 0 0 0 0 0 0 0 0 0 0 0 0 0 0 0 0 0 0 0 0 0 0 0 0 0 0 0 0 0 0 0 0 0 0 0 0 0 0 0 0 0 0 0 0 0 0 0 0 0 0 0 0 0 0 0 0 0 0 0 0 0 0 0 0 0 0 0 0 0 0 0 0 0 0 0 0 0 0 0 0 0 0 0 0 0 0 0 0 0 0 0 0 0 0 0 0 0 0 0 0 0 0 0 0 0 0 0 0 0 0 0 0 0 0 0 0 0 0 0 0 0 0 0 0 0 0 0 0 0 0 0 0 0 0 0 0 0 0 0 0 0 0 0 0 0 0 0 0 0 0 0 0 0 0 0 0 0 0 0 0 0 0 0 0 0 0 0 0 0 0 0 0 0 0 0 0 0 0 0 0 0 0 0 0 0 0 0 0 0 0 0 0 0 0 0 0 0 0 0 0 0 0 0 0 0 0 0 0 0 0 0 0 0 0 0 0 0 0 0 0 0 0 0 0 0 0 0 0 0 0 0 0 0 0 0 0 0 0 0 0 0 0 0 0 0 0 0 0 0 0 0 0 0 0 0 0 0 0 0 0 0 0 0 0 0 0 0 0 0 0 0 0 0 0 0 0 0 0 0 0 0 0 0 0 0 0 0 0 0 0 0 0 0 0 0 0 0 0 0 0 0 0 0 0 0 0 0 0 0 0 0 0 0 0 0 0 0 0 0 0 0 0 0 0 0 0 0 0 0 0 0 0 0 0 0 0 0 0 0 0 0 0 0 0 0 0 0 0 0 0 0 0 0 0 0 0 0 0 0 0 0 0 0 0 0 0 0 0 0 0 0 0 0 0 0 0 0 0 0 0 0 0 0 0 0 0 0 0 0 0 0 0 0 0 0 0 0 0 0 0 0 0 0 0 0 0 0 0 0 0 0 0 0 0 0 0 0 0 0 0 0 0 0 0 0 0 0 0 0 0 0 0 0 0 0 0 0 0 0 0 0 0 0 0 0 0 0 0 0 0 0 0 0 0 0 0 0 0 0 0 0 0 0 0 0 0 0 0 0 0 0 0 0 0 0 0 0 0 0 0 0 0 0 0 0 0 0 0 0 0 0 0 0 0 0 0 0 0 0 0 0 0 0 0 0 0 0 0 0 0 0 0 0 0 0 0 0 0 0 0 0 0 0 0 0 0 0 0 0 0 0 0 0 0 0 0 0 0 0 0 0 0 0 0 0 0 0 0 0 0 0 0 0 0 0 0 0 0 0 0 0 0 0 0 0 0 0 0 0 0 0 0 0 0 0 0 0 0 0 0 0 0 0 0 0 0 0 0 0 0 0 0 0 0 0 0 0 0 0 0 0 0 0 0 0 0 0 0 0 0 0 0 0 0 0 0 0 0 0 0 0 0 0 0 0 0 0 0 0 0 0 0 0 0 0 0 0 0 0 0 0 0 0 0 0 0 0 0 0 0 0 0 0 0 0 0 0 0 0 0 0 0 0 0 0 0 0 0 0 0 0 0 0 0 0 0 0 0 0 0 0 0 0 0 0 0 0 0 0 0 0 0 0 0 0 0 0 0 0 0 0 0 0 0 0 0 0 0 0 0 0 0 0 0 0 0 0 0 0 0 0 0 0 0 0 0 0 0 0 0 0 0 0 0 0 0 0 0 0 0 0 0 0 0 0 0 0 0 0 0 0 0 0 0 0 0 0 0 0 0 0 0 0 0 0 0 0 0 0 0 0 0 0 0 0 0 0 0 0 0 0 0 0 0 0 0 0 0 0 0 0 0 0 0 0 0 0 0 0 0 0 0 0 0 0 0 0 0 0 0 0 0 0 0 0 0 0 0 0 0 0 0 0 0 0 0 0 0 0 0 0 0 0 0 0 0 0 0 0 0 0 0 0 0 0 0 0 0 0 0 0 0 0 0 0 0 0 0 0 0 0 0 0 0 0 0 0 0 0 0 0 0 0 0 0 0 0 0 0 0 0 0 0 0 0 0 0 0 0 0 0 0 0 0 0 0 0 0 0 0 0 0 0 0 0 0 0 0 0 0 0 0 0 0 0 0 0 0 0 0 0 0 0 0 0 0 0 0 0 0 0 0 0 0 0 0 0 0 0 0 0 0 0 0 0 0 0 0 0 0 0 0 0 0 0 0 0 0 0 0 0 0 0 0 0 0 0 0 0 0 0 0 0 0 0 0 0 0 0 0 0 0 0 0 0 0 0 0 0 0 0 0 0 0 0 0 0 0 0 0 0 0 0 0 0 0 0 0 0 0 0 0 0 0 0 0 0 0 0 0 0 0 0 0 0 0 0 0 0 0 0 0 0 0 0 0 0 0 0 0 0 0 0 0 0 0 0 0 0 0 0 0 0 0 0 0 0 0 0 0 0 0 0 0 0 0 0 0 0 0 0 0 0 0 0 0 0 0 0 0 0 0 0 0 0 0 0 0 0 0 0 0 0 0 0 0 0 0 0 0 0 0 0 0 0 0 0 0 0 0 0 0 0 0 0 0 0 0 0 0 0 0 0 0 0 0 0 0 0 0 0 0 0 0 0 0 0 0 0 0 0 0 0 0 0 0 0 0 0 0 0 0 0 0 0 0 0 0 0 0 0 0 0 0 0 0 0 0 0 0 0 0 0 0 0 0 0 0 0 0 0 0 0 0 0 0 0 0 0 0 0 0 0 0 0 0 0 0 0 0 0 0 0 0 0 0 0 0 0 0 0 0 0 0 0 0 0 0 0 0 0 0 0 0 0 0 0 0 0 0 0 0 0 0 0 0 0 0 0 0 0 0 0 0 0 0 0 0 0 0 0 0 0 0 0 0 0 0 0 0 0 0 0 0 0 0 0 0 0 0 0 0 0 0 0 0 0 0 0 0 0 0 0 0 0 0 0 0 0 0 0 0 0 0 0 0 0 0 0 0 0 0 0 0 0 0 0 0 0 0 0 0 0 0 0 0 0 0 0 0 0 0 0 0 0 0 0 0 0 0 0 0 0 0 0 0 0 0 0 0 0 0 0 0 0 0 0 0 0 0 0 0 0 0 0 0 0 0 0 0 0 0 0 0 0 0 0 0 0 0 0 0 0 0 0 0 0 0 0 0 0 0 0 0 0 0 0 0 0 0 0 0 0 0 0 0 0 0 0 0 0 0 0 0 0 0 0 0 0 0 0 0 0 0 0 0 0 0 0 0 0 0 0 0 0 0 0 0 0 0 0 0 0 0 0 0 0 0 0 0 0 0 0 0 0 0 0 0 0 0 0 0 0 0 0 0 0 0 0 0 0 0 0 0 0 0 0 0 0 0 0 0 0 0 0 0 0 0 0 0 0 0 0 0 0 0 0 0 0 0 0 0 0 0 0 0 0 0 0 0 0 0 0 0 0 0 0 0 0 0 0 0 0 0 0 0 0 0 0 0 0 0 0 0 0 0 0 0 0 0 0 0 0 0 0 0 0 0 0 0 0 0 0 0 0 0 0 0 0 0 0 0 0 0 0 0 0 0 0 0 0 0 0 0 0 0 0 0 0 0 0 0 0 0 0 0 0 0 0 0 0 0 0 0 0 0 0 0 0 0 0 0 0 0 0 0 0 0 0 0 0 0 0 0 0 0 0 0 0 0 0 0 0 0 0 0 0 0 0 0 0 0 0 0 0 0 0 0 0 0 0 0 0 0 0 0 0 0 0 0 0 0 0 0 0 0 0 0 0 0 0 0 0 0 0 0 0 0 0 0 0 0 0 0 0 0 0 0 0 0 0 0 0 0 0 0 0 0 0 0 0 0 0 0 0 0 0 0 0 0 0 0 0 0 0 0 0 0 0 0 0 0 0 0 0 0 0 0 0 0 0 0 0 0 0 0 0 0 0 0 0 0 0 0 0 0 0 0 0 0 0 0 0 0 0 0 0 0 0 0 0 0 0 0 0 0 0 0 0 0 0 0 0 0 0 0 0 0 0 0 0 0 0 0 0 0 0 0 0 0 0 0 0 0 0 0 0 0 0 0 0 0 0 0 0 0 0 0 0 0 0 0 0 0 0 0 0 0 0 0 0 0 0 0 0 0 0 0 0 0 0 0 0 0 0 0 0 0 0 0 0 0 0 0 0 0 0 0 0 0 0 0 0 0 0 0 0 0 0 0 0 0 0 0 0 0 0 0 0 0 0 0 0 0 0 0 0 0 0 0 0 0 0 0 0 0 0 0 0 0 0 0 0 0 0 0 0 0 0 0 0 0 0 0 0 0 0 0 0 0 0 0 0 0 0 0 0 0 0 0 0 0 0 0 0 0 0 0 0 0 0 0 0 0 0 0 0 0 0 0 0 0 0 0 0 0 0 0 0 0 0 0 0 0 0 0 0 0 0 0 0 0 0 0 0 0 0 0 0 0 0 0 0 0 0 0 0 0 0 0 0 0 0 0 0 0 0 0 0 0 0 0 0 0 0 0 0 0 0 0 0 0 0 0 0 0 0 0 0 0 0 0 0 0 0 0 0 0 0 0 0 0 0 0 0 0 0 0 0 0 0 0 0 0 0 0 0 0 0 0 0 0 0 0 0 0 0 0 0 0 0 0 0 0 0 0 0 0 0 0 0 0 0 0 0 0 0 0 0 0 0 0 0 0 0 0 0 0 0 0 0 0 0 0 0 0 0 0 0 0 0 0 0 0 0 0 0 0 0 0 0 0 0 0 0 0 0 0 0 0 0 0 0 0 0 0 0 0 0 0 0 0 0 0 0 0 0 0 0 0 0 0 0 0 0 0 0 0 0 0 0 0 0 0 0 0 0 0 0 0 0 0 0 0 0 0 0 0 0 0 0 0 0 0 0 0 0 0 0 0 0 0 0 0 0 0 0 0 0 0 0 0 0 0 0 0 0 0 0 0 0 0 0 0 0 0 0 0 0 0 0 0 0 0 0 0 0 0 0 0 0 0 0 0 0 0 0 0 0 0 0 0 0 0 0 0 0 0 0 0 0 0 0 0 0 0 0 0 0 0 0 0 0 0 0 0 0 0 0 0 0 0 0 0 0 0 0 0 0 0 0 0 0 0 0 0 0 0 0 0 0 0 0 0 0 0 0 0 0 0 0 0 0 0 0 0 0 0 0 0 0 0 0 0 0 0 0 0 0 0 0 0 0 0 0 0 0 0 0 0 0 0 0 0 0 0 0 0 0 0 0 0 0 0 0 0 0 0 0 0 0 0 0 0 0 0 0 0 0 0 0 0 0 0 0 0 0 0 0 0 0 0 0 0 0 0 0 0 0 0 0 0 0 0 0 0 0 0 0 0 0 0 0 0 0 0 0 0 0 0 0 0 0 0 0 0 0 0 0 0 0 0 0 0 0 0 0 0 0 0 0 0 0 0 0 0 0 0 0 0 0 0 0 0 0 0 0 0 0 0 0 0 0 0 0 0 0 0 0 0 0 0 0 0 0 0 0 0 0 0 0 0 0 0 0 0 0 0 0 0 0 0 0 0 0 0 0 0 0 0 0 0 0 0 0 0 0 0 0 0 0 0 0 0 0 0 0 0 0 0 0 0 0 0 0 0 0 0 0 0 0 0 0 0 0 0 0 0 0 0 0 0 0 0 0 0 0 0 0 0 0 0 0 0 0 0 0 0 0 0 0 0 0 0 0 0 0 0 0 0 0 0 0 0 0 0 0 0 0 0 0 0 0 0 0 0 0 0 0 0 0 0 0 0 0 0 0 0 0 0 0 0 0 0 0 0 0 0 0 0 0 0 0 0 0 0 0 0 0 0 0 0 0 0 0 0 0 0 0 0 0 0 0 0 0 0 0 0 0 0 0 0 0 0 0 0 0 0 0 0 0 0 0 0 0 0 0 0 0 0 0 0 0 0 0 0 0 0 0 0 0 0 0 0 0 0 0 0 0 0 0 0 0 0 0 0 0 0 0 0 0 0 0 0 0 0 0 0 0 0 0 0 0 0 0 0 0 0 0 0 0 0 0 0 0 0 0 0 0 0 0 0 0 0 0 0 0 0 0 0 0 0 0 0 0 0 0 0 0 0 0 0 0 0 0 0 0 0 0 0 0 0 0 0 0 0 0 0 0 0 0 0 0 0 0 0 0 0 0 0 0 0 0 0 0 0 0 0 0 0 0 0 0 0 0 0 0 0 0 0 0 0 0 0 0 0 0 0 0 0 0 0 0 0 0 0 0 0 0 0 0 0 0 0 0 0 0 0 0 0 0 0 0 0 0 0 0 0 0 0 0 0 0 0 0 0 0 0 0 0 0 0 0 0 0 0 0 0 0 0 0 0 0 0 0 0 0 0 0 0 0 0 0 0 0 0 0 0 0 0 0 0 0 0 0 0 0 0 0 0 0 0 0 0 0 0 0 0 0 0 0 0 0 0 0 0 0 0 0 0 0 0 0 0 0 0 0 0 0 0 0 0 0 0 0 0 0 0 0 0 0 0 0 0 0 0 0 0 0 0 0 0 0 0 0 0 0 0 0 0 0 0 0 0 0 0 0 0 0 0 0 0 0 0 0 0 0 0 0 0 0 0 0 0 0 0 0 0 0 0 0 0 0 0 0 0 0 0 0 0 0 0 0 0 0 0 0 0 0 0 0 0 0 0 0 0 0 0 0 0 0 0 0 0 0 0 0 0 0 0 0 0 0 0 0 0 0 0 0 0 0 0 0 0 0 0 0 0 0 0 0 0 0 0 0 0 0 0 0 0 0 0 0 0 0 0 0 0 0 0 0 0 0 0 0 0 0 0 0 0 0 0 0 0 0 0 0 0 0 0 0 0 0 0 0 0 0 0 0 0 0 0 0 0 0 0 0 0 0 0 0 0 0 0 0 0 0 0 0 0 0 0 0 0 0 0 0 0 0 0 0 0 0 0 0 0 0 0 0 0 0 0 0 0 0 0 0 0 0 0 0 0 0 0 0 0 0 0 0 0 0 0 0 0 0 0 0 0 0 0 0 0 0 0 0 0 0 0 0 0 0 0 0 0 0 0 0 0 0 0 0 0 0 0 0 0 0 0 0 0 0 0 0 0 0 0 0 0 0 0 0 0 0 0 0 0 0 0 0 0 0 0 0 0 0 0 0 0 0 0 0 0 0 0 0 0 0 0 0 0 0 0 0 0 0 0 0 0 0 0 0 0 0 0 0 0 0 0 0 0 0 0 0 0 0 0 0 0 0 0 0 0 0 0 0 0 0 0 0 0 0 0 0 0 0 0 0 0 0 0 0 0 0 0 0 0 0 0 0 0 0 0 0 0 0 0 0 0 0 0 0 0 0 0 0 0 0 0 0 0 0 0 0 0 0 0 0 0 0 0 0 0 0 0 0 0 0 0 0 0 0 0 0 0 0 0 0 0 0 0 0 0 0 0 0 0 0 0 0 0 0 0 0 0 0 0 0 0 0 0 0 0 0 0 0 0 0 0 0 0 0 0 0 0 0 0 0 0 0 0 0 0 0 0 0 0 0 0 0 0 0 0 0 0 0 0 0 0 0 0 0 0 0 0 0 0 0 0 0 0 0 0 0 0 0 0 0 0 0 0 0 0 0 0 0 0 0 0 0 0 0 0 0 0 0 0 0 0 0 0 0 0 0 0 0 0 0 0 0 0 0 0 0 0 0 0 0 0 0 0 0 0 0 0 0 0 0 0 0 0 0 0 0 0 0 0 0 0 0 0 0 0 0 0 0 0 0 0 0 0 0 0 0 0 0 0 0 0 0 0 0 0 0 0 0 0 0 0 0 0 0 0 0 0 0 0 0 0 0 0 0 0 0 0 0 0 0 0 0 0 0 0 0 0 0 0 0 0 0 0 0 0 0 0 0 0 0 0 0 0 0 0 0 0 0 0 0 0 0 0 0 0 0 0 0 0 0 0 0 0 0 0 0 0 0 0 0 0 0 0 0 0 0 0 0 0 0 0 0 0 0 0 0 0 0 0 0 0 0 0 0 0 0 0 0 0 0 0 0 0 0 0 0 0 0 0 0 0 0 0 0 0 0 0 0 0 0 0 0 0 0 0 0 0 0 0 0 0 0 0 0 0 0 0 0 0 0 0 0 0 0 0 0 0 0 0 0 0 0 0 0 0 0 0 0 0 0 0 0 0 0 0 0 0 0 0 0 0 0 0 0 0 0 0 0 0 0 0 0 0 0 0 0 0 0 0 0 0 0 0 0 0 0 0 0 0 0 0 0 0 0 0 0 0 0 0 0 0 0 0 0 0 0 0 0 0 0 0 0 0 0 0 0 0 0 0 0 0 0 0 0 0 0 0 0 0 0 0 0 0 0 0 0 0 0 0 0 0 0 0 0 0 0 0 0 0 0 0 0 0 0 0 0 0 0 0 0 0 0 0 0 0 0 0 0 0 0 0 0 0 0 0 0 0 0 0 0 0 0 0 0 0 0 0 0 0 0 0 0 0 0 0 0 0 0 0 0 0 0 0 0 0 0 0 0 0 0 0 0 0 0 0 0 0 0 0 0 0 0 0 0 0 0 0 0 0 0 0 0 0 0 0 0 0 0 0 0 0 0 0 0 0 0 0 0 0 0 0 0 0 0 0 0 0 0 0 0 0 0 0 0 0 0 0 0 0 0 0 0 0 0 0 0 0 0 0 0 0 0 0 0 0 0 0 0 0 0 0 0 0 0 0 0 0 0 0 0 0 0 0 0 0 0 0 0 0 0 0 0 0 0 0 0 0 0 0 0 0 0 0 0 0 0 0 0 0 0 0 0 0 0 0 0 0 0 0 0 0 0 0 0 0 0 0 0 0 0 0 0 0 0 0 0 0 0 0 0 0 0 0 0 0 0 0 0 0 0 0 0 0 0 0 0 0 0 0 0 0 0 0 0 0 0 0 0 0 0 0 0 0 0 0 0 0 0 0 0 0 0 0 0 0 0 0 0 0 0 0 0 0 0 0 0 0 0 0 0 0 0 0 0 0 0 0 0 0 0 0 0 0 0 0 0 0 0 0 0 0 0 0 0 0 0 0 0 0 0 0 0 0 0 0 0 0 0 0 0 0 0 0 0 0 0 0 0 0 0 0 0 0 0 0 0 0 0 0 0 0 0 0 0 0 0 0 0 0 0 0 0 0 0 0 0 0 0 0 0 0 0 0 0 0 0 0 0 0 0 0 0 0 0 0 0 0 0 0 0 0 0 0 0 0 0 0 0 0 0 0 0 0 0 0 0 0 0 0 0 0 0 0 0 0 0 0 0 0 0 0 0 0 0 0 0 0 0 0 0 0 0 0 0 0 0 0 0 0 0 0 0 0 0 0 0 0 0 0 0 0 0 0 0 0 0 0 0 0 0 0 0 0 0 0 0 0 0 0 0 0 0 0 0 0 0 0 0 0 0 0 0 0 0 0 0 0 0 0 0 0 0 0 0 0 0 0 0 0 0 0 0 0 0 0 0 0 0 0 0 0 0 0 0 0 0 0 0 0 0 0 0 0 0 0 0 0 0 0 0 0 0 0 0 0 0 0 0 0 0 0 0 0 0 0 0 0 0 0 0 0 0 0 0 0 0 0 0 0 0 0 0 0 0 0 0 0 0 0 0 0 0 0 0 0 0 0 0 0 0 0 0 0 0 0 0 0 0 0 0 0 0 0 0 0 0 0 0 0 0 0 0 0 0 0 0 0 0 0 0 0 0 0 0 0 0 0 0 0 0 0 0 0 0 0 0 0 0 0 0 0 0 0 0 0 0 0 0 0 0 0 0 0 0 0 0 0 0 0 0 0 0 0 0 0 0 0 0 0 0 0 0 0 0 0 0 0 0 0 0 0 0 0 0 0 0 0 0 0 0 0 0 0 0 0 0 0 0 0 0 0 0 0 0 0 0 0 0 0 0 0 0 0 0 0 0 0 0 0 0 0 0 0 0 0 0 0 0 0 0 0 0 0 0 0 0 0 0 0 0 0 0 0 0 0 0 0 0 0 0 0 0 0 0 0 0 0 0 0 0 0 0 0 0 0 0 0 0 0 0 0 0 0 0 0 0 0 0 0 0 0 0 0 0 0 0 0 0 0 0 0 0 0 0 0 0 0 0 0 0 0 0 0 0 0 0 0 0 0 0 0 0 0 0 0 0 0 0 0 0 0 0 0 0 0 0 0 0 0 0 0 0 0 0 0 0 0 0 0 0 0 0 0 0 0 0 0 0 0 0 0 0 0 0 0 0 0 0 0 0 0 0 0 0 0 0 0 0 0 0 0 0 0 0 0 0 0 0 0 0 0 0 0 0 0 0 0 0 0 0 0 0 0 0 0 0 0 0 0 0 0 0 0 0 0 0 0 0 0 0 0 0 0 0 0 0 0 0 0 0 0 0 0 0 0 0 0 0 0 0 0 0 0 0 0 0 0 0 0 0 0 0 0 0 0 0 0 0 0 0 0 0 0 0 0 0 0 0 0 0 0 0 0 0 0 0 0 0 0 0 0 0 0 0 0 0 0 0 0 0 0 0 0 0 0 0 0 0 0 0 0 0 0 0 0 0 0 0 0 0 0 0 0 0 0 0 0 0 0 0 0 0 0 0 0 0 0 0 0 0 0 0 0 0 0 0 0 0 0 0 0 0 0 0 0 0 0 0 0 0 0 0 0 0 0 0 0 0 0 0 0 0 0 0 0 0 0 0 0 0 0 0 0 0 0 0 0 0 0 0 0 0 0 0 0 0 0 0 0 0 0 0 0 0 0 0 0 0 0 0 0 0 0 0 0 0 0 0 0 0 0 0 0 0 0 0 0 0 0 0 0 0 0 0 0 0 0 0 0 0 0 0 0 0 0 0 0 0 0 0 0 0 0 0 0 0 0 0 0 0 0 0 0 0 0 0 0 0 0 0 0 0 0 0 0 0 0 0 0 0 0 0 0 0 0 0 0 0 0 0 0 0 0 0 0 0 0 0 0 0 0 0 0 0 0 0 0 0 0 0 0 0 0 0 0 0 0 0 0 0 0 0 0 0 0 0 0 0 0 0 0 0 0 0 0 0 0 0 0 0 0 0 0 0 0 0 0 0 0 0 0 0 0 0 0 0 0 0 0 0 0 0 0 0 0 0 0 0 0 0 0 0 0 0 0 0 0 0 0 0 0 0 0 0 0 0 0 0 0 0 0 0 0 0 0 0 0 0 0 0 0 0 0 0 0 0 0 0 0 0 0 0 0 0 0 0 0 0 0 0 0 0 0 0 0 0 0 0 0 0 0 0 0 0 0 0 0 0 0 0 0 0 0 0 0 0 0 0 0 0 0 0 0 0 0 0 0 0 0 0 0 0 0 0 0 0 0 0 0 0 0 0 0 0 0 0 0 0 0 0 0 0 0 0 0 0 0 0 0 0 0 0 0 0 0 0 0 0 0 0 0 0 0 0 0 0 0 0 0 0 0 0 0 0 0 0 0 0 0 0 0 0 0 0 0 0 0 0 0 0 0 0 0 0 0 0 0 0 0 0 0 0 0 0 0 0 0 0 0 0 0 0 0 0 0 0 0 0 0 0 0 0 0 0 0 0 0 0 0 0 0 0 0 0 0 0 0 0 0 0 0 0 0 0 0 0 0 0 0 0 0 0 0 0 0 0 0 0 0 0 0 0 0 0 0 0 0 0 0 0 0 0 0 0 0 0 0 0 0 0 0 0 0 0 0 0 0 0 0 0 0 0 0 0 0 0 0 0 0 0 0 0 0 0 0 0 0 0 0 0 0 0 0 0 0 0 0 0 0 0 0 0 0 0 0 0 0 0 0 0 0 0 0 0 0 0 0 0 0 0 0 0 0 0 0 0 0 0 0 0 0 0 0 0 0 0 0 0 0 0 0 0 0 0 0 0 0 0 0 0 0 0 0 0 0 0 0 0 0 0 0 0 0 0 0 0 0 0 0 0 0 0 0 0 0 0 0 0 0 0 0 0 0 0 0 0 0 0 0 0 0 0 0 0 0 0 0 0 0 0 0 0 0 0 0 0 0 0 0 0 0 0 0 0 0 0 0 0 0 0 0 0 0 0 0 0 0 0 0 0 0 0 0 0 0 0 0 0 0 0 0 0 0 0 0 0 0 0 0 0 0 0 0 0 0 0 0 0 0 0 0 0 0 0 0 0 0 0 0 0 0 0 0 0 0 0 0 0 0 0 0 0 0 0 0 0 0 0 0 0 0 0 0 0 0 0 0 0 0 0 0 0 0 0 0 0 0 0 0 0 0 0 0 0 0 0 0 0 0 0 0 0 0 0 0 0 0 0 0 0 0 0 0 0 0 0 0 0 0 0 0 0 0 0 0 0 0 0 0 0 0 0 0 0 0 0 0 0 0 0 0 0 0 0 0 0 0 0 0 0 0 0 0 0 0 0 0 0 0 0 0 0 0 0 0 0 0 0 0 0 0 0 0 0 0 0 0 0 0 0 0 0 0 0 0 0 0 0 0 0 0 0 0 0 0 0 0 0 0 0 0 0 0 0 0 0 0 0 0 0 0 0 0 0 0 0 0 0 0 0 0 0 0 0 0 0 0 0 0 0 0 0 0 0 0 0 0 0 0 0 0 0 0 0 0 0 0 0 0 0 0 0 0 0 0 0 0 0 0 0 0 0 0 0 0 0 0 0 0 0 0 0 0 0 0 0 0 0 0 0 0 0 0 0 0 0 0 0 0 0 0 0 0 0 0 0 0 0 0 0 0 0 0 0 0 0 0 0 0 0 0 0 0 0 0 0 0 0 0 0 0 0 0 0 0 0 0 0 0 0 0 0 0 0 0 0 0 0 0 0 0 0 0 0 0 0 0 0 0 0 0 0 0 0 0 0 0 0 0 0 0 0 0 0 0 0 0 0 0 0 0 0 0 0 0 0 0 0 0 0 0 0 0 0 0 0 0 0 0 0 0 0 0 0 0 0 0 0 0 0 0 0 0 0 0 0 0 0 0 0 0 0 0 0 0 0 0 0 0 0 0 0 0 0 0 0 0 0 0 0 0 0 0 0 0 0 0 0 0 0 0 0 0 0 0 0 0 0 0 0 0 0 0 0 0 0 0 0 0 0 0 0 0 0 0 0 0 0 0 0 0 0 0 0 0 0 0 0 0 0 0 0 0 0 0 0 0 0 0 0 0 0 0 0 0 0 0 0 0 0 0 0 0 0 0 0 0 0 0 0 0 0 0 0 0 0 0 0 0 0 0 0 0 0 0 0 0 0 0 0 0 0 0 0 0 0 0 0 0 0 0 0 0 0 0 0 0 0 0 0 0 0 0 0 0 0 0 0 0 0 0 0 0 0 0 0 0 0 0 0 0 0 0 0 0 0 0 0 0 0 0 0 0 0 0 0 0 0 0 0 0 0 0 0 0 0 0 0 0 0 0 0 0 0 0 0 0 0 0 0 0 0 0 0 0 0 0 0 0 0 0 0 0 0 0 0 0 0 0 0 0 0 0 0 0 0 0 0 0 0 0 0 0 0 0 0 0 0 0 0 0 0 0 0 0 0 0 0 0 0 0 0 0 0 0 0 0 0 0 0 0 0 0 0 0 0 0 0 0 0 0 0 0 0 0 0 0 0 0 0 0 0 0 0 0 0 0 0 0 0 0 0 0 0 0 0 0 0 0 0 0 0 0 0 0 0 0 0 0 0 0 0 0 0 0 0 0 0 0 0 0 0 0 0 0 0 0 0 0 0 0 0 0 0 0 0 0 0 0 0 0 0 0 0 0 0 0 0 0 0 0 0 0 0 0 0 0 0 0 0 0 0 0 0 0 0 0 0 0 0 0 0 0 0 0 0 0 0 0 0 0 0 0 0 0 0 0 0 0 0 0 0 0 0 0 0 0 0 0 0 0 0 0 0 0 0 0 0 0 0 0 0 0 0 0 0 0 0 0 0 0 0 0 0 0 0 0 0 0 0 0 0 0 0 0 0 0 0 0 0 0 0 0 0 0 0 0 0 0 0 0 0 0 0 0 0 0 0 0 0 0 0 0 0 0 0 0 0 0 0 0 0 0 0 0 0 0 0 0 0 0 0 0 0 0 0 0 0 0 0 0 0 0 0 0 0 0 0 0 0 0 0 0 0 0 0 0 0 0 0 0 0 0 0 0 0 0 0 0 0 0 0 0 0 0 0 0 0 0 0 0 0 0 0 0 0 0 0 0 0 0 0 0 0 0 0 0 0 0 0 0 0 0 0 0 0 0 0 0 0 0 0 0 0 0 0 0 0 0 0 0 0 0 0 0 0 0 0 0 0 0 0 0 0 0 0 0 0 0 0 0 0 0 0 0 0 0 0 0 0 0 0 0 0 0 0 0 0 0 0 0 0 0 0 0 0 0 0 0 0 0 0 0 0 0 0 0 0 0 0 0 0 0 0 0 0 0 0 0 0 0 0 0 0 0 0 0 0 0 0 0 0 0 0 0 0 0 0 0 0 0 0 0 0 0 0 0 0 0 0 0 0 0 0 0 0 0 0 0 0 0 0 0 0 0 0 0 0 0 0 0 0 0 0 0 0 0 0 0 0 0 0 0 0 0 0 0 0 0 0 0 0 0 0 0 0 0 0 0 0 0 0 0 0 0 0 0 0 0 0 0 0 0 0 0 0 0 0 0 0 0 0 0 0 0 0 0 0 0 0 0 0 0 0 0 0 0 0 0 0 0 0 0 0 0 0 0 0 0 0 0 0 0 0 0 0 0 0 0 0 0 0 0 0 0 0 0 0 0 0 0 0 0 0 0 0 0 0 0 0 0 0 0 0 0 0 0 0 0 0 0 0 0 0 0 0 0 0 0 0 0 0 0 0 0 0 0 0 0 0 0 0 0 0 0 0 0 0 0 0 0 0 0 0 0 0 0 0 0 0 0 0 0 0 0 0 0 0 0 0 0 0 0 0 0 0 0 0 0 0 0 0 0 0 0 0 0 0 0 0 0 0 0 0 0 0 0 0 0 0 0 0 0 0 0 0 0 0 0 0 0 0 0 0 0 0 0 0 0 0 0 0 0 0 0 0 0 0 0 0 0 0 0 0 0 0 0 0 0 0 0 0 0 0 0 0 0 0 0 0 0 0 0 0 0 0 0 0 0 0 0 0 0 0 0 0 0 0 0 0 0 0 0 0 0 0 0 0 0 0 0 0 0 0 0 0 0 0 0 0 0 0 0 0 0 0 0 0 0 0 0 0 0 0 0 0 0 0 0 0 0 0 0 0 0 0 0 0 0 0 0 0 0 0 0 0 0 0 0 0 0 0 0 0 0 0 0 0 0 0 0 0 0 0 0 0 0 0 0 0 0 0 0 0 0 0 0 0 0 0 0 0 0 0 0 0 0 0 0 0 0 0 0 0 0 0 0 0 0 0 0 0 0 0 0 0 0 0 0 0 0 0 0 0 0 0 0 0 0 0 0 0 0 0 0 0 0 0 0 0 0 0 0 0 0 0 0 0 0 0 0 0 0 0 0 0 0 0 0 0 0 0 0 0 0 0 0 0 0 0 0 0 0 0 0 0 0 0 0 0 0 0 0 0 0 0 0 0 0 0 0 0 0 0 0 0 0 0 0 0 0 0 0 0 0 0 0 0 0 0 0 0 0 0 0 0 0 0 0 0 0 0 0 0 0 0 0 0 0 0 0 0 0 0 0 0 0 0 0 0 0 0 0 0 0 0 0 0 0 0 0 0 0 0 0 0 0 0 0 0 0 0 0 0 0 0 0 0 0 0 0 0 0 0 0 0 0 0 0 0 0 0 0 0 0 0 0 0 0 0 0 0 0 0 0 0 0 0 0 0 0 0 0 0 0 0 0 0 0 0 0 0 0 0 0 0 0 0 0 0 0 0 0 0 0 0 0 0 0 0 0 0 0 0 0 0 0 0 0 0 0 0 0 0 0 0 0 0 0 0 0 0 0 0 0 0 0 0 0 0 0 0 0 0 0 0 0 0 0 0 0 0 0 0 0 0 0 0 0 0 0 0 0 0 0 0 0 0 0 0 0 0 0 0 0 0 0 0 0 0 0 0 0 0 0 0 0 0 0 0 0 0 0 0 0 0 0 0 0 0 0 0 0 0 0 0 0 0 0 0 0 0 0 0 0 0 0 0 0 0 0 0 0 0 0 0 0 0 0 0 0 0 0 0 0 0 0 0 0 0 0 0 0 0 0 0 0 0 0 0 0 0 0 0 0 0 0 0 0 0 0 0 0 0 0 0 0 0 0 0 0 0 0 0 0 0 0 0 0 0 0 0 0 0 0 0 0 0 0 0 0 0 0 0 0 0 0 0 0 0 0 0 0 0 0 0 0 0 0 0 0 0 0 0 0 0 0 0 0 0 0 0 0 0 0 0 0 0 0 0 0 0 0 0 0 0 0 0 0 0 0 0 0 0 0 0 0 0 0 0 0 0 0 0 0 0 0 0 0 0 0 0 0 0 0 0 0 0 0 0 0 0 0 0 0 0 0 0 0 0 0 0 0 0 0 0 0 0 0 0 0 0 0 0 0 0 0 0 0 0 0 0 0 0 0 0 0 0 0 0 0 0 0 0 0 0 0 0 0 0 0 0 0 0 0 0 0 0 0 0 0 0 0 0 0 0 0 0 0 0 0 0 0 0 0 0 0 0 0 0 0 0 0 0 0 0 0 0 0 0 0 0 0 0 0 0 0 0 0 0 0 0 0 0 0 0 0 0 0 0 0 0 0 0 0 0 0 0 0 0 0 0 0 0 0 0 0 0 0 0 0 0 0 0 0 0 0 0 0 0 0 0 0 0 0 0 0 0 0 0 0 0 0 0 0 0 0 0 0 0 0 0 0 0 0 0 0 0 0 0 0 0 0 0 0 0 0 0 0 0 0 0 0 0 0 0 0 0 0 0 0 0 0 0 0 0 0 0 0 0 0 0 0 0 0 0 0 0 0 0 0 0 0 0 0 0 0 0 0 0 0 0 0 0 0 0 0 0 0 0 0 0 0 0 0 0 0 0 0 0 0 0 0 0 0 0 0 0 0 0 0 0 0 0 0 0 0 0 0 0 0 0 0 0 0 0 0 0 0 0 0 0 0 0 0 0 0 0 0 0 0 0 0 0 0 0 0 0 0 0 0 0 0 0 0 0 0 0 0 0 0 0 0 0 0 0 0 0 0 0 0 0 0 0 0 0 0 0 0 0 0 0 0 0 0 0 0 0 0 0 0 0 0 0 0 0 0 0 0 0 0 0 0 0 0 0 0 0 0 0 0 0 0 0 0 0 0 0 0 0 0 0 0 0 0 0 0 0 0 0 0 0 0 0 0 0 0 0 0 0 0 0 0 0 0 0 0 0 0 0 0 0 0 0 0 0 0 0 0 0 0 0 0 0 0 0 0 0 0 0 0 0 0 0 0 0 0 0 0 0 0 0 0 0 0 0 0 0 0 0 0 0 0 0 0 0 0 0 0 0 0 0 0 0 0 0 0 0 0 0 0 0 0 0 0 0 0 0 0 0 0 0 0 0 0 0 0 0 0 0 0 0 0 0 0 0 0 0 0 0 0 0 0 0 0 0 0 0 0 0 0 0 0 0 0 0 0 0 0 0 0 0 0 0 0 0 0 0 0 0 0 0 0 0 0 0 0 0 0 0 0 0 0 0 0 0 0 0 0 0 0 0 0 0 0 0 0 0 0 0 0 0 0 0 0 0 0 0 0 0 0 0 0 0 0 0 0 0 0 0 0 0 0 0 0 0 0 0 0 0 0 0 0 0 0 0 0 0 0 0 0 0 0 0 0 0 0 0 0 0 0 0 0 0 0 0 0 0 0 0 0 0 0 0 0 0 0 0 0 0 0 0 0 0 0 0 0 0 0 0 0 0 0 0 0 0 0 0 0 0 0 0 0 0 0 0 0 0 0 0 0 0 0 0 0 0 0 0 0 0 0 0 0 0 0 0 0 0 0 0 0 0 0 0 0 0 0 0 0 0 0 0 0 0 0 0 0 0 0 0 0 0 0 0 0 0 0 0 0 0 0 0 0 0 0 0 0 0 0 0 0 0 0 0 0 0 0 0 0 0 0 0 0 0 0 0 0 0 0 0 0 0 0 0 0 0 0 0 0 0 0 0 0 0 0 0 0 0 0 0 0 0 0 0 0 0 0 0 0 0 0 0 0 0 0 0 0 0 0 0 0 0 0 0 0 0 0 0 0 0 0 0 0 0 0 0 0 0 0 0 0 0 0 0 0 0 0 0 0 0 0 0 0 0 0 0 0 0 0 0 0 0 0 0 0 0 0 0 0 0 0 0 0 0 0 0 0 0 0 0 0 0 0 0 0 0 0 0 0 0 0 0 0 0 0 0 0 0 0 0 0 0 0 0 0 0 0 0 0 0 0 0 0 0 0 0 0 0 0 0 0 0 0 0 0 0 0 0 0 0 0 0 0 0 0 0 0 0 0 0 0 0 0 0 0 0 0 0 0 0 0 0 0 0 0 0 0 0 0 0 0 0 0 0 0 0 0 0 0 0 0 0 0 0 0 0 0 0 0 0 0 0 0 0 0 0 0 0 0 0 0 0 0 0 0 0 0 0 0 0 0 0 0 0 0 0 0 0 0 0 0 0 0 0 0 0 0 0 0 0 0 0 0 0 0 0 0 0 0 0 0 0 0 0 0 0 0 0 0 0 0 0 0 0 0 0 0 0 0 0 0 0 0 0 0 0 0 0 0 0 0 0 0 0 0 0 0 0 0 0 0 0 0 0 0 0 0 0 0 0 0 0 0 0 0 0 0 0 0 0 0 0 0 0 0 0 0 0 0 0 0 0 0 0 0 0 0 0 0 0 0 0 0 0 0 0 0 0 0 0 0 0 0 0 0 0 0 0 0 0 0 0 0 0 0 0 0 0 0 0 0 0 0 0 0 0 0 0 0 0 0 0 0 0 0 0 0 0 0 0 0 0 0 0 0 0 0 0 0 0 0 0 0 0 0 0 0 0 0 0 0 0 0 0 0 0 0 0 0 0 0 0 0 0 0 0 0 0 0 0 0 0 0 0 0 0 0 0 0 0 0 0 0 0 0 0 0 0 0 0 0 0 0 0 0 0 0 0 0 0 0 0 0 0 0 0 0 0 0 0 0 0 0 0 0 0 0 0 0 0 0 0 0 0 0 0 0 0 0 0 0 0 0 0 0 0 0 0 0 0 0 0 0 0 0 0 0 0 0 0 0 0 0 0 0 0 0 0 0 0 0 0 0 0 0 0 0 0 0 0 0 0 0 0 0 0 0 0 0 0 0 0 0 0 0 0 0 0 0 0 0 0 0 0 0 0 0 0 0 0 0 0 0 0 0 0 0 0 0 0 0 0 0 0 0 0 0 0 0 0 0 0 0 0 0 0 0 0 0 0 0 0 0 0 0 0 0 0 0 0 0 0 0 0 0 0 0 0 0 0 0 0 0 0 0 0 0 0 0 0 0 0 0 0 0 0 0 0 0 0 0 0 0 0 0 0 0 0 0 0 0 0 0 0 0 0 0 0 0 0 0 0 0 0 0 0 0 0 0 0 0 0 0 0 0 0 0 0 0 0 0 0 0 0 0 0 0 0 0 0 0 0 0 0 0 0 0 0 0 0 0 0 0 0 0 0 0 0 0 0 0 0 0 0 0 0 0 0 0 0 0 0 0 0 0 0 0 0 0 0 0 0 0 0 0 0 0 0 0 0 0 0 0 0 0 0 0 0 0 0 0 0 0 0 0 0 0 0 0 0 0 0 0 0 0 0 0 0 0 0 0 0 0 0 0 0 0 0 0 0 0 0 0 0 0 0 0 0 0 0 0 0 0 0 0 0 0 0 0 0 0 0 0 0 0 0 0 0 0 0 0 0 0 0 0 0 0 0 0 0 0 0 0 0 0 0 0 0 0 0 0 0 0 0 0 0 0 0 0 0 0 0 0 0 0 0 0 0 0 0 0 0 0 0 0 0 0 0 0 0 0 0 0 0 0 0 0 0 0 0 0 0 0 0 0 0 0 0 0 0 0 0 0 0 0 0 0 0 0 0 0 0 0 0 0 0 0 0 0 0 </DataArray>
        <DataArray type="Int64" IdType="1" Name="vtkOriginalCellIds" format="ascii" RangeMin="0" RangeMax="13803">0 1 2 3 4 5 6 7 8 9 10 11 12 13 14 15 16 17 18 19 20 21 22 23 24 25 26 27 28 29 30 31 32 33 34 35 36 37 38 39 40 41 42 43 44 45 46 47 48 49 50 51 52 53 54 55 56 57 58 59 60 61 62 63 64 65 66 67 68 69 70 71 72 73 74 75 76 77 78 79 80 81 82 83 84 85 86 87 88 89 90 91 92 93 94 95 96 97 98 99 100 101 102 103 104 105 106 107 108 109 110 111 112 113 114 115 116 117 118 119 120 121 122 123 124 125 126 127 128 129 130 131 132 133 134 135 136 137 138 139 140 141 142 143 144 145 146 147 148 149 150 151 152 153 154 155 156 157 158 159 160 161 162 163 164 165 166 167 168 169 170 171 172 173 174 175 176 177 178 179 180 181 182 183 184 185 186 187 188 189 190 191 192 193 194 195 196 197 198 199 200 201 202 203 204 205 206 207 208 209 210 211 212 213 214 215 216 217 218 219 220 221 222 223 224 225 226 227 228 229 230 231 232 233 234 235 236 237 238 239 240 241 242 243 244 245 246 247 248 249 250 251 252 253 254 255 256 257 258 259 260 261 262 263 264 265 266 267 268 269 270 271 272 273 274 275 276 277 278 279 280 281 282 283 284 285 286 287 288 289 290 291 292 293 294 295 296 297 298 299 300 301 302 303 304 305 306 307 308 309 310 311 312 313 314 315 316 317 318 319 320 321 322 323 324 325 326 327 328 329 330 331 332 333 334 335 336 337 338 339 340 341 342 343 344 345 346 347 348 349 350 351 352 353 354 355 356 357 358 359 360 361 362 363 364 365 366 367 368 369 370 371 372 373 374 375 376 377 378 379 380 381 382 383 384 385 386 387 388 389 390 391 392 393 394 395 396 397 398 399 400 401 402 403 404 405 406 407 408 409 410 411 412 413 414 415 416 417 418 419 420 421 422 423 424 425 426 427 428 429 430 431 432 433 434 435 436 437 438 439 440 441 442 443 444 445 446 447 448 449 450 451 452 453 454 455 456 457 458 459 460 461 462 463 464 465 466 467 468 469 470 471 472 473 474 475 476 477 478 479 480 481 482 483 484 485 486 487 488 489 490 491 492 493 494 495 496 497 498 499 500 501 502 503 504 505 506 507 508 509 510 511 512 513 514 515 516 517 518 519 520 521 522 523 524 525 526 527 528 529 530 531 532 533 534 535 536 537 538 539 540 541 542 543 544 545 546 547 548 549 550 551 552 553 554 555 556 557 558 559 560 561 562 563 564 565 566 567 568 569 570 571 572 573 574 575 576 577 578 579 580 581 582 583 584 585 586 587 588 589 590 591 592 593 594 595 596 597 598 599 600 601 602 603 604 605 606 607 608 609 610 611 612 613 614 615 616 617 618 619 620 621 622 623 624 625 626 627 628 629 630 631 632 633 634 635 636 637 638 639 640 641 642 643 644 645 646 647 648 649 650 651 652 653 654 655 656 657 658 659 660 661 662 663 664 665 666 667 668 669 670 671 672 673 674 675 676 677 678 679 680 681 682 683 684 685 686 687 688 689 690 691 692 693 694 695 696 697 698 699 700 701 702 703 704 705 706 707 708 709 710 711 712 713 714 715 716 717 718 719 720 721 722 723 724 725 726 727 728 729 730 731 732 733 734 735 736 737 738 739 740 741 742 743 744 745 746 747 748 749 750 751 752 753 754 755 756 757 758 759 760 761 762 763 764 765 766 767 768 769 770 771 772 773 774 775 776 777 778 779 780 781 782 783 784 785 786 787 788 789 790 791 792 793 794 795 796 797 798 799 800 801 802 803 804 805 806 807 808 809 810 811 812 813 814 815 816 817 818 819 820 821 822 823 824 825 826 827 828 829 830 831 832 833 834 835 836 837 838 839 840 841 842 843 844 845 846 847 848 849 850 851 852 853 854 855 856 857 858 859 860 861 862 863 864 865 866 867 868 869 870 871 872 873 874 875 876 877 878 879 880 881 882 883 884 885 886 887 888 889 890 891 892 893 894 895 896 897 898 899 900 901 902 903 904 905 906 907 908 909 910 911 912 913 914 915 916 917 918 919 920 921 922 923 924 925 926 927 928 929 930 931 932 933 934 935 936 937 938 939 940 941 942 943 944 945 946 947 948 949 950 951 952 953 954 955 956 957 958 959 960 961 962 963 964 965 966 967 968 969 970 971 972 973 974 975 976 977 978 979 980 981 982 983 984 985 986 987 988 989 990 991 992 993 994 995 996 997 998 999 1000 1001 1002 1003 1004 1005 1006 1007 1008 1009 1010 1011 1012 1013 1014 1015 1016 1017 1018 1019 1020 1021 1022 1023 1024 1025 1026 1027 1028 1029 1030 1031 1032 1033 1034 1035 1036 1037 1038 1039 1040 1041 1042 1043 1044 1045 1046 1047 1048 1049 1050 1051 1052 1053 1054 1055 1056 1057 1058 1059 1060 1061 1062 1063 1064 1065 1066 1067 1068 1069 1070 1071 1072 1073 1074 1075 1076 1077 1078 1079 1080 1081 1082 1083 1084 1085 1086 1087 1088 1089 1090 1091 1092 1093 1094 1095 1096 1097 1098 1099 1100 1101 1102 1103 1104 1105 1106 1107 1108 1109 1110 1111 1112 1113 1114 1115 1116 1117 1118 1119 1120 1121 1122 1123 1124 1125 1126 1127 1128 1129 1130 1131 1132 1133 1134 1135 1136 1137 1138 1139 1140 1141 1142 1143 1144 1145 1146 1147 1148 1149 1150 1151 1152 1153 1154 1155 1156 1157 1158 1159 1160 1161 1162 1163 1164 1165 1166 1167 1168 1169 1170 1171 1172 1173 1174 1175 1176 1177 1178 1179 1180 1181 1182 1183 1184 1185 1186 1187 1188 1189 1190 1191 1192 1193 1194 1195 1196 1197 1198 1199 1200 1201 1202 1203 1204 1205 1206 1207 1208 1209 1210 1211 1212 1213 1214 1215 1216 1217 1218 1219 1220 1221 1222 1223 1224 1225 1226 1227 1228 1229 1230 1231 1232 1233 1234 1235 1236 1237 1238 1239 1240 1241 1242 1243 1244 1245 1246 1247 1248 1249 1250 1251 1252 1253 1254 1255 1256 1257 1258 1259 1260 1261 1262 1263 1264 1265 1266 1267 1268 1269 1270 1271 1272 1273 1274 1275 1276 1277 1278 1279 1280 1281 1282 1283 1284 1285 1286 1287 1288 1289 1290 1291 1292 1293 1294 1295 1296 1297 1298 1299 1300 1301 1302 1303 1304 1305 1306 1307 1308 1309 1310 1311 1312 1313 1314 1315 1316 1317 1318 1319 1320 1321 1322 1323 1324 1325 1326 1327 1328 1329 1330 1331 1332 1333 1334 1335 1336 1337 1338 1339 1340 1341 1342 1343 1344 1345 1346 1347 1348 1349 1350 1351 1352 1353 1354 1355 1356 1357 1358 1359 1360 1361 1362 1363 1364 1365 1366 1367 1368 1369 1370 1371 1372 1373 1374 1375 1376 1377 1378 1379 1380 1381 1382 1383 1384 1385 1386 1387 1388 1389 1390 1391 1392 1393 1394 1395 1396 1397 1398 1399 1400 1401 1402 1403 1404 1405 1406 1407 1408 1409 1410 1411 1412 1413 1414 1415 1416 1417 1418 1419 1420 1421 1422 1423 1424 1425 1426 1427 1428 1429 1430 1431 1432 1433 1434 1435 1436 1437 1438 1439 1440 1441 1442 1443 1444 1445 1446 1447 1448 1449 1450 1451 1452 1453 1454 1455 1456 1457 1458 1459 1460 1461 1462 1463 1464 1465 1466 1467 1468 1469 1470 1471 1472 1473 1474 1475 1476 1477 1478 1479 1480 1481 1482 1483 1484 1485 1486 1487 1488 1489 1490 1491 1492 1493 1494 1495 1496 1497 1498 1499 1500 1501 1502 1503 1504 1505 1506 1507 1508 1509 1510 1511 1512 1513 1514 1515 1516 1517 1518 1519 1520 1521 1522 1523 1524 1525 1526 1527 1528 1529 1530 1531 1532 1533 1534 1535 1536 1537 1538 1539 1540 1541 1542 1543 1544 1545 1546 1547 1548 1549 1550 1551 1552 1553 1554 1555 1556 1557 1558 1559 1560 1561 1562 1563 1564 1565 1566 1567 1568 1569 1570 1571 1572 1573 1574 1575 1576 1577 1578 1579 1580 1581 1582 1583 1584 1585 1586 1587 1588 1589 1590 1591 1592 1593 1594 1595 1596 1597 1598 1599 1600 1601 1602 1603 1604 1605 1606 1607 1608 1609 1610 1611 1612 1613 1614 1615 1616 1617 1618 1619 1620 1621 1622 1623 1624 1625 1626 1627 1628 1629 1630 1631 1632 1633 1634 1635 1636 1637 1638 1639 1640 1641 1642 1643 1644 1645 1646 1647 1648 1649 1650 1651 1652 1653 1654 1655 1656 1657 1658 1659 1660 1661 1662 1663 1664 1665 1666 1667 1668 1669 1670 1671 1672 1673 1674 1675 1676 1677 1678 1679 1680 1681 1682 1683 1684 1685 1686 1687 1688 1689 1690 1691 1692 1693 1694 1695 1696 1697 1698 1699 1700 1701 1702 1703 1704 1705 1706 1707 1708 1709 1710 1711 1712 1713 1714 1715 1716 1717 1718 1719 1720 1721 1722 1723 1724 1725 1726 1727 1728 1729 1730 1731 1732 1733 1734 1735 1736 1737 1738 1739 1740 1741 1742 1743 1744 1745 1746 1747 1748 1749 1750 1751 1752 1753 1754 1755 1756 1757 1758 1759 1760 1761 1762 1763 1764 1765 1766 1767 1768 1769 1770 1771 1772 1773 1774 1775 1776 1777 1778 1779 1780 1781 1782 1783 1784 1785 1786 1787 1788 1789 1790 1791 1792 1793 1794 1795 1796 1797 1798 1799 1800 1801 1802 1803 1804 1805 1806 1807 1808 1809 1810 1811 1812 1813 1814 1815 1816 1817 1818 1819 1820 1821 1822 1823 1824 1825 1826 1827 1828 1829 1830 1831 1832 1833 1834 1835 1836 1837 1838 1839 1840 1841 1842 1843 1844 1845 1846 1847 1848 1849 1850 1851 1852 1853 1854 1855 1856 1857 1858 1859 1860 1861 1862 1863 1864 1865 1866 1867 1868 1869 1870 1871 1872 1873 1874 1875 1876 1877 1878 1879 1880 1881 1882 1883 1884 1885 1886 1887 1888 1889 1890 1891 1892 1893 1894 1895 1896 1897 1898 1899 1900 1901 1902 1903 1904 1905 1906 1907 1908 1909 1910 1911 1912 1913 1914 1915 1916 1917 1918 1919 1920 1921 1922 1923 1924 1925 1926 1927 1928 1929 1930 1931 1932 1933 1934 1935 1936 1937 1938 1939 1940 1941 1942 1943 1944 1945 1946 1947 1948 1949 1950 1951 1952 1953 1954 1955 1956 1957 1958 1959 1960 1961 1962 1963 1964 1965 1966 1967 1968 1969 1970 1971 1972 1973 1974 1975 1976 1977 1978 1979 1980 1981 1982 1983 1984 1985 1986 1987 1988 1989 1990 1991 1992 1993 1994 1995 1996 1997 1998 1999 2000 2001 2002 2003 2004 2005 2006 2007 2008 2009 2010 2011 2012 2013 2014 2015 2016 2017 2018 2019 2020 2021 2022 2023 2024 2025 2026 2027 2028 2029 2030 2031 2032 2033 2034 2035 2036 2037 2038 2039 2040 2041 2042 2043 2044 2045 2046 2047 2048 2049 2050 2051 2052 2053 2054 2055 2056 2057 2058 2059 2060 2061 2062 2063 2064 2065 2066 2067 2068 2069 2070 2071 2072 2073 2074 2075 2076 2077 2078 2079 2080 2081 2082 2083 2084 2085 2086 2087 2088 2089 2090 2091 2092 2093 2094 2095 2096 2097 2098 2099 2100 2101 2102 2103 2104 2105 2106 2107 2108 2109 2110 2111 2112 2113 2114 2115 2116 2117 2118 2119 2120 2121 2122 2123 2124 2125 2126 2127 2128 2129 2130 2131 2132 2133 2134 2135 2136 2137 2138 2139 2140 2141 2142 2143 2144 2145 2146 2147 2148 2149 2150 2151 2152 2153 2154 2155 2156 2157 2158 2159 2160 2161 2162 2163 2164 2165 2166 2167 2168 2169 2170 2171 2172 2173 2174 2175 2176 2177 2178 2179 2180 2181 2182 2183 2184 2185 2186 2187 2188 2189 2190 2191 2192 2193 2194 2195 2196 2197 2198 2199 2200 2201 2202 2203 2204 2205 2206 2207 2208 2209 2210 2211 2212 2213 2214 2215 2216 2217 2218 2219 2220 2221 2222 2223 2224 2225 2226 2227 2228 2229 2230 2231 2232 2233 2234 2235 2236 2237 2238 2239 2240 2241 2242 2243 2244 2245 2246 2247 2248 2249 2250 2251 2252 2253 2254 2255 2256 2257 2258 2259 2260 2261 2262 2263 2264 2265 2266 2267 2268 2269 2270 2271 2272 2273 2274 2275 2276 2277 2278 2279 2280 2281 2282 2283 2284 2285 2286 2287 2288 2289 2290 2291 2292 2293 2294 2295 2296 2297 2298 2299 2300 2301 2302 2303 2304 2305 2306 2307 2308 2309 2310 2311 2312 2313 2314 2315 2316 2317 2318 2319 2320 2321 2322 2323 2324 2325 2326 2327 2328 2329 2330 2331 2332 2333 2334 2335 2336 2337 2338 2339 2340 2341 2342 2343 2344 2345 2346 2347 2348 2349 2350 2351 2352 2353 2354 2355 2356 2357 2358 2359 2360 2361 2362 2363 2364 2365 2366 2367 2368 2369 2370 2371 2372 2373 2374 2375 2376 2377 2378 2379 2380 2381 2382 2383 2384 2385 2386 2387 2388 2389 2390 2391 2392 2393 2394 2395 2396 2397 2398 2399 2400 2401 2402 2403 2404 2405 2406 2407 2408 2409 2410 2411 2412 2413 2414 2415 2416 2417 2418 2419 2420 2421 2422 2423 2424 2425 2426 2427 2428 2429 2430 2431 2432 2433 2434 2435 2436 2437 2438 2439 2440 2441 2442 2443 2444 2445 2446 2447 2448 2449 2450 2451 2452 2453 2454 2455 2456 2457 2458 2459 2460 2461 2462 2463 2464 2465 2466 2467 2468 2469 2470 2471 2472 2473 2474 2475 2476 2477 2478 2479 2480 2481 2482 2483 2484 2485 2486 2487 2488 2489 2490 2491 2492 2493 2494 2495 2496 2497 2498 2499 2500 2501 2502 2503 2504 2505 2506 2507 2508 2509 2510 2511 2512 2513 2514 2515 2516 2517 2518 2519 2520 2521 2522 2523 2524 2525 2526 2527 2528 2529 2530 2531 2532 2533 2534 2535 2536 2537 2538 2539 2540 2541 2542 2543 2544 2545 2546 2547 2548 2549 2550 2551 2552 2553 2554 2555 2556 2557 2558 2559 2560 2561 2562 2563 2564 2565 2566 2567 2568 2569 2570 2571 2572 2573 2574 2575 2576 2577 2578 2579 2580 2581 2582 2583 2584 2585 2586 2587 2588 2589 2590 2591 2592 2593 2594 2595 2596 2597 2598 2599 2600 2601 2602 2603 2604 2605 2606 2607 2608 2609 2610 2611 2612 2613 2614 2615 2616 2617 2618 2619 2620 2621 2622 2623 2624 2625 2626 2627 2628 2629 2630 2631 2632 2633 2634 2635 2636 2637 2638 2639 2640 2641 2642 2643 2644 2645 2646 2647 2648 2649 2650 2651 2652 2653 2654 2655 2656 2657 2658 2659 2660 2661 2662 2663 2664 2665 2666 2667 2668 2669 2670 2671 2672 2673 2674 2675 2676 2677 2678 2679 2680 2681 2682 2683 2684 2685 2686 2687 2688 2689 2690 2691 2692 2693 2694 2695 2696 2697 2698 2699 2700 2701 2702 2703 2704 2705 2706 2707 2708 2709 2710 2711 2712 2713 2714 2715 2716 2717 2718 2719 2720 2721 2722 2723 2724 2725 2726 2727 2728 2729 2730 2731 2732 2733 2734 2735 2736 2737 2738 2739 2740 2741 2742 2743 2744 2745 2746 2747 2748 2749 2750 2751 2752 2753 2754 2755 2756 2757 2758 2759 2760 2761 2762 2763 2764 2765 2766 2767 2768 2769 2770 2771 2772 2773 2774 2775 2776 2777 2778 2779 2780 2781 2782 2783 2784 2785 2786 2787 2788 2789 2790 2791 2792 2793 2794 2795 2796 2797 2798 2799 2800 2801 2802 2803 2804 2805 2806 2807 2808 2809 2810 2811 2812 2813 2814 2815 2816 2817 2818 2819 2820 2821 2822 2823 2824 2825 2826 2827 2828 2829 2830 2831 2832 2833 2834 2835 2836 2837 2838 2839 2840 2841 2842 2843 2844 2845 2846 2847 2848 2849 2850 2851 2852 2853 2854 2855 2856 2857 2858 2859 2860 2861 2862 2863 2864 2865 2866 2867 2868 2869 2870 2871 2872 2873 2874 2875 2876 2877 2878 2879 2880 2881 2882 2883 2884 2885 2886 2887 2888 2889 2890 2891 2892 2893 2894 2895 2896 2897 2898 2899 2900 2901 2902 2903 2904 2905 2906 2907 2908 2909 2910 2911 2912 2913 2914 2915 2916 2917 2918 2919 2920 2921 2922 2923 2924 2925 2926 2927 2928 2929 2930 2931 2932 2933 2934 2935 2936 2937 2938 2939 2940 2941 2942 2943 2944 2945 2946 2947 2948 2949 2950 2951 2952 2953 2954 2955 2956 2957 2958 2959 2960 2961 2962 2963 2964 2965 2966 2967 2968 2969 2970 2971 2972 2973 2974 2975 2976 2977 2978 2979 2980 2981 2982 2983 2984 2985 2986 2987 2988 2989 2990 2991 2992 2993 2994 2995 2996 2997 2998 2999 3000 3001 3002 3003 3004 3005 3006 3007 3008 3009 3010 3011 3012 3013 3014 3015 3016 3017 3018 3019 3020 3021 3022 3023 3024 3025 3026 3027 3028 3029 3030 3031 3032 3033 3034 3035 3036 3037 3038 3039 3040 3041 3042 3043 3044 3045 3046 3047 3048 3049 3050 3051 3052 3053 3054 3055 3056 3057 3058 3059 3060 3061 3062 3063 3064 3065 3066 3067 3068 3069 3070 3071 3072 3073 3074 3075 3076 3077 3078 3079 3080 3081 3082 3083 3084 3085 3086 3087 3088 3089 3090 3091 3092 3093 3094 3095 3096 3097 3098 3099 3100 3101 3102 3103 3104 3105 3106 3107 3108 3109 3110 3111 3112 3113 3114 3115 3116 3117 3118 3119 3120 3121 3122 3123 3124 3125 3126 3127 3128 3129 3130 3131 3132 3133 3134 3135 3136 3137 3138 3139 3140 3141 3142 3143 3144 3145 3146 3147 3148 3149 3150 3151 3152 3153 3154 3155 3156 3157 3158 3159 3160 3161 3162 3163 3164 3165 3166 3167 3168 3169 3170 3171 3172 3173 3174 3175 3176 3177 3178 3179 3180 3181 3182 3183 3184 3185 3186 3187 3188 3189 3190 3191 3192 3193 3194 3195 3196 3197 3198 3199 3200 3201 3202 3203 3204 3205 3206 3207 3208 3209 3210 3211 3212 3213 3214 3215 3216 3217 3218 3219 3220 3221 3222 3223 3224 3225 3226 3227 3228 3229 3230 3231 3232 3233 3234 3235 3236 3237 3238 3239 3240 3241 3242 3243 3244 3245 3246 3247 3248 3249 3250 3251 3252 3253 3254 3255 3256 3257 3258 3259 3260 3261 3262 3263 3264 3265 3266 3267 3268 3269 3270 3271 3272 3273 3274 3275 3276 3277 3278 3279 3280 3281 3282 3283 3284 3285 3286 3287 3288 3289 3290 3291 3292 3293 3294 3295 3296 3297 3298 3299 3300 3301 3302 3303 3304 3305 3306 3307 3308 3309 3310 3311 3312 3313 3314 3315 3316 3317 3318 3319 3320 3321 3322 3323 3324 3325 3326 3327 3328 3329 3330 3331 3332 3333 3334 3335 3336 3337 3338 3339 3340 3341 3342 3343 3344 3345 3346 3347 3348 3349 3350 3351 3352 3353 3354 3355 3356 3357 3358 3359 3360 3361 3362 3363 3364 3365 3366 3367 3368 3369 3370 3371 3372 3373 3374 3375 3376 3377 3378 3379 3380 3381 3382 3383 3384 3385 3386 3387 3388 3389 3390 3391 3392 3393 3394 3395 3396 3397 3398 3399 3400 3401 3402 3403 3404 3405 3406 3407 3408 3409 3410 3411 3412 3413 3414 3415 3416 3417 3418 3419 3420 3421 3422 3423 3424 3425 3426 3427 3428 3429 3430 3431 3432 3433 3434 3435 3436 3437 3438 3439 3440 3441 3442 3443 3444 3445 3446 3447 3448 3449 3450 3451 3452 3453 3454 3455 3456 3457 3458 3459 3460 3461 3462 3463 3464 3465 3466 3467 3468 3469 3470 3471 3472 3473 3474 3475 3476 3477 3478 3479 3480 3481 3482 3483 3484 3485 3486 3487 3488 3489 3490 3491 3492 3493 3494 3495 3496 3497 3498 3499 3500 3501 3502 3503 3504 3505 3506 3507 3508 3509 3510 3511 3512 3513 3514 3515 3516 3517 3518 3519 3520 3521 3522 3523 3524 3525 3526 3527 3528 3529 3530 3531 3532 3533 3534 3535 3536 3537 3538 3539 3540 3541 3542 3543 3544 3545 3546 3547 3548 3549 3550 3551 3552 3553 3554 3555 3556 3557 3558 3559 3560 3561 3562 3563 3564 3565 3566 3567 3568 3569 3570 3571 3572 3573 3574 3575 3576 3577 3578 3579 3580 3581 3582 3583 3584 3585 3586 3587 3588 3589 3590 3591 3592 3593 3594 3595 3596 3597 3598 3599 3600 3601 3602 3603 3604 3605 3606 3607 3608 3609 3610 3611 3612 3613 3614 3615 3616 3617 3618 3619 3620 3621 3622 3623 3624 3625 3626 3627 3628 3629 3630 3631 3632 3633 3634 3635 3636 3637 3638 3639 3640 3641 3642 3643 3644 3645 3646 3647 3648 3649 3650 3651 3652 3653 3654 3655 3656 3657 3658 3659 3660 3661 3662 3663 3664 3665 3666 3667 3668 3669 3670 3671 3672 3673 3674 3675 3676 3677 3678 3679 3680 3681 3682 3683 3684 3685 3686 3687 3688 3689 3690 3691 3692 3693 3694 3695 3696 3697 3698 3699 3700 3701 3702 3703 3704 3705 3706 3707 3708 3709 3710 3711 3712 3713 3714 3715 3716 3717 3718 3719 3720 3721 3722 3723 3724 3725 3726 3727 3728 3729 3730 3731 3732 3733 3734 3735 3736 3737 3738 3739 3740 3741 3742 3743 3744 3745 3746 3747 3748 3749 3750 3751 3752 3753 3754 3755 3756 3757 3758 3759 3760 3761 3762 3763 3764 3765 3766 3767 3768 3769 3770 3771 3772 3773 3774 3775 3776 3777 3778 3779 3780 3781 3782 3783 3784 3785 3786 3787 3788 3789 3790 3791 3792 3793 3794 3795 3796 3797 3798 3799 3800 3801 3802 3803 3804 3805 3806 3807 3808 3809 3810 3811 3812 3813 3814 3815 3816 3817 3818 3819 3820 3821 3822 3823 3824 3825 3826 3827 3828 3829 3830 3831 3832 3833 3834 3835 3836 3837 3838 3839 3840 3841 3842 3843 3844 3845 3846 3847 3848 3849 3850 3851 3852 3853 3854 3855 3856 3857 3858 3859 3860 3861 3862 3863 3864 3865 3866 3867 3868 3869 3870 3871 3872 3873 3874 3875 3876 3877 3878 3879 3880 3881 3882 3883 3884 3885 3886 3887 3888 3889 3890 3891 3892 3893 3894 3895 3896 3897 3898 3899 3900 3901 3902 3903 3904 3905 3906 3907 3908 3909 3910 3911 3912 3913 3914 3915 3916 3917 3918 3919 3920 3921 3922 3923 3924 3925 3926 3927 3928 3929 3930 3931 3932 3933 3934 3935 3936 3937 3938 3939 3940 3941 3942 3943 3944 3945 3946 3947 3948 3949 3950 3951 3952 3953 3954 3955 3956 3957 3958 3959 3960 3961 3962 3963 3964 3965 3966 3967 3968 3969 3970 3971 3972 3973 3974 3975 3976 3977 3978 3979 3980 3981 3982 3983 3984 3985 3986 3987 3988 3989 3990 3991 3992 3993 3994 3995 3996 3997 3998 3999 4000 4001 4002 4003 4004 4005 4006 4007 4008 4009 4010 4011 4012 4013 4014 4015 4016 4017 4018 4019 4020 4021 4022 4023 4024 4025 4026 4027 4028 4029 4030 4031 4032 4033 4034 4035 4036 4037 4038 4039 4040 4041 4042 4043 4044 4045 4046 4047 4048 4049 4050 4051 4052 4053 4054 4055 4056 4057 4058 4059 4060 4061 4062 4063 4064 4065 4066 4067 4068 4069 4070 4071 4072 4073 4074 4075 4076 4077 4078 4079 4080 4081 4082 4083 4084 4085 4086 4087 4088 4089 4090 4091 4092 4093 4094 4095 4096 4097 4098 4099 4100 4101 4102 4103 4104 4105 4106 4107 4108 4109 4110 4111 4112 4113 4114 4115 4116 4117 4118 4119 4120 4121 4122 4123 4124 4125 4126 4127 4128 4129 4130 4131 4132 4133 4134 4135 4136 4137 4138 4139 4140 4141 4142 4143 4144 4145 4146 4147 4148 4149 4150 4151 4152 4153 4154 4155 4156 4157 4158 4159 4160 4161 4162 4163 4164 4165 4166 4167 4168 4169 4170 4171 4172 4173 4174 4175 4176 4177 4178 4179 4180 4181 4182 4183 4184 4185 4186 4187 4188 4189 4190 4191 4192 4193 4194 4195 4196 4197 4198 4199 4200 4201 4202 4203 4204 4205 4206 4207 4208 4209 4210 4211 4212 4213 4214 4215 4216 4217 4218 4219 4220 4221 4222 4223 4224 4225 4226 4227 4228 4229 4230 4231 4232 4233 4234 4235 4236 4237 4238 4239 4240 4241 4242 4243 4244 4245 4246 4247 4248 4249 4250 4251 4252 4253 4254 4255 4256 4257 4258 4259 4260 4261 4262 4263 4264 4265 4266 4267 4268 4269 4270 4271 4272 4273 4274 4275 4276 4277 4278 4279 4280 4281 4282 4283 4284 4285 4286 4287 4288 4289 4290 4291 4292 4293 4294 4295 4296 4297 4298 4299 4300 4301 4302 4303 4304 4305 4306 4307 4308 4309 4310 4311 4312 4313 4314 4315 4316 4317 4318 4319 4320 4321 4322 4323 4324 4325 4326 4327 4328 4329 4330 4331 4332 4333 4334 4335 4336 4337 4338 4339 4340 4341 4342 4343 4344 4345 4346 4347 4348 4349 4350 4351 4352 4353 4354 4355 4356 4357 4358 4359 4360 4361 4362 4363 4364 4365 4366 4367 4368 4369 4370 4371 4372 4373 4374 4375 4376 4377 4378 4379 4380 4381 4382 4383 4384 4385 4386 4387 4388 4389 4390 4391 4392 4393 4394 4395 4396 4397 4398 4399 4400 4401 4402 4403 4404 4405 4406 4407 4408 4409 4410 4411 4412 4413 4414 4415 4416 4417 4418 4419 4420 4421 4422 4423 4424 4425 4426 4427 4428 4429 4430 4431 4432 4433 4434 4435 4436 4437 4438 4439 4440 4441 4442 4443 4444 4445 4446 4447 4448 4449 4450 4451 4452 4453 4454 4455 4456 4457 4458 4459 4460 4461 4462 4463 4464 4465 4466 4467 4468 4469 4470 4471 4472 4473 4474 4475 4476 4477 4478 4479 4480 4481 4482 4483 4484 4485 4486 4487 4488 4489 4490 4491 4492 4493 4494 4495 4496 4497 4498 4499 4500 4501 4502 4503 4504 4505 4506 4507 4508 4509 4510 4511 4512 4513 4514 4515 4516 4517 4518 4519 4520 4521 4522 4523 4524 4525 4526 4527 4528 4529 4530 4531 4532 4533 4534 4535 4536 4537 4538 4539 4540 4541 4542 4543 4544 4545 4546 4547 4548 4549 4550 4551 4552 4553 4554 4555 4556 4557 4558 4559 4560 4561 4562 4563 4564 4565 4566 4567 4568 4569 4570 4571 4572 4573 4574 4575 4576 4577 4578 4579 4580 4581 4582 4583 4584 4585 4586 4587 4588 4589 4590 4591 4592 4593 4594 4595 4596 4597 4598 4599 4600 4601 4602 4603 4604 4605 4606 4607 4608 4609 4610 4611 4612 4613 4614 4615 4616 4617 4618 4619 4620 4621 4622 4623 4624 4625 4626 4627 4628 4629 4630 4631 4632 4633 4634 4635 4636 4637 4638 4639 4640 4641 4642 4643 4644 4645 4646 4647 4648 4649 4650 4651 4652 4653 4654 4655 4656 4657 4658 4659 4660 4661 4662 4663 4664 4665 4666 4667 4668 4669 4670 4671 4672 4673 4674 4675 4676 4677 4678 4679 4680 4681 4682 4683 4684 4685 4686 4687 4688 4689 4690 4691 4692 4693 4694 4695 4696 4697 4698 4699 4700 4701 4702 4703 4704 4705 4706 4707 4708 4709 4710 4711 4712 4713 4714 4715 4716 4717 4718 4719 4720 4721 4722 4723 4724 4725 4726 4727 4728 4729 4730 4731 4732 4733 4734 4735 4736 4737 4738 4739 4740 4741 4742 4743 4744 4745 4746 4747 4748 4749 4750 4751 4752 4753 4754 4755 4756 4757 4758 4759 4760 4761 4762 4763 4764 4765 4766 4767 4768 4769 4770 4771 4772 4773 4774 4775 4776 4777 4778 4779 4780 4781 4782 4783 4784 4785 4786 4787 4788 4789 4790 4791 4792 4793 4794 4795 4796 4797 4798 4799 4800 4801 4802 4803 4804 4805 4806 4807 4808 4809 4810 4811 4812 4813 4814 4815 4816 4817 4818 4819 4820 4821 4822 4823 4824 4825 4826 4827 4828 4829 4830 4831 4832 4833 4834 4835 4836 4837 4838 4839 4840 4841 4842 4843 4844 4845 4846 4847 4848 4849 4850 4851 4852 4853 4854 4855 4856 4857 4858 4859 4860 4861 4862 4863 4864 4865 4866 4867 4868 4869 4870 4871 4872 4873 4874 4875 4876 4877 4878 4879 4880 4881 4882 4883 4884 4885 4886 4887 4888 4889 4890 4891 4892 4893 4894 4895 4896 4897 4898 4899 4900 4901 4902 4903 4904 4905 4906 4907 4908 4909 4910 4911 4912 4913 4914 4915 4916 4917 4918 4919 4920 4921 4922 4923 4924 4925 4926 4927 4928 4929 4930 4931 4932 4933 4934 4935 4936 4937 4938 4939 4940 4941 4942 4943 4944 4945 4946 4947 4948 4949 4950 4951 4952 4953 4954 4955 4956 4957 4958 4959 4960 4961 4962 4963 4964 4965 4966 4967 4968 4969 4970 4971 4972 4973 4974 4975 4976 4977 4978 4979 4980 4981 4982 4983 4984 4985 4986 4987 4988 4989 4990 4991 4992 4993 4994 4995 4996 4997 4998 4999 5000 5001 5002 5003 5004 5005 5006 5007 5008 5009 5010 5011 5012 5013 5014 5015 5016 5017 5018 5019 5020 5021 5022 5023 5024 5025 5026 5027 5028 5029 5030 5031 5032 5033 5034 5035 5036 5037 5038 5039 5040 5041 5042 5043 5044 5045 5046 5047 5048 5049 5050 5051 5052 5053 5054 5055 5056 5057 5058 5059 5060 5061 5062 5063 5064 5065 5066 5067 5068 5069 5070 5071 5072 5073 5074 5075 5076 5077 5078 5079 5080 5081 5082 5083 5084 5085 5086 5087 5088 5089 5090 5091 5092 5093 5094 5095 5096 5097 5098 5099 5100 5101 5102 5103 5104 5105 5106 5107 5108 5109 5110 5111 5112 5113 5114 5115 5116 5117 5118 5119 5120 5121 5122 5123 5124 5125 5126 5127 5128 5129 5130 5131 5132 5133 5134 5135 5136 5137 5138 5139 5140 5141 5142 5143 5144 5145 5146 5147 5148 5149 5150 5151 5152 5153 5154 5155 5156 5157 5158 5159 5160 5161 5162 5163 5164 5165 5166 5167 5168 5169 5170 5171 5172 5173 5174 5175 5176 5177 5178 5179 5180 5181 5182 5183 5184 5185 5186 5187 5188 5189 5190 5191 5192 5193 5194 5195 5196 5197 5198 5199 5200 5201 5202 5203 5204 5205 5206 5207 5208 5209 5210 5211 5212 5213 5214 5215 5216 5217 5218 5219 5220 5221 5222 5223 5224 5225 5226 5227 5228 5229 5230 5231 5232 5233 5234 5235 5236 5237 5238 5239 5240 5241 5242 5243 5244 5245 5246 5247 5248 5249 5250 5251 5252 5253 5254 5255 5256 5257 5258 5259 5260 5261 5262 5263 5264 5265 5266 5267 5268 5269 5270 5271 5272 5273 5274 5275 5276 5277 5278 5279 5280 5281 5282 5283 5284 5285 5286 5287 5288 5289 5290 5291 5292 5293 5294 5295 5296 5297 5298 5299 5300 5301 5302 5303 5304 5305 5306 5307 5308 5309 5310 5311 5312 5313 5314 5315 5316 5317 5318 5319 5320 5321 5322 5323 5324 5325 5326 5327 5328 5329 5330 5331 5332 5333 5334 5335 5336 5337 5338 5339 5340 5341 5342 5343 5344 5345 5346 5347 5348 5349 5350 5351 5352 5353 5354 5355 5356 5357 5358 5359 5360 5361 5362 5363 5364 5365 5366 5367 5368 5369 5370 5371 5372 5373 5374 5375 5376 5377 5378 5379 5380 5381 5382 5383 5384 5385 5386 5387 5388 5389 5390 5391 5392 5393 5394 5395 5396 5397 5398 5399 5400 5401 5402 5403 5404 5405 5406 5407 5408 5409 5410 5411 5412 5413 5414 5415 5416 5417 5418 5419 5420 5421 5422 5423 5424 5425 5426 5427 5428 5429 5430 5431 5432 5433 5434 5435 5436 5437 5438 5439 5440 5441 5442 5443 5444 5445 5446 5447 5448 5449 5450 5451 5452 5453 5454 5455 5456 5457 5458 5459 5460 5461 5462 5463 5464 5465 5466 5467 5468 5469 5470 5471 5472 5473 5474 5475 5476 5477 5478 5479 5480 5481 5482 5483 5484 5485 5486 5487 5488 5489 5490 5491 5492 5493 5494 5495 5496 5497 5498 5499 5500 5501 5502 5503 5504 5505 5506 5507 5508 5509 5510 5511 5512 5513 5514 5515 5516 5517 5518 5519 5520 5521 5522 5523 5524 5525 5526 5527 5528 5529 5530 5531 5532 5533 5534 5535 5536 5537 5538 5539 5540 5541 5542 5543 5544 5545 5546 5547 5548 5549 5550 5551 5552 5553 5554 5555 5556 5557 5558 5559 5560 5561 5562 5563 5564 5565 5566 5567 5568 5569 5570 5571 5572 5573 5574 5575 5576 5577 5578 5579 5580 5581 5582 5583 5584 5585 5586 5587 5588 5589 5590 5591 5592 5593 5594 5595 5596 5597 5598 5599 5600 5601 5602 5603 5604 5605 5606 5607 5608 5609 5610 5611 5612 5613 5614 5615 5616 5617 5618 5619 5620 5621 5622 5623 5624 5625 5626 5627 5628 5629 5630 5631 5632 5633 5634 5635 5636 5637 5638 5639 5640 5641 5642 5643 5644 5645 5646 5647 5648 5649 5650 5651 5652 5653 5654 5655 5656 5657 5658 5659 5660 5661 5662 5663 5664 5665 5666 5667 5668 5669 5670 5671 5672 5673 5674 5675 5676 5677 5678 5679 5680 5681 5682 5683 5684 5685 5686 5687 5688 5689 5690 5691 5692 5693 5694 5695 5696 5697 5698 5699 5700 5701 5702 5703 5704 5705 5706 5707 5708 5709 5710 5711 5712 5713 5714 5715 5716 5717 5718 5719 5720 5721 5722 5723 5724 5725 5726 5727 5728 5729 5730 5731 5732 5733 5734 5735 5736 5737 5738 5739 5740 5741 5742 5743 5744 5745 5746 5747 5748 5749 5750 5751 5752 5753 5754 5755 5756 5757 5758 5759 5760 5761 5762 5763 5764 5765 5766 5767 5768 5769 5770 5771 5772 5773 5774 5775 5776 5777 5778 5779 5780 5781 5782 5783 5784 5785 5786 5787 5788 5789 5790 5791 5792 5793 5794 5795 5796 5797 5798 5799 5800 5801 5802 5803 5804 5805 5806 5807 5808 5809 5810 5811 5812 5813 5814 5815 5816 5817 5818 5819 5820 5821 5822 5823 5824 5825 5826 5827 5828 5829 5830 5831 5832 5833 5834 5835 5836 5837 5838 5839 5840 5841 5842 5843 5844 5845 5846 5847 5848 5849 5850 5851 5852 5853 5854 5855 5856 5857 5858 5859 5860 5861 5862 5863 5864 5865 5866 5867 5868 5869 5870 5871 5872 5873 5874 5875 5876 5877 5878 5879 5880 5881 5882 5883 5884 5885 5886 5887 5888 5889 5890 5891 5892 5893 5894 5895 5896 5897 5898 5899 5900 5901 5902 5903 5904 5905 5906 5907 5908 5909 5910 5911 5912 5913 5914 5915 5916 5917 5918 5919 5920 5921 5922 5923 5924 5925 5926 5927 5928 5929 5930 5931 5932 5933 5934 5935 5936 5937 5938 5939 5940 5941 5942 5943 5944 5945 5946 5947 5948 5949 5950 5951 5952 5953 5954 5955 5956 5957 5958 5959 5960 5961 5962 5963 5964 5965 5966 5967 5968 5969 5970 5971 5972 5973 5974 5975 5976 5977 5978 5979 5980 5981 5982 5983 5984 5985 5986 5987 5988 5989 5990 5991 5992 5993 5994 5995 5996 5997 5998 5999 6000 6001 6002 6003 6004 6005 6006 6007 6008 6009 6010 6011 6012 6013 6014 6015 6016 6017 6018 6019 6020 6021 6022 6023 6024 6025 6026 6027 6028 6029 6030 6031 6032 6033 6034 6035 6036 6037 6038 6039 6040 6041 6042 6043 6044 6045 6046 6047 6048 6049 6050 6051 6052 6053 6054 6055 6056 6057 6058 6059 6060 6061 6062 6063 6064 6065 6066 6067 6068 6069 6070 6071 6072 6073 6074 6075 6076 6077 6078 6079 6080 6081 6082 6083 6084 6085 6086 6087 6088 6089 6090 6091 6092 6093 6094 6095 6096 6097 6098 6099 6100 6101 6102 6103 6104 6105 6106 6107 6108 6109 6110 6111 6112 6113 6114 6115 6116 6117 6118 6119 6120 6121 6122 6123 6124 6125 6126 6127 6128 6129 6130 6131 6132 6133 6134 6135 6136 6137 6138 6139 6140 6141 6142 6143 6144 6145 6146 6147 6148 6149 6150 6151 6152 6153 6154 6155 6156 6157 6158 6159 6160 6161 6162 6163 6164 6165 6166 6167 6168 6169 6170 6171 6172 6173 6174 6175 6176 6177 6178 6179 6180 6181 6182 6183 6184 6185 6186 6187 6188 6189 6190 6191 6192 6193 6194 6195 6196 6197 6198 6199 6200 6201 6202 6203 6204 6205 6206 6207 6208 6209 6210 6211 6212 6213 6214 6215 6216 6217 6218 6219 6220 6221 6222 6223 6224 6225 6226 6227 6228 6229 6230 6231 6232 6233 6234 6235 6236 6237 6238 6239 6240 6241 6242 6243 6244 6245 6246 6247 6248 6249 6250 6251 6252 6253 6254 6255 6256 6257 6258 6259 6260 6261 6262 6263 6264 6265 6266 6267 6268 6269 6270 6271 6272 6273 6274 6275 6276 6277 6278 6279 6280 6281 6282 6283 6284 6285 6286 6287 6288 6289 6290 6291 6292 6293 6294 6295 6296 6297 6298 6299 6300 6301 6302 6303 6304 6305 6306 6307 6308 6309 6310 6311 6312 6313 6314 6315 6316 6317 6318 6319 6320 6321 6322 6323 6324 6325 6326 6327 6328 6329 6330 6331 6332 6333 6334 6335 6336 6337 6338 6339 6340 6341 6342 6343 6344 6345 6346 6347 6348 6349 6350 6351 6352 6353 6354 6355 6356 6357 6358 6359 6360 6361 6362 6363 6364 6365 6366 6367 6368 6369 6370 6371 6372 6373 6374 6375 6376 6377 6378 6379 6380 6381 6382 6383 6384 6385 6386 6387 6388 6389 6390 6391 6392 6393 6394 6395 6396 6397 6398 6399 6400 6401 6402 6403 6404 6405 6406 6407 6408 6409 6410 6411 6412 6413 6414 6415 6416 6417 6418 6419 6420 6421 6422 6423 6424 6425 6426 6427 6428 6429 6430 6431 6432 6433 6434 6435 6436 6437 6438 6439 6440 6441 6442 6443 6444 6445 6446 6447 6448 6449 6450 6451 6452 6453 6454 6455 6456 6457 6458 6459 6460 6461 6462 6463 6464 6465 6466 6467 6468 6469 6470 6471 6472 6473 6474 6475 6476 6477 6478 6479 6480 6481 6482 6483 6484 6485 6486 6487 6488 6489 6490 6491 6492 6493 6494 6495 6496 6497 6498 6499 6500 6501 6502 6503 6504 6505 6506 6507 6508 6509 6510 6511 6512 6513 6514 6515 6516 6517 6518 6519 6520 6521 6522 6523 6524 6525 6526 6527 6528 6529 6530 6531 6532 6533 6534 6535 6536 6537 6538 6539 6540 6541 6542 6543 6544 6545 6546 6547 6548 6549 6550 6551 6552 6553 6554 6555 6556 6557 6558 6559 6560 6561 6562 6563 6564 6565 6566 6567 6568 6569 6570 6571 6572 6573 6574 6575 6576 6577 6578 6579 6580 6581 6582 6583 6584 6585 6586 6587 6588 6589 6590 6591 6592 6593 6594 6595 6596 6597 6598 6599 6600 6601 6602 6603 6604 6605 6606 6607 6608 6609 6610 6611 6612 6613 6614 6615 6616 6617 6618 6619 6620 6621 6622 6623 6624 6625 6626 6627 6628 6629 6630 6631 6632 6633 6634 6635 6636 6637 6638 6639 6640 6641 6642 6643 6644 6645 6646 6647 6648 6649 6650 6651 6652 6653 6654 6655 6656 6657 6658 6659 6660 6661 6662 6663 6664 6665 6666 6667 6668 6669 6670 6671 6672 6673 6674 6675 6676 6677 6678 6679 6680 6681 6682 6683 6684 6685 6686 6687 6688 6689 6690 6691 6692 6693 6694 6695 6696 6697 6698 6699 6700 6701 6702 6703 6704 6705 6706 6707 6708 6709 6710 6711 6712 6713 6714 6715 6716 6717 6718 6719 6720 6721 6722 6723 6724 6725 6726 6727 6728 6729 6730 6731 6732 6733 6734 6735 6736 6737 6738 6739 6740 6741 6742 6743 6744 6745 6746 6747 6748 6749 6750 6751 6752 6753 6754 6755 6756 6757 6758 6759 6760 6761 6762 6763 6764 6765 6766 6767 6768 6769 6770 6771 6772 6773 6774 6775 6776 6777 6778 6779 6780 6781 6782 6783 6784 6785 6786 6787 6788 6789 6790 6791 6792 6793 6794 6795 6796 6797 6798 6799 6800 6801 6802 6803 6804 6805 6806 6807 6808 6809 6810 6811 6812 6813 6814 6815 6816 6817 6818 6819 6820 6821 6822 6823 6824 6825 6826 6827 6828 6829 6830 6831 6832 6833 6834 6835 6836 6837 6838 6839 6840 6841 6842 6843 6844 6845 6846 6847 6848 6849 6850 6851 6852 6853 6854 6855 6856 6857 6858 6859 6860 6861 6862 6863 6864 6865 6866 6867 6868 6869 6870 6871 6872 6873 6874 6875 6876 6877 6878 6879 6880 6881 6882 6883 6884 6885 6886 6887 6888 6889 6890 6891 6892 6893 6894 6895 6896 6897 6898 6899 6900 6901 6902 6903 6904 6905 6906 6907 6908 6909 6910 6911 6912 6913 6914 6915 6916 6917 6918 6919 6920 6921 6922 6923 6924 6925 6926 6927 6928 6929 6930 6931 6932 6933 6934 6935 6936 6937 6938 6939 6940 6941 6942 6943 6944 6945 6946 6947 6948 6949 6950 6951 6952 6953 6954 6955 6956 6957 6958 6959 6960 6961 6962 6963 6964 6965 6966 6967 6968 6969 6970 6971 6972 6973 6974 6975 6976 6977 6978 6979 6980 6981 6982 6983 6984 6985 6986 6987 6988 6989 6990 6991 6992 6993 6994 6995 6996 6997 6998 6999 7000 7001 7002 7003 7004 7005 7006 7007 7008 7009 7010 7011 7012 7013 7014 7015 7016 7017 7018 7019 7020 7021 7022 7023 7024 7025 7026 7027 7028 7029 7030 7031 7032 7033 7034 7035 7036 7037 7038 7039 7040 7041 7042 7043 7044 7045 7046 7047 7048 7049 7050 7051 7052 7053 7054 7055 7056 7057 7058 7059 7060 7061 7062 7063 7064 7065 7066 7067 7068 7069 7070 7071 7072 7073 7074 7075 7076 7077 7078 7079 7080 7081 7082 7083 7084 7085 7086 7087 7088 7089 7090 7091 7092 7093 7094 7095 7096 7097 7098 7099 7100 7101 7102 7103 7104 7105 7106 7107 7108 7109 7110 7111 7112 7113 7114 7115 7116 7117 7118 7119 7120 7121 7122 7123 7124 7125 7126 7127 7128 7129 7130 7131 7132 7133 7134 7135 7136 7137 7138 7139 7140 7141 7142 7143 7144 7145 7146 7147 7148 7149 7150 7151 7152 7153 7154 7155 7156 7157 7158 7159 7160 7161 7162 7163 7164 7165 7166 7167 7168 7169 7170 7171 7172 7173 7174 7175 7176 7177 7178 7179 7180 7181 7182 7183 7184 7185 7186 7187 7188 7189 7190 7191 7192 7193 7194 7195 7196 7197 7198 7199 7200 7201 7202 7203 7204 7205 7206 7207 7208 7209 7210 7211 7212 7213 7214 7215 7216 7217 7218 7219 7220 7221 7222 7223 7224 7225 7226 7227 7228 7229 7230 7231 7232 7233 7234 7235 7236 7237 7238 7239 7240 7241 7242 7243 7244 7245 7246 7247 7248 7249 7250 7251 7252 7253 7254 7255 7256 7257 7258 7259 7260 7261 7262 7263 7264 7265 7266 7267 7268 7269 7270 7271 7272 7273 7274 7275 7276 7277 7278 7279 7280 7281 7282 7283 7284 7285 7286 7287 7288 7289 7290 7291 7292 7293 7294 7295 7296 7297 7298 7299 7300 7301 7302 7303 7304 7305 7306 7307 7308 7309 7310 7311 7312 7313 7314 7315 7316 7317 7318 7319 7320 7321 7322 7323 7324 7325 7326 7327 7328 7329 7330 7331 7332 7333 7334 7335 7336 7337 7338 7339 7340 7341 7342 7343 7344 7345 7346 7347 7348 7349 7350 7351 7352 7353 7354 7355 7356 7357 7358 7359 7360 7361 7362 7363 7364 7365 7366 7367 7368 7369 7370 7371 7372 7373 7374 7375 7376 7377 7378 7379 7380 7381 7382 7383 7384 7385 7386 7387 7388 7389 7390 7391 7392 7393 7394 7395 7396 7397 7398 7399 7400 7401 7402 7403 7404 7405 7406 7407 7408 7409 7410 7411 7412 7413 7414 7415 7416 7417 7418 7419 7420 7421 7422 7423 7424 7425 7426 7427 7428 7429 7430 7431 7432 7433 7434 7435 7436 7437 7438 7439 7440 7441 7442 7443 7444 7445 7446 7447 7448 7449 7450 7451 7452 7453 7454 7455 7456 7457 7458 7459 7460 7461 7462 7463 7464 7465 7466 7467 7468 7469 7470 7471 7472 7473 7474 7475 7476 7477 7478 7479 7480 7481 7482 7483 7484 7485 7486 7487 7488 7489 7490 7491 7492 7493 7494 7495 7496 7497 7498 7499 7500 7501 7502 7503 7504 7505 7506 7507 7508 7509 7510 7511 7512 7513 7514 7515 7516 7517 7518 7519 7520 7521 7522 7523 7524 7525 7526 7527 7528 7529 7530 7531 7532 7533 7534 7535 7536 7537 7538 7539 7540 7541 7542 7543 7544 7545 7546 7547 7548 7549 7550 7551 7552 7553 7554 7555 7556 7557 7558 7559 7560 7561 7562 7563 7564 7565 7566 7567 7568 7569 7570 7571 7572 7573 7574 7575 7576 7577 7578 7579 7580 7581 7582 7583 7584 7585 7586 7587 7588 7589 7590 7591 7592 7593 7594 7595 7596 7597 7598 7599 7600 7601 7602 7603 7604 7605 7606 7607 7608 7609 7610 7611 7612 7613 7614 7615 7616 7617 7618 7619 7620 7621 7622 7623 7624 7625 7626 7627 7628 7629 7630 7631 7632 7633 7634 7635 7636 7637 7638 7639 7640 7641 7642 7643 7644 7645 7646 7647 7648 7649 7650 7651 7652 7653 7654 7655 7656 7657 7658 7659 7660 7661 7662 7663 7664 7665 7666 7667 7668 7669 7670 7671 7672 7673 7674 7675 7676 7677 7678 7679 7680 7681 7682 7683 7684 7685 7686 7687 7688 7689 7690 7691 7692 7693 7694 7695 7696 7697 7698 7699 7700 7701 7702 7703 7704 7705 7706 7707 7708 7709 7710 7711 7712 7713 7714 7715 7716 7717 7718 7719 7720 7721 7722 7723 7724 7725 7726 7727 7728 7729 7730 7731 7732 7733 7734 7735 7736 7737 7738 7739 7740 7741 7742 7743 7744 7745 7746 7747 7748 7749 7750 7751 7752 7753 7754 7755 7756 7757 7758 7759 7760 7761 7762 7763 7764 7765 7766 7767 7768 7769 7770 7771 7772 7773 7774 7775 7776 7777 7778 7779 7780 7781 7782 7783 7784 7785 7786 7787 7788 7789 7790 7791 7792 7793 7794 7795 7796 7797 7798 7799 7800 7801 7802 7803 7804 7805 7806 7807 7808 7809 7810 7811 7812 7813 7814 7815 7816 7817 7818 7819 7820 7821 7822 7823 7824 7825 7826 7827 7828 7829 7830 7831 7832 7833 7834 7835 7836 7837 7838 7839 7840 7841 7842 7843 7844 7845 7846 7847 7848 7849 7850 7851 7852 7853 7854 7855 7856 7857 7858 7859 7860 7861 7862 7863 7864 7865 7866 7867 7868 7869 7870 7871 7872 7873 7874 7875 7876 7877 7878 7879 7880 7881 7882 7883 7884 7885 7886 7887 7888 7889 7890 7891 7892 7893 7894 7895 7896 7897 7898 7899 7900 7901 7902 7903 7904 7905 7906 7907 7908 7909 7910 7911 7912 7913 7914 7915 7916 7917 7918 7919 7920 7921 7922 7923 7924 7925 7926 7927 7928 7929 7930 7931 7932 7933 7934 7935 7936 7937 7938 7939 7940 7941 7942 7943 7944 7945 7946 7947 7948 7949 7950 7951 7952 7953 7954 7955 7956 7957 7958 7959 7960 7961 7962 7963 7964 7965 7966 7967 7968 7969 7970 7971 7972 7973 7974 7975 7976 7977 7978 7979 7980 7981 7982 7983 7984 7985 7986 7987 7988 7989 7990 7991 7992 7993 7994 7995 7996 7997 7998 7999 8000 8001 8002 8003 8004 8005 8006 8007 8008 8009 8010 8011 8012 8013 8014 8015 8016 8017 8018 8019 8020 8021 8022 8023 8024 8025 8026 8027 8028 8029 8030 8031 8032 8033 8034 8035 8036 8037 8038 8039 8040 8041 8042 8043 8044 8045 8046 8047 8048 8049 8050 8051 8052 8053 8054 8055 8056 8057 8058 8059 8060 8061 8062 8063 8064 8065 8066 8067 8068 8069 8070 8071 8072 8073 8074 8075 8076 8077 8078 8079 8080 8081 8082 8083 8084 8085 8086 8087 8088 8089 8090 8091 8092 8093 8094 8095 8096 8097 8098 8099 8100 8101 8102 8103 8104 8105 8106 8107 8108 8109 8110 8111 8112 8113 8114 8115 8116 8117 8118 8119 8120 8121 8122 8123 8124 8125 8126 8127 8128 8129 8130 8131 8132 8133 8134 8135 8136 8137 8138 8139 8140 8141 8142 8143 8144 8145 8146 8147 8148 8149 8150 8151 8152 8153 8154 8155 8156 8157 8158 8159 8160 8161 8162 8163 8164 8165 8166 8167 8168 8169 8170 8171 8172 8173 8174 8175 8176 8177 8178 8179 8180 8181 8182 8183 8184 8185 8186 8187 8188 8189 8190 8191 8192 8193 8194 8195 8196 8197 8198 8199 8200 8201 8202 8203 8204 8205 8206 8207 8208 8209 8210 8211 8212 8213 8214 8215 8216 8217 8218 8219 8220 8221 8222 8223 8224 8225 8226 8227 8228 8229 8230 8231 8232 8233 8234 8235 8236 8237 8238 8239 8240 8241 8242 8243 8244 8245 8246 8247 8248 8249 8250 8251 8252 8253 8254 8255 8256 8257 8258 8259 8260 8261 8262 8263 8264 8265 8266 8267 8268 8269 8270 8271 8272 8273 8274 8275 8276 8277 8278 8279 8280 8281 8282 8283 8284 8285 8286 8287 8288 8289 8290 8291 8292 8293 8294 8295 8296 8297 8298 8299 8300 8301 8302 8303 8304 8305 8306 8307 8308 8309 8310 8311 8312 8313 8314 8315 8316 8317 8318 8319 8320 8321 8322 8323 8324 8325 8326 8327 8328 8329 8330 8331 8332 8333 8334 8335 8336 8337 8338 8339 8340 8341 8342 8343 8344 8345 8346 8347 8348 8349 8350 8351 8352 8353 8354 8355 8356 8357 8358 8359 8360 8361 8362 8363 8364 8365 8366 8367 8368 8369 8370 8371 8372 8373 8374 8375 8376 8377 8378 8379 8380 8381 8382 8383 8384 8385 8386 8387 8388 8389 8390 8391 8392 8393 8394 8395 8396 8397 8398 8399 8400 8401 8402 8403 8404 8405 8406 8407 8408 8409 8410 8411 8412 8413 8414 8415 8416 8417 8418 8419 8420 8421 8422 8423 8424 8425 8426 8427 8428 8429 8430 8431 8432 8433 8434 8435 8436 8437 8438 8439 8440 8441 8442 8443 8444 8445 8446 8447 8448 8449 8450 8451 8452 8453 8454 8455 8456 8457 8458 8459 8460 8461 8462 8463 8464 8465 8466 8467 8468 8469 8470 8471 8472 8473 8474 8475 8476 8477 8478 8479 8480 8481 8482 8483 8484 8485 8486 8487 8488 8489 8490 8491 8492 8493 8494 8495 8496 8497 8498 8499 8500 8501 8502 8503 8504 8505 8506 8507 8508 8509 8510 8511 8512 8513 8514 8515 8516 8517 8518 8519 8520 8521 8522 8523 8524 8525 8526 8527 8528 8529 8530 8531 8532 8533 8534 8535 8536 8537 8538 8539 8540 8541 8542 8543 8544 8545 8546 8547 8548 8549 8550 8551 8552 8553 8554 8555 8556 8557 8558 8559 8560 8561 8562 8563 8564 8565 8566 8567 8568 8569 8570 8571 8572 8573 8574 8575 8576 8577 8578 8579 8580 8581 8582 8583 8584 8585 8586 8587 8588 8589 8590 8591 8592 8593 8594 8595 8596 8597 8598 8599 8600 8601 8602 8603 8604 8605 8606 8607 8608 8609 8610 8611 8612 8613 8614 8615 8616 8617 8618 8619 8620 8621 8622 8623 8624 8625 8626 8627 8628 8629 8630 8631 8632 8633 8634 8635 8636 8637 8638 8639 8640 8641 8642 8643 8644 8645 8646 8647 8648 8649 8650 8651 8652 8653 8654 8655 8656 8657 8658 8659 8660 8661 8662 8663 8664 8665 8666 8667 8668 8669 8670 8671 8672 8673 8674 8675 8676 8677 8678 8679 8680 8681 8682 8683 8684 8685 8686 8687 8688 8689 8690 8691 8692 8693 8694 8695 8696 8697 8698 8699 8700 8701 8702 8703 8704 8705 8706 8707 8708 8709 8710 8711 8712 8713 8714 8715 8716 8717 8718 8719 8720 8721 8722 8723 8724 8725 8726 8727 8728 8729 8730 8731 8732 8733 8734 8735 8736 8737 8738 8739 8740 8741 8742 8743 8744 8745 8746 8747 8748 8749 8750 8751 8752 8753 8754 8755 8756 8757 8758 8759 8760 8761 8762 8763 8764 8765 8766 8767 8768 8769 8770 8771 8772 8773 8774 8775 8776 8777 8778 8779 8780 8781 8782 8783 8784 8785 8786 8787 8788 8789 8790 8791 8792 8793 8794 8795 8796 8797 8798 8799 8800 8801 8802 8803 8804 8805 8806 8807 8808 8809 8810 8811 8812 8813 8814 8815 8816 8817 8818 8819 8820 8821 8822 8823 8824 8825 8826 8827 8828 8829 8830 8831 8832 8833 8834 8835 8836 8837 8838 8839 8840 8841 8842 8843 8844 8845 8846 8847 8848 8849 8850 8851 8852 8853 8854 8855 8856 8857 8858 8859 8860 8861 8862 8863 8864 8865 8866 8867 8868 8869 8870 8871 8872 8873 8874 8875 8876 8877 8878 8879 8880 8881 8882 8883 8884 8885 8886 8887 8888 8889 8890 8891 8892 8893 8894 8895 8896 8897 8898 8899 8900 8901 8902 8903 8904 8905 8906 8907 8908 8909 8910 8911 8912 8913 8914 8915 8916 8917 8918 8919 8920 8921 8922 8923 8924 8925 8926 8927 8928 8929 8930 8931 8932 8933 8934 8935 8936 8937 8938 8939 8940 8941 8942 8943 8944 8945 8946 8947 8948 8949 8950 8951 8952 8953 8954 8955 8956 8957 8958 8959 8960 8961 8962 8963 8964 8965 8966 8967 8968 8969 8970 8971 8972 8973 8974 8975 8976 8977 8978 8979 8980 8981 8982 8983 8984 8985 8986 8987 8988 8989 8990 8991 8992 8993 8994 8995 8996 8997 8998 8999 9000 9001 9002 9003 9004 9005 9006 9007 9008 9009 9010 9011 9012 9013 9014 9015 9016 9017 9018 9019 9020 9021 9022 9023 9024 9025 9026 9027 9028 9029 9030 9031 9032 9033 9034 9035 9036 9037 9038 9039 9040 9041 9042 9043 9044 9045 9046 9047 9048 9049 9050 9051 9052 9053 9054 9055 9056 9057 9058 9059 9060 9061 9062 9063 9064 9065 9066 9067 9068 9069 9070 9071 9072 9073 9074 9075 9076 9077 9078 9079 9080 9081 9082 9083 9084 9085 9086 9087 9088 9089 9090 9091 9092 9093 9094 9095 9096 9097 9098 9099 9100 9101 9102 9103 9104 9105 9106 9107 9108 9109 9110 9111 9112 9113 9114 9115 9116 9117 9118 9119 9120 9121 9122 9123 9124 9125 9126 9127 9128 9129 9130 9131 9132 9133 9134 9135 9136 9137 9138 9139 9140 9141 9142 9143 9144 9145 9146 9147 9148 9149 9150 9151 9152 9153 9154 9155 9156 9157 9158 9159 9160 9161 9162 9163 9164 9165 9166 9167 9168 9169 9170 9171 9172 9173 9174 9175 9176 9177 9178 9179 9180 9181 9182 9183 9184 9185 9186 9187 9188 9189 9190 9191 9192 9193 9194 9195 9196 9197 9198 9199 9200 9201 9202 9203 9204 9205 9206 9207 9208 9209 9210 9211 9212 9213 9214 9215 9216 9217 9218 9219 9220 9221 9222 9223 9224 9225 9226 9227 9228 9229 9230 9231 9232 9233 9234 9235 9236 9237 9238 9239 9240 9241 9242 9243 9244 9245 9246 9247 9248 9249 9250 9251 9252 9253 9254 9255 9256 9257 9258 9259 9260 9261 9262 9263 9264 9265 9266 9267 9268 9269 9270 9271 9272 9273 9274 9275 9276 9277 9278 9279 9280 9281 9282 9283 9284 9285 9286 9287 9288 9289 9290 9291 9292 9293 9294 9295 9296 9297 9298 9299 9300 9301 9302 9303 9304 9305 9306 9307 9308 9309 9310 9311 9312 9313 9314 9315 9316 9317 9318 9319 9320 9321 9322 9323 9324 9325 9326 9327 9328 9329 9330 9331 9332 9333 9334 9335 9336 9337 9338 9339 9340 9341 9342 9343 9344 9345 9346 9347 9348 9349 9350 9351 9352 9353 9354 9355 9356 9357 9358 9359 9360 9361 9362 9363 9364 9365 9366 9367 9368 9369 9370 9371 9372 9373 9374 9375 9376 9377 9378 9379 9380 9381 9382 9383 9384 9385 9386 9387 9388 9389 9390 9391 9392 9393 9394 9395 9396 9397 9398 9399 9400 9401 9402 9403 9404 9405 9406 9407 9408 9409 9410 9411 9412 9413 9414 9415 9416 9417 9418 9419 9420 9421 9422 9423 9424 9425 9426 9427 9428 9429 9430 9431 9432 9433 9434 9435 9436 9437 9438 9439 9440 9441 9442 9443 9444 9445 9446 9447 9448 9449 9450 9451 9452 9453 9454 9455 9456 9457 9458 9459 9460 9461 9462 9463 9464 9465 9466 9467 9468 9469 9470 9471 9472 9473 9474 9475 9476 9477 9478 9479 9480 9481 9482 9483 9484 9485 9486 9487 9488 9489 9490 9491 9492 9493 9494 9495 9496 9497 9498 9499 9500 9501 9502 9503 9504 9505 9506 9507 9508 9509 9510 9511 9512 9513 9514 9515 9516 9517 9518 9519 9520 9521 9522 9523 9524 9525 9526 9527 9528 9529 9530 9531 9532 9533 9534 9535 9536 9537 9538 9539 9540 9541 9542 9543 9544 9545 9546 9547 9548 9549 9550 9551 9552 9553 9554 9555 9556 9557 9558 9559 9560 9561 9562 9563 9564 9565 9566 9567 9568 9569 9570 9571 9572 9573 9574 9575 9576 9577 9578 9579 9580 9581 9582 9583 9584 9585 9586 9587 9588 9589 9590 9591 9592 9593 9594 9595 9596 9597 9598 9599 9600 9601 9602 9603 9604 9605 9606 9607 9608 9609 9610 9611 9612 9613 9614 9615 9616 9617 9618 9619 9620 9621 9622 9623 9624 9625 9626 9627 9628 9629 9630 9631 9632 9633 9634 9635 9636 9637 9638 9639 9640 9641 9642 9643 9644 9645 9646 9647 9648 9649 9650 9651 9652 9653 9654 9655 9656 9657 9658 9659 9660 9661 9662 9663 9664 9665 9666 9667 9668 9669 9670 9671 9672 9673 9674 9675 9676 9677 9678 9679 9680 9681 9682 9683 9684 9685 9686 9687 9688 9689 9690 9691 9692 9693 9694 9695 9696 9697 9698 9699 9700 9701 9702 9703 9704 9705 9706 9707 9708 9709 9710 9711 9712 9713 9714 9715 9716 9717 9718 9719 9720 9721 9722 9723 9724 9725 9726 9727 9728 9729 9730 9731 9732 9733 9734 9735 9736 9737 9738 9739 9740 9741 9742 9743 9744 9745 9746 9747 9748 9749 9750 9751 9752 9753 9754 9755 9756 9757 9758 9759 9760 9761 9762 9763 9764 9765 9766 9767 9768 9769 9770 9771 9772 9773 9774 9775 9776 9777 9778 9779 9780 9781 9782 9783 9784 9785 9786 9787 9788 9789 9790 9791 9792 9793 9794 9795 9796 9797 9798 9799 9800 9801 9802 9803 9804 9805 9806 9807 9808 9809 9810 9811 9812 9813 9814 9815 9816 9817 9818 9819 9820 9821 9822 9823 9824 9825 9826 9827 9828 9829 9830 9831 9832 9833 9834 9835 9836 9837 9838 9839 9840 9841 9842 9843 9844 9845 9846 9847 9848 9849 9850 9851 9852 9853 9854 9855 9856 9857 9858 9859 9860 9861 9862 9863 9864 9865 9866 9867 9868 9869 9870 9871 9872 9873 9874 9875 9876 9877 9878 9879 9880 9881 9882 9883 9884 9885 9886 9887 9888 9889 9890 9891 9892 9893 9894 9895 9896 9897 9898 9899 9900 9901 9902 9903 9904 9905 9906 9907 9908 9909 9910 9911 9912 9913 9914 9915 9916 9917 9918 9919 9920 9921 9922 9923 9924 9925 9926 9927 9928 9929 9930 9931 9932 9933 9934 9935 9936 9937 9938 9939 9940 9941 9942 9943 9944 9945 9946 9947 9948 9949 9950 9951 9952 9953 9954 9955 9956 9957 9958 9959 9960 9961 9962 9963 9964 9965 9966 9967 9968 9969 9970 9971 9972 9973 9974 9975 9976 9977 9978 9979 9980 9981 9982 9983 9984 9985 9986 9987 9988 9989 9990 9991 9992 9993 9994 9995 9996 9997 9998 9999 10000 10001 10002 10003 10004 10005 10006 10007 10008 10009 10010 10011 10012 10013 10014 10015 10016 10017 10018 10019 10020 10021 10022 10023 10024 10025 10026 10027 10028 10029 10030 10031 10032 10033 10034 10035 10036 10037 10038 10039 10040 10041 10042 10043 10044 10045 10046 10047 10048 10049 10050 10051 10052 10053 10054 10055 10056 10057 10058 10059 10060 10061 10062 10063 10064 10065 10066 10067 10068 10069 10070 10071 10072 10073 10074 10075 10076 10077 10078 10079 10080 10081 10082 10083 10084 10085 10086 10087 10088 10089 10090 10091 10092 10093 10094 10095 10096 10097 10098 10099 10100 10101 10102 10103 10104 10105 10106 10107 10108 10109 10110 10111 10112 10113 10114 10115 10116 10117 10118 10119 10120 10121 10122 10123 10124 10125 10126 10127 10128 10129 10130 10131 10132 10133 10134 10135 10136 10137 10138 10139 10140 10141 10142 10143 10144 10145 10146 10147 10148 10149 10150 10151 10152 10153 10154 10155 10156 10157 10158 10159 10160 10161 10162 10163 10164 10165 10166 10167 10168 10169 10170 10171 10172 10173 10174 10175 10176 10177 10178 10179 10180 10181 10182 10183 10184 10185 10186 10187 10188 10189 10190 10191 10192 10193 10194 10195 10196 10197 10198 10199 10200 10201 10202 10203 10204 10205 10206 10207 10208 10209 10210 10211 10212 10213 10214 10215 10216 10217 10218 10219 10220 10221 10222 10223 10224 10225 10226 10227 10228 10229 10230 10231 10232 10233 10234 10235 10236 10237 10238 10239 10240 10241 10242 10243 10244 10245 10246 10247 10248 10249 10250 10251 10252 10253 10254 10255 10256 10257 10258 10259 10260 10261 10262 10263 10264 10265 10266 10267 10268 10269 10270 10271 10272 10273 10274 10275 10276 10277 10278 10279 10280 10281 10282 10283 10284 10285 10286 10287 10288 10289 10290 10291 10292 10293 10294 10295 10296 10297 10298 10299 10300 10301 10302 10303 10304 10305 10306 10307 10308 10309 10310 10311 10312 10313 10314 10315 10316 10317 10318 10319 10320 10321 10322 10323 10324 10325 10326 10327 10328 10329 10330 10331 10332 10333 10334 10335 10336 10337 10338 10339 10340 10341 10342 10343 10344 10345 10346 10347 10348 10349 10350 10351 10352 10353 10354 10355 10356 10357 10358 10359 10360 10361 10362 10363 10364 10365 10366 10367 10368 10369 10370 10371 10372 10373 10374 10375 10376 10377 10378 10379 10380 10381 10382 10383 10384 10385 10386 10387 10388 10389 10390 10391 10392 10393 10394 10395 10396 10397 10398 10399 10400 10401 10402 10403 10404 10405 10406 10407 10408 10409 10410 10411 10412 10413 10414 10415 10416 10417 10418 10419 10420 10421 10422 10423 10424 10425 10426 10427 10428 10429 10430 10431 10432 10433 10434 10435 10436 10437 10438 10439 10440 10441 10442 10443 10444 10445 10446 10447 10448 10449 10450 10451 10452 10453 10454 10455 10456 10457 10458 10459 10460 10461 10462 10463 10464 10465 10466 10467 10468 10469 10470 10471 10472 10473 10474 10475 10476 10477 10478 10479 10480 10481 10482 10483 10484 10485 10486 10487 10488 10489 10490 10491 10492 10493 10494 10495 10496 10497 10498 10499 10500 10501 10502 10503 10504 10505 10506 10507 10508 10509 10510 10511 10512 10513 10514 10515 10516 10517 10518 10519 10520 10521 10522 10523 10524 10525 10526 10527 10528 10529 10530 10531 10532 10533 10534 10535 10536 10537 10538 10539 10540 10541 10542 10543 10544 10545 10546 10547 10548 10549 10550 10551 10552 10553 10554 10555 10556 10557 10558 10559 10560 10561 10562 10563 10564 10565 10566 10567 10568 10569 10570 10571 10572 10573 10574 10575 10576 10577 10578 10579 10580 10581 10582 10583 10584 10585 10586 10587 10588 10589 10590 10591 10592 10593 10594 10595 10596 10597 10598 10599 10600 10601 10602 10603 10604 10605 10606 10607 10608 10609 10610 10611 10612 10613 10614 10615 10616 10617 10618 10619 10620 10621 10622 10623 10624 10625 10626 10627 10628 10629 10630 10631 10632 10633 10634 10635 10636 10637 10638 10639 10640 10641 10642 10643 10644 10645 10646 10647 10648 10649 10650 10651 10652 10653 10654 10655 10656 10657 10658 10659 10660 10661 10662 10663 10664 10665 10666 10667 10668 10669 10670 10671 10672 10673 10674 10675 10676 10677 10678 10679 10680 10681 10682 10683 10684 10685 10686 10687 10688 10689 10690 10691 10692 10693 10694 10695 10696 10697 10698 10699 10700 10701 10702 10703 10704 10705 10706 10707 10708 10709 10710 10711 10712 10713 10714 10715 10716 10717 10718 10719 10720 10721 10722 10723 10724 10725 10726 10727 10728 10729 10730 10731 10732 10733 10734 10735 10736 10737 10738 10739 10740 10741 10742 10743 10744 10745 10746 10747 10748 10749 10750 10751 10752 10753 10754 10755 10756 10757 10758 10759 10760 10761 10762 10763 10764 10765 10766 10767 10768 10769 10770 10771 10772 10773 10774 10775 10776 10777 10778 10779 10780 10781 10782 10783 10784 10785 10786 10787 10788 10789 10790 10791 10792 10793 10794 10795 10796 10797 10798 10799 10800 10801 10802 10803 10804 10805 10806 10807 10808 10809 10810 10811 10812 10813 10814 10815 10816 10817 10818 10819 10820 10821 10822 10823 10824 10825 10826 10827 10828 10829 10830 10831 10832 10833 10834 10835 10836 10837 10838 10839 10840 10841 10842 10843 10844 10845 10846 10847 10848 10849 10850 10851 10852 10853 10854 10855 10856 10857 10858 10859 10860 10861 10862 10863 10864 10865 10866 10867 10868 10869 10870 10871 10872 10873 10874 10875 10876 10877 10878 10879 10880 10881 10882 10883 10884 10885 10886 10887 10888 10889 10890 10891 10892 10893 10894 10895 10896 10897 10898 10899 10900 10901 10902 10903 10904 10905 10906 10907 10908 10909 10910 10911 10912 10913 10914 10915 10916 10917 10918 10919 10920 10921 10922 10923 10924 10925 10926 10927 10928 10929 10930 10931 10932 10933 10934 10935 10936 10937 10938 10939 10940 10941 10942 10943 10944 10945 10946 10947 10948 10949 10950 10951 10952 10953 10954 10955 10956 10957 10958 10959 10960 10961 10962 10963 10964 10965 10966 10967 10968 10969 10970 10971 10972 10973 10974 10975 10976 10977 10978 10979 10980 10981 10982 10983 10984 10985 10986 10987 10988 10989 10990 10991 10992 10993 10994 10995 10996 10997 10998 10999 11000 11001 11002 11003 11004 11005 11006 11007 11008 11009 11010 11011 11012 11013 11014 11015 11016 11017 11018 11019 11020 11021 11022 11023 11024 11025 11026 11027 11028 11029 11030 11031 11032 11033 11034 11035 11036 11037 11038 11039 11040 11041 11042 11043 11044 11045 11046 11047 11048 11049 11050 11051 11052 11053 11054 11055 11056 11057 11058 11059 11060 11061 11062 11063 11064 11065 11066 11067 11068 11069 11070 11071 11072 11073 11074 11075 11076 11077 11078 11079 11080 11081 11082 11083 11084 11085 11086 11087 11088 11089 11090 11091 11092 11093 11094 11095 11096 11097 11098 11099 11100 11101 11102 11103 11104 11105 11106 11107 11108 11109 11110 11111 11112 11113 11114 11115 11116 11117 11118 11119 11120 11121 11122 11123 11124 11125 11126 11127 11128 11129 11130 11131 11132 11133 11134 11135 11136 11137 11138 11139 11140 11141 11142 11143 11144 11145 11146 11147 11148 11149 11150 11151 11152 11153 11154 11155 11156 11157 11158 11159 11160 11161 11162 11163 11164 11165 11166 11167 11168 11169 11170 11171 11172 11173 11174 11175 11176 11177 11178 11179 11180 11181 11182 11183 11184 11185 11186 11187 11188 11189 11190 11191 11192 11193 11194 11195 11196 11197 11198 11199 11200 11201 11202 11203 11204 11205 11206 11207 11208 11209 11210 11211 11212 11213 11214 11215 11216 11217 11218 11219 11220 11221 11222 11223 11224 11225 11226 11227 11228 11229 11230 11231 11232 11233 11234 11235 11236 11237 11238 11239 11240 11241 11242 11243 11244 11245 11246 11247 11248 11249 11250 11251 11252 11253 11254 11255 11256 11257 11258 11259 11260 11261 11262 11263 11264 11265 11266 11267 11268 11269 11270 11271 11272 11273 11274 11275 11276 11277 11278 11279 11280 11281 11282 11283 11284 11285 11286 11287 11288 11289 11290 11291 11292 11293 11294 11295 11296 11297 11298 11299 11300 11301 11302 11303 11304 11305 11306 11307 11308 11309 11310 11311 11312 11313 11314 11315 11316 11317 11318 11319 11320 11321 11322 11323 11324 11325 11326 11327 11328 11329 11330 11331 11332 11333 11334 11335 11336 11337 11338 11339 11340 11341 11342 11343 11344 11345 11346 11347 11348 11349 11350 11351 11352 11353 11354 11355 11356 11357 11358 11359 11360 11361 11362 11363 11364 11365 11366 11367 11368 11369 11370 11371 11372 11373 11374 11375 11376 11377 11378 11379 11380 11381 11382 11383 11384 11385 11386 11387 11388 11389 11390 11391 11392 11393 11394 11395 11396 11397 11398 11399 11400 11401 11402 11403 11404 11405 11406 11407 11408 11409 11410 11411 11412 11413 11414 11415 11416 11417 11418 11419 11420 11421 11422 11423 11424 11425 11426 11427 11428 11429 11430 11431 11432 11433 11434 11435 11436 11437 11438 11439 11440 11441 11442 11443 11444 11445 11446 11447 11448 11449 11450 11451 11452 11453 11454 11455 11456 11457 11458 11459 11460 11461 11462 11463 11464 11465 11466 11467 11468 11469 11470 11471 11472 11473 11474 11475 11476 11477 11478 11479 11480 11481 11482 11483 11484 11485 11486 11487 11488 11489 11490 11491 11492 11493 11494 11495 11496 11497 11498 11499 11500 11501 11502 11503 11504 11505 11506 11507 11508 11509 11510 11511 11512 11513 11514 11515 11516 11517 11518 11519 11520 11521 11522 11523 11524 11525 11526 11527 11528 11529 11530 11531 11532 11533 11534 11535 11536 11537 11538 11539 11540 11541 11542 11543 11544 11545 11546 11547 11548 11549 11550 11551 11552 11553 11554 11555 11556 11557 11558 11559 11560 11561 11562 11563 11564 11565 11566 11567 11568 11569 11570 11571 11572 11573 11574 11575 11576 11577 11578 11579 11580 11581 11582 11583 11584 11585 11586 11587 11588 11589 11590 11591 11592 11593 11594 11595 11596 11597 11598 11599 11600 11601 11602 11603 11604 11605 11606 11607 11608 11609 11610 11611 11612 11613 11614 11615 11616 11617 11618 11619 11620 11621 11622 11623 11624 11625 11626 11627 11628 11629 11630 11631 11632 11633 11634 11635 11636 11637 11638 11639 11640 11641 11642 11643 11644 11645 11646 11647 11648 11649 11650 11651 11652 11653 11654 11655 11656 11657 11658 11659 11660 11661 11662 11663 11664 11665 11666 11667 11668 11669 11670 11671 11672 11673 11674 11675 11676 11677 11678 11679 11680 11681 11682 11683 11684 11685 11686 11687 11688 11689 11690 11691 11692 11693 11694 11695 11696 11697 11698 11699 11700 11701 11702 11703 11704 11705 11706 11707 11708 11709 11710 11711 11712 11713 11714 11715 11716 11717 11718 11719 11720 11721 11722 11723 11724 11725 11726 11727 11728 11729 11730 11731 11732 11733 11734 11735 11736 11737 11738 11739 11740 11741 11742 11743 11744 11745 11746 11747 11748 11749 11750 11751 11752 11753 11754 11755 11756 11757 11758 11759 11760 11761 11762 11763 11764 11765 11766 11767 11768 11769 11770 11771 11772 11773 11774 11775 11776 11777 11778 11779 11780 11781 11782 11783 11784 11785 11786 11787 11788 11789 11790 11791 11792 11793 11794 11795 11796 11797 11798 11799 11800 11801 11802 11803 11804 11805 11806 11807 11808 11809 11810 11811 11812 11813 11814 11815 11816 11817 11818 11819 11820 11821 11822 11823 11824 11825 11826 11827 11828 11829 11830 11831 11832 11833 11834 11835 11836 11837 11838 11839 11840 11841 11842 11843 11844 11845 11846 11847 11848 11849 11850 11851 11852 11853 11854 11855 11856 11857 11858 11859 11860 11861 11862 11863 11864 11865 11866 11867 11868 11869 11870 11871 11872 11873 11874 11875 11876 11877 11878 11879 11880 11881 11882 11883 11884 11885 11886 11887 11888 11889 11890 11891 11892 11893 11894 11895 11896 11897 11898 11899 11900 11901 11902 11903 11904 11905 11906 11907 11908 11909 11910 11911 11912 11913 11914 11915 11916 11917 11918 11919 11920 11921 11922 11923 11924 11925 11926 11927 11928 11929 11930 11931 11932 11933 11934 11935 11936 11937 11938 11939 11940 11941 11942 11943 11944 11945 11946 11947 11948 11949 11950 11951 11952 11953 11954 11955 11956 11957 11958 11959 11960 11961 11962 11963 11964 11965 11966 11967 11968 11969 11970 11971 11972 11973 11974 11975 11976 11977 11978 11979 11980 11981 11982 11983 11984 11985 11986 11987 11988 11989 11990 11991 11992 11993 11994 11995 11996 11997 11998 11999 12000 12001 12002 12003 12004 12005 12006 12007 12008 12009 12010 12011 12012 12013 12014 12015 12016 12017 12018 12019 12020 12021 12022 12023 12024 12025 12026 12027 12028 12029 12030 12031 12032 12033 12034 12035 12036 12037 12038 12039 12040 12041 12042 12043 12044 12045 12046 12047 12048 12049 12050 12051 12052 12053 12054 12055 12056 12057 12058 12059 12060 12061 12062 12063 12064 12065 12066 12067 12068 12069 12070 12071 12072 12073 12074 12075 12076 12077 12078 12079 12080 12081 12082 12083 12084 12085 12086 12087 12088 12089 12090 12091 12092 12093 12094 12095 12096 12097 12098 12099 12100 12101 12102 12103 12104 12105 12106 12107 12108 12109 12110 12111 12112 12113 12114 12115 12116 12117 12118 12119 12120 12121 12122 12123 12124 12125 12126 12127 12128 12129 12130 12131 12132 12133 12134 12135 12136 12137 12138 12139 12140 12141 12142 12143 12144 12145 12146 12147 12148 12149 12150 12151 12152 12153 12154 12155 12156 12157 12158 12159 12160 12161 12162 12163 12164 12165 12166 12167 12168 12169 12170 12171 12172 12173 12174 12175 12176 12177 12178 12179 12180 12181 12182 12183 12184 12185 12186 12187 12188 12189 12190 12191 12192 12193 12194 12195 12196 12197 12198 12199 12200 12201 12202 12203 12204 12205 12206 12207 12208 12209 12210 12211 12212 12213 12214 12215 12216 12217 12218 12219 12220 12221 12222 12223 12224 12225 12226 12227 12228 12229 12230 12231 12232 12233 12234 12235 12236 12237 12238 12239 12240 12241 12242 12243 12244 12245 12246 12247 12248 12249 12250 12251 12252 12253 12254 12255 12256 12257 12258 12259 12260 12261 12262 12263 12264 12265 12266 12267 12268 12269 12270 12271 12272 12273 12274 12275 12276 12277 12278 12279 12280 12281 12282 12283 12284 12285 12286 12287 12288 12289 12290 12291 12292 12293 12294 12295 12296 12297 12298 12299 12300 12301 12302 12303 12304 12305 12306 12307 12308 12309 12310 12311 12312 12313 12314 12315 12316 12317 12318 12319 12320 12321 12322 12323 12324 12325 12326 12327 12328 12329 12330 12331 12332 12333 12334 12335 12336 12337 12338 12339 12340 12341 12342 12343 12344 12345 12346 12347 12348 12349 12350 12351 12352 12353 12354 12355 12356 12357 12358 12359 12360 12361 12362 12363 12364 12365 12366 12367 12368 12369 12370 12371 12372 12373 12374 12375 12376 12377 12378 12379 12380 12381 12382 12383 12384 12385 12386 12387 12388 12389 12390 12391 12392 12393 12394 12395 12396 12397 12398 12399 12400 12401 12402 12403 12404 12405 12406 12407 12408 12409 12410 12411 12412 12413 12414 12415 12416 12417 12418 12419 12420 12421 12422 12423 12424 12425 12426 12427 12428 12429 12430 12431 12432 12433 12434 12435 12436 12437 12438 12439 12440 12441 12442 12443 12444 12445 12446 12447 12448 12449 12450 12451 12452 12453 12454 12455 12456 12457 12458 12459 12460 12461 12462 12463 12464 12465 12466 12467 12468 12469 12470 12471 12472 12473 12474 12475 12476 12477 12478 12479 12480 12481 12482 12483 12484 12485 12486 12487 12488 12489 12490 12491 12492 12493 12494 12495 12496 12497 12498 12499 12500 12501 12502 12503 12504 12505 12506 12507 12508 12509 12510 12511 12512 12513 12514 12515 12516 12517 12518 12519 12520 12521 12522 12523 12524 12525 12526 12527 12528 12529 12530 12531 12532 12533 12534 12535 12536 12537 12538 12539 12540 12541 12542 12543 12544 12545 12546 12547 12548 12549 12550 12551 12552 12553 12554 12555 12556 12557 12558 12559 12560 12561 12562 12563 12564 12565 12566 12567 12568 12569 12570 12571 12572 12573 12574 12575 12576 12577 12578 12579 12580 12581 12582 12583 12584 12585 12586 12587 12588 12589 12590 12591 12592 12593 12594 12595 12596 12597 12598 12599 12600 12601 12602 12603 12604 12605 12606 12607 12608 12609 12610 12611 12612 12613 12614 12615 12616 12617 12618 12619 12620 12621 12622 12623 12624 12625 12626 12627 12628 12629 12630 12631 12632 12633 12634 12635 12636 12637 12638 12639 12640 12641 12642 12643 12644 12645 12646 12647 12648 12649 12650 12651 12652 12653 12654 12655 12656 12657 12658 12659 12660 12661 12662 12663 12664 12665 12666 12667 12668 12669 12670 12671 12672 12673 12674 12675 12676 12677 12678 12679 12680 12681 12682 12683 12684 12685 12686 12687 12688 12689 12690 12691 12692 12693 12694 12695 12696 12697 12698 12699 12700 12701 12702 12703 12704 12705 12706 12707 12708 12709 12710 12711 12712 12713 12714 12715 12716 12717 12718 12719 12720 12721 12722 12723 12724 12725 12726 12727 12728 12729 12730 12731 12732 12733 12734 12735 12736 12737 12738 12739 12740 12741 12742 12743 12744 12745 12746 12747 12748 12749 12750 12751 12752 12753 12754 12755 12756 12757 12758 12759 12760 12761 12762 12763 12764 12765 12766 12767 12768 12769 12770 12771 12772 12773 12774 12775 12776 12777 12778 12779 12780 12781 12782 12783 12784 12785 12786 12787 12788 12789 12790 12791 12792 12793 12794 12795 12796 12797 12798 12799 12800 12801 12802 12803 12804 12805 12806 12807 12808 12809 12810 12811 12812 12813 12814 12815 12816 12817 12818 12819 12820 12821 12822 12823 12824 12825 12826 12827 12828 12829 12830 12831 12832 12833 12834 12835 12836 12837 12838 12839 12840 12841 12842 12843 12844 12845 12846 12847 12848 12849 12850 12851 12852 12853 12854 12855 12856 12857 12858 12859 12860 12861 12862 12863 12864 12865 12866 12867 12868 12869 12870 12871 12872 12873 12874 12875 12876 12877 12878 12879 12880 12881 12882 12883 12884 12885 12886 12887 12888 12889 12890 12891 12892 12893 12894 12895 12896 12897 12898 12899 12900 12901 12902 12903 12904 12905 12906 12907 12908 12909 12910 12911 12912 12913 12914 12915 12916 12917 12918 12919 12920 12921 12922 12923 12924 12925 12926 12927 12928 12929 12930 12931 12932 12933 12934 12935 12936 12937 12938 12939 12940 12941 12942 12943 12944 12945 12946 12947 12948 12949 12950 12951 12952 12953 12954 12955 12956 12957 12958 12959 12960 12961 12962 12963 12964 12965 12966 12967 12968 12969 12970 12971 12972 12973 12974 12975 12976 12977 12978 12979 12980 12981 12982 12983 12984 12985 12986 12987 12988 12989 12990 12991 12992 12993 12994 12995 12996 12997 12998 12999 13000 13001 13002 13003 13004 13005 13006 13007 13008 13009 13010 13011 13012 13013 13014 13015 13016 13017 13018 13019 13020 13021 13022 13023 13024 13025 13026 13027 13028 13029 13030 13031 13032 13033 13034 13035 13036 13037 13038 13039 13040 13041 13042 13043 13044 13045 13046 13047 13048 13049 13050 13051 13052 13053 13054 13055 13056 13057 13058 13059 13060 13061 13062 13063 13064 13065 13066 13067 13068 13069 13070 13071 13072 13073 13074 13075 13076 13077 13078 13079 13080 13081 13082 13083 13084 13085 13086 13087 13088 13089 13090 13091 13092 13093 13094 13095 13096 13097 13098 13099 13100 13101 13102 13103 13104 13105 13106 13107 13108 13109 13110 13111 13112 13113 13114 13115 13116 13117 13118 13119 13120 13121 13122 13123 13124 13125 13126 13127 13128 13129 13130 13131 13132 13133 13134 13135 13136 13137 13138 13139 13140 13141 13142 13143 13144 13145 13146 13147 13148 13149 13150 13151 13152 13153 13154 13155 13156 13157 13158 13159 13160 13161 13162 13163 13164 13165 13166 13167 13168 13169 13170 13171 13172 13173 13174 13175 13176 13177 13178 13179 13180 13181 13182 13183 13184 13185 13186 13187 13188 13189 13190 13191 13192 13193 13194 13195 13196 13197 13198 13199 13200 13201 13202 13203 13204 13205 13206 13207 13208 13209 13210 13211 13212 13213 13214 13215 13216 13217 13218 13219 13220 13221 13222 13223 13224 13225 13226 13227 13228 13229 13230 13231 13232 13233 13234 13235 13236 13237 13238 13239 13240 13241 13242 13243 13244 13245 13246 13247 13248 13249 13250 13251 13252 13253 13254 13255 13256 13257 13258 13259 13260 13261 13262 13263 13264 13265 13266 13267 13268 13269 13270 13271 13272 13273 13274 13275 13276 13277 13278 13279 13280 13281 13282 13283 13284 13285 13286 13287 13288 13289 13290 13291 13292 13293 13294 13295 13296 13297 13298 13299 13300 13301 13302 13303 13304 13305 13306 13307 13308 13309 13310 13311 13312 13313 13314 13315 13316 13317 13318 13319 13320 13321 13322 13323 13324 13325 13326 13327 13328 13329 13330 13331 13332 13333 13334 13335 13336 13337 13338 13339 13340 13341 13342 13343 13344 13345 13346 13347 13348 13349 13350 13351 13352 13353 13354 13355 13356 13357 13358 13359 13360 13361 13362 13363 13364 13365 13366 13367 13368 13369 13370 13371 13372 13373 13374 13375 13376 13377 13378 13379 13380 13381 13382 13383 13384 13385 13386 13387 13388 13389 13390 13391 13392 13393 13394 13395 13396 13397 13398 13399 13400 13401 13402 13403 13404 13405 13406 13407 13408 13409 13410 13411 13412 13413 13414 13415 13416 13417 13418 13419 13420 13421 13422 13423 13424 13425 13426 13427 13428 13429 13430 13431 13432 13433 13434 13435 13436 13437 13438 13439 13440 13441 13442 13443 13444 13445 13446 13447 13448 13449 13450 13451 13452 13453 13454 13455 13456 13457 13458 13459 13460 13461 13462 13463 13464 13465 13466 13467 13468 13469 13470 13471 13472 13473 13474 13475 13476 13477 13478 13479 13480 13481 13482 13483 13484 13485 13486 13487 13488 13489 13490 13491 13492 13493 13494 13495 13496 13497 13498 13499 13500 13501 13502 13503 13504 13505 13506 13507 13508 13509 13510 13511 13512 13513 13514 13515 13516 13517 13518 13519 13520 13521 13522 13523 13524 13525 13526 13527 13528 13529 13530 13531 13532 13533 13534 13535 13536 13537 13538 13539 13540 13541 13542 13543 13544 13545 13546 13547 13548 13549 13550 13551 13552 13553 13554 13555 13556 13557 13558 13559 13560 13561 13562 13563 13564 13565 13566 13567 13568 13569 13570 13571 13572 13573 13574 13575 13576 13577 13578 13579 13580 13581 13582 13583 13584 13585 13586 13587 13588 13589 13590 13591 13592 13593 13594 13595 13596 13597 13598 13599 13600 13601 13602 13603 13604 13605 13606 13607 13608 13609 13610 13611 13612 13613 13614 13615 13616 13617 13618 13619 13620 13621 13622 13623 13624 13625 13626 13627 13628 13629 13630 13631 13632 13633 13634 13635 13636 13637 13638 13639 13640 13641 13642 13643 13644 13645 13646 13647 13648 13649 13650 13651 13652 13653 13654 13655 13656 13657 13658 13659 13660 13661 13662 13663 13664 13665 13666 13667 13668 13669 13670 13671 13672 13673 13674 13675 13676 13677 13678 13679 13680 13681 13682 13683 13684 13685 13686 13687 13688 13689 13690 13691 13692 13693 13694 13695 13696 13697 13698 13699 13700 13701 13702 13703 13704 13705 13706 13707 13708 13709 13710 13711 13712 13713 13714 13715 13716 13717 13718 13719 13720 13721 13722 13723 13724 13725 13726 13727 13728 13729 13730 13731 13732 13733 13734 13735 13736 13737 13738 13739 13740 13741 13742 13743 13744 13745 13746 13747 13748 13749 13750 13751 13752 13753 13754 13755 13756 13757 13758 13759 13760 13761 13762 13763 13764 13765 13766 13767 13768 13769 13770 13771 13772 13773 13774 13775 13776 13777 13778 13779 13780 13781 13782 13783 13784 13785 13786 13787 13788 13789 13790 13791 13792 13793 13794 13795 13796 13797 13798 13799 13800 13801 13802 13803 </DataArray>
      </CellData>
      <PointData Vectors="u" Tensors="stress">
        <DataArray type="Int64" IdType="1" Name="vtkOriginalPointIds" format="ascii" RangeMin="0" RangeMax="7057">0 1 2 3 4 5 6 7 8 9 10 11 12 13 14 15 16 17 18 19 20 21 22 23 24 25 26 27 28 29 30 31 32 33 34 35 36 37 38 39 40 41 42 43 44 45 46 47 48 49 50 51 52 53 54 55 56 57 58 59 60 61 62 63 64 65 66 67 68 69 70 71 72 73 74 75 76 77 78 79 80 81 82 83 84 85 86 87 88 89 90 91 92 93 94 95 96 97 98 99 100 101 102 103 104 105 106 107 108 109 110 111 112 113 114 115 116 117 118 119 120 121 122 123 124 125 126 127 128 129 130 131 132 133 134 135 136 137 138 139 140 141 142 143 144 145 146 147 148 149 150 151 152 153 154 155 156 157 158 159 160 161 162 163 164 165 166 167 168 169 170 171 172 173 174 175 176 177 178 179 180 181 182 183 184 185 186 187 188 189 190 191 192 193 194 195 196 197 198 199 200 201 202 203 204 205 206 207 208 209 210 211 212 213 214 215 216 217 218 219 220 221 222 223 224 225 226 227 228 229 230 231 232 233 234 235 236 237 238 239 240 241 242 243 244 245 246 247 248 249 250 251 252 253 254 255 256 257 258 259 260 261 262 263 264 265 266 267 268 269 270 271 272 273 274 275 276 277 278 279 280 281 282 283 284 285 286 287 288 289 290 291 292 293 294 295 296 297 298 299 300 301 302 303 304 305 306 307 308 309 310 311 312 313 314 315 316 317 318 319 320 321 322 323 324 325 326 327 328 329 330 331 332 333 334 335 336 337 338 339 340 341 342 343 344 345 346 347 348 349 350 351 352 353 354 355 356 357 358 359 360 361 362 363 364 365 366 367 368 369 370 371 372 373 374 375 376 377 378 379 380 381 382 383 384 385 386 387 388 389 390 391 392 393 394 395 396 397 398 399 400 401 402 403 404 405 406 407 408 409 410 411 412 413 414 415 416 417 418 419 420 421 422 423 424 425 426 427 428 429 430 431 432 433 434 435 436 437 438 439 440 441 442 443 444 445 446 447 448 449 450 451 452 453 454 455 456 457 458 459 460 461 462 463 464 465 466 467 468 469 470 471 472 473 474 475 476 477 478 479 480 481 482 483 484 485 486 487 488 489 490 491 492 493 494 495 496 497 498 499 500 501 502 503 504 505 506 507 508 509 510 511 512 513 514 515 516 517 518 519 520 521 522 523 524 525 526 527 528 529 530 531 532 533 534 535 536 537 538 539 540 541 542 543 544 545 546 547 548 549 550 551 552 553 554 555 556 557 558 559 560 561 562 563 564 565 566 567 568 569 570 571 572 573 574 575 576 577 578 579 580 581 582 583 584 585 586 587 588 589 590 591 592 593 594 595 596 597 598 599 600 601 602 603 604 605 606 607 608 609 610 611 612 613 614 615 616 617 618 619 620 621 622 623 624 625 626 627 628 629 630 631 632 633 634 635 636 637 638 639 640 641 642 643 644 645 646 647 648 649 650 651 652 653 654 655 656 657 658 659 660 661 662 663 664 665 666 667 668 669 670 671 672 673 674 675 676 677 678 679 680 681 682 683 684 685 686 687 688 689 690 691 692 693 694 695 696 697 698 699 700 701 702 703 704 705 706 707 708 709 710 711 712 713 714 715 716 717 718 719 720 721 722 723 724 725 726 727 728 729 730 731 732 733 734 735 736 737 738 739 740 741 742 743 744 745 746 747 748 749 750 751 752 753 754 755 756 757 758 759 760 761 762 763 764 765 766 767 768 769 770 771 772 773 774 775 776 777 778 779 780 781 782 783 784 785 786 787 788 789 790 791 792 793 794 795 796 797 798 799 800 801 802 803 804 805 806 807 808 809 810 811 812 813 814 815 816 817 818 819 820 821 822 823 824 825 826 827 828 829 830 831 832 833 834 835 836 837 838 839 840 841 842 843 844 845 846 847 848 849 850 851 852 853 854 855 856 857 858 859 860 861 862 863 864 865 866 867 868 869 870 871 872 873 874 875 876 877 878 879 880 881 882 883 884 885 886 887 888 889 890 891 892 893 894 895 896 897 898 899 900 901 902 903 904 905 906 907 908 909 910 911 912 913 914 915 916 917 918 919 920 921 922 923 924 925 926 927 928 929 930 931 932 933 934 935 936 937 938 939 940 941 942 943 944 945 946 947 948 949 950 951 952 953 954 955 956 957 958 959 960 961 962 963 964 965 966 967 968 969 970 971 972 973 974 975 976 977 978 979 980 981 982 983 984 985 986 987 988 989 990 991 992 993 994 995 996 997 998 999 1000 1001 1002 1003 1004 1005 1006 1007 1008 1009 1010 1011 1012 1013 1014 1015 1016 1017 1018 1019 1020 1021 1022 1023 1024 1025 1026 1027 1028 1029 1030 1031 1032 1033 1034 1035 1036 1037 1038 1039 1040 1041 1042 1043 1044 1045 1046 1047 1048 1049 1050 1051 1052 1053 1054 1055 1056 1057 1058 1059 1060 1061 1062 1063 1064 1065 1066 1067 1068 1069 1070 1071 1072 1073 1074 1075 1076 1077 1078 1079 1080 1081 1082 1083 1084 1085 1086 1087 1088 1089 1090 1091 1092 1093 1094 1095 1096 1097 1098 1099 1100 1101 1102 1103 1104 1105 1106 1107 1108 1109 1110 1111 1112 1113 1114 1115 1116 1117 1118 1119 1120 1121 1122 1123 1124 1125 1126 1127 1128 1129 1130 1131 1132 1133 1134 1135 1136 1137 1138 1139 1140 1141 1142 1143 1144 1145 1146 1147 1148 1149 1150 1151 1152 1153 1154 1155 1156 1157 1158 1159 1160 1161 1162 1163 1164 1165 1166 1167 1168 1169 1170 1171 1172 1173 1174 1175 1176 1177 1178 1179 1180 1181 1182 1183 1184 1185 1186 1187 1188 1189 1190 1191 1192 1193 1194 1195 1196 1197 1198 1199 1200 1201 1202 1203 1204 1205 1206 1207 1208 1209 1210 1211 1212 1213 1214 1215 1216 1217 1218 1219 1220 1221 1222 1223 1224 1225 1226 1227 1228 1229 1230 1231 1232 1233 1234 1235 1236 1237 1238 1239 1240 1241 1242 1243 1244 1245 1246 1247 1248 1249 1250 1251 1252 1253 1254 1255 1256 1257 1258 1259 1260 1261 1262 1263 1264 1265 1266 1267 1268 1269 1270 1271 1272 1273 1274 1275 1276 1277 1278 1279 1280 1281 1282 1283 1284 1285 1286 1287 1288 1289 1290 1291 1292 1293 1294 1295 1296 1297 1298 1299 1300 1301 1302 1303 1304 1305 1306 1307 1308 1309 1310 1311 1312 1313 1314 1315 1316 1317 1318 1319 1320 1321 1322 1323 1324 1325 1326 1327 1328 1329 1330 1331 1332 1333 1334 1335 1336 1337 1338 1339 1340 1341 1342 1343 1344 1345 1346 1347 1348 1349 1350 1351 1352 1353 1354 1355 1356 1357 1358 1359 1360 1361 1362 1363 1364 1365 1366 1367 1368 1369 1370 1371 1372 1373 1374 1375 1376 1377 1378 1379 1380 1381 1382 1383 1384 1385 1386 1387 1388 1389 1390 1391 1392 1393 1394 1395 1396 1397 1398 1399 1400 1401 1402 1403 1404 1405 1406 1407 1408 1409 1410 1411 1412 1413 1414 1415 1416 1417 1418 1419 1420 1421 1422 1423 1424 1425 1426 1427 1428 1429 1430 1431 1432 1433 1434 1435 1436 1437 1438 1439 1440 1441 1442 1443 1444 1445 1446 1447 1448 1449 1450 1451 1452 1453 1454 1455 1456 1457 1458 1459 1460 1461 1462 1463 1464 1465 1466 1467 1468 1469 1470 1471 1472 1473 1474 1475 1476 1477 1478 1479 1480 1481 1482 1483 1484 1485 1486 1487 1488 1489 1490 1491 1492 1493 1494 1495 1496 1497 1498 1499 1500 1501 1502 1503 1504 1505 1506 1507 1508 1509 1510 1511 1512 1513 1514 1515 1516 1517 1518 1519 1520 1521 1522 1523 1524 1525 1526 1527 1528 1529 1530 1531 1532 1533 1534 1535 1536 1537 1538 1539 1540 1541 1542 1543 1544 1545 1546 1547 1548 1549 1550 1551 1552 1553 1554 1555 1556 1557 1558 1559 1560 1561 1562 1563 1564 1565 1566 1567 1568 1569 1570 1571 1572 1573 1574 1575 1576 1577 1578 1579 1580 1581 1582 1583 1584 1585 1586 1587 1588 1589 1590 1591 1592 1593 1594 1595 1596 1597 1598 1599 1600 1601 1602 1603 1604 1605 1606 1607 1608 1609 1610 1611 1612 1613 1614 1615 1616 1617 1618 1619 1620 1621 1622 1623 1624 1625 1626 1627 1628 1629 1630 1631 1632 1633 1634 1635 1636 1637 1638 1639 1640 1641 1642 1643 1644 1645 1646 1647 1648 1649 1650 1651 1652 1653 1654 1655 1656 1657 1658 1659 1660 1661 1662 1663 1664 1665 1666 1667 1668 1669 1670 1671 1672 1673 1674 1675 1676 1677 1678 1679 1680 1681 1682 1683 1684 1685 1686 1687 1688 1689 1690 1691 1692 1693 1694 1695 1696 1697 1698 1699 1700 1701 1702 1703 1704 1705 1706 1707 1708 1709 1710 1711 1712 1713 1714 1715 1716 1717 1718 1719 1720 1721 1722 1723 1724 1725 1726 1727 1728 1729 1730 1731 1732 1733 1734 1735 1736 1737 1738 1739 1740 1741 1742 1743 1744 1745 1746 1747 1748 1749 1750 1751 1752 1753 1754 1755 1756 1757 1758 1759 1760 1761 1762 1763 1764 1765 1766 1767 1768 1769 1770 1771 1772 1773 1774 1775 1776 1777 1778 1779 1780 1781 1782 1783 1784 1785 1786 1787 1788 1789 1790 1791 1792 1793 1794 1795 1796 1797 1798 1799 1800 1801 1802 1803 1804 1805 1806 1807 1808 1809 1810 1811 1812 1813 1814 1815 1816 1817 1818 1819 1820 1821 1822 1823 1824 1825 1826 1827 1828 1829 1830 1831 1832 1833 1834 1835 1836 1837 1838 1839 1840 1841 1842 1843 1844 1845 1846 1847 1848 1849 1850 1851 1852 1853 1854 1855 1856 1857 1858 1859 1860 1861 1862 1863 1864 1865 1866 1867 1868 1869 1870 1871 1872 1873 1874 1875 1876 1877 1878 1879 1880 1881 1882 1883 1884 1885 1886 1887 1888 1889 1890 1891 1892 1893 1894 1895 1896 1897 1898 1899 1900 1901 1902 1903 1904 1905 1906 1907 1908 1909 1910 1911 1912 1913 1914 1915 1916 1917 1918 1919 1920 1921 1922 1923 1924 1925 1926 1927 1928 1929 1930 1931 1932 1933 1934 1935 1936 1937 1938 1939 1940 1941 1942 1943 1944 1945 1946 1947 1948 1949 1950 1951 1952 1953 1954 1955 1956 1957 1958 1959 1960 1961 1962 1963 1964 1965 1966 1967 1968 1969 1970 1971 1972 1973 1974 1975 1976 1977 1978 1979 1980 1981 1982 1983 1984 1985 1986 1987 1988 1989 1990 1991 1992 1993 1994 1995 1996 1997 1998 1999 2000 2001 2002 2003 2004 2005 2006 2007 2008 2009 2010 2011 2012 2013 2014 2015 2016 2017 2018 2019 2020 2021 2022 2023 2024 2025 2026 2027 2028 2029 2030 2031 2032 2033 2034 2035 2036 2037 2038 2039 2040 2041 2042 2043 2044 2045 2046 2047 2048 2049 2050 2051 2052 2053 2054 2055 2056 2057 2058 2059 2060 2061 2062 2063 2064 2065 2066 2067 2068 2069 2070 2071 2072 2073 2074 2075 2076 2077 2078 2079 2080 2081 2082 2083 2084 2085 2086 2087 2088 2089 2090 2091 2092 2093 2094 2095 2096 2097 2098 2099 2100 2101 2102 2103 2104 2105 2106 2107 2108 2109 2110 2111 2112 2113 2114 2115 2116 2117 2118 2119 2120 2121 2122 2123 2124 2125 2126 2127 2128 2129 2130 2131 2132 2133 2134 2135 2136 2137 2138 2139 2140 2141 2142 2143 2144 2145 2146 2147 2148 2149 2150 2151 2152 2153 2154 2155 2156 2157 2158 2159 2160 2161 2162 2163 2164 2165 2166 2167 2168 2169 2170 2171 2172 2173 2174 2175 2176 2177 2178 2179 2180 2181 2182 2183 2184 2185 2186 2187 2188 2189 2190 2191 2192 2193 2194 2195 2196 2197 2198 2199 2200 2201 2202 2203 2204 2205 2206 2207 2208 2209 2210 2211 2212 2213 2214 2215 2216 2217 2218 2219 2220 2221 2222 2223 2224 2225 2226 2227 2228 2229 2230 2231 2232 2233 2234 2235 2236 2237 2238 2239 2240 2241 2242 2243 2244 2245 2246 2247 2248 2249 2250 2251 2252 2253 2254 2255 2256 2257 2258 2259 2260 2261 2262 2263 2264 2265 2266 2267 2268 2269 2270 2271 2272 2273 2274 2275 2276 2277 2278 2279 2280 2281 2282 2283 2284 2285 2286 2287 2288 2289 2290 2291 2292 2293 2294 2295 2296 2297 2298 2299 2300 2301 2302 2303 2304 2305 2306 2307 2308 2309 2310 2311 2312 2313 2314 2315 2316 2317 2318 2319 2320 2321 2322 2323 2324 2325 2326 2327 2328 2329 2330 2331 2332 2333 2334 2335 2336 2337 2338 2339 2340 2341 2342 2343 2344 2345 2346 2347 2348 2349 2350 2351 2352 2353 2354 2355 2356 2357 2358 2359 2360 2361 2362 2363 2364 2365 2366 2367 2368 2369 2370 2371 2372 2373 2374 2375 2376 2377 2378 2379 2380 2381 2382 2383 2384 2385 2386 2387 2388 2389 2390 2391 2392 2393 2394 2395 2396 2397 2398 2399 2400 2401 2402 2403 2404 2405 2406 2407 2408 2409 2410 2411 2412 2413 2414 2415 2416 2417 2418 2419 2420 2421 2422 2423 2424 2425 2426 2427 2428 2429 2430 2431 2432 2433 2434 2435 2436 2437 2438 2439 2440 2441 2442 2443 2444 2445 2446 2447 2448 2449 2450 2451 2452 2453 2454 2455 2456 2457 2458 2459 2460 2461 2462 2463 2464 2465 2466 2467 2468 2469 2470 2471 2472 2473 2474 2475 2476 2477 2478 2479 2480 2481 2482 2483 2484 2485 2486 2487 2488 2489 2490 2491 2492 2493 2494 2495 2496 2497 2498 2499 2500 2501 2502 2503 2504 2505 2506 2507 2508 2509 2510 2511 2512 2513 2514 2515 2516 2517 2518 2519 2520 2521 2522 2523 2524 2525 2526 2527 2528 2529 2530 2531 2532 2533 2534 2535 2536 2537 2538 2539 2540 2541 2542 2543 2544 2545 2546 2547 2548 2549 2550 2551 2552 2553 2554 2555 2556 2557 2558 2559 2560 2561 2562 2563 2564 2565 2566 2567 2568 2569 2570 2571 2572 2573 2574 2575 2576 2577 2578 2579 2580 2581 2582 2583 2584 2585 2586 2587 2588 2589 2590 2591 2592 2593 2594 2595 2596 2597 2598 2599 2600 2601 2602 2603 2604 2605 2606 2607 2608 2609 2610 2611 2612 2613 2614 2615 2616 2617 2618 2619 2620 2621 2622 2623 2624 2625 2626 2627 2628 2629 2630 2631 2632 2633 2634 2635 2636 2637 2638 2639 2640 2641 2642 2643 2644 2645 2646 2647 2648 2649 2650 2651 2652 2653 2654 2655 2656 2657 2658 2659 2660 2661 2662 2663 2664 2665 2666 2667 2668 2669 2670 2671 2672 2673 2674 2675 2676 2677 2678 2679 2680 2681 2682 2683 2684 2685 2686 2687 2688 2689 2690 2691 2692 2693 2694 2695 2696 2697 2698 2699 2700 2701 2702 2703 2704 2705 2706 2707 2708 2709 2710 2711 2712 2713 2714 2715 2716 2717 2718 2719 2720 2721 2722 2723 2724 2725 2726 2727 2728 2729 2730 2731 2732 2733 2734 2735 2736 2737 2738 2739 2740 2741 2742 2743 2744 2745 2746 2747 2748 2749 2750 2751 2752 2753 2754 2755 2756 2757 2758 2759 2760 2761 2762 2763 2764 2765 2766 2767 2768 2769 2770 2771 2772 2773 2774 2775 2776 2777 2778 2779 2780 2781 2782 2783 2784 2785 2786 2787 2788 2789 2790 2791 2792 2793 2794 2795 2796 2797 2798 2799 2800 2801 2802 2803 2804 2805 2806 2807 2808 2809 2810 2811 2812 2813 2814 2815 2816 2817 2818 2819 2820 2821 2822 2823 2824 2825 2826 2827 2828 2829 2830 2831 2832 2833 2834 2835 2836 2837 2838 2839 2840 2841 2842 2843 2844 2845 2846 2847 2848 2849 2850 2851 2852 2853 2854 2855 2856 2857 2858 2859 2860 2861 2862 2863 2864 2865 2866 2867 2868 2869 2870 2871 2872 2873 2874 2875 2876 2877 2878 2879 2880 2881 2882 2883 2884 2885 2886 2887 2888 2889 2890 2891 2892 2893 2894 2895 2896 2897 2898 2899 2900 2901 2902 2903 2904 2905 2906 2907 2908 2909 2910 2911 2912 2913 2914 2915 2916 2917 2918 2919 2920 2921 2922 2923 2924 2925 2926 2927 2928 2929 2930 2931 2932 2933 2934 2935 2936 2937 2938 2939 2940 2941 2942 2943 2944 2945 2946 2947 2948 2949 2950 2951 2952 2953 2954 2955 2956 2957 2958 2959 2960 2961 2962 2963 2964 2965 2966 2967 2968 2969 2970 2971 2972 2973 2974 2975 2976 2977 2978 2979 2980 2981 2982 2983 2984 2985 2986 2987 2988 2989 2990 2991 2992 2993 2994 2995 2996 2997 2998 2999 3000 3001 3002 3003 3004 3005 3006 3007 3008 3009 3010 3011 3012 3013 3014 3015 3016 3017 3018 3019 3020 3021 3022 3023 3024 3025 3026 3027 3028 3029 3030 3031 3032 3033 3034 3035 3036 3037 3038 3039 3040 3041 3042 3043 3044 3045 3046 3047 3048 3049 3050 3051 3052 3053 3054 3055 3056 3057 3058 3059 3060 3061 3062 3063 3064 3065 3066 3067 3068 3069 3070 3071 3072 3073 3074 3075 3076 3077 3078 3079 3080 3081 3082 3083 3084 3085 3086 3087 3088 3089 3090 3091 3092 3093 3094 3095 3096 3097 3098 3099 3100 3101 3102 3103 3104 3105 3106 3107 3108 3109 3110 3111 3112 3113 3114 3115 3116 3117 3118 3119 3120 3121 3122 3123 3124 3125 3126 3127 3128 3129 3130 3131 3132 3133 3134 3135 3136 3137 3138 3139 3140 3141 3142 3143 3144 3145 3146 3147 3148 3149 3150 3151 3152 3153 3154 3155 3156 3157 3158 3159 3160 3161 3162 3163 3164 3165 3166 3167 3168 3169 3170 3171 3172 3173 3174 3175 3176 3177 3178 3179 3180 3181 3182 3183 3184 3185 3186 3187 3188 3189 3190 3191 3192 3193 3194 3195 3196 3197 3198 3199 3200 3201 3202 3203 3204 3205 3206 3207 3208 3209 3210 3211 3212 3213 3214 3215 3216 3217 3218 3219 3220 3221 3222 3223 3224 3225 3226 3227 3228 3229 3230 3231 3232 3233 3234 3235 3236 3237 3238 3239 3240 3241 3242 3243 3244 3245 3246 3247 3248 3249 3250 3251 3252 3253 3254 3255 3256 3257 3258 3259 3260 3261 3262 3263 3264 3265 3266 3267 3268 3269 3270 3271 3272 3273 3274 3275 3276 3277 3278 3279 3280 3281 3282 3283 3284 3285 3286 3287 3288 3289 3290 3291 3292 3293 3294 3295 3296 3297 3298 3299 3300 3301 3302 3303 3304 3305 3306 3307 3308 3309 3310 3311 3312 3313 3314 3315 3316 3317 3318 3319 3320 3321 3322 3323 3324 3325 3326 3327 3328 3329 3330 3331 3332 3333 3334 3335 3336 3337 3338 3339 3340 3341 3342 3343 3344 3345 3346 3347 3348 3349 3350 3351 3352 3353 3354 3355 3356 3357 3358 3359 3360 3361 3362 3363 3364 3365 3366 3367 3368 3369 3370 3371 3372 3373 3374 3375 3376 3377 3378 3379 3380 3381 3382 3383 3384 3385 3386 3387 3388 3389 3390 3391 3392 3393 3394 3395 3396 3397 3398 3399 3400 3401 3402 3403 3404 3405 3406 3407 3408 3409 3410 3411 3412 3413 3414 3415 3416 3417 3418 3419 3420 3421 3422 3423 3424 3425 3426 3427 3428 3429 3430 3431 3432 3433 3434 3435 3436 3437 3438 3439 3440 3441 3442 3443 3444 3445 3446 3447 3448 3449 3450 3451 3452 3453 3454 3455 3456 3457 3458 3459 3460 3461 3462 3463 3464 3465 3466 3467 3468 3469 3470 3471 3472 3473 3474 3475 3476 3477 3478 3479 3480 3481 3482 3483 3484 3485 3486 3487 3488 3489 3490 3491 3492 3493 3494 3495 3496 3497 3498 3499 3500 3501 3502 3503 3504 3505 3506 3507 3508 3509 3510 3511 3512 3513 3514 3515 3516 3517 3518 3519 3520 3521 3522 3523 3524 3525 3526 3527 3528 3529 3530 3531 3532 3533 3534 3535 3536 3537 3538 3539 3540 3541 3542 3543 3544 3545 3546 3547 3548 3549 3550 3551 3552 3553 3554 3555 3556 3557 3558 3559 3560 3561 3562 3563 3564 3565 3566 3567 3568 3569 3570 3571 3572 3573 3574 3575 3576 3577 3578 3579 3580 3581 3582 3583 3584 3585 3586 3587 3588 3589 3590 3591 3592 3593 3594 3595 3596 3597 3598 3599 3600 3601 3602 3603 3604 3605 3606 3607 3608 3609 3610 3611 3612 3613 3614 3615 3616 3617 3618 3619 3620 3621 3622 3623 3624 3625 3626 3627 3628 3629 3630 3631 3632 3633 3634 3635 3636 3637 3638 3639 3640 3641 3642 3643 3644 3645 3646 3647 3648 3649 3650 3651 3652 3653 3654 3655 3656 3657 3658 3659 3660 3661 3662 3663 3664 3665 3666 3667 3668 3669 3670 3671 3672 3673 3674 3675 3676 3677 3678 3679 3680 3681 3682 3683 3684 3685 3686 3687 3688 3689 3690 3691 3692 3693 3694 3695 3696 3697 3698 3699 3700 3701 3702 3703 3704 3705 3706 3707 3708 3709 3710 3711 3712 3713 3714 3715 3716 3717 3718 3719 3720 3721 3722 3723 3724 3725 3726 3727 3728 3729 3730 3731 3732 3733 3734 3735 3736 3737 3738 3739 3740 3741 3742 3743 3744 3745 3746 3747 3748 3749 3750 3751 3752 3753 3754 3755 3756 3757 3758 3759 3760 3761 3762 3763 3764 3765 3766 3767 3768 3769 3770 3771 3772 3773 3774 3775 3776 3777 3778 3779 3780 3781 3782 3783 3784 3785 3786 3787 3788 3789 3790 3791 3792 3793 3794 3795 3796 3797 3798 3799 3800 3801 3802 3803 3804 3805 3806 3807 3808 3809 3810 3811 3812 3813 3814 3815 3816 3817 3818 3819 3820 3821 3822 3823 3824 3825 3826 3827 3828 3829 3830 3831 3832 3833 3834 3835 3836 3837 3838 3839 3840 3841 3842 3843 3844 3845 3846 3847 3848 3849 3850 3851 3852 3853 3854 3855 3856 3857 3858 3859 3860 3861 3862 3863 3864 3865 3866 3867 3868 3869 3870 3871 3872 3873 3874 3875 3876 3877 3878 3879 3880 3881 3882 3883 3884 3885 3886 3887 3888 3889 3890 3891 3892 3893 3894 3895 3896 3897 3898 3899 3900 3901 3902 3903 3904 3905 3906 3907 3908 3909 3910 3911 3912 3913 3914 3915 3916 3917 3918 3919 3920 3921 3922 3923 3924 3925 3926 3927 3928 3929 3930 3931 3932 3933 3934 3935 3936 3937 3938 3939 3940 3941 3942 3943 3944 3945 3946 3947 3948 3949 3950 3951 3952 3953 3954 3955 3956 3957 3958 3959 3960 3961 3962 3963 3964 3965 3966 3967 3968 3969 3970 3971 3972 3973 3974 3975 3976 3977 3978 3979 3980 3981 3982 3983 3984 3985 3986 3987 3988 3989 3990 3991 3992 3993 3994 3995 3996 3997 3998 3999 4000 4001 4002 4003 4004 4005 4006 4007 4008 4009 4010 4011 4012 4013 4014 4015 4016 4017 4018 4019 4020 4021 4022 4023 4024 4025 4026 4027 4028 4029 4030 4031 4032 4033 4034 4035 4036 4037 4038 4039 4040 4041 4042 4043 4044 4045 4046 4047 4048 4049 4050 4051 4052 4053 4054 4055 4056 4057 4058 4059 4060 4061 4062 4063 4064 4065 4066 4067 4068 4069 4070 4071 4072 4073 4074 4075 4076 4077 4078 4079 4080 4081 4082 4083 4084 4085 4086 4087 4088 4089 4090 4091 4092 4093 4094 4095 4096 4097 4098 4099 4100 4101 4102 4103 4104 4105 4106 4107 4108 4109 4110 4111 4112 4113 4114 4115 4116 4117 4118 4119 4120 4121 4122 4123 4124 4125 4126 4127 4128 4129 4130 4131 4132 4133 4134 4135 4136 4137 4138 4139 4140 4141 4142 4143 4144 4145 4146 4147 4148 4149 4150 4151 4152 4153 4154 4155 4156 4157 4158 4159 4160 4161 4162 4163 4164 4165 4166 4167 4168 4169 4170 4171 4172 4173 4174 4175 4176 4177 4178 4179 4180 4181 4182 4183 4184 4185 4186 4187 4188 4189 4190 4191 4192 4193 4194 4195 4196 4197 4198 4199 4200 4201 4202 4203 4204 4205 4206 4207 4208 4209 4210 4211 4212 4213 4214 4215 4216 4217 4218 4219 4220 4221 4222 4223 4224 4225 4226 4227 4228 4229 4230 4231 4232 4233 4234 4235 4236 4237 4238 4239 4240 4241 4242 4243 4244 4245 4246 4247 4248 4249 4250 4251 4252 4253 4254 4255 4256 4257 4258 4259 4260 4261 4262 4263 4264 4265 4266 4267 4268 4269 4270 4271 4272 4273 4274 4275 4276 4277 4278 4279 4280 4281 4282 4283 4284 4285 4286 4287 4288 4289 4290 4291 4292 4293 4294 4295 4296 4297 4298 4299 4300 4301 4302 4303 4304 4305 4306 4307 4308 4309 4310 4311 4312 4313 4314 4315 4316 4317 4318 4319 4320 4321 4322 4323 4324 4325 4326 4327 4328 4329 4330 4331 4332 4333 4334 4335 4336 4337 4338 4339 4340 4341 4342 4343 4344 4345 4346 4347 4348 4349 4350 4351 4352 4353 4354 4355 4356 4357 4358 4359 4360 4361 4362 4363 4364 4365 4366 4367 4368 4369 4370 4371 4372 4373 4374 4375 4376 4377 4378 4379 4380 4381 4382 4383 4384 4385 4386 4387 4388 4389 4390 4391 4392 4393 4394 4395 4396 4397 4398 4399 4400 4401 4402 4403 4404 4405 4406 4407 4408 4409 4410 4411 4412 4413 4414 4415 4416 4417 4418 4419 4420 4421 4422 4423 4424 4425 4426 4427 4428 4429 4430 4431 4432 4433 4434 4435 4436 4437 4438 4439 4440 4441 4442 4443 4444 4445 4446 4447 4448 4449 4450 4451 4452 4453 4454 4455 4456 4457 4458 4459 4460 4461 4462 4463 4464 4465 4466 4467 4468 4469 4470 4471 4472 4473 4474 4475 4476 4477 4478 4479 4480 4481 4482 4483 4484 4485 4486 4487 4488 4489 4490 4491 4492 4493 4494 4495 4496 4497 4498 4499 4500 4501 4502 4503 4504 4505 4506 4507 4508 4509 4510 4511 4512 4513 4514 4515 4516 4517 4518 4519 4520 4521 4522 4523 4524 4525 4526 4527 4528 4529 4530 4531 4532 4533 4534 4535 4536 4537 4538 4539 4540 4541 4542 4543 4544 4545 4546 4547 4548 4549 4550 4551 4552 4553 4554 4555 4556 4557 4558 4559 4560 4561 4562 4563 4564 4565 4566 4567 4568 4569 4570 4571 4572 4573 4574 4575 4576 4577 4578 4579 4580 4581 4582 4583 4584 4585 4586 4587 4588 4589 4590 4591 4592 4593 4594 4595 4596 4597 4598 4599 4600 4601 4602 4603 4604 4605 4606 4607 4608 4609 4610 4611 4612 4613 4614 4615 4616 4617 4618 4619 4620 4621 4622 4623 4624 4625 4626 4627 4628 4629 4630 4631 4632 4633 4634 4635 4636 4637 4638 4639 4640 4641 4642 4643 4644 4645 4646 4647 4648 4649 4650 4651 4652 4653 4654 4655 4656 4657 4658 4659 4660 4661 4662 4663 4664 4665 4666 4667 4668 4669 4670 4671 4672 4673 4674 4675 4676 4677 4678 4679 4680 4681 4682 4683 4684 4685 4686 4687 4688 4689 4690 4691 4692 4693 4694 4695 4696 4697 4698 4699 4700 4701 4702 4703 4704 4705 4706 4707 4708 4709 4710 4711 4712 4713 4714 4715 4716 4717 4718 4719 4720 4721 4722 4723 4724 4725 4726 4727 4728 4729 4730 4731 4732 4733 4734 4735 4736 4737 4738 4739 4740 4741 4742 4743 4744 4745 4746 4747 4748 4749 4750 4751 4752 4753 4754 4755 4756 4757 4758 4759 4760 4761 4762 4763 4764 4765 4766 4767 4768 4769 4770 4771 4772 4773 4774 4775 4776 4777 4778 4779 4780 4781 4782 4783 4784 4785 4786 4787 4788 4789 4790 4791 4792 4793 4794 4795 4796 4797 4798 4799 4800 4801 4802 4803 4804 4805 4806 4807 4808 4809 4810 4811 4812 4813 4814 4815 4816 4817 4818 4819 4820 4821 4822 4823 4824 4825 4826 4827 4828 4829 4830 4831 4832 4833 4834 4835 4836 4837 4838 4839 4840 4841 4842 4843 4844 4845 4846 4847 4848 4849 4850 4851 4852 4853 4854 4855 4856 4857 4858 4859 4860 4861 4862 4863 4864 4865 4866 4867 4868 4869 4870 4871 4872 4873 4874 4875 4876 4877 4878 4879 4880 4881 4882 4883 4884 4885 4886 4887 4888 4889 4890 4891 4892 4893 4894 4895 4896 4897 4898 4899 4900 4901 4902 4903 4904 4905 4906 4907 4908 4909 4910 4911 4912 4913 4914 4915 4916 4917 4918 4919 4920 4921 4922 4923 4924 4925 4926 4927 4928 4929 4930 4931 4932 4933 4934 4935 4936 4937 4938 4939 4940 4941 4942 4943 4944 4945 4946 4947 4948 4949 4950 4951 4952 4953 4954 4955 4956 4957 4958 4959 4960 4961 4962 4963 4964 4965 4966 4967 4968 4969 4970 4971 4972 4973 4974 4975 4976 4977 4978 4979 4980 4981 4982 4983 4984 4985 4986 4987 4988 4989 4990 4991 4992 4993 4994 4995 4996 4997 4998 4999 5000 5001 5002 5003 5004 5005 5006 5007 5008 5009 5010 5011 5012 5013 5014 5015 5016 5017 5018 5019 5020 5021 5022 5023 5024 5025 5026 5027 5028 5029 5030 5031 5032 5033 5034 5035 5036 5037 5038 5039 5040 5041 5042 5043 5044 5045 5046 5047 5048 5049 5050 5051 5052 5053 5054 5055 5056 5057 5058 5059 5060 5061 5062 5063 5064 5065 5066 5067 5068 5069 5070 5071 5072 5073 5074 5075 5076 5077 5078 5079 5080 5081 5082 5083 5084 5085 5086 5087 5088 5089 5090 5091 5092 5093 5094 5095 5096 5097 5098 5099 5100 5101 5102 5103 5104 5105 5106 5107 5108 5109 5110 5111 5112 5113 5114 5115 5116 5117 5118 5119 5120 5121 5122 5123 5124 5125 5126 5127 5128 5129 5130 5131 5132 5133 5134 5135 5136 5137 5138 5139 5140 5141 5142 5143 5144 5145 5146 5147 5148 5149 5150 5151 5152 5153 5154 5155 5156 5157 5158 5159 5160 5161 5162 5163 5164 5165 5166 5167 5168 5169 5170 5171 5172 5173 5174 5175 5176 5177 5178 5179 5180 5181 5182 5183 5184 5185 5186 5187 5188 5189 5190 5191 5192 5193 5194 5195 5196 5197 5198 5199 5200 5201 5202 5203 5204 5205 5206 5207 5208 5209 5210 5211 5212 5213 5214 5215 5216 5217 5218 5219 5220 5221 5222 5223 5224 5225 5226 5227 5228 5229 5230 5231 5232 5233 5234 5235 5236 5237 5238 5239 5240 5241 5242 5243 5244 5245 5246 5247 5248 5249 5250 5251 5252 5253 5254 5255 5256 5257 5258 5259 5260 5261 5262 5263 5264 5265 5266 5267 5268 5269 5270 5271 5272 5273 5274 5275 5276 5277 5278 5279 5280 5281 5282 5283 5284 5285 5286 5287 5288 5289 5290 5291 5292 5293 5294 5295 5296 5297 5298 5299 5300 5301 5302 5303 5304 5305 5306 5307 5308 5309 5310 5311 5312 5313 5314 5315 5316 5317 5318 5319 5320 5321 5322 5323 5324 5325 5326 5327 5328 5329 5330 5331 5332 5333 5334 5335 5336 5337 5338 5339 5340 5341 5342 5343 5344 5345 5346 5347 5348 5349 5350 5351 5352 5353 5354 5355 5356 5357 5358 5359 5360 5361 5362 5363 5364 5365 5366 5367 5368 5369 5370 5371 5372 5373 5374 5375 5376 5377 5378 5379 5380 5381 5382 5383 5384 5385 5386 5387 5388 5389 5390 5391 5392 5393 5394 5395 5396 5397 5398 5399 5400 5401 5402 5403 5404 5405 5406 5407 5408 5409 5410 5411 5412 5413 5414 5415 5416 5417 5418 5419 5420 5421 5422 5423 5424 5425 5426 5427 5428 5429 5430 5431 5432 5433 5434 5435 5436 5437 5438 5439 5440 5441 5442 5443 5444 5445 5446 5447 5448 5449 5450 5451 5452 5453 5454 5455 5456 5457 5458 5459 5460 5461 5462 5463 5464 5465 5466 5467 5468 5469 5470 5471 5472 5473 5474 5475 5476 5477 5478 5479 5480 5481 5482 5483 5484 5485 5486 5487 5488 5489 5490 5491 5492 5493 5494 5495 5496 5497 5498 5499 5500 5501 5502 5503 5504 5505 5506 5507 5508 5509 5510 5511 5512 5513 5514 5515 5516 5517 5518 5519 5520 5521 5522 5523 5524 5525 5526 5527 5528 5529 5530 5531 5532 5533 5534 5535 5536 5537 5538 5539 5540 5541 5542 5543 5544 5545 5546 5547 5548 5549 5550 5551 5552 5553 5554 5555 5556 5557 5558 5559 5560 5561 5562 5563 5564 5565 5566 5567 5568 5569 5570 5571 5572 5573 5574 5575 5576 5577 5578 5579 5580 5581 5582 5583 5584 5585 5586 5587 5588 5589 5590 5591 5592 5593 5594 5595 5596 5597 5598 5599 5600 5601 5602 5603 5604 5605 5606 5607 5608 5609 5610 5611 5612 5613 5614 5615 5616 5617 5618 5619 5620 5621 5622 5623 5624 5625 5626 5627 5628 5629 5630 5631 5632 5633 5634 5635 5636 5637 5638 5639 5640 5641 5642 5643 5644 5645 5646 5647 5648 5649 5650 5651 5652 5653 5654 5655 5656 5657 5658 5659 5660 5661 5662 5663 5664 5665 5666 5667 5668 5669 5670 5671 5672 5673 5674 5675 5676 5677 5678 5679 5680 5681 5682 5683 5684 5685 5686 5687 5688 5689 5690 5691 5692 5693 5694 5695 5696 5697 5698 5699 5700 5701 5702 5703 5704 5705 5706 5707 5708 5709 5710 5711 5712 5713 5714 5715 5716 5717 5718 5719 5720 5721 5722 5723 5724 5725 5726 5727 5728 5729 5730 5731 5732 5733 5734 5735 5736 5737 5738 5739 5740 5741 5742 5743 5744 5745 5746 5747 5748 5749 5750 5751 5752 5753 5754 5755 5756 5757 5758 5759 5760 5761 5762 5763 5764 5765 5766 5767 5768 5769 5770 5771 5772 5773 5774 5775 5776 5777 5778 5779 5780 5781 5782 5783 5784 5785 5786 5787 5788 5789 5790 5791 5792 5793 5794 5795 5796 5797 5798 5799 5800 5801 5802 5803 5804 5805 5806 5807 5808 5809 5810 5811 5812 5813 5814 5815 5816 5817 5818 5819 5820 5821 5822 5823 5824 5825 5826 5827 5828 5829 5830 5831 5832 5833 5834 5835 5836 5837 5838 5839 5840 5841 5842 5843 5844 5845 5846 5847 5848 5849 5850 5851 5852 5853 5854 5855 5856 5857 5858 5859 5860 5861 5862 5863 5864 5865 5866 5867 5868 5869 5870 5871 5872 5873 5874 5875 5876 5877 5878 5879 5880 5881 5882 5883 5884 5885 5886 5887 5888 5889 5890 5891 5892 5893 5894 5895 5896 5897 5898 5899 5900 5901 5902 5903 5904 5905 5906 5907 5908 5909 5910 5911 5912 5913 5914 5915 5916 5917 5918 5919 5920 5921 5922 5923 5924 5925 5926 5927 5928 5929 5930 5931 5932 5933 5934 5935 5936 5937 5938 5939 5940 5941 5942 5943 5944 5945 5946 5947 5948 5949 5950 5951 5952 5953 5954 5955 5956 5957 5958 5959 5960 5961 5962 5963 5964 5965 5966 5967 5968 5969 5970 5971 5972 5973 5974 5975 5976 5977 5978 5979 5980 5981 5982 5983 5984 5985 5986 5987 5988 5989 5990 5991 5992 5993 5994 5995 5996 5997 5998 5999 6000 6001 6002 6003 6004 6005 6006 6007 6008 6009 6010 6011 6012 6013 6014 6015 6016 6017 6018 6019 6020 6021 6022 6023 6024 6025 6026 6027 6028 6029 6030 6031 6032 6033 6034 6035 6036 6037 6038 6039 6040 6041 6042 6043 6044 6045 6046 6047 6048 6049 6050 6051 6052 6053 6054 6055 6056 6057 6058 6059 6060 6061 6062 6063 6064 6065 6066 6067 6068 6069 6070 6071 6072 6073 6074 6075 6076 6077 6078 6079 6080 6081 6082 6083 6084 6085 6086 6087 6088 6089 6090 6091 6092 6093 6094 6095 6096 6097 6098 6099 6100 6101 6102 6103 6104 6105 6106 6107 6108 6109 6110 6111 6112 6113 6114 6115 6116 6117 6118 6119 6120 6121 6122 6123 6124 6125 6126 6127 6128 6129 6130 6131 6132 6133 6134 6135 6136 6137 6138 6139 6140 6141 6142 6143 6144 6145 6146 6147 6148 6149 6150 6151 6152 6153 6154 6155 6156 6157 6158 6159 6160 6161 6162 6163 6164 6165 6166 6167 6168 6169 6170 6171 6172 6173 6174 6175 6176 6177 6178 6179 6180 6181 6182 6183 6184 6185 6186 6187 6188 6189 6190 6191 6192 6193 6194 6195 6196 6197 6198 6199 6200 6201 6202 6203 6204 6205 6206 6207 6208 6209 6210 6211 6212 6213 6214 6215 6216 6217 6218 6219 6220 6221 6222 6223 6224 6225 6226 6227 6228 6229 6230 6231 6232 6233 6234 6235 6236 6237 6238 6239 6240 6241 6242 6243 6244 6245 6246 6247 6248 6249 6250 6251 6252 6253 6254 6255 6256 6257 6258 6259 6260 6261 6262 6263 6264 6265 6266 6267 6268 6269 6270 6271 6272 6273 6274 6275 6276 6277 6278 6279 6280 6281 6282 6283 6284 6285 6286 6287 6288 6289 6290 6291 6292 6293 6294 6295 6296 6297 6298 6299 6300 6301 6302 6303 6304 6305 6306 6307 6308 6309 6310 6311 6312 6313 6314 6315 6316 6317 6318 6319 6320 6321 6322 6323 6324 6325 6326 6327 6328 6329 6330 6331 6332 6333 6334 6335 6336 6337 6338 6339 6340 6341 6342 6343 6344 6345 6346 6347 6348 6349 6350 6351 6352 6353 6354 6355 6356 6357 6358 6359 6360 6361 6362 6363 6364 6365 6366 6367 6368 6369 6370 6371 6372 6373 6374 6375 6376 6377 6378 6379 6380 6381 6382 6383 6384 6385 6386 6387 6388 6389 6390 6391 6392 6393 6394 6395 6396 6397 6398 6399 6400 6401 6402 6403 6404 6405 6406 6407 6408 6409 6410 6411 6412 6413 6414 6415 6416 6417 6418 6419 6420 6421 6422 6423 6424 6425 6426 6427 6428 6429 6430 6431 6432 6433 6434 6435 6436 6437 6438 6439 6440 6441 6442 6443 6444 6445 6446 6447 6448 6449 6450 6451 6452 6453 6454 6455 6456 6457 6458 6459 6460 6461 6462 6463 6464 6465 6466 6467 6468 6469 6470 6471 6472 6473 6474 6475 6476 6477 6478 6479 6480 6481 6482 6483 6484 6485 6486 6487 6488 6489 6490 6491 6492 6493 6494 6495 6496 6497 6498 6499 6500 6501 6502 6503 6504 6505 6506 6507 6508 6509 6510 6511 6512 6513 6514 6515 6516 6517 6518 6519 6520 6521 6522 6523 6524 6525 6526 6527 6528 6529 6530 6531 6532 6533 6534 6535 6536 6537 6538 6539 6540 6541 6542 6543 6544 6545 6546 6547 6548 6549 6550 6551 6552 6553 6554 6555 6556 6557 6558 6559 6560 6561 6562 6563 6564 6565 6566 6567 6568 6569 6570 6571 6572 6573 6574 6575 6576 6577 6578 6579 6580 6581 6582 6583 6584 6585 6586 6587 6588 6589 6590 6591 6592 6593 6594 6595 6596 6597 6598 6599 6600 6601 6602 6603 6604 6605 6606 6607 6608 6609 6610 6611 6612 6613 6614 6615 6616 6617 6618 6619 6620 6621 6622 6623 6624 6625 6626 6627 6628 6629 6630 6631 6632 6633 6634 6635 6636 6637 6638 6639 6640 6641 6642 6643 6644 6645 6646 6647 6648 6649 6650 6651 6652 6653 6654 6655 6656 6657 6658 6659 6660 6661 6662 6663 6664 6665 6666 6667 6668 6669 6670 6671 6672 6673 6674 6675 6676 6677 6678 6679 6680 6681 6682 6683 6684 6685 6686 6687 6688 6689 6690 6691 6692 6693 6694 6695 6696 6697 6698 6699 6700 6701 6702 6703 6704 6705 6706 6707 6708 6709 6710 6711 6712 6713 6714 6715 6716 6717 6718 6719 6720 6721 6722 6723 6724 6725 6726 6727 6728 6729 6730 6731 6732 6733 6734 6735 6736 6737 6738 6739 6740 6741 6742 6743 6744 6745 6746 6747 6748 6749 6750 6751 6752 6753 6754 6755 6756 6757 6758 6759 6760 6761 6762 6763 6764 6765 6766 6767 6768 6769 6770 6771 6772 6773 6774 6775 6776 6777 6778 6779 6780 6781 6782 6783 6784 6785 6786 6787 6788 6789 6790 6791 6792 6793 6794 6795 6796 6797 6798 6799 6800 6801 6802 6803 6804 6805 6806 6807 6808 6809 6810 6811 6812 6813 6814 6815 6816 6817 6818 6819 6820 6821 6822 6823 6824 6825 6826 6827 6828 6829 6830 6831 6832 6833 6834 6835 6836 6837 6838 6839 6840 6841 6842 6843 6844 6845 6846 6847 6848 6849 6850 6851 6852 6853 6854 6855 6856 6857 6858 6859 6860 6861 6862 6863 6864 6865 6866 6867 6868 6869 6870 6871 6872 6873 6874 6875 6876 6877 6878 6879 6880 6881 6882 6883 6884 6885 6886 6887 6888 6889 6890 6891 6892 6893 6894 6895 6896 6897 6898 6899 6900 6901 6902 6903 6904 6905 6906 6907 6908 6909 6910 6911 6912 6913 6914 6915 6916 6917 6918 6919 6920 6921 6922 6923 6924 6925 6926 6927 6928 6929 6930 6931 6932 6933 6934 6935 6936 6937 6938 6939 6940 6941 6942 6943 6944 6945 6946 6947 6948 6949 6950 6951 6952 6953 6954 6955 6956 6957 6958 6959 6960 6961 6962 6963 6964 6965 6966 6967 6968 6969 6970 6971 6972 6973 6974 6975 6976 6977 6978 6979 6980 6981 6982 6983 6984 6985 6986 6987 6988 6989 6990 6991 6992 6993 6994 6995 6996 6997 6998 6999 7000 7001 7002 7003 7004 7005 7006 7007 7008 7009 7010 7011 7012 7013 7014 7015 7016 7017 7018 7019 7020 7021 7022 7023 7024 7025 7026 7027 7028 7029 7030 7031 7032 7033 7034 7035 7036 7037 7038 7039 7040 7041 7042 7043 7044 7045 7046 7047 7048 7049 7050 7051 7052 7053 7054 7055 7056 7057 </DataArray>
        <DataArray type="UInt8" Name="vtkGhostType" format="ascii" RangeMin="0" RangeMax="0">0 0 0 0 0 0 0 0 0 0 0 0 0 0 0 0 0 0 0 0 0 0 0 0 0 0 0 0 0 0 0 0 0 0 0 0 0 0 0 0 0 0 0 0 0 0 0 0 0 0 0 0 0 0 0 0 0 0 0 0 0 0 0 0 0 0 0 0 0 0 0 0 0 0 0 0 0 0 0 0 0 0 0 0 0 0 0 0 0 0 0 0 0 0 0 0 0 0 0 0 0 0 0 0 0 0 0 0 0 0 0 0 0 0 0 0 0 0 0 0 0 0 0 0 0 0 0 0 0 0 0 0 0 0 0 0 0 0 0 0 0 0 0 0 0 0 0 0 0 0 0 0 0 0 0 0 0 0 0 0 0 0 0 0 0 0 0 0 0 0 0 0 0 0 0 0 0 0 0 0 0 0 0 0 0 0 0 0 0 0 0 0 0 0 0 0 0 0 0 0 0 0 0 0 0 0 0 0 0 0 0 0 0 0 0 0 0 0 0 0 0 0 0 0 0 0 0 0 0 0 0 0 0 0 0 0 0 0 0 0 0 0 0 0 0 0 0 0 0 0 0 0 0 0 0 0 0 0 0 0 0 0 0 0 0 0 0 0 0 0 0 0 0 0 0 0 0 0 0 0 0 0 0 0 0 0 0 0 0 0 0 0 0 0 0 0 0 0 0 0 0 0 0 0 0 0 0 0 0 0 0 0 0 0 0 0 0 0 0 0 0 0 0 0 0 0 0 0 0 0 0 0 0 0 0 0 0 0 0 0 0 0 0 0 0 0 0 0 0 0 0 0 0 0 0 0 0 0 0 0 0 0 0 0 0 0 0 0 0 0 0 0 0 0 0 0 0 0 0 0 0 0 0 0 0 0 0 0 0 0 0 0 0 0 0 0 0 0 0 0 0 0 0 0 0 0 0 0 0 0 0 0 0 0 0 0 0 0 0 0 0 0 0 0 0 0 0 0 0 0 0 0 0 0 0 0 0 0 0 0 0 0 0 0 0 0 0 0 0 0 0 0 0 0 0 0 0 0 0 0 0 0 0 0 0 0 0 0 0 0 0 0 0 0 0 0 0 0 0 0 0 0 0 0 0 0 0 0 0 0 0 0 0 0 0 0 0 0 0 0 0 0 0 0 0 0 0 0 0 0 0 0 0 0 0 0 0 0 0 0 0 0 0 0 0 0 0 0 0 0 0 0 0 0 0 0 0 0 0 0 0 0 0 0 0 0 0 0 0 0 0 0 0 0 0 0 0 0 0 0 0 0 0 0 0 0 0 0 0 0 0 0 0 0 0 0 0 0 0 0 0 0 0 0 0 0 0 0 0 0 0 0 0 0 0 0 0 0 0 0 0 0 0 0 0 0 0 0 0 0 0 0 0 0 0 0 0 0 0 0 0 0 0 0 0 0 0 0 0 0 0 0 0 0 0 0 0 0 0 0 0 0 0 0 0 0 0 0 0 0 0 0 0 0 0 0 0 0 0 0 0 0 0 0 0 0 0 0 0 0 0 0 0 0 0 0 0 0 0 0 0 0 0 0 0 0 0 0 0 0 0 0 0 0 0 0 0 0 0 0 0 0 0 0 0 0 0 0 0 0 0 0 0 0 0 0 0 0 0 0 0 0 0 0 0 0 0 0 0 0 0 0 0 0 0 0 0 0 0 0 0 0 0 0 0 0 0 0 0 0 0 0 0 0 0 0 0 0 0 0 0 0 0 0 0 0 0 0 0 0 0 0 0 0 0 0 0 0 0 0 0 0 0 0 0 0 0 0 0 0 0 0 0 0 0 0 0 0 0 0 0 0 0 0 0 0 0 0 0 0 0 0 0 0 0 0 0 0 0 0 0 0 0 0 0 0 0 0 0 0 0 0 0 0 0 0 0 0 0 0 0 0 0 0 0 0 0 0 0 0 0 0 0 0 0 0 0 0 0 0 0 0 0 0 0 0 0 0 0 0 0 0 0 0 0 0 0 0 0 0 0 0 0 0 0 0 0 0 0 0 0 0 0 0 0 0 0 0 0 0 0 0 0 0 0 0 0 0 0 0 0 0 0 0 0 0 0 0 0 0 0 0 0 0 0 0 0 0 0 0 0 0 0 0 0 0 0 0 0 0 0 0 0 0 0 0 0 0 0 0 0 0 0 0 0 0 0 0 0 0 0 0 0 0 0 0 0 0 0 0 0 0 0 0 0 0 0 0 0 0 0 0 0 0 0 0 0 0 0 0 0 0 0 0 0 0 0 0 0 0 0 0 0 0 0 0 0 0 0 0 0 0 0 0 0 0 0 0 0 0 0 0 0 0 0 0 0 0 0 0 0 0 0 0 0 0 0 0 0 0 0 0 0 0 0 0 0 0 0 0 0 0 0 0 0 0 0 0 0 0 0 0 0 0 0 0 0 0 0 0 0 0 0 0 0 0 0 0 0 0 0 0 0 0 0 0 0 0 0 0 0 0 0 0 0 0 0 0 0 0 0 0 0 0 0 0 0 0 0 0 0 0 0 0 0 0 0 0 0 0 0 0 0 0 0 0 0 0 0 0 0 0 0 0 0 0 0 0 0 0 0 0 0 0 0 0 0 0 0 0 0 0 0 0 0 0 0 0 0 0 0 0 0 0 0 0 0 0 0 0 0 0 0 0 0 0 0 0 0 0 0 0 0 0 0 0 0 0 0 0 0 0 0 0 0 0 0 0 0 0 0 0 0 0 0 0 0 0 0 0 0 0 0 0 0 0 0 0 0 0 0 0 0 0 0 0 0 0 0 0 0 0 0 0 0 0 0 0 0 0 0 0 0 0 0 0 0 0 0 0 0 0 0 0 0 0 0 0 0 0 0 0 0 0 0 0 0 0 0 0 0 0 0 0 0 0 0 0 0 0 0 0 0 0 0 0 0 0 0 0 0 0 0 0 0 0 0 0 0 0 0 0 0 0 0 0 0 0 0 0 0 0 0 0 0 0 0 0 0 0 0 0 0 0 0 0 0 0 0 0 0 0 0 0 0 0 0 0 0 0 0 0 0 0 0 0 0 0 0 0 0 0 0 0 0 0 0 0 0 0 0 0 0 0 0 0 0 0 0 0 0 0 0 0 0 0 0 0 0 0 0 0 0 0 0 0 0 0 0 0 0 0 0 0 0 0 0 0 0 0 0 0 0 0 0 0 0 0 0 0 0 0 0 0 0 0 0 0 0 0 0 0 0 0 0 0 0 0 0 0 0 0 0 0 0 0 0 0 0 0 0 0 0 0 0 0 0 0 0 0 0 0 0 0 0 0 0 0 0 0 0 0 0 0 0 0 0 0 0 0 0 0 0 0 0 0 0 0 0 0 0 0 0 0 0 0 0 0 0 0 0 0 0 0 0 0 0 0 0 0 0 0 0 0 0 0 0 0 0 0 0 0 0 0 0 0 0 0 0 0 0 0 0 0 0 0 0 0 0 0 0 0 0 0 0 0 0 0 0 0 0 0 0 0 0 0 0 0 0 0 0 0 0 0 0 0 0 0 0 0 0 0 0 0 0 0 0 0 0 0 0 0 0 0 0 0 0 0 0 0 0 0 0 0 0 0 0 0 0 0 0 0 0 0 0 0 0 0 0 0 0 0 0 0 0 0 0 0 0 0 0 0 0 0 0 0 0 0 0 0 0 0 0 0 0 0 0 0 0 0 0 0 0 0 0 0 0 0 0 0 0 0 0 0 0 0 0 0 0 0 0 0 0 0 0 0 0 0 0 0 0 0 0 0 0 0 0 0 0 0 0 0 0 0 0 0 0 0 0 0 0 0 0 0 0 0 0 0 0 0 0 0 0 0 0 0 0 0 0 0 0 0 0 0 0 0 0 0 0 0 0 0 0 0 0 0 0 0 0 0 0 0 0 0 0 0 0 0 0 0 0 0 0 0 0 0 0 0 0 0 0 0 0 0 0 0 0 0 0 0 0 0 0 0 0 0 0 0 0 0 0 0 0 0 0 0 0 0 0 0 0 0 0 0 0 0 0 0 0 0 0 0 0 0 0 0 0 0 0 0 0 0 0 0 0 0 0 0 0 0 0 0 0 0 0 0 0 0 0 0 0 0 0 0 0 0 0 0 0 0 0 0 0 0 0 0 0 0 0 0 0 0 0 0 0 0 0 0 0 0 0 0 0 0 0 0 0 0 0 0 0 0 0 0 0 0 0 0 0 0 0 0 0 0 0 0 0 0 0 0 0 0 0 0 0 0 0 0 0 0 0 0 0 0 0 0 0 0 0 0 0 0 0 0 0 0 0 0 0 0 0 0 0 0 0 0 0 0 0 0 0 0 0 0 0 0 0 0 0 0 0 0 0 0 0 0 0 0 0 0 0 0 0 0 0 0 0 0 0 0 0 0 0 0 0 0 0 0 0 0 0 0 0 0 0 0 0 0 0 0 0 0 0 0 0 0 0 0 0 0 0 0 0 0 0 0 0 0 0 0 0 0 0 0 0 0 0 0 0 0 0 0 0 0 0 0 0 0 0 0 0 0 0 0 0 0 0 0 0 0 0 0 0 0 0 0 0 0 0 0 0 0 0 0 0 0 0 0 0 0 0 0 0 0 0 0 0 0 0 0 0 0 0 0 0 0 0 0 0 0 0 0 0 0 0 0 0 0 0 0 0 0 0 0 0 0 0 0 0 0 0 0 0 0 0 0 0 0 0 0 0 0 0 0 0 0 0 0 0 0 0 0 0 0 0 0 0 0 0 0 0 0 0 0 0 0 0 0 0 0 0 0 0 0 0 0 0 0 0 0 0 0 0 0 0 0 0 0 0 0 0 0 0 0 0 0 0 0 0 0 0 0 0 0 0 0 0 0 0 0 0 0 0 0 0 0 0 0 0 0 0 0 0 0 0 0 0 0 0 0 0 0 0 0 0 0 0 0 0 0 0 0 0 0 0 0 0 0 0 0 0 0 0 0 0 0 0 0 0 0 0 0 0 0 0 0 0 0 0 0 0 0 0 0 0 0 0 0 0 0 0 0 0 0 0 0 0 0 0 0 0 0 0 0 0 0 0 0 0 0 0 0 0 0 0 0 0 0 0 0 0 0 0 0 0 0 0 0 0 0 0 0 0 0 0 0 0 0 0 0 0 0 0 0 0 0 0 0 0 0 0 0 0 0 0 0 0 0 0 0 0 0 0 0 0 0 0 0 0 0 0 0 0 0 0 0 0 0 0 0 0 0 0 0 0 0 0 0 0 0 0 0 0 0 0 0 0 0 0 0 0 0 0 0 0 0 0 0 0 0 0 0 0 0 0 0 0 0 0 0 0 0 0 0 0 0 0 0 0 0 0 0 0 0 0 0 0 0 0 0 0 0 0 0 0 0 0 0 0 0 0 0 0 0 0 0 0 0 0 0 0 0 0 0 0 0 0 0 0 0 0 0 0 0 0 0 0 0 0 0 0 0 0 0 0 0 0 0 0 0 0 0 0 0 0 0 0 0 0 0 0 0 0 0 0 0 0 0 0 0 0 0 0 0 0 0 0 0 0 0 0 0 0 0 0 0 0 0 0 0 0 0 0 0 0 0 0 0 0 0 0 0 0 0 0 0 0 0 0 0 0 0 0 0 0 0 0 0 0 0 0 0 0 0 0 0 0 0 0 0 0 0 0 0 0 0 0 0 0 0 0 0 0 0 0 0 0 0 0 0 0 0 0 0 0 0 0 0 0 0 0 0 0 0 0 0 0 0 0 0 0 0 0 0 0 0 0 0 0 0 0 0 0 0 0 0 0 0 0 0 0 0 0 0 0 0 0 0 0 0 0 0 0 0 0 0 0 0 0 0 0 0 0 0 0 0 0 0 0 0 0 0 0 0 0 0 0 0 0 0 0 0 0 0 0 0 0 0 0 0 0 0 0 0 0 0 0 0 0 0 0 0 0 0 0 0 0 0 0 0 0 0 0 0 0 0 0 0 0 0 0 0 0 0 0 0 0 0 0 0 0 0 0 0 0 0 0 0 0 0 0 0 0 0 0 0 0 0 0 0 0 0 0 0 0 0 0 0 0 0 0 0 0 0 0 0 0 0 0 0 0 0 0 0 0 0 0 0 0 0 0 0 0 0 0 0 0 0 0 0 0 0 0 0 0 0 0 0 0 0 0 0 0 0 0 0 0 0 0 0 0 0 0 0 0 0 0 0 0 0 0 0 0 0 0 0 0 0 0 0 0 0 0 0 0 0 0 0 0 0 0 0 0 0 0 0 0 0 0 0 0 0 0 0 0 0 0 0 0 0 0 0 0 0 0 0 0 0 0 0 0 0 0 0 0 0 0 0 0 0 0 0 0 0 0 0 0 0 0 0 0 0 0 0 0 0 0 0 0 0 0 0 0 0 0 0 0 0 0 0 0 0 0 0 0 0 0 0 0 0 0 0 0 0 0 0 0 0 0 0 0 0 0 0 0 0 0 0 0 0 0 0 0 0 0 0 0 0 0 0 0 0 0 0 0 0 0 0 0 0 0 0 0 0 0 0 0 0 0 0 0 0 0 0 0 0 0 0 0 0 0 0 0 0 0 0 0 0 0 0 0 0 0 0 0 0 0 0 0 0 0 0 0 0 0 0 0 0 0 0 0 0 0 0 0 0 0 0 0 0 0 0 0 0 0 0 0 0 0 0 0 0 0 0 0 0 0 0 0 0 0 0 0 0 0 0 0 0 0 0 0 0 0 0 0 0 0 0 0 0 0 0 0 0 0 0 0 0 0 0 0 0 0 0 0 0 0 0 0 0 0 0 0 0 0 0 0 0 0 0 0 0 0 0 0 0 0 0 0 0 0 0 0 0 0 0 0 0 0 0 0 0 0 0 0 0 0 0 0 0 0 0 0 0 0 0 0 0 0 0 0 0 0 0 0 0 0 0 0 0 0 0 0 0 0 0 0 0 0 0 0 0 0 0 0 0 0 0 0 0 0 0 0 0 0 0 0 0 0 0 0 0 0 0 0 0 0 0 0 0 0 0 0 0 0 0 0 0 0 0 0 0 0 0 0 0 0 0 0 0 0 0 0 0 0 0 0 0 0 0 0 0 0 0 0 0 0 0 0 0 0 0 0 0 0 0 0 0 0 0 0 0 0 0 0 0 0 0 0 0 0 0 0 0 0 0 0 0 0 0 0 0 0 0 0 0 0 0 0 0 0 0 0 0 0 0 0 0 0 0 0 0 0 0 0 0 0 0 0 0 0 0 0 0 0 0 0 0 0 0 0 0 0 0 0 0 0 0 0 0 0 0 0 0 0 0 0 0 0 0 0 0 0 0 0 0 0 0 0 0 0 0 0 0 0 0 0 0 0 0 0 0 0 0 0 0 0 0 0 0 0 0 0 0 0 0 0 0 0 0 0 0 0 0 0 0 0 0 0 0 0 0 0 0 0 0 0 0 0 0 0 0 0 0 0 0 0 0 0 0 0 0 0 0 0 0 0 0 0 0 0 0 0 0 0 0 0 0 0 0 0 0 0 0 0 0 0 0 0 0 0 0 0 0 0 0 0 0 0 0 0 0 0 0 0 0 0 0 0 0 0 0 0 0 0 0 0 0 0 0 0 0 0 0 0 0 0 0 0 0 0 0 0 0 0 0 0 0 0 0 0 0 0 0 0 0 0 0 0 0 0 0 0 0 0 0 0 0 0 0 0 0 0 0 0 0 0 0 0 0 0 0 0 0 0 0 0 0 0 0 0 0 0 0 0 0 0 0 0 0 0 0 0 0 0 0 0 0 0 0 0 0 0 0 0 0 0 0 0 0 0 0 0 0 0 0 0 0 0 0 0 0 0 0 0 0 0 0 0 0 0 0 0 0 0 0 0 0 0 0 0 0 0 0 0 0 0 0 0 0 0 0 0 0 0 0 0 0 0 0 0 0 0 0 0 0 0 0 0 0 0 0 0 0 0 0 0 0 0 0 0 0 0 0 0 0 0 0 0 0 0 0 0 0 0 0 0 0 0 0 0 0 0 0 0 0 0 0 0 0 0 0 0 0 0 0 0 0 0 0 0 0 0 0 0 0 0 0 0 0 0 0 0 0 0 0 0 0 0 0 0 0 0 0 0 0 0 0 0 0 0 0 0 0 0 0 0 0 0 0 0 0 0 0 0 0 0 0 0 0 0 0 0 0 0 0 0 0 0 0 0 0 0 0 0 0 0 0 0 0 0 0 0 0 0 0 0 0 0 0 0 0 0 0 0 0 0 0 0 0 0 0 0 0 0 0 0 0 0 0 0 0 0 0 0 0 0 0 0 0 0 0 0 0 0 0 0 0 0 0 0 0 0 0 0 0 0 0 0 0 0 0 0 0 0 0 0 0 0 0 0 0 0 0 0 0 0 0 0 0 0 0 0 0 0 0 0 0 0 0 0 0 0 0 0 0 0 0 0 0 0 0 0 0 0 0 0 0 0 0 0 0 0 0 0 0 0 0 0 0 0 0 0 0 0 0 0 0 0 0 0 0 0 0 0 0 0 0 0 0 0 0 0 0 0 0 0 0 0 0 0 0 0 0 0 0 0 0 0 0 0 0 0 0 0 0 0 0 0 0 0 0 0 0 0 0 0 0 0 0 0 0 0 0 0 0 0 0 0 0 0 0 0 0 0 0 0 0 0 0 0 0 0 0 0 0 0 0 0 0 0 0 0 0 0 0 0 0 0 0 0 0 0 0 0 0 0 0 0 0 0 0 0 0 0 0 0 0 0 0 0 0 0 0 0 0 0 0 0 0 0 0 0 0 0 0 0 0 0 0 0 0 0 0 0 0 0 0 0 0 0 0 0 0 0 0 0 0 0 0 0 0 0 0 0 0 0 0 0 0 0 0 0 0 0 0 0 0 0 0 0 0 0 0 0 0 0 0 0 0 0 0 0 0 0 0 0 0 0 0 0 0 0 0 0 0 0 0 0 0 0 0 0 0 0 0 0 0 0 0 0 0 0 0 0 0 0 0 0 0 0 0 0 0 0 0 0 0 0 0 0 0 0 0 0 0 0 0 0 0 0 0 0 0 0 0 0 0 0 0 0 0 0 0 0 0 0 0 0 0 0 0 0 0 0 0 0 0 0 0 0 0 0 0 0 0 0 0 0 0 0 0 0 0 0 0 0 0 0 0 0 0 0 0 0 0 0 0 0 0 0 0 0 0 0 0 0 0 0 0 0 0 0 0 0 0 0 0 0 0 0 0 0 0 0 0 0 0 0 0 0 0 0 0 0 0 0 0 0 0 0 0 0 0 0 0 0 0 0 0 0 0 0 0 0 0 0 0 0 0 0 0 0 0 0 0 0 0 0 0 0 0 0 0 0 0 0 0 0 0 0 0 0 0 0 0 0 0 0 0 0 0 0 0 0 0 0 0 0 0 0 0 0 0 0 0 0 0 0 0 0 0 0 0 0 0 0 0 0 0 0 0 0 0 0 0 0 0 0 0 0 0 0 0 0 0 0 0 0 0 0 0 0 0 0 0 0 0 0 0 0 0 0 0 0 0 0 0 0 0 0 0 0 0 0 0 0 0 0 0 0 0 0 0 0 0 0 0 0 0 0 0 0 0 0 0 0 0 0 0 0 0 0 0 0 0 0 0 0 0 0 0 0 0 0 0 0 0 0 0 0 0 0 0 0 0 0 0 0 0 0 0 0 0 0 0 0 0 0 0 0 0 0 0 0 0 0 0 0 0 0 0 0 0 0 0 0 0 0 0 0 0 0 0 0 0 0 0 0 0 0 0 0 0 0 0 0 0 0 0 0 0 0 0 0 0 0 0 0 0 0 0 0 0 0 0 0 0 0 0 0 0 0 0 0 0 0 0 0 0 0 0 0 0 0 0 0 0 0 0 0 0 0 0 0 0 0 0 0 0 0 0 0 0 0 0 0 0 0 0 0 0 0 0 0 0 0 0 0 0 0 0 0 0 0 0 0 0 0 0 0 0 0 0 0 0 0 0 0 0 0 0 0 0 0 0 0 0 0 0 0 0 0 0 0 0 0 0 0 0 0 0 0 0 0 0 0 0 0 0 0 0 0 0 0 0 0 0 0 0 0 0 0 0 0 0 0 0 0 0 0 0 0 0 0 0 0 0 0 0 0 0 0 0 0 0 0 0 0 0 0 0 0 0 0 0 0 0 0 0 0 0 0 0 0 0 0 0 0 0 0 0 0 0 0 0 0 0 0 0 0 0 0 0 0 0 0 0 0 0 0 0 0 0 0 0 0 0 0 0 0 0 0 0 0 0 0 0 0 0 0 0 0 0 0 0 0 0 0 0 0 0 0 0 0 0 0 0 0 0 0 0 0 0 0 0 0 0 0 0 0 0 0 0 0 0 0 0 0 0 0 0 0 0 0 0 0 0 0 0 0 0 0 0 0 0 0 0 0 0 0 0 0 0 0 0 0 0 0 0 0 0 0 0 0 0 0 0 0 0 0 0 0 0 0 0 0 0 0 0 0 0 0 0 0 0 0 0 0 0 0 0 0 0 0 0 0 0 0 0 0 0 0 0 0 0 0 0 0 0 0 0 0 0 0 0 0 0 0 0 0 0 0 0 0 0 0 0 0 0 0 0 0 0 0 0 0 0 0 0 0 0 0 0 0 0 0 0 0 0 0 0 0 0 0 0 0 0 0 0 0 0 0 0 0 0 0 0 0 0 0 0 0 0 0 0 0 0 0 0 0 0 0 0 0 0 0 0 0 0 0 0 0 0 0 0 0 0 0 0 0 0 0 0 0 0 0 0 0 0 0 0 0 0 0 0 0 0 0 0 0 0 0 0 0 0 0 0 0 0 0 0 0 0 0 0 0 0 0 0 0 0 0 0 0 0 0 0 0 0 0 0 0 0 0 0 0 0 0 0 0 0 0 0 0 0 0 0 0 0 0 0 0 0 0 0 0 0 0 0 0 0 0 0 0 0 0 0 0 0 0 0 0 0 0 0 0 0 0 0 0 0 0 0 0 0 0 0 0 0 0 0 0 0 0 0 0 0 0 0 0 0 0 0 0 0 0 0 0 0 0 0 0 0 0 0 0 0 0 0 0 0 0 0 0 0 0 0 0 0 0 0 0 0 0 0 0 0 0 0 0 0 0 0 0 0 0 0 0 0 0 0 0 0 0 0 0 0 0 0 0 0 0 0 0 0 0 0 0 0 0 0 0 0 0 0 0 0 0 0 0 0 0 0 0 0 0 0 0 0 0 0 0 0 0 0 0 0 0 0 0 0 0 0 0 0 0 0 0 0 0 0 0 0 0 0 0 0 0 0 0 0 0 0 0 0 0 0 0 0 0 0 0 0 0 0 0 0 0 0 0 0 0 0 0 0 0 0 0 0 0 0 0 0 0 0 0 0 0 0 0 0 0 0 0 0 0 0 0 0 0 0 0 0 0 0 0 0 0 0 0 0 0 0 0 0 0 0 0 0 0 0 0 0 0 0 0 0 0 0 0 0 0 0 0 0 0 0 0 0 0 0 0 0 0 0 0 0 0 0 0 0 0 0 0 0 0 0 0 0 0 0 0 0 0 0 0 0 0 0 0 0 0 0 0 0 0 0 0 0 0 0 0 0 0 0 0 0 0 0 0 0 0 0 0 0 0 0 0 0 0 0 0 0 0 0 0 0 0 0 0 0 0 0 0 0 0 0 0 0 0 0 0 0 0 0 0 0 0 0 0 0 0 0 0 0 0 0 0 0 0 0 0 0 0 0 0 0 0 0 0 0 0 0 0 0 0 0 0 0 0 0 0 0 0 0 0 0 0 0 0 0 0 0 0 0 0 0 0 0 0 0 0 0 0 0 0 0 0 0 0 0 0 0 0 0 0 0 0 0 0 0 0 0 0 0 0 0 0 0 0 0 0 0 0 0 0 0 0 0 0 0 0 0 0 0 0 0 0 0 0 0 0 0 0 0 0 0 0 0 0 0 0 0 0 0 0 0 0 0 0 0 0 0 0 0 0 0 0 0 0 0 0 0 0 0 0 0 0 0 0 0 0 0 0 0 0 0 0 0 0 0 0 0 0 0 0 0 0 0 0 0 0 0 0 0 0 0 0 0 0 0 0 0 0 0 0 0 0 0 0 0 0 0 0 0 0 0 0 0 0 0 0 0 0 0 0 0 0 0 0 0 0 0 0 0 0 0 0 0 0 0 0 0 0 0 0 0 0 0 0 0 0 0 0 0 0 0 0 0 0 0 0 0 0 0 0 0 0 0 0 0 0 0 0 0 0 0 0 0 0 0 0 0 0 0 0 0 0 0 0 0 0 0 0 0 0 0 0 0 0 0 0 0 0 0 0 0 0 0 0 0 0 0 0 0 0 0 0 0 0 0 0 0 0 0 0 0 0 0 0 0 0 0 0 0 0 0 0 0 0 0 0 0 0 0 0 0 0 0 0 0 0 0 0 0 0 0 0 0 0 0 0 0 0 0 0 0 0 0 0 0 0 0 0 0 0 0 0 0 0 0 0 0 0 0 0 0 0 0 0 0 0 0 0 0 0 0 0 0 0 0 0 0 0 0 0 0 0 0 0 0 0 0 0 0 0 0 0 0 0 0 0 0 0 0 0 0 0 0 0 0 0 0 0 0 0 0 0 0 0 0 0 0 0 0 0 0 0 0 0 0 0 0 0 0 0 0 0 0 0 0 0 0 0 0 0 0 0 0 0 0 0 0 0 0 0 0 0 0 0 0 0 0 0 0 0 0 0 0 0 0 0 0 0 0 0 0 0 0 0 0 0 0 0 0 0 0 0 0 0 0 0 0 0 0 0 0 0 0 0 0 0 0 0 0 0 0 0 0 0 0 0 0 0 0 0 0 0 0 0 0 0 0 0 0 0 0 0 0 0 0 0 0 0 0 0 0 0 0 0 0 0 0 0 0 0 0 0 0 0 0 0 0 0 0 0 0 0 0 0 0 0 0 0 0 0 0 0 0 0 0 0 0 0 0 0 0 0 0 0 0 0 0 0 0 0 0 0 0 0 0 0 0 0 0 0 0 0 0 0 0 0 0 0 0 0 0 0 0 0 0 0 0 0 0 0 0 0 0 0 0 0 0 0 0 0 0 0 0 0 0 0 0 0 0 0 0 0 0 0 0 0 0 0 0 0 0 0 0 0 0 0 0 0 0 0 0 0 0 0 0 0 0 0 0 0 0 0 0 0 0 0 0 0 0 0 0 0 0 0 0 0 0 0 0 0 0 0 0 0 0 0 0 0 0 0 0 0 0 0 0 0 0 0 0 0 0 0 0 0 0 0 0 0 0 0 0 0 0 0 0 0 0 0 0 0 0 0 0 0 0 0 0 0 0 0 0 0 0 0 0 0 0 0 0 0 0 0 0 0 0 0 0 0 0 0 0 0 0 0 0 0 0 0 0 0 0 0 0 0 0 0 0 0 0 0 0 0 0 0 0 0 0 0 0 0 0 0 0 0 0 0 0 0 0 0 0 0 0 0 0 0 0 0 0 0 0 0 0 0 0 0 0 0 0 0 0 0 0 0 0 0 0 0 0 0 0 0 0 0 0 0 0 0 0 0 0 0 0 0 0 0 0 0 0 0 0 0 0 0 0 0 0 0 0 0 0 0 0 0 0 0 0 0 0 0 0 0 0 0 0 0 0 0 0 0 0 0 0 0 0 0 0 0 0 0 0 0 0 0 0 0 0 0 0 0 0 0 0 0 0 0 0 0 0 0 0 0 0 0 0 0 0 0 0 0 0 0 0 0 0 0 0 0 0 0 0 0 0 0 0 0 0 0 0 0 0 0 0 0 0 0 0 0 0 0 0 0 0 0 0 0 0 0 0 0 0 0 0 0 0 0 0 0 0 0 0 0 0 0 0 0 0 0 0 0 0 0 0 0 0 0 0 0 0 0 0 0 0 0 0 0 0 0 0 0 0 0 0 0 0 0 0 0 0 0 0 0 0 0 0 0 0 0 0 0 0 0 0 0 0 0 0 0 0 0 0 0 0 0 0 0 0 0 0 0 0 0 0 0 0 0 0 0 0 0 0 0 0 0 0 0 0 0 0 0 0 0 0 0 0 0 0 0 0 0 0 0 0 0 0 0 0 0 0 0 0 0 0 0 0 0 0 0 0 0 0 0 0 0 0 0 0 0 0 0 0 0 0 0 0 0 0 0 0 0 0 0 0 0 0 0 0 0 0 0 0 0 0 0 0 0 0 0 0 0 0 0 0 0 0 0 0 0 0 0 0 0 0 0 0 0 0 0 0 0 0 0 0 0 0 0 0 0 0 0 0 0 0 0 0 0 0 0 0 0 0 0 0 0 0 0 0 0 0 0 0 0 0 0 0 0 0 0 0 0 0 0 0 0 0 0 0 0 0 0 0 0 0 0 0 0 0 0 0 0 0 0 0 0 0 0 0 0 0 0 0 0 0 0 0 0 0 0 0 0 0 0 0 0 0 0 0 0 0 0 0 0 0 0 0 0 0 0 0 0 0 0 0 0 0 0 0 0 0 0 0 0 0 0 0 0 0 0 0 0 0 0 0 0 0 0 0 0 0 0 0 0 0 0 0 0 0 0 0 0 0 0 0 0 0 0 0 0 0 0 0 0 0 0 0 0 0 0 0 0 0 0 0 0 0 0 0 0 0 0 0 0 0 0 0 0 0 0 0 0 0 0 0 0 0 0 0 0 0 0 0 0 0 0 0 0 0 0 0 0 0 0 0 0 0 0 0 0 0 0 0 0 0 0 0 0 0 0 0 0 0 0 0 0 0 0 0 0 0 0 0 0 0 0 0 0 0 0 0 0 0 0 0 0 0 0 0 0 0 0 0 0 0 0 0 0 0 0 0 0 0 0 0 0 0 0 0 0 0 0 0 0 0 0 0 0 0 0 0 0 0 0 0 0 0 0 0 0 0 0 0 0 0 0 0 0 0 0 0 0 0 0 0 0 0 0 0 0 0 0 0 0 0 0 0 0 0 0 0 0 0 0 0 0 0 0 0 0 0 0 0 0 0 0 0 0 0 0 0 0 0 0 0 0 0 0 0 0 0 0 0 0 0 0 0 0 0 0 0 0 0 0 0 0 0 0 0 0 0 0 0 0 0 0 0 0 0 0 0 0 0 0 0 0 0 0 0 0 0 0 0 0 0 0 0 0 0 0 0 0 0 0 0 0 0 0 0 0 0 0 0 0 0 0 0 0 0 0 0 0 0 0 0 0 0 0 0 0 0 0 0 0 0 0 0 0 0 0 0 0 0 0 0 0 0 0 0 0 0 0 0 0 0 0 0 0 0 0 0 0 0 0 0 0 0 0 0 0 0 0 0 0 0 0 0 0 0 0 0 0 0 0 0 0 0 0 0 0 0 0 0 0 0 0 0 0 0 0 0 0 0 0 0 0 0 0 0 0 0 0 0 0 0 0 0 0 0 0 0 0 0 0 0 0 0 0 0 0 0 0 0 0 0 0 0 0 0 0 0 0 0 0 0 0 0 0 0 0 0 0 0 0 0 0 0 0 0 0 0 0 0 0 0 0 0 0 0 0 0 0 0 0 0 0 0 0 0 0 0 0 0 0 0 0 0 0 0 0 0 0 0 0 0 0 0 0 0 0 0 0 0 0 0 0 0 0 0 0 0 0 0 0 0 0 0 0 0 0 0 0 0 0 0 0 0 0 0 0 0 0 0 0 0 0 0 0 0 0 0 0 0 0 0 0 0 0 0 0 0 0 0 0 0 0 0 0 0 0 0 0 0 0 0 0 0 0 0 0 0 0 0 0 0 0 0 0 0 0 0 0 0 0 0 0 0 0 0 0 0 0 0 0 0 0 0 0 0 0 0 0 0 0 0 0 0 0 0 0 0 0 0 0 0 0 0 0 0 0 0 0 0 0 0 0 0 0 0 0 0 0 0 0 0 0 0 0 0 0 0 0 0 </DataArray>
        <DataArray type="Float64" Name="u" format="ascii" NumberOfComponents="3">0.0006056158825664718 0 0 0.000609941196904751 -1.744119205783938e-23 0 0.0006067539814770774 -8.013305140617471e-07 0 0.0006099021077233806 -1.113416142571327e-06 0 0.0006033897560278329 -8.208861852638753e-07 0 0.000605684736525781 -1.628227426368242e-06 0 0.0006013276091990083 0 0 0.0006097849432090981 -2.228739418017564e-06 0 0.0005991529297628983 -8.773812019108876e-07 0 0.0006010741799774609 -1.544717597585674e-06 0 0.0006061315984024021 -2.769935417431255e-06 0 0.000597078337950651 0 0 0.0006023003617127928 -2.413099453811171e-06 0 0.0006095900118498727 -3.347867560131162e-06 0 0.0005947309143920412 -9.302560892814154e-07 0 0.0005969897408775314 -1.494085220991531e-06 0 0.0005984920471616917 -2.178619184804242e-06 0 0.0006061523661257969 -3.875314973231254e-06 0 0.0006093178257933831 -4.472679585117429e-06 0 0.0006028624565411496 -3.463925653583485e-06 0 0.0005928689974526521 0 0 0.0005992699328726071 -3.136096477591649e-06 0 0.0006056072592124533 -4.990492986342699e-06 0 0.0006089690978699182 -5.605026633166894e-06 0 0.0005907977669951164 -7.208571767699563e-07 0 0.0005945491048254728 -1.941950851308007e-06 0 0.000595301459182389 -2.914659821011445e-06 0 0.00060325324926417 -4.396920681302604e-06 0 0.0006050704929489396 -6.084891564560602e-06 0 0.0006085447374667129 -6.746723047471416e-06 0 0.0006000013841913315 -4.20021049073596e-06 0 0.0005887008972252878 0 0 0.0005908251610493519 -1.604266874114907e-06 0 0.0005961156764733691 -3.953091056755033e-06 0 0.0006014322541140914 -5.293550845650152e-06 0 0.0006046072695249026 -7.18070949637128e-06 0 0.0005868347628223046 -1.064920997569277e-06 0 0.0005912938084215703 -2.59023844940436e-06 0 0.0005921158656205151 -3.612800221546084e-06 0 0.0006014008924719106 -6.471655181583745e-06 0 0.0006080458452952045 -7.899537764901101e-06 0 0.0005970100752966707 -4.95199293377967e-06 0 0.0005845720713576013 0 0 0.0005873248284053894 -2.263813992460241e-06 0 0.00059295504761271 -4.617155727036836e-06 0 0.0005977508043163275 -6.021523793388699e-06 0 0.0006032558937283544 -8.390262423800588e-06 0 0.0006012686887508084 -7.544662311405424e-06 0 0.0006074737071034376 -9.065186088458396e-06 0 0.0006068297863958068 -1.024532190663663e-05 0 0.0006031926590324909 -9.638802609465427e-06 0 0.0005821748157728622 -9.398550917956378e-07 0 0.0005833454776700804 -1.953512195593829e-06 0 0.0005881330200095897 -3.272487266505224e-06 0 0.0005889792245776419 -4.275584941979118e-06 0 0.000598493505430838 -7.099114258863107e-06 0 0.0006027027560591767 -1.076176251981203e-05 0 0.000606115716231324 -1.144153041904815e-05 0 0.0005937462661294754 -5.641555971704161e-06 0 0.0005804869188062533 0 0 0.0005841968051544921 -2.963977510636399e-06 0 0.000589765430468499 -5.28729748889876e-06 0 0.0005944391805992319 -6.714223611933919e-06 0 0.0005990243161079815 -8.217926817460722e-06 0 0.0005993645914144846 -9.227010363484562e-06 0 0.0006000328187367273 -1.016364564026467e-05 0 0.0006018469864031775 -1.194216081692298e-05 0 0.000605333290179567 -1.265532142124016e-05 0 0.0006044844525202454 -1.388812319461251e-05 0 0.0006009882339128969 -1.31518333322246e-05 0 0.0005779657031285703 -8.125370504420829e-07 0 0.0005794106250150928 -1.696015876561483e-06 0 0.0005803269624112834 -2.655576478834302e-06 0 0.0005850355388799161 -3.950977237526918e-06 0 0.0005858199248225921 -4.947703783312478e-06 0 0.0005950044847569037 -7.811246463346214e-06 0 0.0005988280115671266 -1.10862401418775e-05 0 0.0006001122870817805 -1.438360043544527e-05 0 0.0006035712877779021 -1.514127703989681e-05 0 0.0005904902763722461 -6.337104246980898e-06 0 0.0005764465230456402 0 0 0.0005810561547694973 -3.640497291799901e-06 0 0.0005865485243939384 -5.968323127692191e-06 0 0.000591025431908023 -7.411781709042283e-06 0 0.0005954945505893714 -8.889527763552874e-06 0 0.0005960473838516155 -1.011153626759916e-05 0 0.0005970062532416366 -1.225856690821358e-05 0 0.0005966009989239486 -1.363844319646305e-05 0 0.0005993251097200945 -1.562924756308282e-05 0 0.000574042934457244 -7.466144717911699e-07 0 0.0005755439429534184 -1.498863395656103e-06 0 0.0005764814948599489 -2.347582206339863e-06 0 0.0005771924881172228 -3.326594253620224e-06 0 0.0005818977691643119 -4.63023828616708e-06 0 0.0005826341874289311 -5.614312933613614e-06 0 0.0005915833422988438 -8.463202714478821e-06 0 0.0005952779561407768 -1.118240387569713e-05 0 0.000596293841050357 -1.492404096631761e-05 0 0.0006025960096875294 -1.641603248492063e-05 0 0.0005870557350221434 -7.037676974020688e-06 0 0.0005724523001943966 0 0 0.0005777414392187864 -4.297995602294551e-06 0 0.0005831518490892814 -6.655394276411487e-06 0 0.0005875826338092516 -8.098450228157896e-06 0 0.0005921258994992331 -9.529574326945537e-06 0 0.0005922643719158657 -1.06719222297299e-05 0 0.000592611114417699 -1.186556494520419e-05 0 0.0005928541643028908 -1.303633351640973e-05 0 0.0005928340108991847 -1.42902725761888e-05 0 0.0005978811660891513 -1.695427411106706e-05 0 0.0005959233948854943 -1.605278852597944e-05 0 0.0006015609496898582 -1.771354318944235e-05 0 0.0006004685450567348 -1.903486356187134e-05 0 0.0005979594676478571 -1.822243883961254e-05 0 0.0005704101207615545 -8.096151444596967e-07 0 0.0005722954733641705 -1.362964385924522e-06 0 0.0005727459869431652 -2.091526178923078e-06 0 0.0005734121737659594 -3.014072973248614e-06 0 0.0005740465678263317 -3.994684426073682e-06 0 0.0005786656058003257 -5.271047444685278e-06 0 0.0005792937203250836 -6.281153551105924e-06 0 0.0005880898023481389 -9.147478054704862e-06 0 0.0005928235808650385 -1.560127703308578e-05 0 0.0005962907388137068 -1.933762321570759e-05 0 0.0005993213267473704 -2.038094609479494e-05 0 0.0005836250548788374 -7.706912743561005e-06 0 0.0005685074448609821 0 0 0.0005746895420007815 -4.958515436650187e-06 0 0.0005797050864352336 -7.337916264183322e-06 0 0.0005840978848594065 -8.765129327946115e-06 0 0.0005885339753291357 -1.02393343548582e-05 0 0.0005887750756695765 -1.138696648270186e-05 0 0.0005889414870787529 -1.256963547982689e-05 0 0.0005890815375622872 -1.375845482784349e-05 0 0.0005892029838953022 -1.50176823893866e-05 0 0.0005931987079251781 -1.676395313299412e-05 0 0.0005935679073664776 -1.808262678835925e-05 0 0.0005939782784167357 -2.070860857446191e-05 0 0.0005981219070953693 -2.175263941853865e-05 0 0.0005968729674243983 -2.315068706460179e-05 0 0.000595577245687198 -2.45757269238364e-05 0 0.0005925531036905449 -2.374655883699021e-05 0 0.0005932965312341402 -2.229381415066504e-05 0 0.0005666662986489955 -8.830676700417619e-07 0 0.0005689357587673085 -1.723277548771735e-06 0 0.0005696580407693781 -2.705055580934169e-06 0 0.0005703012468770246 -3.669947806914563e-06 0 0.0005708382726252751 -4.646863223314078e-06 0 0.000575344007715328 -5.945701695505018e-06 0 0.0005758948955543141 -6.95833996169233e-06 0 0.0005845822063863482 -9.835435384785899e-06 0 0.0005892162027244058 -1.630592865737834e-05 0 0.0005922670086919454 -1.943518803235786e-05 0 0.0005919520770211797 -2.496095884037884e-05 0 0.0005942375242185028 -2.602829137776011e-05 0 0.0005801215498073067 -8.381862022816978e-06 0 0.0005646113022401478 0 0 0.0005714279796638985 -5.611515385102533e-06 0 0.0005761857410772434 -8.007475671617766e-06 0 0.0005805262564112577 -9.442222235178042e-06 0 0.0005848052284634093 -1.094587122016324e-05 0 0.0005849973185696403 -1.211347621949014e-05 0 0.0005851361379013544 -1.330697330826675e-05 0 0.0005852248038449383 -1.452656342446805e-05 0 0.0005852691428371568 -1.577310567886568e-05 0 0.0005893342240840262 -1.755398046084008e-05 0 0.0005891427761221396 -1.887353224404664e-05 0 0.0005892447437827028 -2.024673382045329e-05 0 0.0005892451559103185 -2.158805448202345e-05 0 0.0005888850440573147 -2.307693976266314e-05 0 0.0005885935688494173 -2.453720959434561e-05 0 0.0005889066030620766 -2.583713826810563e-05 0 0.0005628209664386759 -8.16736541783366e-07 0 0.0005647176135016735 -1.600876316361945e-06 0 0.0005658923483661543 -2.437298683532002e-06 0 0.0005665900389175606 -3.350051665997899e-06 0 0.0005671443959622051 -4.31427632793871e-06 0 0.0005675885770230636 -5.291461851088988e-06 0 0.0005719143389886027 -6.610908120052054e-06 0 0.0005724169943888193 -7.626609437822389e-06 0 0.0005808838404925765 -1.053180494007105e-05 0 0.000585245642024743 -1.705426026369899e-05 0 0.0005895996143615045 -2.695532400918748e-05 0 0.0005928566176873916 -2.750880807548819e-05 0 0.0005765848415569444 -9.056979410315107e-06 0 0.0005607674115820765 0 0 0.0005680576641555571 -6.269278155640968e-06 0 0.0005726476619722331 -8.684817645151027e-06 0 0.000576853226113004 -1.012096359184502e-05 0 0.0005810496635763247 -1.166184251622259e-05 0 0.000581164661229513 -1.284116912012027e-05 0 0.0005812278771606373 -1.40476608384553e-05 0 0.0005812433500613827 -1.528170739511702e-05 0 0.0005812155477394796 -1.654393251991892e-05 0 0.000585235044355797 -1.834955579062835e-05 0 0.0005851636067242097 -1.967935809595317e-05 0 0.0005850420228096199 -2.104116836793277e-05 0 0.0005848997372203379 -2.240649283787959e-05 0 0.0005846568018372031 -2.38609283946814e-05 0 0.0005845295866394864 -2.531647860151566e-05 0 0.0005848776025322469 -2.691491979952077e-05 0 0.0005877171794816879 -2.822360211305886e-05 0 0.0005914373613287961 -2.901760132349537e-05 0 0.0005586954631324759 -8.544410912362002e-07 0 0.0005611877253256499 -1.442042326423697e-06 0 0.0005622431973528184 -2.12980751788444e-06 0 0.0005629254133335675 -3.037545428256929e-06 0 0.0005634793777826751 -3.983284191123283e-06 0 0.0005639364585601825 -4.947750218734389e-06 0 0.0005642894971964272 -5.924741235249377e-06 0 0.0005684478915585659 -7.277918361814659e-06 0 0.0005687957365349901 -8.295061287977847e-06 0 0.0005771466275812885 -1.121468683576652e-05 0 0.0005811472447811502 -1.783503116720322e-05 0 0.0005878933992882715 -2.969068297971973e-05 0 0.0005899825995274478 -3.055489405081931e-05 0 0.0005728377682223392 -9.733201557152509e-06 0 0.0005569782834261007 0 0 0.0005645976659178691 -6.921577525193766e-06 0 0.0005690163149009552 -9.354440450259254e-06 0 0.0005731956089950492 -1.080973809612682e-05 0 0.0005772376619604724 -1.237902963438683e-05 0 0.0005772750070101688 -1.357200072798897e-05 0 0.0005772608666800517 -1.479278382309843e-05 0 0.0005772020198981662 -1.604270853955575e-05 0 0.0005771010253943726 -1.732216898813132e-05 0 0.0005810420373127007 -1.91546674965796e-05 0 0.0005809053299171167 -2.050279276657872e-05 0 0.0005807424760223133 -2.187970693435627e-05 0 0.0005805509198170038 -2.328597678374451e-05 0 0.0005803361741089964 -2.472180453636133e-05 0 0.0005801030521181842 -2.61855245898762e-05 0 0.0005831513946434652 -2.830707400535208e-05 0 0.0005838120113782321 -2.954337135773633e-05 0 0.0005848883657257007 -3.121060260811851e-05 0 0.0005884951748205912 -3.212081030842559e-05 0 0.0005869779173784504 -3.371537825828223e-05 0 0.0005834401917441352 -3.294138551260426e-05 0 0.0005545023493653075 -7.087194935183401e-07 0 0.0005586555464616067 -1.823037830625522e-06 0 0.0005593077855794758 -2.733115567422682e-06 0 0.0005598624154268286 -3.660310408229828e-06 0 0.0005603194893972848 -4.606950611390103e-06 0 0.0005606828017312751 -5.5756058876873e-06 0 0.0005609577379567598 -6.568207278235021e-06 0 0.0005649718888534756 -7.931646010184507e-06 0 0.0005652138699339116 -8.964712963987242e-06 0 0.0005733777549970754 -1.193060404045971e-05 0 0.0005769622189091083 -1.863140107641791e-05 0 0.0005798584603632294 -2.767456823876345e-05 0 0.0005794654366651475 -2.919838405336434e-05 0 0.0005823038058254514 -3.454490054482039e-05 0 0.0005854336350138565 -3.533853360524576e-05 0 0.0005692294211981105 -1.04119240800653e-05 0 0.0005532447154596134 0 0 0.0005549749526554053 -1.617412747132149e-06 0 0.0005611957223780051 -7.559969008162265e-06 0 0.0005653713755803971 -1.002357307864192e-05 0 0.0005694054581339296 -1.151318642313243e-05 0 0.0005733689606312239 -1.310106322253981e-05 0 0.0005733230578045334 -1.43065905800559e-05 0 0.0005732324196204784 -1.554397177515375e-05 0 0.0005730980014362359 -1.681157017834737e-05 0 0.0005729238314291127 -1.810982023473894e-05 0 0.0005767888288904305 -1.997010768727996e-05 0 0.0005765865992674518 -2.133885821964705e-05 0 0.0005763583938928394 -2.273694723679346e-05 0 0.0005761048013470061 -2.416515855245144e-05 0 0.0005758318718517427 -2.562237744809657e-05 0 0.0005755463142339553 -2.710674261772598e-05 0 0.0005794637834400564 -3.072266988138001e-05 0 0.0005792008390225941 -3.228815680941747e-05 0 0.0005785509772523462 -3.386281135754278e-05 0 0.000580490056031458 -3.627472117748436e-05 0 0.0005838651037647111 -3.69901234231263e-05 0 0.0005822750590852345 -3.866991032525582e-05 0 0.0005784041893204468 -3.77268856172585e-05 0 0.0005514039624535739 -5.784105546814242e-07 0 0.000551647172990013 -1.322119145029677e-06 0 0.0005557171312097907 -2.452383657742324e-06 0 0.0005562909944912776 -3.348309302499657e-06 0 0.0005567491661250639 -4.273101913463406e-06 0 0.0005571056448913309 -5.222224086863771e-06 0 0.0005573687039723039 -6.195692636147843e-06 0 0.0005575510202296092 -7.177852864801715e-06 0 0.0005614784380701754 -8.563756784406134e-06 0 0.0005616659601457416 -9.611352573985673e-06 0 0.0005695037765726832 -1.264942542883702e-05 0 0.0005727139413125198 -1.943871896184306e-05 0 0.0005752493299057813 -2.861857564709775e-05 0 0.0005749373389375296 -3.016132426821075e-05 0 0.0005781069323306328 -3.527400886002589e-05 0 0.000576973785854079 -3.938549314503052e-05 0 0.0005806661876743104 -4.037757692949919e-05 0 0.0005655185045373737 -1.110274033729597e-05 0 0.0005495688883272032 0 0 0.0005522007847017277 -2.163355225959347e-06 0 0.0005577909452870769 -8.171573163179121e-06 0 0.0005616590764015909 -1.069833064371981e-05 0 0.0005655385633617674 -1.220860051670174e-05 0 0.0005694307976188438 -1.38238761334293e-05 0 0.000569307706808731 -1.504815689746278e-05 0 0.0005691388888332962 -1.630310720701974e-05 0 0.0005689284658369377 -1.7590386165524e-05 0 0.0005686806583517412 -1.890896264109273e-05 0 0.0005724721614131593 -2.079828291156595e-05 0 0.0005722039456319369 -2.218851219792281e-05 0 0.0005719106104543599 -2.360927602780841e-05 0 0.0005715966194318645 -2.505978521426716e-05 0 0.0005712669201063206 -2.65394204383787e-05 0 0.0005709271004658073 -2.804725260295246e-05 0 0.0005745932309989867 -3.172855304633824e-05 0 0.0005742206372351223 -3.331987838049915e-05 0 0.000573963782668186 -3.494653412484322e-05 0 0.0005746357390185109 -3.665313000410761e-05 0 0.0005731775478702596 -3.842587933872042e-05 0 0.0005751892754185932 -4.116724510818047e-05 0 0.0005480795151910651 -8.678708594879108e-07 0 0.000548709617548564 -1.86694561954972e-06 0 0.0005527780838749261 -3.040210030652109e-06 0 0.0005532310810154376 -3.947553132717296e-06 0 0.0005535812879672817 -4.876875936961395e-06 0 0.0005538333387547252 -5.830452727308509e-06 0 0.0005539757686044202 -6.800698681082884e-06 0 0.0005541465266046639 -7.783404385325803e-06 0 0.0005579698464899999 -9.194196671200542e-06 0 0.0005579874702914645 -1.025922903643961e-05 0 0.0005655856604670812 -1.334501909902061e-05 0 0.0005683998210054126 -2.025917807819061e-05 0 0.0005705729838904895 -2.958557635378127e-05 0 0.0005702096915610517 -3.115247741616707e-05 0 0.0005718981426071878 -4.017941966067485e-05 0 0.0005790411199617843 -4.211273056787802e-05 0 0.000561593520004947 -1.178537555267617e-05 0 0.0005459489404341358 0 0 0.0005493149287921161 -2.743484078871605e-06 0 0.0005543275091236155 -8.782794651271046e-06 0 0.0005578510800889946 -1.136870063191759e-05 0 0.0005616918871848914 -1.290651396137636e-05 0 0.0005654298034135517 -1.455557675260681e-05 0 0.0005652250221491094 -1.579839676985237e-05 0 0.0005649774027144272 -1.707339914147833e-05 0 0.0005646908153260591 -1.838108643299062e-05 0 0.000564368763366485 -1.972171246136219e-05 0 0.0005680901076035823 -2.164101084912445e-05 0 0.0005677548936452184 -2.305425849690302e-05 0 0.0005673973187460707 -2.449883049599339e-05 0 0.0005670245389690261 -2.597284982213555e-05 0 0.0005666381073253335 -2.747704039327477e-05 0 0.0005662407733918769 -2.901116064822247e-05 0 0.0005698410053834658 -3.27465760741605e-05 0 0.0005694700303256454 -3.436709480780659e-05 0 0.0005691009266079704 -3.601275723382076e-05 0 0.0005688411523979464 -3.768496556540109e-05 0 0.0005680969966974795 -3.936386416008471e-05 0 0.000572606728236161 -4.307003978947583e-05 0 0.0005697686816320351 -4.188693571068622e-05 0 0.0005774024232664194 -4.387490819177854e-05 0 0.0005757525956323948 -4.566358142502695e-05 0 0.0005718379275756444 -4.488606493216973e-05 0 0.0005440139073376008 -7.818799101094119e-07 0 0.0005452027953398704 -1.592469344770382e-06 0 0.0005458732293793047 -2.452266953448241e-06 0 0.000549766799936317 -3.630631452368567e-06 0 0.0005501113056571232 -4.539903359130528e-06 0 0.0005503531033410496 -5.47354499943641e-06 0 0.0005504958986558606 -6.433298021938028e-06 0 0.0005505353261109339 -7.416903224431074e-06 0 0.0005506265687021006 -8.402185269245549e-06 0 0.0005543690331107294 -9.834057281267148e-06 0 0.000554215485856372 -1.092413157306356e-05 0 0.0005616206634760591 -1.407530811754282e-05 0 0.0005640172483861138 -2.109494148152277e-05 0 0.0005658331260489452 -3.057489961718188e-05 0 0.000565420002704003 -3.216711405630112e-05 0 0.0005674092875602462 -4.083218638493815e-05 0 0.0005701947620533627 -4.660128382410759e-05 0 0.0005740940603448495 -4.747816171888641e-05 0 0.0005577870622183958 -1.247422232327088e-05 0 0.0005423910755333569 0 0 0.0005463502264597306 -3.322062558708157e-06 0 0.0005506604987587802 -9.426428998296223e-06 0 0.0005539858647154069 -1.205140610189097e-05 0 0.0005576984986374454 -1.362523178389512e-05 0 0.0005613591349447265 -1.529590791117152e-05 0 0.0005610724189499329 -1.655907986980927e-05 0 0.0005607460067303734 -1.785533128430782e-05 0 0.000560382949486127 -1.918526191466478e-05 0 0.0005599863718598401 -2.055038538719015e-05 0 0.0005636387593517622 -2.250044631391995e-05 0 0.0005632379047271447 -2.393796469568185e-05 0 0.0005628189022901052 -2.54068231416152e-05 0 0.0005623866184237277 -2.690662960957033e-05 0 0.0005619426337508889 -2.843709459931253e-05 0 0.0005614884059622203 -2.999793830321023e-05 0 0.0005650061287587494 -3.378575995815432e-05 0 0.0005645923879139501 -3.542977884237968e-05 0 0.000564187654995253 -3.70959466127231e-05 0 0.0005637798583398911 -3.878235570420795e-05 0 0.0005633097717185048 -4.046921386988918e-05 0 0.0005671564431572902 -4.317388001271635e-05 0 0.0005637857581518345 -4.222305691051283e-05 0 0.0005673695857622665 -4.458725943771e-05 0 0.0005666172416033452 -4.599802487572152e-05 0 0.0005682038158858925 -4.837516215314812e-05 0 0.0005724291611190553 -4.931800556519267e-05 0 0.0005707601579523926 -5.118241972634371e-05 0 0.000566608609897664 -5.024405460228027e-05 0 0.0005405466821556112 -6.977060853669977e-07 0 0.0005417225757017953 -1.404117046353004e-06 0 0.0005425269454396199 -2.178029545556766e-06 0 0.0005429944082714345 -3.022765163837862e-06 0 0.0005466968561287653 -4.211323694094476e-06 0 0.0005469298582767701 -5.124812253739854e-06 0 0.0005470608205045435 -6.06543217000696e-06 0 0.0005470953566053202 -7.035484080289697e-06 0 0.000547024463658549 -8.030591928119704e-06 0 0.0005470168631057482 -9.02900193407591e-06 0 0.0005506327211126772 -1.04858956074443e-05 0 0.0005503691027338732 -1.159542425961848e-05 0 0.0005575391335563399 -1.481479575189319e-05 0 0.0005595632086229987 -2.194817217955366e-05 0 0.0005610292089379436 -3.15879295202994e-05 0 0.0005605698649634417 -3.320529882664499e-05 0 0.0005644042250171524 -4.73835362402782e-05 0 0.0005652618701866155 -5.210839461160473e-05 0 0.0005690892236234437 -5.307066644362491e-05 0 0.0005538616613268818 -1.318214495365066e-05 0 0.0005388977750801296 0 0 0.0005433391867224719 -3.891211023607938e-06 0 0.0005469059880612396 -1.006589055683214e-05 0 0.0005500512527813684 -1.274576769606731e-05 0 0.0005536192645898115 -1.434308569526532e-05 0 0.000557216345064785 -1.604700154954998e-05 0 0.0005568473833379071 -1.7332215891298e-05 0 0.000556441314175907 -1.865186038056706e-05 0 0.0005560020980734419 -2.000598782264436e-05 0 0.000555531249958144 -2.139667943821483e-05 0 0.000559116969980672 -2.337867683787988e-05 0 0.0005586515379305897 -2.484181312088229e-05 0 0.0005581710690306855 -2.633704880424526e-05 0 0.0005576791731808394 -2.786369576225668e-05 0 0.0005571778617690158 -2.942132281014682e-05 0 0.0005566709105716322 -3.100896870930092e-05 0 0.0005601164130626672 -3.484629750782261e-05 0 0.0005596631862709729 -3.651599451270705e-05 0 0.0005592135670727464 -3.820992863175676e-05 0 0.000558780240969692 -3.993097682830589e-05 0 0.0005583469607010189 -4.167695251049079e-05 0 0.0005626362620696596 -4.401673583298851e-05 0 0.0005621442191114847 -4.60022393534439e-05 0 0.0005618703139364324 -4.920609131908375e-05 0 0.0005611060511933268 -5.129702384429493e-05 0 0.0005635567948216556 -5.399627617377715e-05 0 0.0005674184408181926 -5.49819685883312e-05 0 0.0005657497998595857 -5.691551472327613e-05 0 0.0005616938869186423 -5.593008897895467e-05 0 0.0005371170113061813 -6.581254439111698e-07 0 0.0005383165452658715 -1.251055205539458e-06 0 0.0005392292459245509 -1.942406220387968e-06 0 0.0005397035965633836 -2.731990376825827e-06 0 0.0005400423435323258 -3.579733926262514e-06 0 0.0005435643522532366 -4.784082309874607e-06 0 0.0005436814131622729 -5.704169781347482e-06 0 0.0005436965991302368 -6.654063295434008e-06 0 0.0005436168884983264 -7.635785539098213e-06 0 0.000543391651070696 -8.63070107490579e-06 0 0.0005431793181704138 -9.653306616466203e-06 0 0.0005467916432672603 -1.113687917546157e-05 0 0.0005464411373238084 -1.227411466847492e-05 0 0.0005534087865820876 -1.553866449032674e-05 0 0.0005550362443921203 -2.282096471949453e-05 0 0.000556162355159137 -3.262518623676857e-05 0 0.0005556616724717419 -3.426680724846367e-05 0 0.0005580569218267336 -4.343923520016427e-05 0 0.0005600536199157857 -4.77200737630596e-05 0 0.0005599762606703838 -5.311224568902241e-05 0 0.0005595701500649209 -5.81672824541584e-05 0 0.0005640851970134967 -5.887046404550792e-05 0 0.0005497166370801378 -1.388898377111346e-05 0 0.0005354710460538149 0 0 0.0005402589352524027 -4.451743616492551e-06 0 0.0005431892234877612 -1.069034532973807e-05 0 0.000546017038478299 -1.344109965841019e-05 0 0.000549544091021755 -1.50718807236105e-05 0 0.000552995204673731 -1.68125795198326e-05 0 0.0005525439016154406 -1.812146087765546e-05 0 0.0005520582969866423 -1.94665093658209e-05 0 0.000551543569703359 -2.084669471501747e-05 0 0.0005509983700635769 -2.226427589594914e-05 0 0.0005545229541300282 -2.427807499231576e-05 0 0.0005539934372335132 -2.576841169053995e-05 0 0.00055345150052282 -2.729124979714336e-05 0 0.000552900904289678 -2.884567100417992e-05 0 0.0005523453093805818 -3.043090079438739e-05 0 0.0005517870124248858 -3.204582083149384e-05 0 0.0005551680402887071 -3.593416009176157e-05 0 0.0005546687111867947 -3.763252036381375e-05 0 0.0005541829288806048 -3.935625670353618e-05 0 0.0005537038389414034 -4.110432224849078e-05 0 0.0005532641572193855 -4.287438259555665e-05 0 0.0005575416876941169 -4.523222810870255e-05 0 0.0005567155431601292 -4.709662944439067e-05 0 0.0005564334032450574 -4.888144650766876e-05 0 0.0005564216417327681 -5.068918544071478e-05 0 0.0005561089979381488 -5.256489512573181e-05 0 0.0005578682203447538 -5.493986504947166e-05 0 0.0005560305701858975 -5.690015872098709e-05 0 0.0005597248477503968 -5.98615810118641e-05 0 0.0005624264333415146 -6.084595118432145e-05 0 0.0005337821423985493 -6.353952467345531e-07 0 0.0005353419672814332 -1.106499605237736e-06 0 0.0005359683943106886 -1.715854315889735e-06 0 0.0005364661329088146 -2.451085282488736e-06 0 0.0005368048712517934 -3.277232032543997e-06 0 0.0005370158995360141 -4.128181157623634e-06 0 0.0005403631384043356 -5.351069123838975e-06 0 0.0005403603451202489 -6.28037303181319e-06 0 0.0005402570189095251 -7.241980679172807e-06 0 0.0005400421993558838 -8.226426105415914e-06 0 0.0005397570328891174 -9.244659790495505e-06 0 0.0005394368391488613 -1.029181681271672e-05 0 0.000542861718464578 -1.18110071066987e-05 0 0.0005424346653415368 -1.296633197158807e-05 0 0.0005492115245988036 -1.630781296960164e-05 0 0.0005504342010704019 -2.371561669680933e-05 0 0.0005512319973285689 -3.368854223193492e-05 0 0.0005506875276230798 -3.535788417401929e-05 0 0.0005528123867977933 -4.46677372457038e-05 0 0.0005550242148785177 -5.404403273940343e-05 0 0.0005544075867968121 -5.85545635503475e-05 0 0.0005550405243275547 -6.011962914558707e-05 0 0.0005566157736011761 -6.186141174844026e-05 0 0.0005607752140688639 -6.284109083190923e-05 0 0.0005591331484341103 -6.485498218729089e-05 0 0.0005557124262287823 -6.387451986509206e-05 0 0.0005456756679733318 -1.460938451960484e-05 0 0.000532117257788852 0 0 0.0005371075752304306 -5.006536278299972e-06 0 0.0005392268126768921 -1.136233678681542e-05 0 0.0005419115264444048 -1.41567534121035e-05 0 0.0005453338725969403 -1.582793604268978e-05 0 0.0005486864946159496 -1.7596960639613e-05 0 0.0005481592175128531 -1.893057459806592e-05 0 0.0005475931270414145 -2.030224045478012e-05 0 0.0005470032082524918 -2.170977478361252e-05 0 0.0005463877557071389 -2.315460523447523e-05 0 0.0005498540726222717 -2.520092568137694e-05 0 0.0005492608484172706 -2.671983347281423e-05 0 0.000548658772250544 -2.827139293396035e-05 0 0.0005480521334315917 -2.985461842973162e-05 0 0.0005474436405062058 -3.146863501043478e-05 0 0.0005468350608526007 -3.311269172279518e-05 0 0.0005501463043821023 -3.705629974320552e-05 0 0.0005496091422736383 -3.878255433334954e-05 0 0.0005490829162906558 -4.053356407445738e-05 0 0.0005485747419103533 -4.230785462741497e-05 0 0.0005480838615774302 -4.410444320731727e-05 0 0.0005523609343854737 -4.64803515303699e-05 0 0.0005518954844000793 -4.83099594363642e-05 0 0.0005515755869564031 -5.01532522794696e-05 0 0.0005512043977645171 -5.20213849718783e-05 0 0.0005507231950413947 -5.383971457768405e-05 0 0.0005515193317122904 -5.569568894860233e-05 0 0.000550218495817368 -5.772765870371557e-05 0 0.0005533422011534877 -6.593889379158045e-05 0 0.0005575017499862487 -6.688671319721007e-05 0 0.0005304229512843206 -5.271113183164699e-07 0 0.0005327669782086175 -1.380178404933639e-06 0 0.0005332866590579307 -2.193090787707908e-06 0 0.0005336322146306481 -2.987039822299843e-06 0 0.0005338355792709013 -3.814333778940561e-06 0 0.0005339162089208627 -4.671256055072587e-06 0 0.0005370867003830124 -5.915073829127517e-06 0 0.0005369604889123628 -6.85642351572328e-06 0 0.0005367300229857736 -7.831609686981438e-06 0 0.000536383450891505 -8.839275643124868e-06 0 0.0005360063721579847 -9.875637177098215e-06 0 0.0005355467621011539 -1.095555384419814e-05 0 0.0005388384310926975 -1.251302740158677e-05 0 0.0005383499757902633 -1.367800279012706e-05 0 0.0005449138369002355 -1.708216149073617e-05 0 0.0005457548477612957 -2.463487952942615e-05 0 0.0005462335073247558 -3.478406638938215e-05 0 0.0005456406442326459 -3.648347013001022e-05 0 0.0005476005013763976 -4.592126719168791e-05 0 0.0005498705143765074 -5.972612487874525e-05 0 0.0005504343032884831 -6.163158235627966e-05 0 0.0005510458914096879 -6.344042999820602e-05 0 0.0005512193633696284 -6.485248521067426e-05 0 0.0005530385049927933 -6.777676713052133e-05 0 0.0005558824372940384 -6.893536458078874e-05 0 0.0005415253431427401 -1.535622126562771e-05 0 0.000528832048634668 0 0 0.0005338780869392514 -5.558389814378696e-06 0 0.0005351919350416405 -1.206348804985691e-05 0 0.0005377142353697752 -1.48867103332654e-05 0 0.0005410610375308362 -1.659718630042674e-05 0 0.0005443120893073698 -1.839778950889129e-05 0 0.0005436950652083039 -1.975845779181851e-05 0 0.0005430516591575791 -2.115809911978717e-05 0 0.0005423839694160407 -2.259566484227127e-05 0 0.0005416980258319959 -2.407016391501939e-05 0 0.0005451084259400589 -2.614978514717222e-05 0 0.0005444530125622521 -2.769843544509725e-05 0 0.0005437923913192867 -2.927982346937262e-05 0 0.000543130228616466 -3.089307681019979e-05 0 0.0005424699869156727 -3.253737598392098e-05 0 0.0005418124470068562 -3.421128558333762e-05 0 0.0005450582031794054 -3.821078355402502e-05 0 0.0005444842221599688 -3.996458689779621e-05 0 0.0005439234542253861 -4.174301755216339e-05 0 0.0005433792431682463 -4.354440634313447e-05 0 0.0005428511851569974 -4.536741552317145e-05 0 0.0005471485157412317 -4.775594544822288e-05 0 0.0005467272476680784 -4.960554822802258e-05 0 0.0005463112855643636 -5.148192107302255e-05 0 0.0005459168896856277 -5.337565962014106e-05 0 0.0005455477142826566 -5.528504042773617e-05 0 0.0005452054710187864 -5.720759049390579e-05 0 0.0005448880645704381 -5.914609191733924e-05 0 0.000548920100616428 -6.606269369262429e-05 0 0.0005489292825187565 -6.759861591977075e-05 0 0.0005494257727920875 -6.919711254313342e-05 0 0.000554276535032176 -7.100001362760973e-05 0 0.0005526852754090002 -7.307973776162819e-05 0 0.0005484415354983908 -7.216623110039266e-05 0 0.0005505058647963137 -7.058183686662996e-05 0 0.0005271668497716852 -6.780382071730804e-07 0 0.000529520207219577 -1.237146976566066e-06 0 0.0005302003104759158 -1.92753209258672e-06 0 0.0005305415750272782 -2.71249266655882e-06 0 0.0005307235523938262 -3.512579495834276e-06 0 0.00053079142198706 -4.345765203145505e-06 0 0.0005307373998484486 -5.210974252047732e-06 0 0.0005337294109675554 -6.478872863546283e-06 0 0.0005334766923572858 -7.434885252014885e-06 0 0.0005331281525601207 -8.428594844011543e-06 0 0.0005326596656107212 -9.462401709312729e-06 0 0.0005321339704859913 -1.053601791544753e-05 0 0.0005315595614478723 -1.164333241637075e-05 0 0.0005346657163734402 -1.321345653999229e-05 0 0.0005341585427271099 -1.439848587735356e-05 0 0.0005405313599837031 -1.787436243562075e-05 0 0.0005409942319239092 -2.558161437039116e-05 0 0.0005411647651624942 -3.591245828582831e-05 0 0.0005405295922331088 -3.764167208573471e-05 0 0.0005423465195140024 -4.720776447071279e-05 0 0.0005447515916036483 -6.115968392527259e-05 0 0.0005448957887671301 -6.338672781804568e-05 0 0.0005470773940401975 -6.496943409950886e-05 0 0.000547117139799182 -7.415232379140786e-05 0 0.000551109799900835 -7.517361786586944e-05 0 0.0005371828404788519 -1.61063625201217e-05 0 0.0005256183145547004 0 0 0.0005305655618896412 -6.110082874889143e-06 0 0.000531088971928842 -1.276006548785191e-05 0 0.0005334239771782217 -1.563559019429405e-05 0 0.0005366594949842578 -1.738104614655121e-05 0 0.0005398454027096682 -1.9216509115708e-05 0 0.0005391480635747025 -2.060843754679245e-05 0 0.0005384258431168429 -2.203902877807541e-05 0 0.0005376817916770786 -2.350889420687314e-05 0 0.0005369234626810167 -2.501538988668331e-05 0 0.0005402836188104053 -2.712731234831245e-05 0 0.0005395685852038216 -2.870660275789163e-05 0 0.000538851046249663 -3.031897140133012e-05 0 0.0005381351285069837 -3.196329963896171e-05 0 0.0005374239684823255 -3.363843210265133e-05 0 0.0005367197552210421 -3.534255197341238e-05 0 0.0005399081139752057 -3.939773556527814e-05 0 0.0005392974279853183 -4.118028963285016e-05 0 0.0005387041605212169 -4.298640919357323e-05 0 0.0005381301925275169 -4.481524621025783e-05 0 0.0005375755538024835 -4.666466790003745e-05 0 0.0005418846378463244 -4.906523213086104e-05 0 0.0005414261992446963 -5.094708451016006e-05 0 0.0005409903692295604 -5.284718581899293e-05 0 0.0005405850184135873 -5.476228314833115e-05 0 0.0005402021161778795 -5.669349338824811e-05 0 0.0005398453309040292 -5.863897839534389e-05 0 0.0005395165862984941 -6.059703860685303e-05 0 0.0005439179626938719 -6.687044098504266e-05 0 0.0005436981606534194 -6.902302985364562e-05 0 0.0005444223232648172 -7.10644420907598e-05 0 0.0005429313388659185 -7.322813745676943e-05 0 0.0005456955154267971 -7.626489307314949e-05 0 0.0005495511612588017 -7.728074136523787e-05 0 0.0005239440261362205 -5.470654440366773e-07 0 0.0005269274014980027 -1.676930670187395e-06 0 0.0005276055253300514 -2.476535581892058e-06 0 0.0005276878550207262 -3.223919705401229e-06 0 0.0005277377299048263 -4.031060977587796e-06 0 0.0005276652958111285 -4.87302658106058e-06 0 0.0005274719310523073 -5.750410912921479e-06 0 0.0005302848133148811 -7.045324913431411e-06 0 0.0005299021753240846 -8.018881688767148e-06 0 0.0005294256419420675 -9.032725281987769e-06 0 0.0005288590262859629 -1.00881453032305e-05 0 0.0005282179327286032 -1.118630793000355e-05 0 0.0005275273997237905 -1.230599583980296e-05 0 0.0005305254454302358 -1.392659425785715e-05 0 0.0005298620978813493 -1.513338860444739e-05 0 0.0005360622271766388 -1.86873002350837e-05 0 0.0005361537942739554 -2.65578998452343e-05 0 0.0005360275250673367 -3.707479899019325e-05 0 0.0005353534970397005 -3.88343364347011e-05 0 0.0005370484707556315 -4.853427922500926e-05 0 0.00053933929412988 -6.26311619268429e-05 0 0.0005424301410366356 -6.523630221687567e-05 0 0.0005419997675750282 -7.537098429129722e-05 0 0.0005440529897892865 -7.826570872090498e-05 0 0.0005328495624288371 -1.689294940248145e-05 0 0.0005224804718635302 0 0 0.0005243726706886688 -1.200378490344161e-06 0 0.000527163136225673 -6.664505626033526e-06 0 0.0005269407826864814 -1.345559620673756e-05 0 0.0005290402582101774 -1.640922710148861e-05 0 0.0005321992652726978 -1.819337136171133e-05 0 0.0005352933067166091 -2.006154737524524e-05 0 0.0005345137280418322 -2.148505418882319e-05 0 0.0005337094517120784 -2.29500082476912e-05 0 0.0005328862904076017 -2.445413166047698e-05 0 0.0005320570445518134 -2.59938639536952e-05 0 0.000535374919382671 -2.813685209162036e-05 0 0.0005346030308825475 -2.974729698847883e-05 0 0.0005338329134127217 -3.139115828226396e-05 0 0.0005330649558428107 -3.306743216928062e-05 0 0.0005323056193489305 -3.477410407102188e-05 0 0.0005315578999864884 -3.650963009784873e-05 0 0.0005346925807855445 -4.062039075779559e-05 0 0.0005340489718291276 -4.243103015652015e-05 0 0.0005334247883321825 -4.426537398069998e-05 0 0.0005328224426161033 -4.6121865170869e-05 0 0.0005322437426824664 -4.799891279349113e-05 0 0.0005365476596181571 -5.042115415434085e-05 0 0.0005360758537418212 -5.2324423503507e-05 0 0.0005356270297804371 -5.424577556145476e-05 0 0.0005352088544071285 -5.618250799758945e-05 0 0.0005348117205002114 -5.813625618352968e-05 0 0.0005344430895376298 -6.010298217554763e-05 0 0.0005389558909737349 -6.454381206862316e-05 0 0.0005341064337148558 -6.208046635633014e-05 0 0.0005385055837756162 -6.853938992550417e-05 0 0.0005383975217229885 -6.654698517371309e-05 0 0.0005383257399764797 -7.054910400747859e-05 0 0.0005381770921453246 -7.256529517003675e-05 0 0.0005377155231655855 -7.462632997969801e-05 0 0.0005411567534553182 -7.72386908431698e-05 0 0.0005480103257548904 -7.940020506692276e-05 0 0.0005464881756352688 -8.153111775984925e-05 0 0.0005420282978245239 -8.060108251987602e-05 0 0.0005208830683259986 -5.356790094303439e-07 0 0.0005220149971672799 -9.888531739030297e-07 0 0.0005236141990696308 -1.918440124149328e-06 0 0.0005250989389221158 -2.355489881801343e-06 0 0.0005247981919335493 -2.967537559675014e-06 0 0.0005247489734136109 -3.722376720291648e-06 0 0.0005246653822909448 -4.544635615713045e-06 0 0.0005244509242281536 -5.400423306769281e-06 0 0.0005241142896294527 -6.293101104713751e-06 0 0.0005267469528149738 -7.617571250584435e-06 0 0.0005262311766903217 -8.611782928481062e-06 0 0.0005256234108523692 -9.648938758160584e-06 0 0.0005249363046331131 -1.072889046954536e-05 0 0.0005241672799182935 -1.18427424496741e-05 0 0.0005233974114562537 -1.299268784078049e-05 0 0.0005263053062438484 -1.464535832828602e-05 0 0.0005254800761085005 -1.590193206394686e-05 0 0.0005314952374458446 -1.95319246350946e-05 0 0.0005312158769297391 -2.757162216806539e-05 0 0.0005308257147152903 -3.827310295198329e-05 0 0.0005301115990484347 -4.006287859205809e-05 0 0.0005316914442282924 -4.989539795698392e-05 0 0.0005338049808550323 -6.40682209407952e-05 0 0.0005374974076835729 -7.668722836375378e-05 0 0.000537991230139623 -7.878033355815794e-05 0 0.000542028658153843 -8.263319251583902e-05 0 0.0005449855117501658 -8.367260257637607e-05 0 0.0005283198837257889 -1.769151128843383e-05 0 0.0005194232156921667 0 0 0.0005216615857023275 -1.527314125779197e-06 0 0.0005236641747300295 -7.225357385393223e-06 0 0.0005227176527560577 -1.41728299300894e-05 0 0.0005245591760980159 -1.721074312588265e-05 0 0.0005276096587376051 -1.903068189840524e-05 0 0.0005306478503951559 -2.093834479748471e-05 0 0.0005297790395381538 -2.239520154359763e-05 0 0.0005288938569341171 -2.389548929894941e-05 0 0.0005280023873683561 -2.543199709587047e-05 0 0.0005271050852312807 -2.700589195664547e-05 0 0.0005303869900961619 -2.917986907049347e-05 0 0.0005295569879528068 -3.082335683933536e-05 0 0.0005287350335001827 -3.249961935511227e-05 0 0.0005279195840949693 -3.420777320717202e-05 0 0.0005271144242390799 -3.594665691644859e-05 0 0.0005263248222160116 -3.771408371705407e-05 0 0.0005294146295179492 -4.187873902041527e-05 0 0.0005287388503729211 -4.371845156020816e-05 0 0.0005280851212498902 -4.558175571258768e-05 0 0.0005274565478708867 -4.746563550410588e-05 0 0.0005268552649697506 -4.936971957228021e-05 0 0.0005311701650211499 -5.180620784462259e-05 0 0.0005306824557129624 -5.373535293964118e-05 0 0.0005302239399647226 -5.567699322184255e-05 0 0.0005297864335830933 -5.763832435086238e-05 0 0.0005293779941447167 -5.961388582301999e-05 0 0.000529000063275461 -6.160095589170477e-05 0 0.0005335304784845133 -6.606826509856725e-05 0 0.0005286581690012124 -6.359852664526578e-05 0 0.0005330738671903618 -7.009795611702856e-05 0 0.0005332865695227918 -6.807936806970737e-05 0 0.0005328930445458544 -7.212373684019902e-05 0 0.0005327445177209257 -7.415586933092372e-05 0 0.0005326267324111564 -7.619519467638227e-05 0 0.0005373060542209819 -8.260535671736814e-05 0 0.0005386854775758223 -8.464505044884257e-05 0 0.0005435030563311705 -8.582379912099169e-05 0 0.0005178513236476553 -5.840981057854875e-07 0 0.0005191665447731942 -1.127639473486599e-06 0 0.0005221586801613582 -2.621925193294658e-06 0 0.0005211814958322486 -2.094280755617594e-06 0 0.0005218392852202094 -3.428739352886675e-06 0 0.0005217403864818571 -4.227455358591274e-06 0 0.0005215047531466088 -5.061004677665661e-06 0 0.0005211401946292386 -5.931868725939589e-06 0 0.0005206562182030259 -6.842919258762215e-06 0 0.0005231095297517761 -8.19940034517331e-06 0 0.0005224587884386447 -9.217222582839895e-06 0 0.0005217215033892969 -1.027960961011888e-05 0 0.0005209074700725916 -1.13879148288259e-05 0 0.0005200163522752438 -1.253846896202589e-05 0 0.0005191391510933245 -1.372259424133158e-05 0 0.0005219063077024359 -1.541910194410182e-05 0 0.0005210032835871703 -1.670398913221596e-05 0 0.0005268343232503025 -2.040718982155356e-05 0 0.0005262090204349531 -2.861462760255636e-05 0 0.0005255538387415111 -3.950881786129376e-05 0 0.0005248022212650096 -4.132973900800735e-05 0 0.0005262833390140675 -5.129037652168814e-05 0 0.0005283497678662573 -6.560650369673842e-05 0 0.0005325404031238804 -7.823988154879172e-05 0 0.0005363739625880791 -8.092920871396274e-05 0 0.0005374501998168107 -8.70729979705727e-05 0 0.0005420414558884111 -8.798386537211105e-05 0 0.0005237866023033666 -1.853297832727668e-05 0 0.0005164463576126603 0 0 0.000518921644312525 -1.794543918875855e-06 0 0.000520061752382125 -7.796544089931817e-06 0 0.0005181757953849093 -1.497755909739008e-05 0 0.0005199713490853671 -1.803955975388327e-05 0 0.0005229528583095786 -1.990146268402734e-05 0 0.0005258942846509146 -2.184738849088379e-05 0 0.0005249474964140486 -2.333942491291342e-05 0 0.0005239931962283368 -2.487229561576291e-05 0 0.00052303595132557 -2.644266769372346e-05 0 0.0005220765013382716 -2.805067203700769e-05 0 0.000525317750268875 -3.025816453782193e-05 0 0.0005244355389632068 -3.193539828045851e-05 0 0.0005235620093756453 -3.364508028143412e-05 0 0.0005226985852766769 -3.538659882950966e-05 0 0.0005218498450149106 -3.715826322184398e-05 0 0.0005210201561704755 -3.895808168050046e-05 0 0.000524071579715205 -4.317578674360208e-05 0 0.000523365134641938 -4.504532674766769e-05 0 0.0005226848799385331 -4.6936871249995e-05 0 0.0005220334540194606 -4.884826294432967e-05 0 0.0005214111324654979 -5.077792060552196e-05 0 0.0005257511188500265 -5.322519338408778e-05 0 0.0005252523658211208 -5.517443893150379e-05 0 0.0005247704642891489 -5.714513143140457e-05 0 0.000524320225073192 -5.912965796286078e-05 0 0.0005239020439275292 -6.112645096590523e-05 0 0.0005235186338425437 -6.313414731113598e-05 0 0.0005280708067382443 -6.762519078682138e-05 0 0.0005231723646641684 -6.51514917171995e-05 0 0.0005278243568202088 -6.965330323744853e-05 0 0.0005276106081511101 -7.168873471492113e-05 0 0.0005274302136333468 -7.373045991900306e-05 0 0.0005272825240593062 -7.577820199125405e-05 0 0.0005271675892257531 -7.783128492995252e-05 0 0.0005323070103772738 -8.030859598900814e-05 0 0.0005322484537188435 -8.236719277595501e-05 0 0.0005324718042035057 -8.439841233663695e-05 0 0.0005326616129654081 -8.635744422213049e-05 0 0.0005363960293791035 -8.926546880956592e-05 0 0.0005406012842017633 -9.01519793642315e-05 0 0.0005149806848619022 -5.465700084137636e-07 0 0.0005162378490604251 -9.56859147404068e-07 0 0.0005162059723477482 -1.502695816730714e-06 0 0.0005189863864634354 -2.444109254999204e-06 0 0.0005190601752557131 -3.14052325476068e-06 0 0.0005189028342827844 -3.921725512507608e-06 0 0.0005186345225570534 -4.733293048789094e-06 0 0.0005182433098631151 -5.581699811824548e-06 0 0.0005177255513545841 -6.47095763925481e-06 0 0.0005170904992258968 -7.403784789623321e-06 0 0.0005193666810340722 -8.7948502706586e-06 0 0.0005185783707116158 -9.83942836155914e-06 0 0.0005177087080488798 -1.093149558162065e-05 0 0.0005167670074307486 -1.207255953813127e-05 0 0.0005157573533746764 -1.326268565953939e-05 0 0.0005147031598462128 -1.447817948011526e-05 0 0.0005174752926255758 -1.622196417735057e-05 0 0.000516406133833594 -1.75280684938319e-05 0 0.0005220691805576459 -2.130993583033794e-05 0 0.0005211191117889995 -2.969501114462687e-05 0 0.000520211863642127 -4.07845976699466e-05 0 0.0005194258405893953 -4.263668262424054e-05 0 0.0005208291086385039 -5.272250804645961e-05 0 0.0005228581590528625 -6.717851591933864e-05 0 0.0005270853919323954 -7.988885409040946e-05 0 0.0005322061472484247 -8.852603211970909e-05 0 0.0005339991247011167 -9.16105274045627e-05 0 0.0005190583652835384 -1.939121747944618e-05 0 0.0005135599544741341 0 0 0.0005161943798110825 -2.153317902578841e-06 0 0.0005163486052130884 -8.382236115651073e-06 0 0.0005137864815301462 -1.571899466260581e-05 0 0.0005152761253622258 -1.890121581769836e-05 0 0.0005181656818464323 -2.080031603149197e-05 0 0.0005210507825013653 -2.278622328835748e-05 0 0.0005200327142522054 -2.431462724471982e-05 0 0.0005190089096447798 -2.588297393349402e-05 0 0.0005179830500702595 -2.749008452313849e-05 0 0.0005169598239756978 -2.913440160269252e-05 0 0.000520172497746554 -3.137338779374923e-05 0 0.0005192359478435104 -3.308554236238417e-05 0 0.0005183113591848093 -3.48302573014168e-05 0 0.0005174014748906457 -3.660619878844785e-05 0 0.000516511456620396 -3.841124304915478e-05 0 0.0005156438504505811 -4.024376574252022e-05 0 0.0005186636348360738 -4.45134682611184e-05 0 0.0005179276727398118 -4.641321769482815e-05 0 0.0005172262275109698 -4.833227344920446e-05 0 0.0005165544260728611 -5.027114844586324e-05 0 0.0005159166439148116 -5.222648079224081e-05 0 0.0005202816095658149 -5.468116390952834e-05 0 0.0005197626654487491 -5.665826473285911e-05 0 0.0005192699603637222 -5.86518785120047e-05 0 0.0005188111156374654 -6.065798592153134e-05 0 0.0005183870395860401 -6.267561573230971e-05 0 0.0005180001647138776 -6.470344029443459e-05 0 0.0005225767373457026 -6.921605825690312e-05 0 0.0005176472096558909 -6.674120365496254e-05 0 0.0005223297989493482 -7.126071967045819e-05 0 0.0005221169472373697 -7.331204136236613e-05 0 0.0005219383158572269 -7.536907797552284e-05 0 0.000521793947011266 -7.743110928924347e-05 0 0.0005216839172925041 -7.949701824452964e-05 0 0.0005270053254944878 -8.1953873653614e-05 0 0.0005270295003439347 -8.400125180844551e-05 0 0.0005272642653818284 -8.592195864901093e-05 0 0.0005274222524442035 -8.797202610318583e-05 0 0.0005317392766693661 -9.039608590765844e-05 0 0.0005391830453820047 -9.232734065867973e-05 0 0.0005121000555238386 -5.782488570831797e-07 0 0.0005135254484984411 -1.184670183211952e-06 0 0.0005135165939073913 -1.914800086091293e-06 0 0.000516250499394927 -2.87624127288799e-06 0 0.0005161283949524497 -3.628801483564895e-06 0 0.0005158462083511511 -4.417191811278162e-06 0 0.0005154263597351159 -5.243161782720566e-06 0 0.0005148747938256256 -6.110316887162817e-06 0 0.0005141991845076337 -7.021782410996735e-06 0 0.0005134098227570744 -7.97996823698522e-06 0 0.0005155092994992538 -9.408144011843968e-06 0 0.0005145825368293925 -1.048293322930757e-05 0 0.0005135776209331049 -1.160765420610758e-05 0 0.0005125034745628726 -1.278299091686816e-05 0 0.000511350360955781 -1.398856243350568e-05 0 0.0005102090059797389 -1.523411298349811e-05 0 0.0005128425559678018 -1.701860298482268e-05 0 0.0005116898118956677 -1.838143280589273e-05 0 0.0005172166295068214 -2.224548588163858e-05 0 0.0005159448100243976 -3.08146810566741e-05 0 0.0005148014803450472 -4.210205309121872e-05 0 0.0005139842626966417 -4.398562833963405e-05 0 0.0005153220229260602 -5.419526274697536e-05 0 0.0005173307933817877 -6.878711343335996e-05 0 0.0005216060447165888 -8.156498230760853e-05 0 0.0005275076779272062 -9.004012683784661e-05 0 0.0005331685248279883 -9.376235628610007e-05 0 0.0005279344820301786 -9.184492980091952e-05 0 0.0005377871769796021 -9.450917161197771e-05 0 0.0005143193748798106 -2.029762002601162e-05 0 0.0005107597045256195 0 0 0.0005135589156195399 -2.616736853269863e-06 0 0.0005125171806539054 -8.986756996050522e-06 0 0.0005093208733316668 -1.6498923936656e-05 0 0.0005104730930281166 -1.980247277399113e-05 0 0.0005133107548357433 -2.173974324609716e-05 0 0.0005161188235411522 -2.37610009234419e-05 0 0.0005150258435276735 -2.532763616896283e-05 0 0.0005139301772157765 -2.693378970580252e-05 0 0.0005128384400282586 -2.857872157371562e-05 0 0.000511754543664991 -3.026067105090332e-05 0 0.0005149426534647572 -3.252966376257698e-05 0 0.0005139539025773627 -3.427808738770517e-05 0 0.0005129809484835845 -3.605831078086889e-05 0 0.0005120284749635721 -3.786873024083196e-05 0 0.0005110990532673779 -3.970778750456615e-05 0 0.0005101969182087339 -4.157301424671017e-05 0 0.0005131947610750881 -4.58924171891515e-05 0 0.0005124349304257377 -4.782142692486042e-05 0 0.000511710899607448 -4.976899112986637e-05 0 0.0005110241272652413 -5.17330576591802e-05 0 0.0005103778762943715 -5.371163295763549e-05 0 0.0005147601410194114 -5.617941412462947e-05 0 0.0005142269649864887 -5.818072516940386e-05 0 0.0005137257948221636 -6.019653671484578e-05 0 0.0005132606862043799 -6.222405976790688e-05 0 0.0005128325711646372 -6.4262193532462e-05 0 0.0005124416579296886 -6.630986808954949e-05 0 0.0005170499369991143 -7.084087956012972e-05 0 0.0005120875879745899 -6.836606975960372e-05 0 0.0005168042260616033 -7.29016506401202e-05 0 0.0005165938522326059 -7.496818647594901e-05 0 0.0005164190793026895 -7.703964228285439e-05 0 0.0005162798582328655 -7.91151436218917e-05 0 0.0005161828246246649 -8.118811735960422e-05 0 0.0005215942353356999 -8.361504379903484e-05 0 0.0005218039508021663 -8.558368041980074e-05 0 0.0005221443099634099 -8.761490805719472e-05 0 0.0005223973440385578 -8.967559538868997e-05 0 0.000529145027262437 -9.331503331587662e-05 0 0.0005317537903723007 -9.582248442656333e-05 0 0.000536414053120609 -9.669671845148802e-05 0 0.0005337372372719529 -0.0001010860692391052 0 0.0005324340046522377 -0.0001032864921839545 0 0.0005280214416776746 -0.0001024238097056882 0 0.0005350639876509307 -9.888925216848105e-05 0 0.0005289951783481005 -0.0001002706097820172 0 0.0005303831247041425 -9.802767398109339e-05 0 0.0005093242332954448 -5.424791338479525e-07 0 0.0005104192275444713 -1.083161942174159e-06 0 0.0005108915236587159 -1.697533258150375e-06 0 0.0005109613923818934 -2.368286270858151e-06 0 0.0005134291842328259 -3.34841545253605e-06 0 0.0005131361683202357 -4.113363723773445e-06 0 0.0005126932898814444 -4.916487814958608e-06 0 0.0005121077629167398 -5.761412881688599e-06 0 0.000511390746168342 -6.651445200853874e-06 0 0.0005105535095084168 -7.58897585041053e-06 0 0.0005096072703592336 -8.576053298645781e-06 0 0.0005115315329991253 -1.004372132598789e-05 0 0.0005104632200499096 -1.115203274682932e-05 0 0.0005093220616173897 -1.231240061322988e-05 0 0.0005081284113209227 -1.351580554112632e-05 0 0.000506874572080743 -1.476058896023919e-05 0 0.0005056153203965994 -1.605117721783558e-05 0 0.0005081388396782716 -1.786918811223261e-05 0 0.0005068711354933213 -1.92841912368693e-05 0 0.0005122658260316267 -2.322281447373321e-05 0 0.000510683031781083 -3.19784575578793e-05 0 0.0005093236292792372 -4.346308335639029e-05 0 0.0005084786969302657 -4.537740517726419e-05 0 0.0005097704182416484 -5.570562914090347e-05 0 0.0005117712164953293 -7.042968200673882e-05 0 0.0005161719538292341 -8.323583490777993e-05 0 0.0005224866268842569 -9.175231911666588e-05 0 0.0005272722520108472 -9.506856539190818e-05 0 0.0005231219734384853 -9.395282834292276e-05 0 0.0005265684375499838 -0.0001046427112122823 0 0.0005311544415016331 -0.0001054898699770248 0 0.0005093817730718267 -2.123115878513523e-05 0 0.0005080527669052744 0 0 0.0005108251850358476 -3.077999047739305e-06 0 0.0005085621137974489 -9.614558860023271e-06 0 0.0005044432186214047 -1.738812685498075e-05 0 0.0005055588172417398 -2.074599694696098e-05 0 0.0005083168338567493 -2.27181315357014e-05 0 0.0005110897017433569 -2.477798965643504e-05 0 0.0005099191023973607 -2.638222888195602e-05 0 0.0005087559215620141 -2.802779446732665e-05 0 0.0005076009480896948 -2.971163506092634e-05 0 0.0005064586852606582 -3.143234164087935e-05 0 0.0005096274309319276 -3.373048991105924e-05 0 0.0005085890000999118 -3.551520732392054e-05 0 0.0005075718921168179 -3.733093440402802e-05 0 0.0005065789883136745 -3.917642700999027e-05 0 0.0005056131687958909 -4.104982328773453e-05 0 0.0005046798225332705 -4.294776683186393e-05 0 0.0005076641443136251 -4.731391979173017e-05 0 0.0005068828247221085 -4.927130534417979e-05 0 0.0005061410906870863 -5.124660994922046e-05 0 0.0005054451525146494 -5.323518959307985e-05 0 0.0005047889733073866 -5.523935747277893e-05 0 0.0005091905979514907 -5.771719317820761e-05 0 0.0005086459767181534 -5.974278493277125e-05 0 0.0005081386436343178 -6.17803888646599e-05 0 0.0005076692498577489 -6.382882837301578e-05 0 0.0005072377443789008 -6.588713393057804e-05 0 0.0005068452478694257 -6.795383232224847e-05 0 0.0005114920239697995 -7.249985751577516e-05 0 0.0005064929518430003 -7.00274950192431e-05 0 0.0005112502181360323 -7.457543954045722e-05 0 0.0005110485088781199 -7.665322842938917e-05 0 0.0005108800039005027 -7.873521035254152e-05 0 0.0005107479753664792 -8.082133194199718e-05 0 0.0005106962370267767 -8.289651955032868e-05 0 0.0005162782485403009 -8.526041848774249e-05 0 0.0005166357913366004 -8.728419162589315e-05 0 0.0005167599305662074 -8.936613494585809e-05 0 0.0005169430064279067 -9.142425940569144e-05 0 0.0005257287777528161 -9.718744737724929e-05 0 0.0005233364569694935 -0.0001017564657744198 0 0.0005228300854289367 -0.0001039642945045614 0 0.0005232639732059092 -9.96572055839653e-05 0 0.0005255376789758549 -0.0001068368332954938 0 0.000529898651595725 -0.000107695578314846 0 0.0005286666937400624 -0.0001099030197564793 0 0.0005239436623050435 -0.0001090410502205827 0 0.0005064530838348549 -6.014588438415213e-07 0 0.0005079290030542996 -9.833193677425894e-07 0 0.0005083095513829573 -1.506696396797213e-06 0 0.0005084400238441302 -2.132165118918146e-06 0 0.0005083055067797904 -2.820050083156295e-06 0 0.0005105163007275089 -3.82128257480629e-06 0 0.0005100460559514695 -4.602311511652491e-06 0 0.0005094264569335357 -5.425265891385069e-06 0 0.0005086683437889884 -6.293612514288685e-06 0 0.000507782426377286 -7.210263390414208e-06 0 0.000506781080171096 -8.177445587848706e-06 0 0.0005056755926836276 -9.197111711136274e-06 0 0.0005074284334321139 -1.070599225507184e-05 0 0.0005062192997984597 -1.185063510473976e-05 0 0.0005049467591125908 -1.304735515529688e-05 0 0.0005035928857064834 -1.429080875572943e-05 0 0.0005022497242953255 -1.558013299003177e-05 0 0.0005008631722270701 -1.692428256989571e-05 0 0.0005032556182230193 -1.879282850796775e-05 0 0.0005019424434202721 -2.023583207990612e-05 0 0.0005072101784238371 -2.424407480540071e-05 0 0.0005053325675739489 -3.318830897511485e-05 0 0.0005037785671776376 -4.486951729003962e-05 0 0.0005029079480905758 -4.681441130650536e-05 0 0.0005041616039292726 -5.726149895219273e-05 0 0.0005061795222135031 -7.210759494748125e-05 0 0.0005107554711958457 -8.495613605387851e-05 0 0.0005170365786136027 -9.350544045657396e-05 0 0.000521378668982428 -9.637390890989234e-05 0 0.0005226161336344041 -0.0001059197124574745 0 0.0005226337085403729 -0.0001112981035120962 0 0.0005274585846650165 -0.0001121116237448955 0 0.0005044232598126002 -2.222056723155015e-05 0 0.0005054416377380155 0 0 0.0005079836122393036 -3.541618216522644e-06 0 0.0005044763488854746 -1.027096651271319e-05 0 0.0004994842427556044 -1.834871272817382e-05 0 0.0005005272289965782 -2.173306799250986e-05 0 0.000503245948647131 -2.374344820292452e-05 0 0.0005059569014758223 -2.583872725169014e-05 0 0.0005047149700645706 -2.748277784765484e-05 0 0.0005034849398208903 -2.916810722361846e-05 0 0.0005022692115632647 -3.089185903530847e-05 0 0.0005010702836283637 -3.265205219303225e-05 0 0.00050422558505894 -3.49779040486135e-05 0 0.0005031429763684216 -3.679871896589343e-05 0 0.0005020856078782103 -3.864910614873394e-05 0 0.0005010514476478112 -4.053291126473765e-05 0 0.0005000557901460483 -4.243906441248226e-05 0 0.0004990935174951883 -4.436981699431346e-05 0 0.0005020740076551304 -4.877990542464709e-05 0 0.000501278397228914 -5.076454873307453e-05 0 0.0005005215069728705 -5.276546686194681e-05 0 0.0004998120203834189 -5.47822545854019e-05 0 0.0004991402437533935 -5.681406606768884e-05 0 0.0005035717270120139 -5.929728752325691e-05 0 0.0005030203772665324 -6.134536093612493e-05 0 0.0005025081425607807 -6.340457715663705e-05 0 0.0005020345000999733 -6.547420243261012e-05 0 0.0005016041473362655 -6.75511401760306e-05 0 0.0005012144143433102 -6.963529157386831e-05 0 0.0005059046234688804 -7.419273895645958e-05 0 0.0005008659018302718 -7.172559122526431e-05 0 0.0005056733117912854 -7.627923016323558e-05 0 0.0005054847419737595 -7.83644955195652e-05 0 0.0005053244165248478 -8.045632412539681e-05 0 0.0005052112554260485 -8.255273736960299e-05 0 0.0005051578490416241 -8.464705903701659e-05 0 0.0005109138144059512 -8.701540185415966e-05 0 0.0005108664391291109 -8.91209635585945e-05 0 0.0005112615278090075 -9.113882510309649e-05 0 0.0005114625916749442 -9.319363377356588e-05 0 0.0005167364043915779 -9.567704759513858e-05 0 0.0005195511924010677 -9.850103361149454e-05 0 0.0005179287223515878 -0.0001037398860380574 0 0.0005177611691914317 -0.0001018312831809408 0 0.0005180264353640973 -0.0001058574300641963 0 0.0005192234448498041 -0.0001079321818650281 0 0.0005181764140183623 -0.0001104541805734702 0 0.0005214849903274202 -0.0001135629597273083 0 0.0005038667668577393 -4.887895195933892e-07 0 0.0005059497217743662 -1.266630280501082e-06 0 0.0005059963657285366 -1.914019306704673e-06 0 0.0005058711551325163 -2.575395076995267e-06 0 0.0005055398092782535 -3.27581553145333e-06 0 0.0005074891847826979 -4.301040937856896e-06 0 0.0005068357541386538 -5.10222196963999e-06 0 0.0005060353805105085 -5.949041291005293e-06 0 0.0005051001107844663 -6.844737057771956e-06 0 0.0005040421261266608 -7.791964133606318e-06 0 0.000502873869685777 -8.792756928499e-06 0 0.0005016080291828104 -9.848779600320426e-06 0 0.0005031953539480631 -1.14000315821914e-05 0 0.0005018428306040997 -1.258485263616062e-05 0 0.0005004358424264546 -1.382245755231095e-05 0 0.0004989530408463314 -1.511758751287463e-05 0 0.0004974600355883551 -1.646638069099121e-05 0 0.000495978254749904 -1.785036298690102e-05 0 0.0004983492563290822 -1.975352275983857e-05 0 0.0004968832908619522 -2.122647346681124e-05 0 0.0005020420375238181 -2.530696213189458e-05 0 0.0004998929991833947 -3.444664632971387e-05 0 0.0004981667433220605 -4.632326028461734e-05 0 0.000497276650395152 -4.829798323117981e-05 0 0.000498501767512486 -5.886116972531322e-05 0 0.0005005573343920204 -7.382135271628929e-05 0 0.0005052001938319597 -8.673524761925347e-05 0 0.0005115737254154163 -9.528360351007052e-05 0 0.0005163691100558893 -9.750791294628624e-05 0 0.0005170072752243438 -0.0001002122314361649 0 0.0005170442316424519 -0.000112860194092859 0 0.0005262743018434756 -0.0001143208465200066 0 0.0004992599855881914 -2.324428610161569e-05 0 0.0005029298855638937 0 0 0.0005036581606666531 -1.07424515687355e-06 0 0.0005050235981112722 -4.01354635386129e-06 0 0.0005002544133024903 -1.096165548759714e-05 0 0.0004946004808671615 -1.926093301899498e-05 0 0.0004953773793022948 -2.276894492091631e-05 0 0.0004980311512542602 -2.481407810388134e-05 0 0.0005007142267617672 -2.694323286215651e-05 0 0.0004994081748624314 -2.863101167555638e-05 0 0.0004981166588029397 -3.035776456734223e-05 0 0.000496842469412382 -3.212238500834183e-05 0 0.0004955911986647141 -3.3922521039695e-05 0 0.0004987401040027516 -3.627369307591882e-05 0 0.0004976154199778545 -3.813153464250674e-05 0 0.0004965199158336067 -4.001917300187079e-05 0 0.0004954522000596978 -4.193752780804747e-05 0 0.0004944261249379807 -4.387783946771579e-05 0 0.0004934385487068406 -4.584092987356938e-05 0 0.0004964275128025315 -5.029197783590937e-05 0 0.000495619131780989 -5.230394354365966e-05 0 0.0004948488942650902 -5.433284157070233e-05 0 0.0004941259652986913 -5.637593548365335e-05 0 0.0004934397786021454 -5.843368893547776e-05 0 0.0004979015067085153 -6.092163805664291e-05 0 0.0004973451170297099 -6.299212753370365e-05 0 0.0004968312131846537 -6.507192747309624e-05 0 0.0004963633428140829 -6.71589038893727e-05 0 0.0004959363021011385 -6.925349004645144e-05 0 0.0004955515868778564 -7.135431676154987e-05 0 0.0005002907035165393 -7.591732680097404e-05 0 0.0004952085042893372 -7.346045332675083e-05 0 0.0005000799482709892 -7.801095176871897e-05 0 0.0004999048915588741 -8.010908529527276e-05 0 0.0004997734227058859 -8.221241630066493e-05 0 0.0004996526702925466 -8.432408764136166e-05 0 0.0004995866919240994 -8.643363230724255e-05 0 0.000505202650102185 -8.883553684223295e-05 0 0.0005053378020246322 -9.089689374102135e-05 0 0.0005058144727180231 -9.291453396600574e-05 0 0.0005059761004926438 -9.499326330274199e-05 0 0.0005116117022698576 -9.737027413231969e-05 0 0.0005127472022574928 -9.939589078523089e-05 0 0.0005123476640992526 -0.0001036330937920327 0 0.0005126193511246186 -0.0001057144671508523 0 0.0005121041852739128 -0.0001015492776694977 0 0.000512947581730725 -0.0001077716806932838 0 0.0005132504638496078 -0.000109867837170735 0 0.000512828539150407 -0.0001121044014823224 0 0.0005195693302937124 -0.0001160010609968622 0 0.0005154550401573211 -0.0001148944101247268 0 0.0005251137862248335 -0.0001165301709333228 0 0.0005016473438119507 -3.970355070539287e-07 0 0.000501606848005045 -8.859640189379755e-07 0 0.0005036659631165369 -1.698935229132184e-06 0 0.0005035261553368907 -2.346480531400625e-06 0 0.0005031844839276063 -3.025410285961416e-06 0 0.0005026507911737713 -3.741437643246169e-06 0 0.0005043373953947354 -4.793241149778259e-06 0 0.0005034951953726374 -5.618677864846494e-06 0 0.00050250984409673 -6.493475949574305e-06 0 0.0005013941151011884 -7.420627873688494e-06 0 0.0005001610455198703 -8.402473929743054e-06 0 0.0004988236495868014 -9.440849196939379e-06 0 0.0004973943479836778 -1.053718124651788e-05 0 0.0004988246902476714 -1.213183964158312e-05 0 0.00049733751739579 -1.335713623770795e-05 0 0.0004958009431006315 -1.463949355845198e-05 0 0.0004942157615286246 -1.598117186004774e-05 0 0.0004925843630747427 -1.737203615286415e-05 0 0.0004909494348444209 -1.87874359651725e-05 0 0.000493241861599556 -2.072591445321611e-05 0 0.0004916951171249809 -2.226290658905877e-05 0 0.0004967679531789371 -2.642080211966312e-05 0 0.000494366153374853 -3.575605466588415e-05 0 0.0004924890820885195 -4.782632305227108e-05 0 0.0004915829040438405 -4.98305569744644e-05 0 0.0004927883348767655 -6.05068709964754e-05 0 0.000494905586216878 -7.556950113692378e-05 0 0.000499549397223852 -8.854485875420799e-05 0 0.0005060946604127225 -9.70879821536916e-05 0 0.0005124184598248323 -0.0001140052304764684 0 0.0005197581221035808 -0.0001180551387919311 0 0.0005239769448798913 -0.0001187391061738589 0 0.000494073308409754 -2.433106630802882e-05 0 0.0005005201676912698 0 0 0.0005014145073957044 -1.497857905782381e-06 0 0.0005019336123349012 -4.499600782342038e-06 0 0.0004958855317727729 -1.169174858179113e-05 0 0.000489491192542105 -2.024944178946806e-05 0 0.0004901092562889577 -2.386045697232901e-05 0 0.0004927390479182074 -2.59403982308664e-05 0 0.0004953721516767981 -2.810114185150205e-05 0 0.0004940019229313548 -2.983111057679893e-05 0 0.0004926474861699952 -3.160089236597333e-05 0 0.0004913187073906243 -3.340670997641469e-05 0 0.0004900163639862817 -3.524745039368429e-05 0 0.0004931703103551806 -3.762114298858664e-05 0 0.0004920058624953764 -3.95169070432852e-05 0 0.0004908737062144967 -4.144145772020709e-05 0 0.0004897727388807286 -4.339653155558219e-05 0 0.0004887262970168279 -4.536734056772812e-05 0 0.000487709552610014 -4.73656020428038e-05 0 0.0004907183936435408 -5.185326318763115e-05 0 0.0004898965994097715 -5.38929181903067e-05 0 0.0004891186230105964 -5.594775594273627e-05 0 0.0004883851117130899 -5.801608490854423e-05 0 0.0004876927183490728 -6.00979502996403e-05 0 0.0004921890246646951 -6.25884454807342e-05 0 0.000491633536907548 -6.467912533562584e-05 0 0.0004911244436704636 -6.67772176282783e-05 0 0.0004906588870714074 -6.888260230946861e-05 0 0.0004902365792134321 -7.099435497791535e-05 0 0.0004898577212047991 -7.311127745863589e-05 0 0.0004946621674027429 -7.767448287715818e-05 0 0.0004895215456005812 -7.523254820571394e-05 0 0.0004944642346916098 -7.977941527048125e-05 0 0.0004943005701617227 -8.189199179991301e-05 0 0.0004941607760283253 -8.40117513964565e-05 0 0.0004940602319154594 -8.613201485487003e-05 0 0.0004939986067435621 -8.825206570856578e-05 0 0.000499599809490755 -9.062976188959651e-05 0 0.0004999400943824944 -9.267474132396494e-05 0 0.00050029043934504 -9.471986109321626e-05 0 0.000500464467734486 -9.681444745589731e-05 0 0.0005062540275840684 -9.918414872946381e-05 0 0.000506446270216213 -0.0001012772859741049 0 0.0005069273837126968 -0.0001054565138590765 0 0.000506671011779993 -0.0001033684253747114 0 0.0005072134605823773 -0.0001075413321399847 0 0.0005075297933594922 -0.000109622392818272 0 0.0005078770091657597 -0.0001116984555053841 0 0.0005079420306779713 -0.0001138053982475008 0 0.0005136406698592018 -0.0001166526358864014 0 0.0005091020356304258 -0.0001158216347032526 0 0.0005148813180803022 -0.0001181209193710938 0 0.0005183279758590614 -0.0001202139006464508 0 0.0004994100034279565 -5.777463963328701e-07 0 0.0004993384232667345 -1.285773380673687e-06 0 0.0005012772979897642 -2.130140238556409e-06 0 0.0005009239955136257 -2.790193118385411e-06 0 0.0005003729840467281 -3.485085894527208e-06 0 0.0004996259404228918 -4.22245340135252e-06 0 0.0005010494631428167 -5.303983580150235e-06 0 0.0005000138976268615 -6.15790715825704e-06 0 0.0004988394867757005 -7.064985852551674e-06 0 0.0004975410572201137 -8.027517137183295e-06 0 0.0004961310240365031 -9.047925278206654e-06 0 0.000494622900267817 -1.012773867093395e-05 0 0.0004930292606879394 -1.126775467413033e-05 0 0.0004943134796442747 -1.290445192702311e-05 0 0.0004926862110904231 -1.417650136858418e-05 0 0.0004910101923377 -1.55085882563141e-05 0 0.00048929301414888 -1.689947031687722e-05 0 0.0004875044961818215 -1.83242793010012e-05 0 0.000485734170692989 -1.979964533492284e-05 0 0.0004880552093970634 -2.176298264445472e-05 0 0.0004863910141112433 -2.336459954130128e-05 0 0.0004913917242838619 -2.759195433426346e-05 0 0.0004887484166962813 -3.71198560041062e-05 0 0.0004867399424319096 -4.938279814371096e-05 0 0.0004858244002871228 -5.14139774127623e-05 0 0.0004870373768798097 -6.219502328662397e-05 0 0.0004892343985296698 -7.735217311045686e-05 0 0.0004939830582598506 -9.036717921056833e-05 0 0.0005006056421848633 -9.891797027282229e-05 0 0.0005141386997085139 -0.0001197362340472073 0 0.000522863653552383 -0.0001209471874145279 0 0.0004886814665680734 -2.546164026093976e-05 0 0.0004982105765431575 0 0 0.0004991257817586423 -1.926925120340499e-06 0 0.0004987014871159438 -5.006186675803885e-06 0 0.0004913669384583695 -1.246781815218311e-05 0 0.0004843622700839913 -2.128354788896195e-05 0 0.00048472086970299 -2.501079967440378e-05 0 0.0004872919746090353 -2.711869606196384e-05 0 0.0004899260616262216 -2.931299442031261e-05 0 0.0004884780505176033 -3.109231537127121e-05 0 0.0004870691237840479 -3.290347578833149e-05 0 0.0004856797557940383 -3.475515602191971e-05 0 0.0004843354359286886 -3.663647595407064e-05 0 0.0004875168908888937 -3.902248298860812e-05 0 0.0004863136692641084 -4.095663181863106e-05 0 0.00048514628440582 -4.292115461036409e-05 0 0.0004840103028639248 -4.491506971879611e-05 0 0.0004829196446769489 -4.692589560238592e-05 0 0.0004818917166535782 -4.895201891362104e-05 0 0.0004849496061849521 -5.346374573021192e-05 0 0.0004841181293633271 -5.553035603878206e-05 0 0.0004833336793963557 -5.76106025088044e-05 0 0.0004825961832065121 -5.970275884719415e-05 0 0.0004819017031479164 -6.180797046350398e-05 0 0.0004864390934412422 -6.429717521775003e-05 0 0.0004858867414222417 -6.640692023018224e-05 0 0.0004853810452347873 -6.852360912928214e-05 0 0.0004849205177158178 -7.06464834725955e-05 0 0.0004845047089657266 -7.277453680148331e-05 0 0.0004841341450102769 -7.490659934665654e-05 0 0.0004890089038568212 -7.946856172412925e-05 0 0.0004838102695471638 -7.703683137549941e-05 0 0.0004888194767952172 -8.158593337112358e-05 0 0.0004886551817260844 -8.371362057366479e-05 0 0.0004885281798034778 -8.584332927658264e-05 0 0.0004884411422030128 -8.797260042948958e-05 0 0.0004883946912355629 -9.010007571267106e-05 0 0.0004941482003042741 -9.243349250953565e-05 0 0.00049446340686874 -9.449251490979886e-05 0 0.0004947965971431931 -9.656784879279802e-05 0 0.0004949445988363757 -9.866688235734921e-05 0 0.0005007803456157849 -0.0001010187461100155 0 0.0005009879944470545 -0.0001031164286740931 0 0.0005014995467105239 -0.0001073021325879167 0 0.0005012281578724771 -0.0001052109718896598 0 0.0005018015588424114 -0.0001093894259179788 0 0.0005021353387955975 -0.0001114713734995082 0 0.0005025043969940688 -0.0001135463932302232 0 0.0005029739013071871 -0.000115615910771666 0 0.0005089798328519521 -0.0001180003184436978 0 0.0005095676821675358 -0.0001199563282490693 0 0.0005169400640600624 -0.0001223889269230133 0 0.000511622735703767 -0.0001216621689832612 0 0.0005217737591138123 -0.0001231539753878433 0 0.0005207070819192009 -0.0001253590558993116 0 0.0005196634180621728 -0.0001275620392864419 0 0.0005152032035582526 -0.0001267740264052566 0 0.0005159041318426003 -0.0001245853436042135 0 0.0004969239278294049 -4.911193140099385e-07 0 0.0004973642952000365 -1.038939151956649e-06 0 0.0004971286454703848 -1.714337200837743e-06 0 0.0004987658961836097 -2.570213821846978e-06 0 0.0004981911264010122 -3.246705286730288e-06 0 0.0004974166278437438 -3.963760388667871e-06 0 0.0004964520866707618 -4.72657421146397e-06 0 0.0004976143061190329 -5.839753962430395e-06 0 0.0004963812853611747 -6.726479626809848e-06 0 0.0004950163848677265 -7.66968852446566e-06 0 0.0004935328092226748 -8.671766829529673e-06 0 0.0004919438149573737 -9.734797530124168e-06 0 0.0004902637811308763 -1.085989600689127e-05 0 0.0004885064599955904 -1.204733574198905e-05 0 0.0004896459700712894 -1.372845867326616e-05 0 0.0004878802842775102 -1.504981401068577e-05 0 0.0004860668837191791 -1.643282865403643e-05 0 0.0004842071794921008 -1.786165243396336e-05 0 0.0004823417471866754 -1.933891316515752e-05 0 0.0004805354005637136 -2.087172002099185e-05 0 0.0004827180987775851 -2.287307909774869e-05 0 0.0004809617107229541 -2.452910772552063e-05 0 0.0004858974846610685 -2.88146918855215e-05 0 0.0004830416930589518 -3.854202702121502e-05 0 0.0004809303361592988 -5.09910166244975e-05 0 0.0004800082745578102 -5.304745411660854e-05 0 0.0004812489848855195 -6.392696908122087e-05 0 0.000483548172636005 -7.916553231633263e-05 0 0.0004884248684645643 -9.22074638826157e-05 0 0.0004951068774385035 -0.0001007727000601041 0 0.0005033327372644935 -0.0001176849991682455 0 0.0005140581084045297 -0.0001289932395197249 0 0.0005186425415285301 -0.0001297625598308359 0 0.0004832496871846241 -2.666311498406494e-05 0 0.0004960073662938233 0 0 0.0004967093506011385 -2.36539210574213e-06 0 0.0004953200303769884 -5.539093087980959e-06 0 0.0004866878910557167 -1.329640140633682e-05 0 0.0004788737402751577 -2.243553742718702e-05 0 0.0004792135127744948 -2.622715633842052e-05 0 0.0004817399757671095 -2.835235358393554e-05 0 0.0004843567114726881 -3.058913969723595e-05 0 0.0004828155080922989 -3.24269252440963e-05 0 0.0004813375671487258 -3.428941946112134e-05 0 0.0004799247400594454 -3.617260631715941e-05 0 0.0004785736885349452 -3.808237877153368e-05 0 0.0004817797796911533 -4.048029380825151e-05 0 0.0004805364403569371 -4.24560817881482e-05 0 0.0004793559239754846 -4.445157399584479e-05 0 0.0004781834884413574 -4.648217639251653e-05 0 0.0004770799873542048 -4.852295425371176e-05 0 0.000476038395108997 -5.057670299592069e-05 0 0.0004791245082734018 -5.512465444905646e-05 0 0.000478287659589685 -5.721676350106715e-05 0 0.0004774994678427106 -5.932171325727954e-05 0 0.0004767615254262605 -6.143680374664399e-05 0 0.0004760702383047989 -6.356300078032271e-05 0 0.0004806503881709611 -6.604891809038453e-05 0 0.0004801023062555354 -6.8177466869588e-05 0 0.000479602639098905 -7.031166083380059e-05 0 0.0004791500747986401 -7.245026133917926e-05 0 0.0004787432089857192 -7.459413986187105e-05 0 0.0004783810459364482 -7.673874781296483e-05 0 0.0004833313209334325 -8.129393896821352e-05 0 0.0004780829428213837 -7.887717494590956e-05 0 0.0004831438842073326 -8.342906355319475e-05 0 0.0004829900232186413 -8.556837460663196e-05 0 0.0004828779825676641 -8.770676003127169e-05 0 0.0004828069047323666 -8.984344489638102e-05 0 0.0004827793767291047 -9.197542508535553e-05 0 0.0004887606428890781 -9.428546028432928e-05 0 0.0004890195905123128 -9.636205932173621e-05 0 0.0004892846960518338 -9.842388928994586e-05 0 0.0004894256343032695 -0.00010054014592874 0 0.0004952976634640156 -0.0001028774333804058 0 0.0004955217036083755 -0.0001049785289488884 0 0.0004957780705528589 -0.0001070758734308786 0 0.0004960659510108228 -0.0001091691667919204 0 0.0004963850383991273 -0.0001112577263466137 0 0.0004967424959659025 -0.0001133359714885813 0 0.0004971282253925362 -0.0001154144174342852 0 0.0004975450646508284 -0.0001174870916226417 0 0.0005037796809563859 -0.0001197488574914964 0 0.0005045700121045881 -0.0001217424722960023 0 0.0005108798963326614 -0.0001240474803319682 0 0.0005105027363182737 -0.000126223745947769 0 0.0005102422116061849 -0.0001283227444248199 0 0.0005131236919045039 -0.0001311373846889805 0 0.0005176442062481497 -0.0001319602751303505 0 0.000516668148045611 -0.0001341548654378604 0 0.0005119559007961362 -0.0001331613419965192 0 0.0004948255021552002 -4.6103326126531e-07 0 0.000495268462622901 -9.531428489815432e-07 0 0.0004951730634946862 -1.527486822826823e-06 0 0.0004947644886758421 -2.168965937226807e-06 0 0.0004961181462792355 -3.024802735106706e-06 0 0.0004953126776539256 -3.723448476292749e-06 0 0.0004943109051829071 -4.466208438007406e-06 0 0.0004931266260428069 -5.259214314198235e-06 0 0.0004940265956595979 -6.406148349081534e-06 0 0.0004925928513820772 -7.330206000757662e-06 0 0.0004910327396875082 -8.314192419770459e-06 0 0.0004893610465247388 -9.360204791657575e-06 0 0.0004875909931453873 -1.04700045157341e-05 0 0.0004857401154880995 -1.1643727836472e-05 0 0.0004838213615441116 -1.288174966730109e-05 0 0.0004848250938236828 -1.460766074177979e-05 0 0.0004829155994438222 -1.598185058928427e-05 0 0.0004809722096530975 -1.741780470264124e-05 0 0.0004789762033615141 -1.890531217389124e-05 0 0.0004770317240072648 -2.043838134733636e-05 0 0.0004751124791194699 -2.202943369996063e-05 0 0.0004771776480413312 -2.408261778373373e-05 0 0.0004754104813893214 -2.576381578642362e-05 0 0.0004802925073729493 -3.008938971334743e-05 0 0.0004772564869462158 -4.00203047242723e-05 0 0.0004750724168568318 -5.264316027770475e-05 0 0.0004741315190452014 -5.473309639195208e-05 0 0.0004754121347465034 -6.570451454279533e-05 0 0.0004778354554532335 -8.101561109555928e-05 0 0.0004828918699014567 -9.407691972791942e-05 0 0.0004895994205039688 -0.0001026519007235797 0 0.0004979845382223914 -0.0001195551901780903 0 0.0005047560237073877 -0.0001238618312399104 0 0.0005101352885119688 -0.000130307674648118 0 0.000511038512767593 -0.0001353970301549922 0 0.0005157140864904928 -0.0001363460329726804 0 0.0004776002555988639 -2.792315683795225e-05 0 0.0004939160045209699 0 0 0.0004941542302218084 -2.817713396507164e-06 0 0.0004917747872961384 -6.106396797388198e-06 0 0.0004818515711169449 -1.418370261673045e-05 0 0.0004733451780678954 -2.365559099747464e-05 0 0.0004735751894773292 -2.750048440781374e-05 0 0.0004760783395069957 -2.966538678091707e-05 0 0.0004786983761634406 -3.191981913926538e-05 0 0.0004770979711983298 -3.380436523274183e-05 0 0.0004755757303047329 -3.570629106801932e-05 0 0.0004741306115997506 -3.762980734231507e-05 0 0.0004727338952962468 -3.957948950903387e-05 0 0.0004759400183965075 -4.200602162328461e-05 0 0.0004746711681392528 -4.401844849681012e-05 0 0.0004734485342468266 -4.605395135875331e-05 0 0.000472282088634833 -4.810756183228366e-05 0 0.0004711770382867579 -5.017515566492479e-05 0 0.0004701283908621594 -5.225954378040292e-05 0 0.0004732471364655303 -5.683548804386187e-05 0 0.0004724062303004299 -5.895305988164622e-05 0 0.000471617861121155 -6.108137603328701e-05 0 0.0004708826354556375 -6.32185671407192e-05 0 0.0004701965267285917 -6.536388319910157e-05 0 0.0004748252456245194 -6.784349450073931e-05 0 0.0004742875980725534 -6.998658060328246e-05 0 0.0004737949464473562 -7.213679168414692e-05 0 0.0004733521471051752 -7.429095888691008e-05 0 0.0004729567647693694 -7.644816865088836e-05 0 0.0004726115112667215 -7.860219579690804e-05 0 0.0004776266636619177 -8.315880090396516e-05 0 0.0004723266406595869 -8.075841745723045e-05 0 0.00047744561768045 -8.530762805677263e-05 0 0.0004773073953434182 -8.745558239981732e-05 0 0.000477211226070336 -8.960204674157471e-05 0 0.0004771561756325961 -9.174593097779447e-05 0 0.0004771733456702028 -9.38640487894318e-05 0 0.0004832505292075191 -9.614806783258298e-05 0 0.0004835561322529493 -9.822782289043875e-05 0 0.0004837346675744888 -0.0001003210873788124 0 0.0004838930795712965 -0.0001024404061267267 0 0.0004898073168722102 -0.0001047597267597612 0 0.0004900486514809693 -0.000106863281895728 0 0.0004903226756831445 -0.0001089622216243286 0 0.0004906288279793503 -0.0001110555369411086 0 0.0004909727193901027 -0.0001131411946387249 0 0.0004913535922248262 -0.0001152227033113712 0 0.0004917507355411979 -0.0001173019493499715 0 0.0004921814051444368 -0.0001193748748182968 0 0.0004984471835112429 -0.0001216187831898622 0 0.0004989356006560473 -0.0001236758577770612 0 0.0005051846280681711 -0.0001258533905639154 0 0.0005055190902337884 -0.000127941288042044 0 0.0005057786882352949 -0.000130030353431386 0 0.0005069941586469432 -0.0001320297397835185 0 0.0005064929879848144 -0.00013436576819907 0 0.0005091860518210063 -0.000137841034074503 0 0.0005147817266487267 -0.0001385335012102553 0 0.000492797021099892 -4.927439545692015e-07 0 0.0004933984140348968 -8.964676860788472e-07 0 0.0004932868559708787 -1.40119462712206e-06 0 0.0004929077001138522 -1.989503405910924e-06 0 0.0004922926367657203 -2.627562869703869e-06 0 0.0004933215736627434 -3.500626856113368e-06 0 0.0004922795545919903 -4.226375449486535e-06 0 0.0004910434580428151 -5.000587259002708e-06 0 0.0004896314824544539 -5.828929567244098e-06 0 0.0004902734639711405 -7.011100900332857e-06 0 0.0004886348583315139 -7.977157597303285e-06 0 0.0004868776509589441 -9.006277890077675e-06 0 0.0004850173492442893 -1.010014524668917e-05 0 0.0004830670285547475 -1.126024387754949e-05 0 0.0004810471583552705 -1.2485819217403e-05 0 0.0004789677288898737 -1.37778863465489e-05 0 0.0004798392503671447 -1.554901881753796e-05 0 0.000477792394148803 -1.697799292534917e-05 0 0.0004757224453165059 -1.8468754558836e-05 0 0.0004736057932736063 -2.001829458965437e-05 0 0.0004715432757685947 -2.162364008545874e-05 0 0.000469505937550574 -2.327552068934409e-05 0 0.0004715219671395948 -2.534058506791379e-05 0 0.0004697243589231148 -2.706105714002888e-05 0 0.0004745187256818134 -3.147366652898792e-05 0 0.0004713730904786717 -4.156469293229899e-05 0 0.0004691376825454849 -5.435919460758542e-05 0 0.0004681929210908616 -5.647426713392853e-05 0 0.0004695469236051346 -6.75240361047953e-05 0 0.0004720956669571006 -8.29073309581345e-05 0 0.0004774818061995722 -9.595211562984499e-05 0 0.0004840842167127063 -0.0001045552389885729 0 0.000492634035891656 -0.0001214433422688436 0 0.0004994395143644846 -0.0001257208654546751 0 0.0005060977641177358 -0.0001364098628385305 0 0.000510032536524064 -0.0001399011632758025 0 0.000513870760736789 -0.0001407170141552797 0 0.0004719184914325967 -2.924659347672635e-05 0 0.0004919382608090028 0 0 0.0004914399090499154 -3.29665733809783e-06 0 0.000488060726528034 -6.714813329522382e-06 0 0.0004768464546466712 -1.513518994831412e-05 0 0.0004676603351388367 -2.494367640261837e-05 0 0.0004678191083741928 -2.884990090587737e-05 0 0.0004702959123908142 -3.105144588914117e-05 0 0.0004728835396545587 -3.333722609499316e-05 0 0.0004712697935304962 -3.525113461750932e-05 0 0.0004697216608050684 -3.718991051550552e-05 0 0.0004682304918724233 -3.915562696458e-05 0 0.0004667872183275016 -4.115401090787889e-05 0 0.0004700191157096779 -4.359307282665854e-05 0 0.0004687228673402499 -4.56421834502688e-05 0 0.0004674976806069461 -4.770468936855436e-05 0 0.0004663276669669172 -4.978648669433439e-05 0 0.0004652123768915519 -5.188615052988388e-05 0 0.0004641515383417702 -5.4001189901781e-05 0 0.0004673075930408428 -5.860110552986636e-05 0 0.0004664742267495194 -6.073969872283234e-05 0 0.0004656913682068201 -6.289043348460665e-05 0 0.0004649616487860448 -6.504887246785628e-05 0 0.0004642814883016635 -6.721353113295123e-05 0 0.000468973326461521 -6.96767572115394e-05 0 0.0004684407444904432 -7.183667437976753e-05 0 0.0004679625680454435 -7.400148978027136e-05 0 0.0004675351610752612 -7.616920306467329e-05 0 0.0004671486518799789 -7.833639880838042e-05 0 0.0004668243628906406 -8.050551103042149e-05 0 0.0004718931921402956 -8.506259876645091e-05 0 0.0004665557774210856 -8.267151976759754e-05 0 0.0004717297622501523 -8.721926526640477e-05 0 0.0004716086595197483 -8.937509432925501e-05 0 0.0004715299642357704 -9.152833155647559e-05 0 0.0004714935050567939 -9.367765333456191e-05 0 0.0004716871803065754 -9.574854153438178e-05 0 0.0004778108968574313 -9.802234444751737e-05 0 0.0004780288845217768 -0.0001001199426444143 0 0.0004781751478839195 -0.0001022448477306724 0 0.0004783507724144775 -0.000104366096865621 0 0.0004843107170882906 -0.0001066650570788285 0 0.0004845703863005249 -0.0001087701257747288 0 0.000484862243895656 -0.0001108696880325491 0 0.0004851886819009374 -0.0001129626280358207 0 0.0004855589947605009 -0.0001150480154354251 0 0.0004859532898198041 -0.0001171303528038079 0 0.0004863694470029733 -0.0001192083511752363 0 0.000486812543210164 -0.0001212811419485747 0 0.0004931147854961165 -0.0001235059401925557 0 0.0004936187030900624 -0.0001255609884429793 0 0.0004999949364982195 -0.0001277787903182634 0 0.0005005543777171765 -0.0001298223374757644 0 0.000501114356340252 -0.0001318638486073373 0 0.0005015509410475261 -0.0001339220416185238 0 0.0005021752149668301 -0.0001359495684915087 0 0.0005021938851143578 -0.0001382216733610907 0 0.0005044134830892886 -0.0001402259311511044 0 0.0005077122035358667 -0.0001420087059222851 0 0.0005129808696808564 -0.0001428963356029765 0 0.0004908670663030705 -5.122785288066734e-07 0 0.0004916249175412436 -8.321800765822337e-07 0 0.0004915185237224052 -1.282434536347773e-06 0 0.0004911543671494459 -1.843640563225037e-06 0 0.0004905257207897421 -2.459254196117301e-06 0 0.0004896617294925025 -3.114746659051265e-06 0 0.0004903619436082125 -4.006629534113028e-06 0 0.0004890759874296233 -4.764360910542965e-06 0 0.0004876020558459201 -5.575155708087955e-06 0 0.0004859575392227582 -6.443586426218326e-06 0 0.0004863429032404715 -7.662886952892595e-06 0 0.0004844975757032452 -8.675309423609215e-06 0 0.000482542527675787 -9.753642023947359e-06 0 0.0004804927902674552 -1.08993934463913e-05 0 0.00047836546653059 -1.211296669447372e-05 0 0.0004761768611254655 -1.339442040331874e-05 0 0.0004739381648908211 -1.47437145162078e-05 0 0.0004746887164631432 -1.655775305744004e-05 0 0.0004725072001846931 -1.804416470352679e-05 0 0.0004703158081994705 -1.959162864142627e-05 0 0.0004681255033040635 -2.119648435481651e-05 0 0.0004659565492744493 -2.285755313124689e-05 0 0.0004637916125263444 -2.456875259104915e-05 0 0.000465750615843989 -2.66759862764255e-05 0 0.0004639100090292244 -2.843114424899429e-05 0 0.0004686706322874841 -3.289381114527568e-05 0 0.0004653789023286199 -4.318514890316219e-05 0 0.0004631515967876456 -5.612793858762244e-05 0 0.0004622129303172983 -5.826753810272373e-05 0 0.0004636483064402704 -6.938463553167539e-05 0 0.0004663295237229143 -8.483634756199885e-05 0 0.0004720375483070071 -9.782628575615209e-05 0 0.0004785633008891358 -0.0001064819688929063 0 0.0004872835276559031 -0.0001233481596884 0 0.0004941519108376935 -0.0001276130561275423 0 0.0005081034547447996 -0.0001438017689561915 0 0.0005121117245833242 -0.0001450712483928545 0 0.0004661225137031011 -3.065257207258368e-05 0 0.0004900814853430693 0 0 0.0004885578257634575 -3.809737997245245e-06 0 0.0004841609345974954 -7.37384861113875e-06 0 0.0004716651668402447 -1.615954400881985e-05 0 0.0004618275216551681 -2.629002188375325e-05 0 0.0004619379593967902 -3.027109710836607e-05 0 0.0004644245188626611 -3.250192671860324e-05 0 0.0004669914161272058 -3.480871353253002e-05 0 0.0004653564943786703 -3.675888510199817e-05 0 0.0004637704737986427 -3.874143532182041e-05 0 0.0004622358523700406 -4.075384039829496e-05 0 0.0004607555445710236 -4.279359509293183e-05 0 0.0004640248679411708 -4.523990453663101e-05 0 0.0004627266471708649 -4.731651769309601e-05 0 0.0004614878667082377 -4.941177292006854e-05 0 0.0004603075762097694 -5.15246779126344e-05 0 0.0004591851833478552 -5.365385649671335e-05 0 0.0004581216784763945 -5.579709530813159e-05 0 0.0004613256779897628 -6.041849986381819e-05 0 0.0004604974690974587 -6.258032020462985e-05 0 0.0004597241065988032 -6.475061234086702e-05 0 0.0004589958700764789 -6.692965335868162e-05 0 0.0004583325433957987 -6.910994170726924e-05 0 0.0004630870150840075 -7.15569658294569e-05 0 0.000462578825140804 -7.373171135849621e-05 0 0.0004621178743041169 -7.590961012597643e-05 0 0.0004617044009299977 -7.808913740542157e-05 0 0.0004613421344055261 -8.026872673736179e-05 0 0.0004610231026448924 -8.244860424295788e-05 0 0.0004661420371640219 -8.700129392542786e-05 0 0.0004607636335943077 -8.462522846060893e-05 0 0.000465997578993965 -8.916494023194417e-05 0 0.00046589563395666 -9.132677299177972e-05 0 0.000465836845177013 -9.348486912363236e-05 0 0.0004658888414678455 -9.559599436903817e-05 0 0.0004661453047785878 -9.766522848426583e-05 0 0.000472324117190881 -9.993781434545579e-05 0 0.0004724443616752679 -0.0001020668756007279 0 0.0004726068062168727 -0.0001041935822397428 0 0.0004728030620021439 -0.0001063157488399183 0 0.0004788093222874476 -0.0001085928330797567 0 0.0004790883265723702 -0.0001106985449515634 0 0.0004793997005151232 -0.0001127985465338859 0 0.0004797432124393444 -0.0001148911565582997 0 0.0004801404516967659 -0.0001169744390656136 0 0.0004805393870150803 -0.000119059175424016 0 0.0004809744831754068 -0.0001211355479212783 0 0.0004814373742510757 -0.0001232061033780047 0 0.0004877818519670637 -0.0001254091146983359 0 0.0004883069851469991 -0.0001274638911621092 0 0.0004947122788039907 -0.0001296603190959214 0 0.0004952910632672762 -0.0001317008019515715 0 0.0004959027711353719 -0.0001337338208867 0 0.0004965316009239955 -0.0001357610779809347 0 0.0004969162874346498 -0.0001377125560026624 0 0.0004984350339247846 -0.0001406937042843985 0 0.0005008615409477161 -0.0001423125968009226 0 0.0005032963287702948 -0.000143907793463819 0 0.0005057674786333755 -0.0001455164210424561 0 0.0004891673366341383 -5.289835420876819e-07 0 0.0004898332193483132 -1.093590175646911e-06 0 0.0004895053078687155 -1.692130611418158e-06 0 0.0004888874918090297 -2.310537426162239e-06 0 0.0004879971343390481 -2.956054561934784e-06 0 0.0004868605327409593 -3.640344710432218e-06 0 0.0004872241419634118 -4.55276450175085e-06 0 0.0004856887111550737 -5.347664770994751e-06 0 0.0004839708653582982 -6.199686992224258e-06 0 0.0004820905043953421 -7.113407730363008e-06 0 0.0004822251576246152 -8.369858718850616e-06 0 0.0004801721292048779 -9.432808977217648e-06 0 0.0004780185171281212 -1.056444308712287e-05 0 0.0004757813509748485 -1.176554142831893e-05 0 0.0004734768887772161 -1.303649021905487e-05 0 0.0004711203323322685 -1.437694113171125e-05 0 0.0004687254910119306 -1.578608678298082e-05 0 0.0004693673481551588 -1.76410653847123e-05 0 0.0004670589207060081 -1.918567892395256e-05 0 0.0004647534431115 -2.079101034514911e-05 0 0.0004624607032070268 -2.245467462157492e-05 0 0.0004601914932889149 -2.417285185858819e-05 0 0.0004579499860897633 -2.594415498713665e-05 0 0.0004599497713409005 -2.805500276246666e-05 0 0.0004579666509021524 -2.987810956535003e-05 0 0.0004627514071744886 -3.438930500633525e-05 0 0.0004593313979075721 -4.485839556088456e-05 0 0.0004571208520988992 -5.795012405852986e-05 0 0.0004561871846768775 -6.011505810745104e-05 0 0.0004577248594377518 -7.129505092507691e-05 0 0.0004605468006604908 -8.680052245435521e-05 0 0.0004664936154684227 -9.977445232133986e-05 0 0.0004730374444542201 -0.0001084317420604284 0 0.0004819301048562837 -0.000125270061750718 0 0.0004888572841798232 -0.0001295124105634632 0 0.000496567155485543 -0.0001393781836362159 0 0.0004601424285887522 -3.212063086923871e-05 0 0.0004883415423433467 0 0 0.0004854880957130983 -4.368350876829267e-06 0 0.0004800632630937474 -8.093135847906206e-06 0 0.0004663058776593289 -1.726263709468902e-05 0 0.000455985941148527 -2.76900953898552e-05 0 0.0004559342041524201 -3.1769776053712e-05 0 0.0004584129614673569 -3.401858939916736e-05 0 0.0004610186338997457 -3.634260168146597e-05 0 0.0004593451458010185 -3.833665490822477e-05 0 0.0004577256562162687 -4.03607199026044e-05 0 0.0004561634289207619 -4.241316206980435e-05 0 0.0004546604447314354 -4.449117792352081e-05 0 0.0004579650699645482 -4.694593023613701e-05 0 0.0004566580277988437 -4.905389753013975e-05 0 0.0004554113335614208 -5.11800996548606e-05 0 0.0004542235542496153 -5.332336099793973e-05 0 0.0004530996427027761 -5.548008852270675e-05 0 0.0004520371701536861 -5.764946641636337e-05 0 0.0004553046232245639 -6.228820723936964e-05 0 0.0004544785473742868 -6.447144697898613e-05 0 0.0004536961467752057 -6.667024262103834e-05 0 0.0004529695488051957 -6.886905772777591e-05 0 0.0004523335411293713 -7.10585005200929e-05 0 0.0004571733086831761 -7.348283227822636e-05 0 0.0004566693936516451 -7.567337048385799e-05 0 0.0004562212977786038 -7.786418957887766e-05 0 0.0004558254087134912 -8.005483487960163e-05 0 0.0004554815466778298 -8.224435091518614e-05 0 0.0004551891178538623 -8.443191878670513e-05 0 0.0004603768908969069 -8.897339196099821e-05 0 0.0004549444133019836 -8.661725794566597e-05 0 0.000460251946456025 -9.114310660961762e-05 0 0.0004601707898410268 -9.330942539860352e-05 0 0.0004601328337898982 -9.547139533511834e-05 0 0.0004603606158805603 -9.750806352914412e-05 0 0.0004606855315289292 -9.96222468874641e-05 0 0.0004667095571578621 -0.0001019041372403029 0 0.0004668532012054632 -0.0001040377624997283 0 0.000467035602375028 -0.0001061653457000063 0 0.0004672517604032049 -0.0001082884080217264 0 0.0004733042591361227 -0.0001105425793689049 0 0.0004736037350819006 -0.0001126477681742107 0 0.0004739357220691583 -0.0001147465477906873 0 0.0004743035055071828 -0.0001168385084018253 0 0.00047470069227759 -0.0001189250761779395 0 0.00047512659702094 -0.000121005336674468 0 0.0004755796625077941 -0.0001230797115940907 0 0.0004760640333753972 -0.0001251466558595929 0 0.0004824507877709386 -0.0001273273428344705 0 0.0004829942609537647 -0.0001293790194183162 0 0.0004894332048772152 -0.0001315554405399565 0 0.0004900354332576522 -0.0001335916431604995 0 0.0004906589079792136 -0.0001356216300363451 0 0.0004913056563017162 -0.0001376378287360876 0 0.0004918757836421367 -0.0001396304014207381 0 0.0004923453635459825 -0.0001412985453082789 0 0.0004945429617352518 -0.0001427349710003598 0 0.0004969857989754888 -0.0001443213155453489 0 0.0004994133569025196 -0.0001459770758677815 0 0.0004873873584855156 -5.334860147784751e-07 0 0.0004878046592149069 -1.058751516925576e-06 0 0.0004879466993880564 -1.577019557242847e-06 0 0.0004873681132107001 -2.179996252636031e-06 0 0.0004864597193463662 -2.820102387699956e-06 0 0.0004852881382765075 -3.49649203920999e-06 0 0.0004838671479543689 -4.215122825330154e-06 0 0.0004838955161427065 -5.148504212454687e-06 0 0.0004821044623648174 -5.985635996630998e-06 0 0.0004801377817166484 -6.884302698069783e-06 0 0.0004780160515781112 -7.848541448023429e-06 0 0.0004779098143231227 -9.140839974590575e-06 0 0.0004756488951307319 -1.02583317998937e-05 0 0.0004732980383840035 -1.144692641531115e-05 0 0.0004708743278001431 -1.270699374336014e-05 0 0.0004683939375233079 -1.403851740603602e-05 0 0.0004658734759596488 -1.544050961327186e-05 0 0.0004633258853305824 -1.691209628264843e-05 0 0.0004638741629917932 -1.880456190337925e-05 0 0.0004614430364097116 -2.040935396858691e-05 0 0.0004590280155106058 -2.207397926776331e-05 0 0.0004566367893587431 -2.379518818928243e-05 0 0.0004543134827248459 -2.555710558133149e-05 0 0.0004521281488568403 -2.733352144084057e-05 0 0.0004539835649834399 -2.950728497002809e-05 0 0.0004518906293475442 -3.140014441567184e-05 0 0.0004567166626802396 -3.595295396631538e-05 0 0.0004532181826334292 -4.659235436145257e-05 0 0.000451045488833924 -5.982639404251673e-05 0 0.0004501164072058519 -6.201240910247987e-05 0 0.0004517584361129872 -7.325310304825081e-05 0 0.0004547481596272407 -8.879944913250617e-05 0 0.0004609167303227665 -0.0001017606087378352 0 0.0004675092668878652 -0.0001104035651816445 0 0.0004765806710489829 -0.0001272057671053323 0 0.0004835640334119696 -0.0001314242923197214 0 0.0004541138338728437 -3.367172469948966e-05 0 0.0004867214314900225 0 0 0.000482220045693967 -4.98182577219446e-06 0 0.0004757600082984747 -8.881177365147704e-06 0 0.000460765943736978 -1.845111538550563e-05 0 0.000450032630046512 -2.916206279943254e-05 0 0.0004498128722273809 -3.335425814984736e-05 0 0.000452298093900668 -3.560854084960118e-05 0 0.0004549451043775659 -3.795110233301849e-05 0 0.0004532364417326402 -3.998624394491344e-05 0 0.000451589855541258 -4.205142105994967e-05 0 0.000450005611058263 -4.414259285429653e-05 0 0.0004484846588004727 -4.625781015079888e-05 0 0.000451838354220585 -4.871423980404629e-05 0 0.0004505220678810816 -5.085448020872189e-05 0 0.0004492708479808545 -5.301078019212463e-05 0 0.0004480812040395153 -5.518240046616482e-05 0 0.0004469607801694247 -5.736471699018782e-05 0 0.0004459050737977666 -5.95575120718052e-05 0 0.000449235983558434 -6.421084827667061e-05 0 0.0004484086779109657 -6.64211148591163e-05 0 0.0004476066759159628 -6.865305911712378e-05 0 0.0004469229389673436 -7.08537400179187e-05 0 0.0004463031237312088 -7.305751905255144e-05 0 0.0004512171597806984 -7.545540424861721e-05 0 0.0004507226367915454 -7.76593653295927e-05 0 0.0004502928689288255 -7.986117529499778e-05 0 0.0004499155969378367 -8.206164977215211e-05 0 0.000449593462491765 -8.425948745890396e-05 0 0.0004493309899683251 -8.645297333156987e-05 0 0.0004545987530660507 -9.097803560836373e-05 0 0.0004491082628362067 -8.864459666166761e-05 0 0.0004544950465658608 -9.315230254678854e-05 0 0.0004544768432033893 -9.529893337659937e-05 0 0.0004546280586229121 -9.738842961612956e-05 0 0.0004549839602488713 -9.948780640839941e-05 0 0.000455217286793853 -0.000101627864297458 0 0.0004610941209903349 -0.0001038974630707233 0 0.0004612600171718683 -0.0001060316850696818 0 0.0004614629904169077 -0.0001081596646956243 0 0.0004617041024138207 -0.0001102808929277463 0 0.0004677975039152941 -0.0001125132295368391 0 0.0004681180035076972 -0.0001146171999237407 0 0.0004684715727013434 -0.0001167145867771314 0 0.0004688556377050737 -0.0001188059026837593 0 0.0004692707411964232 -0.0001208903777438604 0 0.0004697157541428353 -0.0001229681153811486 0 0.000470190204629889 -0.000125038699498818 0 0.0004707025318383712 -0.000127099727525586 0 0.0004771228360787564 -0.0001292595896220993 0 0.0004776854388605572 -0.0001313075489083286 0 0.0004841590715436804 -0.000133462748382132 0 0.000484778951031674 -0.0001354939726870206 0 0.0004854276078744154 -0.0001375108305464027 0 0.0004860792161829443 -0.0001394991882845714 0 0.0004864860868295191 -0.0001414669235289871 0 0.0004881985295297652 -0.0001431560704807574 0 0.0004906169648215765 -0.0001448038358761614 0 0.0004930493716511523 -0.0001464535495672093 0 0.0004857712330729176 -5.599535935722081e-07 0 0.0004860806774352823 -1.089163296683442e-06 0 0.0004862581308846212 -1.591350254321235e-06 0 0.0004859734697269434 -2.078452917799904e-06 0 0.0004850485131591043 -2.703519486635284e-06 0 0.0004838438171563958 -3.378376605730531e-06 0 0.0004823766747955299 -4.091810089777409e-06 0 0.0004806689733623983 -4.849990231805473e-06 0 0.0004803622063607462 -5.804294283658478e-06 0 0.0004783096717191312 -6.689148015418382e-06 0 0.0004760910102018531 -7.639070012879172e-06 0 0.0004737279792839934 -8.657602084005867e-06 0 0.0004733882661796975 -9.9846878329037e-06 0 0.0004709197578645204 -1.11606040638724e-05 0 0.0004683812304077227 -1.240684044410624e-05 0 0.0004657763380107013 -1.372717336981795e-05 0 0.0004631207076432382 -1.512268333632447e-05 0 0.0004604328368202989 -1.659233858246144e-05 0 0.0004577370318053743 -1.812870067390532e-05 0 0.0004582054680029927 -2.005546550045517e-05 0 0.0004556589089829801 -2.172172363539165e-05 0 0.000453134482096478 -2.344802974411953e-05 0 0.0004506360592872633 -2.523223541234489e-05 0 0.0004483002132802474 -2.702783152308514e-05 0 0.0004460400602536089 -2.886611900857231e-05 0 0.0004478742403996639 -3.105216124709548e-05 0 0.0004456951782024562 -3.301459204252328e-05 0 0.0004505691006113899 -3.758461929883523e-05 0 0.0004470285726834572 -4.839445005001634e-05 0 0.0004449195292494389 -6.17588986616139e-05 0 0.000443992189513845 -6.396967307173897e-05 0 0.0004457373963987167 -7.526778704533804e-05 0 0.0004489357999459058 -9.083177470391724e-05 0 0.000455324506501458 -0.0001037750844698041 0 0.0004619804919227722 -0.0001123956277618617 0 0.0004712397128438689 -0.0001291552850369596 0 0.0004782727738573546 -0.0001333491279344617 0 0.0004478921356024669 -3.530207222249533e-05 0 0.0004852237330449504 0 0 0.0004787441646693467 -5.660025315860937e-06 0 0.0004712412611389397 -9.747634975516047e-06 0 0.0004550426099555467 -1.973171164613483e-05 0 0.0004438802092498191 -3.074386476708019e-05 0 0.000443565759117116 -3.501481151231661e-05 0 0.000446089741370859 -3.728545021152982e-05 0 0.0004487685806644245 -3.963223174398817e-05 0 0.0004470347252995716 -4.171037267030522e-05 0 0.0004453661184634614 -4.381512424179954e-05 0 0.0004437645438415785 -4.594425723593178e-05 0 0.000442230346451536 -4.80955613682868e-05 0 0.0004456393540313546 -5.054930620161101e-05 0 0.0004443188826712911 -5.272016378210876e-05 0 0.0004430676509498542 -5.490515112635003e-05 0 0.0004418841090612297 -5.710248066928213e-05 0 0.0004407716330282525 -5.930954068462902e-05 0 0.0004397237586993562 -6.152626923547873e-05 0 0.0004431165825070493 -6.619250133686283e-05 0 0.0004422887079462719 -6.842711370290001e-05 0 0.0004415083578144608 -7.066837355198058e-05 0 0.0004408363564190582 -7.288772103482197e-05 0 0.0004402377047647741 -7.51089250907056e-05 0 0.0004452124802634892 -7.748049682100156e-05 0 0.0004447184655111059 -7.96945364835415e-05 0 0.0004443400638263159 -8.190160484822968e-05 0 0.0004439395294673989 -8.411552371644549e-05 0 0.0004437035261053717 -8.631113826446884e-05 0 0.0004434488177863149 -8.851269155786219e-05 0 0.0004488088729748723 -9.301453912444313e-05 0 0.0004432512379684159 -9.070938459087069e-05 0 0.0004487278875433427 -9.519185546048339e-05 0 0.0004488410598677755 -9.731167974579722e-05 0 0.0004490641567761561 -9.94189401898444e-05 0 0.000449460551766724 -0.0001015200494210752 0 0.000449568231071174 -0.0001036673070384114 0 0.0004554751719393365 -0.0001059152536581555 0 0.0004556636554321932 -0.0001080487325719303 0 0.0004558898551372352 -0.000110175345313379 0 0.0004561538992376053 -0.0001122953282902524 0 0.000462290372733191 -0.0001145040244703442 0 0.0004626323789796375 -0.0001166060768536077 0 0.0004630068295248659 -0.0001187012162142871 0 0.0004634128012334538 -0.0001207893524408842 0 0.0004638490720222672 -0.0001228705312725632 0 0.0004643157199588979 -0.000124944059533278 0 0.0004648152678902225 -0.0001270085360036633 0 0.0004653468527456357 -0.0001290667984606354 0 0.0004717989210671808 -0.0001312053327535099 0 0.0004723806483407249 -0.0001332491828970761 0 0.0004788894071150556 -0.0001353822947999322 0 0.0004795377150739971 -0.000137404527498821 0 0.0004802405646760703 -0.0001394065132018981 0 0.0004810709893275646 -0.0001413044971275448 0 0.0004812995670771283 -0.0001434317300979058 0 0.0004842378926970498 -0.0001453003886533767 0 0.0004866755492731979 -0.0001469461745951223 0 0.0004843579313908327 -6.070821829007053e-07 0 0.0004845725215595094 -1.173060924615657e-06 0 0.0004846439979352197 -1.686177982110296e-06 0 0.000484724059354441 -2.077696742450396e-06 0 0.0004837796185946348 -2.608487579489161e-06 0 0.0004825308591600044 -3.285248055042817e-06 0 0.0004810188242913011 -3.999400293203495e-06 0 0.0004792529023875346 -4.753077446659584e-06 0 0.0004772613527428706 -5.554653133894516e-06 0 0.0004766083499045276 -6.531991995249405e-06 0 0.00047429040287929 -7.469265812532048e-06 0 0.000471818348551745 -8.474615560622872e-06 0 0.0004692127888025345 -9.551762497473609e-06 0 0.0004686513182649253 -1.09108688846755e-05 0 0.0004659835698212192 -1.214579126222468e-05 0 0.0004632620672671568 -1.345220727692971e-05 0 0.0004604716602121108 -1.483870744329126e-05 0 0.0004576515551987936 -1.629780518491182e-05 0 0.0004547996512480711 -1.783751182793818e-05 0 0.0004519570326700081 -1.944276230624526e-05 0 0.000452360070933923 -2.139945017915299e-05 0 0.0004497022887416178 -2.312887354734202e-05 0 0.0004470752397957319 -2.491797695996498e-05 0 0.0004444853500543571 -2.675532848549808e-05 0 0.0004421154190574812 -2.860481851489344e-05 0 0.0004397115470924585 -3.051020806127535e-05 0 0.0004415866288795093 -3.270985358328171e-05 0 0.0004393768646195927 -3.471813196830817e-05 0 0.0004443113399456525 -3.931717947093486e-05 0 0.0004407657563077416 -5.026595997391501e-05 0 0.0004387440444949566 -6.375065457630965e-05 0 0.000437818685501027 -6.598680615424254e-05 0 0.0004396807088319705 -7.733131897656908e-05 0 0.0004431086479722703 -9.289881911490609e-05 0 0.0004496794973495669 -0.0001058176674529301 0 0.0004564524280029056 -0.0001144082752042733 0 0.0004659025142554204 -0.0001311187462161622 0 0.000472988035701122 -0.0001352860726728932 0 0.0004416316616441552 -3.700810468504767e-05 0 0.0004838494477880906 0 0 0.0004750371716944185 -6.417733329506087e-06 0 0.0004664967267518981 -1.070273758617244e-05 0 0.0004491341588461732 -2.11110210843802e-05 0 0.0004374503200021309 -3.244650517037078e-05 0 0.000437206165598691 -3.67674239690398e-05 0 0.0004397822520694089 -3.904479177747439e-05 0 0.0004424975991181245 -4.139638565857263e-05 0 0.0004407420181680804 -4.351085049702295e-05 0 0.0004390573335188636 -4.565366996047151e-05 0 0.0004374443334756092 -4.781875487123186e-05 0 0.0004358984680899133 -5.000674550935264e-05 0 0.0004393672692584252 -5.245262225181514e-05 0 0.0004380503922034793 -5.465212310929803e-05 0 0.0004368087024264946 -5.68632848102789e-05 0 0.0004356319944723859 -5.90856590120739e-05 0 0.0004345282546176788 -6.131622175701399e-05 0 0.0004334948060016157 -6.355351121735371e-05 0 0.000436940875133299 -6.823483328080823e-05 0 0.0004361276000814034 -7.04866618315604e-05 0 0.0004353964538317275 -7.272922609753847e-05 0 0.0004347422544933154 -7.496649016485978e-05 0 0.0004341507078765043 -7.720239471109833e-05 0 0.0004391634814381327 -7.955716686600872e-05 0 0.0004387298238244587 -8.176887922793343e-05 0 0.0004383499388762704 -8.398737968146861e-05 0 0.000438021293666629 -8.620699943424639e-05 0 0.0004377654321128547 -8.841457978470761e-05 0 0.0004375508536153168 -9.061429242633419e-05 0 0.0004430090896640185 -9.508281856324596e-05 0 0.0004373800484575327 -9.281212089605005e-05 0 0.0004429486000270876 -9.726008727356164e-05 0 0.0004431692119028109 -9.937883715054558e-05 0 0.0004433427237001658 -0.0001015118119613273 0 0.0004437140572556509 -0.0001036005105687108 0 0.0004439231157212692 -0.0001057063135007582 0 0.0004498539332493456 -0.0001079567197051998 0 0.0004500651920096676 -0.0001100881357942889 0 0.0004503151203803004 -0.0001122127303197176 0 0.0004506039790039806 -0.0001143307469449829 0 0.0004567836933712639 -0.0001165145048909335 0 0.0004571481294146438 -0.000118613574074283 0 0.0004575449692126705 -0.0001207052514332151 0 0.0004579728882582782 -0.0001227895124208316 0 0.0004584308565775718 -0.0001248665561226497 0 0.0004589222571407978 -0.0001269346510721163 0 0.0004594485488697983 -0.0001289947008194766 0 0.0004599977134796471 -0.0001310481126686546 0 0.0004664793540502069 -0.000133164392837689 0 0.0004670809973028237 -0.0001352031527601944 0 0.0004736315000696817 -0.000137310793241604 0 0.0004743245018734464 -0.0001393161077873076 0 0.000475250645572044 -0.0001412122747746159 0 0.0004765760481028463 -0.0001426429353269349 0 0.0004778774658360176 -0.0001458238444691396 0 0.0004802919310748156 -0.0001474552780327456 0 0.0004830361135561551 -6.537428158526679e-07 0 0.0004831776790939725 -1.265935780504256e-06 0 0.0004831120238159441 -1.843067227938229e-06 0 0.0004828039996706495 -2.438908061322078e-06 0 0.0004813272382952827 -3.223909362609602e-06 0 0.0004797911192650648 -3.941511623261227e-06 0 0.0004779703013221496 -4.697100807004382e-06 0 0.0004759027981576899 -5.496316834981966e-06 0 0.0004736004733673859 -6.350552728041837e-06 0 0.0004726191098674808 -7.343959764273616e-06 0 0.0004700303874988377 -8.33879387191868e-06 0 0.0004673065214207175 -9.402671155124785e-06 0 0.0004644572855316186 -1.054251113694972e-05 0 0.0004636929361811198 -1.192745267600792e-05 0 0.0004608228080722449 -1.322534098141259e-05 0 0.0004579128736220493 -1.459771767265834e-05 0 0.0004549640320488228 -1.604751809742513e-05 0 0.0004519727980674941 -1.757940392183569e-05 0 0.0004489626207480932 -1.918867750478657e-05 0 0.0004459828788869263 -2.086128593664583e-05 0 0.0004463362650737179 -2.284312096976198e-05 0 0.0004435730409377484 -2.463619689555401e-05 0 0.0004408535339149463 -2.648705209021395e-05 0 0.0004381926918657843 -2.838009357163592e-05 0 0.0004356564477861005 -3.029977716168387e-05 0 0.0004332477797796584 -3.226313653726143e-05 0 0.0004352134806924848 -3.44459833367436e-05 0 0.000432937667943107 -3.651315627757179e-05 0 0.0004379884080400214 -4.110732314921119e-05 0 0.0004344261898767854 -5.22084013000879e-05 0 0.0004325269493502491 -6.579787532974145e-05 0 0.0004315901301233155 -6.806599579142765e-05 0 0.000433615250122442 -7.943335360679079e-05 0 0.0004372712540998208 -9.500035776211145e-05 0 0.0004439937194431815 -0.0001078585792850871 0 0.0004509247966995178 -0.0001164408528351777 0 0.0004605687732125235 -0.0001330954294610863 0 0.0004677078246410718 -0.0001372347931908543 0 0.0004746783762285612 -0.0001444408266216936 0 0.0004352748458043447 -3.88080016710199e-05 0 0.0004825964152037802 0 0 0.0004710777604599124 -7.270044450905919e-06 0 0.0004615182422361863 -1.175649557238355e-05 0 0.0004430393032133008 -2.259539702120493e-05 0 0.0004309410688262322 -3.42576895957673e-05 0 0.0004307331836190272 -3.861002746446928e-05 0 0.0004333847425060389 -4.088435924554207e-05 0 0.0004361328452696497 -4.323205708644401e-05 0 0.0004343611628671728 -4.538953973529963e-05 0 0.0004326649143425388 -4.756957708725806e-05 0 0.0004310407699987388 -4.977111415890807e-05 0 0.0004294905653542241 -5.198878516344973e-05 0 0.0004329985181119198 -5.442936158147528e-05 0 0.0004316921532121601 -5.66554199640913e-05 0 0.0004304931421270442 -5.888611164884101e-05 0 0.0004293214151524992 -6.113271181245074e-05 0 0.0004282318660098893 -6.338436336464965e-05 0 0.0004272206579249865 -6.563989992680365e-05 0 0.0004307321046888116 -7.032839589622851e-05 0 0.0004299558621240921 -7.258629573194403e-05 0 0.0004292592026767051 -7.483681853595932e-05 0 0.0004286290142906326 -7.708455697843212e-05 0 0.0004280616461239776 -7.932992533771467e-05 0 0.0004331426661982296 -8.165885949098307e-05 0 0.00043272319683923 -8.388245033360364e-05 0 0.0004323776709713647 -8.61090027335607e-05 0 0.000432083914726846 -8.833143217558757e-05 0 0.0004318389531325683 -9.054264754522125e-05 0 0.000431649157274955 -9.274584653222043e-05 0 0.0004372019665073321 -9.71834708047911e-05 0 0.0004315049884162079 -9.494790943163116e-05 0 0.0004371708885968397 -9.935983513988613e-05 0 0.0004373034042108522 -0.0001015023849737061 0 0.000437254810497029 -0.0001036991874755716 0 0.0004377786865893281 -0.0001056785869178404 0 0.0004382766573943686 -0.0001077149492241547 0 0.0004442323781526887 -0.0001100212465823878 0 0.0004444593496175011 -0.0001121468905406932 0 0.0004447448321139827 -0.0001142721890893517 0 0.0004450552650251465 -0.0001163859189514267 0 0.0004512796891314151 -0.0001185436036616355 0 0.0004516670837714576 -0.0001206387516663379 0 0.0004520864490586476 -0.000122726162549668 0 0.0004525370327824737 -0.0001248057527956488 0 0.0004530183416667234 -0.0001268772802786424 0 0.0004535307729756549 -0.0001289405695606278 0 0.0004540819126735251 -0.0001309941336123073 0 0.0004546489085367789 -0.00013304281769251 0 0.0004611654805504584 -0.0001351356846839152 0 0.0004617874469762133 -0.0001371686577942038 0 0.0004683618331314289 -0.000139260006621066 0 0.0004690300147282722 -0.0001412797571558527 0 0.0004705914061922172 -0.0001432238057721608 0 0.0004738985740604344 -0.0001479811803776509 0 0.0004716234969381684 -0.0001463971810469409 0 0.0004818381495604857 -7.047254394616342e-07 0 0.0004818892322620003 -1.368991382170284e-06 0 0.0004817384783775496 -1.960825342082626e-06 0 0.0004812982958255182 -2.534391909789067e-06 0 0.0004802321592207067 -3.19780102038507e-06 0 0.0004786938368083791 -3.92108121653881e-06 0 0.0004768202728873934 -4.685705406897236e-06 0 0.000474671407765753 -5.490810698810482e-06 0 0.0004722708504843917 -6.34604399017385e-06 0 0.0004696592329100116 -7.25526155950762e-06 0 0.0004683671511065775 -8.256757418863694e-06 0 0.0004655150163038346 -9.31021019394776e-06 0 0.000462535179864834 -1.043723415027667e-05 0 0.0004594576740593974 -1.163903371348415e-05 0 0.0004585010540312692 -1.304820922042365e-05 0 0.0004554289503916715 -1.441172388744073e-05 0 0.0004523571503945595 -1.584851616558263e-05 0 0.000449244679566151 -1.736495526166514e-05 0 0.0004460955052655884 -1.896561936026979e-05 0 0.0004429074940273442 -2.065576657086821e-05 0 0.0004398125481271722 -2.239098084932622e-05 0 0.0004401327231640427 -2.439228587169292e-05 0 0.0004372732488286211 -2.624863694142844e-05 0 0.0004344697351651543 -2.816076102259722e-05 0 0.0004317305959741732 -3.012477476273041e-05 0 0.0004290585649100642 -3.212888340287814e-05 0 0.0004266358804109128 -3.411884139106357e-05 0 0.0004286979449586103 -3.629434861195384e-05 0 0.0004263814925195164 -3.840214617102808e-05 0 0.0004315464417364614 -4.298795405307853e-05 0 0.0004279826407105286 -5.422243292703745e-05 0 0.0004262595790544698 -6.790672549782174e-05 0 0.0004253270441856458 -7.019850684277307e-05 0 0.000427548577414098 -8.156953363809742e-05 0 0.0004314300796501282 -9.713324609786823e-05 0 0.000438105809317678 -0.000109925814772015 0 0.0004454002774764825 -0.0001184923084541408 0 0.0004552407284795103 -0.0001350843606795533 0 0.0004624298403628707 -0.0001391984975760764 0 0.0004694300221365444 -0.0001451921228155576 0 0.0004287399124616422 -4.069256516998001e-05 0 0.0004814673389051202 0 0 0.0004668463624778531 -8.230449731126311e-06 0 0.000456298815050461 -1.291862590332845e-05 0 0.0004367604772853781 -2.418931682396923e-05 0 0.0004243061721345533 -3.615713696677015e-05 0 0.0004241510138294645 -4.054487000935007e-05 0 0.0004268489646578744 -4.281325958539028e-05 0 0.000429674271302784 -4.515457815867927e-05 0 0.0004278927267818165 -4.734961267905007e-05 0 0.0004261899296240498 -4.956506509092618e-05 0 0.0004245682181328187 -5.179790705686621e-05 0 0.0004230342488520392 -5.404389817499945e-05 0 0.0004265444393119582 -5.647442071317914e-05 0 0.0004253537520562992 -5.871297967385662e-05 0 0.0004240885833745783 -6.098948990930057e-05 0 0.0004229345631235887 -6.324734981359237e-05 0 0.0004218621942281539 -6.552292929219283e-05 0 0.0004209017307930628 -6.778516259238049e-05 0 0.0004245048679837445 -7.247010540638242e-05 0 0.0004237656979762386 -7.473337627289079e-05 0 0.0004230974280293476 -7.69924306000792e-05 0 0.0004224944843739943 -7.924842011052806e-05 0 0.0004219554656957873 -8.15001541188624e-05 0 0.000427104507102955 -8.380385157944719e-05 0 0.0004267196644457021 -8.603690092632169e-05 0 0.0004263985560248331 -8.826585776738445e-05 0 0.0004261334204058541 -9.048616339053548e-05 0 0.0004259138938766357 -9.270102685795539e-05 0 0.0004257500832106833 -9.490533581048672e-05 0 0.0004313933370083604 -9.931206487028512e-05 0 0.0004256472693222235 -9.709951750643687e-05 0 0.0004313949232976774 -0.0001014892680270833 0 0.0004314116512000363 -0.0001036371262658673 0 0.0004313144859769 -0.0001057433967780453 0 0.0004322089338368839 -0.00010765093247383 0 0.0004323687331809229 -0.0001097501517996568 0 0.0004382880063363059 -0.0001120777761154441 0 0.0004388098618895157 -0.0001142111226826671 0 0.0004391747408168393 -0.0001163506071369119 0 0.0004394969493973164 -0.000118461632969607 0 0.0004457767933455755 -0.0001205910249843898 0 0.0004461895544909947 -0.0001226810117892774 0 0.0004466327507555861 -0.0001247630055957313 0 0.0004471067464547612 -0.0001268369642037059 0 0.0004476107525333084 -0.0001289028203233738 0 0.0004481457978134064 -0.0001309599616685421 0 0.0004487147921988484 -0.0001330082899577203 0 0.00044930366569273 -0.0001350504201569785 0 0.0004558582837602893 -0.0001371184208682049 0 0.0004565007176653988 -0.0001391450190605748 0 0.0004630766222552979 -0.0001412373023514106 0 0.0004638084196203576 -0.0001432150522828537 0 0.0004647690423563636 -0.000145003796524987 0 0.0004674955517229815 -0.0001485241942493037 0 0.0004654995380712476 -0.0001469014354743443 0 0.0004807595560625409 -7.792682987570278e-07 0 0.000480545151474025 -1.64389319781961e-06 0 0.0004804915042912473 -2.18736986386678e-06 0 0.0004803214769325797 -2.597117184252513e-06 0 0.0004791993334031249 -3.225520489966651e-06 0 0.0004777266779197288 -3.938340545829796e-06 0 0.0004758096860352622 -4.719873462339966e-06 0 0.0004735940119521418 -5.534548599435731e-06 0 0.0004711116069693726 -6.392154870377654e-06 0 0.0004683898714889659 -7.302064691921059e-06 0 0.0004654597969581598 -8.271547393092758e-06 0 0.000463858950042164 -9.276723391252587e-06 0 0.0004607416420089928 -1.039269769959422e-05 0 0.0004575181094902874 -1.158300267758115e-05 0 0.0004542121229671696 -1.285017510270325e-05 0 0.0004530729995969662 -1.427813384349886e-05 0 0.0004498181125662355 -1.571022241898431e-05 0 0.0004465661496848441 -1.721642041735874e-05 0 0.0004432926228233454 -1.880213864055191e-05 0 0.0004399850202177975 -2.047522891364864e-05 0 0.0004367057838973831 -2.221800357484952e-05 0 0.0004334708320123628 -2.402750709166174e-05 0 0.0004337512722127342 -2.60521578435268e-05 0 0.0004308043368180555 -2.797118790461787e-05 0 0.0004279260931621838 -2.994346670801642e-05 0 0.0004251231115175107 -3.196536539398387e-05 0 0.0004223963988010326 -3.402390250186467e-05 0 0.0004199591166272118 -3.606181867657986e-05 0 0.000422026789396895 -3.824399915485171e-05 0 0.0004197126628577683 -4.038711849097452e-05 0 0.000425007046966957 -4.49603039715152e-05 0 0.0004215249733792785 -5.630199481089152e-05 0 0.0004199485455032387 -7.007620478021619e-05 0 0.0004190529725354825 -7.237636686746733e-05 0 0.0004214761755216831 -8.37477793401429e-05 0 0.0004256008283617658 -9.92826682351101e-05 0 0.0004321568056137604 -0.0001120172222951166 0 0.000439869885565036 -0.0001205634380995927 0 0.0004499197714619838 -0.0001370845770009871 0 0.0004571671836853241 -0.0001411641523921304 0 0.0004221722788599657 -4.267105554002298e-05 0 0.0004804479995294694 0 0 0.0004623502810081105 -9.307331256903595e-06 0 0.0004508300668165318 -1.419967748995509e-05 0 0.0004302879060872703 -2.590366499853522e-05 0 0.000417560494435563 -3.814735087674763e-05 0 0.0004174629094417258 -4.257365161931299e-05 0 0.0004202431908032761 -4.483056080959783e-05 0 0.0004231286018035173 -4.716449467592588e-05 0 0.0004213408500457578 -4.939230382774769e-05 0 0.000419639952848141 -5.16394911993286e-05 0 0.0004180306052235106 -5.389952725072477e-05 0 0.0004165072021945361 -5.617196718007757e-05 0 0.0004200387260977332 -5.859528393198363e-05 0 0.0004188067156345773 -6.088109566378859e-05 0 0.0004176083669507089 -6.316664272309299e-05 0 0.0004164329159344584 -6.546240171504262e-05 0 0.0004155095609892569 -6.770779015962058e-05 0 0.0004145113115420238 -7.001065565837953e-05 0 0.0004182601890731503 -7.465833596675149e-05 0 0.0004175539582801559 -7.692814278248032e-05 0 0.0004169150637909851 -7.91948566069421e-05 0 0.0004163422376647834 -8.145731543493616e-05 0 0.0004158343297476607 -8.371437292991139e-05 0 0.0004210638032751978 -8.598914134788903e-05 0 0.0004207117628558358 -8.822454596463772e-05 0 0.0004204132688290273 -9.045402491826665e-05 0 0.0004201699448433261 -9.267668370698882e-05 0 0.0004199817335709124 -9.488970633720969e-05 0 0.0004198537933655545 -9.709211886720845e-05 0 0.0004255830656992481 -0.0001014674332538314 0 0.0004197817804557162 -9.928467072583451e-05 0 0.0004256119842922106 -0.0001036437148299309 0 0.0004256169025207057 -0.0001057860926480629 0 0.0004259057132433515 -0.0001078121976396792 0 0.0004263728301490147 -0.0001097331477029971 0 0.000426426431877763 -0.0001119094845407953 0 0.0004326021718047267 -0.0001141677982763839 0 0.0004332065071235855 -0.0001163102655281833 0 0.0004335963898627349 -0.0001184434608081274 0 0.0004339127551709817 -0.000120563707568592 0 0.0004402806705022155 -0.0001226548612116752 0 0.0004407175185076207 -0.0001247390739535616 0 0.0004411851807847877 -0.0001268148028612452 0 0.0004416827987152443 -0.0001288823997428236 0 0.0004422111659224207 -0.0001309413206032257 0 0.0004427688585784181 -0.0001329919033077167 0 0.0004433549370117072 -0.0001350342235922167 0 0.0004439705546759929 -0.0001370680348989949 0 0.0004505586997590862 -0.000139111814522283 0 0.0004512216769234842 -0.000141131647779649 0 0.0004576916918068347 -0.0001433211799235329 0 0.0004582611409791531 -0.0001454000781624904 0 0.000458908056754333 -0.0001474214761285493 0 0.0004610829548348085 -0.0001490846230082435 0 0.0004798035793986897 -8.284966347404257e-07 0 0.0004796240559387021 -1.623959699061675e-06 0 0.0004792937047155908 -2.5508951915631e-06 0 0.0004786481377651795 -3.121779264792211e-06 0 0.0004768700401609697 -4.010879423218906e-06 0 0.0004749333538234188 -4.806504995706938e-06 0 0.0004726587416535774 -5.637409301017026e-06 0 0.0004700948924503243 -6.504235245951514e-06 0 0.0004672742375730671 -7.416766294622489e-06 0 0.0004642271431573797 -8.384312267023952e-06 0 0.0004609856816321913 -9.414222547437704e-06 0 0.0004590917639633699 -1.041404010848019e-05 0 0.0004557118751850624 -1.159463894219385e-05 0 0.0004522433902445296 -1.285201403159186e-05 0 0.0004487048094728309 -1.418882412314895e-05 0 0.0004474066257664886 -1.562661675351331e-05 0 0.0004439761059397639 -1.712897495613583e-05 0 0.0004405485955234521 -1.870571614001597e-05 0 0.0004371113385221162 -2.036398212378283e-05 0 0.0004336707216267134 -2.210339628070551e-05 0 0.0004302755322689153 -2.391363826043534e-05 0 0.0004269216073431922 -2.579432970076698e-05 0 0.0004271924151569499 -2.782828947137423e-05 0 0.000424169309954268 -2.980814490469764e-05 0 0.0004212381299748692 -3.183349412170788e-05 0 0.0004183931319209603 -3.390188069328347e-05 0 0.0004156224592335375 -3.600635476491295e-05 0 0.0004130130908227609 -3.812398784215725e-05 0 0.0004152892619698735 -4.026419200796023e-05 0 0.000412934945462209 -4.247032473625366e-05 0 0.0004183771950075475 -4.701366272641853e-05 0 0.0004150279844171037 -5.844341896038295e-05 0 0.0004135882567200952 -7.231338400385374e-05 0 0.0004127416386600688 -7.461357469922415e-05 0 0.000415390719442399 -8.596524615883554e-05 0 0.0004197578034251637 -0.000101469997262801 0 0.0004265293876319046 -0.0001142033981977982 0 0.0004343632381099846 -0.000122647927669291 0 0.0004446078267612167 -0.0001390946691602236 0 0.0004517655353519261 -0.0001432683884674718 0 0.0004154315991989121 -4.474011576587313e-05 0 0.0004795408803468003 0 0 0.0004788799575527776 -2.47111606401439e-06 0 0.0004575805413183087 -1.051296892334468e-05 0 0.0004451062355948938 -1.560920082388998e-05 0 0.0004236379537759788 -2.773731075746258e-05 0 0.00041088479496518 -4.018414129848118e-05 0 0.0004106745320364923 -4.469820268055727e-05 0 0.0004135201313747802 -4.693687965973089e-05 0 0.0004164943896825923 -4.925271696100959e-05 0 0.0004147154791245496 -5.151379636107192e-05 0 0.0004130273295273286 -5.378923054347501e-05 0 0.0004113973180536835 -5.609779478824676e-05 0 0.0004097874919089968 -5.846994068945764e-05 0 0.0004135759819122507 -6.079221868763083e-05 0 0.0004122875980790396 -6.31182690906883e-05 0 0.0004110764418530308 -6.542482182187453e-05 0 0.0004099984183367379 -6.771238279783391e-05 0 0.0004089664605798499 -7.002779222649675e-05 0 0.0004080267525656632 -7.232661519883554e-05 0 0.0004119984017828811 -7.689287587432733e-05 0 0.0004113216912432377 -7.917073110851485e-05 0 0.0004107138387461219 -8.144354529842572e-05 0 0.0004101735106656954 -8.371053086187197e-05 0 0.0004096982901465574 -8.597083893513691e-05 0 0.0004150057834258562 -8.821035346887941e-05 0 0.0004146801774072997 -9.044833268491975e-05 0 0.0004144122509707488 -9.267882956432908e-05 0 0.0004142008901646654 -9.490101233456634e-05 0 0.0004140457410009013 -9.711149071696453e-05 0 0.0004139527946134859 -9.931080765609257e-05 0 0.0004197705026028032 -0.0001036516113553478 0 0.0004139168998961554 -0.0001014994036503182 0 0.0004198297390863853 -0.0001058240909136346 0 0.000419860463794247 -0.0001079611560494353 0 0.0004200848571053019 -0.0001100395361308296 0 0.0004203272700703497 -0.0001122233657559205 0 0.0004205986365537922 -0.0001142943180493903 0 0.0004270622122831939 -0.0001163686360582662 0 0.0004276088273977412 -0.0001184770071912475 0 0.000427838720705772 -0.0001206114643633809 0 0.000428317371383933 -0.0001226871344550218 0 0.0004347914603700475 -0.0001247344032184795 0 0.0004352528219619209 -0.0001268117268557581 0 0.0004357449213622522 -0.0001288805738901585 0 0.0004362672122058181 -0.0001309407805402953 0 0.0004368188751308312 -0.0001329924631830729 0 0.0004373986657237845 -0.0001350358034454039 0 0.0004380106070566147 -0.000137069028369802 0 0.0004386477373727116 -0.0001390939611351133 0 0.0004452638275321713 -0.0001411182135920674 0 0.000445927730994824 -0.0001431485766505103 0 0.0004508328508688229 -0.0001458382626847683 0 0.0004521930238650424 -0.0001480498637505078 0 0.0004546608922354345 -0.0001496627592867342 0 0.000478923441759467 -9.773282491973674e-07 0 0.0004788226387616036 -1.673601752569723e-06 0 0.0004783100394342754 -2.454496547402359e-06 0 0.0004777007096607577 -3.305525932762303e-06 0 0.0004761555980475621 -4.114217521893974e-06 0 0.0004741922487984881 -4.95116629953714e-06 0 0.0004718625312108062 -5.807501347872594e-06 0 0.0004692230068185965 -6.690757145424306e-06 0 0.0004663042596205491 -7.61229343034869e-06 0 0.000463140553799766 -8.582084495530222e-06 0 0.0004597661130893845 -9.608975742589196e-06 0 0.0004562135735569487 -1.070068489025334e-05 0 0.0004540424029479513 -1.168498093998726e-05 0 0.000450403261521059 -1.29325206114427e-05 0 0.0004466917853320742 -1.425871646400932e-05 0 0.0004429262113423568 -1.566638344315997e-05 0 0.0004414898961056948 -1.710578333417351e-05 0 0.0004378896512125202 -1.86766807356612e-05 0 0.0004342920752093464 -2.032721716989703e-05 0 0.0004307053992211011 -2.205708919902787e-05 0 0.0004271561708426994 -2.385943952670863e-05 0 0.0004236589969907575 -2.573313602974585e-05 0 0.0004201774749506431 -2.769126011701614e-05 0 0.0004204620606466015 -2.972410032921378e-05 0 0.0004173715141066849 -3.176341284757819e-05 0 0.0004144546166796931 -3.381643554263297e-05 0 0.0004115446887032873 -3.593244793412045e-05 0 0.0004087651538945396 -3.80885558036272e-05 0 0.0004062001404102392 -4.024403221608602e-05 0 0.0004084093062823679 -4.240987800116914e-05 0 0.0004060541486603377 -4.465410353970391e-05 0 0.0004116677037898733 -4.915326614351198e-05 0 0.0004083628040024223 -6.074318103906023e-05 0 0.0004071977455889654 -7.460816251629033e-05 0 0.00040642665314062 -7.689071159235995e-05 0 0.0004092856751160427 -8.822426884780451e-05 0 0.0004139153384840624 -0.000103684668628151 0 0.0004208891841466497 -0.0001165136750603597 0 0.0004288544572820229 -0.000124749662999994 0 0.0004393062937398264 -0.0001411130328130374 0 0.0004466660338278654 -0.0001450301625280328 0 0.0004086742930362718 -4.690190287460057e-05 0 0.0004787373383231021 0 0 0.000477191878468311 -3.349890135941458e-06 0 0.0004525149112596666 -1.186350986540628e-05 0 0.0004391218853231276 -1.715812977362007e-05 0 0.0004168077682523723 -2.969703516224853e-05 0 0.000403872126045675 -4.240055447758869e-05 0 0.0004037916202712151 -4.69194176785449e-05 0 0.0004067406208498318 -4.913182387456013e-05 0 0.0004097946233449607 -5.142384609823456e-05 0 0.0004080244567343979 -5.371493595845829e-05 0 0.0004063505980059992 -5.601724199670372e-05 0 0.0004047144502520617 -5.836053430360028e-05 0 0.0004031200205355258 -6.073403250557152e-05 0 0.0004069728083365378 -6.308705483500206e-05 0 0.0004057366143553225 -6.539723764657933e-05 0 0.0004045848371175379 -6.770913364807026e-05 0 0.0004035200135775448 -7.002059805363756e-05 0 0.0004025304672442662 -7.233074714914975e-05 0 0.0004016306671987765 -7.463313685202056e-05 0 0.0004057151898693778 -7.917717608898988e-05 0 0.0004050717624522164 -8.146030936305387e-05 0 0.0004044979120933579 -8.373699305088463e-05 0 0.0004039917334919765 -8.60064641462835e-05 0 0.0004035511791035108 -8.826807578497145e-05 0 0.0004089327468724773 -9.047076114510371e-05 0 0.000408641052698055 -9.270860023587182e-05 0 0.0004084063772481817 -9.493792460283013e-05 0 0.0004082274976267567 -9.715728567239845e-05 0 0.0004081130552765698 -9.936348151824259e-05 0 0.0004080511679872094 -0.0001015596647235194 0 0.0004139597969656706 -0.0001058617480733032 0 0.0004080439403073755 -0.0001037454872906885 0 0.000414050354688749 -0.0001080290696889285 0 0.0004141859460267236 -0.00011018639346078 0 0.000414365476199733 -0.000112334012307059 0 0.0004145770062975546 -0.000114473689340149 0 0.0004148372671208975 -0.0001166020800167742 0 0.0004214495458878724 -0.0001185754128134259 0 0.0004217780561585673 -0.0001206853339475359 0 0.0004219210016960242 -0.0001228293981922777 0 0.0004228426654107682 -0.0001248015128014599 0 0.0004293095594533424 -0.0001268284715879761 0 0.000429796115062148 -0.0001288983477371195 0 0.0004303131803661872 -0.0001309592631990782 0 0.0004308599315424703 -0.0001330115834673164 0 0.0004314356093759285 -0.0001350549796918223 0 0.000432040981475432 -0.0001370889842094318 0 0.0004326763972919045 -0.0001391131748083076 0 0.0004333458216528335 -0.0001411210699874003 0 0.0004399145562802243 -0.0001431699254402138 0 0.0004402005014355642 -0.0001454464732206738 0 0.0004432667969044775 -0.0001470722989105538 0 0.0004460786553694297 -0.0001485992530663143 0 0.0004482294916118274 -0.0001502588834290277 0 0.0004780972497638564 -1.205889914881228e-06 0 0.0004781826545798395 -1.707757071758129e-06 0 0.0004776875035699751 -2.531941052388383e-06 0 0.0004766922786751231 -3.452762788349236e-06 0 0.0004755880709702173 -4.261640521468681e-06 0 0.0004735803271211473 -5.155362825701685e-06 0 0.0004712053906127878 -6.051316903178991e-06 0 0.0004684948110792814 -6.961098725801094e-06 0 0.0004654838200468128 -7.898513147837552e-06 0 0.0004622045857988647 -8.8762977678943e-06 0 0.0004586963253576707 -9.903906335086185e-06 0 0.0004549959990730404 -1.099021751433855e-05 0 0.0004511344288452678 -1.214400325548614e-05 0 0.0004487020084063723 -1.310170671596781e-05 0 0.0004448102579569318 -1.441632204760691e-05 0 0.0004408654348554007 -1.581089542970005e-05 0 0.0004368775387311923 -1.729052784977493e-05 0 0.0004353208221767539 -1.872504402455535e-05 0 0.0004315401893335771 -2.037044031228089e-05 0 0.0004277845698855052 -2.209280260737443e-05 0 0.0004240728700278366 -2.38890946274312e-05 0 0.0004204234740742967 -2.575488252647586e-05 0 0.0004168309468958298 -2.769185154754415e-05 0 0.0004132373299002096 -2.972092037524224e-05 0 0.0004135630730365822 -3.174364695959867e-05 0 0.0004104940155816128 -3.380722321728177e-05 0 0.0004074880035185821 -3.592874546629943e-05 0 0.0004045587022557928 -3.809774984679934e-05 0 0.0004017768580305478 -4.029598589147312e-05 0 0.000399107370615906 -4.253076206882797e-05 0 0.0004013878023322969 -4.467831773699529e-05 0 0.0003990807612751998 -4.694046351230872e-05 0 0.0004048845517797316 -5.138042997224586e-05 0 0.0004016840012909645 -6.307494471525955e-05 0 0.0004008319919609607 -7.692377725839633e-05 0 0.0004000842494170442 -7.922056396139995e-05 0 0.0004031733648099134 -9.052166608364043e-05 0 0.000408075743555863 -0.0001059254623509554 0 0.0004152453995890992 -0.0001186990158965131 0 0.000423353617265774 -0.0001268666774885 0 0.0004341034338882399 -0.0001430624267870445 0 0.0004017591089113873 -4.915613200114012e-05 0 0.0004780178881897517 0 0 0.0004751109440068579 -4.455026664197266e-06 0 0.0004471473476975907 -1.33705478712358e-05 0 0.0004328773996218573 -1.88522530291712e-05 0 0.0004098287672372797 -3.177247179156437e-05 0 0.0003965648767715951 -4.480786721753803e-05 0 0.0003968189664608819 -4.923629058116648e-05 0 0.000399833786563721 -5.14229321144476e-05 0 0.0004030229983726613 -5.367902670992657e-05 0 0.0004012685139786963 -5.599719207601418e-05 0 0.0003995775537450537 -5.834047006927118e-05 0 0.0003979210217936268 -6.072423833581556e-05 0 0.0003963878255047034 -6.310019784009363e-05 0 0.0004003878970586186 -6.539903798618295e-05 0 0.0003991798400042059 -6.7724949940691e-05 0 0.0003980599548705346 -7.004974445239359e-05 0 0.0003970255770918477 -7.237251462567238e-05 0 0.0003960712229221425 -7.469117893534871e-05 0 0.0003952085370041834 -7.700007465287854e-05 0 0.0003994114338254275 -8.151109880419945e-05 0 0.0003988075927773408 -8.379553837588549e-05 0 0.000398270398525278 -8.607372608787207e-05 0 0.0003978012648389355 -8.834338449880284e-05 0 0.000397397879391476 -9.06040606775954e-05 0 0.0004028559972121835 -9.27671584032095e-05 0 0.0004025975635658543 -9.500361287287472e-05 0 0.0004023985759867056 -9.722963865517253e-05 0 0.000402255144894106 -9.94449332699365e-05 0 0.0004021766987853566 -0.0001016453038685425 0 0.0004021524106625427 -0.0001038359322850363 0 0.0004081531309774627 -0.0001080964625857932 0 0.0004021748235211698 -0.000106017999794783 0 0.000408276352504163 -0.0001102571434609087 0 0.0004084438397030721 -0.0001124075699644722 0 0.000408654130461883 -0.0001145479298870045 0 0.0004089060973231073 -0.0001166779062271532 0 0.0004091999640449606 -0.0001187965237977442 0 0.0004156044344278992 -0.0001208035822471276 0 0.0004158856209717706 -0.0001229154498779526 0 0.0004162725810780873 -0.0001250142403335572 0 0.000417351710987638 -0.0001269462742524671 0 0.0004238367212807585 -0.0001289365726050781 0 0.0004243484482771559 -0.0001309977339486239 0 0.000424890651471026 -0.0001330501216128249 0 0.0004254619643177412 -0.0001350936811473383 0 0.000426062840129633 -0.0001371276776935915 0 0.0004266924770913642 -0.0001391528110216734 0 0.0004273498162326867 -0.0001411694381613112 0 0.0004281134585234814 -0.0001431035208963104 0 0.000434229984782818 -0.0001449940175885915 0 0.0004366564644324863 -0.0001478580284704686 0 0.0004392940807502903 -0.0001493064334913153 0 0.0004417889002665133 -0.0001508732618397408 0 0.0004774341333827492 -1.295386411393225e-06 0 0.0004773176678021493 -2.487584294230582e-06 0 0.0004762701697280096 -3.589275767117152e-06 0 0.0004747317187580095 -4.69885866606583e-06 0 0.0004730964003770213 -5.423883169177736e-06 0 0.0004706839315188691 -6.374713415253554e-06 0 0.0004679103477105713 -7.324479249159691e-06 0 0.0004648111756042457 -8.287975549239796e-06 0 0.0004614228881237039 -9.279719432134157e-06 0 0.000457784664465989 -1.031207386562489e-05 0 0.0004539335088188487 -1.139629186430155e-05 0 0.0004499084729596011 -1.25413865206798e-05 0 0.000445742980882954 -1.375593827649281e-05 0 0.0004430730907899814 -1.467231187991913e-05 0 0.0004389354676016161 -1.605403018142399e-05 0 0.0004347526556623611 -1.752051237644481e-05 0 0.0004305542969941198 -1.90707370181452e-05 0 0.0004288939119334651 -2.049295670186889e-05 0 0.0004249460981101631 -2.221026425350887e-05 0 0.0004210541285348106 -2.400069344258599e-05 0 0.0004172254198728769 -2.586286249405439e-05 0 0.0004134770111679628 -2.779194975559212e-05 0 0.0004097821799122247 -2.979517958622908e-05 0 0.0004061743111348632 -3.185971574024056e-05 0 0.0004065780229470214 -3.385658973662744e-05 0 0.0004034443816558103 -3.598475406686207e-05 0 0.0004003983389024472 -3.816509786172884e-05 0 0.0003974171243380488 -4.039859440503573e-05 0 0.0003945774563149853 -4.266066473700509e-05 0 0.0003919180792342398 -4.493198754459858e-05 0 0.0003943489476596326 -4.702925349335076e-05 0 0.0003920109550511389 -4.932192690488119e-05 0 0.0003980156576867653 -5.369769691344111e-05 0 0.0003950287973305909 -6.543933057934651e-05 0 0.0003944350781387156 -7.930159494334874e-05 0 0.0003937316865862784 -8.159818955757233e-05 0 0.0003970563191213424 -9.285599752898113e-05 0 0.0004022415486511154 -0.0001081906440266365 0 0.0004095471445302366 -0.0001209035875963569 0 0.000417869156111423 -0.0001289971920196706 0 0.0004295461010262568 -0.000144633286137816 0 0.0004339724968214577 -0.000146739800612353 0 0.000394805101364525 -5.151028590035647e-05 0 0.0004773647871640409 0 0 0.0004771160140916254 -2.293173037461802e-06 0 0.0004727272587240954 -5.760367692793612e-06 0 0.0004414757277823804 -1.504449459879451e-05 0 0.000426367190142609 -2.070282174472917e-05 0 0.0004027156944304657 -3.396465794779489e-05 0 0.0003894781760246739 -4.718550055743116e-05 0 0.0003897635457626798 -5.164975094871865e-05 0 0.0003928244108237766 -5.381428071719603e-05 0 0.0003961829462246339 -5.60192577665289e-05 0 0.0003944523573005589 -5.83601770689872e-05 0 0.0003927496486760077 -6.074233942088259e-05 0 0.0003911290038492787 -6.314273276908837e-05 0 0.0003896661752559405 -6.551651957685048e-05 0 0.0003937629910919801 -6.777854276672805e-05 0 0.0003925892768444027 -7.011616867920541e-05 0 0.0003915049654306723 -7.245082389514407e-05 0 0.0003905068480680326 -7.478145784666668e-05 0 0.0003895922053293095 -7.710675162208941e-05 0 0.0003887649007339095 -7.942261770344163e-05 0 0.0003931015415126527 -8.388810140999877e-05 0 0.0003925334627642316 -8.617442402480037e-05 0 0.0003920356612328637 -8.845148815055811e-05 0 0.0003916055153304292 -9.071938270573277e-05 0 0.0003912414018249617 -9.297720379888474e-05 0 0.0003967762444637237 -9.509852759983637e-05 0 0.0003965539151119003 -9.733146715437823e-05 0 0.0003963920497880015 -9.955243871961829e-05 0 0.0003962872548057291 -0.0001017626247447247 0 0.0003962493492925307 -0.0001039540378068078 0 0.0003962619303876064 -0.0001061370317633097 0 0.0004023525896300346 -0.000110354230452542 0 0.000396314942416279 -0.0001083130933180774 0 0.000402510733817636 -0.0001125058622553409 0 0.0004027121323049592 -0.0001146474717145851 0 0.0004029533780937635 -0.0001167795809932574 0 0.0004032431150052613 -0.0001188985189177786 0 0.0004035718204582274 -0.0001210068391558307 0 0.0004099461499844711 -0.0001229800327975257 0 0.000410388446511384 -0.0001250520808316384 0 0.0004108378148188732 -0.0001271546292344224 0 0.0004118701699876834 -0.0001290962644948129 0 0.0004183724154581147 -0.000131056666283733 0 0.0004189110152372258 -0.0001331086917538896 0 0.0004194788811184712 -0.0001351517009702309 0 0.0004200748727373146 -0.0001371858436728448 0 0.0004207017803431216 -0.0001392101029352802 0 0.0004213548601310918 -0.000141226167762781 0 0.0004220415530568184 -0.000143225602642803 0 0.0004233923699935259 -0.0001452832375258237 0 0.0004279061659141548 -0.0001467353878821053 0 0.0004303214078835502 -0.0001484463426410109 0 0.0004328365574727838 -0.0001499457536617812 0 0.0004353392858682631 -0.0001515061452392692 0 0.0004768249394461297 -1.550094749648432e-06 0 0.0004764576122757158 -2.836974729726394e-06 0 0.0004759837940591935 -3.673038387714684e-06 0 0.0004744369846675405 -4.995727648825378e-06 0 0.0004724571540938443 -6.174299715740975e-06 0 0.0004702923762360067 -6.786482492344043e-06 0 0.0004674661267970083 -7.791883696848155e-06 0 0.0004642866059289077 -8.793837504750631e-06 0 0.0004607943157679957 -9.808552311501918e-06 0 0.0004570275651597052 -1.085191481206373e-05 0 0.0004530296996750354 -1.193667807876191e-05 0 0.0004488377615651638 -1.307479994149984e-05 0 0.0004444900269773094 -1.427702569762136e-05 0 0.0004400263098858821 -1.555007228118876e-05 0 0.0004371424238690759 -1.641023081739678e-05 0 0.0004327541798672988 -1.786170227539808e-05 0 0.0004283494418638444 -1.939681280096262e-05 0 0.0004239545432255798 -2.10151205647122e-05 0 0.0004222129019575994 -2.241477326645726e-05 0 0.000418115710278793 -2.420090560530467e-05 0 0.000414100906152343 -2.605671083798192e-05 0 0.00041017471084936 -2.79801571356194e-05 0 0.00040632614941685 -2.997454110348229e-05 0 0.0004025681956483467 -3.203335032709396e-05 0 0.000398935878644882 -3.414499371734745e-05 0 0.0003994151253491946 -3.610939395251547e-05 0 0.0003962200906346816 -3.830020467751813e-05 0 0.0003931217513205262 -4.053841219754009e-05 0 0.0003901481753801551 -4.281154235685912e-05 0 0.0003873111351968199 -4.511222598511443e-05 0 0.0003847035471291 -4.739694958513163e-05 0 0.0003871716047745335 -4.94695476158299e-05 0 0.000384853158166083 -5.179999353188428e-05 0 0.0003910219719444646 -5.611106671621529e-05 0 0.0003883342497170126 -6.787277601130882e-05 0 0.0003880347842283448 -8.17235677518011e-05 0 0.0003873764624990134 -8.401844869306206e-05 0 0.0003909389106295884 -9.522545966135609e-05 0 0.0003964143802517302 -0.000110478827176762 0 0.000403935912820497 -0.0001230990810249699 0 0.0004123861298820527 -0.0001311423354775779 0 0.000387692206553394 -5.396478876316792e-05 0 0.0004767613697998102 0 0 0.0004700158130704119 -7.297593780254931e-06 0 0.0004354823136126656 -1.689962882840496e-05 0 0.0004195922518838305 -2.271533195755016e-05 0 0.000395430360309947 -3.630596016861659e-05 0 0.0003822394227786057 -4.97020928982202e-05 0 0.0003826372584403254 -5.416257424437343e-05 0 0.0003857688127675516 -5.629823006248674e-05 0 0.0003892516586243968 -5.845853615544374e-05 0 0.0003874673154541456 -6.086010890773211e-05 0 0.0003858298474643496 -6.324581208972318e-05 0 0.0003842752720320727 -6.564637783758789e-05 0 0.0003828921255046639 -6.801043336529345e-05 0 0.0003871057164762022 -7.022267152308403e-05 0 0.0003859702962424678 -7.256905276819512e-05 0 0.0003849255491951036 -7.491042101800342e-05 0 0.0003839689474218736 -7.724516585536057e-05 0 0.0003830996212908267 -7.957060502889672e-05 0 0.0003823251682649333 -8.188324042323093e-05 0 0.0003867801314873806 -8.631057586069181e-05 0 0.0003862536157797122 -8.859466178835815e-05 0 0.0003857973048943607 -9.086888199389857e-05 0 0.000385408201429906 -9.313286451594938e-05 0 0.0003850851094376261 -9.538582849167622e-05 0 0.0003906976572222115 -9.746214794381498e-05 0 0.0003905151982309571 -9.968834744472211e-05 0 0.0003903917425283017 -0.0001019027490511462 0 0.0003903313042410176 -0.0001041003401166096 0 0.0003903281407738075 -0.0001062879456099076 0 0.0003903731789404346 -0.0001084647863548798 0 0.0003965606246072877 -0.0001126330057732235 0 0.0003904613583552745 -0.0001106321130907616 0 0.0003967570154757081 -0.0001147732585447257 0 0.000396993259493696 -0.0001169055296180511 0 0.0003972710477162375 -0.0001190259286905888 0 0.0003975927805401308 -0.0001211356290890288 0 0.0003979615885086147 -0.0001232229938084433 0 0.0004044820606099572 -0.0001250979503057384 0 0.0004050531075615026 -0.0001271966047471334 0 0.0004057158517094818 -0.0001292857898214087 0 0.0004063644709843274 -0.0001312632529286238 0 0.0004129204809498693 -0.0001331891649626501 0 0.0004134853747354075 -0.0001352304025778768 0 0.0004140791985410137 -0.000137262988897107 0 0.0004147017496640763 -0.0001392864419317558 0 0.0004153522370434077 -0.0001413008900410063 0 0.0004160284491858559 -0.0001433067637611486 0 0.0004168595434453932 -0.0001451935180596259 0 0.0004212725896297692 -0.0001474569275214018 0 0.0004238838309493035 -0.0001490032764584191 0 0.000426372092441007 -0.0001505993555788377 0 0.0004288808371801041 -0.0001521577668255956 0 0.0004762275657372943 -1.837041765796804e-06 0 0.000475606506222882 -3.710741397601984e-06 0 0.0004752739094185378 -4.297078081710681e-06 0 0.0004741483930022885 -5.376926948628454e-06 0 0.0004722859056710142 -6.658292488235205e-06 0 0.0004698491661425431 -7.914985797463736e-06 0 0.0004671513623478031 -8.377722968171962e-06 0 0.0004639064386019729 -9.432068643580055e-06 0 0.0004603164247915242 -1.048134273676781e-05 0 0.0004564284622043477 -1.154236152138508e-05 0 0.0004522845137882802 -1.263212286469234e-05 0 0.0004479270281204074 -1.376493466091502e-05 0 0.0004433966969452036 -1.495375758295614e-05 0 0.0004387339830238625 -1.620860116835681e-05 0 0.0004339773655464984 -1.753723599937329e-05 0 0.0004308888218812742 -1.833023086230909e-05 0 0.0004262703683634658 -1.984606045390213e-05 0 0.000421657225360273 -2.144695176921721e-05 0 0.0004170758862165409 -2.313163672832077e-05 0 0.0004152853167676568 -2.44938878213963e-05 0 0.0004110640185824816 -2.634366628019241e-05 0 0.0004069351291027972 -2.826331646972816e-05 0 0.0004029083871426239 -3.0250434994152e-05 0 0.0003989773522334893 -3.230606290801959e-05 0 0.0003951678123566678 -3.441904922382257e-05 0 0.0003914917076440853 -3.658325038081576e-05 0 0.0003920723530497285 -3.850702488358931e-05 0 0.0003888273130861904 -4.075334321876578e-05 0 0.0003857194196406401 -4.303394327258441e-05 0 0.00038274855962937 -4.534570520564733e-05 0 0.0003799376288563309 -4.766851728311743e-05 0 0.0003773493965556106 -4.999395528374917e-05 0 0.0003799304906850173 -5.201598011693883e-05 0 0.000377623993082587 -5.438139602711061e-05 0 0.0003839251993354612 -5.86517277001931e-05 0 0.0003816079352756638 -7.037211826832792e-05 0 0.0003816396644788438 -8.418300936301591e-05 0 0.0003810089901332232 -8.648457452259473e-05 0 0.0003848243361467615 -9.762687485867139e-05 0 0.0003905976943860237 -0.0001127872709943627 0 0.0003984908323253734 -0.0001252048367478154 0 0.0004069183254341757 -0.0001332895626915873 0 0.0004184077025351055 -0.0001465056499325624 0 0.0003805603471252177 -5.651717083725454e-05 0 0.0004761633399998459 0 0 0.0004669597194246095 -9.09595048923464e-06 0 0.0004291631998513916 -1.894520008279978e-05 0 0.0004125543898076277 -2.489635823426194e-05 0 0.0003879566556464185 -3.879288876766858e-05 0 0.0003748546563942898 -5.234540806782163e-05 0 0.0003754393771786533 -5.67664925535345e-05 0 0.0003786335497449318 -5.888178205988257e-05 0 0.0003821709059517391 -6.102532765158071e-05 0 0.0003804598547202769 -6.342866553812578e-05 0 0.0003788969533217963 -6.58106324451769e-05 0 0.0003774360151956707 -6.819464438737941e-05 0 0.000376095517423758 -7.056724720662654e-05 0 0.0003804207140467102 -7.272973524001147e-05 0 0.0003793278505276105 -7.508167884762103e-05 0 0.0003783269469191699 -7.742652259025838e-05 0 0.0003774155672313527 -7.976135479401456e-05 0 0.0003765993398425161 -8.208416916496836e-05 0 0.0003758718598054541 -8.439433615742741e-05 0 0.0003804541077578424 -8.87750858654105e-05 0 0.0003799714442614375 -9.10546799721565e-05 0 0.0003795588231398404 -9.33232539546485e-05 0 0.0003792114246431384 -9.558269313715167e-05 0 0.0003789327599668621 -9.78272130207182e-05 0 0.0003846247090751013 -9.985616354705561e-05 0 0.0003844844163522883 -0.0001020731345171085 0 0.0003844019835626706 -0.0001042773814814682 0 0.0003843842870987967 -0.0001064677114803504 0 0.0003844160986572548 -0.0001086467377648542 0 0.0003844931034128969 -0.0001108153107573268 0 0.0003907854805485926 -0.0001149292407841008 0 0.0003846189798005981 -0.0001129715886847044 0 0.000391020199057946 -0.0001170597472976768 0 0.000391291057328123 -0.0001191808859735725 0 0.0003916042128451198 -0.0001212900316296849 0 0.000391957815023782 -0.00012338872261578 0 0.0003925160013378787 -0.0001253651312978907 0 0.0003991411213854576 -0.0001272707637911683 0 0.000399789563137091 -0.0001293413606143614 0 0.0004003306865179095 -0.000131396880702394 0 0.000400904883014746 -0.0001334131263219458 0 0.000407480748543282 -0.000135330168732598 0 0.000408072680749758 -0.0001373609995807731 0 0.0004086926145749552 -0.000139382823416428 0 0.0004093409981087264 -0.0001413953829318106 0 0.0004100157450567286 -0.0001433991194070324 0 0.0004108627950834215 -0.0001452899303692027 0 0.00041253424631604 -0.0001469323567369124 0 0.0004173728863744898 -0.0001497245194524184 0 0.0004147231959471926 -0.0001483110873737769 0 0.0004199064479803936 -0.0001512600472324916 0 0.0004224137647583181 -0.0001528283403424481 0 0.0004756185590250773 -2.143287658389721e-06 0 0.0004751309564144959 -4.030919728100193e-06 0 0.0004740706650139232 -5.669697478860783e-06 0 0.0004721833823857954 -7.225604576487358e-06 0 0.0004697757275446587 -8.648941126454079e-06 0 0.0004668835128536488 -9.960435534391905e-06 0 0.0004636577827591322 -1.022318440649839e-05 0 0.0004599857569112056 -1.131938421312561e-05 0 0.0004559843781374278 -1.240754009537745e-05 0 0.0004516998293898322 -1.350748846237737e-05 0 0.0004471778601718613 -1.46370916656658e-05 0 0.0004424619865497774 -1.581238471874539e-05 0 0.000437597352942108 -1.704621641248398e-05 0 0.000432625443024506 -1.834897192656234e-05 0 0.0004275852663831241 -1.972847037243782e-05 0 0.0004243227016784655 -2.043680398436779e-05 0 0.0004194857917051462 -2.201386352441039e-05 0 0.0004146810899795265 -2.367597113476518e-05 0 0.0004099330599239365 -2.542171582970549e-05 0 0.0004081115659733749 -2.673804156921394e-05 0 0.0004037748939367126 -2.864910788811155e-05 0 0.0003995541827768152 -3.06270616372529e-05 0 0.0003954327930733037 -3.267727706745321e-05 0 0.0003914383750376063 -3.478821960131766e-05 0 0.0003875837089328639 -3.69528514203544e-05 0 0.0003838746040618782 -3.916590501156405e-05 0 0.0003845582879226936 -4.10452727374115e-05 0 0.0003813067816186019 -4.333263564942057e-05 0 0.0003782018849385382 -4.565119505123172e-05 0 0.0003752470535894071 -4.799491818187451e-05 0 0.0003724381070268893 -5.03575669972737e-05 0 0.0003698041326824546 -5.273023574755701e-05 0 0.0003725581644530456 -5.468640605816829e-05 0 0.0003703307599619321 -5.706216197748876e-05 0 0.0003768749188624005 -6.124053370620917e-05 0 0.0003748554725576089 -7.293546929375457e-05 0 0.0003752193354235057 -8.669811964267739e-05 0 0.0003746362320889372 -8.899444591160177e-05 0 0.0003787155425089435 -0.0001000594896116039 0 0.0003847966108543616 -0.0001151139201266162 0 0.0003932388267045279 -0.0001274033897183453 0 0.0004014647277282907 -0.0001354517951769304 0 0.0003734139616861791 -5.91439136983445e-05 0 0.0004755311519029891 0 0 0.0004739024688705206 -6.036150558545861e-06 0 0.0004635429340270015 -1.11846296382279e-05 0 0.0004225134341754073 -2.119011859172778e-05 0 0.0004052680689318298 -2.724679887909956e-05 0 0.0003803154032273801 -4.142201736062716e-05 0 0.0003672710410706094 -5.51417103742421e-05 0 0.0003681811005290713 -5.946257913534113e-05 0 0.0003715203268884489 -6.152620711232632e-05 0 0.0003750979108024245 -6.365014982630387e-05 0 0.0003734718383096908 -6.60417863231086e-05 0 0.000371965407062568 -6.842843998038346e-05 0 0.0003705673282243911 -7.081119005904699e-05 0 0.00036927334349291 -7.318920622996802e-05 0 0.000373712817876842 -7.529782106730306e-05 0 0.0003726672146352643 -7.765189456515373e-05 0 0.0003717145506181531 -7.999667170550084e-05 0 0.0003708527412412372 -8.2329011203516e-05 0 0.000370090160010142 -8.464762465464479e-05 0 0.0003694088510000853 -8.695466715888935e-05 0 0.0003741272009142467 -9.12794623645297e-05 0 0.0003736891320199643 -9.355356335124486e-05 0 0.0003733220171237797 -9.581449670729582e-05 0 0.0003730210827908448 -9.806442105648853e-05 0 0.0003727867588678651 -0.0001002996731282041 0 0.0003785615811908107 -0.0001022786199336949 0 0.0003784675379644929 -0.000104484949392763 0 0.000378425044941294 -0.0001066798137905779 0 0.0003784428147293091 -0.0001088605433077441 0 0.0003785092501716705 -0.0001110296149838474 0 0.0003786259428666569 -0.0001131856619111823 0 0.0003850219640345198 -0.0001172446762962673 0 0.0003787924901139946 -0.0001153284503121371 0 0.0003852890246184891 -0.0001193650064787795 0 0.0003855943454200397 -0.0001214735740155147 0 0.0003859439509694557 -0.0001235681575359066 0 0.0003864869672894473 -0.0001255846653804801 0 0.0003872882455476376 -0.0001275829199532298 0 0.0003938603520738875 -0.0001294565053454513 0 0.0003943536871765023 -0.0001315132935259666 0 0.000394879821011745 -0.0001335597111808722 0 0.0003954376986634488 -0.0001355960848335342 0 0.000402054588086233 -0.0001374807334583018 0 0.0004026732009075879 -0.0001395001726335054 0 0.0004033196444778581 -0.0001415103329164123 0 0.0004039927890660418 -0.0001435114203580005 0 0.0004047334891452847 -0.000145555548577883 0 0.0004060934173969558 -0.0001473830811381302 0 0.0004082756847753241 -0.0001489301722365689 0 0.0004108919799542189 -0.0001504176644175009 0 0.0004134113102496176 -0.0001519688921577337 0 0.0004159383016160807 -0.0001535180580543365 0 0.0004749410531460489 -2.567013939883111e-06 0 0.000474613826418819 -4.470275516007777e-06 0 0.0004735772526261083 -6.626647909262811e-06 0 0.0004720526457942889 -7.920343384445097e-06 0 0.0004697713215279028 -9.505863311045342e-06 0 0.0004669022834698464 -1.098864031530452e-05 0 0.0004635474997509619 -1.23399494534426e-05 0 0.0004597987571354085 -1.234689079180121e-05 0 0.0004556946513119379 -1.347416279098593e-05 0 0.0004512787057100407 -1.459064972998489e-05 0 0.0004465979720507768 -1.571930417280001e-05 0 0.0004416981279205665 -1.688023950236859e-05 0 0.0004366261898280219 -1.80904985740588e-05 0 0.0004314311254785697 -1.936306071669986e-05 0 0.0004261612221213403 -2.07064614451343e-05 0 0.0004208498374536494 -2.213064817516602e-05 0 0.0004174430840218632 -2.273700358922006e-05 0 0.0004124021514363068 -2.43709549046776e-05 0 0.0004074218148660517 -2.608973840280098e-05 0 0.0004025237830863791 -2.789191983900249e-05 0 0.0004007090596619614 -2.914615640036337e-05 0 0.0003962753973762387 -3.111362404584587e-05 0 0.0003919490823594378 -3.315597046118058e-05 0 0.0003877598243602551 -3.52608821842367e-05 0 0.0003837169415544297 -3.742259042929905e-05 0 0.0003798283565166292 -3.963501827578419e-05 0 0.0003761008162447343 -4.189176903863946e-05 0 0.0003769103319824564 -4.37153659550041e-05 0 0.0003736657178287892 -4.603884213402969e-05 0 0.0003705783375585995 -4.838927711468387e-05 0 0.0003676432928470579 -5.076421665616283e-05 0 0.000364865324574371 -5.315688378793566e-05 0 0.0003622394329895139 -5.556391503598832e-05 0 0.0003652314004831062 -5.743644387092601e-05 0 0.0003629701865155611 -5.983249810602424e-05 0 0.0003697336953506279 -6.392082514648727e-05 0 0.0003680823308245268 -7.556002748025063e-05 0 0.0003687991276604256 -8.925490047549393e-05 0 0.0003682637972333978 -9.154453381541101e-05 0 0.0003726151649915596 -0.0001025214240963479 0 0.0003790090511117008 -0.0001174591094341463 0 0.0003878336890256102 -0.00012963291638814 0 0.0003960257257519412 -0.0001376224905150229 0 0.0003661946725528178 -6.185904970541759e-05 0 0.0004748128645106683 0 0 0.0004719207486250214 -8.703494018057749e-06 0 0.0004597504673815224 -1.359109569697526e-05 0 0.0004155366876376493 -2.363931108651027e-05 0 0.0003977306734931208 -2.97733073300221e-05 0 0.0003725369191584394 -4.418732238745557e-05 0 0.0003598633945674391 -5.794223487099465e-05 0 0.0003608705759987034 -6.224861758357985e-05 0 0.0003643349083363117 -6.425650499186579e-05 0 0.000368050357972412 -6.631782512424059e-05 0 0.0003664795348635746 -6.871493217348488e-05 0 0.0003650222646498574 -7.110741529358528e-05 0 0.0003636752318957488 -7.349355603433299e-05 0 0.0003624342113494341 -7.587216792159637e-05 0 0.0003669887948768778 -7.79238211147275e-05 0 0.0003659943523495164 -8.027691819305414e-05 0 0.00036509257070931 -8.261781951211481e-05 0 0.0003642803218024904 -8.494558523694359e-05 0 0.0003635794060419373 -8.725416417165983e-05 0 0.0003629373765444263 -8.956056128805903e-05 0 0.0003678009415051873 -9.382327010638024e-05 0 0.0003674096610608787 -9.60893066100354e-05 0 0.0003670899425638182 -9.834061747499984e-05 0 0.0003668380096356694 -0.0001005776791866525 0 0.0003666480898539984 -0.0001028013455160902 0 0.0003725040457757394 -0.0001047299331193113 0 0.0003724510669818546 -0.0001069251663958991 0 0.0003724533686428721 -0.000109107369092528 0 0.0003725091332573778 -0.0001112764460390267 0 0.0003726162668165694 -0.000113432356272091 0 0.0003727739725211248 -0.0001155749400936072 0 0.0003792692455282215 -0.0001195783234231668 0 0.0003729800515265562 -0.0001177046887608886 0 0.0003795678200099635 -0.0001216861967927328 0 0.0003799079178960029 -0.0001237820918323471 0 0.0003803128265481273 -0.0001258449681636836 0 0.0003810290198313149 -0.0001278422400293215 0 0.0003817155845723262 -0.0001298422264488757 0 0.0003883200159309883 -0.000131686295353025 0 0.000388843732370591 -0.0001337301959459009 0 0.0003893994338976257 -0.0001357636989675793 0 0.0003899861498191424 -0.0001377870224692809 0 0.0003966426980851011 -0.0001396392262285281 0 0.0003972879749264806 -0.0001416464561069206 0 0.0003979600640454548 -0.0001436443537170619 0 0.0003985870749246151 -0.0001457035384986819 0 0.000398914816833233 -0.0001479817257319212 0 0.000401856370222642 -0.000149632824782326 0 0.0004044065367772062 -0.0001511433795154232 0 0.0004069299607219176 -0.0001526806667634476 0 0.0004094547038448363 -0.0001542270886296809 0 0.000474123035663918 -3.303389438453347e-06 0 0.0004741391917743196 -4.715700742277728e-06 0 0.0004733604186706309 -6.947238539761689e-06 0 0.0004718651021170256 -9.417465109631181e-06 0 0.0004697295172170633 -1.056175992663071e-05 0 0.0004669866589565826 -1.220086964633923e-05 0 0.0004636479917684302 -1.371897822739007e-05 0 0.0004598252525206349 -1.508685099639421e-05 0 0.0004555583820510269 -1.477293660520404e-05 0 0.0004510211859708327 -1.59151845097536e-05 0 0.0004461891669555728 -1.704617843634049e-05 0 0.0004411130571225105 -1.819081775168149e-05 0 0.0004358330090752088 -1.937339744099388e-05 0 0.0004304133843614704 -2.060873174107516e-05 0 0.0004248998748272746 -2.190996486930977e-05 0 0.0004193438738223768 -2.328603091996931e-05 0 0.0004137755405942967 -2.47474172608079e-05 0 0.0004102510174291332 -2.52362122401209e-05 0 0.0004050235498885481 -2.692134251201187e-05 0 0.0003998841444882777 -2.869173781702246e-05 0 0.000394852232250078 -3.054559797886925e-05 0 0.0003930639080578445 -3.172835335723726e-05 0 0.0003885308378487575 -3.375445511341383e-05 0 0.0003841374641206576 -3.584822614024772e-05 0 0.0003798964777567503 -3.800278894160858e-05 0 0.0003758209245135878 -4.020998819351348e-05 0 0.0003719155317733487 -4.246410088679828e-05 0 0.0003681848744009596 -4.475869759092374e-05 0 0.0003691400950803528 -4.651562509648522e-05 0 0.0003659116849596524 -4.887129003313817e-05 0 0.0003628471342255461 -5.125113694152865e-05 0 0.000359944542858807 -5.36505566625336e-05 0 0.0003572051326880132 -5.606391979115873e-05 0 0.0003546457517126281 -5.847158091077408e-05 0 0.0003577714310049533 -6.028764802726951e-05 0 0.0003555629534883416 -6.269765115324924e-05 0 0.000362613810025675 -6.665115335518464e-05 0 0.0003612944669349165 -7.824261111544057e-05 0 0.0003623807822151835 -9.185198645798383e-05 0 0.0003618956509261563 -9.413247202571775e-05 0 0.0003665212939893927 -0.0001050110930020719 0 0.0003732336882427369 -0.0001198217996392441 0 0.0003822750968359566 -0.0001318846144052408 0 0.0003906023536344037 -0.0001398002875547373 0 0.0003589262031432473 -6.465649988872305e-05 0 0.000473939148605232 0 0 0.0004697448518867533 -1.169550181824243e-05 0 0.0004555674343214406 -1.634205109267763e-05 0 0.0004082341682950568 -2.629713788549112e-05 0 0.0003899437425414935 -3.247989759250422e-05 0 0.0003646307382655069 -4.708792368643574e-05 0 0.0003523384821141916 -6.084294008044217e-05 0 0.0003535146567546613 -6.512031332789035e-05 0 0.0003571243416885907 -6.7061800557767e-05 0 0.0003609749888592051 -6.905904657673501e-05 0 0.0003594593842463525 -7.145922855434018e-05 0 0.0003580571657209001 -7.385325115442485e-05 0 0.000356766299435289 -7.623852830321018e-05 0 0.0003555814746471353 -7.861459185701684e-05 0 0.0003602559830345077 -8.060290649871162e-05 0 0.0003593159793451525 -8.295180106866888e-05 0 0.0003584680858789601 -8.528850712183068e-05 0 0.0003577141511284859 -8.760873862502763e-05 0 0.000357051513682174 -8.991512575444886e-05 0 0.000356466344587288 -9.22100711903171e-05 0 0.0003614820750883157 -9.640143483601916e-05 0 0.000361139544404859 -9.865706295853278e-05 0 0.0003608703283645115 -0.0001008949346358227 0 0.0003606674412953908 -0.0001031182343615976 0 0.0003605164188084031 -0.0001053306495914389 0 0.0003664567326625035 -0.0001072064539765324 0 0.0003664468508124339 -0.0001093885662669658 0 0.000366491744859231 -0.0001115571728592805 0 0.0003665901380207778 -0.0001137121127782791 0 0.0003667388064050309 -0.0001158535693447101 0 0.000366938119504126 -0.0001179815032450149 0 0.0003735275079490233 -0.0001219274332306061 0 0.0003671818792493657 -0.0001200969383812272 0 0.0003738626722702079 -0.0001240208500657078 0 0.0003742379753103522 -0.0001261023994405323 0 0.0003748682890905305 -0.0001281129437439257 0 0.000375539885284651 -0.0001301133858865687 0 0.0003762163600783788 -0.0001321085724316241 0 0.0003827959780236017 -0.0001339252211664302 0 0.000383349856303089 -0.0001359553624571886 0 0.0003839353777618897 -0.000137975076452167 0 0.0003845510934106279 -0.000139984584460444 0 0.0003912473007138858 -0.0001418039515689659 0 0.0003919182557166441 -0.0001437985384113712 0 0.0003926161775144967 -0.0001457838616022881 0 0.0003933409342686252 -0.0001477599155800485 0 0.0003953637263691899 -0.0001505285606172414 0 0.0003979025739692235 -0.0001518988165286181 0 0.0004004257774050545 -0.0001534269448477834 0 0.0004029632511860423 -0.00015495557493401 0 0.0004732379256125842 -3.397180450900365e-06 0 0.0004732497494912578 -6.640278639319675e-06 0 0.0004718811209864643 -9.813588288172539e-06 0 0.0004698552285963361 -1.279703158107064e-05 0 0.0004670524957156092 -1.366488718890601e-05 0 0.0004638171793488419 -1.535529471001921e-05 0 0.0004600004057406466 -1.687574359666034e-05 0 0.0004557042773875788 -1.822927964624331e-05 0 0.0004509255479932872 -1.752111971968655e-05 0 0.0004459529858889778 -1.865894854941964e-05 0 0.0004407046640426458 -1.978629161694349e-05 0 0.0004352307045874589 -2.0932935939658e-05 0 0.0004295867750004376 -2.212163729197507e-05 0 0.0004238261731574927 -2.337021140498418e-05 0 0.0004180057219233999 -2.468989024529165e-05 0 0.0004121747588793065 -2.609068306561417e-05 0 0.0004063648586216044 -2.75811888838231e-05 0 0.0004027483046021277 -2.793842688149715e-05 0 0.0003973510909295101 -2.966892226581057e-05 0 0.0003920657876392015 -3.148683702440368e-05 0 0.000386914684707867 -3.338793615556876e-05 0 0.0003851842642651698 -3.448634709575615e-05 0 0.0003805759400127713 -3.656310004309672e-05 0 0.0003761268382981855 -3.870489845994496e-05 0 0.0003718528744252903 -4.090265789040597e-05 0 0.0003677603348384514 -4.314976838685202e-05 0 0.0003638564466611314 -4.543856226176056e-05 0 0.0003601382261853536 -4.7764630118373e-05 0 0.0003612535513469583 -4.94463245279347e-05 0 0.0003580526342882892 -5.182879587887393e-05 0 0.0003550235249468791 -5.423149212786237e-05 0 0.0003521663002487009 -5.664873486192298e-05 0 0.0003494781821118144 -5.906985299455725e-05 0 0.0003470333099346397 -6.146936545008975e-05 0 0.0003502086955444283 -6.322745383431661e-05 0 0.0003481055126490293 -6.564647780512644e-05 0 0.0003554456826784918 -6.946693941499386e-05 0 0.000354501785368806 -8.097952945670451e-05 0 0.0003559665812389009 -9.448788662762966e-05 0 0.0003555339296571782 -9.675657374977662e-05 0 0.0003604429718484612 -0.0001075247885055967 0 0.0003674720693606109 -0.0001221992126052736 0 0.000376735827295433 -0.0001341457122703926 0 0.0003851980662112967 -0.000141983566131564 0 0.0003928847835141787 -0.0001494339817147095 0 0.0003516302261169814 -6.753395639824782e-05 0 0.000472776006331037 0 0 0.000473063974068286 -5.930066181087408e-06 0 0.0004671701491926204 -1.530148961338852e-05 0 0.0004509846036935426 -1.945716321964947e-05 0 0.0004006101407413213 -2.916554150126793e-05 0 0.0003819140648068779 -3.536774839842633e-05 0 0.000356607480363766 -5.012158157216494e-05 0 0.0003448071973684307 -6.384774774080096e-05 0 0.0003461251350123886 -6.807612671679704e-05 0 0.0003498844740912542 -6.994486275724543e-05 0 0.0003538756134932056 -7.187123989193743e-05 0 0.0003524184874212973 -7.42713569455747e-05 0 0.0003510765758048933 -7.666276740561134e-05 0 0.0003498467666273004 -7.904329516477313e-05 0 0.0003487243318035777 -8.141248369492932e-05 0 0.0003535213129926721 -8.333321817294657e-05 0 0.0003526370513331761 -8.567617934993597e-05 0 0.000351844840750283 -8.800582449378886e-05 0 0.0003511449815006649 -9.031700368400034e-05 0 0.0003505338490545172 -9.261412946679101e-05 0 0.0003500046243209941 -9.489765199996188e-05 0 0.0003551717298119001 -9.901357196365424e-05 0 0.000354883562000078 -0.0001012530888202273 0 0.000354663201542225 -0.0001034768728394471 0 0.000354495628519874 -0.0001056890810224178 0 0.0003544048056138155 -0.0001078829737132209 0 0.0003604221759509434 -0.0001097060589171199 0 0.0003604574066811677 -0.0001118731422358725 0 0.0003605463184662131 -0.0001140263253951547 0 0.0003606881966185246 -0.0001161654367425904 0 0.0003608792503743254 -0.000118291043532402 0 0.0003611178509921339 -0.0001204032351219488 0 0.000367803408344207 -0.0001242893586552649 0 0.0003614019704495102 -0.0001225023292525385 0 0.0003682367904595654 -0.000126338702321603 0 0.0003688037308580967 -0.0001283878114016128 0 0.0003694683518099353 -0.0001304026228664367 0 0.0003701190973521244 -0.0001323846628330492 0 0.0003706621258051074 -0.0001343929144564921 0 0.0003772888260038384 -0.0001361716741317639 0 0.0003778734159176818 -0.0001381872774060327 0 0.0003784886146913224 -0.0001401925369937225 0 0.0003791481819968444 -0.0001421839382566294 0 0.0003858699305014777 -0.0001439735439413533 0 0.0003865639626009974 -0.0001459554628673983 0 0.0003872886352746024 -0.0001479270948213796 0 0.0003879728554663716 -0.0001498602035107031 0 0.000391363525290205 -0.0001527257114759823 0 0.0003888839788109123 -0.0001514581164330718 0 0.0003939165526595681 -0.0001541927914226357 0 0.0003964642475455003 -0.0001557036317360385 0 0.0004722516344967338 -3.789159494899115e-06 0 0.0004719681481500702 -7.509680680302098e-06 0 0.0004719526340556894 -9.390088017556137e-06 0 0.0004697965923173228 -1.406341698693998e-05 0 0.0004672759552456532 -1.709536909943618e-05 0 0.0004639898244777093 -1.730054427443339e-05 0 0.0004602386528311261 -1.901334010113589e-05 0 0.0004559492182282002 -2.048961160674956e-05 0 0.0004511808361999136 -2.178568111748344e-05 0 0.0004458898830252889 -2.060638280803608e-05 0 0.0004404815677711724 -2.171563398380708e-05 0 0.000434820103791042 -2.28188832267014e-05 0 0.0004289585081711649 -2.394862268217639e-05 0 0.0004229488436211849 -2.513010281523587e-05 0 0.0004168577018009135 -2.63783713855949e-05 0 0.0004107489565968741 -2.770455713066477e-05 0 0.0004046574920328344 -2.91205519974032e-05 0 0.0003986201198086443 -3.06329054849478e-05 0 0.0003949335730790315 -3.084787108033233e-05 0 0.0003893810814854617 -3.261866262849199e-05 0 0.0003839759143600003 -3.447505835984117e-05 0 0.0003787253251618109 -3.641705704755187e-05 0 0.0003770799955128065 -3.741988359908989e-05 0 0.0003724091361101879 -3.9543453920588e-05 0 0.0003679285014973672 -4.172492812566182e-05 0 0.0003636393707812225 -4.395948332517622e-05 0 0.0003595530123664785 -4.623757359172057e-05 0 0.0003556639865066781 -4.855537491146107e-05 0 0.0003519733051957241 -5.090633939309848e-05 0 0.000353262890328729 -5.250403532620647e-05 0 0.0003501019494249031 -5.490703435888568e-05 0 0.000347122548193072 -5.73254138345194e-05 0 0.0003443212454684852 -5.975393023987917e-05 0 0.0003416916501896455 -6.218710846969058e-05 0 0.0003393350708064828 -6.458277162658869e-05 0 0.0003426786271399343 -6.625380436313764e-05 0 0.0003406202804079107 -6.868288188055193e-05 0 0.0003482683323667201 -7.234848465434757e-05 0 0.0003477104293805445 -8.376755713100778e-05 0 0.0003495532382113801 -9.716523198558074e-05 0 0.000349181243965452 -9.941570886958765e-05 0 0.0003543804419267 -0.0001100606997297435 0 0.0003617297728969314 -0.000124588477011185 0 0.0003712156927565729 -0.0001364134886162348 0 0.0003798323398366179 -0.0001441670326270299 0 0.0003443055614227375 -7.049197646619626e-05 0 0.0004713478338281107 0 0 0.0004641150276728224 -1.958592585349076e-05 0 0.0004460000138430492 -2.294814478452408e-05 0 0.0003926678332791572 -3.224564597381732e-05 0 0.0003736553489761091 -3.843479227023956e-05 0 0.0003484791684982242 -5.328474193329707e-05 0 0.000337189317736484 -6.696573700509837e-05 0 0.000338709205632484 -7.111076070208715e-05 0 0.0003426188196465351 -7.290189159162186e-05 0 0.0003467591379018206 -7.475100742009342e-05 0 0.0003453642394232302 -7.714758703188657e-05 0 0.0003440873500943476 -7.953234079226253e-05 0 0.0003429231754363531 -8.190438891413051e-05 0 0.0003418645658791852 -8.426454652398426e-05 0 0.0003467873670297095 -8.611389626816833e-05 0 0.0003459568167582234 -8.844931295720459e-05 0 0.0003452260804657534 -9.076503297387744e-05 0 0.0003445871322506995 -9.306366861905621e-05 0 0.0003440346462742474 -9.534628728341562e-05 0 0.0003435623824470364 -9.761351007955839e-05 0 0.0003488768698290384 -0.0001016541153989308 0 0.000348640920531907 -0.0001038771041546842 0 0.0003484663986734311 -0.0001060850137864384 0 0.0003483549929480477 -0.0001082793289823367 0 0.0003483151327892657 -0.0001104555381605576 0 0.000354403662472036 -0.000112226066488955 0 0.0003544851274557447 -0.0001143764048336403 0 0.0003546200361775676 -0.0001165123904626727 0 0.0003548050784515018 -0.0001186343606718287 0 0.0003550379631808803 -0.0001207427337472384 0 0.000355317244164802 -0.0001228376557286581 0 0.0003620986653288403 -0.0001266620288793894 0 0.0003556415352146824 -0.0001249192774526056 0 0.0003627319706433919 -0.0001286644793903451 0 0.0003633909584873474 -0.0001306902133211893 0 0.0003640416886752992 -0.0001326522086320211 0 0.0003645724319906624 -0.0001346704075299391 0 0.0003651286822807643 -0.0001366832739213427 0 0.0003718007827884023 -0.0001384238750555536 0 0.0003724442764663674 -0.0001404180597318775 0 0.000373100218138434 -0.0001424082077698442 0 0.0003738231540403861 -0.0001443725603420928 0 0.0003805293685632757 -0.0001461483006782203 0 0.0003812360317400252 -0.0001481185579996664 0 0.0003819472282701259 -0.0001500654260241547 0 0.0003826722162109917 -0.0001519412871408827 0 0.0003874047248558641 -0.0001549619613873132 0 0.0003848634086000153 -0.000153452130295551 0 0.0003899580214420792 -0.0001564713433303479 0 0.0004709120164607202 -5.922102168289362e-06 0 0.0004703584231028059 -1.282845174897067e-05 0 0.000467049686918877 -1.896327723466279e-05 0 0.0004638747551540897 -2.269563452299566e-05 0 0.0004605103074742397 -2.154590040451676e-05 0 0.0004562800675595772 -2.318873897230889e-05 0 0.0004515050631490132 -2.457390301418189e-05 0 0.0004462622582734453 -2.576017939968165e-05 0 0.0004404459659207544 -2.403664868197589e-05 0 0.0004346021264125948 -2.50903539204272e-05 0 0.0004285322649115006 -2.614640043998827e-05 0 0.0004222738527719612 -2.724262770359912e-05 0 0.0004159148908032912 -2.839835616070442e-05 0 0.0004095134233802772 -2.963144338599003e-05 0 0.0004031279351251808 -3.095358130645793e-05 0 0.0003967926967931484 -3.237507597119144e-05 0 0.0003905477174339978 -3.390079279927284e-05 0 0.0003868254180574972 -3.395943468130064e-05 0 0.0003811255307954148 -3.576813394316421e-05 0 0.0003756126249961114 -3.765985074893449e-05 0 0.0003702901154086335 -3.963305678785879e-05 0 0.0003687522961548567 -4.053148242031636e-05 0 0.0003640459040379489 -4.26924217711004e-05 0 0.0003595561550940309 -4.490538637545063e-05 0 0.000355278012233909 -4.716658648925757e-05 0 0.0003512100530931253 -4.947041552207404e-05 0 0.0003473523730918537 -5.181014202716587e-05 0 0.0003437044795121227 -5.417886765371002e-05 0 0.0003451802080547097 -5.568476538485752e-05 0 0.0003420732970455489 -5.810114034494922e-05 0 0.0003391550919181599 -6.052879976410441e-05 0 0.0003364206524938924 -6.296364670061262e-05 0 0.0003338651429686988 -6.540136302289235e-05 0 0.0003315831080538838 -6.77965910474412e-05 0 0.0003350933194862928 -6.936891859614758e-05 0 0.0003331110925945782 -7.17986857718833e-05 0 0.000341071085753067 -7.530022617804838e-05 0 0.0003409036464855994 -8.661452319620235e-05 0 0.0003431684224907637 -9.986479543232036e-05 0 0.0003428496346885279 -0.00010209994433125 0 0.0003483338914581068 -0.0001126168175617119 0 0.0003560332913651008 -0.0001269670330892036 0 0.000365720747472676 -0.0001386825451682767 0 0.0003745178592964798 -0.000146347944764723 0 0.0003369563900211518 -7.352228906088557e-05 0 0.0004699798968751388 -1.169033327234906e-05 0 0.0004680811373463923 -1.809936280646393e-05 0 0.0004604900543991988 -2.454680686633777e-05 0 0.0004405982069639554 -2.682173889600797e-05 0 0.0003844016766943395 -3.5539370597993e-05 0 0.0003651648581590355 -4.168409810386943e-05 0 0.0003402600097860465 -5.657236285567136e-05 0 0.0003295764672836182 -7.01544257092078e-05 0 0.0003312763269370494 -7.421971445675458e-05 0 0.0003353443576620367 -7.592528897900345e-05 0 0.0003396278977882503 -7.769743765410007e-05 0 0.000338304183255526 -8.008382354134556e-05 0 0.0003370959548044556 -8.245802330983708e-05 0 0.0003359975629041067 -8.481939724051186e-05 0 0.0003350001203509753 -8.717034156061621e-05 0 0.0003400438488262781 -8.894854976600173e-05 0 0.0003392776564821162 -9.126641331974052e-05 0 0.0003386120140217115 -9.356511562219425e-05 0 0.0003380409019946919 -9.584558850816843e-05 0 0.0003375483853573937 -9.811110572521684e-05 0 0.0003371355893589649 -0.0001003602776973647 0 0.0003425999486964855 -0.0001043193350933933 0 0.0003424122161089269 -0.0001065255236623759 0 0.0003422893175284111 -0.0001087159327844533 0 0.0003422380846414589 -0.0001108880286516039 0 0.0003422506533526545 -0.0001130445454681361 0 0.0003484064545303256 -0.0001147637120631664 0 0.0003485348147112801 -0.0001168955147807864 0 0.0003487144457091439 -0.0001190129990060986 0 0.0003489431958023462 -0.0001211163171158126 0 0.0003492179195823106 -0.0001232062250725791 0 0.0003495381696031914 -0.0001252826353654239 0 0.0003565791970342613 -0.0001289381736648475 0 0.0003499029929294737 -0.000127345538126576 0 0.0003572945592251191 -0.0001309574734897699 0 0.0003579341527798928 -0.0001329689830827564 0 0.0003584778044312855 -0.0001349692287213979 0 0.000359031937848302 -0.0001369786318573576 0 0.0003596176916817531 -0.0001389776222735881 0 0.0003663764859084727 -0.0001406706186039608 0 0.0003670640239250506 -0.0001426441390936918 0 0.0003677716614113989 -0.0001446148012498703 0 0.0003685292904036563 -0.0001465653069317873 0 0.0003752167111606588 -0.000148315276290524 0 0.0003759075380426815 -0.0001502787950849826 0 0.0003769591597599499 -0.0001520872101179817 0 0.0003775295191803469 -0.0001541203494268357 0 0.0003807487638330978 -0.0001557415294978466 0 0.0003834449263822539 -0.0001572587610813922 0 0.0004683438006983487 -1.75169923194759e-05 0 0.0004652001647235162 -2.335805403201848e-05 0 0.0004600300060577316 -2.783367267160787e-05 0 0.0004565840468426585 -2.636252185427533e-05 0 0.0004519499509724388 -2.788281958247345e-05 0 0.0004466876408073326 -2.912382208010967e-05 0 0.0004409419359906665 -3.015492518898251e-05 0 0.0004345898812986736 -2.78119557076672e-05 0 0.0004283130851590349 -2.877919154909614e-05 0 0.0004218382405516365 -2.976308250995302e-05 0 0.0004151949271572242 -3.080460020655002e-05 0 0.0004084856438776301 -3.192122387988795e-05 0 0.0004017924418325397 -3.312487384375521e-05 0 0.0003951461855762852 -3.443147953257006e-05 0 0.0003885868010163367 -3.584840921614543e-05 0 0.0003821433817796389 -3.738334128156633e-05 0 0.0003783979900271508 -3.72835728424501e-05 0 0.0003725900600252894 -3.911625702930583e-05 0 0.0003670073642932712 -4.102957698960476e-05 0 0.0003616268022815642 -4.303041040369389e-05 0 0.000360231362782335 -4.38116554284881e-05 0 0.0003555191534494636 -4.599917808822706e-05 0 0.0003510372376109172 -4.823700592029287e-05 0 0.00034677969294234 -5.052072325956615e-05 0 0.0003427459110477455 -5.284343874052496e-05 0 0.000338935413992806 -5.519782446109042e-05 0 0.0003353440973505278 -5.757734850452999e-05 0 0.0003370188006633528 -5.898341042345834e-05 0 0.000333977973642121 -6.140645658812736e-05 0 0.00033113158549593 -6.383708240900913e-05 0 0.0003284741884027253 -6.627104893051488e-05 0 0.0003260519976246464 -6.867840407778548e-05 0 0.0003238335529127671 -7.106313766218171e-05 0 0.0003274944051461697 -7.257096980184832e-05 0 0.0003255874431623865 -7.498867824358199e-05 0 0.0003338657089074217 -7.831607663565321e-05 0 0.0003341080740404981 -8.950437268389513e-05 0 0.0003368004687503877 -0.0001025927085659614 0 0.0003365390469792988 -0.0001048085589948156 0 0.0003423142576657498 -0.0001151884461980957 0 0.0003503097212516013 -0.0001293954254326047 0 0.0003602960061112178 -0.0001409514550720137 0 0.0003692119694401129 -0.0001485340157025152 0 0.0003295934630926827 -7.662463546723508e-05 0 0.0004660095135435411 -2.334426855900213e-05 0 0.0004616928484901964 -2.839703676923514e-05 0 0.0004565903315619806 -2.998595689311139e-05 0 0.0004347953880929792 -3.10681724183082e-05 0 0.0003758269974918329 -3.903955972602667e-05 0 0.0003564783446889557 -4.510340353059074e-05 0 0.0003319605715877069 -5.997983382666173e-05 0 0.000321829802220581 -7.344101781523353e-05 0 0.0003238353120368691 -7.739774801719948e-05 0 0.000328061005353164 -7.901381451337826e-05 0 0.0003324961741754604 -8.07017312203683e-05 0 0.0003312442078347961 -8.307603117790275e-05 0 0.0003300988781998622 -8.544133335017461e-05 0 0.0003290711390931223 -8.778778661297843e-05 0 0.000328145028808212 -9.012109530592496e-05 0 0.00033331225416822 -9.182076855026248e-05 0 0.0003326167266418791 -9.411870211617357e-05 0 0.0003320139628706846 -9.640032468738649e-05 0 0.0003315013758230911 -9.866293166865703e-05 0 0.0003310739803172482 -0.0001009075908406577 0 0.0003307288093294554 -0.0001031343371944035 0 0.0003363413846229717 -0.0001070086661532871 0 0.0003362019489103504 -0.0001091968032177189 0 0.0003361459764737771 -0.0001113617070267833 0 0.0003361525138697101 -0.000113512252457459 0 0.0003362145874358008 -0.000115647061147136 0 0.0003424324761646262 -0.0001173161504682515 0 0.0003426070202685303 -0.0001194282137386859 0 0.0003428318934167263 -0.0001215257018170314 0 0.0003431059859251775 -0.0001236085674339431 0 0.0003434191638573711 -0.0001256798394564898 0 0.0003437823402247224 -0.0001277361550610165 0 0.0003513039432351894 -0.0001312810105727251 0 0.0003441845314345047 -0.0001297782023609681 0 0.0003518487412189947 -0.0001332893830027304 0 0.0003523679391990522 -0.0001352995737231983 0 0.0003529222800142616 -0.0001373023639576944 0 0.0003535128999490552 -0.0001392920942276187 0 0.000354177212991658 -0.0001412482123799855 0 0.0003609886230670121 -0.0001429196130309911 0 0.0003617105689313663 -0.0001448836733670167 0 0.0003624400202603255 -0.0001468308363903551 0 0.0003631792580605024 -0.0001487728906054976 0 0.0003699247187255117 -0.000150483465532814 0 0.0003710322668453375 -0.0001522585996439127 0 0.0003724780375624292 -0.000153645450308706 0 0.0003743562723013449 -0.0001566014168146905 0 0.0003769253411515272 -0.0001580659008946268 0 0.0004630786948634288 -2.913755888146604e-05 0 0.0004576101073077099 -3.321305624547012e-05 0 0.0004523208842085285 -3.176116343115692e-05 0 0.000447304734633105 -3.302810232007519e-05 0 0.0004414797018528299 -3.414030239370724e-05 0 0.000435224186819786 -3.495659408553791e-05 0 0.0004283247951153444 -3.19227917399461e-05 0 0.0004216139354821656 -3.277270321499777e-05 0 0.0004147364680719546 -3.366004519453838e-05 0 0.00040771579349364 -3.46264203458418e-05 0 0.0004006830521496491 -3.568487676029461e-05 0 0.0003937003986826526 -3.684921454459485e-05 0 0.0003868113564233124 -3.812967389685631e-05 0 0.0003800517187073485 -3.953235743403968e-05 0 0.0003734286601384192 -4.106814446713218e-05 0 0.0003697008789159915 -4.079909125666345e-05 0 0.0003638224273725964 -4.264408061093063e-05 0 0.000358179239707363 -4.457733205715502e-05 0 0.0003527658753139959 -4.65972226447061e-05 0 0.0003515333641406009 -4.725518029523497e-05 0 0.0003468333962480054 -4.946237671794333e-05 0 0.0003423768985554798 -5.171801085184975e-05 0 0.0003381820922501281 -5.400545100910907e-05 0 0.0003342102250977022 -5.633332978644547e-05 0 0.0003304463694926094 -5.870270674620648e-05 0 0.0003268997130689629 -6.109974001245722e-05 0 0.0003287920257474252 -6.23940125031195e-05 0 0.0003258300326893966 -6.481640533654469e-05 0 0.0003230656601467228 -6.724342292680127e-05 0 0.0003204949972611674 -6.96698915191784e-05 0 0.0003182006494745708 -7.204909964202459e-05 0 0.0003160868335358409 -7.441821407583929e-05 0 0.0003198739639420537 -7.584222631669092e-05 0 0.0003180574198293949 -7.824735572642778e-05 0 0.0003266595277429301 -8.139138781029349e-05 0 0.0003273278305702051 -9.243278011466387e-05 0 0.0003304540433157218 -0.0001053454157424164 0 0.0003302502487575561 -0.000107539370604896 0 0.0003363276159945445 -0.0001177702091811974 0 0.0003446720127408462 -0.0001317899149033426 0 0.0003549005859820931 -0.000143213351514059 0 0.0003639309502948895 -0.0001507130350112889 0 0.0003707934665510124 -0.0001554529783274491 0 0.0003222305959780259 -7.978919474476032e-05 0 0.0004594551342326504 -3.490635458413073e-05 0 0.0004526210090188214 -3.729930903465231e-05 0 0.0004285887161157272 -3.568773835839646e-05 0 0.0003669599526205802 -4.27363287626404e-05 0 0.0003475927243193302 -4.869437111972524e-05 0 0.0003235973655187497 -6.34997883205712e-05 0 0.0003141326930191236 -7.679194131891195e-05 0 0.0003163919555396811 -8.06387331603458e-05 0 0.0003207826498231112 -8.216191318884824e-05 0 0.0003253666449840591 -8.376222855368694e-05 0 0.0003241788034833742 -8.612552954498952e-05 0 0.0003231132944988783 -8.847167477870672e-05 0 0.0003221559701212257 -9.080129341493615e-05 0 0.0003213053358424654 -9.311018004569735e-05 0 0.0003265938779431103 -9.4731534561944e-05 0 0.0003259611318239112 -9.701056606878756e-05 0 0.0003254295214996074 -9.926904529995952e-05 0 0.0003249805284755118 -0.0001015097805354962 0 0.0003246350016951558 -0.0001037264189184524 0 0.0003243460516378364 -0.0001059320614838877 0 0.0003301103971573486 -0.000109716698722078 0 0.0003300384024275225 -0.0001118793314143646 0 0.0003300345050251464 -0.0001140233926410901 0 0.0003300965106590042 -0.0001161499164794542 0 0.000330207171458528 -0.0001182639922601215 0 0.0003364946525476939 -0.0001198765465720098 0 0.0003367072030036932 -0.0001219706822588973 0 0.0003369806010532577 -0.0001240457529027353 0 0.0003372983434679901 -0.0001261077759638018 0 0.0003376478559822289 -0.0001281603447090571 0 0.0003380512472128223 -0.0001301956789274927 0 0.0003457261307070309 -0.0001336521341826303 0 0.0003384941268312488 -0.0001322166989222651 0 0.000346249489415973 -0.0001356615701192909 0 0.0003468016260626939 -0.0001376555071712235 0 0.0003473901753968074 -0.0001396381026885707 0 0.000348053826511069 -0.0001415926954362789 0 0.000348809564095105 -0.0001435351736883288 0 0.0003556236919749121 -0.0001451711248117691 0 0.0003563420676552487 -0.0001471136604814099 0 0.0003570783095478395 -0.0001490530388107248 0 0.0003578397915746718 -0.0001509838510147614 0 0.0003647222224816705 -0.000152640862940204 0 0.0003663740013748497 -0.000154537944201519 0 0.0003678468459606151 -0.0001575259260736689 0 0.0003703996700134975 -0.0001588927406217214 0 0.0004551986269927067 -4.060652265191909e-05 0 0.0004476643037699587 -3.765312518002384e-05 0 0.0004421976804026037 -3.857303722428795e-05 0 0.0004358840535247586 -3.959274578315177e-05 0 0.0004291153143483842 -4.013837471876405e-05 0 0.0004216504628961622 -3.635028981120452e-05 0 0.000414504428684918 -3.705261359356458e-05 0 0.0004072250394417049 -3.782015391116748e-05 0 0.0003998131218960692 -3.86981917225275e-05 0 0.0003924812961345206 -3.968173666712293e-05 0 0.0003852438886032879 -4.079095825126314e-05 0 0.0003781330167270374 -4.203573616090186e-05 0 0.0003711922073598307 -4.341626036404026e-05 0 0.0003644281967788556 -4.494086153564805e-05 0 0.0003607700975609039 -4.449207092163428e-05 0 0.0003548239192515465 -4.634966643831736e-05 0 0.0003491363993505852 -4.829846123604783e-05 0 0.0003437122274566669 -5.033065340199886e-05 0 0.0003426704116846823 -5.085728506974665e-05 0 0.0003380050924766375 -5.307531213734236e-05 0 0.0003336267343652618 -5.532548554806356e-05 0 0.0003294974571182138 -5.761508435484566e-05 0 0.0003255817357009878 -5.995396257334757e-05 0 0.0003218507415505653 -6.234586435304949e-05 0 0.000318395339814018 -6.473198985393801e-05 0 0.0003205260184791424 -6.590319113965424e-05 0 0.0003176409651001996 -6.832480454298688e-05 0 0.0003149709039256529 -7.074047417264053e-05 0 0.0003124957431718451 -7.315292099952849e-05 0 0.0003103500729025393 -7.54872608258456e-05 0 0.0003083459124746683 -7.783654079613646e-05 0 0.0003122548663988198 -7.918288372021125e-05 0 0.0003105243799237181 -8.157031578083161e-05 0 0.0003194432369951946 -8.453030462682689e-05 0 0.0003205476169808591 -9.540278598336966e-05 0 0.0003241323802588775 -0.0001081195545104305 0 0.0003239883520981097 -0.0001102895596774298 0 0.0003303739341167304 -0.0001203620988179773 0 0.0003389843974194567 -0.0001342268721543506 0 0.0003495178327405107 -0.0001454850362267732 0 0.0003586261613869163 -0.0001529055577448019 0 0.0003653516600698984 -0.0001564753193515708 0 0.0003148760172536579 -8.301450105418579e-05 0 0.0004503420481415942 -4.614856369881314e-05 0 0.0004465919802125596 -4.412029725928653e-05 0 0.0004219763804090158 -4.070679010771242e-05 0 0.0003578789197354098 -4.659617201831448e-05 0 0.0003385541681781145 -5.243721900686422e-05 0 0.0003152075829688895 -6.711295289168729e-05 0 0.0003064234480063143 -8.021110079346276e-05 0 0.0003089429566851262 -8.394286957786396e-05 0 0.0003134978552376041 -8.537354485579489e-05 0 0.0003182264041452197 -8.688507052121405e-05 0 0.0003171265273210883 -8.92235486191368e-05 0 0.0003161498897661761 -9.154175607545192e-05 0 0.0003152659721209356 -9.384664265716527e-05 0 0.0003144883261056828 -9.61316624400025e-05 0 0.0003198870567508909 -9.767864511664162e-05 0 0.0003193357600960945 -9.993081690759906e-05 0 0.000318872726184312 -0.000102164196774592 0 0.000318493773781715 -0.0001043791223538771 0 0.0003182143824280969 -0.0001065706967651841 0 0.0003179909637589195 -0.0001087498146763972 0 0.0003239116965839489 -0.0001124425879359294 0 0.0003239056825124076 -0.0001145781411695957 0 0.0003239594655994192 -0.0001166971212184849 0 0.0003240712144558564 -0.0001188000775911052 0 0.0003242310353281723 -0.0001208896795633513 0 0.0003305920607773523 -0.0001224451290896273 0 0.0003308587080028367 -0.0001245140163944079 0 0.0003311738459741666 -0.0001265681464892239 0 0.0003315202108377785 -0.0001286117849513858 0 0.0003319108551330735 -0.0001306435179862973 0 0.0003323919817364296 -0.000132643494939316 0 0.0003401323868458098 -0.0001360554101488353 0 0.0003328838985447436 -0.0001346420475745151 0 0.0003406692792564561 -0.000138038578823193 0 0.0003412566701408198 -0.0001400124975708666 0 0.0003418879297550446 -0.00014197031749606 0 0.0003426243141920242 -0.0001439038548782129 0 0.0003433714344033089 -0.0001458324749919275 0 0.0003502279228889885 -0.0001474268749417717 0 0.0003509673062139932 -0.0001493579933848181 0 0.0003517321936629105 -0.0001512801612422798 0 0.0003525219778446928 -0.0001531933688427008 0 0.0003594157668284963 -0.0001548582740926392 0 0.0003601392705762034 -0.0001567606827449314 0 0.0003638683428070687 -0.00015973921740805 0 0.0003612556889601141 -0.0001585210623897539 0 0.0004427221032839509 -4.310226150440522e-05 0 0.0004367945111595534 -4.511445806189704e-05 0 0.0004301781635866803 -4.516238380383651e-05 0 0.0004231347311239452 -4.556203989087506e-05 0 0.0004145671789715206 -4.106650949898245e-05 0 0.000406974031905483 -4.159734799868351e-05 0 0.0003993033977077322 -4.222173746716949e-05 0 0.0003915324272047534 -4.298983225497153e-05 0 0.0003839242892813874 -4.388342679654324e-05 0 0.0003764472812969408 -4.492892840864049e-05 0 0.0003691188704865635 -4.613603048475973e-05 0 0.0003620246379761161 -4.748746271477377e-05 0 0.000355138583950748 -4.899651748855987e-05 0 0.0003515911686782958 -4.836465209287268e-05 0 0.0003456045654521359 -5.022665174751815e-05 0 0.0003399065928399258 -5.218012035907868e-05 0 0.0003344941231220889 -5.421751548879079e-05 0 0.0003336670262894205 -5.460706488553022e-05 0 0.000329061455481065 -5.682546354635936e-05 0 0.0003247794698123308 -5.906272160815283e-05 0 0.0003207391631312291 -6.134524327793743e-05 0 0.000316927587368365 -6.367047042440273e-05 0 0.0003132567044038514 -6.606527020412066e-05 0 0.0003099094972084013 -6.843296792434872e-05 0 0.0003122481839291684 -6.949437949130712e-05 0 0.0003094623976118978 -7.18995677713087e-05 0 0.0003069038666022807 -7.429239897730649e-05 0 0.0003046076544114076 -7.664306692879637e-05 0 0.0003025094761345017 -7.899025461981482e-05 0 0.0003005622980892587 -8.133697825475224e-05 0 0.0003046408120440218 -8.258547287135961e-05 0 0.0003030033357576249 -8.494808696073667e-05 0 0.0003122393251808786 -8.772145171148255e-05 0 0.0003137992793748604 -9.840354600522885e-05 0 0.0003178392726645821 -0.000110911517450184 0 0.00031775692387069 -0.0001130557307762706 0 0.0003244593423254761 -0.0001229604631303507 0 0.0003334476784523797 -0.0001366251466945473 0 0.0003441062806555829 -0.0001477640273215435 0 0.0003533354279223394 -0.0001550979549948901 0 0.0003075222434119391 -8.629355026731264e-05 0 0.000444801656747384 -5.179172426777179e-05 0 0.0004405041047893815 -4.901795481296645e-05 0 0.0004144358735258916 -4.656581934713241e-05 0 0.0003485300791161047 -5.063570697769867e-05 0 0.0003293740719546143 -5.632556962963017e-05 0 0.0003068435225731258 -7.07884963870905e-05 0 0.0002987257171920106 -8.369501660839458e-05 0 0.0003015171374966474 -8.729523556242746e-05 0 0.0003062407348386191 -8.862612609452657e-05 0 0.0003111139983383253 -9.004846208946071e-05 0 0.0003101098605084845 -9.235541766057612e-05 0 0.0003092081707982849 -9.464885344527797e-05 0 0.0003084077655531589 -9.692399092069799e-05 0 0.0003077015942114303 -9.91840331111744e-05 0 0.0003132259255701289 -0.0001006486913294621 0 0.0003127469758039748 -0.0001028737192772234 0 0.0003123542719903301 -0.0001050798402164428 0 0.0003120435044941327 -0.0001072671418984883 0 0.0003118279718498727 -0.0001094315284006895 0 0.0003116668875370715 -0.0001115839102000526 0 0.0003177404579983544 -0.0001151825884638294 0 0.0003177910908372094 -0.0001172916183766169 0 0.0003179002444351444 -0.0001193845286767107 0 0.0003180630451562262 -0.000121462736294631 0 0.0003182802952741819 -0.0001235251812178563 0 0.0003247234799943347 -0.0001250196812225696 0 0.0003250350668278868 -0.0001270639393299308 0 0.0003253883745215881 -0.0001290891821286209 0 0.0003258189548516415 -0.0001310910486810801 0 0.0003263459049117601 -0.0001330851344269865 0 0.0003269034489189257 -0.000135050707865268 0 0.0003345406415637092 -0.0001384548715980747 0 0.0003274960864601764 -0.0001370269607818538 0 0.0003351129598552997 -0.0001404200124854701 0 0.0003357457288553797 -0.0001423653410468378 0 0.0003364620789715946 -0.0001442924390132448 0 0.0003372045204313823 -0.0001462162329042864 0 0.0003379739651023906 -0.000148127477175709 0 0.000344847407800745 -0.0001496869231630235 0 0.000345615260888277 -0.0001516007107768592 0 0.0003464090154919822 -0.0001535050792874799 0 0.0003473086540095025 -0.0001553475460086047 0 0.0003540334333167957 -0.0001570980689459775 0 0.0003543444676785244 -0.0001592264711937018 0 0.0003573318149321061 -0.0001606052249919731 0 0.0004303707366865399 -5.029595509028054e-05 0 0.0004242915733290483 -5.054685612940272e-05 0 0.000417512141212818 -5.032349123016958e-05 0 0.000406874965697912 -4.596583668202112e-05 0 0.0003989954034902214 -4.635560231152735e-05 0 0.0003909663775751801 -4.683242603053862e-05 0 0.0003828771226572532 -4.747613263983614e-05 0 0.0003750370302608391 -4.826120555046215e-05 0 0.0003672998888278489 -4.925165145571296e-05 0 0.0003597817964148494 -5.041397585874529e-05 0 0.000352561173907579 -5.17305516582061e-05 0 0.0003455980885108419 -5.321362151931166e-05 0 0.0003422071171992535 -5.239654765976983e-05 0 0.0003362123425081558 -5.425323864694691e-05 0 0.0003305393769482287 -5.619981045434037e-05 0 0.0003251555573298346 -5.823708045081342e-05 0 0.0003245549801203842 -5.848917515903784e-05 0 0.0003200601244391996 -6.068571778785667e-05 0 0.0003158422306626985 -6.292458868943743e-05 0 0.0003119250046898911 -6.518546236844211e-05 0 0.0003082092061218474 -6.749732493698873e-05 0 0.0003046401184894201 -6.987300284346923e-05 0 0.0003014065172095184 -7.222110768425596e-05 0 0.0003039745548635862 -7.315639717446003e-05 0 0.000301316535253174 -7.553043359463287e-05 0 0.0002988707390394301 -7.78976385100173e-05 0 0.0002966979381634399 -8.02293119262897e-05 0 0.0002946761523862639 -8.256281035374546e-05 0 0.0002927684874735502 -8.490819630089293e-05 0 0.0002970250314138767 -8.604835579163471e-05 0 0.0002954871465349483 -8.838184001737857e-05 0 0.0003050777319460028 -9.094428322380419e-05 0 0.0003070965252316531 -0.0001014258088486435 0 0.0003115784715790805 -0.0001137175873423079 0 0.0003115570362738591 -0.0001158338410409009 0 0.000318548987334898 -0.000125572501337523 0 0.0003282144573784244 -0.0001389887364117395 0 0.000338717722798924 -0.0001500416487946139 0 0.0003482994662861375 -0.0001572089360751225 0 0.0003002063357876 -8.961268289167079e-05 0 0.0004386785432137257 -5.730009186357166e-05 0 0.0004341776671073606 -5.352183171296045e-05 0 0.0004106966954585203 -5.327861583716851e-05 0 0.0004064393825547706 -5.065223546320969e-05 0 0.0003389493876261104 -5.483637016421271e-05 0 0.0003200987912423236 -6.033717178490944e-05 0 0.0002984584482868816 -7.455640226708195e-05 0 0.0002910162313226743 -8.724252290470442e-05 0 0.0002941138975217486 -9.069287115882824e-05 0 0.0002990056202282586 -9.191988199349001e-05 0 0.0003040374482314668 -9.324407186690859e-05 0 0.0003031148404600714 -9.552422084929956e-05 0 0.000302302328844636 -9.778522315141468e-05 0 0.0003015805686230869 -0.0001000314749367521 0 0.0003009551813090712 -0.0001022604337170492 0 0.0003065967043526438 -0.0001036421750422499 0 0.0003061902704006382 -0.0001058379777897955 0 0.0003058687928711505 -0.0001080143537371224 0 0.0003056274270070724 -0.0001101718561239386 0 0.000305470420171413 -0.0001123090499947342 0 0.0003053775229897017 -0.000114430333234418 0 0.0003115998053195394 -0.0001179328419214091 0 0.0003117065320346183 -0.0001200143499130005 0 0.0003118686002131377 -0.0001220805685538576 0 0.0003120846367742324 -0.0001241314347899568 0 0.0003123529381467632 -0.0001261669533670112 0 0.0003188669567763184 -0.000127605066517321 0 0.0003192278786009362 -0.0001296231777169128 0 0.0003196408915682297 -0.0001316147189139351 0 0.0003202298543632712 -0.0001335838797969239 0 0.0003208298316974554 -0.0001355273237684031 0 0.0003214727997312979 -0.0001374675711796293 0 0.0003289353579449353 -0.0001408716002364482 0 0.0003221069057697073 -0.0001394047403269117 0 0.0003295881584239681 -0.0001427917000994521 0 0.0003303089845924918 -0.0001447109626129939 0 0.0003310527701283904 -0.0001466200577718385 0 0.00033182281498957 -0.0001485242176721514 0 0.00033257746014933 -0.0001504222109132679 0 0.0003394892710785329 -0.0001519457758960734 0 0.0003402871233005139 -0.0001538406003031802 0 0.0003411461495065096 -0.000155692611131161 0 0.0003424899139172714 -0.0001574975203118177 0 0.0003485196071432895 -0.0001590540888747217 0 0.0003507905672137108 -0.000161490610966809 0 0.0004261019303296187 -5.76929381664403e-05 0 0.0004177236515496277 -5.605211012642073e-05 0 0.000399107700790921 -5.121101930610134e-05 0 0.0003906685336839407 -5.131571918743132e-05 0 0.0003822401723313355 -5.162196084244704e-05 0 0.000373912606593554 -5.213181234521976e-05 0 0.0003657911600132693 -5.281735923110677e-05 0 0.0003578021906524686 -5.37467407300225e-05 0 0.0003501432789949944 -5.485330973406455e-05 0 0.0003428160959239573 -5.612825913542826e-05 0 0.0003358178295386897 -5.757580632613168e-05 0 0.0003326445489546891 -5.656985550072778e-05 0 0.0003266717766816944 -5.841432299678314e-05 0 0.000321033055698866 -6.035226964650102e-05 0 0.0003157233060003661 -6.237359750271353e-05 0 0.0003153873522783069 -6.24775824540521e-05 0 0.0003109683711630296 -6.466900014674557e-05 0 0.0003068410284514916 -6.689837412681302e-05 0 0.0003029913381865361 -6.915872048888836e-05 0 0.0002993582749367143 -7.146394925360301e-05 0 0.0002960170976196179 -7.377091494237822e-05 0 0.0002928999359743053 -7.609641742048241e-05 0 0.0002957578066455706 -7.688463332451603e-05 0 0.0002932340293781514 -7.922535445584189e-05 0 0.0002908638077465626 -8.157894142638291e-05 0 0.0002887604099845474 -8.389572271115753e-05 0 0.0002867997114062766 -8.621597371186544e-05 0 0.0002849833095004546 -8.85333374716012e-05 0 0.0002894276659832823 -8.956135150133289e-05 0 0.0002880183112141283 -9.185205816595694e-05 0 0.0002979360928399851 -9.420605282027986e-05 0 0.0003004276610119243 -0.0001044700508999603 0 0.0003053525955197036 -0.0001165340105099699 0 0.0003053923489822183 -0.0001186205211920241 0 0.0003126713161965332 -0.0001281874626542873 0 0.0003227684250082327 -0.0001413303008509372 0 0.0003333540007786078 -0.0001523157345195813 0 0.0003441334596929245 -0.0001590359064235402 0 0.0003479694691116823 -0.000160730831743663 0 0.000292908954291417 -9.297597133089573e-05 0 0.0004319042032948015 -6.274031646897158e-05 0 0.0004011094951417119 -5.700055839364698e-05 0 0.000409376122538421 -6.05744350924314e-05 0 0.0003291910277211479 -5.915509415866396e-05 0 0.0003107413321856371 -6.446281556455955e-05 0 0.0002900645695053858 -7.840780410325038e-05 0 0.0002833493916758139 -9.083081115565402e-05 0 0.0002867580101900194 -9.412262949807242e-05 0 0.000291797786818951 -9.525000547297483e-05 0 0.0002969882677231987 -9.647285708372728e-05 0 0.0002961556240211708 -9.872003105159188e-05 0 0.0002954297366380885 -0.0001009470824211147 0 0.000294789369389862 -0.0001031596771113894 0 0.0002942425186891742 -0.0001053571287080546 0 0.0003000022736045038 -0.0001066551105771337 0 0.0002996698077864261 -0.0001088190116782032 0 0.0002994200773230917 -0.0001109634941474332 0 0.0002992506233244433 -0.0001130885788837956 0 0.0002991545950208892 -0.0001151953834553239 0 0.0002991272503369911 -0.0001172847162116235 0 0.0003054947305247816 -0.0001206899053717938 0 0.00030565590703593 -0.000122742991884703 0 0.0003058722188737069 -0.000124780495550747 0 0.0003061415635182176 -0.0001268025260192967 0 0.0003064597105313001 -0.0001288101669317275 0 0.0003130365727083249 -0.0001301939716236089 0 0.000313447307414513 -0.000132186201845853 0 0.0003140187211080316 -0.0001341154694595809 0 0.0003146609403848201 -0.0001360516652867051 0 0.0003153859099803319 -0.000137965473744369 0 0.0003159922523029733 -0.0001398812097694816 0 0.0003234279477958893 -0.0001432411223975844 0 0.0003166121106856523 -0.0001418055059593683 0 0.0003241389030084298 -0.0001451469558652163 0 0.0003248967814163232 -0.0001470466336966721 0 0.000325666938612986 -0.0001489434541939442 0 0.0003264279615302513 -0.0001508291686950879 0 0.0003272095641661891 -0.0001527112904422807 0 0.0003341566476852893 -0.0001542000512795974 0 0.0003349897161323289 -0.0001560697212753827 0 0.0003358473106371377 -0.0001582837290556152 0 0.0003389959083985832 -0.0001595960617322086 0 0.0003424188906538106 -0.0001608992325316649 0 0.000344245105635237 -0.0001623951740178429 0 0.0004174349603339153 -6.385657659680083e-05 0 0.0004245501599726369 -6.803274395309461e-05 0 0.0003911238162822618 -5.669407130852543e-05 0 0.0003819487520054433 -5.645578435578004e-05 0 0.0003731191925020128 -5.655861827922548e-05 0 0.0003645139707556648 -5.691318559337512e-05 0 0.0003561281854453423 -5.752564371726722e-05 0 0.0003480012478758516 -5.8377873106088e-05 0 0.0003402015627065573 -5.942669959473897e-05 0 0.0003328085442019509 -6.066259297866907e-05 0 0.0003257883075054642 -6.207986752066269e-05 0 0.0003229061784926974 -6.087162227941637e-05 0 0.0003169827728664338 -6.269781421601786e-05 0 0.0003114113110533545 -6.462119313463708e-05 0 0.0003061942531397145 -6.662270935453414e-05 0 0.000306115341175956 -6.659177856279738e-05 0 0.0003018027879855974 -6.876488935224122e-05 0 0.0002977682759850198 -7.098302229773569e-05 0 0.0002940141462515828 -7.323057471941647e-05 0 0.0002905276760120128 -7.55009254395643e-05 0 0.0002872738570645485 -7.779513426365797e-05 0 0.000284299593168965 -8.008308478530782e-05 0 0.0002874316772158464 -8.072717835516666e-05 0 0.0002850167667026847 -8.303992009432173e-05 0 0.000282814644574704 -8.534069320326766e-05 0 0.0002807994936418484 -8.763156829562199e-05 0 0.0002789539836484059 -8.991241212733226e-05 0 0.0002772660126641512 -9.218722557154796e-05 0 0.0002818936352941274 -9.310227228941938e-05 0 0.0002805957294330846 -9.535218253920018e-05 0 0.0002908307442678448 -9.7498382015596e-05 0 0.0002937961233243629 -0.0001075319968469354 0 0.0002991648372626246 -0.0001193569693068083 0 0.0002992650855177728 -0.0001214122904929194 0 0.0003068269836555045 -0.0001308031544791272 0 0.0003172565570728011 -0.0001437208941379243 0 0.0003280172744272201 -0.0001545842267783985 0 0.00028563735126263 -9.637274785802324e-05 0 0.0003999751632298212 -6.55971541531847e-05 0 0.0004086130616922238 -6.889258685856148e-05 0 0.000391168434607348 -6.318139509029153e-05 0 0.0003191590113516097 -6.364505233216206e-05 0 0.0003012933174257432 -6.870221935301719e-05 0 0.0002815792776952044 -8.236550498503907e-05 0 0.0002757498046003241 -9.444354534802275e-05 0 0.0002794381236097404 -9.758300449337393e-05 0 0.0002846424350344846 -9.860342116705096e-05 0 0.0002899778591300419 -9.972762743328983e-05 0 0.0002892363722678028 -0.0001019392588503876 0 0.0002885978422673689 -0.0001041297460502558 0 0.0002880464788370813 -0.0001063041007115183 0 0.0002875900888507916 -0.0001084611469154147 0 0.0002934485825303158 -0.0001096828427290951 0 0.0002931890640647172 -0.0001118127247831115 0 0.0002930120673369585 -0.0001139227922993536 0 0.0002929109031145146 -0.0001160141451554707 0 0.0002928810925466397 -0.0001180875373802483 0 0.0002929176209567581 -0.0001201436022929625 0 0.000299425145411211 -0.0001234511033776981 0 0.0002996426640000896 -0.0001254737020327697 0 0.0002999139959839773 -0.0001274808376460036 0 0.0003002363070139217 -0.0001294729915319556 0 0.0003006079908332174 -0.0001314501646492822 0 0.0003072401978635759 -0.0001327820456453695 0 0.000307697838834175 -0.0001347472227673223 0 0.0003083337482817582 -0.0001366504532485117 0 0.0003091701395734225 -0.0001385068785872113 0 0.000309793880290537 -0.0001404245308748613 0 0.0003104211517050031 -0.0001423332774004703 0 0.000317971323403184 -0.0001456151527290619 0 0.0003110705425336421 -0.0001442352460862836 0 0.0003187138155666497 -0.0001475060328038341 0 0.0003195042227540732 -0.0001493858844510182 0 0.0003202673928492336 -0.0001512641334600575 0 0.0003210562108845507 -0.0001531330735363683 0 0.0003218694497975727 -0.0001549936467405676 0 0.0003288496214937326 -0.0001564487202304308 0 0.0003297050531753454 -0.00015830447023129 0 0.0003338842594876857 -0.0001605847061525229 0 0.0003350543092147928 -0.0001619345995634555 0 0.0003376959609302227 -0.0001633186611482353 0 0.0004165908007677465 -7.327545060827473e-05 0 0.0003819425688942491 -6.196276043312749e-05 0 0.0003726954312367948 -6.164035944924314e-05 0 0.0003635802094276685 -6.157938019937909e-05 0 0.0003547070453233384 -6.181465025275942e-05 0 0.0003461144971167822 -6.233481570696716e-05 0 0.0003378139817565481 -6.311715937587578e-05 0 0.0003299694372376087 -6.411452410882485e-05 0 0.0003224914910372208 -6.535759667145322e-05 0 0.0003154780514867238 -6.674494744151395e-05 0 0.0003129352939020252 -6.533119264764423e-05 0 0.0003070809932306585 -6.713717079210637e-05 0 0.000301604157710128 -6.903758019915541e-05 0 0.0002964956559755836 -7.101583602597643e-05 0 0.0002967748832506051 -7.081213361704233e-05 0 0.0002925513390948156 -7.297546364574837e-05 0 0.0002886374201939233 -7.516898351933312e-05 0 0.0002850085860408264 -7.738835403434234e-05 0 0.0002816396695644568 -7.963359347661879e-05 0 0.0002784712078564193 -8.191339284021828e-05 0 0.0002756661106660814 -8.414997714583782e-05 0 0.0002790830977526166 -8.464497554520858e-05 0 0.0002768334176641248 -8.690422972891449e-05 0 0.0002747631244983784 -8.916237113173174e-05 0 0.0002728810000480154 -9.140873646168861e-05 0 0.0002711578053781004 -9.364517798837064e-05 0 0.0002696009922876077 -9.587263459616183e-05 0 0.0002744075499811593 -9.667196618142141e-05 0 0.0002732217194629314 -9.887760416406414e-05 0 0.0002837714387309845 -0.0001008133813129436 0 0.0002872253697221413 -0.0001105993456260518 0 0.0002930239660835245 -0.0001221808988510666 0 0.00029318165243361 -0.0001242044556299878 0 0.0003010223971152611 -0.0001334150436043612 0 0.0003117785682400733 -0.0001461173650744857 0 0.0003227071079780056 -0.0001568456979780115 0 0.0003299550569658724 -0.0001603003907502038 0 0.0002784214394408663 -9.979131518731607e-05 0 0.0003988575566110303 -7.3991102602476e-05 0 0.0003902901341987483 -7.067498100115246e-05 0 0.0004080634469050527 -7.84120174619769e-05 0 0.0003818459660620056 -6.833778834308865e-05 0 0.0003089636473981031 -6.824390050765877e-05 0 0.0002917437823863572 -7.305701843674099e-05 0 0.0002730880759568865 -8.63887865416968e-05 0 0.0002681967497363014 -9.808363592237834e-05 0 0.0002721741812403979 -0.0001010631273449874 0 0.0002775381548472112 -0.0001019763460466108 0 0.0002830111833722418 -0.0001030052625345339 0 0.0002823612564748161 -0.0001051766762025141 0 0.0002818114914394302 -0.0001073275225454683 0 0.0002813526477841162 -0.000109460533975139 0 0.0002809808021616207 -0.0001115785979973008 0 0.0002869408677564723 -0.0001127195267626293 0 0.0002867519072324052 -0.0001148142999901181 0 0.0002866484737740591 -0.0001168875209919436 0 0.0002866142974540784 -0.0001189437883524148 0 0.0002866504903460424 -0.0001209819500329115 0 0.0002867579057967093 -0.0001230006392572239 0 0.0002933953021998404 -0.0001262123894023252 0 0.0002936693811046464 -0.0001282031253557889 0 0.000293995289937034 -0.000130178751726308 0 0.0002943706555602885 -0.0001321396318082612 0 0.0002947916528292875 -0.000134087535399092 0 0.0003014805533973249 -0.0001353666730363108 0 0.0003020022788326627 -0.0001372874639423522 0 0.0003027924884539972 -0.0001391427522270715 0 0.0003035458965516336 -0.0001410007786268204 0 0.0003042191025188967 -0.0001428931203828782 0 0.0003048696523294113 -0.0001447848700898518 0 0.0003125352556763949 -0.0001479942041395923 0 0.0003055767990972293 -0.0001466519436091921 0 0.0003133175462831394 -0.000149862412304326 0 0.0003140950866722109 -0.0001517254279032487 0 0.000314894159244858 -0.0001535809672910418 0 0.0003157134054887785 -0.0001554288633450778 0 0.0003165570625730393 -0.0001572680939343641 0 0.0003235685018440373 -0.0001586905303156793 0 0.0003245110856923054 -0.0001604420577912239 0 0.0003289015779937748 -0.0001626065965506074 0 0.0003311436880235561 -0.0001642607649092435 0 0.00037262602728386 -6.739167128234231e-05 0 0.0003630473660687594 -6.688385898260689e-05 0 0.0003536419369046024 -6.667731077326342e-05 0 0.0003443895938789187 -6.681866794091251e-05 0 0.0003356908044389999 -6.724250512265203e-05 0 0.0003273585316208826 -6.795260155798015e-05 0 0.0003194493769996421 -6.893577909142759e-05 0 0.0003117565115986712 -7.027445316356276e-05 0 0.000305045528867887 -7.147299295846823e-05 0 0.000302817759960021 -6.990272815676952e-05 0 0.0002970638053199494 -7.168204850570684e-05 0 0.0002917057366885056 -7.355447847915615e-05 0 0.0002867320720663625 -7.550137614118166e-05 0 0.00028733538734441 -7.514810773637441e-05 0 0.0002832549781890316 -7.727739799545949e-05 0 0.0002795078100183284 -7.94243165726728e-05 0 0.0002760189198331313 -8.160631780189994e-05 0 0.0002727675054842804 -8.382242047691372e-05 0 0.000269726201854291 -8.607167564527448e-05 0 0.0002670517050318419 -8.827007468956637e-05 0 0.0002707436094533933 -8.861950647683187e-05 0 0.0002686969441246779 -9.080743516866263e-05 0 0.0002667564396792986 -9.302007428592721e-05 0 0.0002650059388147785 -9.521675544419891e-05 0 0.0002634080855479437 -9.740657769910297e-05 0 0.0002619697960423425 -9.958582743085905e-05 0 0.0002669728764280155 -0.0001002639594420534 0 0.0002659027849710567 -0.0001024205156606325 0 0.0002767579789179083 -0.0001041475741856239 0 0.0002806967191604502 -0.00011367527449039 0 0.00028694730797005 -0.0001249975575052978 0 0.0002871594491874502 -0.000126989004925542 0 0.0002952553716170545 -0.0001360225258776194 0 0.0003063482937632439 -0.000148510351686062 0 0.0003178919186181849 -0.0001590426167093791 0 0.0003250270945054555 -0.0001619680392796673 0 0.0002712574220562212 -0.000103228023351049 0 0.0003989724937009987 -8.342604077530984e-05 0 0.0003878456096539155 -7.969528472602039e-05 0 0.0003818415249310799 -7.463928808584542e-05 0 0.0003729450366421454 -7.391088652050882e-05 0 0.0002984924750090962 -7.300161619647542e-05 0 0.0002821261526916088 -7.75082439332151e-05 0 0.0002646397756694137 -9.045425752629484e-05 0 0.000260703521530594 -0.0001017405291694515 0 0.0002649659505736827 -0.0001045573676430456 0 0.00027047561724465 -0.0001053688732239339 0 0.0002760933215238366 -0.0001062970418416353 0 0.0002755353408747738 -0.0001084259941840319 0 0.0002750774190911597 -0.0001105349046104022 0 0.00027470710654606 -0.0001126245403433066 0 0.0002744268347409636 -0.0001146962541028146 0 0.0002804878250836235 -0.0001157572770138721 0 0.0002803605682713059 -0.0001178190853682716 0 0.000280339346959036 -0.0001198507719027935 0 0.000280391591513762 -0.0001218618014219502 0 0.0002804974427588555 -0.0001238617012222665 0 0.0002806903472301548 -0.0001258394933725693 0 0.0002874071854991913 -0.000128970469112249 0 0.0002877374406114977 -0.0001309282107652638 0 0.0002881178630089714 -0.000132871397945517 0 0.0002885449164654017 -0.0001348006050189207 0 0.0002890180837472567 -0.0001367166948071017 0 0.0002957991303145673 -0.0001379284076694589 0 0.0002965185481255009 -0.0001397849467227561 0 0.0002972423027847923 -0.0001416444308624006 0 0.0002980056199186658 -0.0001434906060956408 0 0.0002986625092244852 -0.0001453632250683404 0 0.0002993546311477188 -0.0001472252545495396 0 0.0003071321642766676 -0.0001503653595166854 0 0.0003001294336519363 -0.0001490620038432662 0 0.0003079180248482212 -0.0001522143684912466 0 0.0003087216275199016 -0.0001540563258666384 0 0.0003095490588739223 -0.0001558899323435676 0 0.0003103997786079758 -0.0001577153827688333 0 0.0003114879697669239 -0.0001597757409610747 0 0.0003186339104232963 -0.0001608746705323916 0 0.0003198922622656746 -0.000162530325142758 0 0.0003245888653124584 -0.000165221120651764 0 0.0003218954756918691 -0.0001639604286099351 0 0.0003630262688113259 -7.290633195209177e-05 0 0.0003530030639202108 -7.216057443327384e-05 0 0.000343242296196225 -7.179999448010202e-05 0 0.0003338434588355582 -7.184677619638928e-05 0 0.0003249906025890611 -7.220965267472708e-05 0 0.0003166434512527241 -7.286182343155452e-05 0 0.0003083523353749569 -7.4053272832399e-05 0 0.0003010493130717667 -7.513166829799647e-05 0 0.0002943394539878378 -7.633680822889343e-05 0 0.0002924857053588301 -7.461310130074939e-05 0 0.0002869382568728338 -7.632371184157368e-05 0 0.0002817420431120753 -7.815507399971269e-05 0 0.0002769270927837259 -8.006371888313093e-05 0 0.0002778719134455542 -7.956161341984411e-05 0 0.0002739674195660228 -8.164167792929786e-05 0 0.0002703310664787205 -8.376899097324287e-05 0 0.0002670171238400835 -8.58995638465707e-05 0 0.0002639760836245146 -8.804417613112761e-05 0 0.0002611120180015779 -9.02345235571763e-05 0 0.0002585273424914421 -9.241145079648511e-05 0 0.0002624628137887746 -9.262540812261608e-05 0 0.0002605984533147258 -9.474681633114318e-05 0 0.0002588025361321144 -9.690452419884951e-05 0 0.0002571910805931146 -9.904612689680696e-05 0 0.0002557316968852676 -0.0001011790797696058 0 0.0002544242372664168 -0.0001033027789181288 0 0.0002596003001579313 -0.0001038683063188362 0 0.0002586441049280289 -0.0001059732676643463 0 0.0002697981086816196 -0.0001074931000434134 0 0.0002742236530932443 -0.0001167526036867429 0 0.0002808962842527416 -0.0001278189136757928 0 0.0002811374557825204 -0.0001297853002340152 0 0.0002896558831784489 -0.0001385913095197143 0 0.0003009371605279331 -0.0001508949793971129 0 0.000314304142272642 -0.0001608795767322266 0 0.000264156810399712 -0.0001066736276922229 0 0.0003893482756412223 -8.83080322540143e-05 0 0.0003758152570431062 -8.047713052028511e-05 0 0.000363970508750205 -7.996594235997465e-05 0 0.0002877098741915542 -7.793265361335323e-05 0 0.0002724873090814267 -8.202945484956113e-05 0 0.0002562616962508802 -9.454294430888847e-05 0 0.0002532737180041924 -0.0001054062718198551 0 0.0002578199013736354 -0.0001080579250216806 0 0.0002634748609822223 -0.0001087669238498022 0 0.0002692301170020999 -0.0001095970576693529 0 0.0002687644123427109 -0.0001116811210018975 0 0.000268396112019569 -0.0001137452427763225 0 0.0002681197551041223 -0.000115789717547186 0 0.0002679273117247393 -0.0001178143530627689 0 0.0002741076471821083 -0.0001187856821969427 0 0.0002740821849225207 -0.0001207918604111349 0 0.0002741643366816227 -0.0001227799457801307 0 0.0002743181655324605 -0.0001247404042094126 0 0.0002744709965970856 -0.0001267160893944469 0 0.0002746412297951963 -0.0001286914357701535 0 0.0002814629103509855 -0.0001317219688019063 0 0.0002818482141075412 -0.000133645821938882 0 0.0002822811321624421 -0.000135556038669359 0 0.0002827937782805625 -0.0001374399884645655 0 0.0002834390610502068 -0.0001393037686415398 0 0.000290315621719632 -0.0001404491426612923 0 0.0002910177135725202 -0.0001422907532020015 0 0.0002917633686312226 -0.0001441327570379218 0 0.000292442570470105 -0.0001459754248583147 0 0.000293144561704086 -0.0001478184165814402 0 0.0002938992256477323 -0.0001496399697814915 0 0.0003017369251990565 -0.000152730136228324 0 0.0002947135853637115 -0.0001514595293220572 0 0.0003025438005659478 -0.0001545580131328354 0 0.0003033770806059896 -0.0001563771230907414 0 0.0003042348660355093 -0.0001581882119961387 0 0.0003052361673607088 -0.000159952630917323 0 0.0003091919679664424 -0.0001621523739681875 0 0.0003132143489919036 -0.0001631306514638574 0 0.0003154318686645903 -0.0001648359241015618 0 0.0003180320937782634 -0.0001661993038178158 0 0.0003803964345970209 -8.606217067601338e-05 0 0.0003529779520811314 -7.84252713743941e-05 0 0.0003423762993298656 -7.74138662064561e-05 0 0.0003323786728505358 -7.695967907586309e-05 0 0.0003229254413332058 -7.690955644323068e-05 0 0.0003140299999543557 -7.721110088908074e-05 0 0.0003052300371647016 -7.812471193564839e-05 0 0.0002974304914546973 -7.897642123481077e-05 0 0.0002902063676545631 -8.003187393763258e-05 0 0.000283435821627258 -8.132325146196042e-05 0 0.0002821610259148923 -7.935308198008506e-05 0 0.0002767794838500392 -8.102551074167408e-05 0 0.0002717429124204433 -8.282069631254999e-05 0 0.0002671051807727071 -8.468643951657139e-05 0 0.0002684036571954288 -8.403861200349127e-05 0 0.0002646605729787201 -8.607778343472776e-05 0 0.0002611212875751567 -8.819121739530178e-05 0 0.0002580696233807485 -9.022665497657965e-05 0 0.000255212028413728 -9.23101340331873e-05 0 0.0002525024603010093 -9.445109267088604e-05 0 0.0002500921582127919 -9.656558634369768e-05 0 0.0002542516723834076 -9.6651844188619e-05 0 0.000252514177285578 -9.872354420413752e-05 0 0.0002509145807211474 -0.0001008042828303133 0 0.0002494450484515067 -0.0001028863874901865 0 0.0002481152510934787 -0.0001049631159725489 0 0.0002469464039722812 -0.0001070238789462804 0 0.0002522919837028683 -0.0001074782788121828 0 0.0002514537349799319 -0.0001095274721368691 0 0.0002628970701241048 -0.0001108431160935873 0 0.000267815785412248 -0.0001198224122502825 0 0.0002748887764393826 -0.0001306345057194749 0 0.0002751594244301031 -0.0001325718769593753 0 0.000284139907330372 -0.0001411437747152111 0 0.0002955423362142861 -0.000153274651502305 0 0.0003060620729277174 -0.0001614582264464164 0 0.0002571191233097455 -0.0001101222174762643 0 0.00037904889995522 -9.315622801802873e-05 0 0.0003681400037064734 -8.787156505913396e-05 0 0.0003539121161227027 -8.576821081318625e-05 0 0.0002772230187099108 -8.275169767427532e-05 0 0.0002628506182589594 -8.660436418674292e-05 0 0.0002479900006946585 -9.863554044185427e-05 0 0.0002459092752839924 -0.0001090743846535069 0 0.0002507419365862263 -0.0001115570904170155 0 0.0002565359718539723 -0.0001121661718119868 0 0.0002624248062880817 -0.0001128992708858105 0 0.0002620517738858983 -0.0001149358398187703 0 0.0002617723658978815 -0.0001169531752146661 0 0.0002615927575401083 -0.0001189426167858752 0 0.0002615053902400011 -0.0001209132597566097 0 0.0002677823506066662 -0.0001218072113425388 0 0.0002678975062700143 -0.0001237651942739802 0 0.0002680807771001564 -0.0001257027822987033 0 0.000268346678133762 -0.0001275971518231816 0 0.0002684261714545933 -0.0001295889977493332 0 0.0002686071177878714 -0.0001315418614568538 0 0.0002755640945441565 -0.000134463672685188 0 0.0002760412036369635 -0.0001363305796319477 0 0.0002766048610709444 -0.0001381889276064671 0 0.0002772313460089101 -0.000140036119764638 0 0.0002779297810436356 -0.0001418787573449166 0 0.0002848260376872472 -0.0001429696662856137 0 0.0002855290950515087 -0.0001447900773982602 0 0.0002862158507913581 -0.0001466171679995065 0 0.0002869228182005773 -0.0001484451471533888 0 0.000287694827042635 -0.0001502509961168225 0 0.0002885230087119421 -0.0001520496251968757 0 0.000296358357896315 -0.0001550867828877492 0 0.0002893412726346448 -0.0001538484724477696 0 0.000297198224511354 -0.0001568903850628739 0 0.0002980627686880163 -0.0001586859562068432 0 0.0002989507206494093 -0.0001604738913140191 0 0.0003000534085523108 -0.0001624120368224869 0 0.0003034317116653626 -0.0001632883661823355 0 0.0003061097009218633 -0.0001645847729990496 0 0.0003087836978178115 -0.0001658878110558073 0 0.000311473995920495 -0.0001671948272921993 0 0.0003422395349838467 -8.376408138547282e-05 0 0.0003313581195482427 -8.261559864387019e-05 0 0.0003212119926399097 -8.207715966300697e-05 0 0.000311644232789621 -8.202550138123994e-05 0 0.0003023411194688969 -8.255080592634565e-05 0 0.0002940288064685356 -8.311718999989093e-05 0 0.0002863242335190587 -8.394604485809404e-05 0 0.0002791810047026577 -8.501472442441088e-05 0 0.0002726048313592762 -8.626091957383875e-05 0 0.0002717519748645817 -8.41712863090606e-05 0 0.0002665115866511637 -8.581808410885311e-05 0 0.0002617305107959629 -8.75359501347329e-05 0 0.0002572914315226888 -8.935220857658994e-05 0 0.0002589486223346485 -8.856523524319096e-05 0 0.0002553713894303651 -9.056077854599421e-05 0 0.0002521386470001965 -9.256238238350252e-05 0 0.0002492267285115156 -9.456483258072153e-05 0 0.0002464742150872139 -9.661591895661315e-05 0 0.0002439384199974789 -9.869523968111811e-05 0 0.0002417306027347207 -0.0001007303835055372 0 0.0002461163932928057 -0.0001006898513200971 0 0.0002445245520477193 -0.0001026961015250836 0 0.0002430908455188564 -0.0001047081922990994 0 0.000241774032462801 -0.000106727154949808 0 0.0002405905936996834 -0.000108736636632932 0 0.000239541372158488 -0.000110741461509437 0 0.0002450586210632841 -0.0001110839799698205 0 0.0002443377750048135 -0.0001130747169837264 0 0.0002560586961335332 -0.0001141911897282845 0 0.0002614862321072785 -0.0001228755294833807 0 0.0002688511918922707 -0.0001334587398755107 0 0.0002692633455021216 -0.0001353271610489325 0 0.0002786180840394253 -0.0001436686523763712 0 0.0002901644087573931 -0.0001556434126041716 0 0.0002501485583176423 -0.0001135673593698501 0 0.0003683369040532997 -9.779099336839584e-05 0 0.0003559046036214547 -9.359925123981504e-05 0 0.0003427102688068302 -9.069447264452155e-05 0 0.0002666227963474534 -8.762344975787202e-05 0 0.0002531852237390904 -9.124210049477688e-05 0 0.0002397932530135459 -0.0001027341350161514 0 0.0002386440627067096 -0.0001127253276430162 0 0.0002437368437689159 -0.0001150473851214817 0 0.0002496668405384356 -0.0001155581763243146 0 0.0002556826676563648 -0.0001161970330578996 0 0.0002554034130425934 -0.0001181828587738091 0 0.0002552161150675099 -0.0001201480707772275 0 0.0002551751296997129 -0.0001220602153094545 0 0.0002551948446386906 -0.0001239868232076993 0 0.0002615899294810688 -0.0001247995868018838 0 0.0002617588513706691 -0.0001267197672507457 0 0.0002620129043227735 -0.000128607340847267 0 0.0002622360076359925 -0.0001305030318575834 0 0.0002622656664162348 -0.0001324763892082945 0 0.0002625487862018077 -0.0001343746276488484 0 0.0002697122315486107 -0.000137192023324358 0 0.0002703600501078236 -0.0001389936885530993 0 0.0002710011408175991 -0.0001408024783802353 0 0.0002716905978511666 -0.0001426157727612498 0 0.000272361263541405 -0.0001444131047427737 0 0.000279302198671609 -0.0001454694889359484 0 0.000279981633723895 -0.0001472907551380265 0 0.000280694052637275 -0.0001491019990264652 0 0.0002814628231203474 -0.0001508881999154375 0 0.0002822806090395004 -0.0001526734446842781 0 0.0002831157005343703 -0.0001544539712922929 0 0.0002910115505718673 -0.0001574304357099402 0 0.0002839575319765039 -0.0001562290082132506 0 0.0002918837599621618 -0.0001592095627911025 0 0.0002927792499106494 -0.0001609812217753174 0 0.0002935849400557117 -0.0001627745599161623 0 0.0002986187642687847 -0.000164433384527015 0 0.0002997185357173435 -0.0001656432572127908 0 0.0003022519667990076 -0.0001669211843325881 0 0.0003049152145054255 -0.0001682071388361708 0 0.0003308563818037484 -8.883889537339262e-05 0 0.0003199665539109738 -8.771858394634533e-05 0 0.000309747452122674 -8.715937248967539e-05 0 0.0003000784157431449 -8.714957025670145e-05 0 0.0002908238945290708 -8.758182116840011e-05 0 0.000282625256091752 -8.812657762588678e-05 0 0.0002750550481906912 -8.894755033464788e-05 0 0.0002681018933502718 -8.998642452605187e-05 0 0.0002617300918379853 -9.120277180799308e-05 0 0.0002611575473754423 -8.910355248843783e-05 0 0.0002563287992641708 -9.059907353481725e-05 0 0.0002516262713015332 -9.233529570214563e-05 0 0.0002473228955506382 -9.413581381807359e-05 0 0.0002494837751963883 -9.314621220711996e-05 0 0.0002461783222327874 -9.504745360862198e-05 0 0.0002430976267093749 -9.700654617489763e-05 0 0.0002402953324429269 -9.897916428681348e-05 0 0.0002376617168226671 -0.0001010021437114922 0 0.0002354410679424425 -0.000102950176262145 0 0.0002334561139007542 -0.0001048931875482688 0 0.0002381161263333674 -0.0001047057061626562 0 0.0002366455625372634 -0.0001066565809099133 0 0.0002353600210033409 -0.0001086064312553851 0 0.0002341940580881572 -0.0001105583372690641 0 0.000233144245035091 -0.0001125032115006021 0 0.0002322277300019485 -0.0001144424835469508 0 0.0002379069363836499 -0.0001146766096468167 0 0.0002373015446443091 -0.0001166072792201079 0 0.0002492888641057582 -0.0001175302649718144 0 0.0002552791121334045 -0.0001259008312756081 0 0.0002629498984999423 -0.0001362342707840937 0 0.0002634176405961011 -0.0001380655580956974 0 0.0002730465271709385 -0.0001462003871824498 0 0.0002848165881503332 -0.0001579976839149021 0 0.0002939643524601713 -0.0001646761044131289 0 0.0002432503698548481 -0.0001170012968156194 0 0.0003570968113862871 -0.000102313266813946 0 0.0003442610081772575 -9.831893712484986e-05 0 0.0003310192008002488 -9.567444984935112e-05 0 0.0002559038310169606 -9.256383267259288e-05 0 0.0002434952042499285 -9.593526366872786e-05 0 0.0002316901619079948 -0.0001068259310697354 0 0.0002314563499098856 -0.000116361259805577 0 0.0002368117780859256 -0.0001185206094148013 0 0.0002428703834079165 -0.0001189367993630084 0 0.0002490085089641332 -0.0001194836009169604 0 0.0002488328292134458 -0.0001214106542725564 0 0.000248796897013898 -0.0001232984853261467 0 0.0002488825805646708 -0.0001251613961592605 0 0.0002489966125458669 -0.0001270315464852046 0 0.0002554299050803981 -0.0001277976645001784 0 0.0002556592168635858 -0.0001296609858234182 0 0.0002558833893715998 -0.0001315348525106267 0 0.0002558841999610964 -0.0001335001967764473 0 0.000256217023283324 -0.0001353500897207242 0 0.0002566261731720121 -0.000137183622660939 0 0.0002640344429188689 -0.0001398234492734514 0 0.0002647528131284074 -0.0001416108234776353 0 0.0002654492518481519 -0.0001434023084199558 0 0.0002661182642375445 -0.0001451785736511885 0 0.000266781062187977 -0.0001469665755058614 0 0.0002737347285228848 -0.0001480009037257873 0 0.0002744555722685394 -0.0001497920084761843 0 0.0002752330541613806 -0.0001515584505864504 0 0.0002760579300265961 -0.0001533241030415302 0 0.0002768964513922166 -0.0001550862461350497 0 0.0002777434173016347 -0.0001568426712001376 0 0.0002856976755405815 -0.0001597593618679302 0 0.0002786133645412195 -0.0001585921224192652 0 0.0002866013993966339 -0.0001615140884479813 0 0.0002875272569835284 -0.0001632621074428338 0 0.0002884761575611713 -0.0001650023983807204 0 0.0002942072205573769 -0.0001665763226723154 0 0.0002958762001783494 -0.0001679742763817153 0 0.0002983564111221305 -0.0001692356186265316 0 0.0003191583939222365 -9.386859751953147e-05 0 0.0003082191431485384 -9.273395687409626e-05 0 0.0002977682648811173 -9.226528317640822e-05 0 0.0002880720064952472 -9.227209653865602e-05 0 0.0002791358371829482 -9.257515728311714e-05 0 0.0002710661485160974 -9.313235439236493e-05 0 0.0002636843254206439 -9.394892020928264e-05 0 0.000256966440720089 -9.49612898117394e-05 0 0.0002508251210146143 -9.615295848864537e-05 0 0.0002506243133940305 -9.402328105443628e-05 0 0.0002460270343126437 -9.546966227163188e-05 0 0.0002415213805103493 -9.716849259985114e-05 0 0.0002374561103152964 -9.890545174621449e-05 0 0.0002400318365562341 -9.776414466671113e-05 0 0.0002369428385746713 -9.959576182831668e-05 0 0.0002339894687431972 -0.0001015214332394143 0 0.0002314254176576254 -0.0001034067766896853 0 0.0002291125052754799 -0.0001052992536870396 0 0.0002270791695833158 -0.000107173912260874 0 0.0002252792023439898 -0.0001090404410140379 0 0.0002301772581487442 -0.0001087250280905901 0 0.0002288880443991792 -0.0001106039571910278 0 0.0002277366602628275 -0.0001124876422540969 0 0.0002267015843389798 -0.0001143698594591074 0 0.0002257822643888364 -0.0001162505169615537 0 0.0002249995103334417 -0.0001181207012466246 0 0.000230839363635507 -0.0001182492284739241 0 0.000230349966410019 -0.0001201169052744077 0 0.0002425913211454206 -0.0001208537635135491 0 0.0002490859199280958 -0.0001289201817137464 0 0.0002571057620185312 -0.0001389844739161668 0 0.0002577212381560712 -0.0001407221554396652 0 0.0002674785379603787 -0.0001487450613669932 0 0.0002795051148530561 -0.0001603351834420717 0 0.0002890281618270799 -0.0001669058755194777 0 0.0002364286445804773 -0.0001204172075774852 0 0.0003453539071138738 -0.0001066993229890563 0 0.0003317724934855324 -0.0001030780398995601 0 0.0003187689305582776 -0.0001005509041859829 0 0.0002452466999386856 -9.747772446011573e-05 0 0.0002338982624252743 -0.000100620388755705 0 0.0002236900428477515 -0.0001108982663514734 0 0.0002243474266936937 -0.000119975432382537 0 0.0002299608787612185 -0.0001219732299018843 0 0.0002361507790794631 -0.0001222951174340879 0 0.000242417557654309 -0.0001227479026113688 0 0.0002423721370353804 -0.0001246066976085127 0 0.0002424304115738305 -0.0001264430322300799 0 0.0002425940220671802 -0.000128263303064274 0 0.0002427261186515518 -0.0001301005983001319 0 0.0002493027417472473 -0.0001307655651672315 0 0.0002494848141617257 -0.000132621392278521 0 0.0002496741333378591 -0.0001345019838387981 0 0.0002498795790639623 -0.0001363816633460803 0 0.0002502875407934999 -0.0001381798712691175 0 0.0002507617717035912 -0.0001399656887206859 0 0.0002584873038511208 -0.0001424670519459304 0 0.0002591976676199657 -0.0001442304671334429 0 0.0002598336139548597 -0.0001460042211929564 0 0.000260506152778279 -0.0001477684167389533 0 0.0002612134186761235 -0.0001495234457661836 0 0.0002682090067348667 -0.000150514199576844 0 0.0002689946875571328 -0.0001522602214669986 0 0.0002698285589552052 -0.0001540049447487234 0 0.0002706748087861993 -0.0001557468176096588 0 0.0002715270117457184 -0.0001574837057400181 0 0.0002724051506975746 -0.0001592135678217962 0 0.0002804173097110237 -0.0001620719259628414 0 0.0002733065881396584 -0.0001609370117035497 0 0.0002813511326318748 -0.0001638024646449282 0 0.0002823133732326586 -0.0001655201437735256 0 0.0002834136151264527 -0.0001671923379048333 0 0.0002889635988726901 -0.0001689485336954518 0 0.0002917982645400594 -0.0001702795769250397 0 0.0003068517786431607 -9.872789470183353e-05 0 0.0002958949599434663 -9.76616544704215e-05 0 0.0002853695061716943 -9.732295730696632e-05 0 0.0002757780226035262 -9.73209681874903e-05 0 0.0002672153103334969 -9.756667666705058e-05 0 0.0002593777059377524 -9.812903820804015e-05 0 0.0002522503558441961 -9.893522201972589e-05 0 0.0002457873661301979 -9.993346550724504e-05 0 0.0002399257206097151 -0.0001010932807442059 0 0.0002402509883136609 -9.887558672813308e-05 0 0.0002356771360971761 -0.0001003882841360665 0 0.000231485559278103 -0.0001019951175069507 0 0.0002277767681798243 -0.0001036125823182991 0 0.0002307025694012377 -0.0001023600883388874 0 0.0002277429320677285 -0.0001041624190172909 0 0.0002250776925250717 -0.0001059791143439228 0 0.0002227437652686113 -0.0001077770818294644 0 0.000220667926158423 -0.0001095752413006683 0 0.0002188302342470312 -0.0001113701779543355 0 0.0002172121537749648 -0.0001131588980356969 0 0.0002223192450996616 -0.0001127362477952596 0 0.0002212079498838238 -0.0001145305308099159 0 0.0002201955144167944 -0.0001163419886741526 0 0.0002193083509676686 -0.0001181521078131067 0 0.0002185270932967743 -0.0001199623446599414 0 0.0002178660068428491 -0.0001217661566405698 0 0.0002238564217131116 -0.0001217956627810411 0 0.0002234679892525445 -0.0001236051789830807 0 0.0002359698561202155 -0.0001241555021702269 0 0.0002429277411067006 -0.0001319228482878434 0 0.0002513426180486877 -0.0001417144580242313 0 0.000252210372945224 -0.0001433832346497644 0 0.0002619534230908866 -0.00015126987294674 0 0.0002742276809807372 -0.0001626547766909185 0 0.0002845043187546158 -0.0001687074895370066 0 0.0002296871535114195 -0.0001238082380982297 0 0.0003331283710604872 -0.0001109349891580043 0 0.0003191338418422206 -0.0001076559553266224 0 0.0003059440576243949 -0.0001052554936607061 0 0.0002346254412487054 -0.0001023783178397615 0 0.0002244368347281588 -0.0001052694282281718 0 0.0002158137261427485 -0.0001149290045887436 0 0.000217353234421298 -0.0001235461561971566 0 0.0002231997278972188 -0.0001253937855137543 0 0.0002295107050652166 -0.0001256271049612145 0 0.0002358804466932168 -0.0001259984666940151 0 0.0002359375754700415 -0.0001278003728280211 0 0.0002361455159583337 -0.0001295641413553773 0 0.0002363103725392748 -0.0001313571506968232 0 0.0002365233786304596 -0.0001331434238611833 0 0.0002431766345970967 -0.0001337299870863439 0 0.0002433880183774689 -0.0001355762450190985 0 0.0002436451056569855 -0.0001374029997364048 0 0.0002439536830855633 -0.0001392253139791972 0 0.0002444223515042287 -0.0001409817960296668 0 0.0002449493023328482 -0.000142728494993909 0 0.0002528958880995057 -0.0001451193017277622 0 0.0002535389936357502 -0.0001468671453382917 0 0.0002542220204462494 -0.0001486060187878693 0 0.0002549397714963564 -0.0001503361836890172 0 0.0002556942793285925 -0.0001520546360349422 0 0.0002627504242713771 -0.0001529944246815068 0 0.0002635942055134948 -0.000154715892470562 0 0.0002644500991845162 -0.0001564360305354684 0 0.0002653075739830389 -0.0001581522099987554 0 0.0002661913686472115 -0.0001598621839772523 0 0.0002671017420638185 -0.0001615651489768396 0 0.0002751703975074708 -0.0001643666064613898 0 0.0002680331616280662 -0.0001632622787616271 0 0.0002761457238665096 -0.0001660644238387736 0 0.000277190359001458 -0.0001677382617799861 0 0.0002790299673534008 -0.0001692576812561157 0 0.0002852414688633133 -0.0001713382519044669 0 0.0002822459003180584 -0.0001706025702669481 0 0.000293996728603641 -0.0001036024058932857 0 0.0002829323464630245 -0.0001026621377140155 0 0.0002726788806176422 -0.0001022816730340046 0 0.0002635321575697006 -0.0001022151939448814 0 0.0002551910479951003 -0.0001025074433568697 0 0.0002476307092410503 -0.0001030844828326546 0 0.0002407932479050622 -0.0001038902868601634 0 0.0002346259872181699 -0.000104875639933787 0 0.0002290676087489162 -0.0001060062660052861 0 0.0002298422963483338 -0.0001037613732155429 0 0.0002255350696430341 -0.0001052200604058949 0 0.0002216873718723721 -0.0001067247523959039 0 0.0002182381126234228 -0.0001082732588070292 0 0.0002214397863433695 -0.0001069532308860818 0 0.0002187437712895729 -0.0001086618540527271 0 0.0002163491782942623 -0.0001103760564474725 0 0.0002142248033736017 -0.0001120944139587424 0 0.000212347577590941 -0.0001138132679043251 0 0.0002106989101183639 -0.0001155287396045813 0 0.0002092665571587061 -0.0001172327868394314 0 0.0002145941715918764 -0.0001166933231091348 0 0.0002136250383002572 -0.0001184147090437323 0 0.0002127647601904687 -0.0001201591091449759 0 0.0002120251339871187 -0.0001218953272908512 0 0.0002113786432361222 -0.0001236312910164409 0 0.0002108571918427076 -0.0001253627601287967 0 0.0002169493080096841 -0.0001253136527188852 0 0.0002166890236031089 -0.0001270517213881541 0 0.0002294256593776712 -0.0001274304396687211 0 0.0002367978150380389 -0.0001349178534964875 0 0.0002455846162286755 -0.0001444489513616518 0 0.000246516929378623 -0.0001460773952986701 0 0.0002564938362996175 -0.0001537590164763543 0 0.0002689885121670676 -0.0001649536330174397 0 0.0002230302956099566 -0.0001271673484848271 0 0.0003204289622417201 -0.000115017272110457 0 0.0003060173143761333 -0.0001120541023687176 0 0.000292816998904141 -0.0001099036035641457 0 0.000224068960957934 -0.0001072500357691464 0 0.0002151405099327809 -0.0001098609299037221 0 0.0002080477069881542 -0.0001189213984414602 0 0.0002104260450218027 -0.0001270869921300366 0 0.0002165283915912511 -0.0001287764555654968 0 0.000222952676980068 -0.0001289266319120832 0 0.0002294352268993795 -0.0001292112976766357 0 0.0002296056198440024 -0.0001309523128441226 0 0.0002298572423108668 -0.0001326758205437675 0 0.0002301036046443536 -0.00013441873261162 0 0.0002303894268542602 -0.0001361559225416436 0 0.0002371134917732681 -0.0001366782326054382 0 0.0002373882585154974 -0.0001384687699039996 0 0.0002376892596347671 -0.0001402692147159459 0 0.0002380643814340483 -0.0001420387764037658 0 0.0002386081002406411 -0.000143755166399316 0 0.0002392968805922449 -0.0001454382054083299 0 0.0002472383931529592 -0.0001477678404060109 0 0.0002479291083386896 -0.0001494794432519045 0 0.0002486580485199624 -0.0001511832059172642 0 0.0002494201036778473 -0.000152879017142029 0 0.0002502317222599628 -0.0001545602147878252 0 0.000257344140910114 -0.0001554583784055645 0 0.0002582131610364375 -0.0001571552371607513 0 0.0002590808135573469 -0.0001588492949245841 0 0.0002599744974308751 -0.0001605371538877383 0 0.0002608921624698124 -0.0001622192215711051 0 0.0002618332615727002 -0.0001638953462734802 0 0.0002699640197308592 -0.0001666388911495588 0 0.0002628000033220404 -0.0001655655294623966 0 0.0002709696294644457 -0.0001683310586906681 0 0.0002720263625975047 -0.000170192583136119 0 0.0002757539831124786 -0.0001713564815397879 0 0.0002786867314781732 -0.0001724108076589252 0 0.0002807327287462273 -0.0001082952395030781 0 0.0002698534164187896 -0.0001074333560624392 0 0.0002600438069747466 -0.0001070342900562357 0 0.0002511355539387031 -0.0001070490843734755 0 0.0002430946119756707 -0.0001073911890288644 0 0.0002358539140112565 -0.0001079943486823645 0 0.000229347908344775 -0.0001088038538238017 0 0.0002235111112758611 -0.0001097761830291685 0 0.0002182835212594565 -0.0001108758309192576 0 0.0002195865892719602 -0.0001085796462439674 0 0.0002155793165677787 -0.0001099722641754038 0 0.000212006978862114 -0.000111411559636781 0 0.0002088158350050713 -0.0001128927320028068 0 0.0002123753328108547 -0.0001114723412278126 0 0.0002099191905355956 -0.0001130974091051057 0 0.0002077466327797725 -0.0001147300293927786 0 0.0002058339680811969 -0.0001163657870440047 0 0.0002041540693336619 -0.000118003451636142 0 0.000202690570456177 -0.0001196378633161983 0 0.0002014518575879047 -0.0001212538881596993 0 0.0002070355098713388 -0.0001205881593496018 0 0.0002061741977113251 -0.0001222624335352632 0 0.0002054454023458636 -0.0001239294667539948 0 0.0002048436644453824 -0.0001255911718229886 0 0.0002043207388296201 -0.0001272591777402348 0 0.0002038881868840954 -0.0001289335673037518 0 0.0002101600826620887 -0.0001287792218399104 0 0.0002100064122950821 -0.0001304535552718064 0 0.0002229606071813855 -0.0001306723165803999 0 0.0002307317312967862 -0.0001378819882593024 0 0.0002401318392422447 -0.0001470870982668897 0 0.000240909724912019 -0.0001487191545565471 0 0.0002510917879506858 -0.0001562325463793414 0 0.0002637859260907446 -0.0001672317246245079 0 0.0002164602337933451 -0.0001304884002654494 0 0.0003072867560694349 -0.0001189391214551539 0 0.0002925926243475965 -0.0001163483907189264 0 0.0002787910062768118 -0.0001146001868902016 0 0.000213609857807258 -0.0001120747380711699 0 0.0002059706678847365 -0.0001144058450683933 0 0.0002003934511100532 -0.0001228657880707128 0 0.0002036063907263592 -0.0001305799145278304 0 0.0002099487162109284 -0.0001321151193749072 0 0.0002164802278701863 -0.0001321866048600946 0 0.0002230486649858206 -0.0001324048426235771 0 0.0002233391590885237 -0.0001340728441767208 0 0.0002236687336173234 -0.0001357490826080928 0 0.0002239657325583363 -0.0001374469596054658 0 0.0002243234004607273 -0.0001391346930039939 0 0.0002311182523135597 -0.0001395953314486801 0 0.0002314798261233661 -0.000141324824603778 0 0.00023191312317845 -0.0001430572861587001 0 0.0002324525950907581 -0.0001447494693367124 0 0.0002330891350568695 -0.0001464273752574016 0 0.0002338240823195654 -0.0001481014256231247 0 0.0002416280810084453 -0.0001503884528105915 0 0.0002423687789137409 -0.0001520643753544874 0 0.0002431427712937072 -0.0001537327205939691 0 0.0002439558907205891 -0.0001553921362524397 0 0.0002448070996892982 -0.0001570443367919944 0 0.0002519692335843686 -0.0001579036545389893 0 0.0002528474486697392 -0.0001595742546824322 0 0.0002537508371608652 -0.0001612392892300517 0 0.0002546782633031287 -0.0001628990087736475 0 0.0002556288062637669 -0.0001645534039855951 0 0.000256605895390957 -0.0001662019869441649 0 0.0002647741274730488 -0.0001688910533523992 0 0.0002576080028277725 -0.0001678463672662517 0 0.0002657949975426516 -0.0001704651424954066 0 0.0002693037721789886 -0.0001724635262822887 0 0.0002721347707919631 -0.0001734963324272409 0 0.0002670372641958328 -0.000113006725716864 0 0.0002567385181987501 -0.0001119754202109929 0 0.0002472100278866836 -0.0001117110630093204 0 0.0002386423283466195 -0.0001118171117724891 0 0.0002309600139703313 -0.0001122184304192077 0 0.0002240894281725176 -0.0001128503050826712 0 0.0002179526023322714 -0.0001136644273591566 0 0.0002124781757673218 -0.0001146213048161554 0 0.000207605297239971 -0.000115686529345983 0 0.0002094452989062525 -0.0001133465866956474 0 0.0002057422339220566 -0.0001146738953542487 0 0.0002024553718512371 -0.0001160440417055328 0 0.0001995279790619685 -0.0001174549142334353 0 0.0002034521774903312 -0.0001159365739291084 0 0.0002012306787313384 -0.0001174789401650579 0 0.0001992805684087707 -0.0001190277303679341 0 0.0001975727289961929 -0.0001205819539221816 0 0.0001960911730578706 -0.0001221358009779627 0 0.0001948183442321015 -0.0001236852959940023 0 0.000193756204743974 -0.0001252189702901631 0 0.0001995283878033653 -0.0001244634588076329 0 0.0001987937059991637 -0.0001260657176963783 0 0.0001982427909580827 -0.000127644253114741 0 0.0001977770346958359 -0.0001292309717182466 0 0.0001973922146838855 -0.0001308221257595784 0 0.0001971315484577358 -0.0001324057879170517 0 0.000203465510245277 -0.0001321976661049761 0 0.0002034280349894715 -0.0001338018525209477 0 0.0002165863562394843 -0.0001338684072165002 0 0.0002247356156077209 -0.0001408119461096502 0 0.0002346011385217089 -0.0001496791264811262 0 0.0002353196752121943 -0.000151332616867631 0 0.0002456955072753574 -0.0001586876600440248 0 0.0002586243107492117 -0.0001694881753227793 0 0.0002664128154070859 -0.0001718075097422916 0 0.0002099792119162341 -0.0001337652349859682 0 0.0002937034639113422 -0.0001227113980015213 0 0.0002783723546390268 -0.00012069633685135 0 0.0002627039517064279 -0.0001192062878273651 0 0.0002032750971242767 -0.0001168358597457058 0 0.0001969456294629332 -0.0001188874042134623 0 0.0001928632301583477 -0.0001267534631673418 0 0.0001969945861569137 -0.0001339696715006378 0 0.0002034701631538244 -0.0001354005287921223 0 0.0002100987650487109 -0.0001353987374274794 0 0.0002168328217068556 -0.0001355208447934932 0 0.0002171956155238228 -0.0001371463626741808 0 0.0002175271462885335 -0.0001387916831581569 0 0.0002179000999225736 -0.0001404370867387874 0 0.0002183283092150282 -0.0001420749141702053 0 0.0002251806633038079 -0.0001424800432071411 0 0.0002256803040654656 -0.000144148242736604 0 0.000226275654216337 -0.0001457958341859406 0 0.0002269212245095063 -0.0001474278790949827 0 0.0002275208421144387 -0.000149090265750215 0 0.0002282567548253009 -0.0001507038098383161 0 0.0002360724717807339 -0.0001529793630845505 0 0.0002368582046723031 -0.000154619606058516 0 0.0002376809073143041 -0.0001562515586693613 0 0.0002385352871887764 -0.0001578782119338171 0 0.0002394246409814977 -0.0001594988873333334 0 0.0002466010120565187 -0.0001603292651620469 0 0.0002475222651252342 -0.0001619680598179388 0 0.0002484599017048145 -0.0001636043667436124 0 0.0002494201815840565 -0.0001652361644915619 0 0.0002504057940451133 -0.0001668624026821007 0 0.0002514131480682413 -0.0001684858798411072 0 0.0002595283905041967 -0.0001711082789984353 0 0.0002524439026085208 -0.0001701028346397473 0 0.0002608792172715589 -0.0001724600858656922 0 0.0002655863137630412 -0.0001745938370591353 0 0.0002627910798880984 -0.0001735072493413539 0 0.000253641233140261 -0.0001169400319813612 0 0.0002434176144659184 -0.0001164262067599056 0 0.0002342666366194149 -0.0001163121522581919 0 0.0002261029580381637 -0.0001165203087035673 0 0.0002188420652230019 -0.0001169805760404358 0 0.0002123588203258436 -0.0001176563500230846 0 0.0002066221404840107 -0.0001184737991798283 0 0.0002015629499651197 -0.0001193964370422821 0 0.0001970665405761091 -0.0001204195596060903 0 0.0001994380419689556 -0.000118048232963141 0 0.0001960423432679441 -0.0001193101926396868 0 0.0001930420053150912 -0.0001206108077936618 0 0.0001903973470440218 -0.0001219410555735394 0 0.0001946762557503404 -0.0001203348077558674 0 0.0001926905758080986 -0.0001217921246840802 0 0.0001909591966435712 -0.0001232567872457876 0 0.0001894545479635508 -0.000124728184247421 0 0.0001881728143971546 -0.000126195443288477 0 0.0001870912056012046 -0.0001276591073735547 0 0.0001861891592195657 -0.0001291180329282759 0 0.0001921242499645815 -0.0001282823077846024 0 0.0001915787305007265 -0.0001297916316931961 0 0.0001911692632199721 -0.0001312944426982103 0 0.0001908301512504075 -0.0001328063710576045 0 0.000190596700500336 -0.0001343166389190378 0 0.000190507593059332 -0.0001358068082106778 0 0.0001969647362086667 -0.0001355202623263071 0 0.000197024481650004 -0.0001370625833147302 0 0.0002103587201206498 -0.0001370045278119336 0 0.0002188117068918891 -0.0001437041203138039 0 0.0002290039678822713 -0.0001523119911469853 0 0.0002297697721203415 -0.0001539278946370678 0 0.0002403435890997193 -0.0001611127973559029 0 0.0002534850664668875 -0.0001717201493163043 0 0.0002035990544306725 -0.000136987262557852 0 0.000279713704490219 -0.0001262979446715709 0 0.0002639110039220946 -0.0001248374729310469 0 0.0002491941281826075 -0.0001208878608708267 0 0.00019309193114652 -0.0001215170545771817 0 0.0001880810171123808 -0.0001232899493831955 0 0.0001854541384357573 -0.0001305741370752895 0 0.0001904929869261538 -0.0001372974928552425 0 0.0001971651475486687 -0.0001385977177795015 0 0.0002038682577812057 -0.000138536456536483 0 0.0002106892778957259 -0.00013859817232718 0 0.0002110674639985021 -0.0001401927278421432 0 0.0002114624575299268 -0.0001417892643221133 0 0.0002118959413452435 -0.0001433878778390166 0 0.0002123921199416254 -0.0001449765975753497 0 0.0002193492899652404 -0.0001453241798678231 0 0.0002199337988232328 -0.0001469367897899957 0 0.0002205602984791184 -0.0001485434225119151 0 0.0002212287645853044 -0.0001501435521914817 0 0.0002219368854199187 -0.0001517374235444878 0 0.0002226816739599388 -0.0001533260222808461 0 0.0002305683932044433 -0.0001555379461508995 0 0.000231402342430966 -0.0001571414547163298 0 0.0002322676702550143 -0.0001587399657496792 0 0.0002331593431037407 -0.000160335347676343 0 0.000234072505512689 -0.0001619275466829505 0 0.0002412896830035354 -0.0001627232521650154 0 0.0002422362701591129 -0.0001643353382023959 0 0.000243207817307024 -0.0001659430934699583 0 0.0002442030053440688 -0.0001675462340989254 0 0.0002452231821681584 -0.0001691455924864676 0 0.0002462596243308377 -0.0001707422168959153 0 0.0002544598369684787 -0.0001732804163665431 0 0.0002473230131840623 -0.0001723251087187314 0 0.0002563260004209991 -0.0001745881935062517 0 0.0002590420932236204 -0.0001757022537547248 0 0.0002490671906515269 -0.0001244255830508323 0 0.0002396665357821316 -0.0001210997744121712 0 0.0002299606809813206 -0.0001208278355963639 0 0.000221266123608573 -0.0001208536808468458 0 0.0002135882455073861 -0.0001211530994716191 0 0.0002067980707542546 -0.0001216678579847455 0 0.0002006729331408812 -0.000122417129668085 0 0.000195440891326673 -0.0001231884103785905 0 0.0001908049509867842 -0.0001240784504959293 0 0.0001866963057559617 -0.0001250596764410506 0 0.0001895911744173457 -0.0001226673130278614 0 0.0001865074514224039 -0.000123861380218853 0 0.0001838035225259116 -0.0001250864914817803 0 0.0001814418266547589 -0.0001263345665919924 0 0.0001860596916301289 -0.0001246527998875555 0 0.0001843064452016968 -0.0001260246714007347 0 0.0001827942043536416 -0.0001274029603355225 0 0.0001814982331765393 -0.0001287869649280919 0 0.000180405699421055 -0.0001301712600359356 0 0.0001795074546417383 -0.0001315500599623797 0 0.0001787788109014121 -0.0001329265761843478 0 0.0001849026889241888 -0.0001320107304031834 0 0.0001845162152158905 -0.0001334350685654744 0 0.0001842079877844273 -0.0001348733008059856 0 0.0001840092967180117 -0.0001363092213609705 0 0.0001839114496782575 -0.0001377419374222515 0 0.0001839126585612366 -0.0001391699461856394 0 0.0001905692815675758 -0.0001387815716139131 0 0.0001907292492916391 -0.0001402601674508156 0 0.0002042089094857647 -0.0001400859304290323 0 0.0002129529683154182 -0.0001465540931059905 0 0.0002234610003554824 -0.0001549096227570397 0 0.0002242733831472833 -0.0001564880170614544 0 0.0002350326064787877 -0.0001635094272511683 0 0.0002484753391984363 -0.0001737913036738348 0 0.0001973913705720742 -0.0001401210200204882 0 0.0002653650842046179 -0.000129687796002684 0 0.0002492716681282945 -0.0001287413191483805 0 0.0002364144146912274 -0.0001249246069919021 0 0.000183085185670079 -0.0001261025686475645 0 0.0001793866865112084 -0.0001276004669383959 0 0.0001782094359304054 -0.0001342974968436996 0 0.0001840051724923925 -0.0001405935769557006 0 0.0001909671970241114 -0.0001417328703809725 0 0.0001977265364432995 -0.0001416245727053917 0 0.0002046046872252841 -0.000141636008414871 0 0.0002050153470638761 -0.0001431878959055759 0 0.0002054679269252129 -0.0001447412528463596 0 0.0002059312909536965 -0.0001463034848039928 0 0.0002065425333680542 -0.0001478275688488618 0 0.0002135517554707357 -0.0001481282660005589 0 0.0002141902556137431 -0.0001496980395214317 0 0.0002148721128769629 -0.0001512618297519758 0 0.0002155938205620153 -0.0001528205124522979 0 0.0002163513982135528 -0.000154374862722324 0 0.0002171462972000388 -0.0001559239903451743 0 0.0002251182827001272 -0.000158061674835109 0 0.0002259958820081283 -0.0001596306092144987 0 0.0002268992074007746 -0.0001611970544231713 0 0.0002278248517759898 -0.0001627602440120133 0 0.0002287811225478838 -0.0001643185873528722 0 0.0002360048932102745 -0.0001650918287788202 0 0.0002369921238342021 -0.0001666739467910031 0 0.0002379951281006565 -0.0001682536771841278 0 0.0002390237581802673 -0.0001698293746271432 0 0.0002400721609879889 -0.0001714018068230446 0 0.0002411429567251932 -0.000172965752113963 0 0.0002492548790079685 -0.0001755682084719181 0 0.0002422855987856112 -0.000174474585741699 0 0.0002525028449991673 -0.0001768204351083833 0 0.0002362469393531722 -0.0001285335250627289 0 0.0002257616509787743 -0.0001251303531602293 0 0.0002164361754116407 -0.0001251562952238439 0 0.0002083052462547954 -0.0001253159092592275 0 0.0002011295593286263 -0.0001257189128118006 0 0.0001947207863029072 -0.0001263407580567797 0 0.0001892451033835947 -0.0001270211391880623 0 0.0001844723774942537 -0.0001277813098033021 0 0.0001802361349450516 -0.000128653608271239 0 0.0001765194260157498 -0.0001295926511790312 0 0.0001799216948729258 -0.0001271895317241308 0 0.0001771580358827112 -0.0001283105365806631 0 0.0001747538779201889 -0.0001294567935093176 0 0.0001726711384945115 -0.0001306227285834591 0 0.0001776110275375304 -0.0001288779954661269 0 0.0001760893379505306 -0.0001301630054103277 0 0.0001747906777641386 -0.0001314559575272959 0 0.0001736954910593416 -0.0001327544512406244 0 0.0001727933942962583 -0.0001340533369757928 0 0.0001720777761222062 -0.0001353456929336151 0 0.0001715238470446915 -0.0001366364115064165 0 0.0001778176491078466 -0.0001356527403969348 0 0.0001775429964623935 -0.0001370102280763358 0 0.0001773778171414499 -0.0001383704997519446 0 0.0001772987296981131 -0.0001397349202272001 0 0.0001773175318654008 -0.0001410974377428023 0 0.0001774277973358808 -0.000142457823530149 0 0.00018418216397888 -0.0001420131495972446 0 0.0001844373328791181 -0.0001434290152703066 0 0.0001981387773608524 -0.0001431229243860724 0 0.0002071456751564998 -0.0001493655957570775 0 0.0002179724906442632 -0.0001574696566758857 0 0.0002188301120123203 -0.0001590116009356038 0 0.0002297662947357459 -0.0001658735861266806 0 0.0002440778707589792 -0.0001753836126268455 0 0.0001912583840886652 -0.0001432074980733946 0 0.0002506290627799975 -0.0001329018920547139 0 0.0002346144732049912 -0.0001324782342480556 0 0.0002226524981023764 -0.0001293505504712832 0 0.0001732734693492855 -0.0001305787011475524 0 0.0001708757447619876 -0.000131804281876909 0 0.0001711139230951944 -0.0001379270269644718 0 0.0001776230904189965 -0.0001438160294557576 0 0.0001847646834922865 -0.0001448416336122968 0 0.0001916538029266053 -0.0001446642757222368 0 0.0001985588871026141 -0.0001446327423078813 0 0.0001990364563977883 -0.00014613720279409 0 0.0001994874362027298 -0.0001476643654057988 0 0.0002000813377661994 -0.0001491560361147736 0 0.0002007614521500305 -0.0001506334999873867 0 0.0002078003132832838 -0.000150894790627488 0 0.0002085031144115213 -0.0001524179037592275 0 0.0002092423516969004 -0.000153938497292851 0 0.0002100128592964012 -0.000155457361817283 0 0.0002108230532804929 -0.0001569708538368216 0 0.0002116669867976565 -0.0001584813195108146 0 0.0002197171199024125 -0.0001605504305716534 0 0.0002206343507601543 -0.0001620861424889471 0 0.000221571535898522 -0.0001636208710745135 0 0.0002225372105969419 -0.0001651507284123578 0 0.0002235334262745515 -0.0001666783871448934 0 0.000230773693638523 -0.0001674281732817499 0 0.0002317879337840526 -0.0001689826602529898 0 0.0002328238237067669 -0.0001705345792193102 0 0.0002338791794957427 -0.0001720847527586003 0 0.0002349525521767378 -0.000173634315224331 0 0.0002361089388841886 -0.0001751166101897318 0 0.0002420379622876766 -0.0001770736824840997 0 0.000237830796584134 -0.0001763135291783919 0 0.0002459693048303984 -0.0001779471534882296 0 0.0002274929460581187 -0.0001308387473873632 0 0.0002115436243586967 -0.0001293251403141532 0 0.0002029293742767879 -0.0001294101293510234 0 0.0001953541206696544 -0.0001297331241535823 0 0.0001887508227553196 -0.0001302182507085069 0 0.0001829719488798511 -0.0001308379304191802 0 0.0001779693223609802 -0.00013153673938777 0 0.0001736777840764116 -0.0001322782663201071 0 0.0001698654323453693 -0.0001331192498751166 0 0.0001665502362855877 -0.0001340065853476722 0 0.000170452916964811 -0.0001315973960539818 0 0.0001680114607317246 -0.0001326420109365357 0 0.0001659044757836067 -0.0001337084749856489 0 0.0001640956058863619 -0.0001347924410294272 0 0.0001693400560831654 -0.0001329973450601402 0 0.000168046448189682 -0.0001341954365034138 0 0.0001669659765140067 -0.0001353988505828548 0 0.0001660747384072082 -0.0001366091089204401 0 0.0001653554451853256 -0.0001378250213467289 0 0.0001648254309072322 -0.0001390301235547929 0 0.0001644390345651179 -0.0001402378057648319 0 0.0001708611421084582 -0.000139207778789263 0 0.00017073078419222 -0.0001404879296269431 0 0.000170670378853456 -0.0001417819276001311 0 0.0001707150733227616 -0.0001430718659211858 0 0.0001708498037065506 -0.0001443639224499639 0 0.0001710650733770362 -0.0001456597104276268 0 0.0001778970282999668 -0.0001451722978127695 0 0.0001782426208872429 -0.0001465273878680594 0 0.0001920916148942354 -0.0001461239084052844 0 0.000201390234603477 -0.0001521336951967804 0 0.0002125366971092894 -0.0001599907064098673 0 0.0002134369220520811 -0.0001614973623173654 0 0.0002245531792018007 -0.000168205064991366 0 0.0001851590437457112 -0.0001462512926133033 0 0.0002355195337863813 -0.0001359636149128447 0 0.0002168432155612525 -0.0001334553466200056 0 0.0002065762984144721 -0.0001332932838531893 0 0.000163676702502831 -0.0001349287945711484 0 0.0001625519868219655 -0.0001358913335002689 0 0.0001641783834726318 -0.0001414529519872589 0 0.0001713525047516951 -0.0001469576465917155 0 0.00017865552874471 -0.0001478812923887543 0 0.0001856154794302484 -0.0001476584534818667 0 0.0001925864179715846 -0.0001475800668596182 0 0.0001930499291390703 -0.0001490622799486152 0 0.0001936528158628533 -0.0001505101617192296 0 0.0001943082745306336 -0.0001519542435114291 0 0.0001950001018734071 -0.0001533987315372906 0 0.0002021282739155725 -0.0001536086054676094 0 0.0002028817892720655 -0.0001550905947893135 0 0.0002036712600835895 -0.000156570832379446 0 0.0002044969493769687 -0.0001580478048054604 0 0.0002053534941409135 -0.0001595231842175254 0 0.0002062408413084001 -0.0001609970335982531 0 0.0002143649256350832 -0.0001630020489757986 0 0.000215315864537681 -0.0001645057848189546 0 0.0002162907967007914 -0.0001660078747122247 0 0.0002172977008661307 -0.0001675064108710228 0 0.0002183282573835392 -0.0001690043639319778 0 0.0002255793206820529 -0.0001697331396082432 0 0.0002266249283630352 -0.0001712600154316465 0 0.0002276899731346718 -0.0001727856256336073 0 0.0002287726238166629 -0.0001743105323209503 0 0.0002298696754909286 -0.000175835157826732 0 0.0002311374763731469 -0.0001773570956705972 0 0.0002394422051063909 -0.0001790811007824004 0 0.000235950717284585 -0.0001781361480945112 0 0.0002192611487843277 -0.0001361269413812796 0 0.0001974657212057024 -0.0001333344057087949 0 0.0001895425979381385 -0.0001336006909329067 0 0.0001826074177401098 -0.0001340430127184346 0 0.0001766246758187048 -0.0001345897936641177 0 0.0001714460947528139 -0.0001352207208243336 0 0.0001669577493529625 -0.0001359192838308885 0 0.0001631018331394951 -0.0001366547442035863 0 0.0001597392194763892 -0.0001374472210631612 0 0.0001568100205358345 -0.0001382856464257726 0 0.000161204405534832 -0.0001358744181528055 0 0.0001590797212473199 -0.0001368427255383815 0 0.0001572651662371256 -0.0001378290432368422 0 0.0001557272302271093 -0.0001388300050047257 0 0.0001612542189697909 -0.0001369989987767742 0 0.0001601920604238939 -0.0001381066818524933 0 0.0001593197491547363 -0.0001392253249671811 0 0.0001586273049005425 -0.0001403490207423076 0 0.0001580991256546103 -0.0001414775970327548 0 0.0001577302517026708 -0.0001426044807231578 0 0.0001575104679291378 -0.0001437310713599744 0 0.0001640583682929854 -0.000142660403924465 0 0.0001640254584203718 -0.0001438787533577626 0 0.0001640860490475502 -0.0001451020247519595 0 0.0001642640210837627 -0.0001463119382702989 0 0.0001645093838449755 -0.0001475383830516246 0 0.0001648128256915595 -0.0001487757801164527 0 0.000171713790366878 -0.0001482546353881299 0 0.0001721446994531491 -0.0001495512619141145 0 0.000186129825561774 -0.0001490632007410283 0 0.0001957206584051821 -0.0001548436145676189 0 0.0002071537871990126 -0.000162470517648379 0 0.0002080937899067174 -0.0001639430994917471 0 0.0002193695769094765 -0.0001705046747999104 0 0.0001791318001088258 -0.0001492339186839556 0 0.0002201052454307023 -0.000138797913997986 0 0.0002019775460016802 -0.0001372310972274393 0 0.0001918613225915327 -0.000136969482835999 0 0.0001543157504182312 -0.0001391374024915265 0 0.0001544406352023245 -0.0001398420265815044 0 0.0001573729659445736 -0.0001448772186982119 0 0.0001651806853206873 -0.0001500189224590559 0 0.0001726402436186641 -0.0001508479346332557 0 0.0001796643424895 -0.000150586242923135 0 0.0001866056408252666 -0.0001504980744434726 0 0.0001872255844194713 -0.0001518992309624073 0 0.0001878907571918983 -0.0001532993422587388 0 0.0001885983325843391 -0.0001546991499740778 0 0.0001893499490930543 -0.0001560975374648001 0 0.0001965173259393321 -0.000156275977507415 0 0.0001973253247208649 -0.0001577153808968426 0 0.0001981685031955857 -0.0001591534790322762 0 0.0001990391386876553 -0.0001605923475693908 0 0.0001999400266747306 -0.00016203066904552 0 0.0002008687588427938 -0.0001634690010370421 0 0.0002090587192014842 -0.0001654148702605729 0 0.0002100456586837783 -0.0001668868568583622 0 0.0002110591254389231 -0.0001683563718153241 0 0.0002121011778254007 -0.0001698253639979333 0 0.000213158872478043 -0.0001712963638058535 0 0.0002204256508870236 -0.0001720051016568845 0 0.0002215006308406311 -0.0001735053659467424 0 0.000222592591862716 -0.0001750055279486086 0 0.0002237002998361905 -0.0001765057973705214 0 0.0002248871395405575 -0.0001779519763002047 0 0.0002299007588392123 -0.0001792868443110692 0 0.0002329222714194021 -0.0001802208885429105 0 0.0002042310474264987 -0.0001394614626775255 0 0.0001835822882725012 -0.0001372633493025276 0 0.0001763204130457531 -0.0001377179577042528 0 0.0001701306976576779 -0.0001382366321509128 0 0.0001647915263767366 -0.0001388280755834744 0 0.000160183277631325 -0.0001394753839556794 0 0.0001562091178337634 -0.0001401649004889639 0 0.0001527979548914649 -0.0001408829068281964 0 0.0001498573801589447 -0.0001416330801587547 0 0.0001473362171032556 -0.0001424068836965304 0 0.0001521885279552146 -0.0001400079577782634 0 0.0001503721072486126 -0.0001409006929553843 0 0.0001488417498855907 -0.0001418078573935774 0 0.0001475691133355183 -0.0001427265369034854 0 0.0001533803703017814 -0.0001408631109378996 0 0.0001525246351368716 -0.0001418919626360425 0 0.000151856666855592 -0.0001429246275952765 0 0.0001513654100038355 -0.0001439609571505189 0 0.0001509988515275023 -0.0001450136368472702 0 0.0001507802179479781 -0.0001460674218199534 0 0.000150678155030061 -0.0001471303394229847 0 0.0001573637289871152 -0.000146020331459417 0 0.0001574495650039685 -0.000147170185712522 0 0.0001576550882289642 -0.0001483087661143291 0 0.0001579524544901297 -0.0001494537399869617 0 0.0001582713902892001 -0.000150627280287712 0 0.0001586661625492929 -0.0001518049816273313 0 0.0001656246373263249 -0.0001512587178375754 0 0.0001661423696219707 -0.0001524969608903767 0 0.0001801711465411441 -0.0001519658464555304 0 0.0001901395983807479 -0.0001574952993007389 0 0.0002018228221960958 -0.0001649076925190308 0 0.0002028004460317438 -0.0001663470550533033 0 0.0002142263539396978 -0.0001727696191069891 0 0.0002267346053223667 -0.0001787794774604395 0 0.0001731896445555179 -0.0001521457572961157 0 0.0002044143263406364 -0.0001414074902386746 0 0.0001913456574361111 -0.0001407997449911827 0 0.0001773974217526693 -0.0001406560915508863 0 0.0001860196687640167 -0.0001403224447254828 0 0.0001452184548795337 -0.0001431851858809733 0 0.000146530719228236 -0.0001436539989995232 0 0.0001506868960119943 -0.0001481998067665585 0 0.000159107603921774 -0.0001529956954333416 0 0.0001667171091696715 -0.0001537383002752702 0 0.000173773293611203 -0.0001534477807527861 0 0.0001808052270963238 -0.0001533193193595143 0 0.00018147965085912 -0.000154674864053035 0 0.0001822040540007371 -0.0001560286094509437 0 0.0001829701388201005 -0.000157382981952226 0 0.0001837738772649064 -0.000158738584392283 0 0.0001909637115559392 -0.0001588938599833786 0 0.0001918408910734157 -0.0001602862699143275 0 0.0001927257912490218 -0.0001616873264418718 0 0.0001936403645687287 -0.0001630888791613249 0 0.0001945831812683437 -0.0001644914294834435 0 0.0001955512064484092 -0.0001658952832862878 0 0.0002038013152361868 -0.0001677867484937851 0 0.0002048232651560702 -0.0001692275059298218 0 0.0002058740537994052 -0.0001706668797988122 0 0.0002069432345918945 -0.0001721081922361494 0 0.0002080270796426076 -0.0001735523077806489 0 0.0002153116548466695 -0.0001742433767735663 0 0.0002164137308170182 -0.000175717880192965 0 0.0002175311913494967 -0.0001771934078495212 0 0.0002187634726461303 -0.0001785761185634844 0 0.0002207589846611354 -0.0001796861801072602 0 0.0002264102189552903 -0.0001813650485569622 0 0.0002234010427915694 -0.0001805249448143509 0 0.0001896748498628169 -0.0001425067275701343 0 0.0001699027984804721 -0.0001411523898694491 0 0.0001634637210096595 -0.0001417161745055622 0 0.0001579588501306094 -0.0001423136644351581 0 0.0001532562987512036 -0.0001429372480669102 0 0.0001492189635045769 -0.0001435873308259533 0 0.0001457571982648533 -0.0001442582134625357 0 0.0001427982247876213 -0.0001449449369106494 0 0.0001402755897213381 -0.0001456465379844896 0 0.0001381557740038695 -0.000146352382485186 0 0.0001434111849045964 -0.0001439879490132248 0 0.0001418959621212808 -0.0001448048001426204 0 0.0001406419498473621 -0.0001456337549573658 0 0.0001396220963374856 -0.0001464734849053342 0 0.0001456953618121427 -0.0001445925614468131 0 0.0001450438802297992 -0.000145540861150812 0 0.0001445628470089397 -0.0001464963962335662 0 0.0001442301528073419 -0.000147461555762706 0 0.0001440330038612503 -0.0001484354781337687 0 0.00014395880323158 -0.0001494181414388279 0 0.0001439961343963303 -0.0001504095342739051 0 0.0001507990846153424 -0.0001492750208031767 0 0.0001510291814928695 -0.000150342217274465 0 0.0001513539135786524 -0.0001514163900372112 0 0.0001517365810540358 -0.0001525060903716515 0 0.0001521416021081034 -0.0001536238154364754 0 0.0001526130498259538 -0.0001547478212376865 0 0.0001596395662706451 -0.0001541772722837624 0 0.000160236269864469 -0.000155360922064447 0 0.0001744069633234192 -0.0001547623146896166 0 0.0001846125057426582 -0.000160095651246071 0 0.0001965429594965055 -0.0001673006758737123 0 0.0001975568913953707 -0.0001687076153228762 0 0.0002091235590039112 -0.0001749986515609907 0 0.0001673404451523613 -0.0001549831646299286 0 0.0001882939044617019 -0.0001439243538074635 0 0.0001782146958537145 -0.0001434272785458601 0 0.0001705663000083289 -0.000143795143111595 0 0.0001631949395590433 -0.0001443153766755516 0 0.0001363705150830748 -0.0001470714427961534 0 0.000138811034815909 -0.0001473238791085208 0 0.0001441353258697867 -0.0001514094743885593 0 0.0001531438225879858 -0.0001558804004059097 0 0.0001608854692635132 -0.000156549597056912 0 0.0001679868773203175 -0.0001562400687099193 0 0.0001750725294527866 -0.0001560788161636964 0 0.0001758069082556735 -0.0001573876921149817 0 0.0001765909046360106 -0.0001586956987993727 0 0.0001774113511593317 -0.0001600067219881298 0 0.0001782673298649307 -0.0001613204291286908 0 0.0001854834265124086 -0.0001614544545023653 0 0.0001864103813305951 -0.0001628075920394545 0 0.0001873410253847383 -0.0001641705467419426 0 0.0001882978852575674 -0.0001655361059834405 0 0.0001892800074911506 -0.0001669041751017323 0 0.0001902856731095049 -0.0001682748451317222 0 0.0001985933172901582 -0.0001701158666164901 0 0.0001996507712874305 -0.0001715260764343706 0 0.0002007302091222525 -0.0001729379856068908 0 0.0002018280105897782 -0.0001743524510456286 0 0.0002029364371050327 -0.0001757704162132303 0 0.0002102358752114571 -0.0001764466284023637 0 0.0002113635327662811 -0.0001778962925595555 0 0.000212461783327697 -0.0001793569062610531 0 0.0002139323973260488 -0.0001806547289521574 0 0.0002168674535648066 -0.0001816268396185209 0 0.000219906748735703 -0.0001825120338744034 0 0.0001716335847677037 -0.0001457372113132682 0 0.000156533142457752 -0.0001449764142589953 0 0.0001509008935516546 -0.0001456253166288125 0 0.0001461323198001111 -0.000146262415258241 0 0.0001420561018878776 -0.0001469025326106229 0 0.0001385784842039523 -0.0001475439166671346 0 0.0001356204833884256 -0.0001481861911002223 0 0.0001331151527016319 -0.00014882997628089 0 0.0001310046390053258 -0.0001494765814680683 0 0.000129248803975233 -0.0001501241500589152 0 0.0001348830948337818 -0.0001478019947817762 0 0.0001336549552655461 -0.000148545840750021 0 0.000132663221867868 -0.0001493001471086356 0 0.0001318824950290952 -0.0001500650341807857 0 0.0001381879025145777 -0.0001481843293332298 0 0.0001377326840250999 -0.0001490552992068127 0 0.0001374293224419271 -0.0001499363895036489 0 0.0001372624218325218 -0.0001508279857936825 0 0.0001372193591380347 -0.0001517299706813686 0 0.0001372879860478452 -0.0001526426712009903 0 0.0001374579044654883 -0.000153566247709428 0 0.000144389809636952 -0.0001524046518087076 0 0.0001447386002062453 -0.0001534094557318877 0 0.0001451560337611786 -0.0001544282862019795 0 0.0001456157822791243 -0.0001554653892989035 0 0.0001461087779127006 -0.0001565247841210299 0 0.0001466710833083334 -0.0001575925630708755 0 0.0001537554509441111 -0.0001570079464045345 0 0.0001544226259479651 -0.0001581411928597094 0 0.000168675653534569 -0.0001575055069697626 0 0.0001791547066417129 -0.0001626373753283957 0 0.0001913131565854609 -0.0001696481037637863 0 0.0001923632879967111 -0.0001710236653343477 0 0.0002040595014156538 -0.0001771910995958654 0 0.0001615788475336021 -0.0001577438772919514 0 0.0001721384269741827 -0.0001461950904713004 0 0.0001635724939334093 -0.000146343909764394 0 0.0001559088387631775 -0.0001471585611232009 0 0.0001492355231715398 -0.0001479584829357626 0 0.0001277957427559924 -0.0001507783106217075 0 0.0001312914482910225 -0.0001508403223860047 0 0.0001377403586625467 -0.0001544881731258404 0 0.0001472755039456504 -0.0001586746641328641 0 0.0001551431637927701 -0.0001592795342572899 0 0.0001622947561162242 -0.0001589505213528489 0 0.0001694169641320205 -0.0001587707379023169 0 0.0001702107456289757 -0.0001600339260530714 0 0.0001710504497705637 -0.0001612984054315186 0 0.0001719229721651285 -0.0001625678477619735 0 0.00017282584310668 -0.000163842331184277 0 0.0001800725297866734 -0.0001639572146292177 0 0.0001810398711992922 -0.0001652745274078743 0 0.000182013741983517 -0.0001666014471551619 0 0.0001830102298702441 -0.0001679326289547315 0 0.0001840296614767293 -0.0001692676829492274 0 0.0001850708330601498 -0.0001706065089933344 0 0.0001934347094127999 -0.0001724016927740724 0 0.0001945243525416876 -0.0001737835472564289 0 0.0001956308368072711 -0.0001751686564588802 0 0.0001967511840466473 -0.0001765574565740265 0 0.0001978865627799519 -0.0001779496632215863 0 0.0002051971413115355 -0.0001786141548929527 0 0.0002063504170956658 -0.0001800394305237051 0 0.0002070168219549742 -0.0001817426553942372 0 0.0002104527006744275 -0.0001826670903322457 0 0.0002134125437311041 -0.0001836602203183312 0 0.0001558206528621498 -0.0001485639863959504 0 0.0001558617189562394 -0.0001483618445327988 0 0.0001435547526693499 -0.0001487077520539028 0 0.0001387622968543927 -0.0001494030171742998 0 0.0001346819743252928 -0.0001500685441847949 0 0.0001312176184111443 -0.0001507088959163045 0 0.0001282856953013905 -0.0001513294888622855 0 0.0001258169933054489 -0.0001519349209605913 0 0.000123748618332015 -0.0001525312737495574 0 0.0001220310781569469 -0.0001531224019401308 0 0.0001206236429097636 -0.0001537111551673583 0 0.0001266065948010802 -0.0001514417132085929 0 0.000125657151809338 -0.0001521130291929442 0 0.0001249088042721296 -0.0001527986423144558 0 0.0001243591116199884 -0.0001534907661185994 0 0.0001308703865690245 -0.0001516265215425627 0 0.0001306011817878321 -0.0001524242526287178 0 0.000130469018369155 -0.0001532338239878236 0 0.0001304601581427846 -0.0001540555826655488 0 0.0001305630351879534 -0.0001548897802867281 0 0.000130768621404499 -0.0001557349264037868 0 0.0001310802434026672 -0.0001565856802756546 0 0.0001381141358731054 -0.0001554232587628396 0 0.0001385543169749698 -0.0001563742670737262 0 0.0001390552889681608 -0.0001573400408301766 0 0.0001396073003765949 -0.0001583207728024698 0 0.0001401896716251741 -0.0001593260545485699 0 0.0001408248868455629 -0.0001603443918165126 0 0.000147958935928103 -0.0001597526142140343 0 0.0001487016798706105 -0.0001608349853855734 0 0.0001630499765719412 -0.0001601684174020546 0 0.0001737605047230541 -0.0001651206198010484 0 0.0001861332912963079 -0.000171948930262617 0 0.0001872168950263745 -0.0001732948726876143 0 0.0001990339707276364 -0.0001793461280511782 0 0.0001559028909802541 -0.0001604257757361824 0 0.0001556122923967568 -0.0001482607036454797 0 0.0001481911955222542 -0.0001495937551643807 0 0.0001414935523871481 -0.0001506168610725788 0 0.0001358559297082598 -0.000151509358726285 0 0.0001194841224103899 -0.0001543028918612458 0 0.0001239780194457846 -0.000154194508317876 0 0.0001314894032804781 -0.0001574468686954697 0 0.0001415013657620553 -0.000161376883001382 0 0.0001494879811927109 -0.0001619262990701435 0 0.0001566754996678201 -0.0001615884739730235 0 0.0001638407431238994 -0.0001613915675804892 0 0.0001646901553502301 -0.0001626115633227289 0 0.0001655802001015192 -0.0001638350498516642 0 0.0001664996842492982 -0.0001650658699451817 0 0.0001674484989939775 -0.000166302681268703 0 0.0001747247246228885 -0.0001664031526066027 0 0.0001757268952105481 -0.0001676868444467421 0 0.0001767400467994449 -0.0001689796217855243 0 0.0001777749611916695 -0.0001702777510179491 0 0.0001788304286708601 -0.0001715810251662992 0 0.0001799058341017695 -0.0001728893591206415 0 0.0001883183152813545 -0.0001746451031993408 0 0.0001894355248866267 -0.0001759998697552148 0 0.0001905680569730879 -0.0001773587487821024 0 0.0001917163187784954 -0.0001787217579439999 0 0.0001928783922041866 -0.0001800891872271018 0 0.0002001953888773138 -0.0001807456346811699 0 0.0002009842110499127 -0.0001821193878493146 0 0.0002039304661042251 -0.0001839642750355717 0 0.0002069282648665412 -0.0001848079085036805 0 0.0001401113643439707 -0.0001509665515743792 0 0.0001406138377285437 -0.0001513372292634254 0 0.0001310795484827797 -0.0001523150259862488 0 0.0001270510742247556 -0.0001530423288379047 0 0.0001236387046338445 -0.0001537142067565355 0 0.000120765363784999 -0.0001543396790969585 0 0.0001183571801360298 -0.0001549299435355723 0 0.0001163529419458721 -0.0001554942592231919 0 0.000114699563367513 -0.0001560410447021887 0 0.000113353315738968 -0.0001565769031335557 0 0.0001122761916919226 -0.0001571077051238724 0 0.0001185903672161902 -0.000154896506790283 0 0.0001179057831031985 -0.000155498867146281 0 0.0001174050407595094 -0.0001561122435176694 0 0.0001170724733647577 -0.0001567364509945797 0 0.0001237504359954924 -0.0001549097493748151 0 0.0001236541962883128 -0.0001556400552940799 0 0.0001236834918327071 -0.0001563828023560295 0 0.0001238264660626963 -0.0001571383628269115 0 0.0001240608357057011 -0.0001579114187459642 0 0.0001244030271582533 -0.0001586914561096438 0 0.0001248353346268357 -0.0001594840884909375 0 0.0001319605069892955 -0.0001583277036219411 0 0.0001324851986930522 -0.0001592276166410414 0 0.0001330699819864039 -0.0001601420482898706 0 0.0001337088604242926 -0.000161070257676699 0 0.000134365617735049 -0.0001620256587481017 0 0.000135076069524456 -0.0001629978412249282 0 0.0001422583249216535 -0.0001624053963057305 0 0.0001430690884532286 -0.0001634411210891343 0 0.0001574830931109119 -0.0001627634686828944 0 0.0001684277591732125 -0.00016754422602333 0 0.0001810007504425352 -0.0001742025646058488 0 0.0001821134176761017 -0.0001755208500022191 0 0.0001940531315620817 -0.0001814612910908402 0 0.0002010949373045364 -0.000183416829663418 0 0.0001503096358800254 -0.0001630273542464365 0 0.0001388963080287797 -0.000150097948592969 0 0.0001332148608896621 -0.0001528365323071406 0 0.000127695330820861 -0.0001539738208180164 0 0.0001230368165885299 -0.0001549408858634483 0 0.0001114453113136221 -0.0001576344527669995 0 0.0001168905931823373 -0.0001573729315300918 0 0.0001253514102150638 -0.0001602894763064853 0 0.0001358233148751697 -0.0001639844886627662 0 0.0001439173211631567 -0.0001644885435087079 0 0.0001511444457920624 -0.000164144850155859 0 0.0001583389199674995 -0.0001639410397713594 0 0.0001592396845447966 -0.0001651203895265505 0 0.000160175302002808 -0.0001663064949664365 0 0.0001611406059133938 -0.000167499775483208 0 0.0001621339497597423 -0.0001687002802020876 0 0.000169436455106301 -0.000168790758993927 0 0.000170468799304535 -0.000170043618471435 0 0.0001715223527529814 -0.0001713029182532103 0 0.0001725918882136481 -0.0001725701452692546 0 0.0001736811277669379 -0.0001738434249660336 0 0.0001747890044632827 -0.0001751227935735856 0 0.0001832431478278506 -0.0001768443062109219 0 0.0001843874099817175 -0.0001781730276893154 0 0.0001855471333565832 -0.000179506425587966 0 0.0001867222440865683 -0.0001808450134666967 0 0.0001879104440793311 -0.0001821889426869042 0 0.000195009154819065 -0.0001828149002316422 0 0.0001958320644157047 -0.0001841167655238813 0 0.0002004545469448352 -0.0001859533263860079 0 0.0001977335750921287 -0.0001851262922694198 0 0.0001225602822044314 -0.0001533634594197178 0 0.0001284743388054692 -0.0001533375934354807 0 0.0001240523745696855 -0.000154684215411105 0 0.0001191063715395137 -0.0001557810262106393 0 0.0001157996925258177 -0.0001565200877919533 0 0.000113026094489862 -0.0001571806823146092 0 0.0001107132548008812 -0.0001577802894975351 0 0.0001087994819340975 -0.000158333918306482 0 0.0001072332674818927 -0.0001588537742122581 0 0.0001059707986384199 -0.000159350059350612 0 0.0001049745292301739 -0.0001598313305772831 0 0.000104214763330514 -0.0001603036740463294 0 0.0001108367344594737 -0.000158160056101987 0 0.0001104007112501496 -0.0001586977289144504 0 0.0001101240276668954 -0.000159247487938196 0 0.0001099955944312115 -0.0001598088213419427 0 0.0001168415605546655 -0.000158023541903482 0 0.0001169136634995646 -0.0001586890730415371 0 0.0001170917472595399 -0.000159371615363071 0 0.0001173465449119571 -0.0001600780055621894 0 0.0001177092011240612 -0.0001607930801144911 0 0.000118174765453978 -0.0001615158078618084 0 0.0001187182076536241 -0.0001622543174826945 0 0.0001259077442283059 -0.0001611210610601027 0 0.0001265244867278696 -0.0001619690184644277 0 0.0001271965245312577 -0.0001628329498476857 0 0.0001279161556929302 -0.0001637127108892576 0 0.0001286463829384372 -0.0001646260947070081 0 0.0001294236282519225 -0.0001655518291183873 0 0.00013665088093871 -0.000164965289833048 0 0.0001375219635610165 -0.0001659589615584021 0 0.000152011805376508 -0.000165277278998496 0 0.0001631547857559857 -0.0001699071831532792 0 0.0001759137756432731 -0.0001764084181439085 0 0.0001770540836033517 -0.0001777004255601799 0 0.0001891092239550317 -0.0001835387346821697 0 0.000144797438084886 -0.0001655472893520923 0 0.0001220298829432013 -0.0001516995938527536 0 0.0001190489955866736 -0.0001560393160599146 0 0.0001145627739677709 -0.0001572351946118148 0 0.0001108016708859577 -0.00015823756866335 0 0.000103669730244187 -0.0001607709787093319 0 0.0001099996670748873 -0.0001603836967685416 0 0.0001193248890290198 -0.0001630119488360174 0 0.0001302421761625415 -0.000166493149995028 0 0.0001384285393302289 -0.0001669654231570054 0 0.0001456810831098924 -0.0001666263790436152 0 0.0001529072644591427 -0.0001664185844982603 0 0.000153854124986495 -0.0001675606408249782 0 0.0001548343620824157 -0.0001687105596907049 0 0.0001558441960435849 -0.0001698684430976337 0 0.0001568803169966857 -0.0001710343522795073 0 0.0001642015461637407 -0.0001711209582464022 0 0.0001652680921448545 -0.0001723427288818376 0 0.0001663553180064495 -0.0001735720103975051 0 0.0001674593300726399 -0.0001748092944885076 0 0.000168580998889797 -0.0001760539790062723 0 0.0001697190236975742 -0.0001773060119449692 0 0.000178210141431219 -0.0001789984381935016 0 0.0001793817589603514 -0.0001803021266201558 0 0.0001805676059496782 -0.0001816117447852587 0 0.0001817662566875414 -0.0001829273198690438 0 0.0001829756327196529 -0.000184248993826069 0 0.0001901537735454317 -0.0001848612387994736 0 0.0001913979085949645 -0.0001861803186163201 0 0.0001939919945146095 -0.0001870946323595462 0 0.0001097521475184148 -0.0001542832873994125 0 0.0001147362635643619 -0.0001558532827649164 0 0.0001097929588520508 -0.0001576475359109837 0 0.0001076540606094828 -0.0001590869784773225 0 0.0001050297307896089 -0.000159816371272686 0 0.0001028546198729446 -0.0001604527793550048 0 0.000101068624842899 -0.0001610177640066468 0 9.96155626912416e-05 -0.0001615308894135624 0 9.845994507091996e-05 -0.0001620042680672915 0 9.756411430451816e-05 -0.0001624501120243672 0 9.689585414872473e-05 -0.0001628785555431982 0 9.643057469806283e-05 -0.0001632967841104848 0 0.0001033073583591997 -0.0001612411097037362 0 0.000103099616558588 -0.0001617211013762981 0 0.0001030317598483062 -0.0001622128572565914 0 0.0001030934267087061 -0.0001627171403475282 0 0.0001101258010443346 -0.000160972266741511 0 0.0001103415875843881 -0.0001615834330383905 0 0.0001106312483352351 -0.0001622206903639042 0 0.0001110138250917222 -0.0001628738161892087 0 0.0001115016995098071 -0.0001635342186067304 0 0.0001120758464724959 -0.0001642072440063099 0 0.0001127337655504494 -0.0001648920628376802 0 0.0001199748642015322 -0.0001637937733536477 0 0.0001206781332696311 -0.000164594140572955 0 0.0001214315374320407 -0.0001654118513475363 0 0.0001222263652748705 -0.0001662474978672947 0 0.0001230226726117642 -0.0001671171698421399 0 0.0001238658072699911 -0.0001680057891773401 0 0.0001311297254072863 -0.0001674333979518521 0 0.0001320568764529351 -0.0001683880445521216 0 0.0001465923744468167 -0.0001677214014855199 0 0.0001579402751952762 -0.0001722086856062207 0 0.0001708711812284317 -0.000178565720273851 0 0.000172038441575927 -0.0001798326493576338 0 0.0001842984709344643 -0.0001854842385657537 0 0.0001393628404894933 -0.0001679849302659396 0 0.0001046620247592751 -0.0001531197017333002 0 0.0001044924903816261 -0.0001566017418873869 0 0.0001055883166046169 -0.0001591462870205312 0 0.0001020775755512951 -0.0001603690538680889 0 9.915646993719866e-05 -0.0001613748159860581 0 9.614708570149102e-05 -0.0001637108539400137 0 0.0001032715047094157 -0.0001632358771257444 0 0.0001134217754497054 -0.0001656079833957271 0 0.0001247434008011052 -0.0001689066530702714 0 0.0001330185512191981 -0.0001693564942111803 0 0.0001403009187595475 -0.000169024519707572 0 0.0001475433402121292 -0.0001688231135595697 0 0.0001485295806759495 -0.0001699319079697059 0 0.0001495550613317983 -0.0001710472768185462 0 0.0001506098190645772 -0.0001721704269067794 0 0.0001516856385391652 -0.00017330426911575 0 0.0001590215338431214 -0.000173391869274349 0 0.0001601225817447342 -0.0001745838570174158 0 0.0001612416266261672 -0.0001757846586393306 0 0.0001623772757915964 -0.0001769941454261885 0 0.0001635287090398041 -0.0001782120337846419 0 0.0001646951577387211 -0.0001794384268429869 0 0.000173218964191326 -0.0001811068313732364 0 0.0001744146543937775 -0.0001823874216425248 0 0.0001756239811876012 -0.0001836747762535557 0 0.0001768434019762656 -0.0001849691746116061 0 0.0001783975209289735 -0.0001861172703855512 0 0.0001845565328409131 -0.0001871266094235351 0 0.0001875411777132111 -0.000188229918919976 0 9.260961851183799e-05 -0.000156775474641698 0 9.973898136260901e-05 -0.0001587873860881085 0 9.60175326565661e-05 -0.0001606433496687809 0 9.673751413627352e-05 -0.0001622106262043603 0 9.47475107501445e-05 -0.0001629145967323255 0 9.312843028282587e-05 -0.0001635167686770068 0 9.182370992516246e-05 -0.0001640439827437078 0 9.080150381064705e-05 -0.0001645130649908316 0 9.003001175956155e-05 -0.0001649390008736667 0 8.947410934530128e-05 -0.0001653364979097162 0 8.911000857038188e-05 -0.0001657155943906454 0 8.891464994332181e-05 -0.0001660853742659033 0 9.602080724177938e-05 -0.000164127876013664 0 9.602296252273903e-05 -0.0001645563278675061 0 9.614901085299906e-05 -0.0001649960197080223 0 9.638657760295472e-05 -0.0001654494819708497 0 0.0001035482846845302 -0.0001637725518778742 0 0.0001038912768218097 -0.0001643376438953436 0 0.0001043161801186246 -0.0001649226082580352 0 0.0001048340504128176 -0.0001655211873320518 0 0.0001054349273263979 -0.0001661339601519136 0 0.0001061131342545155 -0.0001667611315009669 0 0.0001068592787220471 -0.0001674052210549536 0 0.0001141578559135498 -0.0001663454152505048 0 0.0001149389208526826 -0.0001671036517046613 0 0.0001157698853839498 -0.0001678789578098738 0 0.0001166347582449459 -0.0001686745847651884 0 0.0001174958604511641 -0.0001695089847709699 0 0.0001183944484531611 -0.0001703572877404241 0 0.0001256885251467916 -0.0001698094115562273 0 0.0001266729991917279 -0.0001707273981175671 0 0.0001412610328207266 -0.0001700835834956395 0 0.0001527815587668356 -0.0001744484059398299 0 0.0001658763098541311 -0.0001806726720247557 0 0.0001670667874807862 -0.0001819167730078224 0 0.0001798986163341685 -0.0001870467269573578 0 0.0001340038954284705 -0.00017033980022919 0 8.749056579996323e-05 -0.0001543451646084118 0 8.905371769458648e-05 -0.000159495133187613 0 9.28644804953958e-05 -0.0001621413914404098 0 9.025255865799126e-05 -0.0001633497287674186 0 8.810399942995631e-05 -0.0001643309564657035 0 8.887487221613358e-05 -0.0001664508849095598 0 9.672417909354246e-05 -0.0001659189126829829 0 0.0001076255396790996 -0.0001680829761924085 0 0.0001193222939309752 -0.0001712249003187069 0 0.0001276844614062352 -0.0001716616927265415 0 0.0001349793276907941 -0.0001713479102518804 0 0.000142229861965581 -0.0001711579635904703 0 0.0001432742251965052 -0.0001722305172380902 0 0.0001443442331404175 -0.0001733123080060325 0 0.0001454329352506597 -0.0001744062984500717 0 0.000146542412624639 -0.0001755114999497533 0 0.0001538967961135971 -0.0001756025968888683 0 0.0001550291799847152 -0.000176766945164579 0 0.0001561782343588746 -0.0001779411125629671 0 0.0001573431128985295 -0.0001791246942305349 0 0.0001585226045416329 -0.0001803176447304036 0 0.0001597159234733687 -0.0001815197964312507 0 0.0001682696109644671 -0.0001831690807308383 0 0.0001694867942725299 -0.0001844282313812923 0 0.0001707166342067041 -0.0001856949308476222 0 0.0001719570067116666 -0.000186969056689638 0 0.0001744361490191781 -0.0001879802153576464 0 0.00018110262811704 -0.0001893572169032329 0 0.0001776670203495746 -0.0001886516945540053 0 7.481421080068091e-05 -0.0001581592825005585 0 7.867064499201052e-05 -0.0001600214992941053 0 8.576478841170108e-05 -0.0001617068604986767 0 8.308994426855349e-05 -0.0001635315705317828 0 8.635528565388607e-05 -0.0001651345777138079 0 8.495162175908253e-05 -0.0001658004773180583 0 8.384077124395975e-05 -0.0001663626226979053 0 8.298585760568588e-05 -0.0001668464715803015 0 8.235606817294726e-05 -0.000167272539373794 0 8.193457771408393e-05 -0.0001676542451353499 0 8.169249828782501e-05 -0.0001680065524195134 0 8.160768592410424e-05 -0.0001683411597737543 0 8.166515918630342e-05 -0.0001686662689712192 0 8.896294212208981e-05 -0.0001668217803766756 0 8.916267790220968e-05 -0.0001672033792705432 0 8.946834946678132e-05 -0.0001675971201866889 0 8.9867962855372e-05 -0.0001680062535603046 0 9.713138825410484e-05 -0.000166412519464946 0 9.760471677712352e-05 -0.0001669323870606901 0 9.815251442420655e-05 -0.0001674728375482547 0 9.879743696407558e-05 -0.0001680221395858379 0 9.950095731164289e-05 -0.0001685933949912214 0 0.0001002681844312809 -0.0001691833686089418 0 0.0001010739831645518 -0.0001698005725762994 0 0.0001084400418835426 -0.0001687809603073709 0 0.0001093049062063994 -0.0001694970687875036 0 0.0001102077675496152 -0.00017023462485543 0 0.0001111378426825829 -0.0001709945073258775 0 0.0001120559133591952 -0.0001717922317837814 0 0.0001130037732293665 -0.0001726116303131394 0 0.0001203339931752028 -0.0001720908305700622 0 0.0001213648433412738 -0.0001729780475287242 0 0.0001359732684740587 -0.0001723767988867693 0 0.0001476712449589685 -0.0001766277668468858 0 0.0001609208427252456 -0.000182732080651115 0 0.0001621370280842447 -0.000183953707815291 0 0.0001287156821828373 -0.0001726120891303409 0 7.013966199517999e-05 -0.000155333776497105 0 7.518164243608934e-05 -0.0001623745111472684 0 8.088884370749573e-05 -0.0001649842845734116 0 7.909056305901561e-05 -0.0001661472561376488 0 7.764110734602245e-05 -0.0001670837983266577 0 8.184330936542973e-05 -0.0001689912103128592 0 9.034973076162188e-05 -0.0001684329749464613 0 0.0001019384398786186 -0.0001704342100218857 0 0.0001140190764479179 -0.0001734343986100796 0 0.0001224227715399318 -0.0001738813587239348 0 0.0001297393223869548 -0.0001735868220625998 0 0.000137010195824819 -0.0001734132193333161 0 0.0001380854764728557 -0.0001744560920641516 0 0.0001391943797234152 -0.000175507810004449 0 0.0001403091879450165 -0.0001765764717232287 0 0.0001414522488594154 -0.0001776546351826199 0 0.0001488196197647384 -0.0001777546359047487 0 0.0001499848326118464 -0.0001788922763695861 0 0.0001511627091115278 -0.000180041453178524 0 0.0001523551383371988 -0.0001812010681637297 0 0.0001535615430528328 -0.0001823709341908711 0 0.0001547797625850985 -0.0001835509888394485 0 0.0001633605211175792 -0.0001851847349020866 0 0.0001645969028739062 -0.0001864243382920154 0 0.0001658450018665381 -0.0001876714941592678 0 0.0001673325870671231 -0.0001890820474552315 0 0.000171231969187618 -0.0001897877173870168 0 0.0001746768346340855 -0.0001904745003070588 0 5.841587919987857e-05 -0.0001594191696181658 0 6.364272790979394e-05 -0.0001622005414232079 0 7.268627599163848e-05 -0.000164538916857875 0 7.100288365626898e-05 -0.0001662641868145596 0 7.650397125109097e-05 -0.0001678417518876907 0 7.563265246623971e-05 -0.0001684626268131254 0 7.498577513936014e-05 -0.0001689808514860754 0 7.453175489951635e-05 -0.0001694236683328289 0 7.427171905604074e-05 -0.0001698051485404995 0 7.416427609641951e-05 -0.0001701475370853669 0 7.420759274929004e-05 -0.0001704598983077071 0 7.437753228798123e-05 -0.0001707557977184098 0 7.465932563929097e-05 -0.0001710446812609389 0 8.212762300691182e-05 -0.0001693223642002887 0 8.251089238807413e-05 -0.0001696630682027588 0 8.298170757012598e-05 -0.0001700173915720325 0 8.353227426681936e-05 -0.0001703879157321713 0 9.08944107315562e-05 -0.0001688852904953866 0 9.150289808145814e-05 -0.000169359733948564 0 9.217655265725424e-05 -0.0001698558203119605 0 9.290416781154004e-05 -0.0001703754351766293 0 9.369745967362812e-05 -0.0001709131457208597 0 9.454535199001032e-05 -0.0001714715200469551 0 9.543450283317596e-05 -0.0001720541450559149 0 0.0001028313279532284 -0.000171095341694759 0 0.0001037775802195806 -0.0001717732915587442 0 0.0001047415599681261 -0.0001724797045807711 0 0.0001057303055567344 -0.0001732083635096799 0 0.0001067138899467195 -0.0001739720696885658 0 0.0001077455302582459 -0.0001747498392490488 0 0.0001150725875538838 -0.0001742734076932068 0 0.0001161399520904456 -0.000175135834092215 0 0.0001307777389236311 -0.0001745850406407644 0 0.0001426123440865101 -0.0001787451080382885 0 0.0001560073238347977 -0.0001847415209659068 0 0.0001572456185576575 -0.0001859429286881776 0 0.0001234979887434499 -0.000174801913946578 0 5.269792828639985e-05 -0.0001560779252662034 0 6.185979735007691e-05 -0.0001650493356240736 0 6.964888264069633e-05 -0.0001676386264256269 0 6.857479765636264e-05 -0.0001687358871149005 0 6.775376087759461e-05 -0.0001696146372582394 0 7.504075406694876e-05 -0.0001713340240511172 0 8.415459155579356e-05 -0.0001707771400679148 0 9.636250092364167e-05 -0.0001726605266428839 0 0.0001088159324029378 -0.0001755434606085299 0 0.0001172307045111178 -0.0001760161007968032 0 0.0001245558686836633 -0.0001757505596776441 0 0.00013184715218162 -0.0001755945612852139 0 0.0001329582008371088 -0.0001766092004028511 0 0.0001340795674535595 -0.0001776408689818805 0 0.0001352371048464963 -0.0001786810188926575 0 0.0001364169833403819 -0.0001797328526699084 0 0.0001437965044660526 -0.0001798452448093659 0 0.000144987396257715 -0.0001809599446009123 0 0.0001461929204712469 -0.0001820859188057152 0 0.0001474110968962579 -0.0001832234398770551 0 0.0001486409582174991 -0.0001843722920424977 0 0.0001498821500688249 -0.0001855321308187505 0 0.0001584951476915335 -0.000187153433655973 0 0.0001597417169440532 -0.000188370602782825 0 0.0001609652584765243 -0.0001895433313700259 0 0.0001650532128179865 -0.0001909390348922506 0 0.0001682642394754601 -0.0001915796916969341 0 4.181402312076566e-05 -0.0001602903922150014 0 4.758740293334591e-05 -0.0001630244998106005 0 5.028920167242174e-05 -0.0001654722445904652 0 6.054378162614028e-05 -0.0001671638905083938 0 5.97371067021342e-05 -0.0001687856653119659 0 6.716722583341436e-05 -0.0001703197799118502 0 6.677705600606999e-05 -0.0001708925752614887 0 6.654804220666504e-05 -0.0001713666652385714 0 6.648063656466905e-05 -0.0001717637827245684 0 6.653803595188155e-05 -0.0001721091573184075 0 6.671433155909893e-05 -0.0001724170129963474 0 6.700656508602202e-05 -0.0001726979252555626 0 6.740677291083024e-05 -0.000172961814698189 0 6.789376308570847e-05 -0.0001732206375751571 0 7.550969296013446e-05 -0.0001716302742775407 0 7.605846730311872e-05 -0.0001719376629947367 0 7.668109543465191e-05 -0.00017225936537269 0 7.737047430426231e-05 -0.000172598503217825 0 8.482692611626415e-05 -0.0001711921348088203 0 8.555027376528109e-05 -0.0001716316511331701 0 8.631990363878881e-05 -0.0001720975281173033 0 8.712484426359386e-05 -0.0001725920823213304 0 8.801179436848002e-05 -0.0001730973284022121 0 8.893806917228374e-05 -0.0001736274582636749 0 8.990271783503534e-05 -0.0001741819249934749 0 9.733212681703522e-05 -0.0001732885003594474 0 9.833688277130365e-05 -0.0001739398572454052 0 9.936447624020692e-05 -0.0001746159657477001 0 0.000100409661866836 -0.000175317494994259 0 0.0001014709735506681 -0.0001760452650966087 0 0.000102567005049186 -0.0001767935372988935 0 0.0001098946637574107 -0.0001763632194872459 0 0.0001109642583734193 -0.0001772155909986675 0 0.0001256304288078838 -0.000176721636250684 0 0.0001376085763007511 -0.0001807988196070435 0 0.0001511323517098121 -0.0001867028465162756 0 0.0001523949449834134 -0.0001878842156219424 0 0.0001623027613669617 -0.0001904469823236842 0 0.000118346319659255 -0.00017691008694836 0 3.516410719435438e-05 -0.0001566099743229633 0 4.960477467420644e-05 -0.0001677145433699219 0 5.911954719992033e-05 -0.0001700714930956523 0 5.868854327146558e-05 -0.0001710932388451398 0 5.842172789111307e-05 -0.0001719091977688973 0 6.845896466663844e-05 -0.0001734815379825258 0 7.811762211270885e-05 -0.0001729583444384347 0 9.089898837340226e-05 -0.0001747618025793681 0 0.0001036868695869404 -0.0001775608004196099 0 0.0001121042486687846 -0.0001780671154749533 0 0.0001194464994798957 -0.0001778309779784736 0 0.0001267367327481297 -0.0001777031492552885 0 0.0001278655562757395 -0.0001786979406394453 0 0.0001290367317256294 -0.0001797006319689456 0 0.0001302282369835765 -0.0001807163067837003 0 0.0001314348794337884 -0.000181746413966015 0 0.0001388177062141731 -0.0001818774598754695 0 0.0001400366953645815 -0.0001829696710479067 0 0.0001412673612045412 -0.0001840745937287014 0 0.000142508846878436 -0.0001851919684055849 0 0.0001437596163639862 -0.0001863218516220291 0 0.0001450222461577865 -0.0001874630497176236 0 0.0001536703394850084 -0.0001890754393345183 0 0.0001548650718855143 -0.000190263227122231 0 0.0001566389908929741 -0.0001912234270548129 0 0.000158886047624347 -0.0001919708152122528 0 0.0001618652342444315 -0.0001926706681925299 0 2.487092778539889e-05 -0.0001614419046536327 0 3.28434762124796e-05 -0.0001640554612134692 0 3.893165732580671e-05 -0.0001657213330444685 0 3.815472476969937e-05 -0.0001679560699180954 0 4.932299504964412e-05 -0.0001695878819394585 0 4.92399334809038e-05 -0.0001710788900866296 0 5.832301765537527e-05 -0.0001725602071829603 0 5.835690985157837e-05 -0.0001730864601229271 0 5.851491059575286e-05 -0.0001735171261127127 0 5.877096415331472e-05 -0.0001738790375719851 0 5.912642504360925e-05 -0.0001741897921398048 0 5.955511651792497e-05 -0.0001744692923226083 0 6.007402953896551e-05 -0.0001747242061899123 0 6.068080096607132e-05 -0.0001749633658358239 0 6.135244698113341e-05 -0.0001751993879678726 0 6.909462575791798e-05 -0.0001737502648643556 0 6.9795002386769e-05 -0.0001740311467115848 0 7.055410378894912e-05 -0.0001743278434926043 0 7.136602129080746e-05 -0.0001746435198615678 0 7.890102579072249e-05 -0.00017334467693536 0 7.973413124109059e-05 -0.0001737540678971856 0 8.059551474291844e-05 -0.0001741930368487066 0 8.148756864564026e-05 -0.0001746616246014462 0 8.244357334432503e-05 -0.0001751465498003877 0 8.344183609021108e-05 -0.0001756539090473654 0 8.44720042566083e-05 -0.0001761866358237822 0 9.193169708481641e-05 -0.0001753644948716983 0 9.298983214825414e-05 -0.0001759925610805236 0 9.407287678605027e-05 -0.0001766452429564495 0 9.517569306436677e-05 -0.0001773234387180468 0 9.629695468711403e-05 -0.0001780257738491275 0 9.744502379519635e-05 -0.0001787497103942431 0 0.0001047836780793554 -0.0001783621932603289 0 0.0001058933811413138 -0.0001791921293512958 0 0.000120551849503333 -0.0001787787323062658 0 0.0001326552277336063 -0.0001827908350710714 0 0.0001462955301781408 -0.0001886156543445797 0 0.0001475782403487053 -0.0001897793994229883 0 0.0001132578589864447 -0.0001789375315949095 0 1.772848808155354e-05 -0.0001568380819814185 0 3.835216182690871e-05 -0.0001700220717329749 0 4.926708784978032e-05 -0.0001722634493051616 0 4.939505544037654e-05 -0.0001732069413830999 0 4.962220220038379e-05 -0.0001739581230157488 0 6.208436744568041e-05 -0.00017543882134197 0 7.222233041671356e-05 -0.0001749813187121923 0 8.553151327877204e-05 -0.0001767445514374005 0 9.856607856626752e-05 -0.0001795069102934035 0 0.0001070410237992154 -0.0001800353593516569 0 0.0001143784208903595 -0.0001798395899116075 0 0.0001216733946658772 -0.0001797416988612799 0 0.0001228452046554128 -0.000180710929526066 0 0.000124049937755649 -0.0001816912609598523 0 0.0001252697782395264 -0.0001826861451203353 0 0.0001265022169327367 -0.0001836965400075362 0 0.0001338874345628081 -0.0001838494803867112 0 0.0001351306916551863 -0.0001849219002071347 0 0.0001363838119415486 -0.0001860078330953819 0 0.0001376446339346045 -0.0001871075606862977 0 0.0001389170299756224 -0.0001882197600264986 0 0.00014019869988256 -0.0001893442951545978 0 0.000148868896898861 -0.0001909545871724819 0 0.0001503694721685723 -0.0001920819591265453 0 0.0001524855107158758 -0.0001930033933002418 0 0.000155480156182765 -0.0001937452680249364 0 1.227364817788158e-05 -0.000160597908394642 0 2.152531690334465e-05 -0.0001652456729352581 0 2.610072818002369e-05 -0.0001674697523470421 0 2.678446991305872e-05 -0.0001700556907259771 0 3.890167788485738e-05 -0.0001717470486983404 0 3.946665162500129e-05 -0.0001731147451361313 0 4.994755885011004e-05 -0.0001745580608368887 0 5.036177085597228e-05 -0.0001750408866089213 0 5.084943372865168e-05 -0.0001754358584564453 0 5.140537347087451e-05 -0.0001757658341624893 0 5.200551181205469e-05 -0.0001760532141022715 0 5.26652976549278e-05 -0.0001763097991464482 0 5.33949018583057e-05 -0.0001765437146725148 0 5.418398681693877e-05 -0.0001767661418498566 0 5.502156542498311e-05 -0.0001769866832291529 0 6.28707077955124e-05 -0.0001756873038761384 0 6.370718544937749e-05 -0.0001759491647083773 0 6.458930750526759e-05 -0.0001762279819777223 0 6.551036359548128e-05 -0.0001765272240592109 0 7.312191125020751e-05 -0.0001753421115686729 0 7.402749999712195e-05 -0.0001757363726247517 0 7.496301764703723e-05 -0.0001761585756756148 0 7.59397722482172e-05 -0.0001766050051790627 0 7.697875578272669e-05 -0.0001770672281661937 0 7.804498776552707e-05 -0.0001775560759952581 0 7.913679687091642e-05 -0.0001780712948633474 0 8.661999103891492e-05 -0.0001773273342984834 0 8.773180904885146e-05 -0.0001779353956688936 0 8.886208895022325e-05 -0.0001785699235965522 0 9.001107085787746e-05 -0.0001792296465845225 0 9.117890773232054e-05 -0.0001799135344724425 0 9.235627441502064e-05 -0.0001806216573846202 0 9.969320277531417e-05 -0.0001802927586705918 0 0.0001008251199978437 -0.0001811106009397879 0 0.000115526386325497 -0.0001807647794702969 0 0.0001277463821690135 -0.0001847220959844557 0 0.0001414908156371942 -0.0001904806056485721 0 0.0001428178937981475 -0.0001916106793163745 0 0.0001082265863197236 -0.0001808856313024843 0 0 -0.0001571312799175775 0 1.182399404140478e-05 -0.0001639501662984978 0 2.874317520372195e-05 -0.0001719261590952557 0 4.006730457906316e-05 -0.0001741998076443504 0 4.068208020976451e-05 -0.0001750657790845709 0 4.130677250776253e-05 -0.0001757602271321543 0 5.59036028594131e-05 -0.0001772119272244964 0 6.646820628413271e-05 -0.0001768487050221679 0 8.025428964983836e-05 -0.0001786123442153232 0 9.351047920108425e-05 -0.0001813643778953402 0 0.0001020369208571094 -0.0001819228113948643 0 0.000109381252201165 -0.0001817706155312776 0 0.000116670061231816 -0.0001817103376790182 0 0.0001178798972319764 -0.000182654572937545 0 0.0001191101015520004 -0.000183615695400966 0 0.000120353257773083 -0.000184592867814271 0 0.0001216102861788486 -0.0001855856291170427 0 0.0001290014475406182 -0.0001857625646485269 0 0.0001302667585695597 -0.0001868173201251547 0 0.0001315405338624026 -0.0001878863169126354 0 0.0001328215649776333 -0.0001889699995438468 0 0.0001341104541321612 -0.0001900676329117503 0 0.000135410541182808 -0.0001911762047322003 0 0.0001442659999039454 -0.0001926673704920675 0 0.0001453553627294099 -0.000193995667854081 0 0.0001491092846151087 -0.0001948012976487146 0 0 -0.0001617808936554376 0 1.228746219889163e-05 -0.0001672728319808812 0 1.340734325405584e-05 -0.0001702250752856687 0 1.959678132905982e-05 -0.0001718024587261381 0 2.924826706281336e-05 -0.0001736356621399228 0 3.035908532260194e-05 -0.0001748825993584051 0 4.200866696083975e-05 -0.0001763134176442153 0 4.275242716920225e-05 -0.0001767593838627197 0 4.353380176380937e-05 -0.0001771248887343129 0 4.43293026830827e-05 -0.0001774347992185495 0 4.5157614390195e-05 -0.0001777037036566868 0 4.602430036512514e-05 -0.0001779445355054783 0 4.694498637533235e-05 -0.0001781647746217524 0 4.790068928676188e-05 -0.000178377071946171 0 4.888765596772197e-05 -0.0001785893039537199 0 5.682556311837455e-05 -0.0001774474113459319 0 5.778381730156568e-05 -0.0001776974966744756 0 5.877489814359161e-05 -0.0001779656527062223 0 5.979511246298586e-05 -0.0001782546754731878 0 6.743911133903989e-05 -0.000177199841977525 0 6.840762651099343e-05 -0.0001775856817620795 0 6.943758047629429e-05 -0.0001779881003926983 0 7.051240820914621e-05 -0.0001784118322045377 0 7.161610174463291e-05 -0.0001788611433641579 0 7.274290972980694e-05 -0.0001793371479607985 0 7.389103036006459e-05 -0.0001798398896078063 0 8.139367128648672e-05 -0.0001791793569657511 0 8.255197826524912e-05 -0.0001797730846892947 0 8.372705758223322e-05 -0.000180392870224026 0 8.491800698928442e-05 -0.0001810382297413187 0 8.612444896500488e-05 -0.0001817084184919692 0 8.733988375224012e-05 -0.000182402932736165 0 9.465449067429474e-05 -0.0001821414220033136 0 9.586436547174341e-05 -0.0001829261573803199 0 0.0001105499375693639 -0.0001826751621054147 0 0.0001228787202886244 -0.00018659410950325 0 0.0001367201824853407 -0.0001922980507390069 0 0.0001381951493198837 -0.0001933268426507312 0 0.0001032540073466186 -0.0001827558091505274 0 0 -0.0001657053301890399 0 1.917935524634915e-05 -0.000173466802658762 0 3.151824090264098e-05 -0.0001758687455777754 0 3.251371503061229e-05 -0.0001766690244231342 0 3.340434395718195e-05 -0.0001773197677013008 0 4.990304991424147e-05 -0.0001788078685825124 0 6.082753790287463e-05 -0.0001785698947709033 0 7.505910252547638e-05 -0.0001803693059281364 0 8.853493509550862e-05 -0.0001831225799248143 0 9.708896645841289e-05 -0.0001837310614865017 0 0.0001044275303557858 -0.0001836259956161382 0 0.0001117298373741839 -0.0001836029111594014 0 0.0001129626046465738 -0.0001845298585043791 0 0.0001142119531240726 -0.0001854755188494529 0 0.000115482512214378 -0.0001864359834841272 0 0.0001167632310902925 -0.0001874130791718468 0 0.0001241568950104244 -0.0001876178983528186 0 0.0001254433170751858 -0.0001886568514215458 0 0.0001267344395149475 -0.0001897111491325088 0 0.0001280276953864543 -0.0001907819332280812 0 0.0001293363285428625 -0.0001918682765221583 0 0.0001306546698839147 -0.0001929598681386222 0 0.0001400278269782209 -0.0001940597157820485 0 0.0001427528376325929 -0.0001958365393863396 0 0 -0.0001688941142167133 0 9.763827207958315e-06 -0.0001727021432751059 0 1.939131295312363e-05 -0.0001752455047303854 0 2.247100364420226e-05 -0.0001763361797707474 0 3.443011431599709e-05 -0.0001778345980613602 0 3.548090881287383e-05 -0.0001782488400011901 0 3.650664876291585e-05 -0.0001785951120525175 0 3.752815967978901e-05 -0.0001788898948120023 0 3.856496476797068e-05 -0.0001791471396679814 0 3.962618494066295e-05 -0.0001793783341990595 0 4.071471924087733e-05 -0.0001795937399072175 0 4.181757720969743e-05 -0.000179803745437477 0 4.293575667111632e-05 -0.0001800153581862282 0 5.094515503548442e-05 -0.000179037793136466 0 5.201265953938077e-05 -0.0001792829246103455 0 5.310180427497124e-05 -0.0001795467816226758 0 5.420577483367002e-05 -0.0001798326855944845 0 6.186981630581446e-05 -0.0001789148509394976 0 6.292132721406067e-05 -0.000179289687276381 0 6.40402940347646e-05 -0.0001796781432978395 0 6.51839675432957e-05 -0.0001800923091677551 0 6.634756531506265e-05 -0.0001805333366953437 0 6.752956867972448e-05 -0.0001810013919688964 0 6.872853182336532e-05 -0.0001814965214221143 0 7.624602548254111e-05 -0.0001809251496029621 0 7.744747843640145e-05 -0.0001815079956588258 0 7.866304044633185e-05 -0.000182117132124094 0 7.989220435166444e-05 -0.0001827517180105064 0 8.113414379826081e-05 -0.0001834110361726311 0 8.23794604707971e-05 -0.0001840954005308124 0 8.973924133031771e-05 -0.0001838846422904002 0 9.096619619906036e-05 -0.0001846620063096844 0 0.0001056311573850142 -0.0001845177284916306 0 0.0001180531738541201 -0.0001884067973157598 0 0.0001322687841216246 -0.0001940048769771323 0 0.0001386706416110454 -0.0001953836566702211 0 0.0001337063731136424 -0.0001951434433663131 0 9.833511717810626e-05 -0.0001845497843080793 0 0 -0.0001714595561394433 0 9.572098668530404e-06 -0.000174547148665854 0 2.375082844359795e-05 -0.0001772709688207413 0 2.464903582467299e-05 -0.0001780344653463667 0 2.596896835295798e-05 -0.0001786272226518021 0 4.406926732165703e-05 -0.0001802345541605991 0 5.529713223405455e-05 -0.0001801504775865712 0 6.994320935563505e-05 -0.0001820186888944321 0 8.362893672856381e-05 -0.0001848058822799638 0 9.220263058396063e-05 -0.0001854619550684746 0 9.95413422041785e-05 -0.0001854083368089894 0 0.0001068338484635998 -0.0001854250442922471 0 0.0001080801619726879 -0.0001863402427812558 0 0.000109361761935753 -0.0001872699069050942 0 0.000110655028453069 -0.0001882165369947923 0 0.000111957197144602 -0.0001891804970483578 0 0.0001193514970464133 -0.0001894163930470945 0 0.0001206571043833612 -0.000190441454308494 0 0.0001219591498719391 -0.0001914844577439452 0 0.000123268215238333 -0.0001925420188785144 0 0.0001246002901453498 -0.0001936343243360999 0 0.0001259522203115073 -0.0001948327678068899 0 0.0001364109690567489 -0.0001968487595759467 0 0 -0.0001735655351226961 0 8.802169217560542e-06 -0.0001759899075484519 0 1.490855998438557e-05 -0.0001764202673551517 0 1.561722724815259e-05 -0.0001774715119171105 0 2.731439233783722e-05 -0.0001791092826211982 0 2.852956776221797e-05 -0.0001795148114203959 0 2.977564190453426e-05 -0.0001798488042996551 0 3.100341083802732e-05 -0.0001801354012640296 0 3.222705332656435e-05 -0.0001803893247421889 0 3.345731646904444e-05 -0.0001806206950543927 0 3.468739481359558e-05 -0.0001808399805043171 0 3.59155518286162e-05 -0.000181055769128344 0 3.715076519727833e-05 -0.0001812739402385811 0 4.521882721184987e-05 -0.0001804656498208204 0 4.63839726506669e-05 -0.0001807123830099517 0 4.756383189494255e-05 -0.0001809778163720519 0 4.872627285106025e-05 -0.0001812699244784298 0 5.641089616486206e-05 -0.0001804920791304002 0 5.756288886515955e-05 -0.0001808549872593734 0 5.874555666106347e-05 -0.0001812401923667539 0 5.994892589804788e-05 -0.0001816507848582487 0 6.116691592597928e-05 -0.0001820885186744975 0 6.239836006059781e-05 -0.0001825535179418197 0 6.36429402529897e-05 -0.000183045632218904 0 7.117169712179906e-05 -0.0001825678462782664 0 7.241299577623934e-05 -0.0001831436667847048 0 7.366650469018391e-05 -0.0001837453702260639 0 7.493020939656223e-05 -0.0001843725192102699 0 7.621047217687147e-05 -0.0001850245497432044 0 7.750205564163963e-05 -0.0001857007456904884 0 8.485900074201312e-05 -0.0001855572771443792 0 8.609972108892375e-05 -0.0001863277916615044 0 0.0001007523765362481 -0.0001862842367756443 0 0.0001132671421142423 -0.0001901613888127247 0 0.000128984434420088 -0.0001954238248898713 0 0.0001333407493566903 -0.0001964198321159985 0 9.346815172978494e-05 -0.0001862694817153377 0 0 -0.0001753022794538886 0 1.61915036255045e-05 -0.0001783706928545285 0 1.695667989039922e-05 -0.0001791360947647655 0 1.893960062679564e-05 -0.0001796790974393899 0 3.838913465665426e-05 -0.0001815004386866593 0 4.986059954954855e-05 -0.0001815970124218702 0 6.489934199660361e-05 -0.0001835648653987009 0 7.878976858412312e-05 -0.0001864024572470341 0 8.735884077173701e-05 -0.0001871181697824082 0 9.468600812968943e-05 -0.0001871146004549577 0 0.000101982431641092 -0.0001871783901366504 0 0.0001032555001190278 -0.0001880815890851882 0 0.0001045591072354448 -0.0001889997409800228 0 0.0001058716438407939 -0.0001899353154030753 0 0.0001071915655404686 -0.0001908886579982538 0 0.0001145841090854717 -0.0001911588342431379 0 0.0001159013946414653 -0.0001921730052449117 0 0.0001172155040240566 -0.0001932061840258399 0 0.0001185509290853001 -0.0001942503925735711 0 0.0001198846074875546 -0.0001952858809689382 0 0.0001240191098038816 -0.0001964206585227829 0 0.000127849726361723 -0.0001968712146953021 0 0.0001300837657242397 -0.0001978357171865251 0 8.632322869132713e-06 -0.000177244874988978 0 0 -0.0001767291387976028 0 8.094809277602843e-06 -0.0001783341453042527 0 2.078659406369209e-05 -0.0001801351552401656 0 2.188813900295323e-05 -0.00018056423722395 0 2.33321352036058e-05 -0.0001808933250384605 0 2.473911483080021e-05 -0.0001811822387845808 0 2.611733678345279e-05 -0.0001814428121160949 0 2.739780669865012e-05 -0.0001816957330393938 0 2.882920704755581e-05 -0.000181915783136168 0 3.024573307333646e-05 -0.0001821320986424081 0 3.151987681199186e-05 -0.0001823740851258862 0 3.963472021359174e-05 -0.0001817391053441504 0 4.088657663969603e-05 -0.0001819937851763439 0 4.213947103480717e-05 -0.0001822677226413524 0 4.336019091439594e-05 -0.0001825702550826247 0 5.107253443992132e-05 -0.0001819335316172777 0 5.229976416370118e-05 -0.0001822947111782646 0 5.354566412271709e-05 -0.0001826801647489947 0 5.480157405185957e-05 -0.0001830924775767549 0 5.606772408330419e-05 -0.0001835318106136418 0 5.73434700353805e-05 -0.0001839982613898942 0 5.862885131936714e-05 -0.0001844916967909421 0 6.616684823507603e-05 -0.0001841109542981913 0 6.744443591948036e-05 -0.0001846835730548634 0 6.8733610888879e-05 -0.0001852814818448872 0 7.003473304787628e-05 -0.0001859044826876276 0 7.134030785478667e-05 -0.0001865542403364001 0 7.265837753238298e-05 -0.0001872258923719956 0 8.000645246159597e-05 -0.0001871549651588272 0 8.127036130857697e-05 -0.000187921846561379 0 9.590283990118508e-05 -0.0001879860692115536 0 0.0001085188081720512 -0.0001918591655193516 0 0.0001211790513559815 -0.0001960752277196469 0 8.864560342353467e-05 -0.0001879171159156396 0 8.291992916783049e-06 -0.0001792270498870447 0 9.396846218034275e-06 -0.0001800751056595127 0 1.428842334130787e-05 -0.0001803913455418394 0 3.285155318227604e-05 -0.0001826140821368058 0 4.458264252930435e-05 -0.0001828994171499294 0 5.992345828243362e-05 -0.0001850118938694376 0 7.392519325907642e-05 -0.0001879342519827086 0 8.255185777344544e-05 -0.0001887018424642194 0 8.989214366736136e-05 -0.0001887471188115149 0 9.7156452329054e-05 -0.0001888702572672002 0 9.847162241887092e-05 -0.0001897600516838461 0 9.980989642722937e-05 -0.0001906643791198764 0 0.0001011319875321105 -0.0001915939851651914 0 0.0001024620023126873 -0.0001925395375004154 0 0.0001098518418690082 -0.0001928463074090232 0 0.0001111845190251367 -0.0001938499320910489 0 0.0001125256357347938 -0.0001948713098859271 0 0.0001138631870380726 -0.000195906836208934 0 0.0001155360259814437 -0.0001967944569592975 0 0.0001182815185099015 -0.0001974068375101036 0 0.0001209196553120638 -0.0001980735864936684 0 0.0001237712451317099 -0.0001987951728579329 0 0 -0.0001779259867959981 0 0 -0.0001789314151433367 0 1.369054484762342e-05 -0.0001810263519823908 0 1.55567236831851e-05 -0.0001814056393382976 0 1.75902366665703e-05 -0.0001817032129684642 0 1.871543752017771e-05 -0.0001820428204231017 0 2.020059275050078e-05 -0.0001823183025753584 0 2.17849080011511e-05 -0.000182559497535777 0 2.354848327133813e-05 -0.0001827708738679599 0 2.460590169403329e-05 -0.0001830747392758949 0 2.603035420990972e-05 -0.0001833254241312973 0 3.418105755512957e-05 -0.0001828667282692303 0 3.550830360134392e-05 -0.000183135500112604 0 3.680391627374197e-05 -0.0001834271903209944 0 3.809999318795215e-05 -0.00018374206918696 0 4.585133404598914e-05 -0.0001832444120131552 0 4.713534883041179e-05 -0.000183612140873583 0 4.843193519599813e-05 -0.0001840044203141798 0 4.973377441556139e-05 -0.0001844233933572625 0 5.104247172854014e-05 -0.0001848688880183062 0 5.235824307462927e-05 -0.0001853409583788064 0 5.368118687879411e-05 -0.0001858394585674614 0 6.122621889359829e-05 -0.000185558679517656 0 6.253765643708396e-05 -0.0001861314744077047 0 6.385827753664872e-05 -0.0001867297624143568 0 6.518487400944617e-05 -0.000187354053695935 0 6.652081912358491e-05 -0.0001880014402175887 0 6.77965937542469e-05 -0.0001886910259490817 0 7.514440690533698e-05 -0.0001886911060549265 0 7.645763349215742e-05 -0.000189446547258521 0 9.114021637560595e-05 -0.0001896085335684434 0 0.0001038058046489269 -0.0001935013845347905 0 8.387444310493013e-05 -0.0001894949147106574 0 0 -0.0001797858516822927 0 7.117326672670766e-06 -0.0001808171779194656 0 2.744470848672852e-05 -0.0001835848945501469 0 3.938623053748164e-05 -0.0001840830174927803 0 5.501027835600731e-05 -0.000186364395619526 0 6.905845765929913e-05 -0.0001894083701171672 0 7.779483225575586e-05 -0.000190215525729683 0 8.51447472587575e-05 -0.0001903174342490981 0 9.241308318711906e-05 -0.0001904891465825902 0 9.375273513264949e-05 -0.0001913687918021913 0 9.512389094657054e-05 -0.0001922624061813336 0 9.645492233750238e-05 -0.0001931914025687606 0 9.778307988572486e-05 -0.0001941353181835183 0 0.0001051536885894282 -0.0001944802506456801 0 0.0001065046334875749 -0.0001954758499735723 0 0.0001078572089670696 -0.000196486626270898 0 0.0001092563192771787 -0.0001974936094366119 0 0.0001117614957070311 -0.0001983038380758564 0 0.000114676604297082 -0.0001990260355419457 0 0.0001174733534782714 -0.0001997248983164387 0 0 -0.0001804887571233763 0 7.464731270267826e-06 -0.0001817923423559323 0 5.659293572786084e-06 -0.0001813315132765102 0 1.203266022785987e-05 -0.0001819114031329893 0 1.235867464554892e-05 -0.0001822969083036181 0 1.312936655740513e-05 -0.000182692680437859 0 1.413517787305208e-05 -0.0001830709819835572 0 1.816258587803263e-05 -0.0001831189407136473 0 1.749823453058306e-05 -0.0001835541331632682 0 1.923227760309698e-05 -0.000183859249611529 0 2.068009662356275e-05 -0.0001841374808645943 0 2.884527961634955e-05 -0.0001838577931026202 0 3.023745514773761e-05 -0.0001841462394282395 0 3.159424449953985e-05 -0.0001844573259750579 0 3.294396832839612e-05 -0.0001847900171334473 0 4.071564934874182e-05 -0.0001844374152308298 0 4.205508938935561e-05 -0.0001848156987817301 0 4.339633959011504e-05 -0.000185219373642001 0 4.473730588470064e-05 -0.0001856496817806483 0 4.608645881692033e-05 -0.0001861049335775621 0 4.743873287657937e-05 -0.0001865863864583042 0 4.879504003774875e-05 -0.0001870937716571222 0 5.634556273292179e-05 -0.000186915418344161 0 5.768696669563717e-05 -0.0001874922536133202 0 5.903434541992488e-05 -0.0001880946020073199 0 6.038543497907815e-05 -0.0001887225175897716 0 6.17043116281312e-05 -0.0001893844257505159 0 6.297075977548199e-05 -0.0001900849631144333 0 7.036673524285909e-05 -0.000190145263593627 0 7.170745566807585e-05 -0.0001908971014190901 0 8.644788598677156e-05 -0.000191166690066116 0 9.912871379536914e-05 -0.0001950898905107433 0 7.913195331379918e-05 -0.000191005164513994 0 0 -0.0001810977915092212 0 2.215077291386669e-05 -0.0001844226742024813 0 3.428984431533828e-05 -0.0001851464966805592 0 5.015528896200239e-05 -0.0001876269910598567 0 6.425963026192286e-05 -0.0001907998200976628 0 7.30751479673229e-05 -0.0001916625140964319 0 8.045026338695685e-05 -0.000191820633947595 0 8.778404925363689e-05 -0.0001920280476660109 0 8.915468581855766e-05 -0.0001928987024457175 0 9.051012329480133e-05 -0.0001937983238508562 0 9.18270055923883e-05 -0.0001947311382765353 0 9.312250408856818e-05 -0.0001956763806982023 0 0.0001004915889070054 -0.0001960619191839339 0 0.0001018483483371866 -0.0001970522460819994 0 0.00010318748970576 -0.0001980661663007922 0 0.0001045582904247661 -0.0001992102303326455 0 0.0001081632199341071 -0.0001999556465870994 0 0.0001111899641407434 -0.0002006226861100188 0 0 -0.0001816564062872269 0 6.311595947647633e-06 -0.0001823241423613096 0 6.264050961166281e-06 -0.000182776429970737 0 6.471176521080559e-06 -0.0001831733184630147 0 1.2416830553926e-05 -0.0001835768707029408 0 1.248895636422356e-05 -0.0001842183681252115 0 1.379487978967621e-05 -0.0001845273172851949 0 1.565611176621848e-05 -0.0001848038356557809 0 2.361842229458809e-05 -0.0001847214145634944 0 2.506817459220261e-05 -0.0001850340437777037 0 2.647860893126254e-05 -0.0001853686794043378 0 2.787866275818782e-05 -0.0001857249265981158 0 3.566855310358833e-05 -0.0001855175333141397 0 3.705201454031297e-05 -0.0001859119144985823 0 3.843105946044123e-05 -0.0001863316790121918 0 3.981161284594261e-05 -0.0001867761219067902 0 4.119475351107472e-05 -0.0001872454682714383 0 4.257916504321382e-05 -0.0001877399684975633 0 4.396554465678728e-05 -0.0001882596721198804 0 5.151964688012429e-05 -0.0001881857641835069 0 5.288766010765031e-05 -0.0001887699819854596 0 5.425882141271045e-05 -0.0001893793914255356 0 5.559392320969156e-05 -0.0001900253784785717 0 5.689208045165413e-05 -0.0001907026784333582 0 5.819493669218807e-05 -0.0001914050336188895 0 6.562560135875085e-05 -0.0001915325928696824 0 6.700856314895972e-05 -0.000192277653373496 0 8.180535825268864e-05 -0.0001926625217260807 0 9.447960912969493e-05 -0.0001966262088561346 0 7.444459656894693e-05 -0.0001924508551108314 0 0 -0.0001821581745403257 0 6.496500996115837e-06 -0.0001835566476865644 0 1.091722782694661e-05 -0.0001839636666111214 0 1.696399211779485e-05 -0.0001851373690971257 0 2.927041130867999e-05 -0.0001861013367320375 0 4.535386813729911e-05 -0.0001888044440706818 0 5.954793689175364e-05 -0.0001921173558265878 0 6.840254671810839e-05 -0.0001930430835173997 0 7.579655568648859e-05 -0.0001932620010741143 0 8.319517961751152e-05 -0.0001935141758574756 0 8.462409842063565e-05 -0.0001943673491399586 0 8.592065106616324e-05 -0.0001952753258804075 0 8.720108671805814e-05 -0.0001962159832286909 0 8.850083921710531e-05 -0.0001971644610122405 0 9.585205920997414e-05 -0.0001975936504750877 0 9.722492367338606e-05 -0.0001985832712015491 0 9.858800728715762e-05 -0.0001995619601868035 0 0.0001018440610238467 -0.0002008761702141293 0 0.0001049208766137658 -0.0002014863596014967 0 0 -0.0001826131496861627 0 0 -0.0001830382300700326 0 0 -0.0001834451890198617 0 6.080880284385656e-06 -0.0001839632379257437 0 6.515022667794652e-06 -0.0001847762677865603 0 6.115958025620447e-06 -0.0001843347450368089 0 9.463693805823234e-06 -0.0001850602362489964 0 1.183140650645137e-05 -0.0001852807664577105 0 1.849062224397284e-05 -0.0001854674320817686 0 1.99919313319503e-05 -0.000185808335647068 0 2.145645969543931e-05 -0.00018616626691718 0 2.290963826390827e-05 -0.0001865503690049267 0 3.069706203560431e-05 -0.000186493133457747 0 3.211716305932555e-05 -0.0001869079915188288 0 3.352963323352078e-05 -0.000187347519641054 0 3.494650205693661e-05 -0.0001878097483751307 0 3.63604702458151e-05 -0.0001882963181258806 0 3.777468728779629e-05 -0.0001888069857897277 0 3.918819622024614e-05 -0.0001893420986878936 0 4.674337917589834e-05 -0.0001893743470479171 0 4.813532217087463e-05 -0.0001899688740789552 0 4.952846562010973e-05 -0.0001905878804999189 0 5.080454712229826e-05 -0.0001912616207686086 0 5.213364918465319e-05 -0.0001919446861705023 0 5.349037290025162e-05 -0.0001926436211858848 0 6.094614495174264e-05 -0.0001928442758518198 0 6.235211458229922e-05 -0.0001935920864719515 0 7.718857398510259e-05 -0.0001940946342441658 0 8.985413490054161e-05 -0.0001981115639437371 0 9.911502550605251e-05 -0.0002004218532428544 0 6.978617038127576e-05 -0.0001938337134126065 0 0 -0.000183840822990282 0 1.122703524197379e-05 -0.0001857237565945269 0 2.432891406629813e-05 -0.000186954885782835 0 4.060065188222631e-05 -0.0001899017498719279 0 5.489501848106758e-05 -0.000193356643486625 0 6.375850323050585e-05 -0.0001943629725247477 0 7.117704260146684e-05 -0.0001946448147674424 0 7.860432469419369e-05 -0.0001949403131559107 0 7.998133548648207e-05 -0.0001958058568217696 0 8.128510593341889e-05 -0.0001967238239928898 0 8.260248799987896e-05 -0.0001976495447147812 0 8.392614771122202e-05 -0.0001985985297271585 0 9.124105265610222e-05 -0.000199076463489034 0 9.267107795454689e-05 -0.0002000936527263614 0 9.420501941870738e-05 -0.0002010314400525016 0 9.576564782351033e-05 -0.0002018131641469663 0 9.866581594328545e-05 -0.0002023137831518867 0 0 -0.000184232039793094 0 3.999680236363446e-06 -0.0001851987016611457 0 0 -0.000184632881944951 0 5.86166003927286e-06 -0.0001855518174084984 0 1.352229087000635e-05 -0.0001860812813839351 0 1.516822700868289e-05 -0.0001864499931739466 0 1.662301575091741e-05 -0.0001868583084789518 0 1.794361865507508e-05 -0.0001872889137171016 0 2.579338987103253e-05 -0.0001873713319408941 0 2.724881790919426e-05 -0.0001878093474371048 0 2.869566769847352e-05 -0.0001882717858092889 0 3.013824855402518e-05 -0.0001887559214836822 0 3.158086925166414e-05 -0.0001892626301135637 0 3.302104968361607e-05 -0.0001897925775225719 0 3.445782595519841e-05 -0.0001903462431627807 0 4.201334514205418e-05 -0.0001904854871156554 0 4.342706497836894e-05 -0.0001910930102307716 0 4.478805497644162e-05 -0.0001917327465542793 0 4.60149839964491e-05 -0.0001924325409238677 0 4.743740453052108e-05 -0.0001931105442077074 0 4.88573102082086e-05 -0.0001938109821219516 0 5.631154876064177e-05 -0.000194089593936124 0 5.773700902673013e-05 -0.0001948436180467538 0 7.258617960440752e-05 -0.0001954736285992856 0 8.52765907727571e-05 -0.0001995495938586471 0 6.515843528902607e-05 -0.0001951569205925938 0 0 -0.0001850314619534732 0 5.155122825256004e-06 -0.0001859407840763575 0 7.166917024961077e-06 -0.0001862335229674202 0 1.945448590078031e-05 -0.0001877151338507988 0 3.589169173097361e-05 -0.0001909235985348984 0 5.028108373603724e-05 -0.0001945324096858642 0 5.914804110205905e-05 -0.0001956229504281746 0 6.656892318736446e-05 -0.0001959701772103449 0 7.399435939392148e-05 -0.0001963230337846512 0 7.536220049793104e-05 -0.0001971976502116153 0 7.671015021626918e-05 -0.0001981039751470635 0 7.804547658383239e-05 -0.0001990323303074896 0 7.937953603028721e-05 -0.0001999829304437921 0 8.66491297367016e-05 -0.0002005474363679585 0 8.799741244588973e-05 -0.0002015692561473806 0 8.96520128563089e-05 -0.000202502959349181 0 9.242443267774321e-05 -0.0002031028724211395 0 0 -0.0001854418091718307 0 0 -0.0001858700148281675 0 9.076801056943405e-06 -0.0001865498488777102 0 1.04627960635964e-05 -0.00018697577965054 0 1.161795871106101e-05 -0.0001874503330816609 0 1.295609610418522e-05 -0.0001879215228935026 0 2.095203150979151e-05 -0.0001881592963053534 0 2.247049618802593e-05 -0.0001886213957862614 0 2.391130280599283e-05 -0.0001891120636492061 0 2.538179082910406e-05 -0.0001896204195263707 0 2.685009945700543e-05 -0.0001901502650735047 0 2.831269282354026e-05 -0.0001907024097295422 0 2.977003240160857e-05 -0.000191277076920181 0 3.732599071289962e-05 -0.0001915236930311994 0 3.874846178404401e-05 -0.0001921463718346938 0 4.010015479302738e-05 -0.0001928043457665727 0 4.138447231462387e-05 -0.0001935122401049042 0 4.283326515009521e-05 -0.0001942039051901438 0 4.425751829476786e-05 -0.0001949162957123404 0 5.170932828815288e-05 -0.0001952753920982608 0 5.314110590123009e-05 -0.000196039780997186 0 6.798291910647009e-05 -0.0001968039715343394 0 8.070761977697544e-05 -0.0002009451174468293 0 6.056191189279927e-05 -0.0001964228670060723 0 0 -0.0001863187769370597 0 4.200569522788609e-06 -0.0001865662256057899 0 1.469329285485357e-05 -0.0001883694479882464 0 3.122411731545386e-05 -0.0001918743331916184 0 4.569641970460136e-05 -0.0001956495933159468 0 5.456701471535327e-05 -0.000196826787295251 0 6.19805524104244e-05 -0.0001972424965705794 0 6.939318688579134e-05 -0.0001976585890259333 0 7.080772991897146e-05 -0.0001985337819742693 0 7.219573980424625e-05 -0.0001994317608580185 0 7.349359107893536e-05 -0.0002003657493394746 0 7.484781521773332e-05 -0.0002013135077848486 0 8.203930073127238e-05 -0.0002019462572808452 0 8.287554319521035e-05 -0.0002031594899176056 0 8.619630335655483e-05 -0.0002038516047089783 0 4.928747021133548e-06 -0.0001869573658057895 0 5.538536879200314e-06 -0.0001874306540788459 0 5.951797280646327e-06 -0.0001879383716414407 0 7.135735542171814e-06 -0.0001885153948324719 0 1.638024856798541e-05 -0.0001888441175998263 0 1.777979671280172e-05 -0.0001893506790478609 0 1.921667478450881e-05 -0.0001898708241531693 0 2.067284440668268e-05 -0.0001904092856042582 0 2.216339815232199e-05 -0.0001909649547551397 0 2.362035399858205e-05 -0.000191543178915731 0 2.508383988758553e-05 -0.0001921422542251061 0 3.267594103753753e-05 -0.00019249338875596 0 3.412211041103745e-05 -0.0001931340291133653 0 3.551337035470947e-05 -0.0001937936606491323 0 3.685711190689169e-05 -0.0001945135560682412 0 3.824883625889005e-05 -0.0001952371393692196 0 3.968744303161858e-05 -0.0001959638559467359 0 4.713682585833834e-05 -0.0001964043921556055 0 4.857621339305049e-05 -0.0001971802416410819 0 6.341065403415109e-05 -0.0001980803987209839 0 7.634409596320685e-05 -0.000202256200487124 0 5.599297693842134e-05 -0.000197634330380615 0 0 -0.0001867689072762784 0 1.063721425679189e-05 -0.0001889450388408254 0 2.65896696331904e-05 -0.000192759183546526 0 4.11393118830297e-05 -0.0001967113712353904 0 5.001321127918854e-05 -0.0001979770411939952 0 5.742196975821221e-05 -0.0001984615531433856 0 6.483288172801805e-05 -0.0001989408606523425 0 6.625743922615368e-05 -0.0001998203980813155 0 6.766241247907207e-05 -0.000200717268922724 0 6.91137020234177e-05 -0.0002016344678770209 0 7.090624414510839e-05 -0.0002025574489524105 0 7.723326976436385e-05 -0.0002032428156642123 0 7.998093155026517e-05 -0.0002045580292547698 0 0 -0.0001872486006200808 0 0 -0.0001877486614607277 0 0 -0.0001882696070426753 0 5.20664631892664e-06 -0.0001890341263985246 0 1.176291657326672e-05 -0.0001894798961081121 0 1.330570737024092e-05 -0.0001899973778854558 0 1.473152611266849e-05 -0.0001905463139919135 0 1.616233925206929e-05 -0.0001911168775679958 0 1.75425463108412e-05 -0.0001917108069331394 0 1.884168606655826e-05 -0.0001923246429685745 0 2.048154448547859e-05 -0.0001929405583280857 0 2.806366547910031e-05 -0.00019339917110548 0 2.951977379993749e-05 -0.0001940590261603901 0 3.090254466756309e-05 -0.0001947555391395873 0 3.228777817113437e-05 -0.0001954771046162803 0 3.368472847649679e-05 -0.0001962137667483858 0 3.514615197753192e-05 -0.0001969572588027931 0 4.258899525250952e-05 -0.0001974795514179939 0 4.403788081154639e-05 -0.0001982678876976635 0 5.885919766858393e-05 -0.0001993078713483089 0 7.282915582255178e-05 -0.0002033422997274546 0 7.69796896555548e-05 -0.0002041863093454686 0 5.145082623089576e-05 -0.000198794061052501 0 0 -0.0001888074011139429 0 5.77258989060398e-06 -0.0001895162059455347 0 2.199993087523327e-05 -0.0001935823410234759 0 3.660740837426059e-05 -0.0001977204493039868 0 4.548506566662063e-05 -0.0001990765613855444 0 5.2891031699711e-05 -0.0001996302443217237 0 6.02985133311193e-05 -0.0002001741639185651 0 6.17233905352131e-05 -0.0002010598246578364 0 6.315708723379083e-05 -0.0002019635935072182 0 6.430617514804067e-05 -0.0002030863835047262 0 6.771965926366964e-05 -0.0002038069179297845 0 7.157512324401991e-05 -0.0002044295803398133 0 7.377774946110468e-05 -0.0002052202774125038 0 0 -0.000189369405300061 0 6.558817568898207e-06 -0.00019016757905849 0 1.007352798926026e-05 -0.0001905124456980215 0 1.056620712451308e-05 -0.0001910550164952379 0 1.139141913007324e-05 -0.0001916895459002282 0 1.1816182144294e-05 -0.0001924354590524818 0 1.442584054118914e-05 -0.0001930263165920349 0 1.60262147019461e-05 -0.0001936887032792074 0 2.348244546711643e-05 -0.0001942452520077299 0 2.495296819872975e-05 -0.0001949265631846999 0 2.634392414129966e-05 -0.0001956457395678991 0 2.768224178368758e-05 -0.0001963964308536207 0 2.915760370884198e-05 -0.0001971384654220358 0 3.06294872187692e-05 -0.0001978999030541584 0 3.806696837872727e-05 -0.0001985034336512396 0 3.952414629039237e-05 -0.0001993060005281071 0 5.433193637531599e-05 -0.0002004858860062923 0 4.693236816428555e-05 -0.0001999046859916194 0 0 -0.0001899584166669848 0 1.744490960963112e-05 -0.0001943497943754098 0 3.209941922344753e-05 -0.0001986803169909239 0 4.098014930454938e-05 -0.0002001278118917659 0 4.837833714945611e-05 -0.0002007521345881549 0 5.581684873651513e-05 -0.0002013606274941971 0 5.727584437403853e-05 -0.0002022437067073778 0 5.855270612034186e-05 -0.0002031295324272166 0 6.16375940403109e-05 -0.0002044673549615639 0 6.470476639079038e-05 -0.0002051333613494387 0 6.758612008666636e-05 -0.0002058365726150315 0 5.521584857540648e-06 -0.0001908428928200865 0 0 -0.0001905667675820497 0 5.517519661205136e-06 -0.0001915017627621963 0 5.411299024927707e-06 -0.0001921446250181088 0 9.433092774062917e-06 -0.0001931005925901853 0 1.03616656000791e-05 -0.0001936790700120988 0 1.142986018648081e-05 -0.0001943836866913968 0 1.89314479467164e-05 -0.0001950362905513068 0 2.042119157794642e-05 -0.0001957410367680244 0 2.183697760295436e-05 -0.0001964750861841352 0 2.32173441320541e-05 -0.0001972408154369883 0 2.46539266742491e-05 -0.0001980142196423038 0 2.61353380672233e-05 -0.0001987950250511396 0 3.356742326571061e-05 -0.0001994794120979394 0 3.503341946871082e-05 -0.0002002971854003396 0 4.985074442178539e-05 -0.0002016199183171573 0 5.909319535061894e-05 -0.0002039676157292369 0 4.243292280285552e-05 -0.0002009692561284764 0 5.498557376824446e-06 -0.0001928317068453964 0 1.292908589674651e-05 -0.0001950637985355931 0 2.761352873857357e-05 -0.0001995938155060287 0 3.649584796213851e-05 -0.0002011332758373287 0 4.388996906182518e-05 -0.000201829301248772 0 5.135117107216353e-05 -0.0002025004615734649 0 5.286188786791531e-05 -0.0002034015330435455 0 5.427099930698963e-05 -0.0002043033668507827 0 5.837458353030783e-05 -0.0002057344630503556 0 5.591627858800304e-05 -0.0002050342771167816 0 6.140533994313556e-05 -0.0002064052400408189 0 0 -0.0001911970388208327 0 0 -0.0001918509176123753 0 0 -0.0001925276672305394 0 5.172694749272953e-06 -0.0001935319779197248 0 5.692309623792652e-06 -0.0001942388783338714 0 6.095155738640724e-06 -0.000195087921120681 0 1.456100120630431e-05 -0.0001957659085856605 0 1.60016293926043e-05 -0.0001965055515818123 0 1.72917827281547e-05 -0.0001972780488608854 0 1.867871798644982e-05 -0.0001980608661412176 0 2.017114182643571e-05 -0.0001988445202769528 0 2.166113896875883e-05 -0.0001996462091347324 0 2.908962167339804e-05 -0.0002004101782376536 0 3.056282413992169e-05 -0.0002012443791341894 0 4.537107616080101e-05 -0.0002027086050969091 0 3.795599035404781e-05 -0.0002019895973282774 0 0 -0.0001932253092035225 0 9.028450002510944e-06 -0.0001957920885774156 0 2.314766602701233e-05 -0.0002004641276213923 0 3.202792553914702e-05 -0.0002020984277633741 0 3.941932046527936e-05 -0.0002028635550542247 0 4.691606493008497e-05 -0.000203602992074321 0 4.841351589831385e-05 -0.0002045141396502262 0 4.993653648544144e-05 -0.0002054317117330055 0 5.523464233803657e-05 -0.0002069247158966698 0 5.22046265501074e-05 -0.000206238200688689 0 0 -0.0001939468060328753 0 0 -0.0001946905699743531 0 3.86363650337281e-06 -0.0001958336073198456 0 1.120809679054479e-05 -0.0001963881975411407 0 1.10508493803314e-05 -0.0001972179314854239 0 1.286739278371627e-05 -0.0001980245530175089 0 1.453151411844972e-05 -0.0001988041781095701 0 1.570499141923077e-05 -0.0001996337134507211 0 1.720614142876476e-05 -0.0002004564740146514 0 2.46306992279346e-05 -0.0002012989233970745 0 2.610324823196789e-05 -0.0002021526438518008 0 4.088310308077961e-05 -0.0002037531118163707 0 3.349281538476643e-05 -0.0002029695749545013 0 0 -0.0001954536301330323 0 5.403701594881222e-06 -0.0001966031376920555 0 1.869930226753275e-05 -0.0002012942796636782 0 2.757344207473051e-05 -0.0002030237650448416 0 3.495833774120121e-05 -0.0002038570582928758 0 4.240513556525365e-05 -0.0002046627024100772 0 4.385815784792934e-05 -0.0002056031215198323 0 4.532445171950609e-05 -0.0002066542931458116 0 4.907320117590294e-05 -0.000207393556231191 0 0 -0.0001962375661378632 0 8.866642947982389e-06 -0.0001978241763238348 0 9.371819729026837e-06 -0.0001985972341114632 0 1.013919069685138e-05 -0.0001994630404010711 0 1.032678350580611e-05 -0.000200376168784389 0 1.278117069534305e-05 -0.0002012191232750082 0 2.018779629333262e-05 -0.0002021481438759584 0 2.165406289980589e-05 -0.0002030241473283538 0 3.643085735245175e-05 -0.0002047603806815656 0 2.904176235270744e-05 -0.0002039112936787163 0 0 -0.0001970431040221908 0 5.024671953917129e-06 -0.0001974868391186822 0 1.441098300080994e-05 -0.0002020698593657055 0 2.312976275897132e-05 -0.0002039129492052268 0 3.052017745711615e-05 -0.0002048132221570622 0 3.794717125831649e-05 -0.0002056744146592763 0 3.902548454969044e-05 -0.0002066010359984248 0 4.292013527375272e-05 -0.0002078104451962483 0 4.832539101898885e-06 -0.0001982776669683643 0 4.995325130208972e-06 -0.0001991313591839935 0 5.198255919512257e-06 -0.0001999604896720971 0 6.580333420829139e-06 -0.0002012329230312058 0 8.616765660145899e-06 -0.0002019436776489464 0 1.592894676876472e-05 -0.0002029517918702666 0 1.72190687983346e-05 -0.0002038603272222519 0 3.226765204328228e-05 -0.0002057054985223371 0 3.987592191999864e-05 -0.0002073862997667957 0 2.461377184608884e-05 -0.0002048149602018959 0 0 -0.0001978672038031044 0 4.324927506655285e-06 -0.0002006514385767826 0 1.050030310549321e-05 -0.0002028046900534074 0 1.871194158292902e-05 -0.000204764749911552 0 2.611020090188676e-05 -0.000205838374783951 0 3.347130737871149e-05 -0.0002066643657060043 0 3.439950781953234e-05 -0.0002075128579266943 0 3.677451315684486e-05 -0.0002081742026772778 0 0 -0.0001987127264839734 0 0 -0.0001995775364360762 0 0 -0.0002004617660876054 0 3.901942923979359e-06 -0.0002018699806651136 0 0 -0.0002013670626054493 0 4.661978772204278e-06 -0.0002026202218230612 0 1.145635023278966e-05 -0.0002037467821288515 0 1.306662509553947e-05 -0.0002046447222887891 0 2.908829516150337e-05 -0.0002065287112758079 0 2.021921437911658e-05 -0.0002056196465595845 0 5.30018140148812e-06 -0.0002036025405170659 0 1.481432285018795e-05 -0.0002055264943476777 0 2.44574962922195e-05 -0.0002069067857419707 0 2.821991533333496e-05 -0.0002075593867929526 0 3.063535829904579e-05 -0.0002084837912180719 0 0 -0.0002022830578355632 0 0 -0.0002032215302576018 0 6.437434820894788e-06 -0.0002046418434187395 0 1.000214046128294e-05 -0.0002053372331757665 0 2.135600789609044e-05 -0.0002063974813678504 0 1.611618326605286e-05 -0.0002063494603703973 0 0 -0.0002041767340104175 0 1.056008745557715e-05 -0.0002061505343807121 0 1.854909270857937e-05 -0.0002071713631584228 0 2.157451637153612e-05 -0.0002079103656846805 0 2.450165476632301e-05 -0.0002087383221714864 0 0 -0.0002051479793275746 0 5.441005714499981e-06 -0.0002056746096317286 0 1.156049598725808e-05 -0.0002072357849604388 0 5.522086310438297e-06 -0.0002067193260287214 0 1.538231237768082e-05 -0.000208109704078802 0 1.837235321654538e-05 -0.0002089370610143698 0 0 -0.0002061355898393335 0 5.254688408850523e-06 -0.0002076562035896035 0 0 -0.0002071391865303622 0 9.265711268613723e-06 -0.0002082753560078329 0 1.224637720398017e-05 -0.000209079431772799 0 4.457525496725777e-06 -0.0002084191125899187 0 0 -0.0002081577814521012 0 6.122629732737259e-06 -0.0002091650205123118 0 2.999132192676606e-20 -0.000209193577857139 0 </DataArray>
        <DataArray type="Float64" Name="stress" format="ascii" NumberOfComponents="9">73703334.56271267 -251120.9011652251 -251120.9011652251 3742359.055135804 0 0 0 0 0 74229791.52795385 -328535.3906769818 -328535.3906769818 3563546.26315257 0 0 0 0 0 73904594.75453019 -655473.0166995371 -655473.0166995371 3651345.839201545 0 0 0 0 0 74191659.6135661 -889533.3206131239 -889533.3206131239 3520066.856537759 0 0 0 0 0 73356483.77707592 -722237.6699075827 -722237.6699075827 3761825.845622632 0 0 0 0 0 73763226.6863825 -1215150.391536456 -1215150.391536456 3567152.129715015 0 0 0 0 0 73053860.00100809 -273583.2811517913 -273583.2811517913 3777861.912454622 0 0 0 0 0 74252240.90362054 -1479174.729746761 -1479174.729746761 3474319.483539238 0 0 0 0 0 72669116.11943933 -806590.5754447383 -806590.5754447383 3769694.558648829 0 0 0 0 0 73166382.19699867 -1108720.283063316 -1108720.283063316 3823875.990733732 0 0 0 0 0 73936569.12334357 -1829561.850727053 -1829561.850727053 3523051.113959979 0 0 0 0 0 72393188.45141317 -292733.777670951 -292733.777670951 3828432.912465331 0 0 0 0 0 73395712.23772039 -1667418.852085148 -1667418.852085148 3575202.467432917 0 0 0 0 0 74353421.72241949 -2069589.190843677 -2069589.190843677 3409184.496914795 0 0 0 0 0 71989371.67575668 -921886.2286244337 -921886.2286244337 3716198.840433079 0 0 0 0 0 72589850.81961696 -1038403.593548189 -1038403.593548189 3736363.178450712 0 0 0 0 0 72881613.14841813 -1512486.700666258 -1512486.700666258 3849335.848890267 0 0 0 0 0 74034769.73863615 -2439577.22571776 -2439577.22571776 3396940.166036093 0 0 0 0 0 74502372.12968093 -2637869.628541457 -2637869.628541457 3327281.231633064 0 0 0 0 0 73711680.3702589 -2209301.988112017 -2209301.988112017 3544172.823549072 0 0 0 0 0 71699444.68949327 -279049.3559240847 -279049.3559240847 3842643.600733408 0 0 0 0 0 73158248.6939725 -2151020.1040965 -2151020.1040965 3572068.097158106 0 0 0 0 0 74145681.12479377 -3015419.695788465 -3015419.695788465 3353103.205542044 0 0 0 0 0 74748688.77955504 -3221624.733791516 -3221624.733791516 3244106.873519213 0 0 0 0 0 71184555.23740315 -770116.614527452 -770116.614527452 3711048.515529942 0 0 0 0 0 72139897.40756993 -1500075.498550331 -1500075.498550331 3659627.780103711 0 0 0 0 0 72556390.62840387 -1996604.356813064 -1996604.356813064 3854340.952324987 0 0 0 0 0 73943417.9525826 -2675450.225841544 -2675450.225841544 3553531.482729515 0 0 0 0 0 74332193.55202606 -3543345.778401682 -3543345.778401682 3230511.368952371 0 0 0 0 0 74950024.26125017 -3789780.101161605 -3789780.101161605 3117720.02552677 0 0 0 0 0 73541421.02189885 -2705066.774312657 -2705066.774312657 3537306.307000534 0 0 0 0 0 71053593.49588904 -348471.3129006521 -348471.3129006521 3905583.595902074 0 0 0 0 0 71413787.74985814 -1333329.352421134 -1333329.352421134 3684658.027955971 0 0 0 0 0 72827521.82760736 -2657243.595782076 -2657243.595782076 3533659.071004813 0 0 0 0 0 73878612.61752771 -3227042.239475273 -3227042.239475273 3577617.193366464 0 0 0 0 0 74606022.81955495 -4143487.632779375 -4143487.632779375 3073114.165073596 0 0 0 0 0 70836686.74507639 -1062682.466312215 -1062682.466312215 4006683.542176133 0 0 0 0 0 71758406.4634238 -1980119.855813492 -1980119.855813492 3656314.944289466 0 0 0 0 0 72192253.38902174 -2496926.889125431 -2496926.889125431 3823132.612657937 0 0 0 0 0 74097576.76611173 -3901021.078408293 -3901021.078408293 3200131.61532958 0 0 0 0 0 75214710.84328189 -4327241.180761751 -4327241.180761751 2981521.417192138 0 0 0 0 0 73190170.480088 -3226460.046648011 -3226460.046648011 3420965.360537639 0 0 0 0 0 70340107.989182 -338344.9842970828 -338344.9842970828 3991255.824495654 0 0 0 0 0 71069855.77776475 -1863563.794908329 -1863563.794908329 3718162.752086329 0 0 0 0 0 72517064.20412217 -3157219.54971157 -3157219.54971157 3491570.951963181 0 0 0 0 0 73599416.54997955 -3725108.175760345 -3725108.175760345 3522991.775691846 0 0 0 0 0 74940623.1096153 -4773130.05328635 -4773130.05328635 3186123.484359228 0 0 0 0 0 74619958.04244658 -4265441.193904439 -4265441.193904439 3317634.102017002 0 0 0 0 0 75775947.29543652 -4731374.327988609 -4731374.327988609 3159495.986692569 0 0 0 0 0 75928263.14695732 -5367061.443912531 -5367061.443912531 2682175.935538653 0 0 0 0 0 75471789.24430947 -5238638.64016441 -5238638.64016441 2989656.227569586 0 0 0 0 0 70029500.00473677 -979364.3792868836 -979364.3792868836 4029338.772023675 0 0 0 0 0 70449295.15204771 -1631055.448989713 -1631055.448989713 4021648.852663657 0 0 0 0 0 71427054.24350923 -2483257.491948074 -2483257.491948074 3644922.895477907 0 0 0 0 0 71837139.22648053 -3024016.827436775 -3024016.827436775 3774929.884322438 0 0 0 0 0 74067901.03753886 -4296585.044773293 -4296585.044773293 3206877.745000027 0 0 0 0 0 75667309.76471505 -5817126.023707015 -5817126.023707015 2592382.270579121 0 0 0 0 0 76319470.64308813 -5871670.538920015 -5871670.538920015 2504152.356045606 0 0 0 0 0 72942180.94322819 -3726017.548125669 -3726017.548125669 3376168.456443074 0 0 0 0 0 69595650.26874295 -322897.9737456031 -322897.9737456031 4034814.700502143 0 0 0 0 0 70697146.46723875 -2390199.458958936 -2390199.458958936 3705989.298003908 0 0 0 0 0 72249445.93514663 -3676247.714494869 -3676247.714494869 3443021.119024354 0 0 0 0 0 73346846.36836241 -4242609.280511629 -4242609.280511629 3451470.060230894 0 0 0 0 0 74451792.82017553 -4792470.477473794 -4792470.477473794 3223137.920147369 0 0 0 0 0 74813835.50391416 -5288027.252046949 -5288027.252046949 3038083.749770762 0 0 0 0 0 75103862.20651266 -5652144.367433167 -5652144.367433167 2752974.907582133 0 0 0 0 0 76008202.51612541 -6306461.306321756 -6306461.306321756 2418356.422909705 0 0 0 0 0 76945151.35218595 -6250838.354455347 -6250838.354455347 2700065.921955185 0 0 0 0 0 77198709.08273681 -6846900.361924483 -6846900.361924483 2106628.123983538 0 0 0 0 0 76671002.86194259 -6675636.530289294 -6675636.530289294 2531323.346794678 0 0 0 0 0 69198051.72552171 -919384.7351883416 -919384.7351883416 4053504.594709905 0 0 0 0 0 69668422.05965696 -1519176.321554701 -1519176.321554701 4069240.893944637 0 0 0 0 0 70052992.65941052 -2179483.438963871 -2179483.438963871 4017182.234480805 0 0 0 0 0 71108911.49524909 -3018008.803921942 -3018008.803921942 3612354.545463416 0 0 0 0 0 71500551.22162145 -3580468.599965572 -3580468.599965572 3710309.261281013 0 0 0 0 0 73867140.19794503 -4808187.619044486 -4808187.619044486 3098123.46240344 0 0 0 0 0 75327241.87894087 -6137019.814779959 -6137019.814779959 2517665.951024424 0 0 0 0 0 77093324.41693808 -7232755.492372651 -7232755.492372651 1998950.863725807 0 0 0 0 0 77654178.21719547 -7293911.038463891 -7293911.038463891 1880361.988695955 0 0 0 0 0 72712996.25908457 -4250736.043937203 -4250736.043937203 3307814.349682954 0 0 0 0 0 68812083.02291021 -318889.2778334512 -318889.2778334512 4027902.946970025 0 0 0 0 0 70332599.18674314 -2946542.358862967 -2946542.358862967 3665142.183960701 0 0 0 0 0 71990352.37392962 -4227342.837892369 -4227342.837892369 3362003.337722347 0 0 0 0 0 73098879.06231058 -4784730.40042577 -4784730.40042577 3343553.436699044 0 0 0 0 0 74275468.36673756 -5301739.26999479 -5301739.26999479 3134057.038928969 0 0 0 0 0 74843824.35246882 -5775008.158757303 -5775008.158757303 2955993.356140823 0 0 0 0 0 75781312.31221643 -6726376.724874959 -6726376.724874959 2528281.540282641 0 0 0 0 0 76482408.86239849 -7178773.745014261 -7178773.745014261 2324180.851492984 0 0 0 0 0 77545183.94001216 -7701689.668895292 -7701689.668895292 1735557.113369289 0 0 0 0 0 68264040.76475835 -953143.7414865354 -953143.7414865354 3953104.875633069 0 0 0 0 0 68943516.37308845 -1408966.525566429 -1408966.525566429 4163785.839987653 0 0 0 0 0 69256615.8066669 -2063995.978216247 -2063995.978216247 4058454.86734264 0 0 0 0 0 69616474.31290531 -2781037.575992119 -2781037.575992119 3955094.824598365 0 0 0 0 0 70789792.68712875 -3571799.151146716 -3571799.151146716 3553187.230938327 0 0 0 0 0 71199542.96636899 -4148560.848573042 -4148560.848573042 3632170.050533872 0 0 0 0 0 73731902.6335279 -5305803.993579236 -5305803.993579236 3020068.496198123 0 0 0 0 0 75249726.91448575 -6252942.156287313 -6252942.156287313 2734829.094964041 0 0 0 0 0 77160835.73797977 -7614538.934366169 -7614538.934366169 1919690.967192953 0 0 0 0 0 78169413.50472464 -7717497.205093921 -7717497.205093921 1652644.215389065 0 0 0 0 0 72498693.06895517 -4798379.972448956 -4798379.972448956 3218176.440897581 0 0 0 0 0 67986117.82049002 -342911.4466395787 -342911.4466395787 4059897.805477094 0 0 0 0 0 70024230.90966044 -3519130.645280884 -3519130.645280884 3619832.093984832 0 0 0 0 0 71776412.73099776 -4788886.407777383 -4788886.407777383 3273391.095486038 0 0 0 0 0 72890054.80222775 -5337778.403892832 -5337778.403892832 3230503.066818094 0 0 0 0 0 74054613.57703124 -5817541.117167476 -5817541.117167476 2984122.244784408 0 0 0 0 0 74611621.82028218 -6309730.954890462 -6309730.954890462 2799916.532013259 0 0 0 0 0 75201636.14579307 -6792515.660219828 -6792515.660219828 2587286.661473251 0 0 0 0 0 75742036.20373765 -7240340.070679651 -7240340.070679651 2354269.094529316 0 0 0 0 0 76388076.67293265 -7675077.254711227 -7675077.254711227 2117656.929107811 0 0 0 0 0 77978098.18363237 -8263282.807396841 -8263282.807396841 1579225.294036982 0 0 0 0 0 77473814.10083148 -7962624.129645622 -7962624.129645622 1767198.840992483 0 0 0 0 0 78717237.87369616 -8085601.098289935 -8085601.098289935 1612488.353617696 0 0 0 0 0 79196742.38452017 -8501930.729473336 -8501930.729473336 1144836.162173434 0 0 0 0 0 78511704.96039125 -8473669.793981489 -8473669.793981489 1302837.452645078 0 0 0 0 0 67529821.80628112 -1089414.4936159 -1089414.4936159 3992884.055297217 0 0 0 0 0 67944978.6216477 -1393119.871236338 -1393119.871236338 3892679.3860517 0 0 0 0 0 68478671.32911383 -1910577.228119485 -1910577.228119485 4114359.97624381 0 0 0 0 0 68814494.47076173 -2667087.02487934 -2667087.02487934 4018463.986732339 0 0 0 0 0 69219046.07758802 -3400534.627075187 -3400534.627075187 3895522.874370959 0 0 0 0 0 70512635.75984223 -4154749.190711939 -4154749.190711939 3487094.342713929 0 0 0 0 0 70899571.47465056 -4758782.975799742 -4758782.975799742 3522640.432128245 0 0 0 0 0 73589976.82664362 -5841953.554748089 -5841953.554748089 2900296.19288481 0 0 0 0 0 77310054.01494704 -8022091.71489335 -8022091.71489335 1787616.70308265 0 0 0 0 0 78958182.19762544 -8853907.053394932 -8853907.053394932 969085.4906257101 0 0 0 0 0 79743970.51094609 -8852771.939052034 -8852771.939052034 878743.3143223861 0 0 0 0 0 72323962.96628132 -5354738.493502222 -5354738.493502222 3117392.12546242 0 0 0 0 0 67164119.13895941 -391145.5737139961 -391145.5737139961 4068171.65715208 0 0 0 0 0 69705268.69724335 -4130028.681972378 -4130028.681972378 3529971.735256167 0 0 0 0 0 71579996.4652224 -5376191.109761608 -5376191.109761608 3168525.887928099 0 0 0 0 0 72687174.553085 -5910986.210522333 -5910986.210522333 3092755.578347018 0 0 0 0 0 73935814.7671252 -6362249.764221668 -6362249.764221668 2846789.654311273 0 0 0 0 0 74519223.08312483 -6857816.921227026 -6857816.921227026 2628248.908624045 0 0 0 0 0 75115963.24819291 -7332558.145972756 -7332558.145972756 2394798.201780834 0 0 0 0 0 75710822.49274835 -7773898.936436014 -7773898.936436014 2150015.101611204 0 0 0 0 0 76368178.53346366 -8192216.614429941 -8192216.614429941 1902072.84482789 0 0 0 0 0 77555902.38272506 -8439176.18765489 -8439176.18765489 1608375.290756906 0 0 0 0 0 78272036.77930281 -8773993.64881132 -8773993.64881132 1361173.778843464 0 0 0 0 0 79559106.90302108 -9370792.726072734 -9370792.726072734 840828.48876875 0 0 0 0 0 80388237.84902784 -9213561.171573121 -9213561.171573121 879649.2558408885 0 0 0 0 0 81012113.53436853 -9524875.158340909 -9524875.158340909 603268.67776303 0 0 0 0 0 81636557.24581699 -9783218.030392727 -9783218.030392727 87884.34775562599 0 0 0 0 0 81032803.24426518 -9912302.102375818 -9912302.102375818 296858.3057524009 0 0 0 0 0 80374586.24393871 -9658608.861364076 -9658608.861364076 583712.9407343739 0 0 0 0 0 66872009.86377046 -1131915.976292365 -1131915.976292365 4090829.578576316 0 0 0 0 0 67494460.38774988 -1835668.650242805 -1835668.650242805 4117695.031363343 0 0 0 0 0 67994700.44433953 -2555352.207933598 -2555352.207933598 4071228.033696134 0 0 0 0 0 68402494.94489603 -3306197.407379345 -3306197.407379345 3954521.760038503 0 0 0 0 0 68841149.53191145 -4046512.090251366 -4046512.090251366 3806994.780991218 0 0 0 0 0 70251384.00240943 -4766550.649159826 -4766550.649159826 3387881.800746649 0 0 0 0 0 70634149.93112478 -5387868.084912204 -5387868.084912204 3391594.296606008 0 0 0 0 0 73477906.72342385 -6393880.415203888 -6393880.415203888 2757722.613517272 0 0 0 0 0 77404139.89718843 -8483191.475684198 -8483191.475684198 1606311.645241883 0 0 0 0 0 78908651.00492756 -9085842.344626574 -9085842.344626574 1061622.743142828 0 0 0 0 0 81523625.03936324 -10086058.51448233 -10086058.51448233 -21211.45131493093 0 0 0 0 0 82545657.578382 -10031888.97053136 -10031888.97053136 -108983.2483896955 0 0 0 0 0 72171756.67242105 -5932591.381963519 -5932591.381963519 2995341.57391933 0 0 0 0 0 66283925.4036871 -395995.5061100745 -395995.5061100745 4082139.094685282 0 0 0 0 0 69422043.33426103 -4765096.002837493 -4765096.002837493 3430315.2919976 0 0 0 0 0 71427665.28144312 -5978432.47613492 -5978432.47613492 3045150.838561114 0 0 0 0 0 72525193.51489568 -6501190.333560512 -6501190.333560512 2940558.676322434 0 0 0 0 0 73831090.74423519 -6932542.661805006 -6932542.661805006 2677684.146945522 0 0 0 0 0 74455065.23966566 -7422211.310597437 -7422211.310597437 2441313.493491753 0 0 0 0 0 75088914.60287639 -7886337.904907471 -7886337.904907471 2193654.842910687 0 0 0 0 0 75738039.56003487 -8316331.208381653 -8316331.208381653 1935572.255774191 0 0 0 0 0 76411122.67217734 -8717580.624299914 -8717580.624299914 1670283.522117557 0 0 0 0 0 77682841.94418316 -8933902.70989931 -8933902.70989931 1381710.875009621 0 0 0 0 0 78348105.52865818 -9253231.711242868 -9253231.711242868 1110061.054503585 0 0 0 0 0 79081507.20227957 -9562282.209459055 -9562282.209459055 849781.2461916225 0 0 0 0 0 79746774.29558972 -9827852.350584071 -9827852.350584071 580919.2184132308 0 0 0 0 0 80516786.93228251 -10079565.65474056 -10079565.65474056 311029.8642756628 0 0 0 0 0 81212023.38499857 -10296424.07159109 -10296424.07159109 29284.29890262363 0 0 0 0 0 81824243.17104362 -10463709.91502945 -10463709.91502945 -250708.5706340309 0 0 0 0 0 65776196.9085858 -1181005.141812026 -1181005.141812026 4039790.295653957 0 0 0 0 0 66696258.7229161 -1722287.670680153 -1722287.670680153 4195951.627954927 0 0 0 0 0 67155167.26964404 -2420395.885958067 -2420395.885958067 4122852.91061087 0 0 0 0 0 67549016.31620325 -3206449.872694447 -3206449.872694447 4006574.345526059 0 0 0 0 0 68004207.15098499 -3976579.535061949 -3976579.535061949 3864322.010757683 0 0 0 0 0 68495744.5954928 -4716664.696476899 -4716664.696476899 3697489.054445891 0 0 0 0 0 70030658.69305718 -5401050.228337952 -5401050.228337952 3274717.297401341 0 0 0 0 0 70398653.38828237 -6042839.499278042 -6042839.499278042 3244825.753170378 0 0 0 0 0 73389261.17057754 -6966989.133569127 -6966989.133569127 2595666.249489443 0 0 0 0 0 77520352.0238262 -8982404.41525723 -8982404.41525723 1377290.685425761 0 0 0 0 0 82399171.54734391 -10446064.07051156 -10446064.07051156 -429263.8589720964 0 0 0 0 0 83088332.44055511 -10294701.94649485 -10294701.94649485 -421226.8344278536 0 0 0 0 0 72044984.70510413 -6528115.019255029 -6528115.019255029 2850137.631879626 0 0 0 0 0 65379024.15631264 -422385.0386225532 -422385.0386225532 4155387.542554739 0 0 0 0 0 69172374.93737987 -5424277.989998669 -5424277.989998669 3308066.413736077 0 0 0 0 0 71281184.74468727 -6605965.595581848 -6605965.595581848 2886905.499067686 0 0 0 0 0 72372728.60926282 -7112803.888678921 -7112803.888678921 2748647.692542333 0 0 0 0 0 73768166.93769847 -7510644.835348665 -7510644.835348665 2488211.476530099 0 0 0 0 0 74423920.78458521 -7994599.069109015 -7994599.069109015 2234708.433772905 0 0 0 0 0 75097134.33200762 -8446084.841210783 -8446084.841210783 1971037.094435355 0 0 0 0 0 75788143.50666712 -8864147.695079919 -8864147.695079919 1698691.385012009 0 0 0 0 0 76499115.29954174 -9251450.971034819 -9251450.971034819 1420176.707042161 0 0 0 0 0 77795233.22157364 -9429720.53118225 -9429720.53118225 1125741.175523927 0 0 0 0 0 78505744.04519685 -9738968.766991464 -9738968.766991464 846311.5981681229 0 0 0 0 0 79234075.15187402 -10024841.98047929 -10024841.98047929 567515.5501356244 0 0 0 0 0 79933042.841489 -10274001.67508488 -10274001.67508488 286072.0407061345 0 0 0 0 0 80683976.30222653 -10502604.12399898 -10502604.12399898 7411.768719287948 0 0 0 0 0 81409424.88408951 -10696086.65956751 -10696086.65956751 -268330.0934840623 0 0 0 0 0 82566690.56587468 -10717535.75499137 -10717535.75499137 -586982.2496040313 0 0 0 0 0 82900510.30431503 -10749703.43962248 -10749703.43962248 -796247.8775359836 0 0 0 0 0 83645480.46663086 -10494420.40050152 -10494420.40050152 -732873.6791281492 0 0 0 0 0 64917463.22087767 -1348907.577790694 -1348907.577790694 3967948.931736572 0 0 0 0 0 65638380.87965208 -1607703.968777337 -1607703.968777337 3935358.699495064 0 0 0 0 0 66231255.84228983 -2279775.086299035 -2279775.086299035 4152808.144022738 0 0 0 0 0 66676502.62082621 -3092323.8931607 -3092323.8931607 4051641.406173012 0 0 0 0 0 67132800.73441616 -3892705.180415761 -3892705.180415761 3915846.581606966 0 0 0 0 0 67637214.8861037 -4666964.01638935 -4666964.01638935 3749666.490391741 0 0 0 0 0 68178853.16067226 -5410685.807777119 -5410685.807777119 3557470.239285599 0 0 0 0 0 69823358.43948865 -6060371.189733686 -6060371.189733686 3131023.270822912 0 0 0 0 0 70208819.27171728 -6706331.068428578 -6706331.068428578 3072382.631043434 0 0 0 0 0 73363741.87837911 -7552072.083655434 -7552072.083655434 2419930.471297511 0 0 0 0 0 77681325.5464783 -9480538.944011288 -9480538.944011288 1133174.099171876 0 0 0 0 0 83580031.34276295 -10837012.21112194 -10837012.21112194 -1043159.03297368 0 0 0 0 0 84354718.34718053 -10677033.02073631 -10677033.02073631 -1000977.623708228 0 0 0 0 0 71971239.42346048 -7141797.81035939 -7141797.81035939 2691334.332863202 0 0 0 0 0 64460221.55159841 -405576.1278752526 -405576.1278752526 4227301.989692497 0 0 0 0 0 68970253.69453996 -6102131.22548783 -6102131.22548783 3169212.109489238 0 0 0 0 0 71201302.45339972 -7239897.347015483 -7239897.347015483 2720733.177449617 0 0 0 0 0 72295729.74128573 -7733875.897693439 -7733875.897693439 2548129.02907923 0 0 0 0 0 73732054.3997965 -8106216.717128393 -8106216.717128393 2272419.64160131 0 0 0 0 0 74428449.6876274 -8576158.432353843 -8576158.432353843 2005541.546595946 0 0 0 0 0 75142654.4261037 -9013222.031138441 -9013222.031138441 1726360.247568427 0 0 0 0 0 75874378.0563326 -9416995.777384909 -9416995.777384909 1440585.848214184 0 0 0 0 0 76620561.28823119 -9787958.476489881 -9787958.476489881 1149713.039978595 0 0 0 0 0 77951975.5793945 -9930900.370274438 -9930900.370274438 851510.7426180911 0 0 0 0 0 78694595.91221914 -10224338.98085889 -10224338.98085889 562764.6567329301 0 0 0 0 0 79440999.83333045 -10489118.43890083 -10489118.43890083 274676.2278013789 0 0 0 0 0 80186049.72891344 -10721299.10834675 -10721299.10834675 -14128.11313664144 0 0 0 0 0 80935351.62665679 -10926292.25913111 -10926292.25913111 -300891.7506807268 0 0 0 0 0 81689058.82273446 -11105232.88994748 -11105232.88994748 -583950.5857556236 0 0 0 0 0 82888801.7208434 -11013175.17494422 -11013175.17494422 -830231.6838775489 0 0 0 0 0 83438416.06688225 -11093593.41963589 -11093593.41963589 -1110152.734051775 0 0 0 0 0 84216660.70335017 -11211707.29802192 -11211707.29802192 -1316470.807184601 0 0 0 0 0 84808364.63010471 -10949323.26859717 -10949323.26859717 -1234764.599737403 0 0 0 0 0 85756023.43069774 -10952127.95926053 -10952127.95926053 -1542202.79985754 0 0 0 0 0 85006656.61308417 -11317558.85161186 -11317558.85161186 -1582307.585743619 0 0 0 0 0 64172864.1973557 -1064825.841559542 -1064825.841559542 4383419.702498172 0 0 0 0 0 65223296.79781134 -2247015.365684323 -2247015.365684323 3889693.592731625 0 0 0 0 0 65770029.97103341 -2959340.557148513 -2959340.557148513 4105057.511867339 0 0 0 0 0 66233201.60661271 -3795037.081646739 -3795037.081646739 3969113.78513797 0 0 0 0 0 66744052.77581385 -4604935.165044544 -4604935.165044544 3805992.231157525 0 0 0 0 0 67307857.48212922 -5384184.935666177 -5384184.935666177 3616831.211220778 0 0 0 0 0 67914676.96112072 -6121630.345754988 -6121630.345754988 3403875.712444952 0 0 0 0 0 69649119.31690548 -6730495.629388679 -6730495.629388679 2965293.890126837 0 0 0 0 0 70077427.56172681 -7373431.669337787 -7373431.669337787 2880027.007185475 0 0 0 0 0 73375523.87844294 -8149275.737231977 -8149275.737231977 2215363.386582572 0 0 0 0 0 77879752.66520336 -9982342.086702475 -9982342.086702475 869309.9960513186 0 0 0 0 0 83002117.63408609 -11066324.04115591 -11066324.04115591 -769492.8181931368 0 0 0 0 0 83167019.5828515 -11379011.20610633 -11379011.20610633 -1137322.740147133 0 0 0 0 0 85991657.10621151 -11270661.68631902 -11270661.68631902 -1847147.366598184 0 0 0 0 0 86492196.55431849 -11061760.42063464 -11061760.42063464 -1799049.974178442 0 0 0 0 0 71924299.4869583 -7771817.70716956 -7771817.70716956 2495997.038627664 0 0 0 0 0 63441510.13415968 -396189.1100641579 -396189.1100641579 4089214.470155293 0 0 0 0 0 64236244.33533218 -2093405.482348735 -2093405.482348735 3932892.653909631 0 0 0 0 0 68791265.55451177 -6779287.166026367 -6779287.166026367 2999812.241594548 0 0 0 0 0 71153146.80186506 -7887637.792487142 -7887637.792487142 2521780.653126616 0 0 0 0 0 72257728.13813439 -8371976.351681883 -8371976.351681883 2325441.229061876 0 0 0 0 0 73728959.09752771 -8711173.119777799 -8711173.119777799 2036076.969949496 0 0 0 0 0 74470971.48378731 -9164255.839423947 -9164255.839423947 1752233.137767906 0 0 0 0 0 75226636.82327914 -9585747.268941587 -9585747.268941587 1459506.501714168 0 0 0 0 0 75997463.70833349 -9972596.495726017 -9972596.495726017 1160926.605510108 0 0 0 0 0 76780354.64627586 -10325581.51498755 -10325581.51498755 858244.6199857026 0 0 0 0 0 78143496.86359094 -10432142.34732046 -10432142.34732046 558838.1461393135 0 0 0 0 0 78915242.29168282 -10706756.03432216 -10706756.03432216 261563.612312448 0 0 0 0 0 79689659.06449732 -10950620.6132746 -10950620.6132746 -34719.88935236531 0 0 0 0 0 80463014.03408797 -11163107.16009857 -11163107.16009857 -329708.8533219456 0 0 0 0 0 81239520.76457857 -11347549.94126764 -11347549.94126764 -621236.9307533258 0 0 0 0 0 82006543.07969011 -11502691.44688985 -11502691.44688985 -908124.5326297719 0 0 0 0 0 83900460.82636923 -11473483.4301575 -11473483.4301575 -1394496.874157073 0 0 0 0 0 84625415.3640064 -11548574.96289045 -11548574.96289045 -1656794.782369356 0 0 0 0 0 85340266.03273717 -11612030.50600895 -11612030.50600895 -1917619.456488671 0 0 0 0 0 86610010.79361965 -11376420.25894955 -11376420.25894955 -2130365.108062975 0 0 0 0 0 86822498.90631366 -11321159.67923793 -11321159.67923793 -2049726.57213485 0 0 0 0 0 87732111.21960193 -11227430.76169215 -11227430.76169215 -2369165.585491613 0 0 0 0 0 87064070.86626337 -11608715.61866235 -11608715.61866235 -2360663.773019455 0 0 0 0 0 62752629.34283455 -1065182.382162121 -1065182.382162121 3975774.532251495 0 0 0 0 0 63554100.77486236 -1626961.232577452 -1626961.232577452 4319119.566156693 0 0 0 0 0 64698026.24978115 -2942620.104466727 -2942620.104466727 3841132.518996027 0 0 0 0 0 65296942.27706466 -3688428.731098941 -3688428.731098941 4016150.959297101 0 0 0 0 0 65814205.5664725 -4531785.246667057 -4531785.246667057 3855669.904928523 0 0 0 0 0 66386551.1351181 -5344592.901783112 -5344592.901783112 3668357.992144358 0 0 0 0 0 67007931.03106781 -6118993.266499635 -6118993.266499635 3455896.009940377 0 0 0 0 0 67655369.84137595 -6845296.327530001 -6845296.327530001 3211856.080787909 0 0 0 0 0 69535811.46072879 -7397656.012428745 -7397656.012428745 2780291.945947107 0 0 0 0 0 69976547.61485191 -8052917.498913397 -8052917.498913397 2668571.286010912 0 0 0 0 0 73403651.71201557 -8753697.988806335 -8753697.988806335 1987300.835802483 0 0 0 0 0 78115583.10506187 -10484044.21012616 -10484044.21012616 587526.611136279 0 0 0 0 0 83397213.54680313 -11417252.60342913 -11417252.60342913 -1056309.160823749 0 0 0 0 0 83538355.06247629 -11732206.18876553 -11732206.18876553 -1465443.002436396 0 0 0 0 0 85936997.86221412 -11597526.50899388 -11597526.50899388 -2184090.354621409 0 0 0 0 0 88033577.38401942 -11488279.77665797 -11488279.77665797 -2651672.782227798 0 0 0 0 0 88438418.14358646 -11266735.76271976 -11266735.76271976 -2619055.681773304 0 0 0 0 0 71908604.44467737 -8410147.057882378 -8410147.057882378 2273046.212553214 0 0 0 0 0 62509102.32184752 -500973.5005524275 -500973.5005524275 4133778.349945551 0 0 0 0 0 63709722.22339513 -2790182.426126312 -2790182.426126312 3853781.265478136 0 0 0 0 0 68661523.35527821 -7465298.013723786 -7465298.013723786 2815888.590540688 0 0 0 0 0 71122452.71390764 -8552785.810646977 -8552785.810646977 2290303.345246278 0 0 0 0 0 72229731.40660036 -9018506.082217095 -9018506.082217095 2064967.495114794 0 0 0 0 0 73772860.9388608 -9315782.81110264 -9315782.81110264 1777322.692804672 0 0 0 0 0 74554306.06486273 -9756651.950220399 -9756651.950220399 1477821.564123215 0 0 0 0 0 75350224.00626175 -10161077.24083196 -10161077.24083196 1170803.883893413 0 0 0 0 0 76159915.91416726 -10529624.80135052 -10529624.80135052 859592.2155184406 0 0 0 0 0 76979451.73168741 -10862765.00149091 -10862765.00149091 545849.5059125676 0 0 0 0 0 78370520.84449033 -10930973.84037298 -10930973.84037298 247158.3746506779 0 0 0 0 0 79172290.18328233 -11184746.54845819 -11184746.54845819 -58132.52590699229 0 0 0 0 0 79974721.93493088 -11406743.43397354 -11406743.43397354 -361548.5555516566 0 0 0 0 0 80775943.7805485 -11597844.05932286 -11597844.05932286 -661979.4317146755 0 0 0 0 0 81573295.33145092 -11758960.20304488 -11758960.20304488 -957933.0461326375 0 0 0 0 0 82364697.19013382 -11890472.47305422 -11890472.47305422 -1248889.787609985 0 0 0 0 0 84292677.34178567 -11808928.67403966 -11808928.67403966 -1736009.176413967 0 0 0 0 0 85030293.19586375 -11859442.86900152 -11859442.86900152 -2005125.017039601 0 0 0 0 0 85751946.60186887 -11884391.47688208 -11884391.47688208 -2266506.116229192 0 0 0 0 0 86510017.69624273 -11900864.06699094 -11900864.06699094 -2472506.161163548 0 0 0 0 0 87275212.06972764 -11912449.60003903 -11912449.60003903 -2724842.825737902 0 0 0 0 0 88704003.06026249 -11546794.23296705 -11546794.23296705 -2949650.069589119 0 0 0 0 0 62209675.02451741 -1522165.157103897 -1522165.157103897 4228685.467710192 0 0 0 0 0 62901169.01526043 -2481427.423614225 -2481427.423614225 4214246.096239818 0 0 0 0 0 64243387.71512923 -3671220.435491374 -3671220.435491374 3752958.512554374 0 0 0 0 0 64853631.1512825 -4446777.864195498 -4446777.864195498 3902353.134252386 0 0 0 0 0 65431818.81961033 -5295341.738133614 -5295341.738133614 3714404.132336968 0 0 0 0 0 66064162.19314343 -6106609.361095491 -6106609.361095491 3498690.975992511 0 0 0 0 0 66736055.81995904 -6877680.798376401 -6877680.798376401 3258048.270718791 0 0 0 0 0 67432822.89811078 -7596595.482001801 -7596595.482001801 2988134.15180253 0 0 0 0 0 69459923.29177399 -8081325.989083407 -8081325.989083407 2570221.029365025 0 0 0 0 0 69907239.92717479 -8750397.282939183 -8750397.282939183 2423128.870350428 0 0 0 0 0 73499500.73004739 -9364525.841607552 -9364525.841607552 1745258.550046521 0 0 0 0 0 78390948.37355499 -10982870.35214126 -10982870.35214126 287396.2988105752 0 0 0 0 0 83810690.06544662 -11769862.95718539 -11769862.95718539 -1374760.622623574 0 0 0 0 0 83938903.79508159 -12076146.55877682 -12076146.55877682 -1812622.375236616 0 0 0 0 0 88273254.53126065 -11752829.86330632 -11752829.86330632 -2940815.798472443 0 0 0 0 0 89165571.98591509 -11284359.94604855 -11284359.94604855 -2854912.48584058 0 0 0 0 0 71959299.52554959 -9057343.679691205 -9057343.679691205 2042059.85656111 0 0 0 0 0 61472350.6922696 -500186.9875432003 -500186.9875432003 4180532.2842885 0 0 0 0 0 63222615.52647207 -3546304.479932384 -3546304.479932384 3782041.445201164 0 0 0 0 0 68601334.81201467 -8173686.661714494 -8173686.661714494 2607001.883923812 0 0 0 0 0 71173451.81051733 -9220568.780494658 -9220568.780494658 2049606.481498562 0 0 0 0 0 72273502.05028708 -9667894.69317669 -9667894.69317669 1790830.880277895 0 0 0 0 0 73854746.43034881 -9931899.488863558 -9931899.488863558 1491837.605750688 0 0 0 0 0 74678833.20403589 -10353259.42829623 -10353259.42829623 1179855.568622999 0 0 0 0 0 75515571.79250112 -10738413.36120041 -10738413.36120041 859386.0677462041 0 0 0 0 0 76363646.70249832 -11086068.26085397 -11086068.26085397 536488.8501222529 0 0 0 0 0 77219472.68667418 -11397373.55345518 -11397373.55345518 212441.3028253298 0 0 0 0 0 78635726.802313 -11425651.60303532 -11425651.60303532 -83690.62973048196 0 0 0 0 0 79467140.41638505 -11656869.52105958 -11656869.52105958 -396195.3396679425 0 0 0 0 0 80297735.41832319 -11855805.94740345 -11855805.94740345 -705593.262459714 0 0 0 0 0 81123959.36412224 -12023232.17095392 -12023232.17095392 -1010752.473294418 0 0 0 0 0 81945262.40628865 -12160357.34012043 -12160357.34012043 -1310666.882031069 0 0 0 0 0 82761187.92300731 -12268892.97596571 -12268892.97596571 -1604614.924100604 0 0 0 0 0 84706802.35959153 -12132034.44247907 -12132034.44247907 -2082651.902498181 0 0 0 0 0 85456842.55756141 -12161660.0548704 -12161660.0548704 -2343860.265531699 0 0 0 0 0 86198150.51432167 -12168245.77946591 -12168245.77946591 -2595579.062226641 0 0 0 0 0 86937490.4941017 -12154418.42430168 -12154418.42430168 -2833186.02784375 0 0 0 0 0 87663782.98740666 -12139552.82747211 -12139552.82747211 -3068299.167335942 0 0 0 0 0 89171317.30088654 -11716823.02345649 -11716823.02345649 -3410120.92852413 0 0 0 0 0 88851289.89985061 -11802510.71606825 -11802510.71606825 -3255788.875503578 0 0 0 0 0 89356669.05478695 -11523129.86944119 -11523129.86944119 -3249492.689119107 0 0 0 0 0 90468869.73666054 -11270657.20590895 -11270657.20590895 -3344288.015929542 0 0 0 0 0 89712092.38818872 -11729860.14687867 -11729860.14687867 -3643451.27071582 0 0 0 0 0 61071450.00590624 -1433110.663407372 -1433110.663407372 4206392.080857446 0 0 0 0 0 61702264.58266432 -2340197.756669064 -2340197.756669064 4191359.371152459 0 0 0 0 0 62313092.26965132 -3286597.778184012 -3286597.778184012 4125696.010228015 0 0 0 0 0 63822604.43651487 -4436796.597710966 -4436796.597710966 3649359.99878128 0 0 0 0 0 64442237.83104102 -5237270.69831204 -5237270.69831204 3758731.368434229 0 0 0 0 0 65086401.29538456 -6086716.49668972 -6086716.49668972 3542719.914362232 0 0 0 0 0 65785596.93529686 -6896110.248936487 -6896110.248936487 3300544.172134951 0 0 0 0 0 66526655.37215464 -7660508.344562025 -7660508.344562025 3033744.416303785 0 0 0 0 0 67273739.06259578 -8370179.794625018 -8370179.794625018 2744409.382970671 0 0 0 0 0 69434287.97435325 -8789567.148911947 -8789567.148911947 2336009.952442372 0 0 0 0 0 69884151.88283934 -9469171.914993517 -9469171.914993517 2144611.142787744 0 0 0 0 0 73639543.89868221 -9981245.0541842 -9981245.0541842 1472747.87926104 0 0 0 0 0 78707000.10131389 -11477010.85380508 -11477010.85380508 -31695.73977688724 0 0 0 0 0 84252097.22647302 -12113796.2750486 -12113796.2750486 -1712183.643902604 0 0 0 0 0 84367266.06761955 -12408247.61293609 -12408247.61293609 -2169716.702257831 0 0 0 0 0 88247385.77361552 -12058310.36475329 -12058310.36475329 -3301325.029533169 0 0 0 0 0 90774809.1527195 -11471437.02832798 -11471437.02832798 -3649048.4694332 0 0 0 0 0 91078127.04185821 -11239933.67617868 -11239933.67617868 -3585938.50547812 0 0 0 0 0 72045543.1998848 -9714975.667561803 -9714975.667561803 1776849.242713081 0 0 0 0 0 60373207.42327101 -490560.1588709317 -490560.1588709317 4159312.607572627 0 0 0 0 0 62770645.64850197 -4338680.994024802 -4338680.994024802 3679699.464686623 0 0 0 0 0 68570579.18744682 -8909948.72962608 -8909948.72962608 2361615.513764121 0 0 0 0 0 71267743.59530637 -9900227.692291277 -9900227.692291277 1778936.10313912 0 0 0 0 0 72364000.18382993 -10331139.27642563 -10331139.27642563 1490304.770896795 0 0 0 0 0 73974563.78791507 -10552719.57988197 -10552719.57988197 1183315.657508906 0 0 0 0 0 74846203.59635451 -10952399.75753485 -10952399.75753485 856233.62655877 0 0 0 0 0 75723887.4492262 -11315143.42856552 -11315143.42856552 524723.4761553158 0 0 0 0 0 76609649.66818246 -11639921.16286871 -11639921.16286871 191305.2080759252 0 0 0 0 0 77501816.48059978 -11927553.25599347 -11927553.25599347 -141947.9190714239 0 0 0 0 0 78940554.72073576 -11914299.18319735 -11914299.18319735 -433816.0946897935 0 0 0 0 0 79801171.69632687 -12121386.14882701 -12121386.14882701 -752586.8060106345 0 0 0 0 0 80658105.36338776 -12295720.8898309 -12295720.8898309 -1067040.617402036 0 0 0 0 0 81509593.45624205 -12438429.98391298 -12438429.98391298 -1376056.949869987 0 0 0 0 0 82354513.21799785 -12551102.4445986 -12551102.4445986 -1678663.749166396 0 0 0 0 0 83191084.93251768 -12635535.84902002 -12635535.84902002 -1973906.530601379 0 0 0 0 0 85147321.8418317 -12438975.04603927 -12438975.04603927 -2438559.713317546 0 0 0 0 0 85914677.15302721 -12444285.63895214 -12444285.63895214 -2699046.335677783 0 0 0 0 0 86672757.7510215 -12429782.20428634 -12429782.20428634 -2951306.249407113 0 0 0 0 0 87410910.42190443 -12394809.54524578 -12394809.54524578 -3196107.19592708 0 0 0 0 0 88107688.46590525 -12335607.58427377 -12335607.58427377 -3439923.868314693 0 0 0 0 0 89201110.18751559 -11982723.52006415 -11982723.52006415 -3482179.744291577 0 0 0 0 0 89467041.96140595 -11998362.56314747 -11998362.56314747 -3400879.712308041 0 0 0 0 0 89768189.48643571 -11911220.09238047 -11911220.09238047 -3682714.644782118 0 0 0 0 0 90271857.49574007 -11737255.46907478 -11737255.46907478 -3777347.974300819 0 0 0 0 0 91444560.56235304 -11420686.2204481 -11420686.2204481 -3884836.671548093 0 0 0 0 0 91321066.43955451 -11412560.19294333 -11412560.19294333 -3922268.228013443 0 0 0 0 0 92327594.54178672 -11114607.86054377 -11114607.86054377 -4024266.48788082 0 0 0 0 0 91670476.90655625 -11588056.17232761 -11588056.17232761 -4259969.592691245 0 0 0 0 0 59891061.62229037 -1393216.982976975 -1393216.982976975 4180460.49566767 0 0 0 0 0 60576089.46874939 -2225776.015880051 -2225776.015880051 4175496.623889713 0 0 0 0 0 61192712.7818595 -3133325.38194916 -3133325.38194916 4139541.939095361 0 0 0 0 0 61763023.61865637 -4120766.953162153 -4120766.953162153 4002779.024713255 0 0 0 0 0 63444287.50140004 -5234305.526937488 -5234305.526937488 3518456.581704576 0 0 0 0 0 64070573.64064556 -6057942.610965966 -6057942.610965966 3581704.976274203 0 0 0 0 0 64786036.24749515 -6904641.816202402 -6904641.816202402 3339632.21666227 0 0 0 0 0 65555273.53434576 -7707848.962849683 -7707848.962849683 3071686.420353813 0 0 0 0 0 66365102.29304024 -8462493.181416802 -8462493.181416802 2788257.743511721 0 0 0 0 0 67176549.26077504 -9163022.926314874 -9163022.926314874 2479498.670222512 0 0 0 0 0 69451695.0762378 -9511068.434252484 -9511068.434252484 2068128.060839886 0 0 0 0 0 69909027.62602088 -10198190.24257719 -10198190.24257719 1834569.192472092 0 0 0 0 0 73801570.58733416 -10601010.49215924 -10601010.49215924 1174785.625725733 0 0 0 0 0 79064945.53284526 -11964557.54490445 -11964557.54490445 -369886.6838014794 0 0 0 0 0 84724854.59345634 -12442814.82169863 -12442814.82169863 -2060798.546887173 0 0 0 0 0 84826643.72567257 -12724715.5287889 -12724715.5287889 -2537797.800830196 0 0 0 0 0 90912658.75316925 -11698489.65021478 -11698489.65021478 -4025025.104832022 0 0 0 0 0 92738036.72740619 -11245811.6321617 -11245811.6321617 -4284906.425013003 0 0 0 0 0 92937317.878473 -11028082.57174284 -11028082.57174284 -4228680.667617014 0 0 0 0 0 72171365.35422917 -10376708.23158149 -10376708.23158149 1479065.585539916 0 0 0 0 0 59228993.50069194 -497398.1075211735 -497398.1075211735 4101087.000796797 0 0 0 0 0 62362775.39294573 -5162377.034380173 -5162377.034380173 3539444.836203251 0 0 0 0 0 68567208.80481213 -9656505.149161547 -9656505.149161547 2088997.920081467 0 0 0 0 0 71385057.94480737 -10591919.13885894 -10591919.13885894 1469703.655945063 0 0 0 0 0 72472989.6093598 -10997517.11961723 -10997517.11961723 1152076.997804822 0 0 0 0 0 74150286.13433802 -11169520.53318745 -11169520.53318745 851661.3258627232 0 0 0 0 0 75059488.55646725 -11549479.56087272 -11549479.56087272 510502.2825718316 0 0 0 0 0 75976935.06236555 -11889076.10233411 -11889076.10233411 167317.4313143791 0 0 0 0 0 76899747.73283939 -12189360.13909704 -12189360.13909704 -176190.7765396023 0 0 0 0 0 77827117.91877201 -12451497.02866727 -12451497.02866727 -517699.9859973646 0 0 0 0 0 79286352.05733322 -12394949.27177571 -12394949.27177571 -802847.650869559 0 0 0 0 0 80175001.61306801 -12576454.93881636 -12576454.93881636 -1126906.406608466 0 0 0 0 0 81058043.80337068 -12724957.8556723 -12724957.8556723 -1445299.275674552 0 0 0 0 0 81933521.10600418 -12841896.8831883 -12841896.8831883 -1756940.963333212 0 0 0 0 0 82799719.32498635 -12928921.80963045 -12928921.80963045 -2060843.039291059 0 0 0 0 0 83654290.70631619 -12987654.66786488 -12987654.66786488 -2355985.642695976 0 0 0 0 0 85620549.61059369 -12730463.30212047 -12730463.30212047 -2805262.407481494 0 0 0 0 0 86402990.19381987 -12713909.27680883 -12713909.27680883 -3063529.769720491 0 0 0 0 0 87168209.47823979 -12677366.96393273 -12677366.96393273 -3311503.020971441 0 0 0 0 0 87907994.40195367 -12618755.38969507 -12618755.38969507 -3547764.592774366 0 0 0 0 0 88632078.03890094 -12539264.28946758 -12539264.28946758 -3772225.843447675 0 0 0 0 0 89510395.69550247 -12183676.1154967 -12183676.1154967 -3853555.535964444 0 0 0 0 0 90297659.36168224 -12089464.06479838 -12089464.06479838 -4037922.328262785 0 0 0 0 0 91436158.43940423 -11807857.29531889 -11807857.29531889 -4389426.207280413 0 0 0 0 0 92072643.55106927 -11686663.34157853 -11686663.34157853 -4575080.522586603 0 0 0 0 0 93320317.48208569 -11153204.18029707 -11153204.18029707 -4501888.447665838 0 0 0 0 0 93167460.18642795 -11148975.91513433 -11148975.91513433 -4547321.874119968 0 0 0 0 0 94182834.23137246 -10798088.34117801 -10798088.34117801 -4588298.344149917 0 0 0 0 0 93541979.13545172 -11266022.79317853 -11266022.79317853 -4809652.063018719 0 0 0 0 0 58630875.94096999 -1443231.716583143 -1443231.716583143 3983217.737023667 0 0 0 0 0 59541938.5384035 -2080225.413371335 -2080225.413371335 4247202.312213841 0 0 0 0 0 60084041.78372861 -2971088.977511571 -2971088.977511571 4144523.152796788 0 0 0 0 0 60630635.81419245 -3981287.470363961 -3981287.470363961 4015441.13352918 0 0 0 0 0 61247081.75076053 -4997487.166767446 -4997487.166767446 3842948.24647881 0 0 0 0 0 63113257.64046673 -6059046.040757678 -6059046.040757678 3353884.050088838 0 0 0 0 0 63745606.79152973 -6904408.914665171 -6904408.914665171 3371120.177593929 0 0 0 0 0 64533646.95435084 -7745395.347908412 -7745395.347908412 3102801.48322982 0 0 0 0 0 65373181.80062218 -8536432.399225079 -8536432.399225079 2811128.05989369 0 0 0 0 0 66232429.45387182 -9274283.749040229 -9274283.749040229 2494528.467253787 0 0 0 0 0 67125188.71466938 -9957555.407948943 -9957555.407948943 2161012.888147954 0 0 0 0 0 69539973.18781419 -10240190.21713219 -10240190.21713219 1774611.463989983 0 0 0 0 0 69978395.90462983 -10936682.67656611 -10936682.67656611 1490028.732875337 0 0 0 0 0 74042131.83679081 -11222469.16937341 -11222469.16937341 861772.1038939838 0 0 0 0 0 79465520.90005581 -12443661.60722149 -12443661.60722149 -726887.7754105051 0 0 0 0 0 85230496.50016473 -12755501.58422054 -12755501.58422054 -2420515.190409087 0 0 0 0 0 85317923.7253591 -13025076.54445462 -13025076.54445462 -2916933.032580697 0 0 0 0 0 90040568.55975361 -12174222.14959008 -12174222.14959008 -3727590.14792213 0 0 0 0 0 90898014.01326828 -11968122.86802427 -11968122.86802427 -4287035.224926797 0 0 0 0 0 93089394.56714803 -11362105.75737815 -11362105.75737815 -4559744.422787471 0 0 0 0 0 94348267.88929228 -10993342.84131961 -10993342.84131961 -5086248.02571266 0 0 0 0 0 94669921.23412192 -10682850.91094976 -10682850.91094976 -4787207.561771994 0 0 0 0 0 72369254.46589674 -11044101.36804872 -11044101.36804872 1169534.856824653 0 0 0 0 0 58003921.14369955 -514196.6144219544 -514196.6144219544 4132677.819617016 0 0 0 0 0 62004465.4257343 -6014610.680012982 -6014610.680012982 3368096.437473604 0 0 0 0 0 68654994.84562017 -10412856.43402327 -10412856.43402327 1787384.085764016 0 0 0 0 0 71590740.06995793 -11278507.72801623 -11278507.72801623 1145522.450939556 0 0 0 0 0 72660442.31798194 -11658605.19456979 -11658605.19456979 798943.1877062552 0 0 0 0 0 74368053.63385753 -11791730.2530354 -11791730.2530354 491064.7156049522 0 0 0 0 0 75317765.44691563 -12146298.48404623 -12146298.48404623 138576.0568936638 0 0 0 0 0 76276452.95256716 -12459325.19270865 -12459325.19270865 -214211.8413086239 0 0 0 0 0 77236058.28756039 -12732632.21775239 -12732632.21775239 -565883.974717256 0 0 0 0 0 78197452.86791284 -12967111.27131815 -12967111.27131815 -914419.0518799189 0 0 0 0 0 79673965.3906863 -12865791.4352729 -12865791.4352729 -1190580.37236675 0 0 0 0 0 80589833.8610099 -13020268.80087135 -13020268.80087135 -1518706.347412133 0 0 0 0 0 81497646.63859183 -13141644.54470485 -13141644.54470485 -1839735.792359315 0 0 0 0 0 82395211.25126375 -13231519.8221847 -13231519.8221847 -2152707.982477209 0 0 0 0 0 83280530.58892955 -13291546.69500062 -13291546.69500062 -2456617.484348524 0 0 0 0 0 84151468.1589749 -13323411.01442124 -13323411.01442124 -2750687.793007112 0 0 0 0 0 86125130.30499759 -13006557.23777821 -13006557.23777821 -3181749.145416872 0 0 0 0 0 86916978.69619478 -12966304.50474376 -12966304.50474376 -3435835.757853587 0 0 0 0 0 87687681.57820395 -12904366.12164657 -12904366.12164657 -3678066.061906433 0 0 0 0 0 88438138.89427705 -12820598.33625838 -12820598.33625838 -3909512.352879798 0 0 0 0 0 89176119.00647177 -12719777.80215556 -12719777.80215556 -4128004.731641506 0 0 0 0 0 90060008.63373578 -12340087.63154924 -12340087.63154924 -4185816.003332403 0 0 0 0 0 90729057.58837977 -12214721.03979758 -12214721.03979758 -4390637.684078762 0 0 0 0 0 91358223.09861042 -12072388.03003024 -12072388.03003024 -4558724.97151786 0 0 0 0 0 92001690.5138887 -11917959.00913037 -11917959.00913037 -4712519.789240022 0 0 0 0 0 92618344.96855585 -11781711.5447354 -11781711.5447354 -4848453.941203459 0 0 0 0 0 93677232.93446788 -11257136.46828325 -11257136.46828325 -4768705.249184689 0 0 0 0 0 93960006.47120932 -11393047.72551205 -11393047.72551205 -5123649.945491946 0 0 0 0 0 94724081.74873517 -10789503.40972899 -10789503.40972899 -5122415.350395789 0 0 0 0 0 95219042.67072031 -10535931.48565784 -10535931.48565784 -4952633.278170639 0 0 0 0 0 57649743.07460692 -1499403.284962524 -1499403.284962524 3967367.94235498 0 0 0 0 0 58148119.3998756 -1981539.977425346 -1981539.977425346 3883142.309900415 0 0 0 0 0 58975474.5290291 -2733582.439626648 -2733582.439626648 4160590.54587434 0 0 0 0 0 59440626.07504737 -3838077.491184945 -3838077.491184945 4020200.115516133 0 0 0 0 0 60092135.71211582 -4888430.319781133 -4888430.319781133 3853804.654325737 0 0 0 0 0 60785719.86078085 -5903318.703662303 -5903318.703662303 3651413.390606577 0 0 0 0 0 62834383.36107293 -6909411.001840519 -6909411.001840519 3156915.024572839 0 0 0 0 0 63470768.390071 -7775368.312809532 -7775368.312809532 3124708.936855928 0 0 0 0 0 64332002.95180429 -8605856.183629781 -8605856.183629781 2827322.559484216 0 0 0 0 0 65228794.40543292 -9386803.367959259 -9386803.367959259 2508369.877716149 0 0 0 0 0 66161298.81222008 -10113156.87650645 -10113156.87650645 2165643.102187905 0 0 0 0 0 67136060.77604885 -10780053.91582936 -10780053.91582936 1810074.125927251 0 0 0 0 0 69708465.41104576 -10983466.28790353 -10983466.28790353 1458640.786296865 0 0 0 0 0 70098145.64247942 -11685924.63963499 -11685924.63963499 1112118.738114792 0 0 0 0 0 74319666.10950257 -11843399.35213693 -11843399.35213693 513474.7542169828 0 0 0 0 0 79909810.79400028 -12912263.19564476 -12912263.19564476 -1102612.899166937 0 0 0 0 0 85769575.01999232 -13051659.65819173 -13051659.65819173 -2791175.637858601 0 0 0 0 0 85841654.52522032 -13308225.74127159 -13308225.74127159 -3306188.833082746 0 0 0 0 0 90592882.63104749 -12335584.25397594 -12335584.25397594 -4060615.882649406 0 0 0 0 0 93113493.29356718 -11588177.15595775 -11588177.15595775 -4957508.372035945 0 0 0 0 0 94396128.6944527 -11204734.40345558 -11204734.40345558 -5280072.529142627 0 0 0 0 0 94845766.21681851 -10978230.89495486 -10978230.89495486 -5373041.575339249 0 0 0 0 0 95257528.99026152 -10780998.46714424 -10780998.46714424 -5429537.187294285 0 0 0 0 0 95358990.34844834 -10612386.96450989 -10612386.96450989 -5288176.455715994 0 0 0 0 0 96294054.76057906 -10215185.32979851 -10215185.32979851 -5244864.538378539 0 0 0 0 0 95729242.38425951 -10618198.34782379 -10618198.34782379 -5463459.637768842 0 0 0 0 0 72613655.69799374 -11709937.62719811 -11709937.62719811 828865.730219773 0 0 0 0 0 56797302.72786934 -492671.0806479924 -492671.0806479924 3979706.563950249 0 0 0 0 0 61700064.07153771 -6895077.746173584 -6895077.746173584 3164702.987679595 0 0 0 0 0 68827599.46608849 -11194531.31962035 -11194531.31962035 1450714.424636395 0 0 0 0 0 71844528.89518639 -11968003.75420623 -11968003.75420623 792951.0785257752 0 0 0 0 0 72903724.06450897 -12323395.22291565 -12323395.22291565 413896.462735805 0 0 0 0 0 74638670.71614818 -12408882.16725966 -12408882.16725966 107064.3720221015 0 0 0 0 0 75630150.2759051 -12736107.84544659 -12736107.84544659 -254950.7184325125 0 0 0 0 0 76626181.12659419 -13021504.23594492 -13021504.23594492 -617223.8517154986 0 0 0 0 0 77621601.88634533 -13265913.31180574 -13265913.31180574 -976252.6278679541 0 0 0 0 0 78614236.89746824 -13471196.28985802 -13471196.28985802 -1330915.816123206 0 0 0 0 0 80104271.30018052 -13324725.37956142 -13324725.37956142 -1596633.15622414 0 0 0 0 0 81046024.39024182 -13450681.70649275 -13450681.70649275 -1927357.975208642 0 0 0 0 0 81976916.90575707 -13543642.07711321 -13543642.07711321 -2249652.864311305 0 0 0 0 0 82894806.80006759 -13605193.36011868 -13605193.36011868 -2562448.054109916 0 0 0 0 0 83797598.93303239 -13637142.50601301 -13637142.50601301 -2865045.946250894 0 0 0 0 0 84683815.16764173 -13641248.157755 -13641248.157755 -3156637.272446148 0 0 0 0 0 86660530.94694075 -13264466.34820902 -13264466.34820902 -3566698.838219199 0 0 0 0 0 87459921.33238198 -13198451.04079181 -13198451.04079181 -3815363.273199319 0 0 0 0 0 88238740.6061347 -13111205.62441088 -13111205.62441088 -4052336.108536216 0 0 0 0 0 88998684.51475228 -13004845.57940642 -13004845.57940642 -4277190.289849897 0 0 0 0 0 89740254.82877907 -12882952.77986111 -12882952.77986111 -4489348.400942346 0 0 0 0 0 90590981.09948158 -12476142.5945151 -12476142.5945151 -4531704.405942201 0 0 0 0 0 91242044.58379172 -12326617.91857415 -12326617.91857415 -4715909.090846433 0 0 0 0 0 91907156.90557079 -12170211.5886258 -12170211.5886258 -4882908.283370843 0 0 0 0 0 92540090.76789534 -12002953.81913137 -12002953.81913137 -5041711.765154485 0 0 0 0 0 93114135.29474056 -11812316.22344394 -11812316.22344394 -5209158.805486199 0 0 0 0 0 93696552.82785496 -11629520.53017859 -11629520.53017859 -5305480.804773594 0 0 0 0 0 94260193.10448101 -11444440.2237162 -11444440.2237162 -5459900.521467768 0 0 0 0 0 96396347.71896742 -10365906.82511916 -10365906.82511916 -5669871.233045905 0 0 0 0 0 96726473.76711185 -10052666.0620764 -10052666.0620764 -5399401.113897469 0 0 0 0 0 55768380.30702893 -1573552.735419115 -1573552.735419115 3775698.171651814 0 0 0 0 0 57680632.95371 -2546286.845626764 -2546286.845626764 4136115.193590258 0 0 0 0 0 58310698.20601454 -3676125.645424893 -3676125.645424893 3995718.583216808 0 0 0 0 0 58890753.29329333 -4770640.145253363 -4770640.145253363 3858756.208411149 0 0 0 0 0 59602153.20307282 -5824326.476673587 -5824326.476673587 3660287.162418733 0 0 0 0 0 60373986.18380997 -6843101.033701591 -6843101.033701591 3422648.313054469 0 0 0 0 0 62611886.06942261 -7785056.500488574 -7785056.500488574 2926159.249273398 0 0 0 0 0 63250621.187715 -8669688.274024015 -8669688.274024015 2842192.492065934 0 0 0 0 0 64188791.07322276 -9488579.103337059 -9488579.103337059 2517045.998957628 0 0 0 0 0 65168581.96669409 -10253583.5027102 -10253583.5027102 2169957.690711756 0 0 0 0 0 66169295.31970534 -10965981.77869755 -10965981.77869755 1801788.516846597 0 0 0 0 0 67216947.60761663 -11619002.25764645 -11619002.25764645 1421492.795903835 0 0 0 0 0 69915592.50332099 -11731113.75193428 -11731113.75193428 1102219.840049268 0 0 0 0 0 70280640.07180034 -12436976.95990598 -12436976.95990598 709353.9366061635 0 0 0 0 0 74651622.82798958 -12459896.9931825 -12459896.9931825 144178.3907899422 0 0 0 0 0 80398728.65683787 -13368103.44050558 -13368103.44050558 -1496769.510029211 0 0 0 0 0 86340480.57663476 -13329659.90158047 -13329659.90158047 -3172563.094516769 0 0 0 0 0 86398643.95826232 -13571909.69288961 -13571909.69288961 -3704026.50715709 0 0 0 0 0 91161080.68018684 -12472462.40857526 -12472462.40857526 -4398358.030433374 0 0 0 0 0 94824234.58561695 -11225270.85498436 -11225270.85498436 -5567592.513983437 0 0 0 0 0 95355108.08841452 -10981533.96898403 -10981533.96898403 -5637209.449112711 0 0 0 0 0 95843689.33608976 -10699844.31678678 -10699844.31678678 -5611829.756475828 0 0 0 0 0 96164808.7796046 -10503054.61340379 -10503054.61340379 -5590811.24363724 0 0 0 0 0 96691195.63606639 -10201399.72076666 -10201399.72076666 -5751864.100248271 0 0 0 0 0 96996648.74185903 -9992785.04659404 -9992785.04659404 -5702254.833987382 0 0 0 0 0 72901373.76774795 -12372598.80507047 -12372598.80507047 450727.4754228925 0 0 0 0 0 55578945.41718609 -573157.8439008158 -573157.8439008158 3950989.864530974 0 0 0 0 0 61454985.74985596 -7802586.051834621 -7802586.051834621 2927285.033907902 0 0 0 0 0 69032426.53354093 -11980558.94460714 -11980558.94460714 1073919.396312726 0 0 0 0 0 72145667.0172472 -12660840.54915068 -12660840.54915068 406733.0874476538 0 0 0 0 0 73189868.99920693 -12990022.33389618 -12990022.33389618 2627.888892085335 0 0 0 0 0 74959141.64601223 -13020763.77744934 -13020763.77744934 -300406.8487550917 0 0 0 0 0 75990872.131207 -13318442.23306046 -13318442.23306046 -672611.7045506043 0 0 0 0 0 77023936.22356772 -13573663.73475865 -13573663.73475865 -1042609.87993341 0 0 0 0 0 78054120.461812 -13787674.53227712 -13787674.53227712 -1408134.164889526 0 0 0 0 0 79077643.03212206 -13962054.17865639 -13962054.17865639 -1767348.829629497 0 0 0 0 0 80577953.08725077 -13769418.35954858 -13769418.35954858 -2019956.269351945 0 0 0 0 0 81543705.15390277 -13865713.61437896 -13865713.61437896 -2352199.156187688 0 0 0 0 0 82496123.01010992 -13928691.37289351 -13928691.37289351 -2673925.751468156 0 0 0 0 0 83432506.76627074 -13960839.94841654 -13960839.94841654 -2985148.519192355 0 0 0 0 0 84351485.03642179 -13963745.58446408 -13963745.58446408 -3284995.937437224 0 0 0 0 0 85251245.64574532 -13939182.07709153 -13939182.07709153 -3572698.826416976 0 0 0 0 0 87226249.173006 -13501638.37170663 -13501638.37170663 -3958970.215742278 0 0 0 0 0 88032970.0434484 -13409811.71231426 -13409811.71231426 -4201618.88372835 0 0 0 0 0 88818418.74896416 -13298149.49414513 -13298149.49414513 -4431598.824537368 0 0 0 0 0 89582528.65809341 -13169023.8808944 -13169023.8808944 -4648642.429669455 0 0 0 0 0 90322793.97639124 -13024253.8186377 -13024253.8186377 -4852392.886517542 0 0 0 0 0 91141094.25311333 -12592202.53257493 -12592202.53257493 -4874703.79282139 0 0 0 0 0 91811405.2221982 -12425146.71372117 -12425146.71372117 -5049139.964537696 0 0 0 0 0 92466823.9994742 -12250466.99405651 -12250466.99405651 -5209783.277630833 0 0 0 0 0 93083753.06493169 -12062365.25429704 -12062365.25429704 -5358142.832731917 0 0 0 0 0 93676967.08369896 -11862033.53387085 -11862033.53387085 -5493706.572521718 0 0 0 0 0 94265044.4699173 -11651615.49756591 -11651615.49756591 -5622853.840806267 0 0 0 0 0 94816736.71987556 -11439688.73114382 -11439688.73114382 -5738384.760780331 0 0 0 0 0 96515418.73513396 -10528244.46692834 -10528244.46692834 -5722369.016483366 0 0 0 0 0 96843226.38783358 -10366432.71869486 -10366432.71869486 -5901287.839125232 0 0 0 0 0 97200261.69757389 -10108031.4281238 -10108031.4281238 -5919572.884701263 0 0 0 0 0 97387430.4112536 -9875427.432631211 -9875427.432631211 -5828416.318002552 0 0 0 0 0 98205419.50485334 -9459466.638628762 -9459466.638628762 -5715559.899704215 0 0 0 0 0 97807668.38957946 -9876582.207226345 -9876582.207226345 -6035400.839114474 0 0 0 0 0 97637231.91872816 -9821230.144778177 -9821230.144778177 -5734719.295057964 0 0 0 0 0 54687802.38384794 -2056476.761023947 -2056476.761023947 3609215.763942418 0 0 0 0 0 56062549.66002981 -2406397.078015411 -2406397.078015411 3699439.689394752 0 0 0 0 0 56895842.10541568 -3537989.94102478 -3537989.94102478 3918418.874577539 0 0 0 0 0 57683204.36102881 -4644077.586036264 -4644077.586036264 3858950.740896461 0 0 0 0 0 58377818.83662255 -5732087.29718332 -5732087.29718332 3665722.272390937 0 0 0 0 0 59156852.27914657 -6800041.406929744 -6800041.406929744 3423198.130821833 0 0 0 0 0 60018173.93196988 -7815394.04666606 -7815394.04666606 3150987.233993501 0 0 0 0 0 62451282.31085876 -8683562.028688373 -8683562.028688373 2660712.864180541 0 0 0 0 0 63090693.10301718 -9585560.416022019 -9585560.416022019 2523324.074031418 0 0 0 0 0 64109827.61238287 -10389095.93240717 -10389095.93240717 2173814.015861942 0 0 0 0 0 65174613.16972724 -11134903.76172022 -11134903.76172022 1804569.514023232 0 0 0 0 0 66275078.82724176 -11821132.67326788 -11821132.67326788 1418057.6150095 0 0 0 0 0 67396777.969593 -12444390.85709132 -12444390.85709132 1021123.936610414 0 0 0 0 0 70183053.4017313 -12480883.25093544 -12480883.25093544 721799.4911584929 0 0 0 0 0 70538636.76428762 -13176607.50655 -13176607.50655 283790.1634892968 0 0 0 0 0 75036443.64061522 -13070329.71046922 -13070329.71046922 -248722.0306605987 0 0 0 0 0 80932157.31083079 -13809054.13063741 -13809054.13063741 -1908366.21907651 0 0 0 0 0 86943268.01256908 -13587556.3382509 -13587556.3382509 -3563409.093606503 0 0 0 0 0 86986863.21751834 -13814190.92517371 -13814190.92517371 -4109395.212343708 0 0 0 0 0 91758118.08384329 -12582277.39630584 -12582277.39630584 -4735257.669889271 0 0 0 0 0 95346294.22404724 -11204857.52062864 -11204857.52062864 -5836353.268597608 0 0 0 0 0 96400072.9745407 -10745615.960471 -10745615.960471 -5708440.352487518 0 0 0 0 0 96389822.81109114 -10572956.38135988 -10572956.38135988 -5785392.940342462 0 0 0 0 0 98618269.65592404 -9439882.584278977 -9439882.584278977 -5909514.212640172 0 0 0 0 0 98644879.99176013 -9249955.239013711 -9249955.239013711 -5806210.791768674 0 0 0 0 0 73267172.6880631 -13039672.17195118 -13039672.17195118 58439.06042263643 0 0 0 0 0 54286295.13877245 -553467.7928378785 -553467.7928378785 3923789.180167497 0 0 0 0 0 61274845.941408 -8734217.08382019 -8734217.08382019 2653171.055749458 0 0 0 0 0 69297527.26872331 -12751220.25877167 -12751220.25877167 667689.8926117276 0 0 0 0 0 72522376.89397727 -13345230.5320246 -13345230.5320246 -7393.177525577366 0 0 0 0 0 73535129.0765512 -13643853.61061847 -13643853.61061847 -440337.6250215198 0 0 0 0 0 75329367.0761814 -13624442.40946408 -13624442.40946408 -734864.2022126949 0 0 0 0 0 76402330.1227119 -13890617.51732467 -13890617.51732467 -1114294.422929534 0 0 0 0 0 77472334.05669186 -14113859.7722239 -14113859.7722239 -1490953.220155155 0 0 0 0 0 78536135.79152201 -14295879.66237953 -14295879.66237953 -1861580.009553831 0 0 0 0 0 79589484.96622442 -14437562.67180109 -14437562.67180109 -2223525.029519014 0 0 0 0 0 81095789.91942742 -14197922.96374958 -14197922.96374958 -2460591.539388601 0 0 0 0 0 82083340.14025155 -14262774.43029508 -14262774.43029508 -2791638.391361004 0 0 0 0 0 83054910.55851921 -14295065.03297131 -14295065.03297131 -3111863.968671777 0 0 0 0 0 84008446.57385693 -14296556.8797783 -14296556.8797783 -3419941.464451127 0 0 0 0 0 84941610.80761856 -14269391.56570289 -14269391.56570289 -3715470.04045784 0 0 0 0 0 85852835.91921221 -14215364.06373912 -14215364.06373912 -3997905.677457992 0 0 0 0 0 87821778.78978865 -13717160.38645019 -13717160.38645019 -4357825.082771258 0 0 0 0 0 88634251.67442214 -13599716.21176999 -13599716.21176999 -4593044.637231174 0 0 0 0 0 89423441.8777068 -13463586.93899363 -13463586.93899363 -4814678.945332429 0 0 0 0 0 90188158.26009326 -13310793.42779948 -13310793.42779948 -5022530.967360236 0 0 0 0 0 90926532.12979421 -13142199.12686814 -13142199.12686814 -5216619.62146329 0 0 0 0 0 91724202.19763733 -12688673.83667809 -12688673.83667809 -5219653.510052835 0 0 0 0 0 92394371.86372626 -12503350.58523746 -12503350.58523746 -5383587.450548062 0 0 0 0 0 93037263.71599799 -12307527.3130349 -12307527.3130349 -5533764.205685994 0 0 0 0 0 93651124.17916079 -12098535.1226784 -12098535.1226784 -5671580.707025997 0 0 0 0 0 94251225.42691708 -11883269.13674217 -11883269.13674217 -5798514.936855962 0 0 0 0 0 94818655.99188459 -11658579.51922579 -11658579.51922579 -5913963.770995792 0 0 0 0 0 95364627.57333669 -11425092.75653669 -11425092.75653669 -6019729.342587151 0 0 0 0 0 96827238.4709882 -10520745.23937968 -10520745.23937968 -6067317.195830026 0 0 0 0 0 97253684.6711276 -10293189.95540123 -10293189.95540123 -6149349.516475536 0 0 0 0 0 97716173.44759649 -10061565.20546574 -10061565.20546574 -6173014.212268391 0 0 0 0 0 98140740.96152326 -9832364.384497603 -9832364.384497603 -6252129.702994523 0 0 0 0 0 98953200.23907703 -9238660.048345642 -9238660.048345642 -5997438.258784116 0 0 0 0 0 99051963.85792737 -9045383.995931465 -9045383.995931465 -5891401.030834136 0 0 0 0 0 53620280.6935358 -1614368.078924861 -1614368.078924861 3783370.616219584 0 0 0 0 0 54879386.61717172 -3661378.779011615 -3661378.779011615 3554478.4095686 0 0 0 0 0 56402569.59256157 -4591306.720670469 -4591306.720670469 3849416.025665715 0 0 0 0 0 57106448.13669881 -5648411.871539175 -5648411.871539175 3628892.725115944 0 0 0 0 0 57889000.58377778 -6752245.979435097 -6752245.979435097 3397087.382137887 0 0 0 0 0 58769675.02864846 -7810732.109439955 -7810732.109439955 3135243.126798918 0 0 0 0 0 59727288.05305079 -8814738.594386006 -8814738.594386006 2835769.364039475 0 0 0 0 0 62357191.62885272 -9601767.233795909 -9601767.233795909 2359134.611075227 0 0 0 0 0 62995103.6956349 -10518419.06688873 -10518419.06688873 2164139.34854671 0 0 0 0 0 64094114.49834161 -11300959.68104972 -11300959.68104972 1788337.112914842 0 0 0 0 0 65234338.90128831 -12022564.2645876 -12022564.2645876 1395549.016238493 0 0 0 0 0 66410175.17897952 -12680937.75713565 -12680937.75713565 990586.5726451988 0 0 0 0 0 67580472.25148486 -13270251.12988625 -13270251.12988625 571083.7790216632 0 0 0 0 0 70487556.43067275 -13218346.35533594 -13218346.35533594 302727.2399183435 0 0 0 0 0 70857888.84236208 -13909206.26306528 -13909206.26306528 -179145.8392064605 0 0 0 0 0 75483255.07997143 -13671772.11635544 -13671772.11635544 -666147.6907374534 0 0 0 0 0 81513560.04215221 -14233147.43480736 -14233147.43480736 -2336712.986916014 0 0 0 0 0 87577155.83504528 -13823668.34662561 -13823668.34662561 -3962146.477930326 0 0 0 0 0 87605901.49156797 -14033667.581247 -14033667.581247 -4521027.94249286 0 0 0 0 0 92371896.40753873 -12671617.85400333 -12671617.85400333 -5076759.179001711 0 0 0 0 0 95926434.87904419 -11199693.51120764 -11199693.51120764 -6104650.194900219 0 0 0 0 0 96434596.84587421 -10778938.20378252 -10778938.20378252 -6054017.236562111 0 0 0 0 0 99042463.40407978 -9399581.992030283 -9399581.992030283 -6067197.384024232 0 0 0 0 0 99294348.04208325 -9031160.460064467 -9031160.460064467 -6100491.188469984 0 0 0 0 0 73675221.35912552 -13690475.97646267 -13690475.97646267 -373602.9766609535 0 0 0 0 0 52880789.12053984 -589666.4220256386 -589666.4220256386 3785292.177117059 0 0 0 0 0 53826640.02435245 -2805481.646841641 -2805481.646841641 3481209.478063347 0 0 0 0 0 61165010.80374692 -9686783.672798892 -9686783.672798892 2340014.816955699 0 0 0 0 0 69635679.3790801 -13512101.10792289 -13512101.10792289 246796.3678859032 0 0 0 0 0 72951501.80774938 -14025484.42771844 -14025484.42771844 -450159.709740051 0 0 0 0 0 73936112.56374274 -14294937.31264354 -14294937.31264354 -906554.1105906545 0 0 0 0 0 75754548.5181676 -14218139.9222564 -14218139.9222564 -1195090.207141736 0 0 0 0 0 76866893.3867029 -14450938.73916715 -14450938.73916715 -1580757.381627625 0 0 0 0 0 77973001.78593734 -14640528.61014886 -14640528.61014886 -1961770.107506714 0 0 0 0 0 79068862.75141193 -14788077.56308635 -14788077.56308635 -2334538.189314007 0 0 0 0 0 80150710.90370509 -14894826.68084548 -14894826.68084548 -2696730.300464553 0 0 0 0 0 81656626.72257413 -14608079.22716482 -14608079.22716482 -2916949.444757673 0 0 0 0 0 82665090.69737466 -14640263.69263309 -14640263.69263309 -3245959.851701539 0 0 0 0 0 83653950.69540006 -14640275.07714924 -14640275.07714924 -3562319.292599629 0 0 0 0 0 84622194.25469698 -14610276.03991801 -14610276.03991801 -3865684.496949271 0 0 0 0 0 85567602.2967802 -14552223.59934117 -14552223.59934117 -4155419.608450525 0 0 0 0 0 86488697.29974304 -14468069.51908615 -14468069.51908615 -4430951.367660107 0 0 0 0 0 88446610.9752675 -13909857.74862172 -13909857.74862172 -4761574.79395077 0 0 0 0 0 89262247.90722547 -13766576.55966976 -13766576.55966976 -4987963.944226471 0 0 0 0 0 90052426.09489793 -13605627.61490496 -13605627.61490496 -5200043.623955267 0 0 0 0 0 90816041.3198489 -13428573.91596757 -13428573.91596757 -5397682.06665635 0 0 0 0 0 91553112.35868587 -13236734.86526585 -13236734.86526585 -5580952.10787571 0 0 0 0 0 92329003.46874657 -12764108.46613369 -12764108.46613369 -5563376.85687347 0 0 0 0 0 92991319.10927941 -12557952.89358707 -12557952.89358707 -5715735.173728559 0 0 0 0 0 93626795.95945874 -12341344.01863919 -12341344.01863919 -5855072.460940533 0 0 0 0 0 94239302.42031503 -12116209.64276933 -12116209.64276933 -5982665.026369519 0 0 0 0 0 94827014.59999312 -11883042.37242306 -11883042.37242306 -6097916.895451343 0 0 0 0 0 95389859.68121177 -11642088.2989836 -11642088.2989836 -6202129.54026236 0 0 0 0 0 96956141.84852618 -10737576.05783762 -10737576.05783762 -5938780.967732028 0 0 0 0 0 95940941.99518415 -11401007.46493878 -11401007.46493878 -6293672.437198788 0 0 0 0 0 97343139.96174312 -10469748.63967626 -10469748.63967626 -6314353.375442052 0 0 0 0 0 96870736.09050474 -10719970.11434361 -10719970.11434361 -6267676.470193267 0 0 0 0 0 97776756.7559422 -10221961.76269711 -10221961.76269711 -6364437.569470819 0 0 0 0 0 98198471.40844183 -9970976.4828448 -9970976.4828448 -6407094.873025692 0 0 0 0 0 98603126.57071933 -9724632.286513174 -9724632.286513174 -6449936.381157465 0 0 0 0 0 98944545.72330971 -9338940.279336706 -9338940.279336706 -6282198.618427107 0 0 0 0 0 99130186.42378801 -9048790.018611437 -9048790.018611437 -6151683.799196864 0 0 0 0 0 99851491.13112058 -8608374.183084056 -8608374.183084056 -6021497.578219526 0 0 0 0 0 99639647.4071756 -8853542.772734817 -8853542.772734817 -6297762.270624713 0 0 0 0 0 52060337.6938115 -1749631.804813579 -1749631.804813579 3652455.047192145 0 0 0 0 0 52598509.26771052 -2445198.457338561 -2445198.457338561 3487597.28607667 0 0 0 0 0 54013916.87711617 -4163110.061721214 -4163110.061721214 3480259.320454004 0 0 0 0 0 54891859.74085293 -4577570.466879385 -4577570.466879385 3402293.113406717 0 0 0 0 0 55897897.95000673 -5437674.162448717 -5437674.162448717 3660893.752714496 0 0 0 0 0 56559205.45485885 -6669351.850407104 -6669351.850407104 3373314.992159837 0 0 0 0 0 57477802.10671332 -7786270.722490222 -7786270.722490222 3110897.809974101 0 0 0 0 0 58455678.68846084 -8842754.268718414 -8842754.268718414 2812127.940972195 0 0 0 0 0 59506746.83231305 -9836372.127936834 -9836372.127936834 2479650.413783681 0 0 0 0 0 62334829.31296934 -10536949.61151062 -10536949.61151062 2018971.634633454 0 0 0 0 0 62968930.09902826 -11465867.01925317 -11465867.01925317 1764058.322380242 0 0 0 0 0 64149783.61572233 -12223171.24518016 -12223171.24518016 1362525.426061737 0 0 0 0 0 65366626.75384539 -12915178.29757648 -12915178.29757648 944351.9531288596 0 0 0 0 0 66598754.94196398 -13542268.9878355 -13542268.9878355 512955.3158458887 0 0 0 0 0 67837248.08015758 -14100174.28325356 -14100174.28325356 70039.08790971397 0 0 0 0 0 70900705.56440823 -13952287.19732001 -13952287.19732001 -138879.3166854916 0 0 0 0 0 71237812.43931803 -14639310.26092616 -14639310.26092616 -671259.438616162 0 0 0 0 0 75988848.17197502 -14262846.32330187 -14262846.32330187 -1108727.651143187 0 0 0 0 0 82136688.73714831 -14637725.82047387 -14637725.82047387 -2782231.425906601 0 0 0 0 0 88241003.96468353 -14036192.51021894 -14036192.51021894 -4367692.219967159 0 0 0 0 0 88254797.10080388 -14229099.58078217 -14229099.58078217 -4937766.673866583 0 0 0 0 0 93001250.70159282 -12739968.08994003 -12739968.08994003 -5419386.149675481 0 0 0 0 0 96448413.11686654 -11153423.5770706 -11153423.5770706 -6373155.245051929 0 0 0 0 0 99441067.36970647 -9286980.036114844 -9286980.036114844 -6238825.931813257 0 0 0 0 0 99788630.52049711 -9025484.762536051 -9025484.762536051 -6258300.381832452 0 0 0 0 0 99866669.13172255 -8636154.430735124 -8636154.430735124 -6282102.986404199 0 0 0 0 0 100222342.6713024 -8383775.371223002 -8383775.371223002 -6073399.148056566 0 0 0 0 0 74163138.1623631 -14341173.78493251 -14341173.78493251 -820501.9960621971 0 0 0 0 0 51456054.82509679 -652068.6548973972 -652068.6548973972 3572070.205681386 0 0 0 0 0 52745526.04257188 -3400169.556372935 -3400169.556372935 3323825.74335051 0 0 0 0 0 61130390.10763515 -10657290.09400328 -10657290.09400328 1986676.089984675 0 0 0 0 0 70100921.38070442 -14281270.06208192 -14281270.06208192 -209367.7634562021 0 0 0 0 0 73451650.29857518 -14691956.95849818 -14691956.95849818 -919189.1234746255 0 0 0 0 0 74402113.16462572 -14927994.57891857 -14927994.57891857 -1402223.176018381 0 0 0 0 0 76240702.31283143 -14799182.65849723 -14799182.65849723 -1678841.930171928 0 0 0 0 0 77388567.74853782 -14996137.67283076 -14996137.67283076 -2069043.201215256 0 0 0 0 0 78528730.3963286 -15149317.39651372 -15149317.39651372 -2452091.517556467 0 0 0 0 0 79653164.17101255 -15259699.57206957 -15259699.57206957 -2824803.911630658 0 0 0 0 0 80761332.43159191 -15330127.54956157 -15330127.54956157 -3185927.761966017 0 0 0 0 0 82263823.46086328 -14996047.35594387 -14996047.35594387 -3386591.780241281 0 0 0 0 0 83289784.36679982 -14994665.62475345 -14994665.62475345 -3711966.265363029 0 0 0 0 0 84293752.40644671 -14961770.22185563 -14961770.22185563 -4023425.387005442 0 0 0 0 0 85274029.15984693 -14899601.72700158 -14899601.72700158 -4320660.697940501 0 0 0 0 0 86229234.97072591 -14810195.06244682 -14810195.06244682 -4603150.872564864 0 0 0 0 0 87157889.45673127 -14695540.23986635 -14695540.23986635 -4870309.060657244 0 0 0 0 0 89098681.4704265 -14078241.56185608 -14078241.56185608 -5168963.100011456 0 0 0 0 0 89915422.69649117 -13908914.61752717 -13908914.61752717 -5385265.481378575 0 0 0 0 0 90704876.92674629 -13722919.45713165 -13722919.45713165 -5586612.54045731 0 0 0 0 0 91466291.19333169 -13521634.38220316 -13521634.38220316 -5772833.90236729 0 0 0 0 0 92200083.62720864 -13307237.15828166 -13307237.15828166 -5944309.403638297 0 0 0 0 0 92947029.43859598 -12815933.37283679 -12815933.37283679 -5904466.015357839 0 0 0 0 0 93603175.56160446 -12589710.16893377 -12589710.16893377 -6045103.855492731 0 0 0 0 0 94232808.20470333 -12354518.63964948 -12354518.63964948 -6173361.071238176 0 0 0 0 0 94837329.75365075 -12111386.03861245 -12111386.03861245 -6289012.93258458 0 0 0 0 0 95417069.64884458 -11861463.8347034 -11861463.8347034 -6392476.429828289 0 0 0 0 0 95974842.58021268 -11607505.16254381 -11607505.16254381 -6483790.917977208 0 0 0 0 0 97503832.89301215 -10662903.86724431 -10662903.86724431 -6155156.303809027 0 0 0 0 0 96503510.23129033 -11349948.78267545 -11349948.78267545 -6562224.514803632 0 0 0 0 0 97860368.39216286 -10387632.38125253 -10387632.38125253 -6547856.55912865 0 0 0 0 0 97412571.89552455 -10645634.96692384 -10645634.96692384 -6500381.504866486 0 0 0 0 0 98290176.7694943 -10129111.26827694 -10129111.26827694 -6587395.954198551 0 0 0 0 0 98696996.99216641 -9870656.852418387 -9870656.852418387 -6619369.516771588 0 0 0 0 0 99081045.27148008 -9614726.907848222 -9614726.907848222 -6641196.375355965 0 0 0 0 0 100026442.4521469 -8727655.478651088 -8727655.478651088 -6492715.454969049 0 0 0 0 0 100278402.7627031 -8488608.084864065 -8488608.084864065 -6465189.881142106 0 0 0 0 0 100620250.4404018 -8143595.035908629 -8143595.035908629 -6103037.886589051 0 0 0 0 0 50753670.80145876 -1844284.057525176 -1844284.057525176 3486898.942093357 0 0 0 0 0 51972123.13283079 -2662446.594232082 -2662446.594232082 3863013.636759656 0 0 0 0 0 54339889.20692872 -5380668.770716882 -5380668.770716882 3543757.879021037 0 0 0 0 0 53767914.11775845 -4185551.935599875 -4185551.935599875 3757433.437122408 0 0 0 0 0 55252058.96273392 -6565413.971042629 -6565413.971042629 3349965.016247257 0 0 0 0 0 56126155.2497206 -7746326.850872601 -7746326.850872601 3079652.578582075 0 0 0 0 0 57128833.74189793 -8858931.20586904 -8858931.20586904 2777553.742161034 0 0 0 0 0 58209404.7545533 -9903643.612602517 -9903643.612602517 2443421.664404108 0 0 0 0 0 59359377.3364337 -10880524.51229152 -10880524.51229152 2078446.526478778 0 0 0 0 0 62389423.10295503 -11485965.25944808 -11485965.25944808 1639269.985894095 0 0 0 0 0 63016707.48513847 -12424693.1599294 -12424693.1599294 1322247.924008423 0 0 0 0 0 64278225.32178935 -13153312.23911663 -13153312.23911663 896500.8437286327 0 0 0 0 0 65572914.19372192 -13814281.85918108 -13814281.85918108 457192.0502639987 0 0 0 0 0 66886682.04235326 -14407785.82577635 -14407785.82577635 7228.044707644562 0 0 0 0 0 68197158.07350022 -14933643.1869747 -14933643.1869747 -436368.1663320585 0 0 0 0 0 71380404.21547951 -14687328.26720511 -14687328.26720511 -603745.4381696119 0 0 0 0 0 71698190.77096094 -15364975.13246363 -15364975.13246363 -1198731.207426229 0 0 0 0 0 76546161.53971821 -14839009.7951594 -14839009.7951594 -1578569.012216015 0 0 0 0 0 82803771.59522501 -15019747.2141873 -15019747.2141873 -3241548.801197033 0 0 0 0 0 88934026.40967961 -14224078.6288077 -14224078.6288077 -4778908.772814956 0 0 0 0 0 88932479.26126154 -14398846.64968823 -14398846.64968823 -5357991.159650666 0 0 0 0 0 93647119.57792187 -12784336.69423412 -12784336.69423412 -5759408.847655943 0 0 0 0 0 97003519.75778663 -11086538.26359614 -11086538.26359614 -6629776.558713973 0 0 0 0 0 99901375.6241793 -9159356.088250404 -9159356.088250404 -6382008.660212319 0 0 0 0 0 99712890.82311705 -8985575.891237732 -8985575.891237732 -6520442.577680134 0 0 0 0 0 100989777.1972184 -8072442.008436902 -8072442.008436902 -6273014.320977066 0 0 0 0 0 100961926.9324675 -7912316.665926952 -7912316.665926952 -6135736.987787422 0 0 0 0 0 74695589.63165288 -14969345.07983663 -14969345.07983663 -1304884.470506604 0 0 0 0 0 49912653.7257992 -653546.8958587006 -653546.8958587006 3530678.634336594 0 0 0 0 0 52040762.45060474 -4105680.782002152 -4105680.782002152 3267644.826816963 0 0 0 0 0 61176454.98178897 -11642888.57465679 -11642888.57465679 1592570.512564339 0 0 0 0 0 70545851.49909966 -15039942.85318952 -15039942.85318952 -722392.7100888639 0 0 0 0 0 74011556.32215808 -15349564.19547337 -15349564.19547337 -1416892.147491596 0 0 0 0 0 74927612.71193066 -15551946.90032304 -15551946.90032304 -1919180.028477754 0 0 0 0 0 76785843.3853042 -15362251.65096108 -15362251.65096108 -2182832.926985677 0 0 0 0 0 77968292.36950292 -15521068.76141433 -15521068.76141433 -2576292.388582368 0 0 0 0 0 79137179.06767409 -15635609.27915376 -15635609.27915376 -2960053.779062728 0 0 0 0 0 80287771.31544453 -15708070.82160846 -15708070.82160846 -3331592.816049872 0 0 0 0 0 81417522.17448203 -15741131.43391667 -15741131.43391667 -3689822.051102706 0 0 0 0 0 82913836.82092197 -15360069.0313122 -15360069.0313122 -3868869.7444109 0 0 0 0 0 83955792.30421382 -15324235.88587731 -15324235.88587731 -4188807.316863902 0 0 0 0 0 84972505.65406239 -15257709.01960968 -15257709.01960968 -4493806.17551 0 0 0 0 0 85962938.16475829 -15162756.60881571 -15162756.60881571 -4783432.40170663 0 0 0 0 0 86925614.53280725 -15041470.81812769 -15041470.81812769 -5057035.306497865 0 0 0 0 0 87859414.79716907 -14896095.82401772 -14896095.82401772 -5314382.33650592 0 0 0 0 0 89777440.52530518 -14220751.27841196 -14220751.27841196 -5578526.758864382 0 0 0 0 0 90593594.14792435 -14025271.13048277 -14025271.13048277 -5783458.335627885 0 0 0 0 0 91380150.67845993 -13814199.59497759 -13814199.59497759 -5972756.597325352 0 0 0 0 0 92137551.1719223 -13589256.8823901 -13589256.8823901 -6146629.1090839 0 0 0 0 0 92865252.20145194 -13352115.38062037 -13352115.38062037 -6305203.70060087 0 0 0 0 0 93581275.75091657 -12844072.89141249 -12844072.89141249 -6242897.437198267 0 0 0 0 0 94228712.098757 -12598226.73209958 -12598226.73209958 -6371301.758437463 0 0 0 0 0 94851101.56735069 -12344776.86198316 -12344776.86198316 -6487209.23690293 0 0 0 0 0 95447310.94346683 -12084395.85442408 -12084395.85442408 -6590072.315792505 0 0 0 0 0 96018117.01898411 -11819080.89361094 -11819080.89361094 -6680383.262809708 0 0 0 0 0 96561670.16857885 -11549763.47008328 -11549763.47008328 -6758171.621187883 0 0 0 0 0 98050537.80163787 -10584490.39408738 -10584490.39408738 -6389454.573306097 0 0 0 0 0 97078242.57563625 -11276575.02062644 -11276575.02062644 -6824107.732271804 0 0 0 0 0 97949662.82006326 -10554058.80428612 -10554058.80428612 -6733810.277584223 0 0 0 0 0 98387243.16162615 -10286923.61824379 -10286923.61824379 -6770389.651874508 0 0 0 0 0 98802592.14849032 -10019742.25074889 -10019742.25074889 -6797852.450312948 0 0 0 0 0 99193663.19228241 -9752277.395592509 -9752277.395592509 -6816616.640927759 0 0 0 0 0 99564412.54986665 -9485444.639090914 -9485444.639090914 -6826854.567500651 0 0 0 0 0 100224594.8863737 -8921898.890288061 -8921898.890288061 -6438868.428770576 0 0 0 0 0 100117475.7862212 -8847067.437155247 -8847067.437155247 -6658741.623707223 0 0 0 0 0 100430249.2376007 -8600349.942539599 -8600349.942539599 -6631405.302977707 0 0 0 0 0 100706431.6420442 -8357381.992541989 -8357381.992541989 -6613962.833161631 0 0 0 0 0 101243140.052671 -7843578.469656149 -7843578.469656149 -6289125.131783482 0 0 0 0 0 101308068.7674157 -7681865.738628841 -7681865.738628841 -6153649.116409569 0 0 0 0 0 49126734.56294353 -2005023.819321251 -2005023.819321251 3299971.294488793 0 0 0 0 0 49804043.22765937 -2634206.511836051 -2634206.511836051 3229983.895771255 0 0 0 0 0 50889856.74538229 -3541998.569810837 -3541998.569810837 3565520.87781705 0 0 0 0 0 53048015.1543335 -5199620.577328626 -5199620.577328626 3502006.527687566 0 0 0 0 0 53762425.06055283 -6473026.323102876 -6473026.323102876 3284919.198482385 0 0 0 0 0 54724997.72400241 -7700523.236068645 -7700523.236068645 3028280.178894361 0 0 0 0 0 55744564.50533435 -8865141.616970068 -8865141.616970068 2728816.822640521 0 0 0 0 0 56855298.73424415 -9962333.118108852 -9962333.118108852 2393582.248228652 0 0 0 0 0 58040724.19758546 -10989069.99073327 -10989069.99073327 2026091.919847247 0 0 0 0 0 59291977.56126405 -11943516.95603724 -11943516.95603724 1629969.684156228 0 0 0 0 0 62525383.7097467 -12445679.32626593 -12445679.32626593 1219112.227762298 0 0 0 0 0 63142823.98044086 -13391732.2433433 -13391732.2433433 838747.9793969606 0 0 0 0 0 64487730.64183263 -14087146.45920406 -14087146.45920406 391482.2855161269 0 0 0 0 0 65862150.84374708 -14712235.20639764 -14712235.20639764 -65468.44874834343 0 0 0 0 0 67258256.14019071 -15267582.92342919 -15267582.92342919 -522035.7360675507 0 0 0 0 0 68637065.67238179 -15747427.32660602 -15747427.32660602 -983024.7235362573 0 0 0 0 0 71880980.65043227 -15395166.94854314 -15395166.94854314 -1134492.048906506 0 0 0 0 0 72221605.3302916 -16069355.93781057 -16069355.93781057 -1748267.579960901 0 0 0 0 0 77162425.96533708 -15397682.32161315 -15397682.32161315 -2068382.444788832 0 0 0 0 0 83514923.79580766 -15376890.13285951 -15376890.13285951 -3713994.511519589 0 0 0 0 0 89654929.73266996 -14385715.65874881 -14385715.65874881 -5194222.545718415 0 0 0 0 0 89637829.72617707 -14541275.79422339 -14541275.79422339 -5779913.073393704 0 0 0 0 0 94307784.43196248 -12804645.80277608 -12804645.80277608 -6096882.282244499 0 0 0 0 0 97570633.14636047 -11000051.84908155 -11000051.84908155 -6879266.45707406 0 0 0 0 0 100358667.5942461 -9032199.878608916 -9032199.878608916 -6573939.28234465 0 0 0 0 0 101362518.8350652 -7957311.558852146 -7957311.558852146 -6395876.643143635 0 0 0 0 0 101429515.0496813 -7671566.014968616 -7671566.014968616 -6478567.327090519 0 0 0 0 0 75311763.52669656 -15590452.15983674 -15590452.15983674 -1804260.11504653 0 0 0 0 0 48383190.76504928 -741318.0178082816 -741318.0178082816 3293051.723676097 0 0 0 0 0 51384895.40722006 -5123717.787025159 -5123717.787025159 3055739.95159892 0 0 0 0 0 61307806.27309855 -12639977.17729725 -12639977.17729725 1156065.944377192 0 0 0 0 0 71048926.16321059 -15775429.34410941 -15775429.34410941 -1236298.732005109 0 0 0 0 0 74652245.6963826 -15983015.51489457 -15983015.51489457 -1943601.660157753 0 0 0 0 0 75517788.93968241 -16148663.10611732 -16148663.10611732 -2465490.185582164 0 0 0 0 0 77385962.00524357 -15904525.20151303 -15904525.20151303 -2709639.443206831 0 0 0 0 0 78600393.26866403 -16023234.38570249 -16023234.38570249 -3103268.087543299 0 0 0 0 0 79796680.3577673 -16098073.96254595 -16098073.96254595 -3485632.622695422 0 0 0 0 0 80971244.67657194 -16131404.27277694 -16131404.27277694 -3854034.358407931 0 0 0 0 0 82121728.11807057 -16125747.85028077 -16125747.85028077 -4207533.810417183 0 0 0 0 0 83606544.62276535 -15698127.79663789 -15698127.79663789 -4362498.239192516 0 0 0 0 0 84661904.80245109 -15627026.8676013 -15627026.8676013 -4675479.354094037 0 0 0 0 0 85689454.45587733 -15526207.21417894 -15526207.21417894 -4972254.570888504 0 0 0 0 0 86687847.02790371 -15397857.24492436 -15397857.24492436 -5252411.806155046 0 0 0 0 0 87655737.97103466 -15244334.60568441 -15244334.60568441 -5515471.871498299 0 0 0 0 0 88592224.30541882 -15068065.42022799 -15068065.42022799 -5761518.399903959 0 0 0 0 0 90481740.75365381 -14335907.51608093 -14335907.51608093 -5988321.050328719 0 0 0 0 0 91295232.72817853 -14114386.25432117 -14114386.25432117 -6180660.907950763 0 0 0 0 0 92077077.19173294 -13878470.97407923 -13878470.97407923 -6356700.88503541 0 0 0 0 0 92827898.79065776 -13630183.42793928 -13630183.42793928 -6516805.699484546 0 0 0 0 0 93547451.5829628 -13370866.78468115 -13370866.78468115 -6660984.462470816 0 0 0 0 0 94229734.36886652 -12847381.83887154 -12847381.83887154 -6577049.726413309 0 0 0 0 0 94869638.86565085 -12582865.67171901 -12582865.67171901 -6692640.957494371 0 0 0 0 0 95482435.06084158 -12311447.60522064 -12311447.60522064 -6794908.092353152 0 0 0 0 0 96068059.20822081 -12034649.7230718 -12034649.7230718 -6884079.712849172 0 0 0 0 0 96626128.84756549 -11753741.1439304 -11753741.1439304 -6960585.06884611 0 0 0 0 0 97156971.02381492 -11469408.93338515 -11469408.93338515 -7024901.659602737 0 0 0 0 0 98598901.72921212 -10488650.90190881 -10488650.90190881 -6623082.167063521 0 0 0 0 0 97662224.518702 -11182448.77715338 -11182448.77715338 -7077790.917509139 0 0 0 0 0 98490596.46909256 -10445454.60987575 -10445454.60987575 -6958325.526295856 0 0 0 0 0 98914650.10026781 -10168401.61329719 -10168401.61329719 -6982627.959100883 0 0 0 0 0 99315210.07206111 -9891430.7049427 -9891430.7049427 -6997569.542729837 0 0 0 0 0 99693518.29171711 -9614950.235834334 -9614950.235834334 -7003975.365059149 0 0 0 0 0 100052348.4640787 -9340741.373838855 -9340741.373838855 -7001868.632050636 0 0 0 0 0 100669665.6242718 -8774236.970617149 -8774236.970617149 -6579455.992733633 0 0 0 0 0 100565614.5043465 -8702024.523913873 -8702024.523913873 -6798536.116790667 0 0 0 0 0 100844871.5669185 -8448034.673911853 -8448034.673911853 -6767722.970161616 0 0 0 0 0 101111790.9773135 -8200293.938777742 -8200293.938777742 -6746620.741681815 0 0 0 0 0 101261126.8968878 -7883489.692054503 -7883489.692054503 -6579028.02381815 0 0 0 0 0 101604511.1442114 -7461058.700481934 -7461058.700481934 -6173406.672046001 0 0 0 0 0 47765473.33830733 -2086143.43412339 -2086143.43412339 3219022.574088976 0 0 0 0 0 48977093.15805459 -3406989.702618515 -3406989.702618515 3325016.21463414 0 0 0 0 0 49963684.74144054 -4805383.081713795 -4805383.081713795 3274540.865643599 0 0 0 0 0 52327991.95289762 -6363181.335093282 -6363181.335093282 3200732.200023862 0 0 0 0 0 53249281.88400156 -7641977.901301408 -7641977.901301408 2953003.508908464 0 0 0 0 0 54303796.91716845 -8861521.158718761 -8861521.158718761 2659503.187804797 0 0 0 0 0 55443560.68435318 -10011862.50223426 -10011862.50223426 2326531.363710929 0 0 0 0 0 56664793.19595341 -11090378.33154253 -11090378.33154253 1958139.993732984 0 0 0 0 0 57956943.06663561 -12094018.63214914 -12094018.63214914 1558871.288081634 0 0 0 0 0 59311001.05743673 -13020585.80074238 -13020585.80074238 1133299.587501827 0 0 0 0 0 62747577.96582147 -13411891.86578142 -13411891.86578142 758072.4715500872 0 0 0 0 0 63352977.41777372 -14362059.76811652 -14362059.76811652 312291.3329435771 0 0 0 0 0 64780835.37550046 -15019099.98924437 -15019099.98924437 -155444.0847961569 0 0 0 0 0 66231890.67427111 -15601383.24286884 -15601383.24286884 -629703.1030922929 0 0 0 0 0 67674974.72536695 -16108434.49628276 -16108434.49628276 -1111031.125542548 0 0 0 0 0 69110372.33886661 -16541999.96520105 -16541999.96520105 -1588505.862617559 0 0 0 0 0 72488142.22661634 -16098026.58623982 -16098026.58623982 -1665204.508043883 0 0 0 0 0 72810145.98917431 -16752414.52507521 -16752414.52507521 -2330520.086566 0 0 0 0 0 77841445.47884852 -15933685.28784773 -15933685.28784773 -2580420.997143528 0 0 0 0 0 84270284.14924596 -15707203.37952341 -15707203.37952341 -4197925.019796321 0 0 0 0 0 90402350.34166323 -14519458.51840948 -14519458.51840948 -5611934.183709527 0 0 0 0 0 90369666.29164137 -14655035.78818187 -14655035.78818187 -6201889.359101283 0 0 0 0 0 94982026.68573129 -12799690.93793677 -12799690.93793677 -6430427.849421147 0 0 0 0 0 98143163.86361393 -10894066.89957561 -10894066.89957561 -7119810.333949334 0 0 0 0 0 100818894.4977589 -8881804.867513755 -8881804.867513755 -6737516.789805578 0 0 0 0 0 101709389.469223 -7824937.054376899 -7824937.054376899 -6537801.907846862 0 0 0 0 0 101918357.671349 -7329838.826802703 -7329838.826802703 -6315601.282534069 0 0 0 0 0 101622489.5125354 -7696237.937863265 -7696237.937863265 -6652721.654467006 0 0 0 0 0 101865907.5508259 -7234282.03165109 -7234282.03165109 -6191014.638428408 0 0 0 0 0 75975502.93297678 -16179356.74122253 -16179356.74122253 -2338998.092333707 0 0 0 0 0 46728302.9976666 -769884.3654359467 -769884.3654359467 3041245.73932679 0 0 0 0 0 50782562.26932365 -6291436.734489829 -6291436.734489829 2782782.349132835 0 0 0 0 0 61529378.90552703 -13644136.49813199 -13644136.49813199 675990.8417141571 0 0 0 0 0 71717445.57074957 -16494183.36670035 -16494183.36670035 -1784914.471402704 0 0 0 0 0 75350403.67171985 -16598602.59133556 -16598602.59133556 -2491486.103498636 0 0 0 0 0 76169223.33547233 -16729250.40894139 -16729250.40894139 -3029162.318354113 0 0 0 0 0 78043421.57651021 -16422665.6477293 -16422665.6477293 -3256362.09016088 0 0 0 0 0 79287690.02706826 -16500451.6992669 -16500451.6992669 -3648397.951769034 0 0 0 0 0 80509199.42317049 -16534079.69286001 -16534079.69286001 -4027194.115060759 0 0 0 0 0 81705503.68873365 -16526763.00634231 -16526763.00634231 -4390419.384501141 0 0 0 0 0 82873903.1109633 -16481239.61594883 -16481239.61594883 -4736992.701704391 0 0 0 0 0 84341920.43715841 -16007838.57681689 -16007838.57681689 -4866170.165292551 0 0 0 0 0 85408596.78964546 -15900825.14002344 -15900825.14002344 -5170248.294018889 0 0 0 0 0 86444355.44611901 -15765063.33031205 -15765063.33031205 -5456749.935711394 0 0 0 0 0 87447924.52458717 -15602845.981164 -15602845.981164 -5725609.902688102 0 0 0 0 0 88418374.16623023 -15417200.34262449 -15417200.34262449 -5976878.987990288 0 0 0 0 0 89355165.09250155 -15209593.97388827 -15209593.97388827 -6209660.294050766 0 0 0 0 0 91210132.73935066 -14422626.16623768 -14422626.16623768 -6396920.561437242 0 0 0 0 0 92018270.05763507 -14175367.67768583 -14175367.67768583 -6575197.557084157 0 0 0 0 0 92793579.70008069 -13915047.60609038 -13915047.60609038 -6736690.759116908 0 0 0 0 0 93535410.28371467 -13643666.37406028 -13643666.37406028 -6881927.498916001 0 0 0 0 0 94244214.72405463 -13362870.20650183 -13362870.20650183 -7011432.778632568 0 0 0 0 0 94893598.71807842 -12825840.08525937 -12825840.08525937 -6905588.667701359 0 0 0 0 0 95523178.78412202 -12542657.1405844 -12542657.1405844 -7006988.737531609 0 0 0 0 0 96124294.4933579 -12254133.9247313 -12254133.9247313 -7094988.530387072 0 0 0 0 0 96697126.03885603 -11961355.79708157 -11961355.79708157 -7169912.433179766 0 0 0 0 0 97241973.101023 -11665390.81690146 -11665390.81690146 -7232348.473836944 0 0 0 0 0 97759937.80067581 -11367045.14136472 -11367045.14136472 -7282705.013966917 0 0 0 0 0 99148846.88279286 -10373991.90404449 -10373991.90404449 -6849535.593323669 0 0 0 0 0 98251798.75197305 -11067551.4716994 -11067551.4716994 -7321803.616634659 0 0 0 0 0 99033808.07295364 -10318070.83641068 -10318070.83641068 -7172729.105051429 0 0 0 0 0 99442990.24361527 -10031185.47890446 -10031185.47890446 -7184201.167171335 0 0 0 0 0 99829229.59913133 -9745352.741136119 -9745352.741136119 -7186795.813738488 0 0 0 0 0 100194389.2106876 -9461437.13473426 -9461437.13473426 -7181166.612892293 0 0 0 0 0 100539030.1278562 -9180303.781908927 -9180303.781908927 -7165974.853550011 0 0 0 0 0 101104504.3601675 -8630996.852979973 -8630996.852979973 -6736592.7309651 0 0 0 0 0 100992678.1536537 -8537726.689443516 -8537726.689443516 -6934151.175070998 0 0 0 0 0 101265616.7842415 -8287492.742168804 -8287492.742168804 -6912097.402230497 0 0 0 0 0 101528691.3225766 -8029595.6625376 -8029595.6625376 -6868280.766311253 0 0 0 0 0 101924644.5881684 -7440043.260059201 -7440043.260059201 -6430615.468681326 0 0 0 0 0 102240877.1349487 -7100366.760735622 -7100366.760735622 -6307002.922006455 0 0 0 0 0 101818892.313577 -7200712.73443599 -7200712.73443599 -6433266.747138257 0 0 0 0 0 102344155.599978 -6713811.236842266 -6713811.236842266 -6401423.657681667 0 0 0 0 0 102883858.8792724 -6305994.077233701 -6305994.077233701 -6151589.259701776 0 0 0 0 0 102637948.3064625 -6571940.826699541 -6571940.826699541 -6481985.258560669 0 0 0 0 0 102085920.290985 -6963374.315666045 -6963374.315666045 -6443708.525762967 0 0 0 0 0 102428340.8856677 -6811004.734163566 -6811004.734163566 -6507283.61265863 0 0 0 0 0 102183838.9872752 -7061452.044187725 -7061452.044187725 -6556589.124161651 0 0 0 0 0 45596627.47586929 -2236025.259421285 -2236025.259421285 2830692.413285134 0 0 0 0 0 47374632.02908719 -3254196.160780793 -3254196.160780793 3184646.32869668 0 0 0 0 0 48251814.50277398 -4615611.274097754 -4615611.274097754 3081005.16049214 0 0 0 0 0 49185005.11751875 -6051701.213133437 -6051701.213133437 2936858.595637074 0 0 0 0 0 51744351.75753257 -7563248.24552545 -7563248.24552545 2853555.892833943 0 0 0 0 0 52804578.25894713 -8842063.714504771 -8842063.714504771 2567499.679107228 0 0 0 0 0 53972920.21627645 -10050317.60780095 -10050317.60780095 2238290.465890842 0 0 0 0 0 55228844.76905794 -11183482.7247281 -11183482.7247281 1871015.90941984 0 0 0 0 0 56563143.44474287 -12238711.81034829 -12238711.81034829 1470376.115914853 0 0 0 0 0 57964250.26134464 -13213623.31560835 -13213623.31560835 1040984.788555843 0 0 0 0 0 59422313.70605171 -14106637.21190672 -14106637.21190672 587740.4227531733 0 0 0 0 0 63059679.18196601 -14380318.12993806 -14380318.12993806 254638.5206789109 0 0 0 0 0 63651878.54172589 -15330579.46335285 -15330579.46335285 -257185.8139865969 0 0 0 0 0 65162584.60678887 -15944053.95541528 -15944053.95541528 -744739.1516842127 0 0 0 0 0 66680215.77055542 -16483033.38104964 -16483033.38104964 -1233453.748800354 0 0 0 0 0 68182894.01927242 -16945733.57751073 -16945733.57751073 -1728911.563091857 0 0 0 0 0 69690918.87276134 -17330982.31439257 -17330982.31439257 -2218550.198997702 0 0 0 0 0 73206178.48129459 -16782979.44626579 -16782979.44626579 -2215275.534951113 0 0 0 0 0 73467812.0214968 -17420221.81632238 -17420221.81632238 -2945050.362455476 0 0 0 0 0 78581939.84110624 -16445768.87934799 -16445768.87934799 -3111216.467263908 0 0 0 0 0 85068616.87223418 -16008177.86872378 -16008177.86872378 -4692438.937731246 0 0 0 0 0 91174906.37091401 -14623993.70055889 -14623993.70055889 -6030413.217831649 0 0 0 0 0 91126361.18424807 -14738893.98772318 -14738893.98772318 -6622196.575405896 0 0 0 0 0 95669150.94646335 -12769545.62978127 -12769545.62978127 -6758673.433895317 0 0 0 0 0 98718500.09983225 -10767906.31423428 -10767906.31423428 -7350175.910865594 0 0 0 0 0 101272290.8952044 -8726724.512662951 -8726724.512662951 -6898269.385007689 0 0 0 0 0 102115320.549882 -7617029.706986206 -7617029.706986206 -6628278.359177686 0 0 0 0 0 102302236.1546689 -7221172.61438545 -7221172.61438545 -6436293.977800641 0 0 0 0 0 102353480.087 -7347174.555790202 -7347174.555790202 -6563374.274018539 0 0 0 0 0 103160583.0591979 -6183057.644883936 -6183057.644883936 -6227080.474604294 0 0 0 0 0 103111112.3208738 -6091463.61469292 -6091463.61469292 -6122566.379035835 0 0 0 0 0 76721853.61015306 -16756067.77471435 -16756067.77471435 -2885764.9351914 0 0 0 0 0 45051505.857228 -847193.0136571462 -847193.0136571462 2857234.664060153 0 0 0 0 0 50276785.30028654 -7497185.972358053 -7497185.972358053 2458045.659015493 0 0 0 0 0 61846977.52633179 -14650268.06079668 -14650268.06079668 152029.6821126921 0 0 0 0 0 72507846.53936566 -17217476.14592221 -17217476.14592221 -2379808.123962536 0 0 0 0 0 76124692.93322244 -17186255.70968871 -17186255.70968871 -3064222.122247016 0 0 0 0 0 76887557.40591465 -17277632.09542293 -17277632.09542293 -3619758.643732359 0 0 0 0 0 78760808.83809601 -16915356.67994342 -16915356.67994342 -3822497.756718645 0 0 0 0 0 80030603.46340057 -16949385.99993134 -16949385.99993134 -4210559.850819098 0 0 0 0 0 81274995.29977348 -16940452.47189205 -16940452.47189205 -4583204.108014517 0 0 0 0 0 82490037.59646936 -16891215.58975493 -16891215.58975493 -4938690.744292572 0 0 0 0 0 83673530.27725884 -16805131.39863471 -16805131.39863471 -5276410.431765269 0 0 0 0 0 85120189.21838519 -16286887.24224844 -16286887.24224844 -5377705.70569165 0 0 0 0 0 86194828.06610824 -16143278.72218418 -16143278.72218418 -5670835.105962237 0 0 0 0 0 87235616.61541024 -15972301.77792259 -15972301.77792259 -5945283.691603919 0 0 0 0 0 88241996.90027656 -15776060.43334729 -15776060.43334729 -6201396.033400743 0 0 0 0 0 89212243.09832542 -15557853.77978652 -15557853.77978652 -6438721.221798766 0 0 0 0 0 90146485.12035349 -15319524.64701061 -15319524.64701061 -6657204.714043121 0 0 0 0 0 91960775.25600667 -14479684.45411294 -14479684.45411294 -6802348.019357058 0 0 0 0 0 92761121.40218237 -14206949.35402828 -14206949.35402828 -6965341.87611817 0 0 0 0 0 93527377.31371978 -13922968.50644466 -13922968.50644466 -7111410.23611974 0 0 0 0 0 94258299.53067651 -13629125.45808035 -13629125.45808035 -7240960.594468123 0 0 0 0 0 94955741.22096652 -13327162.97761575 -13327162.97761575 -7354979.617205751 0 0 0 0 0 95569411.19428101 -12778420.93554423 -12778420.93554423 -7226787.797073959 0 0 0 0 0 96186991.27598971 -12477606.46079355 -12477606.46079355 -7313418.842332165 0 0 0 0 0 96775028.04904915 -12172471.81481161 -12172471.81481161 -7386442.104777133 0 0 0 0 0 97334012.9215053 -11864276.9574032 -11864276.9574032 -7446573.190523271 0 0 0 0 0 97864765.83758178 -11553951.78903253 -11553951.78903253 -7494128.574118612 0 0 0 0 0 98368049.11362723 -11242807.45491853 -11242807.45491853 -7530157.492586744 0 0 0 0 0 99699625.40519735 -10240065.83854583 -10240065.83854583 -7066611.275820589 0 0 0 0 0 98844844.06477842 -10931600.25135847 -10931600.25135847 -7554985.27598858 0 0 0 0 0 99578407.86636797 -10171690.01970639 -10171690.01970639 -7376130.34073966 0 0 0 0 0 99971934.53088748 -9876047.549571687 -9876047.549571687 -7374644.262534514 0 0 0 0 0 100342767.1135455 -9582995.846165266 -9582995.846165266 -7365510.174758518 0 0 0 0 0 100693547.9080392 -9292307.526398692 -9292307.526398692 -7347693.661911662 0 0 0 0 0 101022695.7992811 -9005580.183749506 -9005580.183749506 -7321642.092627369 0 0 0 0 0 101547615.1831641 -8465064.16011134 -8465064.16011134 -6882091.296289165 0 0 0 0 0 101436277.7389192 -8367306.049485194 -8367306.049485194 -7078742.44806978 0 0 0 0 0 101702522.1279851 -8100247.186602019 -8100247.186602019 -7020471.075053085 0 0 0 0 0 101935619.4953808 -7844025.067327313 -7844025.067327313 -6976308.14144803 0 0 0 0 0 102554127.382529 -6975486.610586245 -6975486.610586245 -6420563.791970857 0 0 0 0 0 102800262.1825803 -6586108.488767693 -6586108.488767693 -6562128.51238561 0 0 0 0 0 102973996.93152 -6369731.014222197 -6369731.014222197 -6511134.736946126 0 0 0 0 0 102712751.7471612 -6777636.863670919 -6777636.863670919 -6583088.575177546 0 0 0 0 0 103361682.499646 -5944306.227268 -5944306.227268 -6214972.493052131 0 0 0 0 0 103023249.331508 -6032053.396773798 -6032053.396773798 -6328733.146555738 0 0 0 0 0 103499227.1420474 -5636678.695932792 -5636678.695932792 -6054778.862680023 0 0 0 0 0 103306787.5903333 -5898103.045840991 -5898103.045840991 -6399488.166912083 0 0 0 0 0 43985418.71518017 -2586389.14444744 -2586389.14444744 2468742.370612067 0 0 0 0 0 45419462.05839719 -3059916.868575036 -3059916.868575036 2639159.36692084 0 0 0 0 0 46635334.8677685 -4339224.191115693 -4339224.191115693 2893451.919267579 0 0 0 0 0 47483184.04618157 -5864698.673727146 -5864698.673727146 2747925.255473347 0 0 0 0 0 48512874.24524928 -7336989.150796836 -7336989.150796836 2551000.628965791 0 0 0 0 0 51247741.01588949 -8806375.331336124 -8806375.331336124 2446284.206154078 0 0 0 0 0 52441163.80322648 -10074903.13042138 -10074903.13042138 2125099.259791757 0 0 0 0 0 53732624.53461908 -11265956.33333267 -11265956.33333267 1761661.693509099 0 0 0 0 0 55108488.46646855 -12375868.2966486 -12375868.2966486 1361484.985568242 0 0 0 0 0 56557721.24889691 -13402001.39794701 -13402001.39794701 929909.5633627187 0 0 0 0 0 58068849.89840408 -14342526.22702896 -14342526.22702896 472130.5447709956 0 0 0 0 0 59631424.98516006 -15196475.11984958 -15196475.11984958 -6768.364442311357 0 0 0 0 0 63467281.76887636 -15345725.02400289 -15345725.02400289 -290966.2486337525 0 0 0 0 0 64042685.21601111 -16292892.7866494 -16292892.7866494 -869853.3141975261 0 0 0 0 0 65629856.61250565 -16859442.75187697 -16859442.75187697 -1372883.895072584 0 0 0 0 0 67220659.77213009 -17347975.42614137 -17347975.42614137 -1879802.850731025 0 0 0 0 0 68795610.7150161 -17760857.7590082 -17760857.7590082 -2381803.165400265 0 0 0 0 0 70372890.34482774 -18098017.35205862 -18098017.35205862 -2873102.584399988 0 0 0 0 0 73984038.57330321 -17442735.1462687 -17442735.1462687 -2808493.658613677 0 0 0 0 0 74221985.52317788 -18059898.88576285 -18059898.88576285 -3584960.718823984 0 0 0 0 0 79378042.68725368 -16928867.51516186 -16928867.51516186 -3664708.994252806 0 0 0 0 0 85908555.93354769 -16277606.58165193 -16277606.58165193 -5195628.222773457 0 0 0 0 0 91970786.4270405 -14698024.61792365 -14698024.61792365 -6447906.262918385 0 0 0 0 0 91906378.93121089 -14791525.89301466 -14791525.89301466 -7038971.118535454 0 0 0 0 0 96367269.53905419 -12713162.85270034 -12713162.85270034 -7080439.355270335 0 0 0 0 0 99295906.34086931 -10621287.29167572 -10621287.29167572 -7569285.819957053 0 0 0 0 0 101729138.7441803 -8548325.25412689 -8548325.25412689 -7045664.632402613 0 0 0 0 0 102526942.8796695 -7428756.928962197 -7428756.928962197 -6701645.292312742 0 0 0 0 0 102588584.9839907 -7093320.253986626 -7093320.253986626 -6520853.536730662 0 0 0 0 0 103171629.3422254 -6142097.231505989 -6142097.231505989 -6387230.274800108 0 0 0 0 0 103791004.8195199 -5490962.640470274 -5490962.640470274 -6120416.442333041 0 0 0 0 0 103702927.7461265 -5416501.616424778 -5416501.616424778 -6004064.297930979 0 0 0 0 0 77517968.28856929 -17294748.43796682 -17294748.43796682 -3464210.654603855 0 0 0 0 0 43302543.07464764 -814580.500164907 -814580.500164907 2634001.021868187 0 0 0 0 0 49866226.33054132 -8737875.237586409 -8737875.237586409 2069655.173970828 0 0 0 0 0 62265749.78344261 -15653535.55995258 -15653535.55995258 -415816.1673594513 0 0 0 0 0 73269557.07477741 -17892829.14981662 -17892829.14981662 -3015123.422226706 0 0 0 0 0 76961419.04776256 -17749514.90493409 -17749514.90493409 -3661099.593123608 0 0 0 0 0 77669448.41877322 -17804052.75417105 -17804052.75417105 -4225062.997051843 0 0 0 0 0 79538174.85217091 -17377928.0344966 -17377928.0344966 -4403217.813226386 0 0 0 0 0 80830389.97848299 -17367076.28785089 -17367076.28785089 -4785945.049755059 0 0 0 0 0 82093706.40881121 -17313854.98109404 -17313854.98109404 -5150717.076793067 0 0 0 0 0 83323976.51454169 -17222300.19829874 -17222300.19829874 -5497045.091804424 0 0 0 0 0 84519498.25343916 -17094560.59628602 -17094560.59628602 -5823588.803177428 0 0 0 0 0 85939720.86119671 -16532874.96658564 -16532874.96658564 -5895103.977793282 0 0 0 0 0 87019336.38136078 -16352210.60948716 -16352210.60948716 -6175243.88601514 0 0 0 0 0 88061312.08597939 -16145490.83540292 -16145490.83540292 -6435869.034109551 0 0 0 0 0 89068450.07119845 -15915651.29945953 -15915651.29945953 -6677482.852633167 0 0 0 0 0 90035673.99753621 -15665277.84172108 -15665277.84172108 -6899541.828494453 0 0 0 0 0 90964852.51766711 -15395933.40032469 -15395933.40032469 -7101610.239716777 0 0 0 0 0 92732455.08109793 -14505770.71834388 -14505770.71834388 -7202847.533746115 0 0 0 0 0 93522583.74025501 -14208329.85379256 -14208329.85379256 -7349283.639232946 0 0 0 0 0 94276614.8721692 -13901055.21089773 -13901055.21089773 -7479179.026113139 0 0 0 0 0 94995696.08462706 -13585442.00540124 -13585442.00540124 -7592248.011134177 0 0 0 0 0 95681113.45103499 -13263388.54292249 -13263388.54292249 -7690167.979160847 0 0 0 0 0 96256729.01151101 -12704877.34609239 -12704877.34609239 -7539712.083623665 0 0 0 0 0 96860462.94363056 -12386789.35268451 -12386789.35268451 -7610394.82475378 0 0 0 0 0 97433646.56571758 -12065892.78073583 -12065892.78073583 -7667805.496323758 0 0 0 0 0 97977415.74793543 -11743168.94989283 -11743168.94989283 -7712335.949708232 0 0 0 0 0 98492379.03088947 -11419785.66127589 -11419785.66127589 -7744917.521440766 0 0 0 0 0 98979552.76540734 -11096569.63059947 -11096569.63059947 -7765977.208314853 0 0 0 0 0 100249704.859179 -10087199.36393405 -10087199.36393405 -7273558.953577269 0 0 0 0 0 99439866.60767464 -10774455.47272201 -10774455.47272201 -7776201.193690542 0 0 0 0 0 100123143.8175907 -10006813.89489379 -10006813.89489379 -7567248.893695761 0 0 0 0 0 100499812.5450219 -9703696.927871956 -9703696.927871956 -7553123.534472408 0 0 0 0 0 100854483.6554167 -9403529.700708264 -9403529.700708264 -7531056.418070461 0 0 0 0 0 101188400.4754342 -9107285.358736709 -9107285.358736709 -7502552.707894715 0 0 0 0 0 101502110.5550321 -8813963.679695662 -8813963.679695662 -7464608.678530943 0 0 0 0 0 102002820.7969915 -8271843.908078223 -8271843.908078223 -7003047.754902119 0 0 0 0 0 101887392.2483396 -8172470.62913628 -8172470.62913628 -7198599.896803665 0 0 0 0 0 102130189.2392396 -7902007.815592596 -7902007.815592596 -7127909.091263057 0 0 0 0 0 102349211.7993584 -7644817.314892062 -7644817.314892062 -7083877.4151568 0 0 0 0 0 102726901.2410189 -7208008.711140655 -7208008.711140655 -6692618.563423886 0 0 0 0 0 102846879.5249517 -6879753.48613025 -6879753.48613025 -6571642.240795163 0 0 0 0 0 103165190.0506437 -6376990.074211057 -6376990.074211057 -6618621.49765936 0 0 0 0 0 103014145.7691198 -6605105.42728053 -6605105.42728053 -6683649.364634797 0 0 0 0 0 103308608.8756391 -6151512.127821498 -6151512.127821498 -6552025.185960035 0 0 0 0 0 103434031.0072672 -5929606.825457509 -5929606.825457509 -6472105.896844768 0 0 0 0 0 103569261.7335689 -5708149.353787581 -5708149.353787581 -6433387.213827136 0 0 0 0 0 103942821.239686 -5256118.59331296 -5256118.59331296 -6059168.761101698 0 0 0 0 0 42788785.27907225 -2009690.282316005 -2009690.282316005 2611378.009099388 0 0 0 0 0 44676379.5042454 -4194151.50511772 -4194151.50511772 2324648.68747133 0 0 0 0 0 45823045.08414114 -5622416.048119182 -5622416.048119182 2556951.737323617 0 0 0 0 0 46789364.88147142 -7180527.995904814 -7180527.995904814 2358177.062374903 0 0 0 0 0 47929105.74735962 -8665699.730742475 -8665699.730742475 2110206.607004887 0 0 0 0 0 50846634.36986966 -10082269.88998116 -10082269.88998116 1983437.78293035 0 0 0 0 0 52172204.02599473 -11335234.96558223 -11335234.96558223 1626293.830500475 0 0 0 0 0 53590403.97796438 -12503456.19060931 -12503456.19060931 1228951.316143744 0 0 0 0 0 55088551.32308617 -13584062.71867509 -13584062.71867509 796968.6279558657 0 0 0 0 0 56654653.16993452 -14575091.95295824 -14575091.95295824 336262.2542216211 0 0 0 0 0 58276896.43575847 -15475368.83501489 -15475368.83501489 -147896.3097812595 0 0 0 0 0 59944294.9714576 -16284707.07863484 -16284707.07863484 -649986.0082474465 0 0 0 0 0 63973170.79698735 -16304304.17340367 -16304304.17340367 -878704.7855278952 0 0 0 0 0 64528767.50301782 -17243246.48485599 -17243246.48485599 -1520270.588831201 0 0 0 0 0 66194807.77743676 -17756777.1476652 -17756777.1476652 -2033988.032356155 0 0 0 0 0 67867402.48449215 -18189279.82994276 -18189279.82994276 -2548316.300888706 0 0 0 0 0 69537957.52471043 -18546008.44510228 -18546008.44510228 -3055663.127597468 0 0 0 0 0 71178898.2129342 -18833344.91529837 -18833344.91529837 -3550148.156443885 0 0 0 0 0 74797550.42464854 -18061134.59989718 -18061134.59989718 -3445072.620485982 0 0 0 0 0 75046048.12379873 -18660570.61499958 -18660570.61499958 -4232893.090488842 0 0 0 0 0 80235742.87346625 -17383044.35926111 -17383044.35926111 -4231602.935426341 0 0 0 0 0 86789118.25857861 -16513153.53399437 -16513153.53399437 -5705529.144087223 0 0 0 0 0 92788966.17775214 -14740368.4099675 -14740368.4099675 -6862716.023247223 0 0 0 0 0 92708429.11847596 -14811617.71634087 -14811617.71634087 -7450327.811998526 0 0 0 0 0 97074540.70655352 -12630380.71811936 -12630380.71811936 -7394380.554464522 0 0 0 0 0 99874422.93980086 -10454515.01928228 -10454515.01928228 -7776216.073277222 0 0 0 0 0 102194140.1328438 -8348416.709527723 -8348416.709527723 -7173818.806157858 0 0 0 0 0 102902318.9168056 -7244751.391488157 -7244751.391488157 -6817374.500784656 0 0 0 0 0 102641671.4102734 -7090572.570637665 -7090572.570637665 -6762218.719937255 0 0 0 0 0 102821080.1421224 -6855559.094086216 -6855559.094086216 -6794138.786231316 0 0 0 0 0 104017795.1429899 -5329337.096622326 -5329337.096622326 -6146511.636680913 0 0 0 0 0 103859224.984508 -5195768.617488578 -5195768.617488578 -5958882.648262592 0 0 0 0 0 78398911.00072259 -17814144.98190344 -17814144.98190344 -4054945.049391965 0 0 0 0 0 41406742.90998121 -778925.4849427668 -778925.4849427668 2071229.224042201 0 0 0 0 0 42855215.58530179 -3860666.981717743 -3860666.981717743 2083921.132820518 0 0 0 0 0 49558430.48233902 -10011523.68989038 -10011523.68989038 1627530.505998075 0 0 0 0 0 62788440.63744433 -16647795.78255263 -16647795.78255263 -1026810.849590097 0 0 0 0 0 74124728.32451683 -18536973.2826791 -18536973.2826791 -3646749.761607758 0 0 0 0 0 77879294.46616597 -18274456.47698605 -18274456.47698605 -4281320.517867116 0 0 0 0 0 78518713.61197494 -18288083.3904819 -18288083.3904819 -4853880.66826542 0 0 0 0 0 80369690.49261254 -17807377.36452798 -17807377.36452798 -5001449.022160897 0 0 0 0 0 81684428.12225184 -17749504.94654662 -17749504.94654662 -5373778.50339226 0 0 0 0 0 82963788.65873346 -17652294.46642533 -17652294.46642533 -5729099.186685026 0 0 0 0 0 84206595.10340022 -17516986.69979703 -17516986.69979703 -6063271.383860314 0 0 0 0 0 85410628.82855661 -17347515.49852439 -17347515.49852439 -6377166.313231532 0 0 0 0 0 86799032.611104 -16743266.98288058 -16743266.98288058 -6416031.290466278 0 0 0 0 0 87880333.28577323 -16525122.95921571 -16525122.95921571 -6681100.649121757 0 0 0 0 0 88922185.88875151 -16283418.79187405 -16283418.79187405 -6926317.916349813 0 0 0 0 0 89925268.89719217 -16020090.11576439 -16020090.11576439 -7152108.360583081 0 0 0 0 0 90886812.55415846 -15737577.98608821 -15737577.98608821 -7356860.264933013 0 0 0 0 0 91808155.88413735 -15438645.81156763 -15438645.81156763 -7542824.587635075 0 0 0 0 0 93523570.34584288 -14499981.71014824 -14499981.71014824 -7596552.646657306 0 0 0 0 0 94300798.80747809 -14178628.80031409 -14178628.80031409 -7725611.667767053 0 0 0 0 0 95041704.86405507 -13849042.22850533 -13849042.22850533 -7838141.286974567 0 0 0 0 0 95746903.53178671 -13512584.21490019 -13512584.21490019 -7933957.737523726 0 0 0 0 0 96417173.45872602 -13170957.98712358 -13170957.98712358 -8014550.218294181 0 0 0 0 0 96953502.00375377 -12604402.43589407 -12604402.43589407 -7841711.090196571 0 0 0 0 0 97541591.01531434 -12270169.21117195 -12270169.21117195 -7896126.831511859 0 0 0 0 0 98098645.37502873 -11934467.93158894 -11934467.93158894 -7937381.555903507 0 0 0 0 0 98625353.64153126 -11598308.30685721 -11598308.30685721 -7966118.69358187 0 0 0 0 0 99123069.25024369 -11262640.94675006 -11262640.94675006 -7983129.703243731 0 0 0 0 0 99592791.24300487 -10928344.52221797 -10928344.52221797 -7988997.555613522 0 0 0 0 0 100797920.3779798 -9916128.555435805 -9916128.555435805 -7469315.893220969 0 0 0 0 0 100035659.5850245 -10596352.33520419 -10596352.33520419 -7984320.349148484 0 0 0 0 0 100666194.5025766 -9823440.471033998 -9823440.471033998 -7746278.419296369 0 0 0 0 0 101025998.8133561 -9513421.444576895 -9513421.444576895 -7719335.005339181 0 0 0 0 0 101364044.1065842 -9207295.060181567 -9207295.060181567 -7684826.965797453 0 0 0 0 0 101681947.4289651 -8904673.024316123 -8904673.024316123 -7642868.562090199 0 0 0 0 0 101979610.962192 -8606189.420820924 -8606189.420820924 -7593808.285195304 0 0 0 0 0 102442088.4035561 -8079799.287966001 -8079799.287966001 -7139285.054322464 0 0 0 0 0 102324231.8288957 -7965397.772847509 -7965397.772847509 -7300423.828590357 0 0 0 0 0 102547649.7265929 -7698715.072690035 -7698715.072690035 -7233507.26976484 0 0 0 0 0 102762296.7873792 -7439385.084498383 -7439385.084498383 -7175611.118229846 0 0 0 0 0 103069136.5582473 -7011160.207302158 -7011160.207302158 -6795594.399926015 0 0 0 0 0 102969364.4122669 -6888869.055567523 -6888869.055567523 -6889305.048575333 0 0 0 0 0 103329160.3071565 -6406034.48650693 -6406034.48650693 -6752787.076700429 0 0 0 0 0 103486313.1863902 -6174510.951368197 -6174510.951368197 -6672436.162149129 0 0 0 0 0 103143594.5472719 -6645325.756204312 -6645325.756204312 -6831069.412268394 0 0 0 0 0 103622129.7776146 -5945066.551766769 -5945066.551766769 -6589679.476992604 0 0 0 0 0 103759633.2046219 -5722138.850166425 -5722138.850166425 -6506053.946755098 0 0 0 0 0 103890676.716409 -5510560.520163738 -5510560.520163738 -6435064.334562872 0 0 0 0 0 104031531.6930362 -5061037.525181334 -5061037.525181334 -6120829.672793839 0 0 0 0 0 104179104.576982 -5136785.24107196 -5136785.24107196 -6146410.619676788 0 0 0 0 0 104002565.4051924 -4999556.396576649 -4999556.396576649 -5909342.419350462 0 0 0 0 0 40078676.07687186 -1965285.050409876 -1965285.050409876 1812905.570070106 0 0 0 0 0 41627997.62670995 -3068715.467332822 -3068715.467332822 2176708.199077873 0 0 0 0 0 43871057.44920691 -5499341.86833734 -5499341.86833734 2007465.326142947 0 0 0 0 0 45013362.53674793 -7013610.024216362 -7013610.024216362 2117928.072518968 0 0 0 0 0 46158664.8099178 -8564436.447339207 -8564436.447339207 1887679.754448305 0 0 0 0 0 47445054.05369326 -10037028.54000833 -10037028.54000833 1601929.679011317 0 0 0 0 0 50544343.33463012 -11388985.2691219 -11388985.2691219 1461591.227862975 0 0 0 0 0 52004919.6660795 -12619640.84033063 -12619640.84033063 1068850.555711488 0 0 0 0 0 53553340.27189136 -13758303.42866431 -13758303.42866431 638773.5526615366 0 0 0 0 0 55175883.79597414 -14803014.29113627 -14803014.29113627 176966.1375801288 0 0 0 0 0 56860571.77367838 -15752369.52194459 -15752369.52194459 -310602.1715577029 0 0 0 0 0 58594651.31766613 -16606182.49791673 -16606182.49791673 -818562.4938119737 0 0 0 0 0 60366871.73148104 -17364900.57888875 -17364900.57888875 -1341232.997783906 0 0 0 0 0 64580936.33485784 -17246517.13579865 -17246517.13579865 -1505597.408903109 0 0 0 0 0 65111912.80597228 -18174184.85822243 -18174184.85822243 -2213288.98452735 0 0 0 0 0 66855474.15511165 -18630677.23150669 -18630677.23150669 -2738293.756298832 0 0 0 0 0 68600500.60540231 -19007506.28300986 -19007506.28300986 -3259661.230711436 0 0 0 0 0 70331695.42013326 -19314114.1523148 -19314114.1523148 -3769312.242715953 0 0 0 0 0 71993697.45940039 -19541933.07949463 -19541933.07949463 -4264796.385326474 0 0 0 0 0 75699198.22962251 -18660626.41846976 -18660626.41846976 -4077345.095258113 0 0 0 0 0 75928833.47299221 -19232051.66023392 -19232051.66023392 -4916276.390853127 0 0 0 0 0 81156211.03869314 -17801019.80642765 -17801019.80642765 -4816324.022037274 0 0 0 0 0 87708481.07286616 -16712265.1013368 -16712265.1013368 -6219735.421984618 0 0 0 0 0 93627450.92242976 -14749614.47455272 -14749614.47455272 -7272953.079516931 0 0 0 0 0 93530624.92894073 -14797946.31848504 -14797946.31848504 -7853362.457734188 0 0 0 0 0 97788677.0649839 -12520881.1169342 -12520881.1169342 -7698696.893333481 0 0 0 0 0 100452460.5982369 -10267382.99747792 -10267382.99747792 -7969605.711115401 0 0 0 0 0 102643874.0098682 -8146068.679956261 -8146068.679956261 -7302826.888442297 0 0 0 0 0 103274268.910872 -7044589.720319771 -7044589.720319771 -6913585.363655028 0 0 0 0 0 104037613.1790635 -5294162.226668425 -5294162.226668425 -6300968.432269854 0 0 0 0 0 104243513.7041309 -4814829.083581683 -4814829.083581683 -5935663.205526945 0 0 0 0 0 104154353.8396744 -4788799.117738166 -4788799.117738166 -5849458.6912395 0 0 0 0 0 79328549.50379479 -18284992.83403781 -18284992.83403781 -4672667.467588567 0 0 0 0 0 39611785.30877347 -969844.7664816385 -969844.7664816385 1736977.797168073 0 0 0 0 0 41954779.47968046 -5211750.076606669 -5211750.076606669 1670736.654835416 0 0 0 0 0 49363007.57203134 -11315188.82610044 -11315188.82610044 1129075.585605814 0 0 0 0 0 63421858.03783537 -17626956.34540519 -17626956.34540519 -1680028.585021913 0 0 0 0 0 75058297.3641402 -19151570.09870175 -19151570.09870175 -4303117.393377946 0 0 0 0 0 78860117.88093619 -18765521.58575694 -18765521.58575694 -4914439.974118915 0 0 0 0 0 79433046.80162662 -18741909.00348192 -18741909.00348192 -5490425.129797045 0 0 0 0 0 81263122.37292051 -18198056.497517 -18198056.497517 -5610130.702583726 0 0 0 0 0 82593921.35773811 -18094356.7116508 -18094356.7116508 -5972242.337222703 0 0 0 0 0 83884860.71906142 -17953020.17745754 -17953020.17745754 -6317312.730731266 0 0 0 0 0 85137637.55851971 -17773369.44621588 -17773369.44621588 -6637955.88775818 0 0 0 0 0 86346643.03191133 -17559848.10437214 -17559848.10437214 -6934073.984736749 0 0 0 0 0 87696527.63224111 -16915675.66191753 -16915675.66191753 -6937371.577233869 0 0 0 0 0 88776739.45700601 -16660937.08820009 -16660937.08820009 -7186345.17753505 0 0 0 0 0 89814641.72657503 -16384560.86046757 -16384560.86046757 -7416059.912394987 0 0 0 0 0 90813733.42922945 -16086813.73544778 -16086813.73544778 -7623820.058029472 0 0 0 0 0 91766017.53207718 -15773256.94234245 -15773256.94234245 -7811546.96033344 0 0 0 0 0 92676763.30610812 -15444105.06058596 -15444105.06058596 -7976583.276367726 0 0 0 0 0 94331768.95947026 -14461912.83646424 -14461912.83646424 -7981539.350585728 0 0 0 0 0 95094812.81482458 -14117570.4316138 -14117570.4316138 -8092657.508878888 0 0 0 0 0 95820515.66031444 -13766092.37079628 -13766092.37079628 -8186538.557485969 0 0 0 0 0 96509203.90019922 -13409666.8438982 -13409666.8438982 -8264230.246940654 0 0 0 0 0 97162405.94519252 -13049529.65784985 -13049529.65784985 -8326645.409439554 0 0 0 0 0 97657696.24512818 -12477025.44347151 -12477025.44347151 -8131607.816766246 0 0 0 0 0 98228221.18985875 -12127887.74578193 -12127887.74578193 -8169330.517925714 0 0 0 0 0 98767141.48827662 -11778395.4316177 -11778395.4316177 -8193975.793760876 0 0 0 0 0 99275702.94605301 -11429712.34441848 -11429712.34441848 -8206445.630187949 0 0 0 0 0 99755015.76092291 -11082765.66221643 -11082765.66221643 -8207608.316561039 0 0 0 0 0 100206190.8887963 -10738351.80922012 -10738351.80922012 -8197993.088232949 0 0 0 0 0 101343706.5645684 -9726254.000190707 -9726254.000190707 -7652514.373507098 0 0 0 0 0 100630422.2444305 -10397673.46843837 -10397673.46843837 -8178270.878289922 0 0 0 0 0 101207415.9297592 -9621733.08227006 -9621733.08227006 -7912114.541456786 0 0 0 0 0 101549554.8341229 -9305562.445367245 -9305562.445367245 -7872399.073708 0 0 0 0 0 101871699.9782827 -8993248.558676489 -8993248.558676489 -7825040.330239487 0 0 0 0 0 102173022.934407 -8685595.607290059 -8685595.607290059 -7770658.819041813 0 0 0 0 0 102456038.0676433 -8384042.506454994 -8384042.506454994 -7709896.355801228 0 0 0 0 0 102868895.1539713 -7875859.541839541 -7875859.541839541 -7259273.689160751 0 0 0 0 0 102750202.7119045 -7750959.187585712 -7750959.187585712 -7395678.839184034 0 0 0 0 0 102962453.4924683 -7482313.384368304 -7482313.384368304 -7321532.290873716 0 0 0 0 0 103161246.8257334 -7219577.712949269 -7219577.712949269 -7254093.278752233 0 0 0 0 0 103454082.9776928 -6790328.126064052 -6790328.126064052 -6840538.225463638 0 0 0 0 0 103337591.2147954 -6670523.774502788 -6670523.774502788 -6960942.6252734 0 0 0 0 0 103668462.7227427 -6190775.267929897 -6190775.267929897 -6798200.70552482 0 0 0 0 0 103509788.6751711 -6427118.919977005 -6427118.919977005 -6881914.693103606 0 0 0 0 0 103807796.8192716 -5957648.407884976 -5957648.407884976 -6711838.961331907 0 0 0 0 0 103942300.373091 -5730326.748512948 -5730326.748512948 -6623923.189808668 0 0 0 0 0 104068693.4308926 -5511372.846180525 -5511372.846180525 -6533973.295544433 0 0 0 0 0 104173570.9837716 -5295354.905543586 -5295354.905543586 -6445511.07660219 0 0 0 0 0 104115170.6350563 -5094942.572805488 -5094942.572805488 -6272469.480195477 0 0 0 0 0 104457655.7777157 -4998341.886642506 -4998341.886642506 -6220806.115651786 0 0 0 0 0 104227013.8907159 -4893789.546637133 -4893789.546637133 -6142779.828026304 0 0 0 0 0 104380442.6261927 -4615854.704592413 -4615854.704592413 -5884784.702527329 0 0 0 0 0 39216118.11352342 -2761280.48305624 -2761280.48305624 1600621.168352946 0 0 0 0 0 40609001.35013391 -4570136.45871029 -4570136.45871029 1711540.4281079 0 0 0 0 0 43163784.36137517 -6872603.582408117 -6872603.582408117 1580380.594989687 0 0 0 0 0 44329354.37184343 -8438090.058240073 -8438090.058240073 1621498.974959594 0 0 0 0 0 45630762.49217078 -9985298.964839488 -9985298.964839488 1350892.725863623 0 0 0 0 0 47067589.43790048 -11445280.22586092 -11445280.22586092 1026123.462340833 0 0 0 0 0 50349508.05364034 -12722517.60298734 -12722517.60298734 877792.6834987617 0 0 0 0 0 51948480.26880586 -13923133.89995243 -13923133.89995243 451443.6710727317 0 0 0 0 0 53629812.0386935 -15024689.95380351 -15024689.95380351 -9242.714190101198 0 0 0 0 0 55378571.12111314 -16026112.99090255 -16026112.99090255 -498400.0466874431 0 0 0 0 0 57182198.88444152 -16927211.74479673 -16927211.74479673 -1010191.097429371 0 0 0 0 0 59027616.04391715 -17728358.02659103 -17728358.02659103 -1539184.22354753 0 0 0 0 0 60902693.21118211 -18430528.66454026 -18430528.66454026 -2079246.281729342 0 0 0 0 0 65297871.78175569 -18170018.96945643 -18170018.96945643 -2171840.728291025 0 0 0 0 0 65798356.48971273 -19083339.73286778 -19083339.73286778 -2944742.388413871 0 0 0 0 0 67620370.71058401 -19479800.82115307 -19479800.82115307 -3476045.498525036 0 0 0 0 0 69435000.26183856 -19800057.57354589 -19800057.57354589 -3996000.401646616 0 0 0 0 0 71192766.1535612 -20038365.35028999 -20038365.35028999 -4513484.830730263 0 0 0 0 0 72926962.82851365 -20193833.96044897 -20193833.96044897 -5013488.798130976 0 0 0 0 0 76699271.09685344 -19219563.78371108 -19219563.78371108 -4740608.3896006 0 0 0 0 0 76900774.46135788 -19759398.70417448 -19759398.70417448 -5617138.203247912 0 0 0 0 0 82130754.04612316 -18180216.26582029 -18180216.26582029 -5412615.792462265 0 0 0 0 0 88663894.91838354 -16873203.83892309 -16873203.83892309 -6735350.909242042 0 0 0 0 0 94482214.56502192 -14725249.56614304 -14725249.56614304 -7676016.676894147 0 0 0 0 0 94370167.664527 -14750788.58057858 -14750788.58057858 -8247394.347131037 0 0 0 0 0 98507095.24855006 -12384508.78854538 -12384508.78854538 -7991380.048603864 0 0 0 0 0 101027556.5915751 -10060772.39805988 -10060772.39805988 -8148001.40504119 0 0 0 0 0 103081265.7816725 -7930840.325914781 -7930840.325914781 -7419038.867192393 0 0 0 0 0 103649053.0159979 -6825336.287267119 -6825336.287267119 -6985141.938994667 0 0 0 0 0 104336689.2571094 -4709974.860821823 -4709974.860821823 -5990201.004140345 0 0 0 0 0 104269316.7425078 -4580168.534774348 -4580168.534774348 -5793242.92884939 0 0 0 0 0 80338270.71133462 -18729145.81278418 -18729145.81278418 -5297184.711727958 0 0 0 0 0 37685649.42618734 -951975.0365697388 -951975.0365697388 1318312.87583947 0 0 0 0 0 41191882.45742314 -6636789.542822352 -6636789.542822352 1244161.942622885 0 0 0 0 0 49287267.46105266 -12644008.27516958 -12644008.27516958 570516.8621469592 0 0 0 0 0 64166111.68733843 -18586191.89513664 -18586191.89513664 -2374993.584765953 0 0 0 0 0 76125858.82833908 -19716847.52197381 -19716847.52197381 -4989637.075470389 0 0 0 0 0 79918047.83742681 -19209235.18614098 -19209235.18614098 -5566233.157974712 0 0 0 0 0 80410840.369982 -19150699.54332561 -19150699.54332561 -6146133.808624972 0 0 0 0 0 82213253.69678195 -18550052.55189959 -18550052.55189959 -6231378.664308432 0 0 0 0 0 83561907.65853108 -18400160.50496158 -18400160.50496158 -6584261.014357443 0 0 0 0 0 84861190.21547744 -18210900.43456892 -18210900.43456892 -6913713.799516498 0 0 0 0 0 86117187.80780827 -17986947.3512378 -17986947.3512378 -7215443.768502454 0 0 0 0 0 87325923.58158927 -17731006.75593438 -17731006.75593438 -7490650.677193777 0 0 0 0 0 88629381.95000732 -17049287.97738272 -17049287.97738272 -7457276.016262383 0 0 0 0 0 89705207.35918035 -16758778.85893932 -16758778.85893932 -7689653.039163647 0 0 0 0 0 90737712.08124879 -16446355.15213311 -16446355.15213311 -7898452.053129929 0 0 0 0 0 91728345.66063167 -16116411.56066343 -16116411.56066343 -8087979.954091217 0 0 0 0 0 92673117.5165302 -15770214.07453349 -15770214.07453349 -8253827.60078736 0 0 0 0 0 93569407.5578251 -15412794.96496011 -15412794.96496011 -8398575.440887725 0 0 0 0 0 95155340.41867046 -14391182.12611675 -14391182.12611675 -8356651.550143889 0 0 0 0 0 95902260.15139784 -14023910.25911761 -14023910.25911761 -8447816.151254717 0 0 0 0 0 96610255.78355075 -13651890.65939407 -13651890.65939407 -8522544.645557497 0 0 0 0 0 97280413.03898165 -13276404.55070029 -13276404.55070029 -8581116.340155091 0 0 0 0 0 97914340.24678402 -12899068.76800974 -12899068.76800974 -8624762.855673702 0 0 0 0 0 98366751.34525795 -12323216.37758649 -12323216.37758649 -8408447.316017997 0 0 0 0 0 98918338.13267088 -11959821.14639875 -11959821.14639875 -8428478.767505404 0 0 0 0 0 99438019.84242974 -11597490.72869914 -11597490.72869914 -8436070.675169362 0 0 0 0 0 99926944.74789864 -11237566.48209493 -11237566.48209493 -8432155.976975279 0 0 0 0 0 100386715.2515563 -10880347.99663416 -10880347.99663416 -8417188.933559254 0 0 0 0 0 100818674.128279 -10527111.88890481 -10527111.88890481 -8391863.783518994 0 0 0 0 0 101886105.8443756 -9517903.015752245 -9517903.015752245 -7822372.138943069 0 0 0 0 0 101222454.6138376 -10178227.19346815 -10178227.19346815 -8356298.54863475 0 0 0 0 0 101745315.5973978 -9402186.855694335 -9402186.855694335 -8063944.718284756 0 0 0 0 0 102070625.9330083 -9080043.365255132 -9080043.365255132 -8011068.59876671 0 0 0 0 0 102375213.9483823 -8762820.20561883 -8762820.20561883 -7950865.382983383 0 0 0 0 0 102659693.2292105 -8451805.286210688 -8451805.286210688 -7884438.838365692 0 0 0 0 0 102925099.7788895 -8148316.960948677 -8148316.960948677 -7811540.3151066 0 0 0 0 0 103291141.6725918 -7656615.913201762 -7656615.913201762 -7355172.780112729 0 0 0 0 0 103169665.5076998 -7522098.757506103 -7522098.757506103 -7479739.212539577 0 0 0 0 0 103367628.7812271 -7253265.482823906 -7253265.482823906 -7396738.124842308 0 0 0 0 0 103551480.5867831 -6989774.684548521 -6989774.684548521 -7320132.257735238 0 0 0 0 0 103814130.9430669 -6574346.850935808 -6574346.850935808 -6912523.282706522 0 0 0 0 0 103698365.4942111 -6448941.92632793 -6448941.92632793 -7011354.55623453 0 0 0 0 0 103998220.5384372 -5967423.537855446 -5967423.537855446 -6833099.789893341 0 0 0 0 0 103855642.1433674 -6204995.608663221 -6204995.608663221 -6923780.603908579 0 0 0 0 0 104129453.4340341 -5735633.326317174 -5735633.326317174 -6740405.066156179 0 0 0 0 0 104251209.5912912 -5511256.998761 -5511256.998761 -6645745.895850827 0 0 0 0 0 104359323.3598946 -5293986.885300083 -5293986.885300083 -6549458.271490015 0 0 0 0 0 104450426.8692614 -5080930.925012413 -5080930.925012413 -6450715.046458415 0 0 0 0 0 104349980.6218581 -4885781.866290385 -4885781.866290385 -6260998.925046314 0 0 0 0 0 104461206.8089737 -4694786.406649538 -4694786.406649538 -6150225.348602748 0 0 0 0 0 104534605.5269334 -4421162.278879405 -4421162.278879405 -5818270.28999952 0 0 0 0 0 104658156.1756405 -4435143.59402168 -4435143.59402168 -5932442.079138352 0 0 0 0 0 104172357.4273475 -4519171.767435689 -4519171.767435689 -5925254.083076938 0 0 0 0 0 104295125.3537609 -4309502.321698453 -4309502.321698453 -5839213.090887349 0 0 0 0 0 104613813.1862578 -3986513.97501579 -3986513.97501579 -5584601.189843764 0 0 0 0 0 104498798.6702433 -4138295.926221951 -4138295.926221951 -5827887.499329904 0 0 0 0 0 104411950.8618346 -4332731.660233764 -4332731.660233764 -5916410.507420421 0 0 0 0 0 36837966.06342952 -2590269.493630749 -2590269.493630749 981733.5557418559 0 0 0 0 0 38001577.8949177 -4353726.288421188 -4353726.288421188 1127790.758221753 0 0 0 0 0 39390147.49781388 -6252404.111591344 -6252404.111591344 1099989.044542103 0 0 0 0 0 42570307.8702676 -8292899.289149916 -8292899.289149916 1102544.099604207 0 0 0 0 0 43753163.30539402 -9907296.557061087 -9907296.557061087 1057086.676170809 0 0 0 0 0 45218290.42744765 -11443327.89185777 -11443327.89185777 745398.6574231781 0 0 0 0 0 46813845.58656453 -12879843.10558442 -12879843.10558442 382430.7422333364 0 0 0 0 0 50274468.2381869 -14074671.64674391 -14074671.64674391 231837.423224358 0 0 0 0 0 52014544.40365824 -15236907.05926916 -15236907.05926916 -225307.3906637238 0 0 0 0 0 53829288.30904417 -16294194.82497778 -16294194.82497778 -714150.1500659008 0 0 0 0 0 55703926.48721169 -17245920.5794583 -17245920.5794583 -1228122.039700031 0 0 0 0 0 57625818.71259266 -18092476.32046273 -18092476.32046273 -1761077.725976838 0 0 0 0 0 59580848.40603565 -18834817.43424905 -18834817.43424905 -2307547.745575516 0 0 0 0 0 61557178.52254108 -19474192.97887219 -19474192.97887219 -2860974.860040543 0 0 0 0 0 66123185.44792449 -19068842.39045238 -19068842.39045238 -2877370.708196785 0 0 0 0 0 66595647.4009055 -19962634.38077918 -19962634.38077918 -3713138.455096986 0 0 0 0 0 68488895.32993473 -20294881.36461348 -20294881.36461348 -4248898.476450239 0 0 0 0 0 70345526.92963158 -20547374.31665632 -20547374.31665632 -4775329.737421277 0 0 0 0 0 72157709.73959862 -20720477.67824855 -20720477.67824855 -5287442.37209425 0 0 0 0 0 73941305.98446363 -20813003.98796182 -20813003.98796182 -5769637.908723858 0 0 0 0 0 77805254.74690662 -19738440.5108281 -19738440.5108281 -5415318.659186038 0 0 0 0 0 77935938.43028949 -20246378.12182543 -20246378.12182543 -6338167.118694945 0 0 0 0 0 83149447.03133112 -18521287.44763739 -18521287.44763739 -6024132.869430512 0 0 0 0 0 89653849.28881285 -16993748.08364365 -16993748.08364365 -7250912.979281431 0 0 0 0 0 95350712.57603134 -14666459.38484272 -14666459.38484272 -8071524.374137376 0 0 0 0 0 95225690.02876455 -14669087.95568084 -14669087.95568084 -8629681.46872736 0 0 0 0 0 99228301.25609578 -12221255.02172726 -12221255.02172726 -8271330.851406182 0 0 0 0 0 101598694.7328121 -9835370.362104243 -9835370.362104243 -8311803.880066922 0 0 0 0 0 103510683.7864569 -7700784.414588416 -7700784.414588416 -7521173.468701688 0 0 0 0 0 104015587.2990635 -6598936.076856208 -6598936.076856208 -7049280.220501538 0 0 0 0 0 104716421.8666847 -4793201.261741467 -4793201.261741467 -6236528.168379275 0 0 0 0 0 104795470.5793748 -3840604.890906865 -3840604.890906865 -5584404.205920059 0 0 0 0 0 104715425.0121648 -3805504.012873236 -3805504.012873236 -5506989.52809865 0 0 0 0 0 81402014.15906695 -19118467.51024263 -19118467.51024263 -5939952.793019586 0 0 0 0 0 35599157.04684743 -956272.6189381583 -956272.6189381583 673595.607744813 0 0 0 0 0 40551514.27164543 -8119718.424919338 -8119718.424919338 757129.8291931233 0 0 0 0 0 49344392.50318332 -13988138.40238636 -13988138.40238636 -49257.1700264831 0 0 0 0 0 65027001.8430699 -19518432.05163399 -19518432.05163399 -3109815.30410427 0 0 0 0 0 77282091.98435135 -20253868.38986766 -20253868.38986766 -5702242.020154367 0 0 0 0 0 81023697.66430777 -19612661.38531384 -19612661.38531384 -6228198.409518963 0 0 0 0 0 81443024.19155875 -19514192.81433301 -19514192.81433301 -6809250.138924916 0 0 0 0 0 83219564.90084966 -18861588.25052966 -18861588.25052966 -6855671.720853904 0 0 0 0 0 84588234.38876681 -18658788.78439534 -18658788.78439534 -7191066.77802763 0 0 0 0 0 85899214.65373452 -18422131.49629347 -18422131.49629347 -7501251.610128615 0 0 0 0 0 87150835.28748317 -18152738.02219847 -18152738.02219847 -7783530.025092291 0 0 0 0 0 88348798.8508492 -17856350.32147055 -17856350.32147055 -8040288.216858638 0 0 0 0 0 89598043.57907711 -17141844.39958669 -17141844.39958669 -7976520.595435333 0 0 0 0 0 90668406.14209929 -16814441.16051138 -16814441.16051138 -8188606.212751105 0 0 0 0 0 91689664.18896574 -16467471.46668621 -16467471.46668621 -8376209.995781761 0 0 0 0 0 92666636.85633543 -16105317.03731559 -16105317.03731559 -8542290.897370243 0 0 0 0 0 93594451.98713629 -15730385.83821134 -15730385.83821134 -8686337.125896452 0 0 0 0 0 94472829.25925781 -15345168.18981098 -15345168.18981098 -8809932.432581164 0 0 0 0 0 95992964.10331279 -14285801.87160205 -14285801.87160205 -8717904.535901884 0 0 0 0 0 96720375.8942508 -13897693.91163058 -13897693.91163058 -8789305.11562369 0 0 0 0 0 97408642.13463643 -13506078.84312184 -13506078.84312184 -8843886.533795025 0 0 0 0 0 98058245.35834898 -13112991.1797883 -13112991.1797883 -8882748.005688148 0 0 0 0 0 98670689.57290171 -12719662.67524472 -12719662.67524472 -8906915.055607405 0 0 0 0 0 99079184.69414462 -12142500.44598981 -12142500.44598981 -8669700.315361338 0 0 0 0 0 99610022.27987097 -11766287.58545513 -11766287.58545513 -8671993.704217743 0 0 0 0 0 100108746.9558945 -11392915.37160416 -11392915.37160416 -8662775.042825257 0 0 0 0 0 100577097.7206222 -11022440.02253697 -11022440.02253697 -8641891.595061446 0 0 0 0 0 101016282.2728295 -10656253.39693669 -10656253.39693669 -8610513.394854259 0 0 0 0 0 101427348.2967878 -10295180.433081 -10295180.433081 -8569602.512749366 0 0 0 0 0 102424091.5295612 -9291516.49394487 -9291516.49394487 -7977769.557918599 0 0 0 0 0 101810171.1555418 -9939396.640913034 -9939396.640913034 -8518433.500534127 0 0 0 0 0 102279117.0137527 -9164828.659961909 -9164828.659961909 -8200758.239986342 0 0 0 0 0 102586586.711692 -8837739.174694007 -8837739.174694007 -8134327.490877481 0 0 0 0 0 102873012.0757253 -8517133.665499143 -8517133.665499143 -8061539.562800286 0 0 0 0 0 103139166.4456677 -8203567.089801937 -8203567.089801937 -7982737.958404488 0 0 0 0 0 103385300.9352974 -7899068.591309121 -7899068.591309121 -7897320.385737749 0 0 0 0 0 103704751.0890966 -7421157.271550781 -7421157.271550781 -7438475.161354943 0 0 0 0 0 103581939.2279707 -7284748.26823201 -7284748.26823201 -7546830.211046393 0 0 0 0 0 103764308.7772475 -7015163.334077491 -7015163.334077491 -7461834.981041463 0 0 0 0 0 103937205.6101827 -6748099.319085096 -6748099.319085096 -7371939.715350494 0 0 0 0 0 104166659.8489191 -6347915.600844401 -6347915.600844401 -6968196.904297262 0 0 0 0 0 104051150.2696063 -6217588.52507853 -6217588.52507853 -7049784.669088 0 0 0 0 0 104192981.8836807 -5974008.136440755 -5974008.136440755 -6954276.429725504 0 0 0 0 0 104322758.9587691 -5737373.90117267 -5737373.90117267 -6856489.294382216 0 0 0 0 0 104441261.5794489 -5507900.232285646 -5507900.232285646 -6756565.107672277 0 0 0 0 0 104547660.2676931 -5285317.904229206 -5285317.904229206 -6654782.624047323 0 0 0 0 0 104640493.5469044 -5068396.520613041 -5068396.520613041 -6552177.750857715 0 0 0 0 0 104726339.8440238 -4856913.071168578 -4856913.071168578 -6448393.569727449 0 0 0 0 0 104623159.8582412 -4673171.131566033 -4673171.131566033 -6253896.111329437 0 0 0 0 0 104691165.1226419 -4478472.225288912 -4478472.225288912 -6150743.542575716 0 0 0 0 0 104743731.2887593 -4234863.518310312 -4234863.518310312 -5848653.984986004 0 0 0 0 0 104638537.0469481 -4137973.190850395 -4137973.190850395 -5887950.761599159 0 0 0 0 0 104711327.7743062 -3954478.046214765 -3954478.046214765 -5794143.40263091 0 0 0 0 0 104868885.334279 -3654578.335416559 -3654578.335416559 -5529359.079045137 0 0 0 0 0 104606646.6831341 -3741500.94897875 -3741500.94897875 -5617899.592828205 0 0 0 0 0 104879318.3075116 -3432651.566502433 -3432651.566502433 -5347819.092625 0 0 0 0 0 104793706.4915192 -3611064.887350397 -3611064.887350397 -5615802.90030261 0 0 0 0 0 34502637.73999669 -2612747.376750346 -2612747.376750346 361004.5753111776 0 0 0 0 0 35948329.0129499 -4198833.85212727 -4198833.85212727 583410.2525601583 0 0 0 0 0 37103740.59369086 -5991269.105596584 -5991269.105596584 564323.0034058775 0 0 0 0 0 38436164.70032476 -7875193.037691348 -7875193.037691348 456156.7390690839 0 0 0 0 0 42095337.71522827 -9758125.657625284 -9758125.657625284 559440.7329267275 0 0 0 0 0 43295401.61324463 -11417716.38529982 -11417716.38529982 413167.911526147 0 0 0 0 0 44930280.69395677 -12930008.66410709 -12930008.66410709 66340.30753509469 0 0 0 0 0 46689828.11894587 -14334983.86762113 -14334983.86762113 -330344.2856874487 0 0 0 0 0 50323211.51697887 -15438902.26199747 -15438902.26199747 -477425.2305881507 0 0 0 0 0 52207453.97075333 -16554910.7609202 -16554910.7609202 -962587.2566503972 0 0 0 0 0 54156508.1503498 -17560650.49964522 -17560650.49964522 -1476121.027467398 0 0 0 0 0 56157336.1485263 -18455452.38904909 -18455452.38904909 -2011057.790179616 0 0 0 0 0 58196843.36788521 -19240516.54351254 -19240516.54351254 -2561429.947816691 0 0 0 0 0 60258929.45810131 -19917317.45963287 -19917317.45963287 -3121049.167803273 0 0 0 0 0 62333502.28086223 -20488251.90457507 -20488251.90457507 -3683977.207547524 0 0 0 0 0 67059027.76000726 -19936395.28793493 -19936395.28793493 -3620491.760615821 0 0 0 0 0 67501535.19743681 -20806559.61040362 -20806559.61040362 -4514408.870035978 0 0 0 0 0 69458565.3452975 -21069798.76149531 -21069798.76149531 -5049616.512947167 0 0 0 0 0 71380952.97451968 -21252312.69566616 -21252312.69566616 -5575356.375989152 0 0 0 0 0 73243760.45743889 -21351438.30775895 -21351438.30775895 -6077186.38158424 0 0 0 0 0 75079245.97862668 -21377894.19867961 -21377894.19867961 -6553257.752638198 0 0 0 0 0 78969468.766119 -20204190.25567285 -20204190.25567285 -6126222.534163664 0 0 0 0 0 79066610.28333923 -20678554.08761242 -20678554.08761242 -7058533.230987428 0 0 0 0 0 84264193.32758281 -18817988.52344414 -18817988.52344414 -6634069.351371531 0 0 0 0 0 90678409.94544382 -17071826.93260247 -17071826.93260247 -7764364.266470703 0 0 0 0 0 96233847.58999254 -14572716.12566165 -14572716.12566165 -8454359.682409471 0 0 0 0 0 96093966.31589849 -14551613.50990878 -14551613.50990878 -8998356.959085561 0 0 0 0 0 99950292.9940726 -12031633.89565952 -12031633.89565952 -8537029.262131872 0 0 0 0 0 102166148.8757235 -9589802.372259511 -9589802.372259511 -8459243.787127266 0 0 0 0 0 103931011.0907371 -7459078.591556058 -7459078.591556058 -7602301.070447341 0 0 0 0 0 104373641.0971952 -6362983.603608241 -6362983.603608241 -7100617.566039844 0 0 0 0 0 104965499.2251705 -4579078.141236948 -4579078.141236948 -6236127.8794282 0 0 0 0 0 104901826.02134 -4227378.153659293 -4227378.153659293 -5953315.225945069 0 0 0 0 0 104787233.0364969 -3784600.735063401 -3784600.735063401 -5657867.755314304 0 0 0 0 0 105025111.5919326 -3293289.136162175 -3293289.136162175 -5335221.786669475 0 0 0 0 0 104957757.8854472 -3254636.20586009 -3254636.20586009 -5262139.025528413 0 0 0 0 0 82531228.9032463 -19474003.55526285 -19474003.55526285 -6595061.934320668 0 0 0 0 0 33451147.57391484 -1033809.501486187 -1033809.501486187 -76342.38431292039 0 0 0 0 0 40031544.2394224 -9628898.858990019 -9628898.858990019 163151.635922255 0 0 0 0 0 49539379.30797987 -15341711.35569339 -15341711.35569339 -730744.2991528385 0 0 0 0 0 66001633.86114492 -20416285.32062165 -20416285.32062165 -3882187.41852135 0 0 0 0 0 78503149.44882813 -20730838.54560844 -20730838.54560844 -6428474.748305215 0 0 0 0 0 82204292.90479182 -19967116.80464384 -19967116.80464384 -6904312.603058781 0 0 0 0 0 82550564.59896073 -19825169.23653769 -19825169.23653769 -7474376.551467884 0 0 0 0 0 84276650.19625765 -19123187.34855656 -19123187.34855656 -7491834.57907781 0 0 0 0 0 85648518.68009457 -18874436.75272633 -18874436.75272633 -7805667.436413093 0 0 0 0 0 86959125.90540385 -18589159.68070759 -18589159.68070759 -8092043.318495567 0 0 0 0 0 88207470.9794315 -18276104.25062767 -18276104.25062767 -8352164.303776398 0 0 0 0 0 89398478.18654571 -17936635.02772506 -17936635.02772506 -8587944.930998659 0 0 0 0 0 90603224.6778342 -17190725.85139165 -17190725.85139165 -8488195.706379566 0 0 0 0 0 91662110.7478516 -16825802.07558881 -16825802.07558881 -8676096.954229426 0 0 0 0 0 92670858.90181552 -16446170.14581745 -16446170.14581745 -8840996.233212058 0 0 0 0 0 93627566.54549672 -16053717.66635056 -16053717.66635056 -8984046.260270983 0 0 0 0 0 94534620.25036529 -15650254.05686572 -15650254.05686572 -9105441.282149656 0 0 0 0 0 95393161.64485526 -15238401.55549305 -15238401.55549305 -9206356.48865746 0 0 0 0 0 96840977.65373386 -14146559.81026944 -14146559.81026944 -9064697.289099177 0 0 0 0 0 97546823.53654611 -13738731.14380012 -13738731.14380012 -9115050.79544848 0 0 0 0 0 98212997.92349294 -13329004.55994242 -13329004.55994242 -9149106.665460279 0 0 0 0 0 98840361.12738979 -12919252.26330932 -12919252.26330932 -9167455.542914599 0 0 0 0 0 99430000.37245692 -12511388.57097612 -12511388.57097612 -9172359.082127087 0 0 0 0 0 99792885.70128284 -11935374.6438869 -11935374.6438869 -8914281.982916031 0 0 0 0 0 100300865.9157345 -11548194.66393089 -11548194.66393089 -8899124.749932032 0 0 0 0 0 100777528.0654778 -11164171.259438 -11164171.259438 -8871883.220911153 0 0 0 0 0 101223883.2271042 -10784733.61822466 -10784733.61822466 -8834274.845274115 0 0 0 0 0 101641332.9325024 -10411126.35459995 -10411126.35459995 -8787058.819120176 0 0 0 0 0 102029953.1891509 -10042590.60676718 -10042590.60676718 -8729544.4135614 0 0 0 0 0 102955939.582855 -9047544.265998412 -9047544.265998412 -8118679.634289178 0 0 0 0 0 102391786.7387028 -9680952.167121891 -9680952.167121891 -8663646.260301057 0 0 0 0 0 102807606.8363227 -8910034.68899403 -8910034.68899403 -8321063.010881198 0 0 0 0 0 103095870.6443177 -8579607.081120305 -8579607.081120305 -8241588.235202422 0 0 0 0 0 103363147.878405 -8256398.512949159 -8256398.512949159 -8156333.505870889 0 0 0 0 0 103610948.2453335 -7941659.502757354 -7941659.502757354 -8064527.728892717 0 0 0 0 0 103837644.9620812 -7634578.508789124 -7634578.508789124 -7962188.874497106 0 0 0 0 0 104107192.2471699 -7180369.486714162 -7180369.486714162 -7513219.525345841 0 0 0 0 0 103981353.8081211 -7038172.089006769 -7038172.089006769 -7606444.246558668 0 0 0 0 0 104154366.7862609 -6765533.894783212 -6765533.894783212 -7511736.245107085 0 0 0 0 0 104316559.4173922 -6495462.856219523 -6495462.856219523 -7409662.970997783 0 0 0 0 0 104510163.6658687 -6112918.394351384 -6112918.394351384 -7011312.939588811 0 0 0 0 0 104394743.6215407 -5977493.142663124 -5977493.142663124 -7075803.704056614 0 0 0 0 0 104522480.2599106 -5735301.995718399 -5735301.995718399 -6972669.194982872 0 0 0 0 0 104638619.1449074 -5500522.199968085 -5500522.199968085 -6867529.021577376 0 0 0 0 0 104742717.5122992 -5272825.338375665 -5272825.338375665 -6760393.147329006 0 0 0 0 0 104834867.6681263 -5051786.532881892 -5051786.532881892 -6652487.771132076 0 0 0 0 0 104917542.0433751 -4836960.998745985 -4836960.998745985 -6543952.26591058 0 0 0 0 0 104991923.2875459 -4628232.68163602 -4628232.68163602 -6434528.099077033 0 0 0 0 0 104870565.2884785 -4452436.012931746 -4452436.012931746 -6239631.232002667 0 0 0 0 0 104940309.7052929 -4261933.377872271 -4261933.377872271 -6134391.157965316 0 0 0 0 0 104953866.8328992 -4046529.850573267 -4046529.850573267 -5860915.28231908 0 0 0 0 0 104868184.6808575 -3927439.008076961 -3927439.008076961 -5851984.859495251 0 0 0 0 0 104915212.7446226 -3756633.786156639 -3756633.786156639 -5752046.52043837 0 0 0 0 0 104940112.3999964 -3588125.63677305 -3588125.63677305 -5651789.06488164 0 0 0 0 0 104966621.6442396 -3423845.335797982 -3423845.335797982 -5552286.04503131 0 0 0 0 0 105085334.0097256 -3092737.229644516 -3092737.229644516 -5295579.417678401 0 0 0 0 0 105007904.189907 -3092830.590899365 -3092830.590899365 -5180646.219340021 0 0 0 0 0 32229759.04784493 -2797775.855972215 -2797775.855972215 -548992.7843614204 0 0 0 0 0 34062654.60084193 -3954338.640221627 -3954338.640221627 68045.40402588587 0 0 0 0 0 35021177.89323513 -5728255.129063897 -5728255.129063897 2860.792135612304 0 0 0 0 0 36210191.12422929 -7634447.414818464 -7634447.414818464 -105155.5967846495 0 0 0 0 0 37644751.24452991 -9511737.950649895 -9511737.950649895 -251862.6991871165 0 0 0 0 0 41759337.80252764 -11255693.74735058 -11255693.74735058 -64054.73565236772 0 0 0 0 0 42969517.2754868 -12956422.77949 -12956422.77949 -307226.6187680134 0 0 0 0 0 44779879.27081758 -14436347.70422541 -14436347.70422541 -685271.083260157 0 0 0 0 0 46708094.76141717 -15800406.26089282 -15800406.26089282 -1111397.962393054 0 0 0 0 0 50509547.73124485 -16805964.87291825 -16805964.87291825 -1248817.015664145 0 0 0 0 0 52536396.30938924 -17869064.80239963 -17869064.80239963 -1758903.097699636 0 0 0 0 0 54619798.0926279 -18815582.86162926 -18815582.86162926 -2293216.231294597 0 0 0 0 0 56745382.6185913 -19646330.20049631 -19646330.20049631 -2845162.361013034 0 0 0 0 0 58899148.71532296 -20363101.19096725 -20363101.19096725 -3408654.493566361 0 0 0 0 0 61065409.77656193 -20968054.7731381 -20968054.7731381 -3977351.587561127 0 0 0 0 0 63234323.29115251 -21465265.20943093 -21465265.20943093 -4545675.495851603 0 0 0 0 0 68105963.83571053 -20766299.57900237 -20766299.57900237 -4397520.597687533 0 0 0 0 0 68516286.79100062 -21606796.98271996 -21606796.98271996 -5343403.60795649 0 0 0 0 0 70532545.51970147 -21797534.57168582 -21797534.57168582 -5871620.570099074 0 0 0 0 0 72507819.76422608 -21903492.76820273 -21903492.76820273 -6385773.441309418 0 0 0 0 0 74443947.08374424 -21930379.74425523 -21930379.74425523 -6873036.585030211 0 0 0 0 0 76326859.5269774 -21888925.65454313 -21888925.65454313 -7337243.770719807 0 0 0 0 0 80211288.27712554 -20622510.40429913 -20622510.40429913 -6836200.950982654 0 0 0 0 0 80261049.33036715 -21051414.06149248 -21051414.06149248 -7782351.744598233 0 0 0 0 0 85405903.239333 -19062023.89450634 -19062023.89450634 -7262050.269481739 0 0 0 0 0 91735644.72941695 -17106417.42655524 -17106417.42655524 -8272146.621318054 0 0 0 0 0 97126796.78915624 -14443249.13696399 -14443249.13696399 -8825281.505685175 0 0 0 0 0 96973523.33481453 -14397851.78488017 -14397851.78488017 -9349834.005024258 0 0 0 0 0 100669786.5351656 -11815660.62707372 -11815660.62707372 -8786747.235966086 0 0 0 0 0 102727732.127863 -9326310.992246708 -9326310.992246708 -8590371.30451178 0 0 0 0 0 104338827.5924548 -7207086.965551381 -7207086.965551381 -7669032.315268125 0 0 0 0 0 104722273.2279566 -6118277.888687465 -6118277.888687465 -7139306.759172463 0 0 0 0 0 105210352.2015195 -4356610.840395793 -4356610.840395793 -6223653.83169646 0 0 0 0 0 105123017.0333457 -4016402.499108413 -4016402.499108413 -5940385.130456187 0 0 0 0 0 105024522.5835126 -3266793.975307421 -3266793.975307421 -5455154.865108804 0 0 0 0 0 105077876.4365091 -2959620.333596858 -2959620.333596858 -5169758.884404913 0 0 0 0 0 105052300.6152975 -2921747.450896884 -2921747.450896884 -5096910.136621372 0 0 0 0 0 83726255.58697477 -19771292.44226083 -19771292.44226083 -7246420.173844924 0 0 0 0 0 31211740.62359563 -1080737.702929335 -1080737.702929335 -716256.5472335232 0 0 0 0 0 39651537.55718978 -11170607.83803753 -11170607.83803753 -510016.0610267232 0 0 0 0 0 49882204.49548845 -16695690.23353198 -16695690.23353198 -1473726.925303675 0 0 0 0 0 67096633.50483698 -21273152.89693153 -21273152.89693153 -4687759.729116226 0 0 0 0 0 79782872.1596334 -21152245.95572312 -21152245.95572312 -7177728.675467718 0 0 0 0 0 83448498.18808378 -20262974.91971995 -20262974.91971995 -7582864.850234409 0 0 0 0 0 83722409.90389793 -20086389.06195929 -20086389.06195929 -8144351.900314419 0 0 0 0 0 85407710.75718538 -19334208.51603132 -19334208.51603132 -8119050.690257438 0 0 0 0 0 86765932.25045241 -19035621.68512545 -19035621.68512545 -8411131.418625806 0 0 0 0 0 88065514.83825091 -18705614.96381347 -18705614.96381347 -8675112.007713735 0 0 0 0 0 89304931.31012814 -18348143.55213279 -18348143.55213279 -8912747.206563924 0 0 0 0 0 90489521.62192085 -17967506.28016182 -17967506.28016182 -9124265.817870487 0 0 0 0 0 91636020.50157426 -17193354.48901344 -17193354.48901344 -8987691.492630044 0 0 0 0 0 92680533.53687473 -16795116.38276797 -16795116.38276797 -9151816.226915199 0 0 0 0 0 93668918.43069549 -16383351.64188888 -16383351.64188888 -9292332.700277532 0 0 0 0 0 94604270.34771924 -15961007.51639679 -15961007.51639679 -9410914.695091274 0 0 0 0 0 95490079.02230093 -15530305.36870275 -15530305.36870275 -9508408.271283224 0 0 0 0 0 96327682.18909423 -15093242.75730341 -15093242.75730341 -9585698.988220084 0 0 0 0 0 97697912.50987776 -13972721.79372535 -13972721.79372535 -9394716.611750523 0 0 0 0 0 98379901.88638239 -13546044.86299245 -13546044.86299245 -9422830.450171378 0 0 0 0 0 99021563.74847028 -13119631.691292 -13119631.691292 -9435909.104806382 0 0 0 0 0 99624502.3925897 -12695699.28542452 -12695699.28542452 -9434317.942730369 0 0 0 0 0 100190787.847427 -12274461.92713956 -12274461.92713956 -9418640.779000992 0 0 0 0 0 100504911.2219496 -11702305.36047189 -11702305.36047189 -9140503.243415957 0 0 0 0 0 100989421.7822717 -11304227.15822218 -11304227.15822218 -9106793.742433419 0 0 0 0 0 101442502.2201709 -10911447.02471231 -10911447.02471231 -9062578.729403768 0 0 0 0 0 101865977.56819 -10524435.6059743 -10524435.6059743 -9007959.778112588 0 0 0 0 0 102259901.3650221 -10143397.40685778 -10143397.40685778 -8944241.051114682 0 0 0 0 0 102626661.404991 -9769698.690449068 -9769698.690449068 -8871787.243427798 0 0 0 0 0 103480005.6302361 -8786725.500286713 -8786725.500286713 -8244226.432685785 0 0 0 0 0 102966623.2596027 -9403079.974859191 -9403079.974859191 -8790715.165198863 0 0 0 0 0 103329026.6915328 -8638659.349622434 -8638659.349622434 -8424385.787976973 0 0 0 0 0 103597145.8569924 -8306017.998869623 -8306017.998869623 -8331974.020032456 0 0 0 0 0 103844614.2717578 -7981001.954280657 -7981001.954280657 -8234757.649530886 0 0 0 0 0 104073723.2191477 -7668231.912574662 -7668231.912574662 -8129040.140431671 0 0 0 0 0 104277760.6939823 -7362795.489400725 -7362795.489400725 -8013726.142354036 0 0 0 0 0 104505821.9978347 -6927157.629416022 -6927157.629416022 -7567639.277033275 0 0 0 0 0 104376815.1675435 -6778564.840831484 -6778564.840831484 -7652902.705845308 0 0 0 0 0 104538486.6938029 -6502657.175468794 -6502657.175468794 -7544338.089036821 0 0 0 0 0 104686190.0722766 -6233769.112887206 -6233769.112887206 -7433415.885655828 0 0 0 0 0 104844213.4651943 -5869650.002422046 -5869650.002422046 -7041766.948667828 0 0 0 0 0 104729164.0230458 -5729445.261254743 -5729445.261254743 -7088988.166250408 0 0 0 0 0 104842645.0956125 -5489237.310860176 -5489237.310860176 -6978410.891444813 0 0 0 0 0 104944552.5894425 -5256494.270552451 -5256494.270552451 -6866309.79255868 0 0 0 0 0 105035008.9375906 -5030829.320642442 -5030829.320642442 -6752255.420089095 0 0 0 0 0 105114688.5515695 -4812464.438511115 -4812464.438511115 -6639124.537173813 0 0 0 0 0 105186219.1342874 -4599886.686606606 -4599886.686606606 -6524232.023866582 0 0 0 0 0 105248844.6472281 -4394154.548391208 -4394154.548391208 -6409527.270929578 0 0 0 0 0 105118326.444334 -4230249.212847427 -4230249.212847427 -6215167.754761852 0 0 0 0 0 105169734.1852735 -4041765.547021263 -4041765.547021263 -6104963.874214896 0 0 0 0 0 105160510.8572688 -3840422.787862454 -3840422.787862454 -5840977.149740815 0 0 0 0 0 105078131.5680155 -3722661.671946711 -3722661.671946711 -5817355.701079653 0 0 0 0 0 105106711.7988328 -3552528.956201541 -3552528.956201541 -5711782.233865673 0 0 0 0 0 105140837.6408243 -3389273.370423033 -3389273.370423033 -5608783.597845891 0 0 0 0 0 105155139.9975349 -3231025.625271088 -3231025.625271088 -5517193.453091315 0 0 0 0 0 105318974.1769705 -2979619.306052226 -2979619.306052226 -5296555.477789399 0 0 0 0 0 105250379.4458389 -2881024.940922634 -2881024.940922634 -5203348.353531895 0 0 0 0 0 105175706.1160498 -2786456.667682203 -2786456.667682203 -5118621.353822843 0 0 0 0 0 105083907.3676674 -2767901.084134487 -2767901.084134487 -5013362.659554164 0 0 0 0 0 30271314.83763129 -3105087.822634729 -3105087.822634729 -1257900.965393884 0 0 0 0 0 31411997.18998206 -3713352.723683335 -3713352.723683335 -740200.1489507527 0 0 0 0 0 32878947.21688251 -5326134.781482243 -5326134.781482243 -693287.8295258083 0 0 0 0 0 34032392.67090787 -7345397.586349822 -7345397.586349822 -723942.640723819 0 0 0 0 0 35434301.46589414 -9293468.184280245 -9293468.184280245 -840173.1640156894 0 0 0 0 0 37031420.30522946 -11161638.22917483 -11161638.22917483 -1022669.221347721 0 0 0 0 0 41572274.9877688 -12776188.40283996 -12776188.40283996 -763701.5916244276 0 0 0 0 0 42785760.32358173 -14514400.84877476 -14514400.84877476 -1102364.462077457 0 0 0 0 0 44776669.91700175 -15953586.2609333 -15953586.2609333 -1508085.924990734 0 0 0 0 0 46874715.81875854 -17268402.896789 -17268402.896789 -1959969.231324464 0 0 0 0 0 50839969.51497265 -18168479.59826285 -18168479.59826285 -2081440.982487364 0 0 0 0 0 53009503.76305775 -19170319.4569896 -19170319.4569896 -2611802.53561898 0 0 0 0 0 55225793.99263865 -20050119.2572809 -20050119.2572809 -3162621.298600051 0 0 0 0 0 57473709.01680491 -20809773.3038274 -20809773.3038274 -3727110.224150171 0 0 0 0 0 59738140.66627492 -21451667.3125178 -21451667.3125178 -4298921.010731337 0 0 0 0 0 62005425.76519971 -21979536.81846578 -21979536.81846578 -4872090.451987416 0 0 0 0 0 64263687.51887888 -22397885.48181388 -22397885.48181388 -5441026.777111975 0 0 0 0 0 69266299.86370704 -21550092.3814643 -21550092.3814643 -5202738.714428999 0 0 0 0 0 69640456.05688277 -22356136.88401247 -22356136.88401247 -6197735.585511268 0 0 0 0 0 71710647.73993549 -22469315.50885447 -22469315.50885447 -6717234.125145917 0 0 0 0 0 73733725.29067217 -22500218.61399934 -22500218.61399934 -7215376.879368227 0 0 0 0 0 75704740.7113792 -22455936.31380158 -22455936.31380158 -7687562.519981992 0 0 0 0 0 77614576.32162476 -22340376.59711939 -22340376.59711939 -8132186.057608617 0 0 0 0 0 81490910.49754044 -20980719.62779711 -20980719.62779711 -7553225.11998506 0 0 0 0 0 81529228.00156243 -21369234.9323131 -21369234.9323131 -8512128.410123602 0 0 0 0 0 86597836.01451951 -19260615.18238781 -19260615.18238781 -7884792.870015259 0 0 0 0 0 92815777.85909352 -17094478.53539056 -17094478.53539056 -8772433.671828706 0 0 0 0 0 98026278.73204228 -14278056.38218578 -14278056.38218578 -9180739.896649973 0 0 0 0 0 97860340.26088762 -14208349.41219475 -14208349.41219475 -9682335.76922559 0 0 0 0 0 101386545.3541177 -11573312.23673809 -11573312.23673809 -9018443.265033338 0 0 0 0 0 103281726.4560569 -9044666.766215669 -9044666.766215669 -8703396.311813902 0 0 0 0 0 104740991.1103798 -6944061.357980649 -6944061.357980649 -7721410.665559205 0 0 0 0 0 105060898.2244261 -5865346.221748468 -5865346.221748468 -7164861.89845119 0 0 0 0 0 105443191.5592747 -4132944.668694818 -4132944.668694818 -6203720.173645981 0 0 0 0 0 105333475.7076025 -3804751.29125608 -3804751.29125608 -5914667.225527706 0 0 0 0 0 105146295.9341583 -2687403.857601609 -2687403.857601609 -5030187.357174539 0 0 0 0 0 105054538.2304193 -2737751.122457042 -2737751.122457042 -5095979.094250888 0 0 0 0 0 84964639.53152993 -20011546.79062939 -20011546.79062939 -7912647.808212725 0 0 0 0 0 28948117.56888669 -1152087.443951372 -1152087.443951372 -1670223.113143008 0 0 0 0 0 39428964.36181148 -12737265.42137383 -12737265.42137383 -1256032.601550103 0 0 0 0 0 50383966.21560726 -18041927.12328554 -18041927.12328554 -2276488.866916504 0 0 0 0 0 68311148.99238347 -22081449.52985961 -22081449.52985961 -5523357.301405671 0 0 0 0 0 81113177.74382906 -21516949.75467552 -21516949.75467552 -7919648.189723887 0 0 0 0 0 84747362.60638064 -20507620.24721779 -20507620.24721779 -8262273.743172538 0 0 0 0 0 84944208.36959362 -20295417.18531331 -20295417.18531331 -8805826.909821481 0 0 0 0 0 86572076.22186173 -19492413.84165509 -19492413.84165509 -8743375.976638295 0 0 0 0 0 87920561.73854826 -19145513.92956732 -19145513.92956732 -9009095.055664584 0 0 0 0 0 89209811.83232822 -18770228.01684517 -18770228.01684517 -9248512.879771134 0 0 0 0 0 90440102.61671348 -18370138.54840814 -18370138.54840814 -9460424.364950657 0 0 0 0 0 91611468.9583022 -17949757.1554711 -17949757.1554711 -9646271.504783511 0 0 0 0 0 92697215.81657271 -17150316.72120802 -17150316.72120802 -9473526.463620616 0 0 0 0 0 93717227.48537289 -16719346.55391434 -16719346.55391434 -9611965.685598509 0 0 0 0 0 94683212.2791234 -16277257.47902941 -16277257.47902941 -9727306.572998406 0 0 0 0 0 95596354.04260489 -15826631.35741649 -15826631.35741649 -9820764.746518504 0 0 0 0 0 96458478.82138754 -15370015.38603462 -15370015.38603462 -9893274.534418261 0 0 0 0 0 97271016.67869036 -14909401.54945243 -14909401.54945243 -9945774.893899856 0 0 0 0 0 98559369.95942345 -13764177.72059852 -13764177.72059852 -9705294.166590756 0 0 0 0 0 99216355.99793534 -13320981.09032582 -13320981.09032582 -9711787.605850276 0 0 0 0 0 99832923.29832484 -12878916.83838081 -12878916.83838081 -9704099.120389186 0 0 0 0 0 100411327.0309324 -12441539.67318716 -12441539.67318716 -9681962.335170418 0 0 0 0 0 100951555.2332793 -12006848.27925216 -12006848.27925216 -9643326.291078802 0 0 0 0 0 101214266.9162464 -11442703.37527478 -11442703.37527478 -9348125.104076628 0 0 0 0 0 101674904.3206929 -11036053.18521388 -11036053.18521388 -9296483.0265403 0 0 0 0 0 102104235.2565422 -10635443.29075485 -10635443.29075485 -9234375.486680819 0 0 0 0 0 102503251.2822547 -10241659.06914103 -10241659.06914103 -9162807.654842569 0 0 0 0 0 102873767.8915979 -9855337.711585354 -9855337.711585354 -9082277.263543911 0 0 0 0 0 103216718.7393453 -9477170.337081237 -9477170.337081237 -8994336.780917283 0 0 0 0 0 103994851.8443885 -8509626.305108277 -8509626.305108277 -8353055.783351506 0 0 0 0 0 103534297.9518431 -9106960.930224985 -9106960.930224985 -8898779.758038225 0 0 0 0 0 103841642.7382017 -8351591.594385388 -8351591.594385388 -8510292.730738174 0 0 0 0 0 104089245.1483016 -8017897.754509218 -8017897.754509218 -8405216.887587393 0 0 0 0 0 104318998.7129426 -7693394.457218809 -7693394.457218809 -8294761.925742364 0 0 0 0 0 104525075.7959046 -7380126.159470499 -7380126.159470499 -8170771.297969121 0 0 0 0 0 104695545.2004977 -7082742.294105556 -7082742.294105556 -8051380.654587228 0 0 0 0 0 104897461.5132913 -6659210.421840469 -6659210.421840469 -7609504.659148343 0 0 0 0 0 104767488.2654011 -6505751.154356967 -6505751.154356967 -7680351.868129785 0 0 0 0 0 104913477.7121996 -6230515.537354578 -6230515.537354578 -7562469.099688624 0 0 0 0 0 105045513.8550688 -5963584.538807056 -5963584.538807056 -7442953.791988917 0 0 0 0 0 105168066.6890537 -5618741.375607927 -5618741.375607927 -7059424.718839053 0 0 0 0 0 105053640.6027869 -5473968.350539395 -5473968.350539395 -7089061.156006903 0 0 0 0 0 105152639.638148 -5236214.487957253 -5236214.487957253 -6971379.458296617 0 0 0 0 0 105240730.3446832 -5005946.650481988 -5005946.650481988 -6852528.70736593 0 0 0 0 0 105318204.0966152 -4783053.584795802 -4783053.584795802 -6732961.295203245 0 0 0 0 0 105386009.4845078 -4567107.505674293 -4567107.505674293 -6613217.883301071 0 0 0 0 0 105445422.7361358 -4358061.593159817 -4358061.593159817 -6493303.795148713 0 0 0 0 0 105497027.2182934 -4155996.182958095 -4155996.182958095 -6373360.073559787 0 0 0 0 0 105352408.8577166 -4003377.484366217 -4003377.484366217 -6180000.197186536 0 0 0 0 0 105392815.489059 -3818133.520661065 -3818133.520661065 -6065458.451489953 0 0 0 0 0 105360441.3485565 -3632411.654129893 -3632411.654129893 -5811082.183555297 0 0 0 0 0 105278397.5833537 -3511158.571578206 -3511158.571578206 -5774799.739490809 0 0 0 0 0 105305064.7857983 -3346465.434782219 -3346465.434782219 -5664909.621898884 0 0 0 0 0 105323997.23853 -3188407.214817588 -3188407.214817588 -5554237.841629686 0 0 0 0 0 105351900.7218275 -3036623.549234095 -3036623.549234095 -5449348.896691136 0 0 0 0 0 105417869.3346403 -2780622.586072091 -2780622.586072091 -5221720.437832096 0 0 0 0 0 105362523.4338138 -2692491.017523722 -2692491.017523722 -5129799.973709518 0 0 0 0 0 105313453.8603543 -2606231.045629994 -2606231.045629994 -5033071.52930999 0 0 0 0 0 105218803.8920036 -2649171.782630254 -2649171.782630254 -5101470.619770232 0 0 0 0 0 28073333.89814979 -3225109.611339096 -3225109.611339096 -2172609.583945216 0 0 0 0 0 29980921.31203553 -5182055.891851491 -5182055.891851491 -1726825.573194396 0 0 0 0 0 31714872.94174885 -7071075.188255641 -7071075.188255641 -1485449.707267274 0 0 0 0 0 33182689.8723565 -9059624.147548493 -9059624.147548493 -1525247.429559713 0 0 0 0 0 34776272.1043219 -11000086.61257398 -11000086.61257398 -1666909.941121629 0 0 0 0 0 36565914.65074936 -12854344.33879069 -12854344.33879069 -1884522.489856113 0 0 0 0 0 41545722.01639196 -14313686.49308416 -14313686.49308416 -1535181.969659738 0 0 0 0 0 42760366.10354216 -16082190.43785385 -16082190.43785385 -1969337.810332086 0 0 0 0 0 44932989.34423424 -17471726.38624121 -17471726.38624121 -2399536.229851396 0 0 0 0 0 47203580.96448728 -18729108.85591893 -18729108.85591893 -2872466.440770797 0 0 0 0 0 51322040.2069709 -19517122.65919442 -19517122.65919442 -2972306.737165486 0 0 0 0 0 53633258.6136667 -20449479.38163496 -20449479.38163496 -3518255.347702251 0 0 0 0 0 55980149.93962711 -21255128.97398814 -21255128.97398814 -4081203.692422561 0 0 0 0 0 58346838.37161847 -21936448.47845835 -21936448.47845835 -4652262.4176096 0 0 0 0 0 60718399.34208412 -22497695.77173185 -22497695.77173185 -5227258.882318885 0 0 0 0 0 63081003.60548572 -22943167.09747404 -22943167.09747404 -5800530.786333025 0 0 0 0 0 65423032.83623838 -23277619.93402961 -23277619.93402961 -6365817.204200543 0 0 0 0 0 70539378.24601406 -22281133.58777826 -22281133.58777826 -6033932.009236689 0 0 0 0 0 70874543.912907 -23048119.74473066 -23048119.74473066 -7071724.789632461 0 0 0 0 0 72991524.59505332 -23082043.58807486 -23082043.58807486 -7575335.144231269 0 0 0 0 0 75053676.76001883 -23035686.63721265 -23035686.63721265 -8053029.024509802 0 0 0 0 0 77048995.16436979 -22915775.11893849 -22915775.11893849 -8501846.918679014 0 0 0 0 0 78983262.89284904 -22725688.94558631 -22725688.94558631 -8907835.582878528 0 0 0 0 0 82826474.87649779 -21277181.61061156 -21277181.61061156 -8271594.741505562 0 0 0 0 0 82857258.55430809 -21630522.72190943 -21630522.72190943 -9240911.927870203 0 0 0 0 0 87831135.06970115 -19402375.99144184 -19402375.99144184 -8501263.951330859 0 0 0 0 0 93913677.1309725 -17037447.22669288 -17037447.22669288 -9259569.127974104 0 0 0 0 0 98928686.47880541 -14076993.98613009 -14076993.98613009 -9517827.197300067 0 0 0 0 0 98751121.11384147 -13984034.35642047 -13984034.35642047 -9994885.89424696 0 0 0 0 0 102097677.1663086 -11304808.14215255 -11304808.14215255 -9231163.889986994 0 0 0 0 0 103827074.1191716 -8745826.422282683 -8745826.422282683 -8797212.228315134 0 0 0 0 0 105139639.1770609 -6665624.976329867 -6665624.976329867 -7757894.517835543 0 0 0 0 0 105388845.351038 -5604726.453909648 -5604726.453909648 -7177054.431514565 0 0 0 0 0 105666684.2047104 -3904713.209323751 -3904713.209323751 -6172264.893588122 0 0 0 0 0 105535298.976964 -3589764.653251124 -3589764.653251124 -5879513.914677508 0 0 0 0 0 105400700.8379464 -2896335.877093956 -2896335.877093956 -5347700.785801406 0 0 0 0 0 86267593.22048892 -20205201.20581695 -20205201.20581695 -8570749.892907048 0 0 0 0 0 26606935.12268854 -1206308.914132966 -1206308.914132966 -2713485.296034188 0 0 0 0 0 39376832.42543095 -14322564.31461318 -14322564.31461318 -2073444.374084838 0 0 0 0 0 51049278.13633963 -19370983.19389747 -19370983.19389747 -3136919.42143628 0 0 0 0 0 69645131.06273818 -22833708.01188641 -22833708.01188641 -6384392.933613143 0 0 0 0 0 82510325.293961 -21813627.50181811 -21813627.50181811 -8650607.383560494 0 0 0 0 0 86110906.51549411 -20689725.13855725 -20689725.13855725 -8941792.153059721 0 0 0 0 0 86214498.75603151 -20442199.63186065 -20442199.63186065 -9469663.949971555 0 0 0 0 0 87776773.07391028 -19595956.86488535 -19595956.86488535 -9359200.675366823 0 0 0 0 0 89114442.39197473 -19202354.23294524 -19202354.23294524 -9598447.630649094 0 0 0 0 0 90390884.01397413 -18781667.93213114 -18781667.93213114 -9809663.794342713 0 0 0 0 0 91603884.05806637 -18340526.50962011 -18340526.50962011 -9994071.748955986 0 0 0 0 0 92754347.58032627 -17881808.193895 -17881808.193895 -10152039.43839064 0 0 0 0 0 93776083.65909079 -17060949.35025993 -17060949.35025993 -9942340.61366505 0 0 0 0 0 94772508.62584154 -16598231.99091284 -16598231.99091284 -10054266.37950274 0 0 0 0 0 95713483.64374094 -16127058.38910528 -16127058.38910528 -10143121.56317945 0 0 0 0 0 96601030.38691838 -15650049.31056515 -15650049.31056515 -10210560.50700582 0 0 0 0 0 97436246.30442384 -15169138.6956271 -15169138.6956271 -10257029.85410147 0 0 0 0 0 98220696.54022105 -14686838.71590615 -14686838.71590615 -10284248.90041006 0 0 0 0 0 99423572.71951188 -13522586.03153655 -13522586.03153655 -9995102.921978626 0 0 0 0 0 100053449.1580097 -13062951.32480643 -13062951.32480643 -9979648.848194527 0 0 0 0 0 100645482.6432946 -12606345.26345722 -12606345.26345722 -9951283.532142723 0 0 0 0 0 101198775.0457216 -12154897.38893866 -12154897.38893866 -9904811.54971659 0 0 0 0 0 101708581.5369242 -11711968.46628131 -11711968.46628131 -9847334.693231454 0 0 0 0 0 101919564.4824322 -11158446.40439826 -11158446.40439826 -9535576.115798078 0 0 0 0 0 102355566.4065346 -10743757.18981188 -10743757.18981188 -9465651.261059873 0 0 0 0 0 102760025.8609025 -10336473.11944759 -10336473.11944759 -9386125.786065836 0 0 0 0 0 103134428.8315359 -9936904.951672031 -9936904.951672031 -9296811.447009569 0 0 0 0 0 103479921.0018033 -9547116.711220879 -9547116.711220879 -9201211.603684403 0 0 0 0 0 103799242.6471111 -9164968.767010584 -9164968.767010584 -9096156.881390367 0 0 0 0 0 104498882.2861696 -8217305.149254235 -8217305.149254235 -8444499.029192641 0 0 0 0 0 104092400.5121253 -8793347.964478206 -8793347.964478206 -8987252.431446062 0 0 0 0 0 104343913.9548256 -8049655.951856436 -8049655.951856436 -8577440.362869125 0 0 0 0 0 104569787.159398 -7716492.236886353 -7716492.236886353 -8458422.062464932 0 0 0 0 0 104775035.0780652 -7396924.739189501 -7396924.739189501 -8331756.949630667 0 0 0 0 0 104951578.5992045 -7086860.591608056 -7086860.591608056 -8198023.62311293 0 0 0 0 0 105103167.4187546 -6789681.104061871 -6789681.104061871 -8075127.412380873 0 0 0 0 0 105278666.646365 -6382348.499759841 -6382348.499759841 -7642193.22017544 0 0 0 0 0 105148472.8432299 -6222456.707443544 -6222456.707443544 -7691833.527622614 0 0 0 0 0 105277681.3819995 -5949669.138182304 -5949669.138182304 -7565408.374240076 0 0 0 0 0 105393717.3160717 -5685571.686812147 -5685571.686812147 -7437849.165788992 0 0 0 0 0 105481266.4026899 -5360668.559226884 -5360668.559226884 -7063983.358018207 0 0 0 0 0 105367696.5959099 -5211611.966181754 -5211611.966181754 -7075848.785604337 0 0 0 0 0 105452473.2056876 -4976763.82380024 -4976763.82380024 -6951428.082060548 0 0 0 0 0 105526733.8669426 -4749538.170277736 -4749538.170277736 -6826451.787054257 0 0 0 0 0 105591627.4210161 -4529815.728890279 -4529815.728890279 -6701128.449420898 0 0 0 0 0 105647266.6765662 -4317365.636895075 -4317365.636895075 -6575818.695713373 0 0 0 0 0 105694853.5958231 -4112174.903192931 -4112174.903192931 -6450740.990567658 0 0 0 0 0 105734772.5065059 -3914180.206551008 -3914180.206551008 -6325841.69330571 0 0 0 0 0 105577376.9666195 -3772918.317621262 -3772918.317621262 -6134474.036909544 0 0 0 0 0 105607004.247605 -3591298.64190858 -3591298.64190858 -6015885.814563772 0 0 0 0 0 105553861.9862773 -3419839.156009383 -3419839.156009383 -5771254.029518333 0 0 0 0 0 105473738.9841197 -3297827.890868913 -3297827.890868913 -5724161.515955478 0 0 0 0 0 105489250.124364 -3136684.296751129 -3136684.296751129 -5611038.21157949 0 0 0 0 0 105501895.9704762 -2984381.96090423 -2984381.96090423 -5498489.285328404 0 0 0 0 0 105513240.3890876 -2838318.572234116 -2838318.572234116 -5400527.217948081 0 0 0 0 0 105541112.6774341 -2694818.418284205 -2694818.418284205 -5255647.706473006 0 0 0 0 0 105527952.9979764 -2592147.322736421 -2592147.322736421 -5148721.719137683 0 0 0 0 0 105481460.3813593 -2501973.110318172 -2501973.110318172 -5051164.559852932 0 0 0 0 0 105376466.2152988 -2550543.993513334 -2550543.993513334 -5128286.690753886 0 0 0 0 0 25461121.24264415 -3301568.382179399 -3301568.382179399 -3409812.470218474 0 0 0 0 0 27032700.84541636 -5203320.217267427 -5203320.217267427 -2952125.339451736 0 0 0 0 0 28883865.83012003 -6981122.843131287 -6981122.843131287 -2483624.817029531 0 0 0 0 0 30857438.6509366 -8806798.991508549 -8806798.991508549 -2345645.933229304 0 0 0 0 0 32466708.84387213 -10801381.16708218 -10801381.16708218 -2426032.324281443 0 0 0 0 0 34258189.67826339 -12749969.05881695 -12749969.05881695 -2600303.251857203 0 0 0 0 0 36269662.62672741 -14568418.28054051 -14568418.28054051 -2836511.872988464 0 0 0 0 0 41691485.41153903 -15857931.10375223 -15857931.10375223 -2377307.212215306 0 0 0 0 0 42903071.32624543 -17649934.89015128 -17649934.89015128 -2906865.81470697 0 0 0 0 0 45260216.84787814 -18980435.00308498 -18980435.00308498 -3355616.210526645 0 0 0 0 0 47705077.69408839 -20170644.11800476 -20170644.11800476 -3843985.517679776 0 0 0 0 0 51964421.02208184 -20840914.4427659 -20840914.4427659 -3916757.773801666 0 0 0 0 0 54414402.75497075 -21696301.96673006 -21696301.96673006 -4473040.087753244 0 0 0 0 0 56887035.0629436 -22420181.22388813 -22420181.22388813 -5040657.249265368 0 0 0 0 0 59370134.08629168 -23016164.5821422 -23016164.5821422 -5612270.80554792 0 0 0 0 0 61844407.41590072 -23491158.96363781 -23491158.96363781 -6186973.142112399 0 0 0 0 0 64296429.84526235 -23847946.95805459 -23847946.95805459 -6754791.067259826 0 0 0 0 0 66713393.14084865 -24095499.11572512 -24095499.11572512 -7313031.907690519 0 0 0 0 0 71925054.70496 -22952612.76310884 -22952612.76310884 -6885590.376713691 0 0 0 0 0 72217798.13642949 -23675198.39584814 -23675198.39584814 -7961055.641703599 0 0 0 0 0 74375885.5292147 -23627203.60509916 -23627203.60509916 -8446563.633275729 0 0 0 0 0 76469540.9077463 -23501742.57889615 -23501742.57889615 -8904002.058708569 0 0 0 0 0 78474996.70243698 -23306826.63076316 -23306826.63076316 -9325038.167747557 0 0 0 0 0 80370592.71840841 -23038847.19879262 -23038847.19879262 -9698418.763853259 0 0 0 0 0 84236120.30613646 -21516752.63879363 -21516752.63879363 -8990530.00355706 0 0 0 0 0 84239831.75256248 -21822159.57003639 -21822159.57003639 -9963599.297025701 0 0 0 0 0 89100267.9051965 -19487102.67878919 -19487102.67878919 -9114325.124251943 0 0 0 0 0 95029342.28087026 -16933131.47588771 -16933131.47588771 -9729650.202300431 0 0 0 0 0 99832837.75676945 -13840680.88485374 -13840680.88485374 -9834981.16033837 0 0 0 0 0 99643773.85606398 -13724024.15665341 -13724024.15665341 -10285195.33540493 0 0 0 0 0 102803999.0194483 -11010427.30221686 -11010427.30221686 -9424416.52106482 0 0 0 0 0 104362411.925176 -8430525.633455301 -8430525.633455301 -8871441.423636677 0 0 0 0 0 105526024.4657099 -6376703.857387493 -6376703.857387493 -7781353.858577805 0 0 0 0 0 105705711.3823856 -5337028.02018746 -5337028.02018746 -7175586.652574815 0 0 0 0 0 105880364.1031013 -3673227.857597189 -3673227.857597189 -6130278.943322822 0 0 0 0 0 105728791.6372125 -3371815.86826507 -3371815.86826507 -5835017.398616568 0 0 0 0 0 87610073.84263556 -20328593.23299724 -20328593.23299724 -9224917.531061465 0 0 0 0 0 24168029.89865839 -1268312.046741382 -1268312.046741382 -3936917.09016036 0 0 0 0 0 39502257.89262975 -15912968.12834107 -15912968.12834107 -2965816.113756975 0 0 0 0 0 51884307.56221191 -20671603.02490901 -20671603.02490901 -4051115.37760267 0 0 0 0 0 71097140.5752233 -23522721.60672446 -23522721.60672446 -7265912.60827546 0 0 0 0 0 83983612.07217899 -22043881.57558276 -22043881.57558276 -9371208.971818946 0 0 0 0 0 87510124.18677627 -20807047.49405401 -20807047.49405401 -9608708.239339856 0 0 0 0 0 87529552.04093012 -20526431.72989571 -20526431.72989571 -10112488.41309629 0 0 0 0 0 89024774.00220707 -19644441.2049663 -19644441.2049663 -9961628.594942983 0 0 0 0 0 90347398.35423101 -19201587.57829938 -19201587.57829938 -10171568.62490324 0 0 0 0 0 91603506.28801745 -18738814.21553528 -18738814.21553528 -10354456.62907867 0 0 0 0 0 92794260.400599 -18257811.75629238 -18257811.75629238 -10509512.89159106 0 0 0 0 0 93920474.99922836 -17761788.02259363 -17761788.02259363 -10637761.86952767 0 0 0 0 0 94872333.7986566 -16924300.93230426 -16924300.93230426 -10391935.06985044 0 0 0 0 0 95842650.68178554 -16431401.67711199 -16431401.67711199 -10476208.74145271 0 0 0 0 0 96755986.07729043 -15932925.07237758 -15932925.07237758 -10537443.12412811 0 0 0 0 0 97614719.44130082 -15431040.93327427 -15431040.93327427 -10577391.59281353 0 0 0 0 0 98420088.68915054 -14927803.34495808 -14927803.34495808 -10597220.13932204 0 0 0 0 0 99173715.55188864 -14425733.18619674 -14425733.18619674 -10599079.43904488 0 0 0 0 0 100287344.1487916 -13246244.61290122 -13246244.61290122 -10261898.40494294 0 0 0 0 0 100889552.3613089 -12772102.24102973 -12772102.24102973 -10224744.89214567 0 0 0 0 0 101455922.8254965 -12303574.20435127 -12303574.20435127 -10173840.16853232 0 0 0 0 0 101980045.3328944 -11840996.41936857 -11840996.41936857 -10104913.31271937 0 0 0 0 0 102459319.6916857 -11389190.45888525 -11389190.45888525 -10026768.9194364 0 0 0 0 0 102621336.9711002 -10847591.43032517 -10847591.43032517 -9701001.766796317 0 0 0 0 0 103030707.3941263 -10427703.79100153 -10427703.79100153 -9614298.487585971 0 0 0 0 0 103409350.2816483 -10013844.1391771 -10013844.1391771 -9513891.457282543 0 0 0 0 0 103756784.4501143 -9612769.584601657 -9612769.584601657 -9412854.326299569 0 0 0 0 0 104078331.0117051 -9217463.851957921 -9217463.851957921 -9294615.343795409 0 0 0 0 0 104370118.7939838 -8836109.628428385 -8836109.628428385 -9179465.172053121 0 0 0 0 0 104991775.4906156 -7909960.337054384 -7909960.337054384 -8517477.195434038 0 0 0 0 0 104640310.6445151 -8462365.888649341 -8462365.888649341 -9054809.416724466 0 0 0 0 0 104836162.0519816 -7734051.452362665 -7734051.452362665 -8625725.699140934 0 0 0 0 0 105043354.1070877 -7403575.86877466 -7403575.86877466 -8489099.711103592 0 0 0 0 0 105216040.6767234 -7084721.583581343 -7084721.583581343 -8353116.435696441 0 0 0 0 0 105369270.4055071 -6779941.859868345 -6779941.859868345 -8208519.400387195 0 0 0 0 0 105505560.0744683 -6487441.312666281 -6487441.312666281 -8086288.952322413 0 0 0 0 0 105647005.1484807 -6095752.210589401 -6095752.210589401 -7658959.77713576 0 0 0 0 0 105517636.9095521 -5930504.650388402 -5930504.650388402 -7687171.484851683 0 0 0 0 0 105630101.0594389 -5661378.03228548 -5661378.03228548 -7553385.71059489 0 0 0 0 0 105730436.3018032 -5400387.095816808 -5400387.095816808 -7418066.118572832 0 0 0 0 0 105783346.5853453 -5095987.071019362 -5095987.071019362 -7055211.38268457 0 0 0 0 0 105670849.12413 -4942976.638448996 -4942976.638448996 -7049231.873659722 0 0 0 0 0 105741500.1080064 -4711571.389752742 -4711571.389752742 -6918523.252889476 0 0 0 0 0 105802482.5405355 -4488036.262196669 -4488036.262196669 -6787689.46637897 0 0 0 0 0 105854339.9773925 -4272174.335320501 -4272174.335320501 -6656972.513451707 0 0 0 0 0 105897780.41629 -4063850.991844738 -4063850.991844738 -6526588.106178586 0 0 0 0 0 105933463.1449922 -3863036.084860933 -3863036.084860933 -6396682.494714606 0 0 0 0 0 105961671.9733208 -3669558.865619649 -3669558.865619649 -6267531.778302879 0 0 0 0 0 105792601.7136616 -3539451.929560614 -3539451.929560614 -6078648.313251198 0 0 0 0 0 105811940.2105014 -3361826.74463969 -3361826.74463969 -5956207.881757646 0 0 0 0 0 105737885.1774607 -3205985.831143589 -3205985.831143589 -5723672.450510331 0 0 0 0 0 105659496.846314 -3082484.710181177 -3082484.710181177 -5664738.667307102 0 0 0 0 0 105666567.3573627 -2926079.675404653 -2926079.675404653 -5548064.280328841 0 0 0 0 0 105671242.5475691 -2782087.710675234 -2782087.710675234 -5428412.314692329 0 0 0 0 0 105667193.8442869 -2638048.296364266 -2638048.296364266 -5327452.978898699 0 0 0 0 0 105689468.3087268 -2486319.231706566 -2486319.231706566 -5165915.272131102 0 0 0 0 0 105649923.4628869 -2393081.803315497 -2393081.803315497 -5060775.01338698 0 0 0 0 0 105536490.391329 -2446536.34255835 -2446536.34255835 -5145751.859528949 0 0 0 0 0 22918431.24434458 -3442083.426741725 -3442083.426741725 -4692651.469223903 0 0 0 0 0 24383835.62175893 -5375284.7251543 -5375284.7251543 -4136832.618422071 0 0 0 0 0 26060244.55693493 -7159989.347268887 -7159989.347268887 -3778075.014127529 0 0 0 0 0 28433881.51632176 -8569653.625999162 -8569653.625999162 -3156107.306971851 0 0 0 0 0 30098467.95247308 -10557467.49437379 -10557467.49437379 -3350069.453669175 0 0 0 0 0 31870555.3623439 -12608759.86460094 -12608759.86460094 -3456345.490098762 0 0 0 0 0 33923958.2209079 -14510774.65237585 -14510774.65237585 -3625119.713660195 0 0 0 0 0 36162261.45015595 -16278039.40569219 -16278039.40569219 -3866694.4014975 0 0 0 0 0 42022016.95254393 -17396988.11979492 -17396988.11979492 -3289491.319044685 0 0 0 0 0 43226161.59750115 -19205528.0701535 -19205528.0701535 -3910086.699945721 0 0 0 0 0 45767199.83493836 -20467438.33289178 -20467438.33289178 -4371967.084637932 0 0 0 0 0 48383223.96165469 -21581324.1642693 -21581324.1642693 -4869323.540732379 0 0 0 0 0 52772831.77013154 -22128880.37091311 -22128880.37091311 -4909264.10341517 0 0 0 0 0 55357362.0425628 -22899653.96415371 -22899653.96415371 -5469311.324855699 0 0 0 0 0 57946312.67424991 -23534310.46132509 -23534310.46132509 -6037003.29714859 0 0 0 0 0 60536586.02723658 -24039758.52225153 -24039758.52225153 -6606495.619616932 0 0 0 0 0 63106030.17122701 -24423076.00033045 -24423076.00033045 -7171858.979385926 0 0 0 0 0 65647571.17588624 -24688523.2136634 -24688523.2136634 -7730828.977376788 0 0 0 0 0 68134746.77174726 -24843244.41677913 -24843244.41677913 -8275873.21444417 0 0 0 0 0 73420498.70683903 -23557822.50318405 -23557822.50318405 -7753671.032436412 0 0 0 0 0 73670200.57244082 -24231596.49308323 -24231596.49308323 -8858322.59041498 0 0 0 0 0 75861860.59409176 -24100282.55132331 -24100282.55132331 -9321603.057473671 0 0 0 0 0 77985910.27808741 -23899608.68436404 -23899608.68436404 -9753451.033688197 0 0 0 0 0 79972595.22703926 -23618798.51774693 -23618798.51774693 -10137176.97126405 0 0 0 0 0 81893411.76237033 -23289875.13435235 -23289875.13435235 -10497828.5780922 0 0 0 0 0 85726459.75383589 -21688876.52358381 -21688876.52358381 -9698658.956334485 0 0 0 0 0 85688728.22231694 -21942083.29734242 -21942083.29734242 -10667609.98586538 0 0 0 0 0 90421789.47099967 -19518225.94288516 -19518225.94288516 -9712767.538094541 0 0 0 0 0 96160352.34664798 -16780738.66873503 -16780738.66873503 -10181386.30438474 0 0 0 0 0 100736670.9460085 -13568218.61505689 -13568218.61505689 -10129963.61091044 0 0 0 0 0 100536630.1244107 -13428017.69579449 -13428017.69579449 -10551090.52270365 0 0 0 0 0 103503056.4775017 -10690221.53368891 -10690221.53368891 -9596350.146485997 0 0 0 0 0 104886568.5713578 -8099448.166083425 -8099448.166083425 -8925361.601823419 0 0 0 0 0 105898633.9482117 -6078170.093278651 -6078170.093278651 -7788712.422468523 0 0 0 0 0 106010741.0724629 -5062841.34700721 -5062841.34700721 -7160276.488742155 0 0 0 0 0 106083944.6857068 -3438879.077850085 -3438879.077850085 -6077645.270259367 0 0 0 0 0 105912899.1411123 -3152212.335684211 -3152212.335684211 -5781598.317791933 0 0 0 0 0 88999598.19945125 -20399105.40614041 -20399105.40614041 -9872272.388723943 0 0 0 0 0 21648797.93667023 -1341006.986395242 -1341006.986395242 -5371642.762665218 0 0 0 0 0 39822101.01840013 -17492725.3025093 -17492725.3025093 -3931339.201114906 0 0 0 0 0 52895443.04605468 -21933047.02413364 -21933047.02413364 -5013186.054543108 0 0 0 0 0 72665262.40327024 -24141361.17044983 -24141361.17044983 -8161998.282760167 0 0 0 0 0 85533076.75743659 -22203548.38464972 -22203548.38464972 -10103763.9865966 0 0 0 0 0 88960989.9204372 -20863706.01473619 -20863706.01473619 -10268552.8850868 0 0 0 0 0 88892714.53028916 -20544219.52727359 -20544219.52727359 -10738488.85264219 0 0 0 0 0 90308754.68941961 -19628872.93906707 -19628872.93906707 -10548488.57209396 0 0 0 0 0 91610206.05102457 -19144848.07838628 -19144848.07838628 -10728828.23626885 0 0 0 0 0 92843354.1015432 -18640365.29810908 -18640365.29810908 -10879465.22994837 0 0 0 0 0 94008243.25566363 -18120566.25260184 -18120566.25260184 -11003076.32422825 0 0 0 0 0 95106252.78802012 -17589273.17111425 -17589273.17111425 -11100665.37489122 0 0 0 0 0 95984725.64882739 -16739365.18303432 -16739365.18303432 -10818997.94376374 0 0 0 0 0 96924898.12238567 -16218609.42171683 -16218609.42171683 -10875036.36185235 0 0 0 0 0 97807484.60393102 -15694387.52387081 -15694387.52387081 -10907348.01920102 0 0 0 0 0 98634361.55592272 -15169229.87492082 -15169229.87492082 -10918123.95191365 0 0 0 0 0 99406497.19743071 -14646783.52141801 -14646783.52141801 -10912542.57068037 0 0 0 0 0 100128162.4855402 -14125899.20148154 -14125899.20148154 -10887249.4450236 0 0 0 0 0 101150602.8180906 -12936090.68516448 -12936090.68516448 -10504758.19409856 0 0 0 0 0 101725681.4300095 -12449373.86998369 -12449373.86998369 -10443541.92185525 0 0 0 0 0 102257668.8571809 -11969886.06297367 -11969886.06297367 -10368243.96412732 0 0 0 0 0 102749469.8284 -11499981.31601048 -11499981.31601048 -10280150.70255662 0 0 0 0 0 103200504.5857348 -11040858.37822889 -11040858.37822889 -10181881.48202756 0 0 0 0 0 103316718.8867247 -10511876.79725089 -10511876.79725089 -9843018.713581042 0 0 0 0 0 103698296.4954262 -10086221.3457001 -10086221.3457001 -9736148.826416383 0 0 0 0 0 104046977.4485129 -9671516.738704095 -9671516.738704095 -9621477.993998174 0 0 0 0 0 104369404.5324649 -9265567.008838063 -9265567.008838063 -9501246.555037603 0 0 0 0 0 104664142.2624199 -8870406.153601732 -8870406.153601732 -9370657.663372636 0 0 0 0 0 104931582.3879659 -8487475.634679856 -8487475.634679856 -9238419.609948864 0 0 0 0 0 105471464.7622743 -7589211.000381917 -7589211.000381917 -8572167.541417187 0 0 0 0 0 105176003.744219 -8115100.661375469 -8115100.661375469 -9101071.947180832 0 0 0 0 0 105316405.5192621 -7406257.301609792 -7406257.301609792 -8655112.143180335 0 0 0 0 0 105497599.8654546 -7074973.494147111 -7074973.494147111 -8501529.261969091 0 0 0 0 0 105649492.2534274 -6761755.50705322 -6761755.50705322 -8362343.33158511 0 0 0 0 0 105786647.7847809 -6460590.666699884 -6460590.666699884 -8205919.912508738 0 0 0 0 0 105905916.3053643 -6168552.128744667 -6168552.128744667 -8072799.589712687 0 0 0 0 0 106001419.8472142 -5801140.202128958 -5801140.202128958 -7659581.373947401 0 0 0 0 0 105873753.3089513 -5632069.304117372 -5632069.304117372 -7667824.817735045 0 0 0 0 0 105970728.904542 -5365751.729548932 -5365751.729548932 -7526300.804860492 0 0 0 0 0 106055132.5478473 -5108445.033164406 -5108445.033164406 -7383193.769468158 0 0 0 0 0 106073783.2396133 -4825322.781252156 -4825322.781252156 -7032979.909118883 0 0 0 0 0 105962669.8376168 -4668731.151433975 -4668731.151433975 -7009095.148645693 0 0 0 0 0 106019509.1411664 -4441426.38377345 -4441426.38377345 -6872539.507873549 0 0 0 0 0 106067136.1036941 -4222138.141486601 -4222138.141486601 -6736245.572957257 0 0 0 0 0 106106230.9733682 -4010716.440378448 -4010716.440378448 -6600485.293601553 0 0 0 0 0 106137514.3292598 -3806997.977459373 -3806997.977459373 -6465318.906478127 0 0 0 0 0 106161269.5880815 -3610863.831459025 -3610863.831459025 -6330999.585403166 0 0 0 0 0 106177998.3927737 -3422149.213589403 -3422149.213589403 -6198099.68335955 0 0 0 0 0 105998005.6112752 -3303436.622429231 -3303436.622429231 -6012362.888162337 0 0 0 0 0 106007392.5270184 -3130261.882253884 -3130261.882253884 -5886232.386403454 0 0 0 0 0 105912293.2566165 -2990825.62447605 -2990825.62447605 -5667517.230956773 0 0 0 0 0 105836044.9471328 -2866111.427426239 -2866111.427426239 -5596644.200830288 0 0 0 0 0 105832827.9969429 -2716689.205572848 -2716689.205572848 -5476306.445075058 0 0 0 0 0 105815397.9278256 -2584953.418994112 -2584953.418994112 -5360823.843363767 0 0 0 0 0 105922147.0930923 -2355730.853544589 -2355730.853544589 -5157624.580058157 0 0 0 0 0 105824234.8094295 -2277342.598096404 -2277342.598096404 -5059495.166328334 0 0 0 0 0 105698220.5037954 -2337531.888529836 -2337531.888529836 -5155217.428602661 0 0 0 0 0 20492564.66332771 -3598948.517099224 -3598948.517099224 -6275835.158880495 0 0 0 0 0 22117159.22432832 -5653215.679169868 -5653215.679169868 -5539947.875394252 0 0 0 0 0 23871619.90524258 -7601999.35103509 -7601999.35103509 -4903358.184794078 0 0 0 0 0 25627605.21296227 -8301085.267073561 -8301085.267073561 -4044170.76296577 0 0 0 0 0 27658788.11860753 -10129822.35966629 -10129822.35966629 -4399298.017951272 0 0 0 0 0 29365141.09127054 -12387059.91113797 -12387059.91113797 -4435683.375317111 0 0 0 0 0 31492694.22362335 -14388805.51678236 -14388805.51678236 -4540913.40687789 0 0 0 0 0 33779577.24729531 -16254975.92453218 -16254975.92453218 -4719433.762404622 0 0 0 0 0 36246583.0218064 -17975188.6730301 -17975188.6730301 -4969281.861531518 0 0 0 0 0 42549260.56398554 -18918929.18431083 -18918929.18431083 -4266767.764552927 0 0 0 0 0 43739440.32456274 -20736477.39658663 -20736477.39658663 -4973931.083518187 0 0 0 0 0 46460672.70115043 -21920903.24770571 -21920903.24770571 -5440963.043452777 0 0 0 0 0 49246648.0215091 -22950300.90955002 -22950300.90955002 -5942962.366968584 0 0 0 0 0 53752806.81989414 -23370087.93697225 -23370087.93697225 -5943780.043160189 0 0 0 0 0 56460822.11825561 -24050093.06716508 -24050093.06716508 -6503923.435328067 0 0 0 0 0 59157979.09411396 -24590818.28673393 -24590818.28673393 -7066617.341357188 0 0 0 0 0 61850842.3135429 -24999284.80318823 -24999284.80318823 -7625615.846338334 0 0 0 0 0 64508530.32834167 -25283857.74705731 -25283857.74705731 -8180193.565078435 0 0 0 0 0 67130161.01174521 -25454208.09479611 -25454208.09479611 -8723245.704267444 0 0 0 0 0 69682047.26123899 -25515962.62564133 -25515962.62564133 -9251417.565052588 0 0 0 0 0 75022222.12078409 -24090495.24543712 -24090495.24543712 -8631450.321039455 0 0 0 0 0 75228028.78091623 -24711167.89773701 -24711167.89773701 -9757378.310076999 0 0 0 0 0 77447329.88243206 -24497322.10444917 -24497322.10444917 -10192896.21889906 0 0 0 0 0 79570834.76193014 -24212713.39015627 -24212713.39015627 -10598196.4218162 0 0 0 0 0 81578257.45043306 -23864618.39328209 -23864618.39328209 -10948237.33431819 0 0 0 0 0 83490018.50845633 -23457649.59428215 -23457649.59428215 -11273469.03979198 0 0 0 0 0 87261389.75118487 -21790045.66285042 -21790045.66285042 -10397980.6539777 0 0 0 0 0 87193155.8020317 -21992522.44415836 -21992522.44415836 -11359416.31155883 0 0 0 0 0 91763392.67204404 -19483710.22718103 -19483710.22718103 -10299540.66315892 0 0 0 0 0 97302917.34880744 -16579123.31039776 -16579123.31039776 -10611397.20463432 0 0 0 0 0 101637180.0735832 -13260049.00068706 -13260049.00068706 -10400654.28868204 0 0 0 0 0 101426621.7843785 -13097307.82045485 -13097307.82045485 -10790712.46269257 0 0 0 0 0 104190524.3977885 -10345671.48482787 -10345671.48482787 -9744244.25775462 0 0 0 0 0 105398468.2729583 -7753596.102786059 -7753596.102786059 -8958341.363930125 0 0 0 0 0 106258379.5403682 -5771867.866677392 -5771867.866677392 -7782319.239071058 0 0 0 0 0 106303491.678914 -4782785.89625883 -4782785.89625883 -7130946.401355498 0 0 0 0 0 106277332.3415206 -3202161.094501847 -3202161.094501847 -6014530.7647325 0 0 0 0 0 106087224.7844322 -2931476.671475601 -2931476.671475601 -5718878.670586709 0 0 0 0 0 90430388.39332783 -20399830.36233354 -20399830.36233354 -10493753.70805135 0 0 0 0 0 19092875.41710394 -1403801.308767462 -1403801.308767462 -7050562.0726996 0 0 0 0 0 40357256.17792805 -19052020.35575099 -19052020.35575099 -4959096.441588121 0 0 0 0 0 54086504.95194013 -23144459.69212204 -23144459.69212204 -6017142.094219474 0 0 0 0 0 74344311.9179506 -24682480.09492226 -24682480.09492226 -9065555.489625668 0 0 0 0 0 87162125.8738838 -22300638.1063916 -22300638.1063916 -10832109.82745277 0 0 0 0 0 90454174.94108999 -20846708.14743837 -20846708.14743837 -10910576.62612706 0 0 0 0 0 90296042.94716026 -20499565.25042716 -20499565.25042716 -11348429.30165116 0 0 0 0 0 91631677.91662388 -19556655.25872248 -19556655.25872248 -11114314.34595589 0 0 0 0 0 92904313.24935019 -19028141.72970726 -19028141.72970726 -11261042.05446598 0 0 0 0 0 94108070.75545591 -18483966.33533023 -18483966.33533023 -11379619.53592382 0 0 0 0 0 95241618.60762472 -17927923.18096024 -17927923.18096024 -11471446.91242099 0 0 0 0 0 96307771.25560711 -17363985.51199405 -17363985.51199405 -11537507.24662931 0 0 0 0 0 97110328.4709473 -16507321.81589696 -16507321.81589696 -11223929.04588514 0 0 0 0 0 98018305.73869078 -15959594.38509362 -15959594.38509362 -11248022.23601842 0 0 0 0 0 98865268.88210234 -15410050.98752997 -15410050.98752997 -11245474.16845376 0 0 0 0 0 99654733.44393829 -14868505.41744553 -14868505.41744553 -11234799.672109 0 0 0 0 0 100394952.390018 -14324705.09823119 -14324705.09823119 -11199130.41318466 0 0 0 0 0 101080373.782795 -13788790.51258213 -13788790.51258213 -11147639.75444508 0 0 0 0 0 102010933.2402649 -12592675.06308749 -12592675.06308749 -10719809.55470602 0 0 0 0 0 102552829.8945753 -12095825.17910063 -12095825.17910063 -10634176.83312293 0 0 0 0 0 103050019.1195787 -11608710.88571798 -11608710.88571798 -10536380.78678879 0 0 0 0 0 103507897.2902035 -11133231.43075627 -11133231.43075627 -10428145.09591729 0 0 0 0 0 103928164.8801364 -10668802.63679237 -10668802.63679237 -10310454.14177841 0 0 0 0 0 103999740.4286308 -10153558.08065835 -10153558.08065835 -9959433.746683139 0 0 0 0 0 104350944.748578 -9725827.810672238 -9725827.810672238 -9835829.518527115 0 0 0 0 0 104672493.6153044 -9308079.275470531 -9308079.275470531 -9703906.441906009 0 0 0 0 0 104966109.5285858 -8901371.930561217 -8901371.930561217 -9566530.24234773 0 0 0 0 0 105235105.9962597 -8506744.167192006 -8506744.167192006 -9423557.063831991 0 0 0 0 0 105477865.7913206 -8124409.921644226 -8124409.921644226 -9276184.91483872 0 0 0 0 0 105935131.9719414 -7256650.419158894 -7256650.419158894 -8608244.915432336 0 0 0 0 0 105697425.9275572 -7753489.113293755 -7753489.113293755 -9125238.830003681 0 0 0 0 0 105779808.9485459 -7064457.554026694 -7064457.554026694 -8665384.978819134 0 0 0 0 0 105941323.4182665 -6737531.027196839 -6737531.027196839 -8505849.497806536 0 0 0 0 0 106079463.0469342 -6425057.555704534 -6425057.555704534 -8361174.451784286 0 0 0 0 0 106212497.1321594 -6121530.174464816 -6121530.174464816 -8180012.251185042 0 0 0 0 0 106295478.7065843 -5842936.815792684 -5842936.815792684 -8037185.615575403 0 0 0 0 0 106345840.9078282 -5500625.218595191 -5500625.218595191 -7644337.282640839 0 0 0 0 0 106218554.0383216 -5326213.440704366 -5326213.440704366 -7633990.683591257 0 0 0 0 0 106298919.9311431 -5063046.398951542 -5063046.398951542 -7482953.962707264 0 0 0 0 0 106367020.2086178 -4810596.844425932 -4810596.844425932 -7333256.233951903 0 0 0 0 0 106352096.0845129 -4549384.111981 -4549384.111981 -6997204.672131816 0 0 0 0 0 106242696.6660916 -4389694.729666089 -4389694.729666089 -6955469.074456609 0 0 0 0 0 106285820.8991499 -4166959.747923655 -4166959.747923655 -6813425.755814204 0 0 0 0 0 106320259.5359907 -3952475.462538606 -3952475.462538606 -6672124.341300252 0 0 0 0 0 106346755.6210443 -3746003.165134164 -3746003.165134164 -6531742.515332234 0 0 0 0 0 106365882.0763197 -3547291.93826929 -3547291.93826929 -6392397.840417372 0 0 0 0 0 106378065.9207074 -3356205.199748663 -3356205.199748663 -6254019.924386903 0 0 0 0 0 106383570.7009696 -3172638.8807089 -3172638.8807089 -6117736.690849273 0 0 0 0 0 106193400.5242385 -3065351.194429346 -3065351.194429346 -5935751.206969813 0 0 0 0 0 106192934.2510331 -2896950.397985775 -2896950.397985775 -5806298.99049271 0 0 0 0 0 106075699.6920884 -2775783.159406513 -2775783.159406513 -5603380.885583125 0 0 0 0 0 106006714.4425456 -2649606.556728147 -2649606.556728147 -5513834.545777903 0 0 0 0 0 106005113.5914611 -2500428.902492615 -2500428.902492615 -5365954.09622307 0 0 0 0 0 106028647.7464854 -2394353.049058062 -2394353.049058062 -5235899.136282888 0 0 0 0 0 105987349.7780843 -2162065.470484681 -2162065.470484681 -5056636.012608298 0 0 0 0 0 105862645.2687184 -2222037.199049849 -2222037.199049849 -5152508.57479305 0 0 0 0 0 17867280.32583643 -3772427.832288996 -3772427.832288996 -8112697.275804763 0 0 0 0 0 19661104.0283015 -5838952.009623596 -5838952.009623596 -7195769.481491209 0 0 0 0 0 21850365.80010809 -7834029.464269215 -7834029.464269215 -6258540.740350615 0 0 0 0 0 24429241.61169554 -10011693.77431194 -10011693.77431194 -5738909.556497547 0 0 0 0 0 26821207.74003693 -12137886.11722665 -12137886.11722665 -5606176.906205615 0 0 0 0 0 28950425.06788905 -14217437.67997309 -14217437.67997309 -5621618.268577697 0 0 0 0 0 31303974.38690662 -16179569.53278288 -16179569.53278288 -5719584.464557638 0 0 0 0 0 33837176.02203175 -17998146.22024708 -17998146.22024708 -5892999.565621626 0 0 0 0 0 36535354.87249704 -19663081.29995788 -19663081.29995788 -6138097.301805091 0 0 0 0 0 43294329.47550379 -20412574.94441593 -20412574.94441593 -5300203.471461434 0 0 0 0 0 44449667.82104068 -22233013.70839766 -22233013.70839766 -6089679.071698839 0 0 0 0 0 47349813.56489465 -23330215.47920127 -23330215.47920127 -6556457.421456804 0 0 0 0 0 50299434.57325154 -24266346.87775323 -24266346.87775323 -7053902.919526479 0 0 0 0 0 54903258.31524044 -24552978.47329707 -24552978.47329707 -7014487.530300061 0 0 0 0 0 57729921.04201774 -25137063.53020074 -25137063.53020074 -7569260.213012247 0 0 0 0 0 60532814.44329564 -25575802.70844068 -25575802.70844068 -8117952.474812707 0 0 0 0 0 63316778.23271077 -25882363.26396341 -25882363.26396341 -8662467.805846967 0 0 0 0 0 66064817.05218395 -26067283.19620024 -26067283.19620024 -9198854.497866457 0 0 0 0 0 68757298.33068928 -26138387.74748366 -26138387.74748366 -9725365.100293733 0 0 0 0 0 71357430.18736307 -26099200.39886991 -26099200.39886991 -10221778.85516973 0 0 0 0 0 76725893.44657196 -24544850.76162816 -24544850.76162816 -9512486.84093154 0 0 0 0 0 76887105.94097263 -25108923.19302338 -25108923.19302338 -10651262.09530427 0 0 0 0 0 79119943.5542675 -24809816.41160826 -24809816.41160826 -11053879.63518084 0 0 0 0 0 81245792.68737763 -24439790.66963613 -24439790.66963613 -11424230.3933174 0 0 0 0 0 83265682.1067944 -24010247.85754435 -24010247.85754435 -11755652.23789643 0 0 0 0 0 85174730.60384424 -23533779.06854661 -23533779.06854661 -12029088.8641974 0 0 0 0 0 88848695.02404344 -21816610.77012299 -21816610.77012299 -11082632.45144516 0 0 0 0 0 88742966.8370665 -21968223.45725501 -21968223.45725501 -12029746.03862134 0 0 0 0 0 93134362.42198583 -19391008.59531296 -19391008.59531296 -10864025.27565429 0 0 0 0 0 98452964.68323827 -16328407.86286768 -16328407.86286768 -11017366.47111306 0 0 0 0 0 102529935.6997834 -12916572.09400061 -12916572.09400061 -10644165.85900384 0 0 0 0 0 102310400.1134494 -12734025.45162532 -12734025.45162532 -11002148.51531399 0 0 0 0 0 104860827.6563772 -9981755.832376642 -9981755.832376642 -9870175.680808943 0 0 0 0 0 105896021.9010455 -7394138.112558071 -7394138.112558071 -8969403.218023911 0 0 0 0 0 106611019.3411743 -5459317.672153824 -5459317.672153824 -7763185.117439787 0 0 0 0 0 106583386.1583187 -4497687.003750027 -4497687.003750027 -7087572.638172421 0 0 0 0 0 106460331.665945 -2963673.626184632 -2963673.626184632 -5941104.585114073 0 0 0 0 0 106253651.4553242 -2708193.659134424 -2708193.659134424 -5644905.619254896 0 0 0 0 0 106093606.8189864 -2232497.678763038 -2232497.678763038 -5140484.027266791 0 0 0 0 0 91887201.2613102 -20330644.79460275 -20330644.79460275 -11104664.07711387 0 0 0 0 0 16447296.095517 -1460185.258331913 -1460185.258331913 -8875805.188348312 0 0 0 0 0 41110659.62376409 -20584896.56064226 -20584896.56064226 -6042894.006579917 0 0 0 0 0 55457954.35555653 -24296429.09280293 -24296429.09280293 -7056619.580976002 0 0 0 0 0 76128207.26771522 -25140882.64056566 -25140882.64056566 -9969658.960874163 0 0 0 0 0 88827874.83646254 -22305895.64641726 -22305895.64641726 -11533346.41749133 0 0 0 0 0 91978184.28817502 -20763878.45308537 -20763878.45308537 -11525226.13325734 0 0 0 0 0 91732828.89308845 -20390524.6820465 -20390524.6820465 -11926473.29806598 0 0 0 0 0 92975767.31094506 -19421376.76247706 -19421376.76247706 -11655516.00478473 0 0 0 0 0 94220503.17201392 -18851662.93648895 -18851662.93648895 -11767042.84006637 0 0 0 0 0 95391511.78162573 -18269912.59772583 -18269912.59772583 -11851242.23626672 0 0 0 0 0 96490890.69821784 -17680308.29525518 -17680308.29525518 -11908828.12184143 0 0 0 0 0 97518302.85478261 -17084421.84792073 -17084421.84792073 -11941160.36140417 0 0 0 0 0 98245922.17840886 -16227314.01877336 -16227314.01877336 -11597748.99456857 0 0 0 0 0 99114670.49238397 -15651531.03748747 -15651531.03748747 -11584319.70299436 0 0 0 0 0 99923239.09254588 -15086174.05639943 -15086174.05639943 -11565642.99165539 0 0 0 0 0 100681436.6681627 -14520905.18563744 -14520905.18563744 -11518599.6668473 0 0 0 0 0 101380863.2308956 -13964534.59622804 -13964534.59622804 -11456713.59094349 0 0 0 0 0 102030053.1253123 -13409979.86347039 -13409979.86347039 -11372005.88970825 0 0 0 0 0 102863616.9343352 -12217186.88198451 -12217186.88198451 -10904514.77073245 0 0 0 0 0 103367827.5040309 -11713128.65043007 -11713128.65043007 -10795927.72539468 0 0 0 0 0 103830231.6678022 -11220862.57119956 -11220862.57119956 -10676741.87430285 0 0 0 0 0 104254003.5283135 -10741194.63498459 -10741194.63498459 -10548401.13693821 0 0 0 0 0 104642006.4450317 -10273625.09998823 -10273625.09998823 -10411201.30407882 0 0 0 0 0 104666912.0977299 -9774631.022908034 -9774631.022908034 -10050183.75106529 0 0 0 0 0 104989264.1466962 -9344787.286618451 -9344787.286618451 -9909336.511931777 0 0 0 0 0 105282031.3101828 -8926611.355781343 -8926611.355781343 -9761449.335532296 0 0 0 0 0 105548316.2464322 -8521066.003282065 -8521066.003282065 -9608784.673742892 0 0 0 0 0 105789571.5406308 -8128129.778425906 -8128129.778425906 -9452156.478938112 0 0 0 0 0 106006939.5792741 -7747421.565004495 -7747421.565004495 -9291183.928902535 0 0 0 0 0 106383254.5800523 -6911764.852178208 -6911764.852178208 -8624593.694394855 0 0 0 0 0 106201109.1166419 -7379636.328725735 -7379636.328725735 -9126871.820764823 0 0 0 0 0 106228147.3079489 -6711557.405888438 -6711557.405888438 -8654475.231118256 0 0 0 0 0 106368030.0824013 -6387739.342028067 -6387739.342028067 -8494612.525739228 0 0 0 0 0 106493962.3667047 -6084107.331093525 -6084107.331093525 -8342838.587468855 0 0 0 0 0 106609612.3239707 -5786712.926405404 -5786712.926405404 -8136458.642298757 0 0 0 0 0 106653515.026875 -5529662.964541563 -5529662.964541563 -8015981.352440365 0 0 0 0 0 106683249.8659557 -5188787.805453087 -5188787.805453087 -7615482.653484656 0 0 0 0 0 106555540.2060638 -5011890.615417346 -5011890.615417346 -7575049.86141832 0 0 0 0 0 106612764.0429732 -4755821.672152882 -4755821.672152882 -7423861.035902319 0 0 0 0 0 106665799.5452106 -4507707.816679368 -4507707.816679368 -7268716.515359888 0 0 0 0 0 106617960.786177 -4268954.56992815 -4268954.56992815 -6947879.531593836 0 0 0 0 0 106510589.6407683 -4106349.462577303 -4106349.462577303 -6888117.996581238 0 0 0 0 0 106539953.716735 -3888915.468450136 -3888915.468450136 -6741195.645773467 0 0 0 0 0 106561412.6969606 -3679779.544015776 -3679779.544015776 -6595408.203918042 0 0 0 0 0 106575499.0839282 -3478627.590974621 -3478627.590974621 -6450888.331844415 0 0 0 0 0 106582818.5205612 -3285284.225119408 -3285284.225119408 -6307714.580884241 0 0 0 0 0 106583689.7893458 -3099605.699267001 -3099605.699267001 -6165974.005276074 0 0 0 0 0 106578458.9958601 -2921378.01983374 -2921378.01983374 -6026345.593943649 0 0 0 0 0 106378531.1089903 -2825741.866724226 -2825741.866724226 -5849188.769502483 0 0 0 0 0 106368254.2549589 -2662208.534442435 -2662208.534442435 -5716874.544700813 0 0 0 0 0 106231969.5187302 -2554575.430121596 -2554575.430121596 -5524271.141800021 0 0 0 0 0 106164701.046341 -2428284.377814401 -2428284.377814401 -5424693.683268791 0 0 0 0 0 106141856.6677717 -2296555.94822937 -2296555.94822937 -5298439.945224999 0 0 0 0 0 106025624.9277637 -2104146.878705518 -2104146.878705518 -5150501.1366601 0 0 0 0 0 106139803.2945301 -2049647.139506632 -2049647.139506632 -5061521.699129705 0 0 0 0 0 15351040.37593854 -3940909.612415527 -3940909.612415527 -10096638.77225585 0 0 0 0 0 16446301.93189644 -6052092.185839967 -6052092.185839967 -8895239.522708278 0 0 0 0 0 18778375.99090293 -7977885.841223521 -7977885.841223521 -7991569.639630543 0 0 0 0 0 22102769.94621539 -9732252.364734441 -9732252.364734441 -7080872.308411471 0 0 0 0 0 24101991.19500148 -11830109.79415688 -11830109.79415688 -7014071.514316206 0 0 0 0 0 26335682.94577806 -13987541.92369012 -13987541.92369012 -6903261.842426295 0 0 0 0 0 28743274.28609879 -16037836.73143246 -16037836.73143246 -6883081.041370029 0 0 0 0 0 31358660.73702371 -17949139.63404373 -17949139.63404373 -6954943.160540377 0 0 0 0 0 34155544.79839161 -19706129.17100604 -19706129.17100604 -7112166.890281946 0 0 0 0 0 37089278.98439163 -21299774.44266317 -21299774.44266317 -7346604.452679993 0 0 0 0 0 44243411.63203113 -21867540.03895376 -21867540.03895376 -6387112.858007768 0 0 0 0 0 45375468.33161033 -23676082.39786242 -23676082.39786242 -7242213.249928747 0 0 0 0 0 48450463.23330079 -24677307.57513537 -24677307.57513537 -7701770.75355039 0 0 0 0 0 51551413.59688833 -25511254.59589512 -25511254.59589512 -8189483.117616871 0 0 0 0 0 56239962.1138224 -25668661.08472107 -25668661.08472107 -8108864.463308547 0 0 0 0 0 59175818.71770934 -26145820.086401 -26145820.086401 -8652443.841408323 0 0 0 0 0 62077008.17191061 -26480082.37572057 -26480082.37572057 -9182926.641723372 0 0 0 0 0 64940069.85639692 -26683003.49829624 -26683003.49829624 -9708035.68357298 0 0 0 0 0 67753782.49129923 -26765009.53816015 -26765009.53816015 -10221685.99760888 0 0 0 0 0 70513220.42571732 -26734264.70186101 -26734264.70186101 -10716806.0917326 0 0 0 0 0 73158476.71565586 -26591605.52430119 -26591605.52430119 -11183690.63345705 0 0 0 0 0 78527556.26661585 -24915934.70643247 -24915934.70643247 -10390304.80923519 0 0 0 0 0 78641639.05676419 -25416657.04368608 -25416657.04368608 -11530305.27288218 0 0 0 0 0 80875953.94934739 -25031115.32469354 -25031115.32469354 -11895692.60531299 0 0 0 0 0 83011263.75825593 -24580061.09038372 -24580061.09038372 -12223256.50858592 0 0 0 0 0 85044812.11666311 -24077233.02123053 -24077233.02123053 -12513527.59333479 0 0 0 0 0 86917978.71912983 -23523449.26019844 -23523449.26019844 -12744632.5193141 0 0 0 0 0 90485964.86281432 -21764825.56734074 -21764825.56734074 -11746328.35450614 0 0 0 0 0 90342596.20312285 -21860263.64386566 -21860263.64386566 -12661670.8128172 0 0 0 0 0 94534364.71887578 -19236942.58763927 -19236942.58763927 -11404522.26843253 0 0 0 0 0 99610308.6409591 -16030821.35000337 -16030821.35000337 -11394443.31738133 0 0 0 0 0 103414624.5358455 -12541794.04884737 -12541794.04884737 -10860620.14344475 0 0 0 0 0 103185808.2774265 -12336886.70659465 -12336886.70659465 -11180870.42290991 0 0 0 0 0 105515415.4439887 -9596097.820058389 -9596097.820058389 -9968815.176904431 0 0 0 0 0 106374472.9279536 -7024693.657982805 -7024693.657982805 -8959921.81828575 0 0 0 0 0 106958919.1624076 -5139768.86427383 -5139768.86427383 -7725776.824067566 0 0 0 0 0 106850705.7825223 -4208280.446423112 -4208280.446423112 -7030042.416987271 0 0 0 0 0 106632944.7247942 -2724025.29658728 -2724025.29658728 -5857553.967347606 0 0 0 0 0 106414070.0014421 -2482716.121372816 -2482716.121372816 -5560306.273517348 0 0 0 0 0 106123118.3259501 -2166842.581204823 -2166842.581204823 -5188491.246004251 0 0 0 0 0 93383955.08254693 -20203701.80245728 -20203701.80245728 -11687744.3041526 0 0 0 0 0 13861497.31044241 -1511777.39522402 -1511777.39522402 -11304006.57684603 0 0 0 0 0 42080535.69549745 -22067444.32639474 -22067444.32639474 -7183063.438127077 0 0 0 0 0 57013555.17389761 -25375773.93098507 -25375773.93098507 -8122857.127651238 0 0 0 0 0 78020221.24139462 -25509741.94685565 -25509741.94685565 -10867889.44252928 0 0 0 0 0 90533345.02094486 -22234972.02321527 -22234972.02321527 -12214084.19722213 0 0 0 0 0 93535686.04055755 -20608920.04604791 -20608920.04604791 -12120810.47727787 0 0 0 0 0 93197867.78609131 -20207795.77101593 -20207795.77101593 -12483284.95040073 0 0 0 0 0 94348022.65938009 -19221863.05502933 -19221863.05502933 -12167865.56466019 0 0 0 0 0 95556820.73433165 -18613773.9949725 -18613773.9949725 -12243073.97689248 0 0 0 0 0 96690495.87504488 -17997659.86640914 -17997659.86640914 -12290231.60885198 0 0 0 0 0 97749635.69336635 -17376197.12751642 -17376197.12751642 -12311671.50410543 0 0 0 0 0 98734996.6829779 -16753360.66765998 -16753360.66765998 -12311244.30580878 0 0 0 0 0 99385097.35992578 -15898100.62570411 -15898100.62570411 -11948874.6977572 0 0 0 0 0 100217590.4551821 -15298594.38843321 -15298594.38843321 -11894592.69661696 0 0 0 0 0 100990074.0459791 -14712612.95213659 -14712612.95213659 -11844300.32291696 0 0 0 0 0 101707561.7290017 -14130954.97516167 -14130954.97516167 -11772966.8010309 0 0 0 0 0 102366442.7856152 -13556435.50783996 -13556435.50783996 -11670116.17448401 0 0 0 0 0 102965210.948546 -13002619.91849427 -13002619.91849427 -11575874.98603213 0 0 0 0 0 103702019.37083 -11812455.66678316 -11812455.66678316 -11059000.67341478 0 0 0 0 0 104169626.67389 -11302721.51320636 -11302721.51320636 -10927522.38654998 0 0 0 0 0 104595747.8548389 -10807537.93493423 -10807537.93493423 -10788087.51892388 0 0 0 0 0 104985485.193661 -10324992.65059572 -10324992.65059572 -10639688.87603335 0 0 0 0 0 105339939.232318 -9855595.163532022 -9855595.163532022 -10483549.94031513 0 0 0 0 0 105318567.8992209 -9375212.677281305 -9375212.677281305 -10114566.7234813 0 0 0 0 0 105610924.0259747 -8945565.765604611 -8945565.765604611 -9956942.121513866 0 0 0 0 0 105875206.9495333 -8529046.962458324 -8529046.962458324 -9794296.495756844 0 0 0 0 0 106113575.3223151 -8125334.119781367 -8125334.119781367 -9627142.394309586 0 0 0 0 0 106327716.6164019 -7734972.489538877 -7734972.489538877 -9456389.283376314 0 0 0 0 0 106519258.1830121 -7357964.730877338 -7357964.730877338 -9282398.567386569 0 0 0 0 0 106816696.5587967 -6555747.077825579 -6555747.077825579 -8619892.431791194 0 0 0 0 0 106688043.7892244 -6994251.675877121 -6994251.675877121 -9106057.006562937 0 0 0 0 0 106662092.3201208 -6348826.807724348 -6348826.807724348 -8622022.365539026 0 0 0 0 0 106788868.5076093 -6032080.621726644 -6032080.621726644 -8454303.075239584 0 0 0 0 0 106897787.1134226 -5728721.769225211 -5728721.769225211 -8277093.904986311 0 0 0 0 0 106973036.1617978 -5457078.313526616 -5457078.313526616 -8104952.183790684 0 0 0 0 0 107013003.3410685 -5193911.115589704 -5193911.115589704 -7961606.042160556 0 0 0 0 0 107001869.3282746 -4879583.278495231 -4879583.278495231 -7582579.943073977 0 0 0 0 0 106874220.5504059 -4692627.435843991 -4692627.435843991 -7506289.726535805 0 0 0 0 0 106912700.4045691 -4442525.394117714 -4442525.394117714 -7350106.836386743 0 0 0 0 0 106950012.4351393 -4201465.362204919 -4201465.362204919 -7189878.876235698 0 0 0 0 0 106870477.579081 -3984589.721078811 -3984589.721078811 -6885010.49575724 0 0 0 0 0 106765479.6446855 -3819751.746019734 -3819751.746019734 -6807335.1331249 0 0 0 0 0 106781493.87595 -3608105.326262711 -3608105.326262711 -6656039.395821499 0 0 0 0 0 106790249.4490414 -3404671.952972411 -3404671.952972411 -6506236.202887436 0 0 0 0 0 106792238.6231114 -3209234.618230503 -3209234.618230503 -6357985.760950653 0 0 0 0 0 106787861.4925566 -3021635.693352174 -3021635.693352174 -6211491.034748756 0 0 0 0 0 106777680.1092702 -2841711.994234433 -2841711.994234433 -6066794.977673049 0 0 0 0 0 106762072.3149888 -2669245.688294615 -2669245.688294615 -5923946.92259459 0 0 0 0 0 106553226.5826606 -2585238.180643554 -2585238.180643554 -5753582.982304519 0 0 0 0 0 106533579.5693626 -2426653.560778298 -2426653.560778298 -5620038.10335801 0 0 0 0 0 106372647.8125302 -2335991.467879868 -2335991.467879868 -5440618.003617495 0 0 0 0 0 106329284.2871039 -2197766.406434997 -2197766.406434997 -5315657.162597327 0 0 0 0 0 106331444.9485176 -2052967.030734103 -2052967.030734103 -5181006.497056199 0 0 0 0 0 106186140.7598302 -1984441.205476199 -1984441.205476199 -5151623.203427269 0 0 0 0 0 106306691.5266709 -1922430.633525146 -1922430.633525146 -5047068.595558802 0 0 0 0 0 12890759.14736447 -3768783.273554128 -3768783.273554128 -12559342.88655716 0 0 0 0 0 14305473.86427646 -6170997.649986043 -6170997.649986043 -10864956.90783264 0 0 0 0 0 16711657.8497078 -8421888.471437849 -8421888.471437849 -9585958.818025054 0 0 0 0 0 19076923.86307998 -9161910.411095181 -9161910.411095181 -8186647.055561804 0 0 0 0 0 21557377.63902723 -11303409.34467617 -11303409.34467617 -8674882.390394628 0 0 0 0 0 23573959.44729792 -13666470.84557696 -13666470.84557696 -8384481.95615333 0 0 0 0 0 26097854.19000359 -15804975.19717263 -15804975.19717263 -8243579.243165324 0 0 0 0 0 28772819.11764553 -17815997.58318921 -17815997.58318921 -8195078.177317086 0 0 0 0 0 31645483.47754419 -19672287.35666692 -19672287.35666692 -8241339.581035012 0 0 0 0 0 34684380.65660987 -21363111.76683598 -21363111.76683598 -8375771.895794609 0 0 0 0 0 37856656.60312927 -22879244.2838432 -22879244.2838432 -8590526.113835076 0 0 0 0 0 45397394.20740808 -23263463.5436655 -23263463.5436655 -7516790.002183375 0 0 0 0 0 46516129.68598451 -25049119.8677946 -25049119.8677946 -8420838.670513034 0 0 0 0 0 49752242.20376983 -25947455.49564173 -25947455.49564173 -8867091.837108821 0 0 0 0 0 52998950.55055835 -26674920.8094717 -26674920.8094717 -9340502.794815004 0 0 0 0 0 57751497.89816761 -26703446.56478174 -26703446.56478174 -9218765.496214442 0 0 0 0 0 60792896.6959063 -27069664.36638464 -27069664.36638464 -9740542.639171518 0 0 0 0 0 63786912.97605328 -27294946.25460704 -27294946.25460704 -10250892.45267052 0 0 0 0 0 66720517.22210918 -27390442.5526186 -27390442.5526186 -10752965.51429791 0 0 0 0 0 69598030.92661056 -27367630.00094854 -27367630.00094854 -11240048.85651257 0 0 0 0 0 72375111.17478132 -27228233.57140598 -27228233.57140598 -11699747.22573043 0 0 0 0 0 75054560.17800413 -26984335.80319874 -26984335.80319874 -12132426.86449144 0 0 0 0 0 80419372.67161573 -25195326.5444046 -25195326.5444046 -11255653.10901442 0 0 0 0 0 80485129.42656785 -25628851.9281669 -25628851.9281669 -12387341.3449714 0 0 0 0 0 82715778.98020524 -25159370.76223677 -25159370.76223677 -12712389.39295637 0 0 0 0 0 84842392.68985964 -24628519.67272238 -24628519.67272238 -12991553.45074875 0 0 0 0 0 86845066.76448081 -24059522.68974258 -24059522.68974258 -13246915.01271995 0 0 0 0 0 88705892.85342179 -23446941.25880563 -23446941.25880563 -13435519.12408076 0 0 0 0 0 92132289.40340258 -21635172.98313848 -21635172.98313848 -12386442.57247017 0 0 0 0 0 91970873.87738743 -21686809.92340975 -21686809.92340975 -13264876.74070025 0 0 0 0 0 95948786.50410755 -19016214.91150595 -19016214.91150595 -11921460.4851946 0 0 0 0 0 100762827.3381743 -15688036.86878902 -15688036.86878902 -11740604.23803005 0 0 0 0 0 104283008.6490963 -12134055.6547247 -12134055.6547247 -11049842.76019426 0 0 0 0 0 104050160.6836768 -11906135.80807838 -11906135.80807838 -11324629.9011793 0 0 0 0 0 106151727.631882 -9190431.136910211 -9190431.136910211 -10041533.37564727 0 0 0 0 0 106836504.7029161 -6643160.993037553 -6643160.993037553 -8928334.619964145 0 0 0 0 0 107273265.0148263 -4819594.673445777 -4819594.673445777 -7682850.48082038 0 0 0 0 0 107103688.9289315 -3915128.397881062 -3915128.397881062 -6958992.215174697 0 0 0 0 0 106795080.7100362 -2484467.689624935 -2484467.689624935 -5764315.154468647 0 0 0 0 0 106574358.21242 -2250010.818656364 -2250010.818656364 -5458607.397094672 0 0 0 0 0 94895874.89900219 -19996669.94419311 -19996669.94419311 -12243809.4744041 0 0 0 0 0 11169782.18146203 -1532222.214372409 -1532222.214372409 -13945161.54178436 0 0 0 0 0 43272409.25514568 -23482179.87306462 -23482179.87306462 -8353935.439552534 0 0 0 0 0 58752420.97985563 -26371725.5640303 -26371725.5640303 -9204337.26967855 0 0 0 0 0 80005261.69646481 -25782533.00742016 -25782533.00742016 -11748271.54503756 0 0 0 0 0 92237857.05911265 -22090438.02461178 -22090438.02461178 -12846261.74851638 0 0 0 0 0 95116153.37418796 -20381012.93264889 -20381012.93264889 -12676093.90758402 0 0 0 0 0 94691917.60572542 -19959161.02616763 -19959161.02616763 -12994145.28456228 0 0 0 0 0 95741955.75840324 -18959733.2576722 -18959733.2576722 -12644289.26678512 0 0 0 0 0 96908333.79736784 -18315598.44552151 -18315598.44552151 -12682708.91636601 0 0 0 0 0 97998916.71590178 -17667883.73074703 -17667883.73074703 -12694841.47524448 0 0 0 0 0 99016801.45093727 -17017237.0174705 -17017237.0174705 -12683239.63775078 0 0 0 0 0 99967064.96088383 -16361604.4637053 -16361604.4637053 -12649052.63373031 0 0 0 0 0 100514722.3829004 -15515340.39727225 -15515340.39727225 -12251177.46504716 0 0 0 0 0 101320486.8824586 -14895043.42326738 -14895043.42326738 -12174730.21904455 0 0 0 0 0 102053440.9569231 -14287692.24233147 -14287692.24233147 -12088335.61758811 0 0 0 0 0 102730526.3738557 -13696668.01459236 -13696668.01459236 -11984572.63759153 0 0 0 0 0 103342131.5630532 -13114847.51559024 -13114847.51559024 -11864473.3967092 0 0 0 0 0 103908424.1606736 -12544063.1894285 -12544063.1894285 -11732757.76649205 0 0 0 0 0 104525156.917278 -11378627.35879246 -11378627.35879246 -11180522.52193157 0 0 0 0 0 104954135.7268138 -10867443.59415115 -10867443.59415115 -11029381.22007301 0 0 0 0 0 105345193.4678568 -10369453.68042631 -10369453.68042631 -10868988.36037695 0 0 0 0 0 105699915.16408 -9885756.205102397 -9885756.205102397 -10700995.73750125 0 0 0 0 0 106020747.5875261 -9416640.985028544 -9416640.985028544 -10526596.00924919 0 0 0 0 0 105953093.0122629 -8957819.904507937 -8957819.904507937 -10152338.53075012 0 0 0 0 0 106215604.6072316 -8529758.866773192 -8529758.866773192 -9978722.038629971 0 0 0 0 0 106450833.9145073 -8115368.613899126 -8115368.613899126 -9801065.217900187 0 0 0 0 0 106661335.922456 -7714877.976339395 -7714877.976339395 -9620013.461455312 0 0 0 0 0 106848503.9138408 -7328510.649196198 -7328510.649196198 -9436179.311624218 0 0 0 0 0 107013167.1246888 -6956072.451557938 -6956072.451557938 -9249938.418743873 0 0 0 0 0 107233876.7588964 -6189000.555685564 -6189000.555685564 -8593940.132136252 0 0 0 0 0 107156456.3020284 -6597317.807805299 -6597317.807805299 -9062503.422953948 0 0 0 0 0 107081975.6709383 -5977710.384244662 -5977710.384244662 -8569817.730053056 0 0 0 0 0 107187814.2968788 -5667549.692320378 -5667549.692320378 -8393068.246768381 0 0 0 0 0 107277218.0121823 -5371081.451110008 -5371081.451110008 -8204963.86189097 0 0 0 0 0 107353985.5748537 -5084925.208848423 -5084925.208848423 -8026383.475501961 0 0 0 0 0 107404438.9214795 -4802479.208501356 -4802479.208501356 -7850351.808151429 0 0 0 0 0 107294449.5955395 -4561807.950178774 -4561807.950178774 -7523030.476321911 0 0 0 0 0 107182808.6743786 -4362499.898560713 -4362499.898560713 -7419330.946807986 0 0 0 0 0 107202439.8041964 -4122178.223130163 -4122178.223130163 -7264974.501424382 0 0 0 0 0 107229406.8120056 -3884818.568659296 -3884818.568659296 -7086444.397689249 0 0 0 0 0 107109314.3954304 -3697278.320926834 -3697278.320926834 -6808509.983629278 0 0 0 0 0 107007014.8097394 -3530779.444331002 -3530779.444331002 -6713363.709534049 0 0 0 0 0 107010180.1676022 -3325175.978122456 -3325175.978122456 -6558101.13660137 0 0 0 0 0 107006579.6977885 -3127810.633359696 -3127810.633359696 -6404688.771890766 0 0 0 0 0 106996668.8005812 -2938474.195475521 -2938474.195475521 -6253227.479202081 0 0 0 0 0 106980927.2579552 -2756933.755221131 -2756933.755221131 -6103819.67476623 0 0 0 0 0 106959900.3907156 -2583054.423670176 -2583054.423670176 -5956311.903467543 0 0 0 0 0 106933739.5090284 -2417049.02195075 -2417049.02195075 -5810615.696602816 0 0 0 0 0 106717389.0207137 -2345010.625748843 -2345010.625748843 -5648689.513322736 0 0 0 0 0 106684957.2005818 -2188110.964880992 -2188110.964880992 -5517549.251141401 0 0 0 0 0 106514948.409572 -2092651.946761232 -2092651.946761232 -5333084.674657952 0 0 0 0 0 106519049.2487643 -1913729.538245245 -1913729.538245245 -5164664.694714392 0 0 0 0 0 106497256.3942453 -1787250.111681916 -1787250.111681916 -5017147.902145163 0 0 0 0 0 106349533.6885731 -1860734.626470562 -1860734.626470562 -5137059.934866932 0 0 0 0 0 9933039.688183811 -3556865.477244625 -3556865.477244625 -15409663.71793888 0 0 0 0 0 11985233.55513348 -5590759.186910317 -5590759.186910317 -14274793.53748846 0 0 0 0 0 16716756.32727317 -8447649.691839999 -8447649.691839999 -11196531.07270557 0 0 0 0 0 18290735.58394678 -10907071.02985381 -10907071.02985381 -10534562.50072839 0 0 0 0 0 20947461.63992494 -13257642.96543999 -13257642.96543999 -10132834.30789205 0 0 0 0 0 23347329.05431197 -15480480.1444768 -15480480.1444768 -9832504.814119836 0 0 0 0 0 26088316.28568215 -17588234.41556022 -17588234.41556022 -9642014.488000575 0 0 0 0 0 29034132.99795368 -19546504.04415052 -19546504.04415052 -9553053.555422325 0 0 0 0 0 32164295.0542075 -21339471.85293739 -21339471.85293739 -9564123.415314509 0 0 0 0 0 35447653.79494915 -22955723.92248156 -22955723.92248156 -9667949.207041927 0 0 0 0 0 38848782.55512137 -24387113.71847755 -24387113.71847755 -9855271.290317047 0 0 0 0 0 46774357.40140975 -24585450.41463574 -24585450.41463574 -8672501.405046282 0 0 0 0 0 47858562.7574509 -26342170.12999841 -26342170.12999841 -9616080.096009348 0 0 0 0 0 51255690.84675498 -27132565.42767645 -27132565.42767645 -10043045.32548837 0 0 0 0 0 54645152.10957896 -27748027.58300683 -27748027.58300683 -10496019.10664367 0 0 0 0 0 59437832.12976516 -27646428.43841927 -27646428.43841927 -10333747.27236347 0 0 0 0 0 62578609.83770353 -27900038.82201369 -27900038.82201369 -10827244.56139979 0 0 0 0 0 65650637.15785722 -28012808.37555187 -28012808.37555187 -11314241.89013781 0 0 0 0 0 68650767.70344546 -27997848.78476505 -27997848.78476505 -11786866.34385029 0 0 0 0 0 71561256.26270781 -27863385.93659809 -27863385.93659809 -12237930.61134368 0 0 0 0 0 74371371.96916576 -27617415.77872476 -27617415.77872476 -12658871.73012783 0 0 0 0 0 77077574.43381685 -27271039.79819918 -27271039.79819918 -13053972.1191605 0 0 0 0 0 82396927.62138128 -25378528.7856285 -25378528.7856285 -12100439.81943576 0 0 0 0 0 82415410.50044516 -25742312.22555226 -25742312.22555226 -13212693.39942664 0 0 0 0 0 84624695.78379515 -25188013.00128406 -25188013.00128406 -13481290.09896165 0 0 0 0 0 86714741.70522171 -24596565.77079096 -24596565.77079096 -13727572.83354798 0 0 0 0 0 88675871.85792705 -23947353.93055793 -23947353.93055793 -13926571.68014998 0 0 0 0 0 90521154.87118229 -23263410.40090996 -23263410.40090996 -14080545.18474247 0 0 0 0 0 93835932.80652669 -21437290.74782797 -21437290.74782797 -12988086.97871698 0 0 0 0 0 93635363.78392538 -21424209.99589452 -21424209.99589452 -13824164.91395767 0 0 0 0 0 97373804.55090506 -18735422.19363063 -18735422.19363063 -12402250.60239069 0 0 0 0 0 101907242.7913108 -15290143.6989646 -15290143.6989646 -12056936.97157625 0 0 0 0 0 105131526.5249607 -11693614.13183962 -11693614.13183962 -11206792.64314481 0 0 0 0 0 104898714.9235187 -11447211.21635189 -11447211.21635189 -11434855.94287756 0 0 0 0 0 106768503.0950842 -8766677.955187732 -8766677.955187732 -10087291.45546994 0 0 0 0 0 107281019.6660773 -6251815.664111725 -6251815.664111725 -8875149.573534837 0 0 0 0 0 107560992.2867881 -4479345.153943619 -4479345.153943619 -7610520.857969604 0 0 0 0 0 107341213.2171081 -3618785.306580852 -3618785.306580852 -6873719.11603011 0 0 0 0 0 106946614.0591268 -2246139.239102957 -2246139.239102957 -5660813.104009304 0 0 0 0 0 106757387.4282469 -1970989.904342441 -1970989.904342441 -5283405.152101156 0 0 0 0 0 96429724.17937012 -19730173.69205692 -19730173.69205692 -12765313.9992701 0 0 0 0 0 8462511.488537408 -1668998.806036399 -1668998.806036399 -17125790.30564812 0 0 0 0 0 13858903.48710149 -7641386.18711557 -7641386.18711557 -12436377.31474344 0 0 0 0 0 44693064.20033329 -24821079.11432431 -24821079.11432431 -9543034.83446653 0 0 0 0 0 60678138.98278307 -27275392.23027604 -27275392.23027604 -10288549.48353943 0 0 0 0 0 82079437.8485717 -25953676.62333508 -25953676.62333508 -12605613.17907635 0 0 0 0 0 94002167.46596019 -21853198.26791687 -21853198.26791687 -13440153.25383668 0 0 0 0 0 96705565.83192095 -20078061.77524319 -20078061.77524319 -13201598.36290586 0 0 0 0 0 96198075.96448629 -19637316.73131382 -19637316.73131382 -13471952.59215349 0 0 0 0 0 97143840.06453086 -18634750.41456793 -18634750.41456793 -13083856.83675361 0 0 0 0 0 98265808.53948176 -17958247.1574075 -17958247.1574075 -13083197.66309533 0 0 0 0 0 99306805.83428989 -17280873.2748043 -17280873.2748043 -13057289.65672474 0 0 0 0 0 100272178.4395776 -16602063.1309329 -16602063.1309329 -13013794.19638273 0 0 0 0 0 101190890.9632044 -15929932.15897515 -15929932.15897515 -12946342.04876832 0 0 0 0 0 101650745.2505255 -15082829.33327997 -15082829.33327997 -12515192.44063445 0 0 0 0 0 102411752.5613562 -14447978.44511028 -14447978.44511028 -12408157.07423581 0 0 0 0 0 103100707.1515235 -13833753.45821739 -13833753.45821739 -12292888.74059232 0 0 0 0 0 103721818.3593873 -13228753.08321633 -13228753.08321633 -12160570.9773044 0 0 0 0 0 104298088.2304706 -12639803.16436828 -12639803.16436828 -12016209.17841543 0 0 0 0 0 104823895.6005944 -12064885.66957648 -12064885.66957648 -11858263.73307778 0 0 0 0 0 105329957.1139057 -10919900.15047786 -10919900.15047786 -11271384.20578303 0 0 0 0 0 105721743.5960018 -10406286.912918 -10406286.912918 -11098445.43015464 0 0 0 0 0 106076109.6570774 -9907920.50527289 -9907920.50527289 -10918012.94731362 0 0 0 0 0 106395334.4161269 -9425266.103243915 -9425266.103243915 -10731443.0463536 0 0 0 0 0 106681948.095573 -8958143.438058859 -8958143.438058859 -10539495.34176562 0 0 0 0 0 106569562.2829612 -8522454.80237036 -8522454.80237036 -10162014.6023389 0 0 0 0 0 106801585.1830032 -8097307.047339865 -8097307.047339865 -9973307.362022432 0 0 0 0 0 107007674.9232835 -7686886.88831809 -7686886.88831809 -9781620.242272684 0 0 0 0 0 107189868.6923943 -7291105.986794502 -7291105.986794502 -9587454.808328541 0 0 0 0 0 107349701.3751603 -6909920.098317192 -6909920.098317192 -9390960.015211448 0 0 0 0 0 107487900.0761233 -6543392.892543796 -6543392.892543796 -9193997.517173845 0 0 0 0 0 107631589.7623678 -5815184.112158644 -5815184.112158644 -8548861.569685774 0 0 0 0 0 107606627.529162 -6190649.138305083 -6190649.138305083 -8996226.225593193 0 0 0 0 0 107482391.4103182 -5599107.6643714 -5599107.6643714 -8497041.627651112 0 0 0 0 0 107562069.4137911 -5290384.699516885 -5290384.699516885 -8308174.73837385 0 0 0 0 0 107627930.2324096 -4991447.798510944 -4991447.798510944 -8120818.894808314 0 0 0 0 0 107677111.2254891 -4711652.610641864 -4711652.610641864 -7933228.613962832 0 0 0 0 0 107720512.1719653 -4437558.475187484 -4437558.475187484 -7747398.542694956 0 0 0 0 0 107574036.8539169 -4227240.749407056 -4227240.749407056 -7438484.518593292 0 0 0 0 0 107471233.8040595 -4031769.478615263 -4031769.478615263 -7324198.227506209 0 0 0 0 0 107485792.5430538 -3792106.029546516 -3792106.029546516 -7160623.55114162 0 0 0 0 0 107502789.6735963 -3558691.670831575 -3558691.670831575 -6957694.214998755 0 0 0 0 0 107334803.5765119 -3407879.338526266 -3407879.338526266 -6718624.611738583 0 0 0 0 0 107235298.993429 -3239866.419229548 -3239866.419229548 -6606143.862008774 0 0 0 0 0 107225845.1734198 -3040727.254669675 -3040727.254669675 -6447414.928068839 0 0 0 0 0 107210107.779287 -2849827.207448926 -2849827.207448926 -6290931.240057489 0 0 0 0 0 107188599.3255514 -2666929.397711306 -2666929.397711306 -6136768.910384391 0 0 0 0 0 107161789.7220852 -2491821.69124289 -2491821.69124289 -5984952.911046721 0 0 0 0 0 107129980.5913195 -2324236.21513639 -2324236.21513639 -5835600.360684969 0 0 0 0 0 107093388.9793943 -2164517.569025142 -2164517.569025142 -5687668.386678424 0 0 0 0 0 106869601.9408164 -2104573.187081565 -2104573.187081565 -5530642.477639954 0 0 0 0 0 106833070.4261478 -1947443.674300734 -1947443.674300734 -5387631.622707815 0 0 0 0 0 106771135.6297025 -1739941.249680866 -1739941.249680866 -5105965.011685921 0 0 0 0 0 106669191.6320848 -1650773.700384955 -1650773.700384955 -4994196.569798726 0 0 0 0 0 106512470.5878341 -1727801.189098533 -1727801.189098533 -5116866.295004948 0 0 0 0 0 6947996.335200503 -3548697.638678381 -3548697.638678381 -18717327.23665272 0 0 0 0 0 9488605.824263269 -4980623.652445843 -4980623.652445843 -17318525.91421548 0 0 0 0 0 11074985.50153774 -7216367.372038232 -7216367.372038232 -16358770.1437714 0 0 0 0 0 16033010.90081162 -10320391.61859179 -10320391.61859179 -12758691.96558479 0 0 0 0 0 18066104.29151046 -12709893.85773191 -12709893.85773191 -12177918.26708557 0 0 0 0 0 20578293.82002231 -15054180.58572469 -15054180.58572469 -11700738.84893495 0 0 0 0 0 23316633.72614152 -17254891.95019463 -17254891.95019463 -11333484.75073338 0 0 0 0 0 26326588.09471112 -19313631.7288297 -19313631.7288297 -11079062.29830284 0 0 0 0 0 29544923.85852947 -21211727.16615592 -21211727.16615592 -10936444.30187658 0 0 0 0 0 32933656.38713678 -22934010.68526543 -22934010.68526543 -10900719.77983485 0 0 0 0 0 36458748.35541871 -24468492.67853908 -24468492.67853908 -10965091.23049077 0 0 0 0 0 40084694.46224343 -25808003.19603309 -25808003.19603309 -11118214.30388515 0 0 0 0 0 48374773.29275897 -25826372.11867789 -25826372.11867789 -9841868.155770481 0 0 0 0 0 49423466.78125979 -27543431.15956715 -27543431.15956715 -10808270.91751295 0 0 0 0 0 52972157.62743267 -28219542.61525648 -28219542.61525648 -11211099.37755621 0 0 0 0 0 56494502.48160485 -28718316.53271478 -28718316.53271478 -11640708.10453609 0 0 0 0 0 61305377.34744521 -28486885.9941275 -28486885.9941275 -11442722.27724514 0 0 0 0 0 64528004.41556505 -28624148.76723781 -28624148.76723781 -11908216.19317593 0 0 0 0 0 67671213.42517899 -28623531.75354024 -28623531.75354024 -12363742.38334354 0 0 0 0 0 70719514.68532477 -28494637.42588758 -28494637.42588758 -12798843.43421621 0 0 0 0 0 73656049.8636968 -28247833.39461087 -28247833.39461087 -13208709.09168836 0 0 0 0 0 76478525.27959277 -27895305.66298456 -27895305.66298456 -13588508.19020395 0 0 0 0 0 79201946.67543648 -27451599.54912001 -27451599.54912001 -13942534.34830406 0 0 0 0 0 84444889.41739571 -25462504.59453714 -25462504.59453714 -12917489.76324041 0 0 0 0 0 84418794.89665149 -25754132.25613644 -25754132.25613644 -13990636.46936476 0 0 0 0 0 86584139.54128134 -25127447.91352326 -25127447.91352326 -14221713.27065995 0 0 0 0 0 88627515.5411468 -24452953.41199276 -24452953.41199276 -14422201.31919577 0 0 0 0 0 90560987.11317803 -23741413.38913561 -23741413.38913561 -14575233.56184771 0 0 0 0 0 92347837.41885291 -22996425.17666682 -22996425.17666682 -14684603.24916999 0 0 0 0 0 95570166.22826965 -21152494.05677367 -21152494.05677367 -13547601.29374763 0 0 0 0 0 95330849.49608801 -21069539.12919379 -21069539.12919379 -14320640.31720045 0 0 0 0 0 98804301.31743392 -18390832.14778649 -18390832.14778649 -12849185.70799086 0 0 0 0 0 103058290.1444012 -14841114.5533423 -14841114.5533423 -12333190.94518223 0 0 0 0 0 105962961.0184094 -11227451.33733742 -11227451.33733742 -11332418.72415082 0 0 0 0 0 105726289.2589233 -10962865.52501142 -10962865.52501142 -11512337.53764714 0 0 0 0 0 107364568.1579717 -8325724.092839577 -8325724.092839577 -10105406.76362998 0 0 0 0 0 107707397.458448 -5851708.863266686 -5851708.863266686 -8799123.667903852 0 0 0 0 0 107849532.5472389 -4131611.239450114 -4131611.239450114 -7511691.94870403 0 0 0 0 0 107565919.9926765 -3321307.67943971 -3321307.67943971 -6774502.030038293 0 0 0 0 0 107096726.3452918 -2002667.057558606 -2002667.057558606 -5540396.101676627 0 0 0 0 0 106859476.2578712 -1794427.798042184 -1794427.798042184 -5176194.385297937 0 0 0 0 0 97964455.1140722 -19384386.73409271 -19384386.73409271 -13245890.99743523 0 0 0 0 0 5919191.116357877 -1729439.078659324 -1729439.078659324 -20859236.14070852 0 0 0 0 0 13225344.9069729 -9261547.467931744 -9261547.467931744 -14150119.38963735 0 0 0 0 0 46342602.10992702 -26071928.76974877 -26071928.76974877 -10739781.82398601 0 0 0 0 0 62775964.23744621 -28075155.73391004 -28075155.73391004 -11369951.35815315 0 0 0 0 0 84211507.33009823 -26018804.44805234 -26018804.44805234 -13430649.10266665 0 0 0 0 0 95829832.61085191 -21537318.92899133 -21537318.92899133 -14005895.33863135 0 0 0 0 0 98305547.33120604 -19705229.82488369 -19705229.82488369 -13673182.56085496 0 0 0 0 0 97718051.69411193 -19251705.38467056 -19251705.38467056 -13898555.1920247 0 0 0 0 0 98553682.72831473 -18246289.21272503 -18246289.21272503 -13479668.68932059 0 0 0 0 0 99623967.86809154 -17540756.64258474 -17540756.64258474 -13440436.66056623 0 0 0 0 0 100615119.3487361 -16836302.09782505 -16836302.09782505 -13379809.3116988 0 0 0 0 0 101542322.0146176 -16136941.62565897 -16136941.62565897 -13301466.27661435 0 0 0 0 0 102398010.2572735 -15437578.98082907 -15437578.98082907 -13193642.23254321 0 0 0 0 0 102791557.9376094 -14604762.4623198 -14604762.4623198 -12732805.36788924 0 0 0 0 0 103488665.3288587 -13966183.12774997 -13966183.12774997 -12602816.7951382 0 0 0 0 0 104121203.588751 -13340476.02073512 -13340476.02073512 -12457342.15486127 0 0 0 0 0 104704048.513343 -12730152.48863992 -12730152.48863992 -12298067.42436969 0 0 0 0 0 105232111.1959308 -12135479.68463609 -12135479.68463609 -12127124.04507574 0 0 0 0 0 105711170.7145723 -11557201.48339863 -11557201.48339863 -11944218.67366604 0 0 0 0 0 106117066.6943482 -10433817.03283309 -10433817.03283309 -11326302.22916718 0 0 0 0 0 106469352.8578734 -9921185.071586389 -9921185.071586389 -11133431.56635556 0 0 0 0 0 106786020.8441735 -9425069.815241974 -9425069.815241974 -10934527.59303976 0 0 0 0 0 107069514.6305793 -8945121.170674577 -8945121.170674577 -10730174.23244321 0 0 0 0 0 107321538.1352731 -8481852.133863969 -8481852.133863969 -10521665.80501583 0 0 0 0 0 107165809.3097307 -8070792.769160043 -8070792.769160043 -10143278.92373146 0 0 0 0 0 107367234.8266805 -7650303.584754952 -7650303.584754952 -9940463.511975387 0 0 0 0 0 107544016.3169853 -7245194.818017246 -7245194.818017246 -9735378.862009924 0 0 0 0 0 107697860.2680502 -6855374.198417157 -6855374.198417157 -9529009.241402548 0 0 0 0 0 107830441.7997973 -6480810.00652057 -6480810.00652057 -9321156.188643405 0 0 0 0 0 107942470.0465113 -6121152.345145372 -6121152.345145372 -9113767.265089918 0 0 0 0 0 108008721.2171607 -5434486.981065235 -5434486.981065235 -8483059.281143788 0 0 0 0 0 108036506.3582571 -5775882.129859002 -5775882.129859002 -8906866.77111944 0 0 0 0 0 107860874.0254225 -5212152.442838702 -5212152.442838702 -8404630.448190892 0 0 0 0 0 107913943.4267249 -4909977.691480326 -4909977.691480326 -8209250.905160075 0 0 0 0 0 107961275.3039863 -4622262.022566888 -4622262.022566888 -8014772.811295935 0 0 0 0 0 107990088.2724359 -4345709.364732863 -4345709.364732863 -7821882.535163729 0 0 0 0 0 108013494.011371 -4083017.820894357 -4083017.820894357 -7629621.912024355 0 0 0 0 0 107855475.4266405 -3887040.272115891 -3887040.272115891 -7329121.689717301 0 0 0 0 0 107752635.437469 -3691217.506636144 -3691217.506636144 -7207316.04770652 0 0 0 0 0 107755016.3255868 -3456436.962056221 -3456436.962056221 -7027811.553489952 0 0 0 0 0 107750814.6748004 -3240124.216641048 -3240124.216641048 -6828055.091027044 0 0 0 0 0 107546407.5027304 -3116851.326481048 -3116851.326481048 -6615443.131167226 0 0 0 0 0 107450009.9860574 -2947687.111945191 -2947687.111945191 -6485722.506529567 0 0 0 0 0 107428182.4217369 -2755437.096182749 -2755437.096182749 -6324090.843240807 0 0 0 0 0 107400616.2003515 -2571413.446362793 -2571413.446362793 -6165119.319171636 0 0 0 0 0 107367890.2575241 -2395337.278499566 -2395337.278499566 -6008782.957805522 0 0 0 0 0 107330306.687214 -2226992.762705925 -2226992.762705925 -5855238.358514552 0 0 0 0 0 107288265.3746729 -2065805.43200598 -2065805.43200598 -5705197.32254514 0 0 0 0 0 107243431.452279 -1913618.874609232 -1913618.874609232 -5557657.447735112 0 0 0 0 0 106994239.4276218 -1867191.924948707 -1867191.924948707 -5431217.053548498 0 0 0 0 0 107079302.2052368 -1631652.099738932 -1631652.099738932 -5147496.572895761 0 0 0 0 0 106961839.1518676 -1575004.528455755 -1575004.528455755 -5051350.948751293 0 0 0 0 0 106838080.7571688 -1510005.875395078 -1510005.875395078 -4951223.407983066 0 0 0 0 0 106677312.1682386 -1590041.377021317 -1590041.377021317 -5082074.778676159 0 0 0 0 0 4715942.992467659 -3194591.844077355 -3194591.844077355 -21383512.6556559 0 0 0 0 0 6678079.953447436 -3922626.141518898 -3922626.141518898 -18876870.76341648 0 0 0 0 0 8589844.628896208 -6362333.946379215 -6362333.946379215 -19731127.19846352 0 0 0 0 0 10235070.09505859 -8831580.649222463 -8831580.649222463 -18603987.87028321 0 0 0 0 0 15244599.12599175 -12127767.99449629 -12127767.99449629 -14628263.33179446 0 0 0 0 0 17689374.32698876 -14509039.53655294 -14509039.53655294 -13916890.20089369 0 0 0 0 0 20485237.69445139 -16798135.90495208 -16798135.90495208 -13325347.23013301 0 0 0 0 0 23535496.38358451 -18954045.1921203 -18954045.1921203 -12861586.67120029 0 0 0 0 0 26826488.15331575 -20958507.24601056 -20958507.24601056 -12526219.30893035 0 0 0 0 0 30316284.80603569 -22791499.43979297 -22791499.43979297 -12317132.10758138 0 0 0 0 0 33962270.82012923 -24437068.77299101 -24437068.77299101 -12225832.31165625 0 0 0 0 0 37723963.01007102 -25884211.35052198 -25884211.35052198 -12243743.70774369 0 0 0 0 0 41567688.58555073 -27127089.93048543 -27127089.93048543 -12358040.92379009 0 0 0 0 0 50187652.84265905 -26971968.61486435 -26971968.61486435 -11013054.33769974 0 0 0 0 0 51208525.78526893 -28638462.73855438 -28638462.73855438 -11981756.49805004 0 0 0 0 0 54897260.07396578 -29196384.98876961 -29196384.98876961 -12359411.27915431 0 0 0 0 0 58539279.98736969 -29573904.00338018 -29573904.00338018 -12759436.35058086 0 0 0 0 0 63352710.18478843 -29215364.62482259 -29215364.62482259 -12527784.6606501 0 0 0 0 0 66653512.81114294 -29234887.37435507 -29234887.37435507 -12961796.37772194 0 0 0 0 0 69849005.15167975 -29116051.6872119 -29116051.6872119 -13379837.85041208 0 0 0 0 0 72928312.24338543 -28871784.37668422 -28871784.37668422 -13774335.26675332 0 0 0 0 0 75880045.631763 -28514332.06912429 -28514332.06912429 -14138846.63952649 0 0 0 0 0 78704375.80549599 -28058540.21348247 -28058540.21348247 -14475215.80302204 0 0 0 0 0 81417178.92610525 -27517158.48440532 -27517158.48440532 -14776774.59707191 0 0 0 0 0 86534001.7028856 -25450280.70340514 -25450280.70340514 -13704579.91708816 0 0 0 0 0 86461903.96663196 -25664198.46236093 -25664198.46236093 -14726773.52148855 0 0 0 0 0 88597428.18217179 -24958382.8010234 -24958382.8010234 -14913396.63936254 0 0 0 0 0 90611907.87758492 -24213883.36394651 -24213883.36394651 -15065200.73062977 0 0 0 0 0 92486866.11510129 -23430151.87578816 -23430151.87578816 -15163190.02322226 0 0 0 0 0 94233245.51452991 -22620571.44784941 -22620571.44784941 -15220654.24609426 0 0 0 0 0 97282492.29274955 -20781851.27405241 -20781851.27405241 -14060343.46660253 0 0 0 0 0 97024170.96748951 -20657597.57509847 -20657597.57509847 -14788670.13802234 0 0 0 0 0 100234075.6360062 -17984429.28822355 -17984429.28822355 -13251854.29779574 0 0 0 0 0 104170911.478188 -14356509.33999366 -14356509.33999366 -12572304.39205849 0 0 0 0 0 106769640.8211571 -10734580.47946548 -10734580.47946548 -11419044.33787732 0 0 0 0 0 106530842.5212717 -10451830.01587438 -10451830.01587438 -11552672.64332598 0 0 0 0 0 107937728.9006243 -7869401.717452295 -7869401.717452295 -10095336.24872854 0 0 0 0 0 108113716.3307373 -5444382.61732757 -5444382.61732757 -8700522.780876756 0 0 0 0 0 108128334.1832033 -3784687.644934025 -3784687.644934025 -7391747.899971264 0 0 0 0 0 107775674.8926026 -3022217.67723164 -3022217.67723164 -6661547.25566904 0 0 0 0 0 107252020.73284 -1759845.626989301 -1759845.626989301 -5406966.852504796 0 0 0 0 0 99513677.07365353 -18978308.08530712 -18978308.08530712 -13681713.1436425 0 0 0 0 0 3487245.960046261 -1711328.48809059 -1711328.48809059 -25222441.98184497 0 0 0 0 0 12746004.53794551 -10884278.57022105 -10884278.57022105 -16071028.0899588 0 0 0 0 0 48221250.0159944 -27219812.85890603 -27219812.85890603 -11924984.37051391 0 0 0 0 0 65052036.45313368 -28763741.99929087 -28763741.99929087 -12429247.19008756 0 0 0 0 0 86401387.37577586 -25987601.40670534 -25987601.40670534 -14219486.04151534 0 0 0 0 0 97618447.3263327 -21133770.73224247 -21133770.73224247 -14541147.80795065 0 0 0 0 0 99908344.73365307 -19260576.10305027 -19260576.10305027 -14105670.31858759 0 0 0 0 0 99243618.63002136 -18796265.56648462 -18796265.56648462 -14290016.30786681 0 0 0 0 0 99963989.05269244 -17796219.56653721 -17796219.56653721 -13828607.27034075 0 0 0 0 0 100976492.6685178 -17064441.79742819 -17064441.79742819 -13750732.42023492 0 0 0 0 0 101917990.776825 -16340017.92098296 -16340017.92098296 -13657935.1360565 0 0 0 0 0 102796426.1926837 -15614635.38532564 -15614635.38532564 -13537934.53858664 0 0 0 0 0 103602399.9022222 -14903308.06865963 -14903308.06865963 -13391594.76621841 0 0 0 0 0 103896982.7803807 -14093031.01463185 -14093031.01463185 -12914784.86264627 0 0 0 0 0 104540311.7509692 -13444830.77519908 -13444830.77519908 -12754466.68450094 0 0 0 0 0 105127308.8054601 -12812698.45871199 -12812698.45871199 -12580677.49669216 0 0 0 0 0 105660310.2124299 -12197712.9527236 -12197712.9527236 -12394564.16000494 0 0 0 0 0 106141937.4569291 -11599991.72970533 -11599991.72970533 -12197786.35200089 0 0 0 0 0 106575746.8598102 -11019959.83176277 -11019959.83176277 -11991166.30041755 0 0 0 0 0 106880705.1513575 -9924809.223666804 -9924809.223666804 -11346355.95783188 0 0 0 0 0 107193543.8162472 -9415319.053582069 -9415319.053582069 -11134924.18635285 0 0 0 0 0 107473076.4051166 -8922516.886048967 -8922516.886048967 -10917706.65723969 0 0 0 0 0 107720302.6780887 -8447324.452928402 -8447324.452928402 -10696683.35954012 0 0 0 0 0 107937577.1085574 -7989610.322254102 -7989610.322254102 -10472599.64746388 0 0 0 0 0 107740115.5879961 -7604645.522771705 -7604645.522771705 -10095665.07078597 0 0 0 0 0 107910870.1286449 -7190279.854102396 -7190279.854102396 -9879630.266792497 0 0 0 0 0 108058315.4619395 -6791868.057997824 -6791868.057997824 -9662213.32831414 0 0 0 0 0 108183924.4349775 -6409309.609331752 -6409309.609331752 -9444340.344833966 0 0 0 0 0 108289788.0773722 -6042343.373784062 -6042343.373784062 -9226207.948349472 0 0 0 0 0 108375412.0116194 -5691302.483828472 -5691302.483828472 -9009725.045376204 0 0 0 0 0 108367020.3496493 -5046709.095723567 -5046709.095723567 -8396026.318971705 0 0 0 0 0 108444694.691942 -5354453.692961561 -5354453.692961561 -8794394.823488379 0 0 0 0 0 108222118.3552692 -4820136.391664155 -4820136.391664155 -8290713.443791978 0 0 0 0 0 108257837.1721596 -4527336.189574574 -4527336.189574574 -8088648.88564845 0 0 0 0 0 108281486.2260377 -4247637.596631655 -4247637.596631655 -7888277.007857974 0 0 0 0 0 108293991.623294 -3980039.649788813 -3980039.649788813 -7689518.737772332 0 0 0 0 0 108294222.8072244 -3724416.517408513 -3724416.517408513 -7493152.515519497 0 0 0 0 0 108122617.1741176 -3545841.809958733 -3545841.809958733 -7209134.096082946 0 0 0 0 0 108007613.9279761 -3356060.816511361 -3356060.816511361 -7072892.557914005 0 0 0 0 0 107986540.6068972 -3135922.453981675 -3135922.453981675 -6892448.127916254 0 0 0 0 0 107972260.128019 -2928164.013354442 -2928164.013354442 -6695186.501125013 0 0 0 0 0 107744020.5878979 -2824954.926999342 -2824954.926999342 -6498865.601404659 0 0 0 0 0 107650806.0814342 -2655008.005592712 -2655008.005592712 -6352211.137235561 0 0 0 0 0 107616869.1718957 -2470128.97145321 -2470128.97145321 -6188384.675618046 0 0 0 0 0 107577877.0067768 -2293317.636433832 -2293317.636433832 -6027426.19856198 0 0 0 0 0 107534241.8425308 -2124337.320033597 -2124337.320033597 -5869303.27568319 0 0 0 0 0 107486186.466413 -1963239.618897193 -1963239.618897193 -5713858.447902311 0 0 0 0 0 107435384.898729 -1810446.869073885 -1810446.869073885 -5561445.611263523 0 0 0 0 0 107389068.8792888 -1661741.91858118 -1661741.91858118 -5392040.938286522 0 0 0 0 0 107129444.2208102 -1671834.479802681 -1671834.479802681 -5370690.219696009 0 0 0 0 0 107095557.5188864 -1429905.080120527 -1429905.080120527 -5018868.827785796 0 0 0 0 0 107001950.9715115 -1362964.900564853 -1362964.900564853 -4920057.444527257 0 0 0 0 0 106836556.002465 -1448020.874146474 -1448020.874146474 -5056552.962965652 0 0 0 0 0 2135640.172890582 -3730806.032939843 -3730806.032939843 -27727267.0669671 0 0 0 0 0 5422916.62453276 -5285250.127057365 -5285250.127057365 -21103123.97985499 0 0 0 0 0 7418343.785252846 -7982499.272280864 -7982499.272280864 -22447466.59735884 0 0 0 0 0 9461032.572060455 -10496754.05967953 -10496754.05967953 -20951313.37520258 0 0 0 0 0 14817441.1614068 -13823323.84397767 -13823323.84397767 -16539061.97931091 0 0 0 0 0 17590155.95067902 -16185346.51828557 -16185346.51828557 -15676082.73110518 0 0 0 0 0 20675983.7668702 -18438504.40783572 -18438504.40783572 -14951645.64367374 0 0 0 0 0 24022683.17143352 -20551353.68438069 -20551353.68438069 -14376749.07018293 0 0 0 0 0 27596468.60391813 -22500723.7217407 -22500723.7217407 -13950025.04952244 0 0 0 0 0 31351026.36558108 -24266568.09341976 -24266568.09341976 -13666394.32091065 0 0 0 0 0 35246547.69303176 -25832471.71150191 -25832471.71150191 -13513575.53306825 0 0 0 0 0 39240501.82987045 -27189546.27556174 -27189546.27556174 -13482173.85306487 0 0 0 0 0 43291247.02518445 -28331255.3497268 -28331255.3497268 -13554032.27061681 0 0 0 0 0 52225044.74314515 -28011193.88943312 -28011193.88943312 -12166593.08878272 0 0 0 0 0 53205561.04974334 -29618309.30605265 -29618309.30605265 -13124635.23924779 0 0 0 0 0 57027277.21124385 -30053984.75387408 -30053984.75387408 -13470203.04066076 0 0 0 0 0 60774783.96261555 -30305679.23662905 -30305679.23662905 -13836589.47948434 0 0 0 0 0 65575432.51284696 -29823870.75516896 -29823870.75516896 -13578876.87761199 0 0 0 0 0 68934152.20423034 -29721982.41743105 -29721982.41743105 -13976430.20494978 0 0 0 0 0 72164981.07446574 -29483884.1513106 -29483884.1513106 -14350776.08591626 0 0 0 0 0 75261213.7210184 -29124679.79595523 -29124679.79595523 -14700552.67378183 0 0 0 0 0 78216077.61227563 -28657594.72074696 -28657594.72074696 -15020504.99695652 0 0 0 0 0 81035934.93075387 -28099932.33848425 -28099932.33848425 -15308691.07834931 0 0 0 0 0 83697964.51187882 -27457406.44607845 -27457406.44607845 -15555526.22910123 0 0 0 0 0 88691941.4379452 -25331681.18581065 -25331681.18581065 -14432306.0854556 0 0 0 0 0 88571120.13547486 -25467744.56340674 -25467744.56340674 -15413139.39598558 0 0 0 0 0 90667834.92981036 -24689112.57774131 -24689112.57774131 -15547133.58067574 0 0 0 0 0 92630771.26722938 -23872019.04508407 -23872019.04508407 -15639644.59607988 0 0 0 0 0 94463332.903126 -23027490.4330615 -23027490.4330615 -15689420.27021711 0 0 0 0 0 96166995.58792408 -22173192.41151601 -22173192.41151601 -15690716.26211384 0 0 0 0 0 99012280.37467296 -20336482.88471889 -20336482.88471889 -14527140.69031473 0 0 0 0 0 98733368.11705899 -20160683.70224859 -20160683.70224859 -15183025.01473208 0 0 0 0 0 101658110.6617907 -17513211.7892888 -17513211.7892888 -13613897.57026791 0 0 0 0 0 105262258.252245 -13831428.11205256 -13831428.11205256 -12766340.46805721 0 0 0 0 0 107550552.7115221 -10216457.73904388 -10216457.73904388 -11470794.06649858 0 0 0 0 0 107310636.8961815 -9917966.939689683 -9917966.939689683 -11556247.40444114 0 0 0 0 0 108486580.9586489 -7399323.329209714 -7399323.329209714 -10056431.00307101 0 0 0 0 0 108498687.748432 -5031093.01759588 -5031093.01759588 -8579847.767566754 0 0 0 0 0 108379876.5829608 -3444783.121244429 -3444783.121244429 -7267419.553082336 0 0 0 0 0 107971004.2108966 -2722977.094879602 -2722977.094879602 -6534059.34205503 0 0 0 0 0 107382471.323668 -1543253.791424398 -1543253.791424398 -5252715.753636114 0 0 0 0 0 107160905.9115566 -1502717.858453742 -1502717.858453742 -5124061.075627671 0 0 0 0 0 101058385.858489 -18494826.06304837 -18494826.06304837 -14067299.43728066 0 0 0 0 0 1155516.936531421 -1746798.254615176 -1746798.254615176 -30191823.69609356 0 0 0 0 0 3160562.01297358 -5007322.680249923 -5007322.680249923 -24584309.17831753 0 0 0 0 0 12536683.95318353 -12381944.5408574 -12381944.5408574 -18064870.90269739 0 0 0 0 0 50335631.68135554 -28256204.78331093 -28256204.78331093 -13076703.69076276 0 0 0 0 0 67491158.95510128 -29330769.65417355 -29330769.65417355 -13456246.75099848 0 0 0 0 0 88667200.4556192 -25844537.62504299 -25844537.62504299 -14942265.16948611 0 0 0 0 0 99406514.61985531 -20657286.72518888 -20657286.72518888 -14979617.37327552 0 0 0 0 0 101512080.8365366 -18744297.07518118 -18744297.07518118 -14472587.14423113 0 0 0 0 0 100772541.3818357 -18269138.91462021 -18269138.91462021 -14612557.34706045 0 0 0 0 0 101374461.770488 -17283857.435707 -17283857.435707 -14125951.66303302 0 0 0 0 0 102332729.7609675 -16526983.80829941 -16526983.80829941 -14017544.77374306 0 0 0 0 0 103223649.461564 -15777770.56129712 -15777770.56129712 -13877674.24920561 0 0 0 0 0 104038843.499861 -15042006.60969572 -15042006.60969572 -13720978.79068464 0 0 0 0 0 104779266.8378539 -14322235.46965174 -14322235.46965174 -13538941.77643328 0 0 0 0 0 104980944.2231988 -13540464.53038075 -13540464.53038075 -13051219.53749721 0 0 0 0 0 105573197.7703747 -12886485.15300879 -12886485.15300879 -12862013.5202383 0 0 0 0 0 106109554.547953 -12250515.22934789 -12250515.22934789 -12660565.68118522 0 0 0 0 0 106592857.4080159 -11633434.1066207 -11633434.1066207 -12448421.54252512 0 0 0 0 0 107026366.8108422 -11035635.90575241 -11035635.90575241 -12227247.52687503 0 0 0 0 0 107414500.6495617 -10457955.17724948 -10457955.17724948 -11997690.65367146 0 0 0 0 0 107618816.7760541 -9395111.004013691 -9395111.004013691 -11331424.97426318 0 0 0 0 0 107893179.692217 -8889573.774539497 -8889573.774539497 -11101136.64808177 0 0 0 0 0 108134865.6157473 -8402427.658225192 -8402427.658225192 -10867053.57618481 0 0 0 0 0 108345777.1458678 -7933729.451274469 -7933729.451274469 -10630528.47147709 0 0 0 0 0 108528306.0546118 -7483309.273142419 -7483309.273142419 -10392030.46273737 0 0 0 0 0 108290887.9665976 -7125738.812481712 -7125738.812481712 -10018993.84598572 0 0 0 0 0 108430811.0115535 -6719139.917288866 -6719139.917288866 -9790753.351018811 0 0 0 0 0 108548891.6493941 -6328841.639946955 -6328841.639946955 -9562264.649807993 0 0 0 0 0 108646526.5971996 -5955136.135730039 -5955136.135730039 -9334002.885518707 0 0 0 0 0 108725296.3777219 -5597489.997840065 -5597489.997840065 -9107045.847554808 0 0 0 0 0 108786241.0160689 -5255004.765833732 -5255004.765833732 -8881832.24512995 0 0 0 0 0 108705746.3125336 -4653799.994633175 -4653799.994633175 -8288240.384772847 0 0 0 0 0 108831355.7642857 -4927075.862970468 -4927075.862970468 -8658555.006211378 0 0 0 0 0 108565065.5010331 -4424587.908002349 -4424587.908002349 -8156346.832234597 0 0 0 0 0 108579583.7444259 -4141318.484539209 -4141318.484539209 -7948596.07704013 0 0 0 0 0 108583725.5444847 -3870683.01916424 -3870683.01916424 -7742929.468042233 0 0 0 0 0 108576738.7531653 -3612006.461637936 -3612006.461637936 -7539748.603106083 0 0 0 0 0 108560669.7398303 -3365864.783899432 -3365864.783899432 -7339177.037562277 0 0 0 0 0 108354077.5382392 -3218819.195608094 -3218819.195608094 -7086869.372714307 0 0 0 0 0 108234580.9668229 -3031291.64607925 -3031291.64607925 -6926692.667505209 0 0 0 0 0 108199349.5888536 -2816184.373036458 -2816184.373036458 -6738023.146105597 0 0 0 0 0 108169163.9851981 -2621850.380792078 -2621850.380792078 -6558046.462555385 0 0 0 0 0 107926921.9261312 -2533072.207201051 -2533072.207201051 -6369132.079831174 0 0 0 0 0 107837370.6220772 -2362770.197920303 -2362770.197920303 -6206143.420048499 0 0 0 0 0 107791821.1191356 -2185466.246042114 -2185466.246042114 -6040597.09369057 0 0 0 0 0 107741701.0150696 -2016148.378788355 -2016148.378788355 -5878198.083237758 0 0 0 0 0 107687351.7729126 -1854401.088120657 -1854401.088120657 -5719011.14050413 0 0 0 0 0 107629454.7235186 -1700963.576578593 -1700963.576578593 -5561073.372225638 0 0 0 0 0 107568766.7814551 -1555670.623742919 -1555670.623742919 -5409771.76452601 0 0 0 0 0 107556052.9867901 -1381658.511603508 -1381658.511603508 -5186800.051311167 0 0 0 0 0 107400569.9792359 -1349652.395693289 -1349652.395693289 -5082825.688606561 0 0 0 0 0 107273558.3910404 -1277507.07613591 -1277507.07613591 -4974531.017022585 0 0 0 0 0 107174198.9143936 -1212079.746017857 -1212079.746017857 -4871521.261098284 0 0 0 0 0 106996102.9594004 -1304284.8026335 -1304284.8026335 -5019450.008081648 0 0 0 0 0 262279.9522555997 -3753592.445484474 -3753592.445484474 -33071770.78372067 0 0 0 0 0 1055518.555890873 -5238097.549468482 -5238097.549468482 -28976134.50431152 0 0 0 0 0 4024530.790306333 -7255704.682390481 -7255704.682390481 -26591313.76561505 0 0 0 0 0 6697093.505605754 -9517146.56808833 -9517146.56808833 -25045672.4674335 0 0 0 0 0 9051712.682219308 -11930872.37211301 -11930872.37211301 -23349228.38227222 0 0 0 0 0 14670305.5249469 -15395695.22965158 -15395695.22965158 -18451963.71804956 0 0 0 0 0 17755147.38611194 -17735159.84762113 -17735159.84762113 -17412195.09307236 0 0 0 0 0 21143028.25975916 -19956119.28313972 -19956119.28313972 -16538422.65934283 0 0 0 0 0 24782630.34023109 -22027942.4692388 -22027942.4692388 -15839410.65380492 0 0 0 0 0 28635800.7162404 -23923454.68810041 -23923454.68810041 -15312973.70238985 0 0 0 0 0 32652330.33392806 -25621889.77478254 -25621889.77478254 -14948905.8717941 0 0 0 0 0 36794973.02544394 -27108853.43903012 -27108853.43903012 -14733487.53433783 0 0 0 0 0 41012555.84351355 -28373132.87912569 -28373132.87912569 -14650305.70748254 0 0 0 0 0 45263892.25714934 -29410772.52690721 -29410772.52690721 -14679091.33789174 0 0 0 0 0 54489263.48591933 -28935539.55461966 -28935539.55461966 -13282268.79796143 0 0 0 0 0 55421903.47987412 -30473443.60444073 -30473443.60444073 -14215469.22035867 0 0 0 0 0 59359874.60638909 -30781720.23623145 -30781720.23623145 -14526975.68057034 0 0 0 0 0 63198045.14446542 -30904475.98816976 -30904475.98816976 -14857459.79275598 0 0 0 0 0 67960976.83758658 -30304683.21600877 -30304683.21600877 -14580273.87237684 0 0 0 0 0 71358223.14385518 -30078211.61145433 -30078211.61145433 -14935494.65343602 0 0 0 0 0 74611193.8617 -29721591.00337003 -29721591.00337003 -15267127.085567 0 0 0 0 0 77708935.36509487 -29247915.07792022 -29247915.07792022 -15569230.89440665 0 0 0 0 0 80657147.7879335 -28675850.59265152 -28675850.59265152 -15842652.72987806 0 0 0 0 0 83444300.7987375 -28014521.66800611 -28014521.66800611 -16077186.57484989 0 0 0 0 0 86063550.22363347 -27277841.09451357 -27277841.09451357 -16268767.41250632 0 0 0 0 0 90905167.44778679 -25105506.00305268 -25105506.00305268 -15109632.70445892 0 0 0 0 0 90736490.07182808 -25162036.61924735 -25162036.61924735 -16037535.98814728 0 0 0 0 0 92783810.0721229 -24310934.89954725 -24310934.89954725 -16115443.63894171 0 0 0 0 0 94687162.3727043 -23431557.40807863 -23431557.40807863 -16153196.99123974 0 0 0 0 0 96456516.75564054 -22540305.85815251 -22540305.85815251 -16148796.413028 0 0 0 0 0 98061007.83660413 -21632827.13058476 -21632827.13058476 -16096356.90442481 0 0 0 0 0 100736673.9194987 -19822185.6902944 -19822185.6902944 -14933823.30074185 0 0 0 0 0 100430415.6802183 -19587395.91793561 -19587395.91793561 -15520238.09744171 0 0 0 0 0 103086350.2771843 -16984558.06051819 -16984558.06051819 -13930012.15593814 0 0 0 0 0 106329230.1157969 -13267318.93316746 -13267318.93316746 -12914668.68280118 0 0 0 0 0 108303376.5925801 -9676650.40103803 -9676650.40103803 -11485472.19646507 0 0 0 0 0 108061520.6195512 -9364282.24441749 -9364282.24441749 -11523718.3737024 0 0 0 0 0 109009561.3936272 -6917294.196097842 -6917294.196097842 -9988427.369864695 0 0 0 0 0 108862503.4473877 -4613073.613113021 -4613073.613113021 -8437014.988608865 0 0 0 0 0 108607875.4906186 -3111857.351209299 -3111857.351209299 -7135745.596062187 0 0 0 0 0 108152051.0082706 -2423872.22637882 -2423872.22637882 -6393561.002113204 0 0 0 0 0 102593687.3433722 -17954700.82385737 -17954700.82385737 -14409749.72985063 0 0 0 0 0 -776762.3865618279 -1764556.592080097 -1764556.592080097 -36328799.65478799 0 0 0 0 0 12588348.37012521 -13725488.04105824 -13725488.04105824 -20086084.09949413 0 0 0 0 0 52679517.36708008 -29172731.76608128 -29172731.76608128 -14176597.57685679 0 0 0 0 0 70087929.156617 -29770005.37677948 -29770005.37677948 -14434480.28515808 0 0 0 0 0 90983832.05595298 -25581717.27907135 -25581717.27907135 -15607330.40096335 0 0 0 0 0 101195990.8988657 -20096686.11537719 -20096686.11537719 -15367984.69661683 0 0 0 0 0 103090555.9035002 -18158348.65511258 -18158348.65511258 -14790513.9383646 0 0 0 0 0 102286749.6826411 -17672645.95911746 -17672645.95911746 -14878267.94110085 0 0 0 0 0 102786462.2516457 -16697665.26120714 -16697665.26120714 -14367960.29135789 0 0 0 0 0 103685121.9795424 -15928254.82280482 -15928254.82280482 -14222065.55287326 0 0 0 0 0 104513883.6261404 -15164908.40751144 -15164908.40751144 -14042395.02411332 0 0 0 0 0 105256073.733549 -14425128.29001281 -14425128.29001281 -13850364.11026094 0 0 0 0 0 105930818.9607808 -13702728.3803854 -13702728.3803854 -13639364.12094393 0 0 0 0 0 106041798.9522023 -12950444.61243034 -12950444.61243034 -13141332.1640455 0 0 0 0 0 106581216.2398115 -12293131.30231272 -12293131.30231272 -12923610.45941905 0 0 0 0 0 107065717.5895995 -11656070.08850471 -11656070.08850471 -12695514.74322321 0 0 0 0 0 107498930.2452399 -11040043.47556674 -11040043.47556674 -12458604.52456182 0 0 0 0 0 107884447.2981906 -10445266.04209179 -10445266.04209179 -12213898.02370737 0 0 0 0 0 108225039.0735759 -9872496.666914813 -9872496.666914813 -11963505.50539107 0 0 0 0 0 108330667.5694093 -8845460.399219451 -8845460.399219451 -11279321.76429045 0 0 0 0 0 108565680.1800461 -8346399.703376541 -8346399.703376541 -11031967.95337387 0 0 0 0 0 108769390.0321185 -7866951.787116329 -7866951.787116329 -10782332.27665099 0 0 0 0 0 108944112.3309804 -7406442.164670506 -7406442.164670506 -10531490.80502485 0 0 0 0 0 109092440.227036 -6964811.612704628 -6964811.612704628 -10279655.92099973 0 0 0 0 0 108816587.2075945 -6636082.219488493 -6636082.219488493 -9913080.097686958 0 0 0 0 0 108926042.3153477 -6238566.47970931 -6238566.47970931 -9673788.895123737 0 0 0 0 0 109015161.4223178 -5858109.14992328 -5858109.14992328 -9435332.10308929 0 0 0 0 0 109085265.6036372 -5493908.847456589 -5493908.847456589 -9197821.444447452 0 0 0 0 0 109137362.2166865 -5146141.744301421 -5146141.744301421 -8962901.650330022 0 0 0 0 0 109173680.3240806 -4813592.881103397 -4813592.881103397 -8730263.574345399 0 0 0 0 0 109023058.2409319 -4258178.404185862 -4258178.404185862 -8160473.109015728 0 0 0 0 0 109195653.523834 -4495593.58831975 -4495593.58831975 -8499912.386165529 0 0 0 0 0 108886495.5261066 -4026479.099579894 -4026479.099579894 -8001837.574780778 0 0 0 0 0 108881155.0437116 -3753123.129041045 -3753123.129041045 -7789185.710010934 0 0 0 0 0 108866011.0728661 -3491958.940951644 -3491958.940951644 -7579148.459598431 0 0 0 0 0 108841422.8409843 -3243105.001814432 -3243105.001814432 -7371994.312936586 0 0 0 0 0 108813204.4199398 -3010689.431413407 -3010689.431413407 -7165144.91274094 0 0 0 0 0 108562930.311312 -2899257.537590773 -2899257.537590773 -6948691.251317699 0 0 0 0 0 108445962.7441105 -2706662.417571852 -2706662.417571852 -6765015.583744541 0 0 0 0 0 108390932.7085154 -2506262.609768518 -2506262.609768518 -6582664.057910741 0 0 0 0 0 108351646.7254519 -2314220.197864869 -2314220.197864869 -6400404.754059906 0 0 0 0 0 108095974.2387195 -2242050.022442064 -2242050.022442064 -6226419.257237739 0 0 0 0 0 108009626.4886231 -2071685.594933293 -2071685.594933293 -6047984.705168663 0 0 0 0 0 107952852.04847 -1902239.674700861 -1902239.674700861 -5881191.505587558 0 0 0 0 0 107892142.9966391 -1740562.512502278 -1740562.512502278 -5718073.343450622 0 0 0 0 0 107827433.4981269 -1585733.544396181 -1585733.544396181 -5559231.00246528 0 0 0 0 0 107762200.9577339 -1443258.433841901 -1443258.433841901 -5396189.228693383 0 0 0 0 0 107703465.7350015 -1318734.44941586 -1318734.44941586 -5235142.47376863 0 0 0 0 0 107570408.114178 -1178441.96180191 -1178441.96180191 -5023238.783452936 0 0 0 0 0 107460977.0637805 -1121846.707077372 -1121846.707077372 -4917424.348500035 0 0 0 0 0 107341834.4832414 -1057529.17749956 -1057529.17749956 -4813555.332908672 0 0 0 0 0 107156264.7361914 -1154235.131067395 -1154235.131067395 -4968506.501887158 0 0 0 0 0 -1474241.540864806 -3209062.889543253 -3209062.889543253 -40063400.09525762 0 0 0 0 0 892.9354193106996 -3976625.065501399 -3976625.065501399 -33316008.90136395 0 0 0 0 0 1996863.061872249 -5435712.916346749 -5435712.916346749 -28847557.3418262 0 0 0 0 0 4113758.083342931 -8155619.127417098 -8155619.127417098 -29939814.83731747 0 0 0 0 0 6302140.268122992 -10634542.06487663 -10634542.06487663 -27710292.127405 0 0 0 0 0 8889629.929705039 -13116292.11063506 -13116292.11063506 -25639211.25285894 0 0 0 0 0 14810778.67788468 -16805928.11397229 -16805928.11397229 -20310890.06484241 0 0 0 0 0 18198443.19455266 -19132689.31090537 -19132689.31090537 -19070867.30517788 0 0 0 0 0 21886814.10253811 -21331122.82184999 -21331122.82184999 -18034798.80222424 0 0 0 0 0 25817840.96693876 -23367401.37373755 -23367401.37373755 -17204897.00117278 0 0 0 0 0 29946580.48836521 -25213818.40140475 -25213818.40140475 -16574453.48598826 0 0 0 0 0 34224670.5367676 -26848016.05225584 -26848016.05225584 -16130493.95278116 0 0 0 0 0 38604427.66962904 -28255232.35430045 -28255232.35430045 -15854076.94852431 0 0 0 0 0 43037806.98139764 -29425839.25974683 -29425839.25974683 -15722112.66690208 0 0 0 0 0 47481031.17134427 -30356995.87485237 -30356995.87485237 -15709997.91252916 0 0 0 0 0 56967334.92562781 -29735683.77056836 -29735683.77056836 -14347612.90227155 0 0 0 0 0 57850857.26919777 -31192218.46820213 -31192218.46820213 -15234004.17812836 0 0 0 0 0 61887462.0222187 -31371235.52113919 -31371235.52113919 -15510295.58578486 0 0 0 0 0 65800281.56485724 -31363259.83831509 -31363259.83831509 -15803007.38450546 0 0 0 0 0 70494128.19210666 -30648211.78175519 -30648211.78175519 -15521277.60817284 0 0 0 0 0 73915239.60304178 -30299607.07421041 -30299607.07421041 -15830487.65682572 0 0 0 0 0 77171324.0393725 -29824381.18912023 -29824381.18912023 -16114572.40697737 0 0 0 0 0 80262615.1286296 -29241472.25800529 -29241472.25800529 -16371619.22760564 0 0 0 0 0 83185811.13848048 -28562647.33594292 -28562647.33594292 -16590593.62333892 0 0 0 0 0 85931388.69229832 -27802747.05836603 -27802747.05836603 -16769540.12700967 0 0 0 0 0 88501823.12896639 -26976015.37614927 -26976015.37614927 -16906128.84309013 0 0 0 0 0 93160839.7544452 -24767848.35354513 -24767848.35354513 -15725826.85408085 0 0 0 0 0 92948660.43623507 -24745664.84706353 -24745664.84706353 -16587651.06133883 0 0 0 0 0 94928214.67746605 -23830165.56612754 -23830165.56612754 -16610791.57873254 0 0 0 0 0 96761987.77640055 -22897453.26201582 -22897453.26201582 -16593625.51496998 0 0 0 0 0 98439988.4977462 -21953035.28570792 -21953035.28570792 -16540236.5585793 0 0 0 0 0 99979635.46841648 -21006682.26157614 -21006682.26157614 -16439778.32232915 0 0 0 0 0 102456843.8120696 -19227820.7905451 -19227820.7905451 -15278064.9789813 0 0 0 0 0 102128247.7014415 -18930364.2574173 -18930364.2574173 -15773802.14217944 0 0 0 0 0 104497719.5903238 -16382349.10552088 -16382349.10552088 -14179097.88389504 0 0 0 0 0 107368278.8626605 -12666266.94418551 -12666266.94418551 -13017399.58373105 0 0 0 0 0 109025775.6791291 -9116251.902979877 -9116251.902979877 -11461753.55161135 0 0 0 0 0 108785077.9974027 -8789713.627868064 -8789713.627868064 -11451304.2048442 0 0 0 0 0 109505304.7239562 -6425372.965144647 -6425372.965144647 -9891299.933787532 0 0 0 0 0 109204543.7197311 -4192069.625537788 -4192069.625537788 -8272321.501715233 0 0 0 0 0 108811539.7596665 -2785623.358323595 -2785623.358323595 -6986258.283549984 0 0 0 0 0 108318114.485598 -2126707.889298409 -2126707.889298409 -6240437.86275894 0 0 0 0 0 107665028.4738929 -1237696.977546777 -1237696.977546777 -5102715.469181331 0 0 0 0 0 104108269.008058 -17340820.76275068 -17340820.76275068 -14678157.45926 0 0 0 0 0 -2374596.347603096 -1758956.503099197 -1758956.503099197 -43582052.59338515 0 0 0 0 0 12894616.72937923 -14882529.92317768 -14882529.92317768 -22078092.07063056 0 0 0 0 0 55247571.55545977 -29960323.76588245 -29960323.76588245 -15204752.69058117 0 0 0 0 0 72824322.76902576 -30076071.2962991 -30076071.2962991 -15353373.58693539 0 0 0 0 0 93341413.76575083 -25206409.08065954 -25206409.08065954 -16208037.89289656 0 0 0 0 0 102988139.3070144 -19455207.9305778 -19455207.9305778 -15692865.26678501 0 0 0 0 0 104645555.1009439 -17510441.48804276 -17510441.48804276 -15048092.20323271 0 0 0 0 0 103782189.2911004 -17018937.96031164 -17018937.96031164 -15082522.62370834 0 0 0 0 0 104179961.8049494 -16065945.99027796 -16065945.99027796 -14561188.58811189 0 0 0 0 0 105014966.0610934 -15277638.93390837 -15277638.93390837 -14364517.04151856 0 0 0 0 0 105768594.296169 -14512672.43576719 -14512672.43576719 -14153043.61977945 0 0 0 0 0 106441686.2334072 -13767476.51986169 -13767476.51986169 -13926783.16724131 0 0 0 0 0 107050645.9317825 -13043987.43475365 -13043987.43475365 -13686622.75362346 0 0 0 0 0 107076067.0224989 -12324285.60850345 -12324285.60850345 -13182272.72609103 0 0 0 0 0 107560902.1718438 -11667039.20390248 -11667039.20390248 -12937507.49354739 0 0 0 0 0 107992633.0552512 -11032121.33706977 -11032121.33706977 -12684231.58165455 0 0 0 0 0 108375166.6087053 -10420065.68843273 -10420065.68843273 -12424041.04166195 0 0 0 0 0 108711309.3140898 -9831020.986871697 -9831020.986871697 -12157377.23560655 0 0 0 0 0 109004217.6886212 -9264652.703762647 -9264652.703762647 -11887839.00521728 0 0 0 0 0 109013272.7393198 -8278631.37971255 -8278631.37971255 -11190128.47257794 0 0 0 0 0 109209075.2821698 -7788117.119731753 -7788117.119731753 -10927191.4293473 0 0 0 0 0 109375263.0207126 -7317803.592460872 -7317803.592460872 -10663207.96949415 0 0 0 0 0 109513889.5422055 -6867467.248901184 -6867467.248901184 -10399319.43331445 0 0 0 0 0 109628035.9441428 -6436409.12364787 -6436409.12364787 -10135831.7841974 0 0 0 0 0 109315982.3812362 -6137335.65037683 -6137335.65037683 -9777826.666951021 0 0 0 0 0 109395476.9381297 -5750384.631759511 -5750384.631759511 -9528660.015108077 0 0 0 0 0 109455697.2998109 -5380533.611188528 -5380533.611188528 -9281628.304757236 0 0 0 0 0 109498857.2833499 -5027203.036997726 -5027203.036997726 -9036239.569802688 0 0 0 0 0 109525476.1099647 -4690149.502467096 -4690149.502467096 -8794139.81054941 0 0 0 0 0 109537719.5411548 -4368426.693841875 -4368426.693841875 -8554881.395737907 0 0 0 0 0 109318768.1514308 -3860431.097567399 -3860431.097567399 -8012176.592719231 0 0 0 0 0 109536683.0798825 -4061732.395982088 -4061732.395982088 -8318919.15497143 0 0 0 0 0 109186673.4512061 -3626811.533651872 -3626811.533651872 -7827527.409789873 0 0 0 0 0 109162241.0715665 -3363597.946857198 -3363597.946857198 -7610857.745893085 0 0 0 0 0 109128737.5644675 -3112646.949851632 -3112646.949851632 -7397649.169437806 0 0 0 0 0 109089592.9830229 -2877598.272806014 -2877598.272806014 -7182996.246182891 0 0 0 0 0 109039332.0026427 -2657221.024615299 -2657221.024615299 -6976133.90881234 0 0 0 0 0 108749476.1991182 -2578237.620339727 -2578237.620339727 -6794084.396442172 0 0 0 0 0 108641602.8906133 -2385924.744886263 -2385924.744886263 -6595432.839239405 0 0 0 0 0 108582476.524336 -2189584.160730074 -2189584.160730074 -6407962.185312429 0 0 0 0 0 108525540.9050943 -2003436.037447892 -2003436.037447892 -6224104.509993522 0 0 0 0 0 108250139.9883591 -1952358.30845196 -1952358.30845196 -6071646.869374697 0 0 0 0 0 108167531.1305921 -1782334.686446528 -1782334.686446528 -5877968.549616987 0 0 0 0 0 108100042.539598 -1621062.731673534 -1621062.731673534 -5710292.454167333 0 0 0 0 0 108029347.9965248 -1467442.619708517 -1467442.619708517 -5546988.728523948 0 0 0 0 0 107956126.1045427 -1319331.046943076 -1319331.046943076 -5385071.206814895 0 0 0 0 0 107902189.3993992 -1182500.8770189 -1182500.8770189 -5199064.614931723 0 0 0 0 0 107833315.0362574 -1081618.476924502 -1081618.476924502 -5064483.763322023 0 0 0 0 0 107621217.2442017 -957113.5651169501 -957113.5651169501 -4854597.644845456 0 0 0 0 0 107740789.6575554 -1016460.397965097 -1016460.397965097 -4955111.264603715 0 0 0 0 0 107510106.2647578 -899344.3417210752 -899344.3417210752 -4748617.660204464 0 0 0 0 0 107315116.6627731 -999784.5855803723 -999784.5855803723 -4908880.425236084 0 0 0 0 0 -2968792.006249977 -2425024.957810588 -2425024.957810588 -47992464.17588854 0 0 0 0 0 -1872909.413252403 -3933521.509915196 -3933521.509915196 -44787285.20725192 0 0 0 0 0 1684773.390697653 -6019932.756022714 -6019932.756022714 -31923148.04058857 0 0 0 0 0 3529265.535915855 -9220118.597889224 -9220118.597889224 -32992068.90345885 0 0 0 0 0 6107493.214375325 -11568564.73399217 -11568564.73399217 -30311406.81201789 0 0 0 0 0 8970974.650925787 -14068402.97041208 -14068402.97041208 -27813326.89799285 0 0 0 0 0 15231788.45830452 -18026519.71041171 -18026519.71041171 -22044875.51286126 0 0 0 0 0 18923975.0568989 -20356238.589798 -20356238.589798 -20591733.07379708 0 0 0 0 0 22907010.22571541 -22545508.03322843 -22545508.03322843 -19384723.35217715 0 0 0 0 0 27126640.49193099 -24557338.75033246 -24557338.75033246 -18422650.0931645 0 0 0 0 0 31530593.19312124 -26361672.1968551 -26361672.1968551 -17691450.27404547 0 0 0 0 0 36066383.13855431 -27935972.53001483 -27935972.53001483 -17174017.30883996 0 0 0 0 0 40679516.22511158 -29264885.13842735 -29264885.13842735 -16841683.28634805 0 0 0 0 0 45319706.68909489 -30340579.46023986 -30340579.46023986 -16666797.3219685 0 0 0 0 0 49943594.09224726 -31163216.42271692 -31163216.42271692 -16620857.47280438 0 0 0 0 0 59651838.85388219 -30403461.24941541 -30403461.24941541 -15339402.51786245 0 0 0 0 0 60482122.63563098 -31768450.14104439 -31768450.14104439 -16163716.4613121 0 0 0 0 0 64598541.80884358 -31815565.37441604 -31815565.37441604 -16405484.76559906 0 0 0 0 0 68564980.19134574 -31675645.06462928 -31675645.06462928 -16660804.21769203 0 0 0 0 0 73170733.13871667 -30850749.47891103 -30850749.47891103 -16382113.79273406 0 0 0 0 0 76597728.39339614 -30380278.03568934 -30380278.03568934 -16646661.68652891 0 0 0 0 0 79843531.75150211 -29790269.15155998 -29790269.15155998 -16885414.69254149 0 0 0 0 0 82910948.46472223 -29097205.76043046 -29097205.76043046 -17089252.14587109 0 0 0 0 0 85791024.51675113 -28316514.28879314 -28316514.28879314 -17254712.87078856 0 0 0 0 0 88483531.70471621 -27462629.91972535 -27462629.91972535 -17378011.43537603 0 0 0 0 0 90989716.85666831 -26550294.25866789 -26550294.25866789 -17457994.1238275 0 0 0 0 0 95440847.61245874 -24325266.50840503 -24325266.50840503 -16277747.56371451 0 0 0 0 0 95186380.12513182 -24221226.05543134 -24221226.05543134 -17057051.07303604 0 0 0 0 0 97087244.70199585 -23249371.38374151 -23249371.38374151 -17024139.72478399 0 0 0 0 0 98830558.27536839 -22265030.77638832 -22265030.77638832 -16952216.20016722 0 0 0 0 0 100427507.536811 -21274797.9572224 -21274797.9572224 -16843508.64796831 0 0 0 0 0 101882584.9978652 -20285732.94807171 -20285732.94807171 -16699132.46616609 0 0 0 0 0 104139840.7364819 -18561694.14104092 -18561694.14104092 -15554457.50891214 0 0 0 0 0 103793952.553486 -18219111.14533184 -18219111.14533184 -15980569.86382974 0 0 0 0 0 105870640.7432672 -15732906.10284904 -15732906.10284904 -14374658.58476629 0 0 0 0 0 108374354.0512183 -12030669.93043385 -12030669.93043385 -13071160.03197723 0 0 0 0 0 109716636.8212037 -8537164.847321795 -8537164.847321795 -11400379.75166154 0 0 0 0 0 109477911.0903275 -8198286.479091153 -8198286.479091153 -11340240.74490053 0 0 0 0 0 109972741.0985947 -5925327.369900879 -5925327.369900879 -9765006.82500599 0 0 0 0 0 109523573.5875876 -3769512.869024962 -3769512.869024962 -8086438.65328415 0 0 0 0 0 108997244.7630888 -2453946.362779048 -2453946.362779048 -6814206.050336822 0 0 0 0 0 108468510.7859474 -1830490.965953942 -1830490.965953942 -6075118.066491619 0 0 0 0 0 105585441.4334712 -16673638.60204078 -16673638.60204078 -14894160.20518693 0 0 0 0 0 -3523477.85771828 -1767542.488164522 -1767542.488164522 -52269199.96818896 0 0 0 0 0 -407871.9347055018 -4411457.595952761 -4411457.595952761 -37635807.7541296 0 0 0 0 0 13448358.03433941 -15833165.81352111 -15833165.81352111 -23964656.08436967 0 0 0 0 0 58031201.46349132 -30613224.66827542 -30613224.66827542 -16140392.5914212 0 0 0 0 0 75696378.00113143 -30243946.79663109 -30243946.79663109 -16193965.07323691 0 0 0 0 0 95721034.8792586 -24722460.54318823 -24722460.54318823 -16735557.60735214 0 0 0 0 0 104735756.4793502 -18744755.08280514 -18744755.08280514 -15968371.08641813 0 0 0 0 0 106171781.7580415 -16802167.74496876 -16802167.74496876 -15238780.56523599 0 0 0 0 0 105246480.8740137 -16309337.92195917 -16309337.92195917 -15219073.68686431 0 0 0 0 0 105541171.612419 -15381480.48474352 -15381480.48474352 -14680805.2878993 0 0 0 0 0 106300202.7879779 -14589711.92564133 -14589711.92564133 -14452300.56369036 0 0 0 0 0 106983292.8761246 -13819277.80826557 -13819277.80826557 -14206971.30060911 0 0 0 0 0 107592600.0249949 -13071838.45406563 -13071838.45406563 -13948645.67062182 0 0 0 0 0 108137329.4585924 -12348902.95071501 -12348902.95071501 -13679067.89249311 0 0 0 0 0 108078833.4495115 -11665585.8907345 -11665585.8907345 -13172985.70893523 0 0 0 0 0 108508411.7467519 -11011406.82181313 -11011406.82181313 -12902697.95853363 0 0 0 0 0 108886618.0286135 -10381781.60480737 -10381781.60480737 -12626119.07222383 0 0 0 0 0 109217672.9852474 -9776667.804091336 -9776667.804091336 -12344438.79134811 0 0 0 0 0 109504504.5157928 -9195516.363051157 -9195516.363051157 -12057191.02616414 0 0 0 0 0 109749872.6311386 -8639091.950592674 -8639091.950592674 -11771028.90716155 0 0 0 0 0 109664876.7495779 -7696849.662393326 -7696849.662393326 -11063654.6658008 0 0 0 0 0 109821723.3607401 -7216602.691139072 -7216602.691139072 -10786475.45722384 0 0 0 0 0 109950978.5551192 -6757341.729993513 -6757341.729993513 -10509567.26832901 0 0 0 0 0 110054023.6613857 -6318670.994338797 -6318670.994338797 -10234091.72987275 0 0 0 0 0 110133987.7070428 -5900029.519273393 -5900029.519273393 -9960662.472440051 0 0 0 0 0 109788076.6280637 -5631401.233177559 -5631401.233177559 -9613724.867907029 0 0 0 0 0 109838085.661164 -5255949.475697692 -5255949.475697692 -9355943.817320716 0 0 0 0 0 109870434.321059 -4897790.428322627 -4897790.428322627 -9101036.66243813 0 0 0 0 0 109886977.8024064 -4556394.331701736 -4556394.331701736 -8849239.284361064 0 0 0 0 0 109888832.9290511 -4231121.924091796 -4231121.924091796 -8600970.215824438 0 0 0 0 0 109877480.8822422 -3921390.34095601 -3921390.34095601 -8356429.947795154 0 0 0 0 0 109592787.1959899 -3461367.051076396 -3461367.051076396 -7843324.666406211 0 0 0 0 0 109854018.1342759 -3626609.014521459 -3626609.014521459 -8115976.178460687 0 0 0 0 0 109465475.0332386 -3226523.818200459 -3226523.818200459 -7633516.313969631 0 0 0 0 0 109422882.4604815 -2974060.439112455 -2974060.439112455 -7413768.902685396 0 0 0 0 0 109374428.7429046 -2736303.682368299 -2736303.682368299 -7195753.202161479 0 0 0 0 0 109318636.1313493 -2511456.508696804 -2511456.508696804 -6977826.246789398 0 0 0 0 0 109240453.7383277 -2309064.852774807 -2309064.852774807 -6779882.195874426 0 0 0 0 0 108926865.5976289 -2251251.761009904 -2251251.761009904 -6618807.802726312 0 0 0 0 0 108830979.0684977 -2057010.571530354 -2057010.571530354 -6404102.18656575 0 0 0 0 0 108760057.4901658 -1869625.210556565 -1869625.210556565 -6215884.651680894 0 0 0 0 0 108686628.3030043 -1692567.487502724 -1692567.487502724 -6031537.926905576 0 0 0 0 0 108389787.6253796 -1664622.951993596 -1664622.951993596 -5904874.121897024 0 0 0 0 0 108311039.5403766 -1495302.390078092 -1495302.390078092 -5696384.509834182 0 0 0 0 0 108233380.2048143 -1342572.004937444 -1342572.004937444 -5527798.981058326 0 0 0 0 0 108152462.1333584 -1195787.517127828 -1195787.517127828 -5362632.737826891 0 0 0 0 0 108070241.5742557 -1050204.124256462 -1050204.124256462 -5194273.744707226 0 0 0 0 0 108041012.4950151 -900542.268980392 -900542.268980392 -4992061.712814815 0 0 0 0 0 107924557.0714654 -844543.9416154019 -844543.9416154019 -4882786.465396711 0 0 0 0 0 107798076.4210459 -789164.9955176269 -789164.9955176269 -4779421.529095933 0 0 0 0 0 107672733.6542762 -733622.757584013 -733622.757584013 -4676391.703331546 0 0 0 0 0 107470474.6665064 -840102.3289378749 -840102.3289378749 -4846559.637184517 0 0 0 0 0 -3934138.800317498 -1536670.432298813 -1536670.432298813 -55980486.97981539 0 0 0 0 0 -2804463.424561508 -2388555.384627175 -2388555.384627175 -53179407.09926275 0 0 0 0 0 -1960200.543168221 -3551844.889345762 -3551844.889345762 -50655747.16986331 0 0 0 0 0 1379711.568230039 -6476007.274553688 -6476007.274553688 -35380359.84145634 0 0 0 0 0 3417210.07288043 -9690286.038499806 -9690286.038499806 -35901389.79439466 0 0 0 0 0 6182498.473958614 -12147242.12733871 -12147242.12733871 -32695399.77115585 0 0 0 0 0 9319733.64912609 -14717427.36115316 -14717427.36115316 -29733087.16635969 0 0 0 0 0 15917806.69384689 -19040475.55508383 -19040475.55508383 -23584243.55256163 0 0 0 0 0 19914954.58963788 -21393385.83747295 -21393385.83747295 -21906535.83500333 0 0 0 0 0 24195011.21927061 -23591270.21408432 -23591270.21408432 -20529727.1465112 0 0 0 0 0 28702172.77615278 -25591850.63125263 -25591850.63125263 -19442373.76940778 0 0 0 0 0 33382287.19126609 -27363066.61578502 -27363066.61578502 -18622200.61130523 0 0 0 0 0 38172455.95272649 -28882204.62793445 -28882204.62793445 -18040850.9818645 0 0 0 0 0 43013682.53872715 -30133281.33847356 -30133281.33847356 -17664369.11689216 0 0 0 0 0 47851089.08766544 -31112694.85023881 -31112694.85023881 -17458218.41760862 0 0 0 0 0 52641127.35974149 -31824133.08201065 -31824133.08201065 -17388367.96444472 0 0 0 0 0 62533837.18311322 -30933533.26504676 -30933533.26504676 -16239957.6128789 0 0 0 0 0 63305846.67891956 -32196357.85803036 -32196357.85803036 -16986354.19516272 0 0 0 0 0 67483118.26389852 -32109498.12803767 -32109498.12803767 -17195601.3180476 0 0 0 0 0 71485343.89467387 -31837929.92183153 -31837929.92183153 -17415867.36391851 0 0 0 0 0 75973909.97549511 -30908781.614569 -30908781.614569 -17156874.53628954 0 0 0 0 0 79388480.42731026 -30317615.99962358 -30317615.99962358 -17375193.52912281 0 0 0 0 0 82613146.73057203 -29615027.65745699 -29615027.65745699 -17563549.56899766 0 0 0 0 0 85637726.85743946 -28816090.44719901 -28816090.44719901 -17715188.19884307 0 0 0 0 0 88461106.55258118 -27937059.06869341 -27937059.06869341 -17825254.00271486 0 0 0 0 0 91085087.77044564 -26994418.67798401 -26994418.67798401 -17892471.99264124 0 0 0 0 0 93513947.44252259 -26002440.94692396 -26002440.94692396 -17915303.07349762 0 0 0 0 0 97730507.34256908 -23776916.81582137 -23776916.81582137 -16751716.69789143 0 0 0 0 0 97436634.47665413 -23591849.7998946 -23591849.7998946 -17438882.17526491 0 0 0 0 0 99245257.00978968 -22567459.68081462 -22567459.68081462 -17350625.45174702 0 0 0 0 0 100897789.0911 -21537912.7252868 -21537912.7252868 -17225131.73332205 0 0 0 0 0 102402833.5490274 -20510070.26101576 -20510070.26101576 -17064270.62781452 0 0 0 0 0 103777049.4163517 -19498925.59268274 -19498925.59268274 -16869983.97920582 0 0 0 0 0 105800115.7163499 -17821670.74894059 -17821670.74894059 -15753104.43328447 0 0 0 0 0 105440281.9406061 -17433081.31225976 -17433081.31225976 -16098516.47343386 0 0 0 0 0 107199963.0613154 -15040973.27620234 -15040973.27620234 -14516493.8724542 0 0 0 0 0 109343607.7303604 -11363956.12498267 -11363956.12498267 -13075101.51930673 0 0 0 0 0 110372707.815477 -7942268.324921387 -7942268.324921387 -11300259.64547025 0 0 0 0 0 110137112.0991865 -7592562.686809438 -7592562.686809438 -11190364.29895223 0 0 0 0 0 110411451.8602881 -5418629.90289311 -5418629.90289311 -9609263.217886118 0 0 0 0 0 109819587.1880776 -3346299.963853796 -3346299.963853796 -7879618.355045073 0 0 0 0 0 109175962.1671423 -2115215.457894169 -2115215.457894169 -6624454.680266037 0 0 0 0 0 108604019.1052725 -1536777.267997629 -1536777.267997629 -5897361.837541301 0 0 0 0 0 107033607.1969519 -15947009.78826139 -15947009.78826139 -15042669.17580261 0 0 0 0 0 -3957483.592163168 -1719686.757017683 -1719686.757017683 -62484837.68368077 0 0 0 0 0 -830682.4769860964 -4292836.875114397 -4292836.875114397 -41906545.66896883 0 0 0 0 0 14232929.22793435 -16559141.81650476 -16559141.81650476 -25675397.35321394 0 0 0 0 0 61021008.23091837 -31127037.38616905 -31127037.38616905 -16962159.86927703 0 0 0 0 0 78690231.36978862 -30271158.34057454 -30271158.34057454 -16944237.47988923 0 0 0 0 0 98108290.02021202 -24129346.32455588 -24129346.32455588 -17177415.95432676 0 0 0 0 0 106440422.3141976 -17957892.12551738 -17957892.12551738 -16132066.94107708 0 0 0 0 0 107659866.4212121 -16034796.08038517 -16034796.08038517 -15359530.73453905 0 0 0 0 0 106684680.5627489 -15546483.52225238 -15546483.52225238 -15286474.26390002 0 0 0 0 0 106860645.7437418 -14654318.45730108 -14654318.45730108 -14742565.97494315 0 0 0 0 0 107548899.0305078 -13857183.34747728 -13857183.34747728 -14478170.19649265 0 0 0 0 0 108161771.5985355 -13085923.38451505 -13085923.38451505 -14201281.81115666 0 0 0 0 0 108705925.3396887 -12340277.59608882 -12340277.59608882 -13913121.89936285 0 0 0 0 0 109186376.4308177 -11621255.27249056 -11621255.27249056 -13615907.44460054 0 0 0 0 0 109046220.8873688 -10977711.94052751 -10977711.94052751 -13112475.43945878 0 0 0 0 0 109419572.903597 -10330137.67350534 -10330137.67350534 -12818690.85092293 0 0 0 0 0 109744124.9256947 -9708250.115111452 -9708250.115111452 -12520390.32743665 0 0 0 0 0 110024433.0656355 -9112127.750455886 -9112127.750455886 -12218380.71982465 0 0 0 0 0 110262455.173649 -8541270.265862228 -8541270.265862228 -11914149.47984035 0 0 0 0 0 110461847.6701008 -7995386.881425222 -7995386.881425222 -11610047.65585337 0 0 0 0 0 110283196.9185947 -7102863.749394527 -7102863.749394527 -10900060.74420964 0 0 0 0 0 110401483.6431237 -6634784.570314553 -6634784.570314553 -10610250.37964706 0 0 0 0 0 110494188.9687093 -6188286.069428577 -6188286.069428577 -10321990.21377007 0 0 0 0 0 110562267.8510764 -5763047.317842715 -5763047.317842715 -10036730.06611224 0 0 0 0 0 110608954.6085949 -5358034.986411311 -5358034.986411311 -9754868.618047444 0 0 0 0 0 110231745.3444263 -5119831.386463838 -5119831.386463838 -9420842.536625786 0 0 0 0 0 110252953.9406791 -4757232.335818985 -4757232.335818985 -9155932.556448424 0 0 0 0 0 110258180.9094969 -4411878.528528546 -4411878.528528546 -8894594.205087813 0 0 0 0 0 110249007.2424112 -4083294.588022953 -4083294.588022953 -8637202.23830403 0 0 0 0 0 110226559.6999054 -3770851.965387696 -3770851.965387696 -8384171.454848978 0 0 0 0 0 110192174.0112531 -3473859.197843541 -3473859.197843541 -8135546.057686521 0 0 0 0 0 109844847.9531754 -3062151.760549705 -3062151.760549705 -7654487.133250578 0 0 0 0 0 110146949.8816339 -3191772.59442244 -3191772.59442244 -7891806.057909972 0 0 0 0 0 109722798.47199 -2826918.940058286 -2826918.940058286 -7420171.312252167 0 0 0 0 0 109663095.9777459 -2586152.636005342 -2586152.636005342 -7198901.419442838 0 0 0 0 0 109598159.5094277 -2358740.230662231 -2358740.230662231 -6974189.107710642 0 0 0 0 0 109516536.9824816 -2153235.068895536 -2153235.068895536 -6767339.689302855 0 0 0 0 0 109429480.8561428 -1957404.894536603 -1957404.894536603 -6566453.696470509 0 0 0 0 0 109092668.2825497 -1923501.005551254 -1923501.005551254 -6432297.938411411 0 0 0 0 0 109001421.2090056 -1730021.491552118 -1730021.491552118 -6199524.567167514 0 0 0 0 0 108918509.2143994 -1552844.974766887 -1552844.974766887 -6010945.845767326 0 0 0 0 0 108832346.6243452 -1385127.46655854 -1385127.46655854 -5826563.424811443 0 0 0 0 0 108515178.1815447 -1379445.181316635 -1379445.181316635 -5726332.556179092 0 0 0 0 0 108440112.6992166 -1211253.552578878 -1211253.552578878 -5504788.911952438 0 0 0 0 0 108351480.4287614 -1065679.728360644 -1065679.728360644 -5339283.545606563 0 0 0 0 0 108248824.246409 -924504.3080826956 -924504.3080826956 -5181494.702726417 0 0 0 0 0 108258579.3386747 -706701.0278878177 -706701.0278878177 -4897369.324747863 0 0 0 0 0 108117169.359874 -667777.6086896007 -667777.6086896007 -4792733.194359538 0 0 0 0 0 107967472.9860347 -616025.5134826655 -616025.5134826655 -4693855.242216052 0 0 0 0 0 107836169.5940332 -564993.5914533506 -564993.5914533506 -4591750.440421383 0 0 0 0 0 107625433.4768833 -676505.9722386702 -676505.9722386702 -4769903.972035293 0 0 0 0 0 -3859991.398371269 770091.6919260344 770091.6919260344 -62215775.25570664 0 0 0 0 0 -4115163.28540318 -138597.1641325579 -138597.1641325579 -55141099.38334947 0 0 0 0 0 -2981119.517871818 -1184229.550772998 -1184229.550772998 -60296996.51567451 0 0 0 0 0 -2063974.456693113 -2675975.910460105 -2675975.910460105 -56758793.97916842 0 0 0 0 0 1115485.174368722 -6378942.750919333 -6378942.750919333 -38818172.51195867 0 0 0 0 0 3542318.603146108 -9733694.086467028 -9733694.086467028 -38514335.57417833 0 0 0 0 0 6497306.434793791 -12338012.8809524 -12338012.8809524 -34706225.64051349 0 0 0 0 0 9898364.845154535 -15049018.57529472 -15049018.57529472 -31267869.36447058 0 0 0 0 0 16858188.85548602 -19831810.91551367 -19831810.91551367 -24837146.62063978 0 0 0 0 0 21158644.99131529 -22238953.9622997 -22238953.9622997 -22941540.79284088 0 0 0 0 0 25738386.6395238 -24468230.21791548 -24468230.21791548 -21408008.1985617 0 0 0 0 0 30537478.87772096 -26472969.60880076 -26472969.60880076 -20212275.03533715 0 0 0 0 0 35497089.36542333 -28219787.36067453 -28219787.36067453 -19321172.16976172 0 0 0 0 0 40535711.00597609 -29685129.00181689 -29685129.00181689 -18697044.90760581 0 0 0 0 0 45597230.85967267 -30859019.30139135 -30859019.30139135 -18294540.11304448 0 0 0 0 0 50620849.97908477 -31740594.3298413 -31740594.3298413 -18072637.61122102 0 0 0 0 0 55561742.55823993 -32338308.39146493 -32338308.39146493 -17991659.2674788 0 0 0 0 0 65602928.79337364 -31321954.67392812 -31321954.67392812 -17030782.43848826 0 0 0 0 0 66310506.96435607 -32472311.13542633 -32472311.13542633 -17686131.14651706 0 0 0 0 0 70532094.37605253 -32251993.36684662 -32251993.36684662 -17867174.45627093 0 0 0 0 0 74549955.77824461 -31848026.17908651 -31848026.17908651 -18054277.59865736 0 0 0 0 0 78895911.29104306 -30817375.89597554 -30817375.89597554 -17829169.0261451 0 0 0 0 0 82288877.89236836 -30109668.1265507 -30109668.1265507 -18000988.30910597 0 0 0 0 0 85466913.13773234 -29297437.72305544 -29297437.72305544 -18139758.58859229 0 0 0 0 0 88431344.35716347 -28396371.14284032 -28396371.14284032 -18237480.91056408 0 0 0 0 0 91181474.63885534 -27425146.39469569 -27425146.39469569 -18292720.33803 0 0 0 0 0 93721734.66988289 -26399486.37096938 -26399486.37096938 -18303155.58950533 0 0 0 0 0 96057777.30755934 -25335075.40801573 -25335075.40801573 -18269851.32619302 0 0 0 0 0 100016952.3721018 -23125770.25722124 -23125770.25722124 -17139762.61137866 0 0 0 0 0 99685096.15961412 -22859007.75435643 -22859007.75435643 -17726607.98999988 0 0 0 0 0 101396517.1697019 -21789326.68718389 -21789326.68718389 -17584090.8638 0 0 0 0 0 102950471.1609337 -20721890.2216869 -20721890.2216869 -17405861.12713871 0 0 0 0 0 104360930.4669671 -19669663.69116901 -19669663.69116901 -17194740.68787235 0 0 0 0 0 105620112.8048524 -18633635.58624513 -18633635.58624513 -16944305.71477358 0 0 0 0 0 107425767.0566586 -17020414.17057632 -17020414.17057632 -15887677.77136072 0 0 0 0 0 107053039.0705615 -16588272.81363943 -16588272.81363943 -16129228.49688074 0 0 0 0 0 108488787.0819329 -14301977.90271132 -14301977.90271132 -14592319.78102433 0 0 0 0 0 110271997.2809234 -10669830.3067979 -10669830.3067979 -13028262.34052889 0 0 0 0 0 110992241.5891282 -7334172.801137353 -7334172.801137353 -11161319.09679518 0 0 0 0 0 110761375.9952391 -6975167.624031791 -6975167.624031791 -11001617.10735374 0 0 0 0 0 110820244.3707134 -4907407.509218298 -4907407.509218298 -9424680.366253015 0 0 0 0 0 110092169.5972086 -2923922.953607799 -2923922.953607799 -7652593.597882737 0 0 0 0 0 109337329.9587853 -1781144.861632509 -1781144.861632509 -6423478.294795569 0 0 0 0 0 108724361.6707109 -1246635.064725382 -1246635.064725382 -5707804.777535558 0 0 0 0 0 108437211.2870316 -15173349.57604056 -15173349.57604056 -15127452.64638202 0 0 0 0 0 -2828211.906111022 -1077110.312938599 -1077110.312938599 -75049429.6841428 0 0 0 0 0 -1274694.857325531 -3441224.647468341 -3441224.647468341 -45882489.56378517 0 0 0 0 0 15219147.01105162 -17056968.00309763 -17056968.00309763 -27117115.83842594 0 0 0 0 0 64205363.99090566 -31499809.2513324 -31499809.2513324 -17650495.18987684 0 0 0 0 0 81792368.87277457 -30152780.92323606 -30152780.92323606 -17590869.52228102 0 0 0 0 0 100489726.5929332 -23429351.53616842 -23429351.53616842 -17526042.22814751 0 0 0 0 0 108111347.2964527 -17121107.25767234 -17121107.25767234 -16214790.29455055 0 0 0 0 0 109102632.5897063 -15216956.09092142 -15216956.09092142 -15409538.67887039 0 0 0 0 0 108078010.0787908 -14732719.93979928 -14732719.93979928 -15283399.6779633 0 0 0 0 0 108143590.2072791 -13880324.24652004 -13880324.24652004 -14737298.31483673 0 0 0 0 0 108757993.8207348 -13084617.15881957 -13084617.15881957 -14441867.41102858 0 0 0 0 0 109301219.0944209 -12316169.12490714 -12316169.12490714 -14134850.14095484 0 0 0 0 0 109778221.7777181 -11575951.27027435 -11575951.27027435 -13818849.82142074 0 0 0 0 0 110193953.8239807 -10864587.68579901 -10864587.68579901 -13496077.81524323 0 0 0 0 0 109974586.5860615 -10264133.64455715 -10264133.64455715 -13000251.36471374 0 0 0 0 0 110291154.2549049 -9625973.895674193 -9625973.895674193 -12685169.89814462 0 0 0 0 0 110562429.0517794 -9014516.472643085 -9014516.472643085 -12366821.34989591 0 0 0 0 0 110791579.6409826 -8429647.626440939 -8429647.626440939 -12046831.30427907 0 0 0 0 0 110981455.2479697 -7871697.196394975 -7871697.196394975 -11726590.17008066 0 0 0 0 0 111135436.3405277 -7339063.653235886 -7339063.653235886 -11407131.2759109 0 0 0 0 0 110867301.8413644 -6498838.490582571 -6498838.490582571 -10699165.1133851 0 0 0 0 0 110947522.8416654 -6044917.415803722 -6044917.415803722 -10398493.01512279 0 0 0 0 0 111003788.3085875 -5613199.559552911 -5613199.559552911 -10101069.43472824 0 0 0 0 0 111037961.2567254 -5202497.18939665 -5202497.18939665 -9807986.193849569 0 0 0 0 0 111053305.1264172 -4811364.037705314 -4811364.037705314 -9517248.713588063 0 0 0 0 0 110646019.2986503 -4604998.287960554 -4604998.287960554 -9200015.364263162 0 0 0 0 0 110639368.4902949 -4256103.755707919 -4256103.755707919 -8929032.372380398 0 0 0 0 0 110618249.9908726 -3924573.129696839 -3924573.129696839 -8662615.404299431 0 0 0 0 0 110584088.8137215 -3609746.475581635 -3609746.475581635 -8400930.957733518 0 0 0 0 0 110538083.7170847 -3310949.93343442 -3310949.93343442 -8144375.333372825 0 0 0 0 0 110481514.860023 -3027457.133978842 -3027457.133978842 -7892989.020358228 0 0 0 0 0 110074493.6379582 -2664296.193546494 -2664296.193546494 -7446557.122782895 0 0 0 0 0 110415443.7833366 -2758555.132423081 -2758555.132423081 -7646921.946944091 0 0 0 0 0 109958420.9017563 -2429863.686510691 -2429863.686510691 -7188425.540822146 0 0 0 0 0 109876720.0094487 -2203858.897232671 -2203858.897232671 -6964758.833844439 0 0 0 0 0 109790860.4245318 -1993088.75845452 -1993088.75845452 -6746331.315372735 0 0 0 0 0 109696957.7789512 -1797254.187888189 -1797254.187888189 -6540447.538883139 0 0 0 0 0 109595931.3088045 -1611967.083436526 -1611967.083436526 -6341601.971114951 0 0 0 0 0 109241272.2011847 -1598998.013291285 -1598998.013291285 -6231201.879678347 0 0 0 0 0 109154697.6757049 -1406792.194198688 -1406792.194198688 -5981732.643924461 0 0 0 0 0 109059921.7495902 -1239707.949048732 -1239707.949048732 -5793816.986204946 0 0 0 0 0 108962409.7400098 -1081725.437972744 -1081725.437972744 -5609681.993227806 0 0 0 0 0 108625481.7025222 -1098436.199217136 -1098436.199217136 -5537065.877683404 0 0 0 0 0 108554614.610574 -931572.9686478018 -931572.9686478018 -5300584.160418258 0 0 0 0 0 108457833.5243038 -795591.0126165232 -795591.0126165232 -5133323.64104368 0 0 0 0 0 108361934.8694555 -666704.4472765548 -666704.4472765548 -4975531.327616596 0 0 0 0 0 108257763.2270558 -480805.9124772552 -480805.9124772552 -4695344.06944941 0 0 0 0 0 108134144.476619 -439771.8770373781 -439771.8770373781 -4600978.903109852 0 0 0 0 0 107995029.9121438 -392866.8082561569 -392866.8082561569 -4499551.049549657 0 0 0 0 0 107777970.6841068 -508358.5120932052 -508358.5120932052 -4684301.592521933 0 0 0 0 0 -3015462.339827965 124714.1399815918 124714.1399815918 -83374538.99843551 0 0 0 0 0 -3796310.514608739 876319.041804667 876319.041804667 -60681420.57759087 0 0 0 0 0 -2894397.383292314 798919.9131874585 798919.9131874585 -69061199.84416917 0 0 0 0 0 -1897319.530284689 -1189926.593853244 -1189926.593853244 -60984452.18317349 0 0 0 0 0 1045323.651381614 -5847408.073982953 -5847408.073982953 -41823712.336423 0 0 0 0 0 3843424.2359928 -9330383.293747395 -9330383.293747395 -40636965.84391115 0 0 0 0 0 6988929.07427394 -12155306.70863108 -12155306.70863108 -36197900.51134685 0 0 0 0 0 10673431.8592037 -15054419.22684518 -15054419.22684518 -32266498.06549883 0 0 0 0 0 18028778.29153664 -20403871.26808166 -20403871.26808166 -25708236.11562024 0 0 0 0 0 22638869.41868431 -22902882.25346313 -22902882.25346313 -23621394.46234527 0 0 0 0 0 27529889.49400981 -25185894.60293981 -25185894.60293981 -21958984.69428364 0 0 0 0 0 32629860.30226794 -27207347.80701758 -27207347.80701758 -20683282.34054008 0 0 0 0 0 37859662.11672665 -28935856.97985096 -28935856.97985096 -19753604.90385602 0 0 0 0 0 43145338.49725118 -30351227.96522433 -30351227.96522433 -19111015.94715171 0 0 0 0 0 48419438.41023909 -31447688.97716164 -31447688.97716164 -18706584.4778536 0 0 0 0 0 53618310.14590403 -32227373.22484433 -32227373.22484433 -18489150.91447449 0 0 0 0 0 58695916.81290943 -32707839.86516225 -32707839.86516225 -18413610.67447152 0 0 0 0 0 68848027.82346548 -31566437.01567832 -31566437.01567832 -17695501.85430934 0 0 0 0 0 69487040.51968718 -32596251.83700919 -32596251.83700919 -18247376.52510295 0 0 0 0 0 73730733.72462228 -32240898.38292861 -32240898.38292861 -18405045.54758864 0 0 0 0 0 77746771.33877994 -31704336.5585841 -31704336.5585841 -18563887.55316504 0 0 0 0 0 81927140.51779968 -30577236.63369206 -30577236.63369206 -18387650.87351647 0 0 0 0 0 85272751.33912414 -29756408.3279168 -29756408.3279168 -18515074.91340962 0 0 0 0 0 88388662.81208189 -28837187.65843423 -28837187.65843423 -18602114.04155481 0 0 0 0 0 91274952.07407716 -27840001.68842712 -27840001.68842712 -18647157.26402813 0 0 0 0 0 93935740.39541101 -26782504.56775482 -26782504.56775482 -18647314.18491459 0 0 0 0 0 96376608.89255068 -25681732.85504446 -25681732.85504446 -18603521.56935542 0 0 0 0 0 98606843.61922185 -24551279.72823771 -24551279.72823771 -18514213.05293264 0 0 0 0 0 102288767.7606236 -22373535.49680571 -22373535.49680571 -17434572.3693858 0 0 0 0 0 101922054.2665291 -22027548.57402732 -22027548.57402732 -17914740.18199417 0 0 0 0 0 103527530.0146618 -20919869.49319071 -20919869.49319071 -17719641.84828125 0 0 0 0 0 104977341.3616323 -19824346.33455997 -19824346.33455997 -17490340.85016143 0 0 0 0 0 106276471.3662847 -18746927.68225472 -18746927.68225472 -17231189.7999361 0 0 0 0 0 107428760.6028975 -17693602.73797061 -17693602.73797061 -16931336.88158859 0 0 0 0 0 109006173.8607741 -16171290.58451359 -16171290.58451359 -15948906.52807154 0 0 0 0 0 108615016.400845 -15684043.58954845 -15684043.58954845 -16087516.80417762 0 0 0 0 0 109733366.9450224 -13519230.7596541 -13519230.7596541 -14604384.59113036 0 0 0 0 0 111156242.1320194 -9951558.41806644 -9951558.41806644 -12929751.99853994 0 0 0 0 0 111573667.7658019 -6715632.653040955 -6715632.653040955 -10983479.50812702 0 0 0 0 0 111350220.9738099 -6347495.357215975 -6347495.357215975 -10773555.10783921 0 0 0 0 0 111198514.8678004 -4393662.077427166 -4393662.077427166 -9211412.742365638 0 0 0 0 0 110340961.4181146 -2503849.535961238 -2503849.535961238 -7405692.446825954 0 0 0 0 0 109480627.6077683 -1450373.364528358 -1450373.364528358 -6209065.763700173 0 0 0 0 0 108830058.2458156 -960407.0792641825 -960407.0792641825 -5506466.182204837 0 0 0 0 0 108342196.2304663 -547085.9827550261 -547085.9827550261 -4803207.014695436 0 0 0 0 0 109794414.2633944 -14349730.36854242 -14349730.36854242 -15139146.54401427 0 0 0 0 0 -1776880.063874697 -1255773.700622278 -1255773.700622278 -86497441.92053807 0 0 0 0 0 -2933079.530181958 1157244.19757244 1157244.19757244 -70462537.25987501 0 0 0 0 0 -1230585.576810763 -2137055.380005798 -2137055.380005798 -49370798.71649625 0 0 0 0 0 16370547.62736659 -17344616.13810447 -17344616.13810447 -28185948.1906781 0 0 0 0 0 67568735.43432789 -31731353.49874994 -31731353.49874994 -18187111.09401669 0 0 0 0 0 84984024.5332659 -29890723.57961095 -29890723.57961095 -18124362.7168553 0 0 0 0 0 102851710.2904747 -22626415.05565488 -22626415.05565488 -17774935.12073769 0 0 0 0 0 109725324.0461632 -16216155.77863292 -16216155.77863292 -16218930.91368607 0 0 0 0 0 110493837.7001241 -14348626.430143 -14348626.430143 -15385512.7463782 0 0 0 0 0 109428819.5450631 -13873673.36077061 -13873673.36077061 -15208373.67810524 0 0 0 0 0 109383465.1701827 -13066698.43475465 -13066698.43475465 -14667142.98075733 0 0 0 0 0 109923756.5512837 -12275570.20038926 -12275570.20038926 -14341553.54923826 0 0 0 0 0 110396420.3687508 -11513860.70540968 -11513860.70540968 -14006603.44170896 0 0 0 0 0 110805472.2799309 -10783055.06356163 -10783055.06356163 -13665208.11554798 0 0 0 0 0 111156320.555539 -10082921.26448733 -10082921.26448733 -13319448.06090407 0 0 0 0 0 110860258.4358763 -9528437.581187727 -9528437.581187727 -12836297.43634616 0 0 0 0 0 111121195.2048616 -8901931.052341465 -8901931.052341465 -12501573.99295063 0 0 0 0 0 111339380.3476382 -8303396.305537803 -8303396.305537803 -12165035.91777047 0 0 0 0 0 111517651.8364031 -7733230.200200746 -7733230.200200746 -11829440.68882071 0 0 0 0 0 111658993.8040907 -7190418.862481522 -7190418.862481522 -11495350.93371404 0 0 0 0 0 111767047.5335852 -6673788.488792989 -6673788.488792989 -11163625.47945031 0 0 0 0 0 111415650.989403 -5887541.548108635 -5887541.548108635 -10461319.24269326 0 0 0 0 0 111458188.1761658 -5449698.497542641 -5449698.497542641 -10152260.05018852 0 0 0 0 0 111478912.8507496 -5033860.117239011 -5033860.117239011 -9847428.590490427 0 0 0 0 0 111480255.4535703 -4638789.648376092 -4638789.648376092 -9546879.02782396 0 0 0 0 0 111464166.07728 -4263870.981921763 -4263870.981921763 -9250657.923093079 0 0 0 0 0 111030232.7336567 -4088714.45547821 -4088714.45547821 -8951642.762770999 0 0 0 0 0 110996686.9150436 -3754498.604574173 -3754498.604574173 -8675951.471754035 0 0 0 0 0 110950025.4787516 -3437677.605918637 -3437677.605918637 -8405749.760370629 0 0 0 0 0 110891761.9926066 -3137461.577782588 -3137461.577782588 -8141165.861698464 0 0 0 0 0 110823141.5463619 -2853015.384180448 -2853015.384180448 -7882375.395815179 0 0 0 0 0 110745375.8318195 -2583618.893066579 -2583618.893066579 -7629408.370722308 0 0 0 0 0 110278210.8371223 -2273212.63157952 -2273212.63157952 -7224370.158343631 0 0 0 0 0 110659296.1626613 -2328391.510865307 -2328391.510865307 -7382762.143801517 0 0 0 0 0 110175917.8844813 -2035855.7727092 -2035855.7727092 -6936388.547345142 0 0 0 0 0 110066369.3688487 -1828642.857348082 -1828642.857348082 -6718753.108872128 0 0 0 0 0 109962777.9890679 -1634148.35147612 -1634148.35147612 -6505932.798486523 0 0 0 0 0 109852433.5182328 -1449767.20373539 -1449767.20373539 -6303917.584874697 0 0 0 0 0 109747820.3045894 -1267107.928569099 -1267107.928569099 -6097673.702846811 0 0 0 0 0 109372698.4567314 -1278512.417458009 -1278512.417458009 -6016756.50076698 0 0 0 0 0 109290806.7291271 -1087978.814624165 -1087978.814624165 -5751420.122850168 0 0 0 0 0 109183725.8750047 -931895.0851952727 -931895.0851952727 -5565534.118427989 0 0 0 0 0 109075931.0822908 -784258.5819551656 -784258.5819551656 -5382824.155889695 0 0 0 0 0 108721695.9914448 -820853.5131363533 -820853.5131363533 -5335554.008310325 0 0 0 0 0 108654949.9150263 -655518.8150872205 -655518.8150872205 -5086982.169862882 0 0 0 0 0 108552798.5744525 -529528.1875732407 -529528.1875732407 -4921153.628579988 0 0 0 0 0 108460421.3896262 -413330.4311705458 -413330.4311705458 -4772612.747780658 0 0 0 0 0 108279012.0598744 -259896.0817356214 -259896.0817356214 -4502983.864174111 0 0 0 0 0 108389871.0724684 -305706.8742813827 -305706.8742813827 -4592504.342400446 0 0 0 0 0 108147620.1568941 -218819.8717388596 -218819.8717388596 -4403280.323271994 0 0 0 0 0 107927111.6728685 -336385.3927474834 -336385.3927474834 -4591622.884546845 0 0 0 0 0 806542.611361961 2994755.737498526 2994755.737498526 -84243391.50789407 0 0 0 0 0 -650108.1898759399 4663651.526313618 4663651.526313618 -81265584.69845888 0 0 0 0 0 -2710503.974787875 2751556.217268371 2751556.217268371 -68626414.83766225 0 0 0 0 0 -1885217.035809843 3167383.95340315 3167383.95340315 -68067471.12859577 0 0 0 0 0 -1088158.789335138 1054010.67628267 1054010.67628267 -64420111.2958174 0 0 0 0 0 1032815.550237971 -4817282.110206076 -4817282.110206076 -44363365.51735848 0 0 0 0 0 4234367.242651456 -8482291.881101971 -8482291.881101971 -42100108.39246456 0 0 0 0 0 7651718.984747131 -11552380.80743907 -11552380.80743907 -36984483.83783431 0 0 0 0 0 11581635.09524291 -14755960.07730612 -14755960.07730612 -32568058.22618312 0 0 0 0 0 19402433.42455672 -20782337.82686853 -20782337.82686853 -26116157.32459209 0 0 0 0 0 24342228.77042377 -23402630.41959623 -23402630.41959623 -23876710.77881463 0 0 0 0 0 29554637.71013192 -25758569.82106889 -25758569.82106889 -22129094.70994915 0 0 0 0 0 34957113.54662772 -27810046.87298662 -27810046.87298662 -20814397.83330549 0 0 0 0 0 40465950.2082651 -29528383.77406991 -29528383.77406991 -19881315.00610688 0 0 0 0 0 45998209.43154614 -30894028.84426355 -30894028.84426355 -19259650.50923132 0 0 0 0 0 51472962.16549482 -31904874.26399479 -31904874.26399479 -18880978.1942592 0 0 0 0 0 56833637.53167278 -32578304.33236062 -32578304.33236062 -18691269.22501661 0 0 0 0 0 62031958.21547373 -32936800.5329914 -32936800.5329914 -18641279.40834888 0 0 0 0 0 72254547.2947267 -31668053.40586075 -31668053.40586075 -18215765.16332855 0 0 0 0 0 72821408.08497658 -32565488.14606114 -32565488.14606114 -18662746.27068045 0 0 0 0 0 77069430.12281634 -32075698.2869438 -32075698.2869438 -18801254.94694226 0 0 0 0 0 81057616.94612305 -31406001.0473422 -31406001.0473422 -18930910.30521788 0 0 0 0 0 85047064.41905621 -30188689.13612983 -30188689.13612983 -18824082.31661936 0 0 0 0 0 88328628.5817499 -29256492.58898036 -29256492.58898036 -18904236.78859693 0 0 0 0 0 91361558.33089694 -28236367.32864756 -28236367.32864756 -18941266.59325004 0 0 0 0 0 94151870.01105669 -27149960.77498502 -27149960.77498502 -18934842.8347282 0 0 0 0 0 96706092.55953299 -26014301.40038149 -26014301.40038149 -18883385.64467357 0 0 0 0 0 99034025.14251344 -24844486.95247445 -24844486.95247445 -18785644.77147298 0 0 0 0 0 101145403.7720963 -23656271.18008844 -23656271.18008844 -18642176.55656322 0 0 0 0 0 104532374.5826322 -21525949.35883002 -21525949.35883002 -17631342.39438025 0 0 0 0 0 104133914.5088643 -21103086.21434673 -21103086.21434673 -17998427.27510868 0 0 0 0 0 105625814.2648554 -19965637.43189127 -19965637.43189127 -17752584.16155319 0 0 0 0 0 106958495.9050419 -18846701.29192334 -18846701.29192334 -17475111.78826536 0 0 0 0 0 108145133.0233067 -17753079.51515227 -17753079.51515227 -17167968.71980945 0 0 0 0 0 109192878.5175619 -16687664.22808078 -16687664.22808078 -16825156.56381075 0 0 0 0 0 110524484.745487 -15256720.62928686 -15256720.62928686 -15918964.23590164 0 0 0 0 0 110124534.7031462 -14731746.71729382 -14731746.71729382 -15959875.2949597 0 0 0 0 0 110927665.8953169 -12697883.16631282 -12697883.16631282 -14549744.2364097 0 0 0 0 0 111994111.721239 -9212237.11028586 -9212237.11028586 -12778994.59878673 0 0 0 0 0 112117623.638131 -6088809.362183576 -6088809.362183576 -10766407.46954084 0 0 0 0 0 111898691.304389 -5715558.957047313 -5715558.957047313 -10509265.0791577 0 0 0 0 0 111545729.3305826 -3879374.123608316 -3879374.123608316 -8970159.724126965 0 0 0 0 0 110565902.5776519 -2087385.501990014 -2087385.501990014 -7142080.911518784 0 0 0 0 0 109606511.8552957 -1124201.503246264 -1124201.503246264 -5981262.486128215 0 0 0 0 0 108921884.798565 -679134.037522888 -679134.037522888 -5293949.237326568 0 0 0 0 0 111098100.3385052 -13481924.40202616 -13481924.40202616 -15079137.8325479 0 0 0 0 0 -2514998.462914172 3037752.447204898 3037752.447204898 -101266532.3291755 0 0 0 0 0 -1292541.538294954 -165470.1257778901 -165470.1257778901 -52103685.38256458 0 0 0 0 0 17695410.36352623 -17461623.655392 -17461623.655392 -28782889.64321979 0 0 0 0 0 71112701.49080345 -31825438.33082478 -31825438.33082478 -18558855.02578695 0 0 0 0 0 88248810.69176061 -29484393.85696236 -29484393.85696236 -18531596.62249364 0 0 0 0 0 105180526.9203575 -21726428.86188794 -21726428.86188794 -17918539.95101081 0 0 0 0 0 111281478.1280012 -15253429.93000267 -15253429.93000267 -16137315.89613484 0 0 0 0 0 111826914.3035366 -13437580.48409422 -13437580.48409422 -15284637.15162655 0 0 0 0 0 110728123.568582 -12974242.61210421 -12974242.61210421 -15058989.46589605 0 0 0 0 0 110575708.7396369 -12216633.02932449 -12216633.02932449 -14529413.56459242 0 0 0 0 0 111041629.0554391 -11434092.44403493 -11434092.44403493 -14176004.4854065 0 0 0 0 0 111442545.690336 -10683775.34349203 -10683775.34349203 -13816435.13127009 0 0 0 0 0 111783548.1900732 -9966035.395698991 -9966035.395698991 -13452455.77272927 0 0 0 0 0 112069667.7858317 -9279337.249363037 -9279337.249363037 -13085982.70554482 0 0 0 0 0 111703631.6862549 -8771520.090031043 -8771520.090031043 -12618594.24157923 0 0 0 0 0 111908416.2297767 -8160659.871766244 -8160659.871766244 -12266919.48561035 0 0 0 0 0 112073293.791229 -7578775.016149005 -7578775.016149005 -11915522.98937945 0 0 0 0 0 112200712.9671898 -7025927.616255675 -7025927.616255675 -11566408.03469253 0 0 0 0 0 112294250.7590879 -6500937.240474527 -6500937.240474527 -11220955.65480551 0 0 0 0 0 112358126.479767 -6002097.414463671 -6002097.414463671 -10878906.86582067 0 0 0 0 0 111926031.6458699 -5272442.44327874 -5272442.44327874 -10188419.78028498 0 0 0 0 0 111931996.5562969 -4851840.991318111 -4851840.991318111 -9872588.942803482 0 0 0 0 0 111919211.0359618 -4452780.228550825 -4452780.228550825 -9561155.959332382 0 0 0 0 0 111888349.2936271 -4074707.148317734 -4074707.148317734 -9255150.813102743 0 0 0 0 0 111841193.601608 -3717407.069129696 -3717407.069129696 -8955495.047876677 0 0 0 0 0 111384019.9300368 -3572770.551639977 -3572770.551639977 -8676248.765152376 0 0 0 0 0 111324281.7859585 -3254307.052848358 -3254307.052848358 -8397529.5923093 0 0 0 0 0 111253018.0495803 -2953039.108817302 -2953039.108817302 -8124951.431067035 0 0 0 0 0 111171727.8679879 -2668100.049731741 -2668100.049731741 -7858654.43110614 0 0 0 0 0 111081508.3605628 -2398652.371595982 -2398652.371595982 -7598833.039446362 0 0 0 0 0 110983527.4953676 -2144017.898018835 -2144017.898018835 -7345154.992081447 0 0 0 0 0 110468248.1873834 -1887588.175747401 -1887588.175747401 -6987471.211161509 0 0 0 0 0 110879055.6842237 -1903666.803406983 -1903666.803406983 -7098047.82094684 0 0 0 0 0 110351042.0475246 -1661098.505594614 -1661098.505594614 -6683046.183190888 0 0 0 0 0 110230768.3733567 -1465846.635899008 -1465846.635899008 -6464100.038369875 0 0 0 0 0 110119853.9060681 -1278193.375464725 -1278193.375464725 -6253408.878998676 0 0 0 0 0 110001388.7745185 -1097915.39775422 -1097915.39775422 -6043963.911099436 0 0 0 0 0 109883021.5986931 -926303.5885562829 -926303.5885562829 -5838255.292191968 0 0 0 0 0 109486232.7521232 -964078.7409343679 -964078.7409343679 -5790832.925934018 0 0 0 0 0 109408604.5617958 -776205.5414110373 -776205.5414110373 -5510862.850264261 0 0 0 0 0 109290236.1071111 -631226.6181122491 -631226.6181122491 -5326723.933676861 0 0 0 0 0 109172916.7523982 -494037.2220966481 -494037.2220966481 -5147486.249617749 0 0 0 0 0 108805559.277343 -547272.4865723485 -547272.4865723485 -5123362.893970232 0 0 0 0 0 108740670.4568433 -386089.9021334871 -386089.9021334871 -4865042.282667936 0 0 0 0 0 108638056.0605441 -272650.775900769 -272650.775900769 -4695043.629378419 0 0 0 0 0 108517668.9338335 -173330.3653545883 -173330.3653545883 -4549785.236030775 0 0 0 0 0 108303280.1525809 -33303.20141139159 -33303.20141139159 -4290403.140335904 0 0 0 0 0 108441974.4772202 -70368.35210392147 -70368.35210392147 -4391538.794965842 0 0 0 0 0 108071245.8271489 -161633.2741980961 -161633.2741980961 -4495837.262250724 0 0 0 0 0 -1947906.895336087 4927945.870339802 4927945.870339802 -97366131.95079339 0 0 0 0 0 -1309806.171683995 7035019.472075824 7035019.472075824 -78808772.7399703 0 0 0 0 0 -2940645.383727587 6939404.447843724 6939404.447843724 -78478465.52578999 0 0 0 0 0 -2173009.431956354 5373438.625197893 5373438.625197893 -60680570.07095641 0 0 0 0 0 1328486.101842326 -3421765.007878548 -3421765.007878548 -46214090.92786998 0 0 0 0 0 4778425.467879632 -7141474.837910522 -7141474.837910522 -42625614.86808825 0 0 0 0 0 8365961.474497519 -10589347.21255922 -10589347.21255922 -36882823.53476743 0 0 0 0 0 12518316.93195681 -14296604.92317278 -14296604.92317278 -32128689.33154723 0 0 0 0 0 20961849.22941748 -20998510.83713432 -20998510.83713432 -25970330.54061455 0 0 0 0 0 26254026.7921938 -23766529.41011974 -23766529.41011974 -23640110.51925841 0 0 0 0 0 31800212.32947782 -26215381.45852032 -26215381.45852032 -21864290.69517229 0 0 0 0 0 37528538.14032904 -28308740.87435365 -28308740.87435365 -20567118.79499948 0 0 0 0 0 43316245.44968603 -30015705.49615788 -30015705.49615788 -19687487.38571215 0 0 0 0 0 49085519.9990193 -31321247.41087198 -31321247.41087198 -19121652.64388327 0 0 0 0 0 54750767.65525489 -32240412.18461597 -32240412.18461597 -18803206.92598912 0 0 0 0 0 60257779.39735374 -32800332.85458827 -32800332.85458827 -18668694.71252201 0 0 0 0 0 65556552.41479604 -33029377.38373866 -33029377.38373866 -18666601.94225556 0 0 0 0 0 75818333.69148301 -31627323.10913594 -31627323.10913594 -18578919.7705415 0 0 0 0 0 76299993.52300172 -32381728.91740426 -32381728.91740426 -18915250.95659877 0 0 0 0 0 80525093.99495712 -31750100.95818736 -31750100.95818736 -19041430.34311001 0 0 0 0 0 84463838.98416121 -30955312.06171944 -30955312.06171944 -19154419.07115713 0 0 0 0 0 88239326.03221656 -29651437.13756663 -29651437.13756663 -19122961.9631342 0 0 0 0 0 91433683.27681829 -28613861.87104662 -28613861.87104662 -19160863.84638188 0 0 0 0 0 94365987.03208613 -27499813.26040857 -27499813.26040857 -19151286.94492598 0 0 0 0 0 97042309.51830351 -26331694.23416726 -26331694.23416726 -19095956.15289381 0 0 0 0 0 99476673.67548214 -25123428.38125782 -25123428.38125782 -18992261.31825176 0 0 0 0 0 101677017.4946241 -23893431.53259781 -23893431.53259781 -18843550.84097848 0 0 0 0 0 103657162.6991722 -22657310.84966318 -22657310.84966318 -18650177.90661637 0 0 0 0 0 106734921.289018 -20589136.80638 -20589136.80638 -17725375.9040971 0 0 0 0 0 106307794.8136432 -20091472.02556221 -20091472.02556221 -17972989.98894036 0 0 0 0 0 107676507.5160285 -18931550.69126897 -18931550.69126897 -17678952.37776726 0 0 0 0 0 108887901.9248608 -17797339.28194955 -17797339.28194955 -17356806.97445731 0 0 0 0 0 109954730.5122233 -16697733.18659458 -16697733.18659458 -17003431.16799636 0 0 0 0 0 110887707.387519 -15642018.27187462 -15642018.27187462 -16633509.55278506 0 0 0 0 0 111985544.4611907 -14299090.96859226 -14299090.96859226 -15809075.06849233 0 0 0 0 0 111578943.5820763 -13731219.34229749 -13731219.34229749 -15748026.25725918 0 0 0 0 0 112068041.1345698 -11842197.21254829 -11842197.21254829 -14427747.15889101 0 0 0 0 0 112784663.1931359 -8453589.073458808 -8453589.073458808 -12574830.52840445 0 0 0 0 0 112619924.1190049 -5458208.698712685 -5458208.698712685 -10511732.78526088 0 0 0 0 0 112407457.8151292 -5080419.238518272 -5080419.238518272 -10208022.92251709 0 0 0 0 0 111861484.2980895 -3366701.53078545 -3366701.53078545 -8701853.550789002 0 0 0 0 0 110771588.1088006 -1676333.593233791 -1676333.593233791 -6858298.992029832 0 0 0 0 0 109712164.6431758 -805492.6342016793 -805492.6342016793 -5742728.725284855 0 0 0 0 0 108999456.4036256 -403734.4723401126 -403734.4723401126 -5072350.179043083 0 0 0 0 0 112342431.8226004 -12577537.44740629 -12577537.44740629 -14947146.53823715 0 0 0 0 0 -2738630.973153319 7316447.880859959 7316447.880859959 -96227425.92305636 0 0 0 0 0 -1850294.309712756 9631541.756024856 9631541.756024856 -76899737.76623546 0 0 0 0 0 -982342.5229953044 1697634.585891429 1697634.585891429 -52920233.80355097 0 0 0 0 0 19160360.38627193 -17448595.10163337 -17448595.10163337 -28815823.99988909 0 0 0 0 0 74816483.55998306 -31783386.28741181 -31783386.28741181 -18749959.43410639 0 0 0 0 0 91565298.75070295 -28939437.32507407 -28939437.32507407 -18807495.83124703 0 0 0 0 0 107463939.9015481 -20735634.40577528 -20735634.40577528 -17952277.91390091 0 0 0 0 0 112777890.7531686 -14237823.67429362 -14237823.67429362 -15972227.44920727 0 0 0 0 0 113097072.4164773 -12488495.18100364 -12488495.18100364 -15106496.30174026 0 0 0 0 0 111971962.4437659 -12038990.6979436 -12038990.6979436 -14835330.49144795 0 0 0 0 0 111715275.5908457 -11335489.85517471 -11335489.85517471 -14323713.02133562 0 0 0 0 0 112106286.4343391 -10565996.78820606 -10565996.78820606 -13945953.76110055 0 0 0 0 0 112436036.2554556 -9830137.838554718 -9830137.838554718 -13564406.38077233 0 0 0 0 0 112710557.3444233 -9127077.644608347 -9127077.644608347 -13179448.40747165 0 0 0 0 0 112932322.3337662 -8458413.092306189 -8458413.092306189 -12794975.42656633 0 0 0 0 0 112498277.6811864 -8000643.411898708 -8000643.411898708 -12349918.80693513 0 0 0 0 0 112647933.0001031 -7407902.619204783 -7407902.619204783 -11983337.70142653 0 0 0 0 0 112760365.8970637 -6845094.690977748 -6845094.690977748 -11619654.49935856 0 0 0 0 0 112838984.7585833 -6311128.059816003 -6311128.059816003 -11259484.04880632 0 0 0 0 0 112886481.8428404 -5805380.50857208 -5805380.50857208 -10903787.96195662 0 0 0 0 0 112906585.6644437 -5326293.213334216 -5326293.213334216 -10553746.3231379 0 0 0 0 0 112397905.7423898 -4655690.734765402 -4655690.734765402 -9880955.067735227 0 0 0 0 0 112368881.7867464 -4253249.081172496 -4253249.081172496 -9559804.283895783 0 0 0 0 0 112323554.7762151 -3872249.456471522 -3872249.456471522 -9243179.646863431 0 0 0 0 0 112260780.1436989 -3513206.677960013 -3513206.677960013 -8934571.600527838 0 0 0 0 0 112184306.7578983 -3174092.497907241 -3174092.497907241 -8633061.973378375 0 0 0 0 0 111706422.302664 -3059567.977192258 -3059567.977192258 -8375329.011671533 0 0 0 0 0 111621783.5101257 -2757400.358172858 -2757400.358172858 -8094825.945218813 0 0 0 0 0 111527083.5945581 -2472307.926199788 -2472307.926199788 -7821035.429257782 0 0 0 0 0 111423854.7111203 -2203240.758353418 -2203240.758353418 -7554293.875700053 0 0 0 0 0 111312926.2613078 -1949384.702868863 -1949384.702868863 -7294837.807649328 0 0 0 0 0 111196076.503154 -1709819.254425219 -1709819.254425219 -7041347.320121276 0 0 0 0 0 110615145.8548629 -1518021.159350988 -1518021.159350988 -6739094.865725953 0 0 0 0 0 111073137.8990588 -1484226.688330169 -1484226.688330169 -6795906.207178008 0 0 0 0 0 110512895.2381029 -1288198.33597775 -1288198.33597775 -6413180.563071388 0 0 0 0 0 110383433.8246432 -1101498.341888204 -1101498.341888204 -6194579.747013091 0 0 0 0 0 110260170.6925425 -921319.2253929725 -921319.2253929725 -5979281.940225998 0 0 0 0 0 110131055.0114747 -751372.8959378911 -751372.8959378911 -5769618.610464995 0 0 0 0 0 110000405.4382544 -592566.8317133393 -592566.8317133393 -5566053.548648401 0 0 0 0 0 109581626.7143151 -656739.5353690614 -656739.5353690614 -5553448.557972872 0 0 0 0 0 109509985.5912856 -470643.5728212222 -470643.5728212222 -5258466.641698021 0 0 0 0 0 109382630.1437279 -336206.2658201234 -336206.2658201234 -5076733.293032289 0 0 0 0 0 109255233.4477196 -209748.8600743441 -209748.8600743441 -4901250.257533906 0 0 0 0 0 108876304.6749796 -277960.0918293679 -277960.0918293679 -4902479.812138031 0 0 0 0 0 108817568.9845388 -125724.9756493817 -125724.9756493817 -4638244.810903554 0 0 0 0 0 108693494.4227134 -34747.12715317313 -34747.12715317313 -4495914.117800043 0 0 0 0 0 108639676.492228 134246.377240799 134246.377240799 -4274246.432600837 0 0 0 0 0 108470755.5309859 151727.9896305614 151727.9896305614 -4164319.376181703 0 0 0 0 0 108217128.5732503 17585.58443705543 17585.58443705543 -4373011.012391357 0 0 0 0 0 -3023832.524687819 10197718.44296901 10197718.44296901 -92584239.18646079 0 0 0 0 0 -3412613.71920969 12553372.12601106 12553372.12601106 -87534939.4635049 0 0 0 0 0 -2026199.65126942 7552854.281463624 7552854.281463624 -68403797.44942296 0 0 0 0 0 1492988.34685238 -1625983.912644985 -1625983.912644985 -46998394.00742844 0 0 0 0 0 5207746.840270727 -5344804.885185487 -5344804.885185487 -42058123.24333216 0 0 0 0 0 8918066.527227331 -9587803.375081588 -9587803.375081588 -36000095.47842304 0 0 0 0 0 13562523.2683247 -13669620.60764987 -13669620.60764987 -30787820.14756628 0 0 0 0 0 22695366.23552635 -21090245.7064092 -21090245.7064092 -25184070.72659993 0 0 0 0 0 28360014.70376957 -24037679.47364923 -24037679.47364923 -22858619.38561758 0 0 0 0 0 34258463.98726613 -26595304.59840817 -26595304.59840817 -21126964.29694872 0 0 0 0 0 40319009.34867167 -28740271.41208172 -28740271.41208172 -19929950.64718892 0 0 0 0 0 46409173.03929678 -30417182.25738959 -30417182.25738959 -19152004.53917056 0 0 0 0 0 52404960.05616728 -31648004.04642336 -31648004.04642336 -18685055.69236984 0 0 0 0 0 58246240.53994308 -32467909.73246606 -32467909.73246606 -18463256.89550066 0 0 0 0 0 63880619.58599464 -32904651.25853965 -32904651.25853965 -18414562.85194961 0 0 0 0 0 69263097.29708502 -32992991.79228205 -32992991.79228205 -18484468.03419084 0 0 0 0 0 79519390.68938801 -31450225.52258951 -31450225.52258951 -18776638.00116625 0 0 0 0 0 79908529.75291155 -32044169.50545264 -32044169.50545264 -18998370.26946259 0 0 0 0 0 84083773.17672317 -31280377.54009385 -31280377.54009385 -19122916.88913964 0 0 0 0 0 87948840.6285753 -30356220.85293492 -30356220.85293492 -19222153.00001891 0 0 0 0 0 91481385.90353611 -28970892.47063948 -28970892.47063948 -19282138.56889165 0 0 0 0 0 94569418.55707903 -27832720.55086261 -27832720.55086261 -19278158.14953662 0 0 0 0 0 97379968.61335556 -26633010.93328485 -26633010.93328485 -19224548.15521833 0 0 0 0 0 99927264.00894225 -25390194.20803535 -25390194.20803535 -19119478.47100008 0 0 0 0 0 102221498.2953855 -24124384.93972611 -24124384.93972611 -18970566.49686468 0 0 0 0 0 104281859.077106 -22843608.84935025 -22843608.84935025 -18777633.01831313 0 0 0 0 0 106126492.2400166 -21562565.94954538 -21562565.94954538 -18535794.58763047 0 0 0 0 0 108882289.9487132 -19568856.23434498 -19568856.23434498 -17711850.84843932 0 0 0 0 0 108429572.2752984 -18999129.97990371 -18999129.97990371 -17835040.36606592 0 0 0 0 0 109669321.3551248 -17825933.35350362 -17825933.35350362 -17497392.60223081 0 0 0 0 0 110759498.7046493 -16685670.79686678 -16685670.79686678 -17133166.56386246 0 0 0 0 0 111706828.0658959 -15586628.13128199 -15586628.13128199 -16737625.74282604 0 0 0 0 0 112511569.7013359 -14533452.12813656 -14533452.12813656 -16338927.69644866 0 0 0 0 0 113377915.277119 -13294752.27965033 -13294752.27965033 -15611649.28931895 0 0 0 0 0 112967366.0355044 -12693944.41627806 -12693944.41627806 -15450963.17448347 0 0 0 0 0 113148288.9873293 -10958051.93092859 -10958051.93092859 -14238322.30633568 0 0 0 0 0 113522408.0468166 -7682742.774548001 -7682742.774548001 -12318912.30764301 0 0 0 0 0 113080732.899299 -4825871.787042951 -4825871.787042951 -10219977.92383556 0 0 0 0 0 112875903.8354047 -4444719.594312786 -4444719.594312786 -9871169.674726238 0 0 0 0 0 112145854.3377142 -2857443.922886646 -2857443.922886646 -8407053.543984918 0 0 0 0 0 110946657.592553 -1273297.018015041 -1273297.018015041 -6554913.336549477 0 0 0 0 0 109802035.6436246 -493164.5534842674 -493164.5534842674 -5490874.692655661 0 0 0 0 0 109061044.8514201 -137495.8661552535 -137495.8661552535 -4845360.664846336 0 0 0 0 0 113523281.1215837 -11639642.4716344 -11639642.4716344 -14740500.15801178 0 0 0 0 0 -3412613.71920969 12553372.12601106 12553372.12601106 -87534939.4635049 0 0 0 0 0 -3010466.203055671 12785797.70022895 12785797.70022895 -66012406.5446131 0 0 0 0 0 -2075235.663550348 5173250.800337865 5173250.800337865 -53349370.02042706 0 0 0 0 0 20727305.43223678 -17349891.02206083 -17349891.02206083 -28197023.73471384 0 0 0 0 0 78666879.8673802 -31613142.16839739 -31613142.16839739 -18762120.86718038 0 0 0 0 0 94919385.30825457 -28259845.38900777 -28259845.38900777 -18940626.06866438 0 0 0 0 0 109683157.7991994 -19659811.79411415 -19659811.79411415 -17872578.09827362 0 0 0 0 0 114200306.7069488 -13194268.579786 -13194268.579786 -15728972.27935547 0 0 0 0 0 114297835.0777412 -11508084.46667018 -11508084.46667018 -14850977.54521259 0 0 0 0 0 113154218.9751621 -11074448.19006297 -11074448.19006297 -14537662.43424934 0 0 0 0 0 112797481.4866628 -10428358.56749937 -10428358.56749937 -14050435.182786 0 0 0 0 0 113113868.6709846 -9675145.650719149 -9675145.650719149 -13651697.80694036 0 0 0 0 0 113373996.7531624 -8956244.044705009 -8956244.044705009 -13249093.80596332 0 0 0 0 0 113581609.285742 -8273113.140261736 -8273113.140261736 -12847860.59474712 0 0 0 0 0 113740823.0297162 -7625490.169760607 -7625490.169760607 -12448221.16493245 0 0 0 0 0 113242250.9906975 -7219426.414760851 -7219426.414760851 -12030478.09556822 0 0 0 0 0 113338873.6855095 -6646580.880216365 -6646580.880216365 -11651527.85110501 0 0 0 0 0 113400428.1327171 -6104203.862147734 -6104203.862147734 -11276958.34088153 0 0 0 0 0 113430685.1349234 -5591741.662570491 -5591741.662570491 -10908847.3701978 0 0 0 0 0 113433436.1418615 -5107249.953805222 -5107249.953805222 -10544902.3842099 0 0 0 0 0 113409871.2710361 -4650774.820971597 -4650774.820971597 -10190850.50205626 0 0 0 0 0 112830425.0129718 -4039676.963136926 -4039676.963136926 -9539734.222887794 0 0 0 0 0 112767418.1774399 -3657051.026296183 -3657051.026296183 -9214547.735061605 0 0 0 0 0 112689995.5040658 -3296045.835305553 -3296045.835305553 -8896480.946459876 0 0 0 0 0 112597817.8759535 -2956062.878137577 -2956062.878137577 -8586029.87352699 0 0 0 0 0 112493543.6328683 -2635745.564766017 -2635745.564766017 -8283991.301549172 0 0 0 0 0 111996688.8208669 -2551305.93695276 -2551305.93695276 -8050126.827075954 0 0 0 0 0 111888147.3498762 -2266201.007736949 -2266201.007736949 -7769531.839122824 0 0 0 0 0 111771918.5305256 -1997363.567853346 -1997363.567853346 -7495365.961655398 0 0 0 0 0 111647623.5886968 -1744797.630741033 -1744797.630741033 -7229549.548545599 0 0 0 0 0 111517232.729171 -1506774.454576602 -1506774.454576602 -6971274.741323244 0 0 0 0 0 111382631.9700152 -1282587.943730989 -1282587.943730989 -6718771.522633442 0 0 0 0 0 110751458.032197 -1142430.293834285 -1142430.293834285 -6460366.389537954 0 0 0 0 0 111243446.004224 -1072486.119315928 -1072486.119315928 -6475188.962607724 0 0 0 0 0 110657019.9961971 -914497.581508631 -914497.581508631 -6121255.034212491 0 0 0 0 0 110520948.6200172 -736318.5962400608 -736318.5962400608 -5901690.771125243 0 0 0 0 0 110382301.535965 -569083.7263050225 -569083.7263050225 -5688921.639048476 0 0 0 0 0 110241910.6256001 -412473.0207702548 -412473.0207702548 -5481702.76347387 0 0 0 0 0 110099747.4634884 -266607.6113509705 -266607.6113509705 -5282784.696645898 0 0 0 0 0 109661550.0924056 -355106.4093323905 -355106.4093323905 -5303440.749839448 0 0 0 0 0 109593233.1336769 -172525.4567942741 -172525.4567942741 -4996533.776675309 0 0 0 0 0 109457809.6171171 -47882.74344544718 -47882.74344544718 -4817148.879561027 0 0 0 0 0 109323318.4756571 69286.17169850106 69286.17169850106 -4642099.735936678 0 0 0 0 0 108905557.0731661 -37030.20061065991 -37030.20061065991 -4696055.03384681 0 0 0 0 0 108885815.0474734 132852.1184061551 132852.1184061551 -4389577.950438763 0 0 0 0 0 108810429.7560486 170554.267936523 170554.267936523 -4319711.852679255 0 0 0 0 0 108593954.7012729 335962.0991156158 335962.0991156158 -4036124.795947464 0 0 0 0 0 108356865.031309 204368.4312015813 204368.4312015813 -4248033.627836353 0 0 0 0 0 -3703587.88244589 14310377.65972828 14310377.65972828 -81383674.39579432 0 0 0 0 0 -4061184.961108464 14950035.72745276 14950035.72745276 -74122422.63095146 0 0 0 0 0 486260.3011874502 967635.1098540128 967635.1098540128 -47421319.83472734 0 0 0 0 0 5094888.614364295 -3643743.890044732 -3643743.890044732 -40084949.88819822 0 0 0 0 0 9647127.858289596 -8401716.321879076 -8401716.321879076 -33612040.66141614 0 0 0 0 0 14661036.54867155 -12966806.0582209 -12966806.0582209 -28519055.02283275 0 0 0 0 0 24564684.31593107 -21122530.83212559 -21122530.83212559 -23671675.83539456 0 0 0 0 0 30647541.88013615 -24268029.22844351 -24268029.22844351 -21487286.06076537 0 0 0 0 0 36910591.74363799 -26974293.32921059 -26974293.32921059 -19939887.20961707 0 0 0 0 0 43357469.22820969 -29114565.02391952 -29114565.02391952 -18892337.77106037 0 0 0 0 0 49724965.60330373 -30746755.95569374 -30746755.95569374 -18262002.0967638 0 0 0 0 0 55940006.42320039 -31902004.19143574 -31902004.19143574 -17952271.35143917 0 0 0 0 0 61947602.35684878 -32603732.94315013 -32603732.94315013 -17868235.7889059 0 0 0 0 0 67687989.0501661 -32900290.2748767 -32900290.2748767 -17936448.48456073 0 0 0 0 0 73135168.40635031 -32835322.22541076 -32835322.22541076 -18094952.18915141 0 0 0 0 0 83313348.66161759 -31130986.89907194 -31130986.89907194 -18805366.93659721 0 0 0 0 0 83612195.97973917 -31566148.42321908 -31566148.42321908 -18916003.98863196 0 0 0 0 0 87717642.27089033 -30663649.26224928 -30663649.26224928 -19042422.54423247 0 0 0 0 0 91484540.12533444 -29612724.28918824 -29612724.28918824 -19130486.61914674 0 0 0 0 0 94756337.02074166 -28147997.03748736 -28147997.03748736 -19292121.38685825 0 0 0 0 0 97714251.80099115 -26919342.40431688 -26919342.40431688 -19251595.86827227 0 0 0 0 0 100387455.8890212 -25643996.60150965 -25643996.60150965 -19154781.48993711 0 0 0 0 0 102782881.1774672 -24338865.4331819 -24338865.4331819 -19008774.79944351 0 0 0 0 0 104921926.6046451 -23017423.73177033 -23017423.73177033 -18818208.10123495 0 0 0 0 0 106837412.7312631 -21686758.59588091 -21686758.59588091 -18583046.87356786 0 0 0 0 0 108545076.4967478 -20374578.32931101 -20374578.32931101 -18292245.90526196 0 0 0 0 0 110961313.7227759 -18472013.82951673 -18472013.82951673 -17587147.25789519 0 0 0 0 0 110484769.7193194 -17836998.30208251 -17836998.30208251 -17584842.2964498 0 0 0 0 0 111594928.9951001 -16656804.64892254 -16656804.64892254 -17206442.56408693 0 0 0 0 0 112556183.3844471 -15518299.72037981 -15518299.72037981 -16803675.30994264 0 0 0 0 0 113381620.2077712 -14424775.49258801 -14424775.49258801 -16372903.31138331 0 0 0 0 0 114055437.0685898 -13393957.32777993 -13393957.32777993 -15951349.07040214 0 0 0 0 0 114696105.8795113 -12257376.33636547 -12257376.33636547 -15333392.62051554 0 0 0 0 0 114284359.8769979 -11624695.34272541 -11624695.34272541 -15070401.89086185 0 0 0 0 0 114165721.1636354 -10050017.20722936 -10050017.20722936 -13980973.71121434 0 0 0 0 0 114206785.8952551 -6902723.197061138 -6902723.197061138 -12011416.20929431 0 0 0 0 0 113499637.325729 -4194313.21594528 -4194313.21594528 -9891951.935289949 0 0 0 0 0 113303407.6136569 -3811232.647150736 -3811232.647150736 -9499683.313118892 0 0 0 0 0 112397506.7834317 -2354161.323511803 -2354161.323511803 -8087754.139778866 0 0 0 0 0 111101748.7774663 -874960.6782591469 -874960.6782591469 -6238401.027850496 0 0 0 0 0 109874143.4392198 -188238.4266625958 -188238.4266625958 -5227923.915017808 0 0 0 0 0 109105533.8454372 121620.3384701488 121620.3384701488 -4606439.925073625 0 0 0 0 0 108776281.404523 326048.417281136 326048.417281136 -4103024.98531126 0 0 0 0 0 114635413.9299852 -10675869.90516947 -10675869.90516947 -14459623.63827832 0 0 0 0 0 -4061184.961108464 14950035.72745276 14950035.72745276 -74122422.63095146 0 0 0 0 0 -2882151.14723506 11003689.21439735 11003689.21439735 -49711009.51654834 0 0 0 0 0 22411180.64135693 -17241051.53026151 -17241051.53026151 -26856136.42130361 0 0 0 0 0 82619387.60569334 -31313745.44562854 -31313745.44562854 -18592236.91696877 0 0 0 0 0 98279342.89856642 -27444658.20464404 -27444658.20464404 -18927096.36156609 0 0 0 0 0 111822514.8775056 -18510560.49852245 -18510560.49852245 -17677630.19647875 0 0 0 0 0 115543257.4170636 -12110691.95263801 -12110691.95263801 -15390399.05484217 0 0 0 0 0 115424357.5224451 -10502135.27114741 -10502135.27114741 -14519064.69217271 0 0 0 0 0 114269907.0126264 -10085141.08505015 -10085141.08505015 -14167363.56807307 0 0 0 0 0 113821362.6741929 -9497253.809104195 -9497253.809104195 -13708320.8016268 0 0 0 0 0 114064000.098039 -8764233.31420744 -8764233.31420744 -13290489.82357955 0 0 0 0 0 114252599.0462367 -8068449.964544215 -8068449.964544215 -12872885.7484774 0 0 0 0 0 114392420.4053862 -7410426.848976006 -7410426.848976006 -12459681.27710863 0 0 0 0 0 114490365.8879604 -6786175.008342245 -6786175.008342245 -12048446.76288422 0 0 0 0 0 113935029.092754 -6430143.743705534 -6430143.743705534 -11659797.45449147 0 0 0 0 0 113979118.3381825 -5879759.875450205 -5879759.875450205 -11271231.6005714 0 0 0 0 0 113990252.3700161 -5361246.768243782 -5361246.768243782 -10890222.05907106 0 0 0 0 0 113974103.5317424 -4871999.719885724 -4871999.719885724 -10515809.4070964 0 0 0 0 0 113933372.166034 -4410825.013385805 -4410825.013385805 -10147482.54606773 0 0 0 0 0 113868951.2499663 -3977121.027393244 -3977121.027393244 -9789869.595198605 0 0 0 0 0 113223633.6334873 -3427087.928357917 -3427087.928357917 -9165483.974335982 0 0 0 0 0 113127923.9808468 -3065290.293984326 -3065290.293984326 -8838820.173706213 0 0 0 0 0 113019409.890563 -2725171.306924595 -2725171.306924595 -8520763.171513868 0 0 0 0 0 112899096.1521604 -2405237.186712406 -2405237.186712406 -8210962.902961878 0 0 0 0 0 112768499.3734573 -2104382.142588026 -2104382.142588026 -7909631.260523594 0 0 0 0 0 112255582.3857995 -2049380.721129128 -2049380.721129128 -7701737.222829206 0 0 0 0 0 112124052.0913661 -1781990.028898275 -1781990.028898275 -7422123.140660065 0 0 0 0 0 111986393.3222537 -1530742.310438214 -1530742.310438214 -7149965.941226296 0 0 0 0 0 111842715.5320848 -1294738.641866158 -1294738.641866158 -6886080.280555581 0 0 0 0 0 111694569.8335467 -1072155.611486568 -1072155.611486568 -6629944.512558415 0 0 0 0 0 111543381.3957463 -863875.6196041156 -863875.6196041156 -6380486.851404731 0 0 0 0 0 110870109.9813947 -770328.0541598577 -770328.0541598577 -6168486.588600788 0 0 0 0 0 111385307.8291069 -670236.8508036354 -670236.8508036354 -6142377.427809994 0 0 0 0 0 110784448.4488906 -543821.0703704776 -543821.0703704776 -5810625.776115698 0 0 0 0 0 110635286.7706623 -379358.0281933781 -379358.0281933781 -5594379.212786385 0 0 0 0 0 110484732.6576073 -225505.0738772543 -225505.0738772543 -5385112.062234489 0 0 0 0 0 110333889.46259 -81820.39537636413 -81820.39537636413 -5182447.072950413 0 0 0 0 0 110178321.0703235 50428.98408360895 50428.98408360895 -4989484.489447781 0 0 0 0 0 109725433.1438348 -59772.19391822779 -59772.19391822779 -5042317.965677016 0 0 0 0 0 109663525.7511711 120866.1535128035 120866.1535128035 -4723688.566796718 0 0 0 0 0 109519694.7939226 235738.504613906 235738.504613906 -4546720.11090451 0 0 0 0 0 109376623.9123283 342720.1015058749 342720.1015058749 -4373887.463899856 0 0 0 0 0 108949755.1798297 214312.4710590597 214312.4710590597 -4462860.450951365 0 0 0 0 0 108904344.5246826 377831.9041305663 377831.9041305663 -4159092.296193594 0 0 0 0 0 108735016.6356919 526064.1769019234 526064.1769019234 -3892372.529923581 0 0 0 0 0 108490053.239577 388397.5171556256 388397.5171556256 -4120812.763956824 0 0 0 0 0 -4362079.455864875 14603525.81947659 14603525.81947659 -64989022.06047585 0 0 0 0 0 932827.9610820471 2175932.114078791 2175932.114078791 -45039755.59282837 0 0 0 0 0 5621081.571971813 -2091461.731090284 -2091461.731090284 -37267965.98884228 0 0 0 0 0 9887105.341554388 -7166157.560627391 -7166157.560627391 -30173649.40144968 0 0 0 0 0 15884696.06325207 -12338195.25030757 -12338195.25030757 -25207966.5842125 0 0 0 0 0 26554120.66908092 -21121175.12364275 -21121175.12364275 -21306044.97946515 0 0 0 0 0 33053389.73344223 -24632502.13746913 -24632502.13746913 -19657205.77647956 0 0 0 0 0 39843231.9118067 -27330167.50969128 -27330167.50969128 -18238878.11544839 0 0 0 0 0 46658620.90302427 -29460417.53501207 -29460417.53501207 -17410868.3357511 0 0 0 0 0 53270714.75996155 -31055913.76400978 -31055913.76400978 -17033015.31637913 0 0 0 0 0 59696449.94700546 -32099295.96716289 -32099295.96716289 -16935640.62531394 0 0 0 0 0 65850357.37613004 -32661970.56935301 -32661970.56935301 -17033574.60419817 0 0 0 0 0 71681196.15058529 -32797556.12111265 -32797556.12111265 -17242809.68493955 0 0 0 0 0 77161885.9024604 -32563427.31352943 -32563427.31352943 -17509883.51424119 0 0 0 0 0 87202356.73365474 -30681434.04075661 -30681434.04075661 -18657216.16049346 0 0 0 0 0 87398367.74884054 -30944929.99383013 -30944929.99383013 -18660151.25277726 0 0 0 0 0 91407248.76972838 -29907250.85136949 -29907250.85136949 -18795162.816251 0 0 0 0 0 95054229.80718242 -28733187.87567522 -28733187.87567522 -18877723.05896833 0 0 0 0 0 98041449.61442654 -27193755.97276322 -27193755.97276322 -19152017.61730809 0 0 0 0 0 100854153.8449249 -25882768.75143813 -25882768.75143813 -19076252.51238136 0 0 0 0 0 103363274.51957 -24535616.07523196 -24535616.07523196 -18939643.39797457 0 0 0 0 0 105584599.4426468 -23178979.55887078 -23178979.55887078 -18760741.84542747 0 0 0 0 0 107562401.5901364 -21814223.00289083 -21814223.00289083 -18529096.32183951 0 0 0 0 0 109324866.8353573 -20460050.52402223 -20460050.52402223 -18258103.7090403 0 0 0 0 0 110882141.2376907 -19119534.86008993 -19119534.86008993 -17922533.86114387 0 0 0 0 0 112956801.6155281 -17308411.62481742 -17308411.62481742 -17349381.51963421 0 0 0 0 0 112455102.190192 -16621686.44831941 -16621686.44831941 -17223054.21354176 0 0 0 0 0 113430009.4760406 -15442311.5011409 -15442311.5011409 -16808844.43264975 0 0 0 0 0 114257942.2669235 -14318725.4651673 -14318725.4651673 -16371485.31163815 0 0 0 0 0 114950083.4829576 -13244502.67866156 -13244502.67866156 -15926281.06972705 0 0 0 0 0 115518700.940126 -12220334.14813235 -12220334.14813235 -15474045.10501039 0 0 0 0 0 115934450.5597604 -11190254.35144603 -11190254.35144603 -14968368.44147938 0 0 0 0 0 115523669.5435037 -10530191.40531096 -10530191.40531096 -14606672.15067794 0 0 0 0 0 115118377.317911 -9120204.438976949 -9120204.438976949 -13653881.69615238 0 0 0 0 0 114836936.4844439 -6117712.38154109 -6117712.38154109 -11653208.4890389 0 0 0 0 0 113876269.306383 -3566281.505364943 -3566281.505364943 -9528920.451047236 0 0 0 0 0 113689129.8311005 -3182661.129210013 -3182661.129210013 -9095049.677341647 0 0 0 0 0 112617197.7548696 -1858373.018863079 -1858373.018863079 -7744840.576357725 0 0 0 0 0 111226913.8475467 -488599.9299730432 -488599.9299730432 -5907520.547552895 0 0 0 0 0 109930842.8605745 111346.2483475993 111346.2483475993 -4953170.17101194 0 0 0 0 0 109145440.1852233 381726.3364311045 381726.3364311045 -4351285.122518659 0 0 0 0 0 108815707.7789665 486623.1451865348 486623.1451865348 -3970539.136452243 0 0 0 0 0 115677245.2794013 -9687293.879010072 -9687293.879010072 -14102341.72567776 0 0 0 0 0 -4862566.356109143 14902520.55696808 14902520.55696808 -58514115.85137036 0 0 0 0 0 -3179004.762708231 11474586.65885112 11474586.65885112 -43716210.21810406 0 0 0 0 0 24181677.33798997 -17130503.72898665 -17130503.72898665 -24775667.93858828 0 0 0 0 0 86667754.33737715 -30889624.66039289 -30889624.66039289 -18227165.43029177 0 0 0 0 0 101624465.6756116 -26505657.49645372 -26505657.49645372 -18762731.68165583 0 0 0 0 0 113871374.4756748 -17298552.06443315 -17298552.06443315 -17366394.51260927 0 0 0 0 0 116798930.669073 -11001832.48729024 -11001832.48729024 -14965110.44841223 0 0 0 0 0 116474350.282018 -9476913.639975179 -9476913.639975179 -14109352.33059721 0 0 0 0 0 115313848.2849158 -9078622.671239594 -9078622.671239594 -13723467.54043262 0 0 0 0 0 114779879.9150302 -8550470.899851099 -8550470.899851099 -13299355.77978832 0 0 0 0 0 114948655.3629398 -7843108.628796038 -7843108.628796038 -12867149.80775959 0 0 0 0 0 115067563.1659305 -7174324.825872183 -7174324.825872183 -12439057.36153975 0 0 0 0 0 115143449.471464 -6541486.49400577 -6541486.49400577 -12014996.91466456 0 0 0 0 0 115180357.6888554 -5943862.424009516 -5943862.424009516 -11596309.16217368 0 0 0 0 0 114573336.5167864 -5638132.683054139 -5638132.683054139 -11240391.18547407 0 0 0 0 0 114564832.3167679 -5113824.801460317 -5113824.801460317 -10846742.84920092 0 0 0 0 0 114528330.9198728 -4620204.359892276 -4620204.359892276 -10460897.71376714 0 0 0 0 0 114467349.1721473 -4155651.562280843 -4155651.562280843 -10083042.92609521 0 0 0 0 0 114385167.8647872 -3719096.789389415 -3719096.789389415 -9712748.365055891 0 0 0 0 0 114282163.9231217 -3309336.237313074 -3309336.237313074 -9353609.66211826 0 0 0 0 0 113576102.703344 -2820643.47093179 -2820643.47093179 -8760331.479090016 0 0 0 0 0 113449883.4733412 -2480635.071376573 -2480635.071376573 -8434238.191111043 0 0 0 0 0 113312501.8429283 -2161579.475705956 -2161579.475705956 -8117435.204093164 0 0 0 0 0 113165637.236237 -1862130.362008991 -1862130.362008991 -7809557.150817534 0 0 0 0 0 113010678.0478818 -1581100.954687883 -1581100.954687883 -7510202.396858668 0 0 0 0 0 112482942.9752078 -1556094.31461634 -1556094.31461634 -7331289.199290107 0 0 0 0 0 112330347.9276368 -1306603.562645383 -1306603.562645383 -7054590.952728295 0 0 0 0 0 112172673.5510015 -1073087.725830241 -1073087.725830241 -6786189.251862262 0 0 0 0 0 112010117.8255921 -854564.3562766904 -854564.3562766904 -6525841.473346437 0 0 0 0 0 111841559.5733175 -650722.0844754091 -650722.0844754091 -6274941.355625193 0 0 0 0 0 111672506.1131307 -461452.9485142904 -461452.9485142904 -6034298.289334966 0 0 0 0 0 110969534.3985922 -405102.5175093089 -405102.5175093089 -5859291.01566348 0 0 0 0 0 111497165.3747903 -284373.2946582224 -284373.2946582224 -5800968.256416009 0 0 0 0 0 110890228.8102746 -181900.0645533922 -181900.0645533922 -5485232.506444663 0 0 0 0 0 110729566.536287 -31223.42058204095 -31223.42058204095 -5274892.016984846 0 0 0 0 0 110567380.3022309 108974.9370562468 108974.9370562468 -5070658.734471766 0 0 0 0 0 110403420.9759302 238484.5852217162 238484.5852217162 -4875223.853459919 0 0 0 0 0 110240453.5616884 360151.0939374408 360151.0939374408 -4685693.239523453 0 0 0 0 0 109774905.3787484 229440.1717150221 229440.1717150221 -4770957.945513649 0 0 0 0 0 109717400.3635761 406956.6852664051 406956.6852664051 -4441826.202508347 0 0 0 0 0 109565858.3185026 511811.4138216526 511811.4138216526 -4269747.810116802 0 0 0 0 0 109416889.7624464 607834.8845490529 607834.8845490529 -4101142.100647374 0 0 0 0 0 108986961.901814 475945.8878949172 475945.8878949172 -4201014.823122558 0 0 0 0 0 108958871.5597143 636241.7765638909 636241.7765638909 -3884294.373994673 0 0 0 0 0 108619900.6398958 579305.3582560681 579305.3582560681 -3979225.534130889 0 0 0 0 0 108867587.7686957 727624.3210099366 727624.3210099366 -3722004.791368163 0 0 0 0 0 -52833.04227825477 4400091.432341164 4400091.432341164 -38998561.39981676 0 0 0 0 0 2453642.73172151 724614.0627522441 724614.0627522441 -30552001.11200623 0 0 0 0 0 10746801.25442652 -6571752.519699213 -6571752.519699213 -24799777.01990926 0 0 0 0 0 16915228.74791275 -11796539.21541994 -11796539.21541994 -21601470.02453781 0 0 0 0 0 28166480.62343451 -21360386.11879591 -21360386.11879591 -18577348.56320426 0 0 0 0 0 35879323.87972552 -24956745.98193324 -24956745.98193324 -16904673.39580674 0 0 0 0 0 43032031.40201001 -27716252.99228122 -27716252.99228122 -16020948.39578729 0 0 0 0 0 50131863.09658977 -29891487.22239307 -29891487.22239307 -15603989.65669247 0 0 0 0 0 57034690.91497687 -31364207.70687423 -31364207.70687423 -15506936.69899034 0 0 0 0 0 63661655.63982083 -32262416.48919064 -32262416.48919064 -15675735.52345462 0 0 0 0 0 69951942.39545673 -32653308.42567913 -32653308.42567913 -15977241.35163378 0 0 0 0 0 75844111.85759629 -32599437.51399452 -32599437.51399452 -16346495.9226883 0 0 0 0 0 81321705.82108364 -32183192.83129005 -32183192.83129005 -16739060.23546672 0 0 0 0 0 91149795.8161024 -30102194.25711059 -30102194.25711059 -18333766.46730142 0 0 0 0 0 91242055.95716529 -30194299.73691823 -30194299.73691823 -18233503.15025451 0 0 0 0 0 95124530.47581029 -29022830.40029738 -29022830.40029738 -18381827.90347661 0 0 0 0 0 98621840.46474689 -27732032.21611425 -27732032.21611425 -18465419.47358526 0 0 0 0 0 101312652.6607486 -26116754.31631791 -26116754.31631791 -18857134.3066235 0 0 0 0 0 103953952.0295737 -24731990.41585725 -24731990.41585725 -18749094.26359949 0 0 0 0 0 106283329.8257665 -23328604.45778465 -23328604.45778465 -18588060.67014745 0 0 0 0 0 108336693.0381967 -21918607.10577723 -21918607.10577723 -18367540.50044808 0 0 0 0 0 110139435.757151 -20527563.55031949 -20527563.55031949 -18109128.09816182 0 0 0 0 0 111727987.6344419 -19156250.55993976 -19156250.55993976 -17802175.91375259 0 0 0 0 0 113124167.3694836 -17798828.21265451 -17798828.21265451 -17426394.20496672 0 0 0 0 0 114857696.1840135 -16096067.14778705 -16096067.14778705 -17001140.50978899 0 0 0 0 0 114333934.7316383 -15358962.20690898 -15358962.20690898 -16748722.21760741 0 0 0 0 0 115172136.6559587 -14194949.3469896 -14194949.3469896 -16306910.09663138 0 0 0 0 0 115864929.7842566 -13076053.94589692 -13076053.94589692 -15842305.77705839 0 0 0 0 0 116430619.95539 -12022519.77803848 -12022519.77803848 -15378949.95298466 0 0 0 0 0 116891771.9858098 -11018417.90887151 -11018417.90887151 -14906220.56996549 0 0 0 0 0 117086941.0056997 -10100879.72948173 -10100879.72948173 -14520303.16909801 0 0 0 0 0 116683525.0475734 -9416801.545283575 -9416801.545283575 -14059889.82591973 0 0 0 0 0 116000751.3596965 -8178841.623203787 -8178841.623203787 -13260556.5395803 0 0 0 0 0 115408576.0793625 -5333142.351545283 -5333142.351545283 -11247178.17073186 0 0 0 0 0 114210385.7300714 -2944450.256115095 -2944450.256115095 -9132218.956786333 0 0 0 0 0 114032656.6786004 -2561764.745408707 -2561764.745408707 -8659243.371437401 0 0 0 0 0 112804927.7709309 -1371349.332008577 -1371349.332008577 -7379345.180307431 0 0 0 0 0 111323874.1229785 -117443.576789286 -117443.576789286 -5569085.841981017 0 0 0 0 0 109972030.6311689 402435.9742785334 402435.9742785334 -4667970.791752381 0 0 0 0 0 109180700.6075613 636956.4105748311 636956.4105748311 -4086755.88892542 0 0 0 0 0 116640862.3823511 -8687283.929485073 -8687283.929485073 -13674647.1502078 0 0 0 0 0 -4389564.622160354 13540692.58195722 13540692.58195722 -48388031.66204315 0 0 0 0 0 -2969418.23705675 9975836.05896635 9975836.05896635 -34745010.61697898 0 0 0 0 0 22569988.30701399 -16900315.98113788 -16900315.98113788 -17827003.85656557 0 0 0 0 0 90793263.79133587 -30348808.02794422 -30348808.02794422 -17686112.52211443 0 0 0 0 0 104924146.9299876 -25450067.41825679 -25450067.41825679 -18449493.45612563 0 0 0 0 0 115819118.3807854 -16042376.68146416 -16042376.68146416 -16936033.5895035 0 0 0 0 0 117963690.9903761 -9869243.148862941 -9869243.148862941 -14450777.69629256 0 0 0 0 0 117439840.4441108 -8440907.723363506 -8440907.723363506 -13626801.64048391 0 0 0 0 0 116282526.5275017 -8063521.134539822 -8063521.134539822 -13211196.70410594 0 0 0 0 0 115666807.1757511 -7597562.824153386 -7597562.824153386 -12827902.31578431 0 0 0 0 0 115765128.1361962 -6917309.333895536 -6917309.333895536 -12384809.85879567 0 0 0 0 0 115817799.6100735 -6276283.216445479 -6276283.216445479 -11947099.819475 0 0 0 0 0 115830950.1074137 -5672202.591515522 -5672202.591515522 -11516997.42668165 0 0 0 0 0 115810011.6107095 -5102876.423919974 -5102876.423919974 -11092672.97680295 0 0 0 0 0 115154476.6708157 -4849195.816537118 -4849195.816537118 -10775833.09765572 0 0 0 0 0 115096901.2165323 -4351422.654336519 -4351422.654336519 -10378523.04153548 0 0 0 0 0 115014640.244991 -3884148.262136167 -3884148.262136167 -9990444.949846026 0 0 0 0 0 114911135.9656272 -3445650.680562602 -3445650.680562602 -9611622.004812887 0 0 0 0 0 114789336.0410157 -3034655.213404589 -3034655.213404589 -9242116.523975117 0 0 0 0 0 114650132.6671996 -2649552.075495294 -2649552.075495294 -8883159.455973642 0 0 0 0 0 113888262.5142713 -2222552.70949664 -2222552.70949664 -8326103.173029006 0 0 0 0 0 113733187.2427367 -1904799.039149067 -1904799.039149067 -8002406.901842791 0 0 0 0 0 113568842.9374746 -1607330.848412112 -1607330.848412112 -7688567.57389826 0 0 0 0 0 113396998.7170144 -1328818.311660735 -1328818.311660735 -7384008.64895196 0 0 0 0 0 113218750.6730932 -1068224.797488292 -1068224.797488292 -7088884.178802404 0 0 0 0 0 112680967.0664021 -1071111.391026035 -1071111.391026035 -6938601.164662313 0 0 0 0 0 112508507.8427006 -840095.2576996174 -840095.2576996174 -6666165.000182992 0 0 0 0 0 112334117.3133287 -624901.9722676384 -624901.9722676384 -6401070.95340761 0 0 0 0 0 112155070.3630084 -424113.5552528301 -424113.5552528301 -6145441.204377259 0 0 0 0 0 111967503.8722664 -241719.230751728 -241719.230751728 -5904429.493341925 0 0 0 0 0 111780527.8937025 -71007.31683208513 -71007.31683208513 -5672265.40394077 0 0 0 0 0 111047684.6162072 -51206.64531169677 -51206.64531169677 -5534999.055027827 0 0 0 0 0 111589504.3250844 88384.82329598737 88384.82329598737 -5445364.322446655 0 0 0 0 0 110977019.982393 170136.8898259641 170136.8898259641 -5149263.016391588 0 0 0 0 0 110803138.9804353 306195.5639077582 306195.5639077582 -4944561.187992681 0 0 0 0 0 110629656.2666191 432381.6565107788 432381.6565107788 -4747842.672266987 0 0 0 0 0 110455997.8906131 549938.9358839358 549938.9358839358 -4556851.338278708 0 0 0 0 0 110284422.811791 659773.8778014404 659773.8778014404 -4372667.17806002 0 0 0 0 0 109808796.916391 510146.3939196346 510146.3939196346 -4490115.128856885 0 0 0 0 0 109756021.1354914 683894.1365291785 683894.1365291785 -4153073.655612711 0 0 0 0 0 109598749.1945087 777056.3082925994 777056.3082925994 -3990017.412532148 0 0 0 0 0 109447579.8497861 867647.9769957929 867647.9769957929 -3818645.261098405 0 0 0 0 0 109059857.685693 750397.1593902163 750397.1593902163 -3906243.665387845 0 0 0 0 0 109018015.9235883 926153.6487883995 926153.6487883995 -3557292.368738325 0 0 0 0 0 108755550.6005571 771577.7137948679 771577.7137948679 -3791370.230817113 0 0 0 0 0 5423823.887358618 140486.988341465 140486.988341465 -31357939.78258539 0 0 0 0 0 10124348.23722943 -5575101.052814378 -5575101.052814378 -20167660.93365066 0 0 0 0 0 16078518.93084801 -11202420.82843548 -11202420.82843548 -18152573.95945037 0 0 0 0 0 31587917.62106529 -22450232.68302539 -22450232.68302539 -14934320.22786729 0 0 0 0 0 38828035.98382045 -25564928.2739099 -25564928.2739099 -13961652.61439141 0 0 0 0 0 46324485.55451026 -28381423.63865824 -28381423.63865824 -13573249.14760719 0 0 0 0 0 53884895.10763402 -30392753.78769873 -30392753.78769873 -13481325.03649973 0 0 0 0 0 61029915.29436094 -31683260.45316491 -31683260.45316491 -13721527.49555722 0 0 0 0 0 67850830.47328371 -32396274.2480313 -32396274.2480313 -14178421.7922873 0 0 0 0 0 74250846.22963235 -32580104.46211318 -32580104.46211318 -14708952.46693624 0 0 0 0 0 80162489.91869232 -32312746.43138251 -32312746.43138251 -15273471.42295827 0 0 0 0 0 85601485.85101342 -31685912.97034705 -31685912.97034705 -15800227.8772079 0 0 0 0 0 95135854.1816183 -29405492.93120129 -29405492.93120129 -17837822.26608607 0 0 0 0 0 95111207.21549225 -29318179.89704615 -29318179.89704615 -17648868.54653845 0 0 0 0 0 98834616.92996974 -28009685.39084612 -28009685.39084612 -17814578.73376905 0 0 0 0 0 102162982.716151 -26607289.14360648 -26607289.14360648 -17899584.54306929 0 0 0 0 0 104541494.2423244 -24931465.64232058 -24931465.64232058 -18408592.56180526 0 0 0 0 0 106986331.1213043 -23478199.36501059 -23478199.36501059 -18282128.52563608 0 0 0 0 0 109141304.846537 -22019704.09743846 -22019704.09743846 -18091896.77935394 0 0 0 0 0 111020482.3838362 -20576381.06259907 -20576381.06259907 -17842371.9623664 0 0 0 0 0 112651381.8783426 -19155658.13696577 -19155658.13696577 -17547875.20840293 0 0 0 0 0 114056127.8811651 -17758896.38788983 -17758896.38788983 -17197289.07635202 0 0 0 0 0 115261271.4219711 -16413271.79375346 -16413271.79375346 -16811999.60362547 0 0 0 0 0 116648682.1252495 -14850330.81213607 -14850330.81213607 -16541641.00474033 0 0 0 0 0 116111182.5274279 -14046638.04944786 -14046638.04944786 -16168916.1285541 0 0 0 0 0 116803694.7514554 -12900925.79295379 -12900925.79295379 -15708603.15048865 0 0 0 0 0 117378230.0877731 -11805549.50283747 -11805549.50283747 -15218375.45728229 0 0 0 0 0 117825438.1586021 -10773970.14802209 -10773970.14802209 -14733970.86845506 0 0 0 0 0 118177476.7899601 -9793021.412761267 -9793021.412761267 -14239904.74487105 0 0 0 0 0 118152013.3857664 -8996019.247475654 -8996019.247475654 -13989705.34379439 0 0 0 0 0 117756753.4038422 -8291967.494858156 -8291967.494858156 -13432635.49475268 0 0 0 0 0 116808017.0491459 -7232325.89244825 -7232325.89244825 -12803066.01702862 0 0 0 0 0 115922669.6486899 -4551820.377212759 -4551820.377212759 -10793207.89710554 0 0 0 0 0 114502097.3311163 -2331419.295992636 -2331419.295992636 -8703457.835673608 0 0 0 0 0 114334275.8671163 -1950956.708254935 -1950956.708254935 -8194024.148537586 0 0 0 0 0 112963051.186298 -893752.0426262158 -893752.0426262158 -6991683.959027153 0 0 0 0 0 111397420.2574296 237107.6261826678 237107.6261826678 -5225656.907108025 0 0 0 0 0 109997141.4118823 684054.9177894975 684054.9177894975 -4374212.789708852 0 0 0 0 0 109211487.2990972 868863.4129859272 868863.4129859272 -3832011.474282476 0 0 0 0 0 117523828.6667941 -7679049.537149187 -7679049.537149187 -13174955.15649072 0 0 0 0 0 -2527186.37715238 11217765.18686091 11217765.18686091 -38755305.80663403 0 0 0 0 0 -2181710.777967611 7634398.98929211 7634398.98929211 -27505498.4308631 0 0 0 0 0 19614741.87122145 -13925113.56470372 -13925113.56470372 -13427467.68953942 0 0 0 0 0 27793460.53758711 -18388331.46357887 -18388331.46357887 -17402627.88893029 0 0 0 0 0 94992694.28115098 -29710125.14467442 -29710125.14467442 -16962859.5336821 0 0 0 0 0 108158800.7590166 -24296991.23641562 -24296991.23641562 -17986603.59693456 0 0 0 0 0 117653624.8966375 -14739674.99388035 -14739674.99388035 -16401757.92463493 0 0 0 0 0 119034326.4817357 -8725941.647891942 -8725941.647891942 -13853296.79685363 0 0 0 0 0 118322856.1024083 -7398870.788368996 -7398870.788368996 -13069755.29825806 0 0 0 0 0 117174989.4519444 -7042570.843476983 -7042570.843476983 -12629897.18307179 0 0 0 0 0 116483307.3911244 -6640328.382250469 -6640328.382250469 -12293735.87563651 0 0 0 0 0 116512412.8599387 -5990801.769439586 -5990801.769439586 -11843759.61994684 0 0 0 0 0 116500772.4588387 -5380541.961935426 -5380541.961935426 -11401130.9487579 0 0 0 0 0 116453796.5540968 -4807515.375095441 -4807515.375095441 -10967635.93771506 0 0 0 0 0 116376902.4916513 -4268601.340895808 -4268601.340895808 -10541185.7120393 0 0 0 0 0 115679032.6127084 -4065626.175096568 -4065626.175096568 -10266902.74420387 0 0 0 0 0 115574615.6926592 -3595915.232287202 -3595915.232287202 -9868743.5426149 0 0 0 0 0 115448807.9295824 -3156350.975839573 -3156350.975839573 -9481164.691780647 0 0 0 0 0 115304813.7517272 -2744979.249945641 -2744979.249945641 -9103962.725733114 0 0 0 0 0 115145267.818723 -2360696.311084818 -2360696.311084818 -8737508.691862773 0 0 0 0 0 114971934.1751626 -2001354.55095195 -2001354.55095195 -8381476.86824226 0 0 0 0 0 114160393.2387762 -1635181.904833395 -1635181.904833395 -7864433.982207351 0 0 0 0 0 113978040.474898 -1340212.427841835 -1340212.427841835 -7545006.178705155 0 0 0 0 0 113788593.4778033 -1064685.184315392 -1064685.184315392 -7235693.557766077 0 0 0 0 0 113593364.290686 -807518.5143956922 -807518.5143956922 -6936246.041093257 0 0 0 0 0 113393443.9820484 -567740.5807962235 -567740.5807962235 -6646683.656755346 0 0 0 0 0 112847670.8614402 -597310.9179041468 -597310.9179041468 -6526826.876965698 0 0 0 0 0 112656921.7705292 -384672.5439608773 -384672.5439608773 -6260154.107794341 0 0 0 0 0 112467710.3940444 -188041.8929996272 -188041.8929996272 -5998483.737918578 0 0 0 0 0 112263162.8381023 -12642.49256155067 -12642.49256155067 -5755150.426429904 0 0 0 0 0 112064201.7116304 153293.8523935053 153293.8523935053 -5523368.776136998 0 0 0 0 0 111861887.2509975 305530.780247507 305530.780247507 -5298486.251577892 0 0 0 0 0 111108866.7324124 294411.63982069 294411.63982069 -5203967.802191214 0 0 0 0 0 111662534.4469579 451766.4725617035 451766.4725617035 -5076873.435813283 0 0 0 0 0 111039031.0435681 508064.0251761543 508064.0251761543 -4806749.605855614 0 0 0 0 0 110854544.0601249 630702.8723924204 630702.8723924204 -4607389.456329328 0 0 0 0 0 110671721.6433123 744720.5872275181 744720.5872275181 -4415818.646231174 0 0 0 0 0 110490723.7491161 850866.2660103084 850866.2660103084 -4230065.790392223 0 0 0 0 0 110312191.8774014 950158.4364825075 950158.4364825075 -4049912.737212177 0 0 0 0 0 109825240.2375916 780187.1327921175 780187.1327921175 -4202002.087986873 0 0 0 0 0 109779218.6789847 949503.749704261 949503.749704261 -3849640.981470149 0 0 0 0 0 109610491.3867996 1041300.171350007 1041300.171350007 -3683307.309303744 0 0 0 0 0 109492120.8186611 1112729.712112381 1112729.712112381 -3573864.182706821 0 0 0 0 0 109115527.4599115 982029.7204459569 982029.7204459569 -3636903.599072714 0 0 0 0 0 108879104.1319287 974705.7072923752 974705.7072923752 -3615501.290647177 0 0 0 0 0 591917.9102192812 2846499.656418917 2846499.656418917 -16908255.62984562 0 0 0 0 0 10647004.72601272 -6659479.114803404 -6659479.114803404 -14147602.17110587 0 0 0 0 0 33528341.03307283 -22595493.80723442 -22595493.80723442 -11026293.34264817 0 0 0 0 0 41862040.25051045 -26288822.1834246 -26288822.1834246 -10520962.49408768 0 0 0 0 0 50062119.66707775 -28987613.53630459 -28987613.53630459 -10590060.54305547 0 0 0 0 0 57861385.34659401 -30867557.67959927 -30867557.67959927 -11053167.52724654 0 0 0 0 0 65268040.95601092 -32014998.9889404 -32014998.9889404 -11729093.61403653 0 0 0 0 0 72261174.94749856 -32518513.13299325 -32518513.13299325 -12501041.09496863 0 0 0 0 0 78716537.36749154 -32442910.83896752 -32442910.83896752 -13297793.60441769 0 0 0 0 0 84637623.48685937 -31932989.80204117 -31932989.80204117 -14047871.01984677 0 0 0 0 0 89990039.26183066 -31084419.2928055 -31084419.2928055 -14710720.75925774 0 0 0 0 0 99154176.47233289 -28601275.49688418 -28601275.49688418 -17167703.83587582 0 0 0 0 0 98982305.84717454 -28301969.65001788 -28301969.65001788 -16921565.36729392 0 0 0 0 0 102530875.6533412 -26873443.95762369 -26873443.95762369 -17105438.60874504 0 0 0 0 0 105661277.4290524 -25363360.11988773 -25363360.11988773 -17190765.14230477 0 0 0 0 0 107697848.4425304 -23634114.36032633 -23634114.36032633 -17817668.71678765 0 0 0 0 0 109955675.7232769 -22124069.60080946 -22124069.60080946 -17668438.23529646 0 0 0 0 0 111917273.4450207 -20626135.47202284 -20626135.47202284 -17454564.31926601 0 0 0 0 0 113612450.9649241 -19150591.8723416 -19150591.8723416 -17177611.98029783 0 0 0 0 0 115061959.0415277 -17710767.11860995 -17710767.11860995 -16849391.15776819 0 0 0 0 0 116286070.7738287 -16317165.5821434 -16317165.5821434 -16478211.10925707 0 0 0 0 0 117318108.5985491 -14973630.08861662 -14973630.08861662 -16058940.05650829 0 0 0 0 0 118323672.5570121 -13553960.08284498 -13553960.08284498 -15980816.73270028 0 0 0 0 0 117803668.2596418 -12697874.77173939 -12697874.77173939 -15469459.30509099 0 0 0 0 0 118357681.5585795 -11571932.82400133 -11571932.82400133 -14986617.74646618 0 0 0 0 0 118795223.44195 -10509640.12579646 -10509640.12579646 -14492081.96747609 0 0 0 0 0 119125112.3118816 -9506572.682391521 -9506572.682391521 -13990925.43938987 0 0 0 0 0 119361583.7161437 -8558365.506084388 -8558365.506084388 -13484897.77761089 0 0 0 0 0 119122672.1288617 -7886803.96542021 -7886803.96542021 -13381776.46299291 0 0 0 0 0 118735310.2134889 -7168548.433760508 -7168548.433760508 -12733484.86707757 0 0 0 0 0 117541084.1079554 -6284503.05904065 -6284503.05904065 -12282748.4796947 0 0 0 0 0 116378980.9873288 -3777693.978321407 -3777693.978321407 -10293917.41676778 0 0 0 0 0 114751781.6490495 -1729769.905150742 -1729769.905150742 -8244443.457838474 0 0 0 0 0 114594096.3892639 -1352789.047390165 -1352789.047390165 -7701501.543642801 0 0 0 0 0 113090874.3335836 -428098.0831780179 -428098.0831780179 -6583545.755849794 0 0 0 0 0 111466984.7856002 590160.9806917394 590160.9806917394 -4861734.698265279 0 0 0 0 0 110008062.4457833 956557.9476207133 956557.9476207133 -4071073.964258422 0 0 0 0 0 109302688.4100687 1122584.767994847 1122584.767994847 -3496230.361820305 0 0 0 0 0 109066003.0037484 1090243.443031558 1090243.443031558 -3384027.272503881 0 0 0 0 0 118326692.2960086 -6668113.765134434 -6668113.765134434 -12606324.4208628 0 0 0 0 0 -1190717.497324598 7762615.7676282 7762615.7676282 -28574596.81355333 0 0 0 0 0 24924875.82817315 -18046407.79874656 -18046407.79874656 -6555261.349813536 0 0 0 0 0 13653025.90174893 -10191990.57771261 -10191990.57771261 -7156399.171404373 0 0 0 0 0 99220148.55706385 -28936403.58967616 -28936403.58967616 -16093720.45867164 0 0 0 0 0 111330302.5203047 -23044716.90546177 -23044716.90546177 -17364818.01723601 0 0 0 0 0 119384915.5985978 -13379300.88616427 -13379300.88616427 -15737236.33562859 0 0 0 0 0 120003245.8117542 -7582561.214949646 -7582561.214949646 -13177012.29329402 0 0 0 0 0 119119958.6156071 -6357500.094978325 -6357500.094978325 -12440547.93679404 0 0 0 0 0 117988276.9163579 -6022632.99283045 -6022632.99283045 -11982230.63475784 0 0 0 0 0 117227546.5491391 -5684935.401132673 -5684935.401132673 -11700151.59919656 0 0 0 0 0 117189240.8375667 -5068697.862401129 -5068697.862401129 -11247140.38337393 0 0 0 0 0 117116544.8679003 -4491232.123224017 -4491232.123224017 -10803182.66967732 0 0 0 0 0 117012105.2717208 -3950742.044561295 -3950742.044561295 -10369580.5769742 0 0 0 0 0 116880901.4112508 -3444729.77074038 -3444729.77074038 -9944804.824154867 0 0 0 0 0 116146663.3315251 -3291090.800236255 -3291090.800236255 -9715918.324606409 0 0 0 0 0 115997709.8583291 -2850861.643536972 -2850861.643536972 -9319789.616661116 0 0 0 0 0 115830761.2608652 -2440128.179650708 -2440128.179650708 -8935192.385003099 0 0 0 0 0 115648586.0676794 -2057060.48211874 -2057060.48211874 -8562455.955441721 0 0 0 0 0 115453775.0442525 -1699907.487242673 -1699907.487242673 -8201087.929984012 0 0 0 0 0 115248076.4874776 -1367188.366723892 -1367188.366723892 -7850624.690320627 0 0 0 0 0 114392717.4950576 -1060860.16505155 -1060860.16505155 -7377356.187469541 0 0 0 0 0 114185057.2021953 -788899.1504002835 -788899.1504002835 -7063624.816390075 0 0 0 0 0 113972148.4831483 -535695.8670337695 -535695.8670337695 -6760687.459749641 0 0 0 0 0 113755173.144959 -300174.0328245621 -300174.0328245621 -6468095.363725526 0 0 0 0 0 113535205.4295623 -81308.88861451764 -81308.88861451764 -6185606.105804922 0 0 0 0 0 112983990.5140787 -136320.1746100903 -136320.1746100903 -6096316.893172526 0 0 0 0 0 112776446.0815132 56778.12317872098 56778.12317872098 -5834727.283087879 0 0 0 0 0 112574512.8931639 234945.5262362573 234945.5262362573 -5582475.846076305 0 0 0 0 0 112358066.358531 392322.109891921 392322.109891921 -5346657.508603409 0 0 0 0 0 112134078.0520929 534300.9599132907 534300.9599132907 -5129830.252586358 0 0 0 0 0 111927781.7314471 677778.2397368473 677778.2397368473 -4907116.924172982 0 0 0 0 0 111146109.0999595 626390.9296868584 626390.9296868584 -4864308.612537123 0 0 0 0 0 111719757.9012021 811580.0508413716 811580.0508413716 -4690385.63890373 0 0 0 0 0 111082704.5545018 836056.1504240225 836056.1504240225 -4452999.322421151 0 0 0 0 0 110889564.4071671 945838.8707305252 945838.8707305252 -4259909.65339985 0 0 0 0 0 110697245.8130929 1047245.283982848 1047245.283982848 -4074347.510528361 0 0 0 0 0 110509895.3055983 1142575.111697717 1142575.111697717 -3893609.387209985 0 0 0 0 0 110324236.4214706 1230151.283887826 1230151.283887826 -3718583.187629754 0 0 0 0 0 109826665.1706676 1043947.830836655 1043947.830836655 -3902876.465411378 0 0 0 0 0 109785121.3131476 1210497.144337784 1210497.144337784 -3547179.729535657 0 0 0 0 0 109587802.0511017 1293790.623085897 1293790.623085897 -3417772.324533605 0 0 0 0 0 109447438.7174967 1287977.59592651 1287977.59592651 -3260604.703744362 0 0 0 0 0 109266141.5434669 1305307.732371045 1305307.732371045 -3182305.510063755 0 0 0 0 0 108987036.6618896 1147131.108664749 1147131.108664749 -3461981.277041649 0 0 0 0 0 2753231.069310585 -648596.17131002 -648596.17131002 -8511866.215562062 0 0 0 0 0 223603.1368974019 4140076.211834615 4140076.211834615 -19380937.34938341 0 0 0 0 0 35846510.93109524 -23478594.39030587 -23478594.39030587 -6483896.2210036 0 0 0 0 0 45448712.68529376 -27351134.12540757 -27351134.12540757 -6760121.103326606 0 0 0 0 0 54030967.21123399 -29899976.44145804 -29899976.44145804 -7464384.186852805 0 0 0 0 0 62164164.38888817 -31541578.85162085 -31541578.85162085 -8478165.154241951 0 0 0 0 0 69801298.76838271 -32408125.26114824 -32408125.26114824 -9619595.419435693 0 0 0 0 0 76888098.62382688 -32575649.21376202 -32575649.21376202 -10734385.86109836 0 0 0 0 0 83392369.56388509 -32231839.07623827 -32231839.07623827 -11772491.81245243 0 0 0 0 0 89259192.47280575 -31481434.87007244 -31481434.87007244 -12696149.2451872 0 0 0 0 0 94483943.38082655 -30390987.90842487 -30390987.90842487 -13472466.44208609 0 0 0 0 0 103168295.2517445 -27664856.85282418 -27664856.85282418 -16355751.55135729 0 0 0 0 0 102882697.5504918 -27181219.55666633 -27181219.55666633 -16028544.94570776 0 0 0 0 0 106219071.5762195 -25624358.88875211 -25624358.88875211 -16231290.67218812 0 0 0 0 0 109124881.1750567 -24012433.78382913 -24012433.78382913 -16319181.27700073 0 0 0 0 0 110789500.5957748 -22238616.17816297 -22238616.17816297 -17082994.62404707 0 0 0 0 0 112841842.696929 -20683633.3157155 -20683633.3157155 -16915586.53962249 0 0 0 0 0 114604691.1561528 -19151674.56667101 -19151674.56667101 -16674116.10955068 0 0 0 0 0 116102743.3489405 -17660637.24605951 -17660637.24605951 -16371878.32558101 0 0 0 0 0 117355365.439594 -16216163.25936386 -16216163.25936386 -16020690.89594923 0 0 0 0 0 118404361.0357463 -14826764.3309089 -14826764.3309089 -15630986.74747326 0 0 0 0 0 119265891.029311 -13489901.80911754 -13489901.80911754 -15180820.83422471 0 0 0 0 0 119907707.5817363 -12212155.98930657 -12212155.98930657 -15296516.06662724 0 0 0 0 0 119390707.303709 -11316720.8042988 -11316720.8042988 -14660833.15366711 0 0 0 0 0 119801744.9582816 -10226455.83848993 -10226455.83848993 -14171088.67374611 0 0 0 0 0 120108600.7125091 -9198365.985253092 -9198365.985253092 -13666666.79627378 0 0 0 0 0 120318366.9360651 -8232899.277419913 -8232899.277419913 -13159496.42668477 0 0 0 0 0 120440915.9478111 -7324738.748063971 -7324738.748063971 -12647397.78622809 0 0 0 0 0 119996821.9650216 -6779538.997640251 -6779538.997640251 -12696780.14244404 0 0 0 0 0 119620244.1905382 -6050567.859181251 -6050567.859181251 -11964080.51050774 0 0 0 0 0 118198528.059216 -5341372.985338336 -5341372.985338336 -11701872.91333076 0 0 0 0 0 116778344.3233989 -3014983.447235163 -3014983.447235163 -9751417.186382918 0 0 0 0 0 114960074.7565902 -1141863.22228654 -1141863.22228654 -7757202.088640495 0 0 0 0 0 114812129.3655724 -769870.6548005641 -769870.6548005641 -7184264.323723765 0 0 0 0 0 113189284.8842015 24300.72714350812 24300.72714350812 -6156241.994307932 0 0 0 0 0 111514507.7257733 935249.9376216058 935249.9376216058 -4481520.285326301 0 0 0 0 0 110005750.7499845 1217833.05757358 1217833.05757358 -3761202.818959801 0 0 0 0 0 119044703.7636446 -5663696.990246148 -5663696.990246148 -11974467.25963202 0 0 0 0 0 17474039.65751633 -13982349.74495544 -13982349.74495544 -834519.2429212896 0 0 0 0 0 5959904.46405286 -5253856.950261571 -5253856.950261571 -364479.8771451104 0 0 0 0 0 28887129.96857014 -20650748.42927996 -20650748.42927996 -1423742.382035155 0 0 0 0 0 103465338.6261469 -28055397.98792475 -28055397.98792475 -15061721.29273085 0 0 0 0 0 114398455.4097768 -21689712.76527779 -21689712.76527779 -16604150.4614972 0 0 0 0 0 121002324.5725154 -11990196.40138965 -11990196.40138965 -14961600.45262842 0 0 0 0 0 120870019.0127883 -6443460.768223436 -6443460.768223436 -12423328.08703936 0 0 0 0 0 119827907.4247252 -5325314.055600463 -5325314.055600463 -11746211.17657115 0 0 0 0 0 118719094.0343995 -5011667.138851767 -5011667.138851767 -11274795.37361316 0 0 0 0 0 117897063.6185765 -4736785.942864877 -4736785.942864877 -11050404.03834261 0 0 0 0 0 117795321.7507597 -4155657.300098687 -4155657.300098687 -10597808.48631985 0 0 0 0 0 117663711.1559569 -3613255.756533762 -3613255.756533762 -10156076.2992093 0 0 0 0 0 117505167.0365597 -3107281.858769367 -3107281.858769367 -9725460.119044041 0 0 0 0 0 117323417.622573 -2635254.618439366 -2635254.618439366 -9305956.070404021 0 0 0 0 0 116555021.4521747 -2530991.170788718 -2530991.170788718 -9127206.566053331 0 0 0 0 0 116365814.2503188 -2120082.195704204 -2120082.195704204 -8734859.974609334 0 0 0 0 0 116160579.0599164 -1738784.312110818 -1738784.312110818 -8355326.047528559 0 0 0 0 0 115942650.0329769 -1384776.49177848 -1384776.49177848 -7989457.825488582 0 0 0 0 0 115715051.2654741 -1055319.062387587 -1055319.062387587 -7636161.382206942 0 0 0 0 0 115479310.3658194 -749593.6542799384 -749593.6542799384 -7293120.832403688 0 0 0 0 0 114585546.3717038 -501833.6271507955 -501833.6271507955 -6867038.967590177 0 0 0 0 0 114354730.6432272 -252902.85693811 -252902.85693811 -6560228.036454475 0 0 0 0 0 114120072.7061102 -22308.57409755685 -22308.57409755685 -6265557.015288923 0 0 0 0 0 113883139.5370309 191413.8798004654 191413.8798004654 -5981343.246052957 0 0 0 0 0 113644861.0491848 389451.6051740178 389451.6051740178 -5707526.958687576 0 0 0 0 0 113090227.0609842 310637.2705617286 310637.2705617286 -5650188.982065965 0 0 0 0 0 112867621.3877509 484365.714480523 484365.714480523 -5396809.987632956 0 0 0 0 0 112648921.677253 641336.8283767271 641336.8283767271 -5154697.806632622 0 0 0 0 0 112419884.9107241 779006.2765109474 779006.2765109474 -4933941.257082946 0 0 0 0 0 112189313.5455809 911669.7175248681 911669.7175248681 -4717864.791539074 0 0 0 0 0 111969017.8794453 1039224.338025727 1039224.338025727 -4502379.556382543 0 0 0 0 0 111163449.2501653 947342.0710720569 947342.0710720569 -4511482.717832889 0 0 0 0 0 111752438.7780142 1157926.883460243 1157926.883460243 -4292824.994269705 0 0 0 0 0 111106791.6088372 1152782.926340698 1152782.926340698 -4089064.395935895 0 0 0 0 0 110905182.4705719 1249392.04522419 1249392.04522419 -3903842.244590147 0 0 0 0 0 110707107.9773907 1339925.486581867 1339925.486581867 -3724065.211314107 0 0 0 0 0 110512041.1109831 1423139.965137486 1423139.965137486 -3550678.394531521 0 0 0 0 0 110320566.928872 1498918.795111465 1498918.795111465 -3383594.974178815 0 0 0 0 0 109812432.1247505 1298358.173193544 1298358.173193544 -3600384.035031365 0 0 0 0 0 109774380.7806044 1457331.53027578 1457331.53027578 -3246658.033005079 0 0 0 0 0 109386711.5996686 1382424.497944125 1382424.497944125 -3230597.167537495 0 0 0 0 0 109363672.4104131 1507761.144927197 1507761.144927197 -3009859.686499853 0 0 0 0 0 109101084.6881835 1353756.641385013 1353756.641385013 -3257000.481931882 0 0 0 0 0 3504380.436859675 -184569.3049649897 -184569.3049649897 -9380869.786362061 0 0 0 0 0 39956714.27781141 -25499302.35229561 -25499302.35229561 -1648005.049131539 0 0 0 0 0 49442285.22819624 -28789953.98253446 -28789953.98253446 -2773240.106937835 0 0 0 0 0 58398665.29389708 -31048530.80050654 -31048530.80050654 -4249231.656156306 0 0 0 0 0 66832431.76812097 -32319562.0397609 -32319562.0397609 -5874624.137330157 0 0 0 0 0 74668679.41195461 -32789044.96004199 -32789044.96004199 -7422624.11946559 0 0 0 0 0 81830687.54629278 -32633152.6761655 -32633152.6761655 -8853728.213399446 0 0 0 0 0 88271139.58374164 -31968367.12044512 -31968367.12044512 -10130206.02492678 0 0 0 0 0 94038273.2843159 -30967150.95948213 -30967150.95948213 -11207834.27214028 0 0 0 0 0 99058864.68145211 -29520953.61623048 -29520953.61623048 -12073431.21281537 0 0 0 0 0 107176528.1005805 -26620796.57545713 -26620796.57545713 -15383443.34065866 0 0 0 0 0 106756840.019755 -25939595.9733056 -25939595.9733056 -14998376.92753818 0 0 0 0 0 109854298.3575988 -24260566.60907261 -24260566.60907261 -15212774.05413558 0 0 0 0 0 112513526.2104064 -22562229.8775405 -22562229.8775405 -15306223.17027031 0 0 0 0 0 113797891.9923307 -20759758.65705968 -20759758.65705968 -16199833.47899354 0 0 0 0 0 115633749.3971634 -19165120.99396714 -19165120.99396714 -16012032.07323821 0 0 0 0 0 117179615.9286271 -17613189.66277331 -17613189.66277331 -15754160.81529247 0 0 0 0 0 118459863.5825768 -16123248.34848272 -16123248.34848272 -15438084.58500784 0 0 0 0 0 119517287.6030373 -14686050.57899684 -14686050.57899684 -15069953.2650499 0 0 0 0 0 120383425.8661938 -13302021.87916623 -13302021.87916623 -14659628.6562691 0 0 0 0 0 121076405.6611475 -11986339.83725728 -11986339.83725728 -14197026.10127424 0 0 0 0 0 121367992.1326324 -10854205.96567198 -10854205.96567198 -14511249.37418847 0 0 0 0 0 120859654.7042647 -9920155.185045242 -9920155.185045242 -13748140.38541938 0 0 0 0 0 121125166.9413103 -8875516.477117661 -8875516.477117661 -13262757.10576675 0 0 0 0 0 121305212.685755 -7888675.351646474 -7888675.351646474 -12753631.18738693 0 0 0 0 0 121397654.541963 -6965429.390898262 -6965429.390898262 -12244684.27165758 0 0 0 0 0 121412129.0055642 -6101791.643969887 -6101791.643969887 -11733494.19504886 0 0 0 0 0 120773946.5277958 -5680501.358718943 -5680501.358718943 -11939991.37937615 0 0 0 0 0 120410532.2100294 -4944966.137108798 -4944966.137108798 -11128417.89947806 0 0 0 0 0 118780021.698759 -4407613.982380499 -4407613.982380499 -11063093.28984626 0 0 0 0 0 117119573.8589514 -2266642.988630229 -2266642.988630229 -9168778.437500145 0 0 0 0 0 115128022.3823383 -570042.666199274 -570042.666199274 -7244048.509583864 0 0 0 0 0 114988335.7544837 -204725.5207666675 -204725.5207666675 -6644644.216101354 0 0 0 0 0 113258852.5537443 461807.6216864944 461807.6216864944 -5712242.392979182 0 0 0 0 0 111536951.1279432 1266026.541201172 1266026.541201172 -4093640.147766587 0 0 0 0 0 109979555.6653373 1461906.157016638 1461906.157016638 -3448780.94367181 0 0 0 0 0 109591133.4054638 1520946.471295593 1520946.471295593 -3156127.411189417 0 0 0 0 0 119677987.969537 -4670143.458944246 -4670143.458944246 -11280344.23512685 0 0 0 0 0 10496842.36394795 -10972675.91873423 -10972675.91873423 8472540.883706309 0 0 0 0 0 20883660.43103771 -17819868.53571561 -17819868.53571561 3967520.256011955 0 0 0 0 0 7264453.304423701 -5536902.792772377 -5536902.792772377 91595.09860715781 0 0 0 0 0 34201208.10621158 -23753334.34755052 -23753334.34755052 4723547.019738236 0 0 0 0 0 107708013.9420287 -27063014.1104775 -27063014.1104775 -13893021.41921509 0 0 0 0 0 117361096.9245091 -20249402.34261845 -20249402.34261845 -15695012.38919364 0 0 0 0 0 122490943.4288553 -10587572.25149999 -10587572.25149999 -14075845.14064426 0 0 0 0 0 121634846.3126014 -5316445.497780059 -5316445.497780059 -11597337.70417211 0 0 0 0 0 120447396.7932413 -4306844.654702463 -4306844.654702463 -10989024.53220344 0 0 0 0 0 119367395.7910443 -4014419.397899567 -4014419.397899567 -10511018.28372075 0 0 0 0 0 118491059.4546635 -3801255.891486898 -3801255.891486898 -10347692.25305712 0 0 0 0 0 118329260.9986838 -3257179.343366006 -3257179.343366006 -9899576.919498829 0 0 0 0 0 118142039.5908443 -2751052.516445498 -2751052.516445498 -9463340.007666742 0 0 0 0 0 117932376.1013122 -2280931.138581063 -2280931.138581063 -9039771.109578131 0 0 0 0 0 117703031.0418418 -1844384.27441147 -1844384.27441147 -8628577.578079576 0 0 0 0 0 116906763.0203485 -1787063.951185849 -1787063.951185849 -8501370.282941416 0 0 0 0 0 116678566.1340705 -1407297.827065807 -1407297.827065807 -8116906.434544402 0 0 0 0 0 116438866.9739596 -1055324.427293941 -1055324.427293941 -7745189.336230524 0 0 0 0 0 116187046.3593583 -731654.8273116336 -731654.8273116336 -7388863.654550338 0 0 0 0 0 115927336.0183763 -431570.245370437 -431570.245370437 -7047997.960921871 0 0 0 0 0 115663846.8070391 -153428.9932418435 -153428.9932418435 -6713656.918884859 0 0 0 0 0 114738507.7208781 39157.51370072587 39157.51370072587 -6335632.967669598 0 0 0 0 0 114487568.7939363 265541.6059331343 265541.6059331343 -6037581.653576361 0 0 0 0 0 114233123.4291159 473674.4492425239 473674.4492425239 -5752639.999163356 0 0 0 0 0 113978152.9883785 665848.3458832123 665848.3458832123 -5478261.797453617 0 0 0 0 0 113723084.9732625 842989.9242877408 842989.9242877408 -5215483.790198096 0 0 0 0 0 113168070.0191765 741297.3173488542 741297.3173488542 -5191652.621380307 0 0 0 0 0 112932320.7355687 894753.3944882831 894753.3944882831 -4948146.014951095 0 0 0 0 0 112692823.49052 1028691.688893273 1028691.688893273 -4724177.645289301 0 0 0 0 0 112457852.5370488 1155112.386291748 1155112.386291748 -4506346.941663992 0 0 0 0 0 112218324.8001697 1273247.966563442 1273247.966563442 -4295346.99369807 0 0 0 0 0 111988464.1150387 1386247.986227114 1386247.986227114 -4086987.440999437 0 0 0 0 0 111162522.9083061 1256071.589546283 1256071.589546283 -4148079.863908303 0 0 0 0 0 111763829.4716753 1489624.808218071 1489624.808218071 -3887560.479551843 0 0 0 0 0 111111190.5202814 1456336.675408527 1456336.675408527 -3717924.975858117 0 0 0 0 0 110903759.2657899 1541440.373925663 1541440.373925663 -3539299.477246716 0 0 0 0 0 110699275.6911418 1619839.85781579 1619839.85781579 -3367427.387843805 0 0 0 0 0 110498057.09433 1691206.678576401 1691206.678576401 -3200538.254111131 0 0 0 0 0 110294689.9992856 1761573.692953377 1761573.692953377 -3036944.106040371 0 0 0 0 0 109781714.1957975 1532602.155431937 1532602.155431937 -3299306.764262048 0 0 0 0 0 109767648.321676 1686232.016316534 1686232.016316534 -2930887.489814965 0 0 0 0 0 109486469.2977487 1709244.061300554 1709244.061300554 -2796022.290427199 0 0 0 0 0 109201385.5296953 1539290.456376271 1539290.456376271 -3065453.391703394 0 0 0 0 0 44040647.52568178 -27688375.33875696 -27688375.33875696 3387861.240175188 0 0 0 0 0 53810425.66669623 -30564409.82045497 -30564409.82045497 1188683.864590881 0 0 0 0 0 63168208.82285593 -32343702.30264916 -32343702.30264916 -1090592.755834379 0 0 0 0 0 72001951.3819602 -33168385.55887214 -33168385.55887214 -3199138.539561805 0 0 0 0 0 79904341.98224831 -33172174.25617795 -33172174.25617795 -5169174.660731699 0 0 0 0 0 86979906.22686456 -32605585.60941508 -32605585.60941508 -6922092.365261104 0 0 0 0 0 93355106.80323543 -31687709.35552961 -31687709.35552961 -8380753.038043615 0 0 0 0 0 98881676.58471149 -30214462.89706848 -30214462.89706848 -9576819.377970055 0 0 0 0 0 103656810.5651903 -28581735.72608071 -28581735.72608071 -10650706.1993311 0 0 0 0 0 111136612.6637496 -25465958.15566149 -25465958.15566149 -14273537.45267472 0 0 0 0 0 110594353.6115302 -24567096.55897897 -24567096.55897897 -13814241.6145221 0 0 0 0 0 113401911.1308732 -22801823.57867317 -22801823.57867317 -14061777.46416831 0 0 0 0 0 115791807.5673766 -21028079.12026971 -21028079.12026971 -14160997.94246189 0 0 0 0 0 116698633.7992241 -19201666.4743682 -19201666.4743682 -15174172.11014673 0 0 0 0 0 118301711.2042293 -17584371.54267156 -17584371.54267156 -14973377.88703339 0 0 0 0 0 119620538.6203327 -16024909.89147777 -16024909.89147777 -14709173.72139224 0 0 0 0 0 120697549.2632361 -14528684.37638074 -14528684.37638074 -14371606.42697062 0 0 0 0 0 121546802.8070054 -13105041.35293068 -13105041.35293068 -13994769.38137314 0 0 0 0 0 122206431.9080857 -11758159.60968968 -11758159.60968968 -13582757.73371732 0 0 0 0 0 122725600.2349042 -10477928.02974902 -10477928.02974902 -13118365.10171495 0 0 0 0 0 122698347.34134 -9490496.349072205 -9490496.349072205 -13626062.90407995 0 0 0 0 0 122200370.7577881 -8525271.457166879 -8525271.457166879 -12744964.99961174 0 0 0 0 0 122326777.7402923 -7527909.467487069 -7527909.467487069 -12263425.03472836 0 0 0 0 0 122383469.4458772 -6586982.766070355 -6586982.766070355 -11758789.40887114 0 0 0 0 0 122361001.3585791 -5711766.976090839 -5711766.976090839 -11254233.19818404 0 0 0 0 0 122270899.3268021 -4896927.482529533 -4896927.482529533 -10749913.91416394 0 0 0 0 0 121453679.9515987 -4596889.382312816 -4596889.382312816 -11115855.41249832 0 0 0 0 0 121104603.8162855 -3858979.08395533 -3858979.08395533 -10232108.52322325 0 0 0 0 0 119284495.972736 -3488560.719226387 -3488560.719226387 -10370542.82361774 0 0 0 0 0 117403220.7584224 -1537124.952817736 -1537124.952817736 -8549384.75605065 0 0 0 0 0 115253992.4347513 -18117.68179377451 -18117.68179377451 -6706927.943263284 0 0 0 0 0 115126700.1344171 342638.3236163032 342638.3236163032 -6083135.272137523 0 0 0 0 0 113298288.0783259 880038.0851467765 880038.0851467765 -5257254.350627987 0 0 0 0 0 111538275.8168667 1582438.26845312 1582438.26845312 -3698074.97105284 0 0 0 0 0 109972859.3972344 1693245.156844086 1693245.156844086 -3151992.361531779 0 0 0 0 0 109650966.1139255 1730390.367251883 1730390.367251883 -2809120.706961492 0 0 0 0 0 120228698.5676241 -3691812.020923842 -3691812.020923842 -10526574.35256123 0 0 0 0 0 11219649.34489305 -11464310.37285035 -11464310.37285035 9075480.913251085 0 0 0 0 0 19659057.81482878 -18024472.3505219 -18024472.3505219 8170304.141419681 0 0 0 0 0 30120351.82378715 -21117143.32326864 -21117143.32326864 2489237.072969485 0 0 0 0 0 37990020.13784387 -26606401.34555152 -26606401.34555152 11741138.86710101 0 0 0 0 0 111932900.5432682 -25953820.40734881 -25953820.40734881 -12588171.02869602 0 0 0 0 0 120185201.2859791 -18743351.22236487 -18743351.22236487 -14651655.5441098 0 0 0 0 0 123837387.3460381 -9183042.017496118 -9183042.017496118 -13087913.66375889 0 0 0 0 0 122297293.6576002 -4209489.464927702 -4209489.464927702 -10703460.44706639 0 0 0 0 0 120978200.4804947 -3308947.202931033 -3308947.202931033 -10174435.68351675 0 0 0 0 0 119931368.3649558 -3037311.237806617 -3037311.237806617 -9695382.948040087 0 0 0 0 0 119009669.7606773 -2883286.189488102 -2883286.189488102 -9596081.043887613 0 0 0 0 0 118791122.7049832 -2377804.627898315 -2377804.627898315 -9156162.319406083 0 0 0 0 0 118551398.4724266 -1909507.960314361 -1909507.960314361 -8729121.819302231 0 0 0 0 0 118294484.8223645 -1476005.156017507 -1476005.156017507 -8315008.586887638 0 0 0 0 0 118022058.2336721 -1075357.386117762 -1075357.386117762 -7916134.343533052 0 0 0 0 0 117202772.1572203 -1063151.927596907 -1063151.927596907 -7844385.527594426 0 0 0 0 0 116935885.024168 -717174.4093809413 -717174.4093809413 -7471635.766559321 0 0 0 0 0 116659417.154811 -398447.8772775464 -398447.8772775464 -7113774.812515648 0 0 0 0 0 116377964.8332967 -105690.4956002032 -105690.4956002032 -6769583.371670097 0 0 0 0 0 116087299.9484206 164610.668066637 164610.668066637 -6443805.209366901 0 0 0 0 0 115801053.1581091 418740.9690907218 418740.9690907218 -6116875.172398158 0 0 0 0 0 114857501.7226461 563943.5014871075 563943.5014871075 -5782024.543645139 0 0 0 0 0 114584676.5957757 765096.1232866271 765096.1232866271 -5496938.702727762 0 0 0 0 0 114312358.2298619 950731.8760551957 950731.8760551957 -5224312.3205619 0 0 0 0 0 114041359.6776774 1121009.211564143 1121009.211564143 -4962823.627736409 0 0 0 0 0 113769850.1722941 1275927.555224283 1275927.555224283 -4711437.484591841 0 0 0 0 0 113215152.8696298 1150227.835560845 1150227.835560845 -4723962.661610405 0 0 0 0 0 112964000.2884804 1281677.48456418 1281677.48456418 -4497775.504577463 0 0 0 0 0 112713726.4219736 1402410.42834209 1402410.42834209 -4279076.267282659 0 0 0 0 0 112468145.8168036 1513735.00516744 1513735.00516744 -4069256.053959676 0 0 0 0 0 112224567.9960356 1620159.899737271 1620159.899737271 -3862764.056466149 0 0 0 0 0 111986737.6928257 1717084.678607768 1717084.678607768 -3664733.753722141 0 0 0 0 0 111144486.1344549 1552500.438133701 1552500.438133701 -3775915.001833824 0 0 0 0 0 111751722.7428475 1804707.067431918 1804707.067431918 -3476727.687382863 0 0 0 0 0 111098595.2021269 1747284.990629576 1747284.990629576 -3338786.100857564 0 0 0 0 0 110885101.9362488 1820120.515047904 1820120.515047904 -3169131.760794648 0 0 0 0 0 110674883.1779021 1886827.838070501 1886827.838070501 -3008225.443438075 0 0 0 0 0 110469829.3383779 1945807.838215093 1945807.838215093 -2853627.33486874 0 0 0 0 0 110197418.0873991 1997768.677401032 1997768.677401032 -2764520.4890659 0 0 0 0 0 109749594.7533468 1744651.009808424 1744651.009808424 -2985094.234585611 0 0 0 0 0 109755508.0886758 1915688.826116854 1915688.826116854 -2606462.675870179 0 0 0 0 0 109303487.472488 1738637.59380085 1738637.59380085 -2834247.675838081 0 0 0 0 0 109587613.0896142 1910523.023136789 1910523.023136789 -2551382.317681581 0 0 0 0 0 48180037.89181791 -30078638.56207205 -30078638.56207205 8459178.661645919 0 0 0 0 0 58687065.96633889 -32469987.03093864 -32469987.03093864 5042646.775245116 0 0 0 0 0 68592981.70614728 -33694888.40150642 -33694888.40150642 2070979.258508872 0 0 0 0 0 77479532.06670146 -33969514.99153838 -33969514.99153838 -571408.8171192808 0 0 0 0 0 85364762.37745334 -33503651.63341233 -33503651.63341233 -2939001.547564594 0 0 0 0 0 92415062.01123095 -32622042.24630351 -32622042.24630351 -4888708.879503256 0 0 0 0 0 98490997.60728224 -31110570.10764508 -31110570.10764508 -6552359.77832842 0 0 0 0 0 103744083.9085775 -29404431.8040447 -29404431.8040447 -7992025.443870591 0 0 0 0 0 108273345.9761641 -27556706.85434638 -27556706.85434638 -9124749.871812377 0 0 0 0 0 114987199.7644642 -24202728.8787532 -24202728.8787532 -13037338.85397254 0 0 0 0 0 114321291.7515574 -23125202.23647429 -23125202.23647429 -12530670.00886381 0 0 0 0 0 116835148.1228085 -21261352.98592154 -21261352.98592154 -12788333.75617907 0 0 0 0 0 118943639.4590427 -19417388.43145888 -19417388.43145888 -12886908.19135651 0 0 0 0 0 119465520.4898182 -17583491.36850116 -17583491.36850116 -14016389.32283546 0 0 0 0 0 120823744.3485261 -15948815.06757031 -15948815.06757031 -13808937.25605606 0 0 0 0 0 121918101.5717991 -14392631.5141979 -14392631.5141979 -13535821.47251059 0 0 0 0 0 122797256.8876968 -12901522.92669861 -12901522.92669861 -13177291.39001777 0 0 0 0 0 123424200.1325036 -11521105.17490761 -11521105.17490761 -12808508.55535139 0 0 0 0 0 123890702.4491466 -10205717.28305827 -10205717.28305827 -12393898.96060522 0 0 0 0 0 124233888.8621381 -8964699.160537796 -8964699.160537796 -11929354.81226386 0 0 0 0 0 123896230.1128525 -8129241.660695382 -8129241.660695382 -12641798.13734937 0 0 0 0 0 123408163.5137799 -7143783.608667994 -7143783.608667994 -11658045.13664088 0 0 0 0 0 123407457.0528367 -6190281.544762913 -6190281.544762913 -11176759.06779405 0 0 0 0 0 123339750.2752441 -5304689.858030676 -5304689.858030676 -10687661.03257637 0 0 0 0 0 123208908.9420722 -4481270.893237996 -4481270.893237996 -10193944.28115398 0 0 0 0 0 123020827.3131028 -3717046.998465731 -3717046.998465731 -9701576.162463274 0 0 0 0 0 122036205.8335954 -3535351.041243257 -3535351.041243257 -10229037.97570898 0 0 0 0 0 121702824.0557784 -2798737.292366468 -2798737.292366468 -9280486.533557741 0 0 0 0 0 119713039.8169353 -2589559.285445756 -2589559.285445756 -9627594.849951139 0 0 0 0 0 117628925.0382086 -831192.067573216 -831192.067573216 -7899142.942425082 0 0 0 0 0 115343494.8041948 517054.8568497875 517054.8568497875 -6146183.107412699 0 0 0 0 0 115224797.1542102 869189.4779930018 869189.4779930018 -5501311.280269436 0 0 0 0 0 113305236.146552 1274529.651672784 1274529.651672784 -4793290.723696921 0 0 0 0 0 111520089.249222 1884551.129552236 1884551.129552236 -3295717.907878259 0 0 0 0 0 110077580.1174391 1951555.977349505 1951555.977349505 -2747255.32967447 0 0 0 0 0 120695094.1937175 -2735794.71915044 -2735794.71915044 -9719019.968917454 0 0 0 0 0 18466737.64728268 -17584037.99351824 -17584037.99351824 17812107.15134974 0 0 0 0 0 32455630.65189451 -23919007.34751787 -23919007.34751787 9664487.042931844 0 0 0 0 0 40826478.09115499 -29472408.90090657 -29472408.90090657 18275795.40318091 0 0 0 0 0 116034754.1953562 -24751084.37956413 -24751084.37956413 -11197016.37711392 0 0 0 0 0 122847137.3745591 -17181444.07639097 -17181444.07639097 -13480212.71985022 0 0 0 0 0 125036697.4820069 -7788863.691767746 -7788863.691767746 -12005133.04774461 0 0 0 0 0 122858036.9485375 -3128849.441233516 -3128849.441233516 -9748152.309880642 0 0 0 0 0 121421601.0220608 -2337079.44011134 -2337079.44011134 -9306794.752902081 0 0 0 0 0 120412584.4397506 -2085203.579692136 -2085203.579692136 -8832202.488776507 0 0 0 0 0 119452935.0056579 -1988037.848970317 -1988037.848970317 -8800084.218062861 0 0 0 0 0 119181452.2674109 -1522169.853905419 -1522169.853905419 -8371737.880823134 0 0 0 0 0 118893253.7817542 -1092320.325766338 -1092320.325766338 -7957401.818574099 0 0 0 0 0 118592140.3498112 -697179.4779733111 -697179.4779733111 -7556426.008271414 0 0 0 0 0 118278054.6805822 -334240.1286021017 -334240.1286021017 -7174642.527717843 0 0 0 0 0 117444718.8532512 -364668.3731788441 -364668.3731788441 -7157472.581170041 0 0 0 0 0 117145245.6523283 -49678.23505122822 -49678.23505122822 -6799026.347496479 0 0 0 0 0 116835991.4863995 235884.0977183612 235884.0977183612 -6457169.513312917 0 0 0 0 0 116526753.2353771 496350.3200043231 496350.3200043231 -6130362.483759435 0 0 0 0 0 116199927.3246415 736483.4764723353 736483.4764723353 -5819086.607724156 0 0 0 0 0 115899553.7218346 972303.9589862425 972303.9589862425 -5492783.738786293 0 0 0 0 0 114939255.164174 1066888.931266363 1066888.931266363 -5215181.799044188 0 0 0 0 0 114648102.1191187 1243750.74762282 1243750.74762282 -4942978.635854659 0 0 0 0 0 114355425.2987287 1403741.989096787 1403741.989096787 -4687658.998727662 0 0 0 0 0 114068258.0822192 1549969.246263197 1549969.246263197 -4440675.163643409 0 0 0 0 0 113781131.6055973 1682313.488114667 1682313.488114667 -4205112.154294447 0 0 0 0 0 113233943.238773 1538767.029934762 1538767.029934762 -4250269.346757078 0 0 0 0 0 112972055.5861123 1653738.474932294 1653738.474932294 -4033456.823644569 0 0 0 0 0 112711423.6443827 1759360.69504392 1759360.69504392 -3824020.521699994 0 0 0 0 0 112458906.2881672 1859084.327510988 1859084.327510988 -3619940.118622784 0 0 0 0 0 112209695.5010455 1950195.784161856 1950195.784161856 -3424001.46033861 0 0 0 0 0 111964650.3929815 2032156.733603235 2032156.733603235 -3237623.927596589 0 0 0 0 0 111108942.2885873 1835212.095448659 1835212.095448659 -3396090.045303092 0 0 0 0 0 111721393.1490016 2104966.497427702 2104966.497427702 -3059399.719110014 0 0 0 0 0 111068821.0721541 2024350.042756848 2024350.042756848 -2952464.871108566 0 0 0 0 0 110849795.6805557 2084294.131219177 2084294.131219177 -2790624.551203048 0 0 0 0 0 110634227.9761107 2137908.400908415 2137908.400908415 -2635588.13671256 0 0 0 0 0 110415160.4756878 2195222.745122484 2195222.745122484 -2489196.332596368 0 0 0 0 0 110102815.741466 2182112.861638992 2182112.861638992 -2402568.40625724 0 0 0 0 0 109921257.6701968 2136260.626505036 2136260.626505036 -2369668.089217493 0 0 0 0 0 109719076.6957678 2118252.758365313 2118252.758365313 -2293827.719151791 0 0 0 0 0 109399531.3686921 1935078.485001637 1935078.485001637 -2588375.475267369 0 0 0 0 0 18414968.59226033 -20343251.48276342 -20343251.48276342 19665595.10346663 0 0 0 0 0 52885761.05780537 -32837009.89986492 -32837009.89986492 13119669.07023562 0 0 0 0 0 64425864.26235916 -34558333.13324618 -34558333.13324618 8810946.206260795 0 0 0 0 0 74498182.24070789 -35092700.6033691 -35092700.6033691 5133348.417950911 0 0 0 0 0 83353859.93149714 -34790961.40291043 -34790961.40291043 1987696.139991412 0 0 0 0 0 91189882.06798245 -33876384.49876941 -33876384.49876941 -628733.2252706583 0 0 0 0 0 97911262.59940442 -32318383.36325893 -32318383.36325893 -2903080.337686538 0 0 0 0 0 103706052.126204 -30493398.14812843 -30493398.14812843 -4816008.506603884 0 0 0 0 0 108646819.4186931 -28486166.65018728 -28486166.65018728 -6345319.198670902 0 0 0 0 0 112827292.782717 -26369554.26012979 -26369554.26012979 -7540984.151510223 0 0 0 0 0 118723647.8447589 -22843768.53251715 -22843768.53251715 -11690534.68096679 0 0 0 0 0 117944103.9803713 -21590451.33231314 -21590451.33231314 -11116478.86815902 0 0 0 0 0 120146229.9497999 -19630005.26242604 -19630005.26242604 -11382017.50711978 0 0 0 0 0 121937613.0672169 -17747744.97217623 -17747744.97217623 -11495047.20074068 0 0 0 0 0 122073325.8481171 -15916414.24638841 -15916414.24638841 -12736449.9571592 0 0 0 0 0 123185498.4150986 -14281505.46157813 -14281505.46157813 -12524083.21521794 0 0 0 0 0 124044854.2910789 -12732303.34030156 -12732303.34030156 -12240980.23185574 0 0 0 0 0 124692970.4911492 -11277231.14675489 -11277231.14675489 -11904237.40615596 0 0 0 0 0 125138220.6633348 -9931473.977306446 -9931473.977306446 -11531769.0745143 0 0 0 0 0 125422868.2067371 -8657447.62882144 -8657447.62882144 -11101615.26794131 0 0 0 0 0 125596102.9613801 -7462979.850490133 -7462979.850490133 -10646427.52781064 0 0 0 0 0 124961405.8455415 -6777724.898954692 -6777724.898954692 -11560031.58971658 0 0 0 0 0 124480044.0336167 -5781972.829493091 -5781972.829493091 -10493133.69362911 0 0 0 0 0 124353491.6666578 -4883598.171549031 -4883598.171549031 -10021852.50909077 0 0 0 0 0 124171246.6422531 -4051235.488701871 -4051235.488701871 -9548718.682069622 0 0 0 0 0 123939172.4689438 -3281878.074903405 -3281878.074903405 -9071521.571788294 0 0 0 0 0 123656886.1196424 -2572238.115308626 -2572238.115308626 -8598497.879456965 0 0 0 0 0 122522251.4571292 -2502297.721607271 -2502297.721607271 -9285868.146114223 0 0 0 0 0 122205372.6933619 -1770840.107412485 -1770840.107412485 -8279882.231549459 0 0 0 0 0 120066688.7828481 -1715063.398820707 -1715063.398820707 -8838762.163716896 0 0 0 0 0 117801822.4637138 -149942.2956017362 -149942.2956017362 -7217777.186346178 0 0 0 0 0 115395133.7958775 1031557.609873099 1031557.609873099 -5565287.336480435 0 0 0 0 0 115290486.2821943 1375514.100025627 1375514.100025627 -4901949.601243136 0 0 0 0 0 113295235.4060108 1654162.040234217 1654162.040234217 -4318914.628477512 0 0 0 0 0 111483226.3184036 2171756.835445166 2171756.835445166 -2887269.674891298 0 0 0 0 0 110299691.298053 2206510.82006808 2206510.82006808 -2437218.154161498 0 0 0 0 0 121079063.01745 -1806999.486064026 -1806999.486064026 -8862281.488106264 0 0 0 0 0 25775306.40431777 -24214265.44657832 -24214265.44657832 25670869.67840491 0 0 0 0 0 27713881.47998508 -28662883.60622736 -28662883.60622736 28426120.58052475 0 0 0 0 0 45082466.03618921 -33492407.03537207 -33492407.03537207 22575312.40811572 0 0 0 0 0 119999386.6643407 -23455221.41972147 -23455221.41972147 -9670843.036808947 0 0 0 0 0 125333822.1101008 -15572431.51953206 -15572431.51953206 -12187947.5244558 0 0 0 0 0 126089068.7147336 -6409636.223700726 -6409636.223700726 -10835767.25352865 0 0 0 0 0 123318420.3966239 -2081829.743399193 -2081829.743399193 -8737832.779836636 0 0 0 0 0 121779397.0048182 -1396461.536252526 -1396461.536252526 -8391175.608398436 0 0 0 0 0 120811941.3434996 -1163204.814168086 -1163204.814168086 -7926577.377647024 0 0 0 0 0 119821820.0515129 -1119924.659970249 -1119924.659970249 -7964249.739748623 0 0 0 0 0 119501373.1279659 -694471.3991611417 -694471.3991611417 -7550950.751457977 0 0 0 0 0 119168584.8393777 -304235.7073321478 -304235.7073321478 -7152937.577647024 0 0 0 0 0 118829492.9207768 51562.9051662901 51562.9051662901 -6770858.687455158 0 0 0 0 0 118470926.2054014 374532.3269883064 374532.3269883064 -6410418.4535653 0 0 0 0 0 117630935.2818891 307373.877863706 307373.877863706 -6446888.799530989 0 0 0 0 0 117293754.2547898 584529.9009473469 584529.9009473469 -6106966.537494508 0 0 0 0 0 116960078.7247411 838821.7161417592 838821.7161417592 -5780126.903678835 0 0 0 0 0 116628268.0091542 1073185.399001725 1073185.399001725 -5472409.366253305 0 0 0 0 0 116281896.2539448 1293755.476885543 1293755.476885543 -5156847.958454054 0 0 0 0 0 115962966.8509449 1505071.049652541 1505071.049652541 -4849951.136951156 0 0 0 0 0 114982601.6852079 1545213.321664 1545213.321664 -4633399.007897152 0 0 0 0 0 114681770.4177727 1699447.603550347 1699447.603550347 -4378776.857061906 0 0 0 0 0 114370927.7439995 1832913.224519914 1832913.224519914 -4141666.924169518 0 0 0 0 0 114066197.4153161 1956037.093681844 1956037.093681844 -3910711.812023635 0 0 0 0 0 113766229.8348237 2066315.488211799 2066315.488211799 -3688810.085975357 0 0 0 0 0 113225956.3759874 1908078.460413544 1908078.460413544 -3766775.570016914 0 0 0 0 0 112954689.9414904 2009070.010337258 2009070.010337258 -3559021.276225933 0 0 0 0 0 112691193.9322605 2103235.524339955 2103235.524339955 -3356622.282084611 0 0 0 0 0 112430716.9159441 2187279.930922801 2187279.930922801 -3163098.976143257 0 0 0 0 0 112173395.9088179 2262300.354689593 2262300.354689593 -2979568.700088463 0 0 0 0 0 111920387.2870004 2329597.422743277 2329597.422743277 -2804162.899104487 0 0 0 0 0 111056824.7009545 2104116.895667627 2104116.895667627 -3009556.21378448 0 0 0 0 0 111672680.5026887 2390531.356909016 2390531.356909016 -2635313.815611456 0 0 0 0 0 111022058.0954114 2287582.128696322 2287582.128696322 -2561122.912762227 0 0 0 0 0 110797901.1511419 2336030.247242406 2336030.247242406 -2406591.189379774 0 0 0 0 0 110577808.0925236 2379151.699896498 2379151.699896498 -2257640.516408375 0 0 0 0 0 110236528.3547632 2362404.149585326 2362404.149585326 -2276650.636577376 0 0 0 0 0 110196847.3195527 2355692.305925425 2355692.305925425 -2136830.60227996 0 0 0 0 0 109989051.8202531 2346112.678914642 2346112.678914642 -2093485.519375601 0 0 0 0 0 109778070.0787942 2318634.154058922 2318634.154058922 -2047724.44613346 0 0 0 0 0 109489048.7539064 2144013.089590733 2144013.089590733 -2328263.400087424 0 0 0 0 0 58897732.5952746 -35985330.02279554 -35985330.02279554 16844628.85168651 0 0 0 0 0 70702092.11411963 -36839100.16663785 -36839100.16663785 12038836.84439573 0 0 0 0 0 80778259.4650228 -36562630.50837046 -36562630.50837046 7871680.408829812 0 0 0 0 0 89515975.66979633 -35560140.65396675 -35560140.65396675 4362936.864786371 0 0 0 0 0 97098540.49072114 -33963673.93340139 -33963673.93340139 1409303.815347028 0 0 0 0 0 103547883.3510165 -31936145.76196824 -31936145.76196824 -1066872.943649227 0 0 0 0 0 108966430.4272777 -29724321.05947957 -29724321.05947957 -3090478.964229986 0 0 0 0 0 113503827.1827175 -27401871.16516348 -27401871.16516348 -4693602.669008365 0 0 0 0 0 117251139.8602923 -25044938.82354834 -25044938.82354834 -5930852.929258307 0 0 0 0 0 122323624.3858095 -21396408.87121916 -21396408.87121916 -10214577.30644484 0 0 0 0 0 121436640.0875508 -19941307.81331214 -19941307.81331214 -9584539.552376583 0 0 0 0 0 123282617.824037 -17962232.7708694 -17962232.7708694 -9883517.025051849 0 0 0 0 0 124793057.5835477 -16032226.70470656 -16032226.70470656 -9967281.205424054 0 0 0 0 0 124526748.6582566 -14212854.88078272 -14212854.88078272 -11330709.10049908 0 0 0 0 0 125385723.9141312 -12589839.53360879 -12589839.53360879 -11115889.23459724 0 0 0 0 0 125995851.4256718 -11079136.4634092 -11079136.4634092 -10847804.24407963 0 0 0 0 0 126435663.2591658 -9666702.702554282 -9666702.702554282 -10503944.3919195 0 0 0 0 0 126705692.172662 -8341002.930622409 -8341002.930622409 -10128187.54403712 0 0 0 0 0 126824847.848053 -7104818.219329154 -7104818.219329154 -9701529.332710505 0 0 0 0 0 126804827.3599796 -5984202.802347925 -5984202.802347925 -9279445.387346582 0 0 0 0 0 125883883.5698819 -5453401.509626515 -5453401.509626515 -10399745.46776745 0 0 0 0 0 125410178.5458623 -4452952.284037626 -4452952.284037626 -9262659.685818281 0 0 0 0 0 125168095.5023118 -3609843.526436416 -3609843.526436416 -8806436.476876887 0 0 0 0 0 124881029.4012675 -2833074.300774983 -2833074.300774983 -8350642.761737632 0 0 0 0 0 124554485.8604672 -2119935.23360191 -2119935.23360191 -7895789.746914219 0 0 0 0 0 124184397.268382 -1466527.244818784 -1466527.244818784 -7444259.041327454 0 0 0 0 0 122913700.9785478 -1504293.42928378 -1504293.42928378 -8291502.222364154 0 0 0 0 0 122613507.2265077 -781328.4066066128 -781328.4066066128 -7237344.54540059 0 0 0 0 0 120346960.7237432 -869755.6871149574 -869755.6871149574 -8008586.247619421 0 0 0 0 0 117917362.5542424 498437.3442914429 498437.3442914429 -6514070.637555764 0 0 0 0 0 115410654.5506664 1520849.320514043 1520849.320514043 -4972931.639604814 0 0 0 0 0 115316545.4150092 1853578.090926291 1853578.090926291 -4296091.192703235 0 0 0 0 0 113259480.2241376 2015569.164723621 2015569.164723621 -3834066.968830743 0 0 0 0 0 111430132.2584953 2445177.107635212 2445177.107635212 -2473066.57148576 0 0 0 0 0 121381986.4331896 -910607.294652023 -910607.294652023 -7961887.812965296 0 0 0 0 0 33225985.86527673 -31375764.15628375 -31375764.15628375 32025013.40821776 0 0 0 0 0 35618277.7583653 -35113646.66596503 -35113646.66596503 33860657.75900145 0 0 0 0 0 52383426.77056812 -38269478.74410845 -38269478.74410845 26844174.36334471 0 0 0 0 0 123832104.7736175 -22016505.47839478 -22016505.47839478 -8048764.277919746 0 0 0 0 0 127634280.7256426 -13926019.91936962 -13926019.91936962 -10779359.41014321 0 0 0 0 0 126984664.2700929 -5067560.316550823 -5067560.316550823 -9595810.466841174 0 0 0 0 0 123679723.218215 -1073915.718535508 -1073915.718535508 -7679033.0725316 0 0 0 0 0 122053488.0023983 -492270.6438312864 -492270.6438312864 -7433241.626157121 0 0 0 0 0 121131033.6477648 -276168.935544313 -276168.935544313 -6984017.357953228 0 0 0 0 0 120117551.5506746 -283450.9182896595 -283450.9182896595 -7093807.015788642 0 0 0 0 0 119752916.5385018 100868.5784062925 100868.5784062925 -6699558.718747317 0 0 0 0 0 119379527.6393294 449672.5409481727 449672.5409481727 -6322181.451748267 0 0 0 0 0 119002070.7161023 765771.3701858072 765771.3701858072 -5966228.487272821 0 0 0 0 0 118607342.0963264 1050382.002966048 1050382.002966048 -5625766.91393983 0 0 0 0 0 117760717.5241052 947774.7721688305 947774.7721688305 -5716999.926850181 0 0 0 0 0 117401980.6315951 1194813.778519725 1194813.778519725 -5392792.789968637 0 0 0 0 0 117042962.0543579 1419508.740118747 1419508.740118747 -5081226.85804687 0 0 0 0 0 116687411.5698043 1633774.959026039 1633774.959026039 -4781256.954777933 0 0 0 0 0 116348438.6269069 1843858.667641344 1843858.667641344 -4466035.057211176 0 0 0 0 0 115995786.2878456 2015830.530996089 2015830.530996089 -4189898.572919281 0 0 0 0 0 114994791.1876428 1996141.789232137 1996141.789232137 -4045414.769460571 0 0 0 0 0 114667252.827953 2120371.449312018 2120371.449312018 -3816035.599310563 0 0 0 0 0 114350920.3300439 2236430.648685226 2236430.648685226 -3591133.780540871 0 0 0 0 0 114039078.324891 2340660.610859267 2340660.610859267 -3371955.686139079 0 0 0 0 0 113735580.1963711 2437041.087017966 2437041.087017966 -3161743.131583254 0 0 0 0 0 113201201.8420507 2265738.958501433 2265738.958501433 -3270318.675716706 0 0 0 0 0 112922523.2181243 2352545.01050094 2352545.01050094 -3071352.363940767 0 0 0 0 0 112649403.9673679 2429376.612578477 2429376.612578477 -2881875.605367446 0 0 0 0 0 112381445.342169 2497630.035926489 2497630.035926489 -2702504.61312393 0 0 0 0 0 112117363.1240293 2557959.00374062 2557959.00374062 -2530672.250754921 0 0 0 0 0 111859091.6571296 2611791.785703239 2611791.785703239 -2365637.531076727 0 0 0 0 0 110990075.6941562 2359662.5840957 2359662.5840957 -2617764.558495252 0 0 0 0 0 111606794.1101592 2659858.861708879 2659858.861708879 -2207580.59407023 0 0 0 0 0 110959770.8074858 2537327.994991494 2537327.994991494 -2168651.281933448 0 0 0 0 0 110732093.0498208 2576013.611922057 2576013.611922057 -2026495.75872037 0 0 0 0 0 110505736.9220243 2611777.108480506 2611777.108480506 -1888307.263084626 0 0 0 0 0 110161420.407887 2498283.727843061 2498283.727843061 -1951828.719073245 0 0 0 0 0 110054290.6623094 2543339.908548114 2543339.908548114 -1816068.98200062 0 0 0 0 0 109860434.7214487 2515858.873410274 2515858.873410274 -1788390.35491678 0 0 0 0 0 109565456.5052699 2338999.869416354 2338999.869416354 -2074801.116168977 0 0 0 0 0 66142111.07834832 -39323511.12631073 -39323511.12631073 20386305.83436056 0 0 0 0 0 77639000.31074156 -39049573.68061166 -39049573.68061166 14895681.88055222 0 0 0 0 0 87543594.93579488 -37891307.98856737 -37891307.98856737 10331582.9807837 0 0 0 0 0 96000988.34752557 -36119542.09290746 -36119542.09290746 6489270.454061992 0 0 0 0 0 103198866.5008796 -33891435.24069134 -33891435.24069134 3291844.504760607 0 0 0 0 0 109246982.6254697 -31373545.28184092 -31373545.28184092 690638.834961483 0 0 0 0 0 114205441.160706 -28788089.50206699 -28788089.50206699 -1393529.501093411 0 0 0 0 0 118270849.7885762 -26176003.3032654 -26176003.3032654 -3026226.449799696 0 0 0 0 0 121564197.0467625 -23605670.54018752 -23605670.54018752 -4275204.590745909 0 0 0 0 0 125733634.9277697 -19890933.33524081 -19890933.33524081 -8660878.396224285 0 0 0 0 0 124763271.8449397 -18250287.63555386 -18250287.63555386 -7967582.042396946 0 0 0 0 0 126254183.7632353 -16220547.68423571 -16220547.68423571 -8259157.43408466 0 0 0 0 0 127450779.7148937 -14265091.46967494 -14265091.46967494 -8336660.168695791 0 0 0 0 0 126811362.1937701 -12486428.83406768 -12486428.83406768 -9802934.655496791 0 0 0 0 0 127410375.7872235 -10892281.71125195 -10892281.71125195 -9600115.835085638 0 0 0 0 0 127793440.5357767 -9421316.322199995 -9421316.322199995 -9337048.299179658 0 0 0 0 0 128025326.1478659 -8034135.885551052 -8034135.885551052 -8999901.695360415 0 0 0 0 0 128085013.3706237 -6769442.557666526 -6769442.557666526 -8638502.189696724 0 0 0 0 0 128020208.867125 -5609310.463388538 -5609310.463388538 -8251214.269562574 0 0 0 0 0 127844509.5400998 -4550198.964789514 -4550198.964789514 -7850146.432922849 0 0 0 0 0 126662584.8972418 -4162320.730024065 -4162320.730024065 -9170590.556931788 0 0 0 0 0 126205903.3694768 -3154239.267974184 -3154239.267974184 -7964641.429580085 0 0 0 0 0 125854208.6051461 -2374435.305560671 -2374435.305560671 -7535806.90795597 0 0 0 0 0 125468123.261256 -1659984.932731529 -1659984.932731529 -7102996.690158679 0 0 0 0 0 125052101.6240159 -1005292.492018215 -1005292.492018215 -6673394.444341055 0 0 0 0 0 124604276.8117977 -407687.4567979675 -407687.4567979675 -6248285.652836042 0 0 0 0 0 123212530.8029556 -546247.892195686 -546247.892195686 -7253534.32960857 0 0 0 0 0 122929888.4248741 164937.5366083387 164937.5366083387 -6159031.112703782 0 0 0 0 0 120555707.9091339 -57901.54085971275 -57901.54085971275 -7142198.358140602 0 0 0 0 0 117988343.5880346 1121624.599262858 1121624.599262858 -5783424.641691728 0 0 0 0 0 115394648.82161 1984886.658587708 1984886.658587708 -4367423.499442985 0 0 0 0 0 115310424.9861045 2302452.92165601 2302452.92165601 -3678752.645706775 0 0 0 0 0 113202487.5729613 2361564.27288437 2361564.27288437 -3335133.868405628 0 0 0 0 0 111360161.8946321 2702163.637201811 2702163.637201811 -2056544.284789469 0 0 0 0 0 110125851.1745691 2531922.417043558 2531922.417043558 -1974407.067893991 0 0 0 0 0 121606076.5739325 -51152.80270232668 -51152.80270232668 -7023094.327097355 0 0 0 0 0 42552935.72944951 -38382322.52669726 -38382322.52669726 38125231.30171368 0 0 0 0 0 44388748.04229949 -41573721.72703956 -41573721.72703956 38439222.91300558 0 0 0 0 0 60543825.12951902 -42924392.23635042 -42924392.23635042 30325507.79886704 0 0 0 0 0 127461971.0503536 -20505992.5308629 -20505992.5308629 -6366951.364904443 0 0 0 0 0 129739391.059881 -12266929.10058989 -12266929.10058989 -9254380.384876298 0 0 0 0 0 127738765.3568885 -3760961.847376575 -3760961.847376575 -8282709.398699588 0 0 0 0 0 123945054.1229018 -110788.7700991062 -110788.7700991062 -6578317.842211815 0 0 0 0 0 122246235.3614587 371280.0309842543 371280.0309842543 -6438648.732131175 0 0 0 0 0 121371747.6996853 571465.342863329 571465.342863329 -6010002.76148525 0 0 0 0 0 120342270.3033632 517097.2244137855 517097.2244137855 -6193592.988467878 0 0 0 0 0 119938284.8661435 859298.8580760807 859298.8580760807 -5820185.507751915 0 0 0 0 0 119527950.3134343 1166408.297657948 1166408.297657948 -5468489.044693863 0 0 0 0 0 119113204.4323899 1443718.294667502 1443718.294667502 -5137430.427694726 0 0 0 0 0 118694326.7038685 1696422.072027626 1696422.072027626 -4816168.974595801 0 0 0 0 0 117839142.4953592 1556781.332820625 1556781.332820625 -4966708.330839982 0 0 0 0 0 117460101.5191367 1775858.66002214 1775858.66002214 -4662496.269786704 0 0 0 0 0 117083347.8460514 1982997.650856408 1982997.650856408 -4363498.693536138 0 0 0 0 0 116706390.8907866 2174604.980245258 2174604.980245258 -4063777.880074249 0 0 0 0 0 116347957.8787887 2344788.215904251 2344788.215904251 -3781791.733751182 0 0 0 0 0 115980206.2083516 2489503.775404673 2489503.775404673 -3526368.427255219 0 0 0 0 0 114975005.2806106 2420304.565045998 2420304.565045998 -3460109.357878541 0 0 0 0 0 114635495.1320088 2523147.509260891 2523147.509260891 -3242269.240152746 0 0 0 0 0 114306057.2198707 2619251.481943218 2619251.481943218 -3028318.694153127 0 0 0 0 0 113991923.4651201 2710229.291618925 2710229.291618925 -2821387.423185526 0 0 0 0 0 113680875.0286136 2790970.822334804 2790970.822334804 -2622830.932152062 0 0 0 0 0 113150614.2679784 2605218.382031225 2605218.382031225 -2764148.29168549 0 0 0 0 0 112864989.6794432 2674743.30484406 2674743.30484406 -2579232.475089166 0 0 0 0 0 112585669.2746323 2735715.91504536 2735715.91504536 -2404674.621278688 0 0 0 0 0 112310734.5247815 2788847.807227633 2788847.807227633 -2237636.239964917 0 0 0 0 0 112042120.0685396 2835766.400917074 2835766.400917074 -2077241.125861128 0 0 0 0 0 111780263.508441 2876963.228190787 2876963.228190787 -1923822.551197837 0 0 0 0 0 110909231.6358638 2600003.02818837 2600003.02818837 -2223332.94456001 0 0 0 0 0 111524488.7789928 2912397.555174542 2912397.555174542 -1777693.988626315 0 0 0 0 0 110883581.4261344 2771261.733441085 2771261.733441085 -1774497.818894474 0 0 0 0 0 110653647.9437542 2798874.713558296 2798874.713558296 -1643602.921767931 0 0 0 0 0 110434851.3757763 2820418.429829441 2820418.429829441 -1520657.148111407 0 0 0 0 0 110067115.126761 2683649.322255862 2683649.322255862 -1599903.93566908 0 0 0 0 0 109927536.0207103 2720147.310842932 2720147.310842932 -1496338.532050023 0 0 0 0 0 109632484.0567119 2532564.196153394 2532564.196153394 -1814595.07615529 0 0 0 0 0 73876667.11341833 -42451970.70232257 -42451970.70232257 23079781.34688519 0 0 0 0 0 85139116.75495516 -41009459.20667844 -41009459.20667844 17171453.79142886 0 0 0 0 0 94747496.00415891 -39022481.86130556 -39022481.86130556 12369294.82315794 0 0 0 0 0 102821169.1807052 -36423908.70434301 -36423908.70434301 8321534.922890214 0 0 0 0 0 109493802.8724636 -33548939.92799148 -33548939.92799148 5024156.634414733 0 0 0 0 0 114944282.2022931 -30611751.18985073 -30611751.18985073 2367689.252480569 0 0 0 0 0 119365801.926629 -27672744.55399025 -27672744.55399025 270745.0436935731 0 0 0 0 0 122911359.4934716 -24799568.37203315 -24799568.37203315 -1354366.074179691 0 0 0 0 0 125714215.5875105 -22043546.0053582 -22043546.0053582 -2582958.873657797 0 0 0 0 0 128956114.8352213 -18292175.15281298 -18292175.15281298 -6996134.454091395 0 0 0 0 0 127861417.3965774 -16521555.70854409 -16521555.70854409 -6286255.352212937 0 0 0 0 0 129036669.0920072 -14430072.12592984 -14430072.12592984 -6531852.174220294 0 0 0 0 0 129882654.7510313 -12477690.07641465 -12477690.07641465 -6625260.850593046 0 0 0 0 0 128882160.4716967 -10754408.67972196 -10754408.67972196 -8191026.598506738 0 0 0 0 0 129229129.8426742 -9206818.284674365 -9206818.284674365 -8002635.55232736 0 0 0 0 0 129395448.3954893 -7766424.817360927 -7766424.817360927 -7738222.236553774 0 0 0 0 0 129410937.3563748 -6449084.276642265 -6449084.276642265 -7429561.338582633 0 0 0 0 0 129280895.7727468 -5248455.546671942 -5248455.546671942 -7094345.884066693 0 0 0 0 0 129045746.7985441 -4156285.745169051 -4156285.745169051 -6736685.239681675 0 0 0 0 0 128722257.7928488 -3164062.685776489 -3164062.685776489 -6363650.164557028 0 0 0 0 0 127301471.0262288 -2914252.686347669 -2914252.686347669 -7879253.418363554 0 0 0 0 0 126863324.856527 -1908326.338222641 -1908326.338222641 -6612716.516027964 0 0 0 0 0 126409977.1643133 -1193249.605537834 -1193249.605537834 -6214963.146109916 0 0 0 0 0 125935706.3656167 -537622.2421158539 -537622.2421158539 -5811979.962891518 0 0 0 0 0 125437366.1502627 57875.91871135443 57875.91871135443 -5413214.253563968 0 0 0 0 0 124917538.490139 597802.5505145688 597802.5505145688 -5020704.44227988 0 0 0 0 0 123421557.660999 366791.0719845816 366791.0719845816 -6178350.880608183 0 0 0 0 0 123158039.4979732 1064547.498294753 1064547.498294753 -5049856.726707145 0 0 0 0 0 120693417.5508724 715386.2462949244 715386.2462949244 -6245478.829886563 0 0 0 0 0 118009137.9813867 1715247.173456833 1715247.173456833 -5035639.490653919 0 0 0 0 0 115333144.8636798 2415400.818244477 2415400.818244477 -3755780.313789776 0 0 0 0 0 115281602.2519722 2730481.534685554 2730481.534685554 -3059522.591835865 0 0 0 0 0 113122196.8669027 2688924.610607007 2688924.610607007 -2827818.168236171 0 0 0 0 0 111274751.4343136 2942622.649405709 2942622.649405709 -1638526.427527854 0 0 0 0 0 110097708.0384885 2761973.575112926 2761973.575112926 -1609634.103270937 0 0 0 0 0 121754337.6377569 767717.0082466837 767717.0082466837 -6051649.94565372 0 0 0 0 0 52823352.96991101 -45444415.74621809 -45444415.74621809 43212339.34100682 0 0 0 0 0 54305335.96602129 -48016151.55610205 -48016151.55610205 42136193.40337044 0 0 0 0 0 69670407.16191445 -47334020.44228504 -47334020.44228504 33020833.31392668 0 0 0 0 0 130820830.2433012 -18916902.59537263 -18916902.59537263 -4659318.848878364 0 0 0 0 0 131617765.8082888 -10613587.36493381 -10613587.36493381 -7643118.774200648 0 0 0 0 0 128359764.6180137 -2494645.621721897 -2494645.621721897 -6906808.217075014 0 0 0 0 0 124120436.4743416 803036.7402204014 803036.7402204014 -5442692.875818101 0 0 0 0 0 122361203.9318501 1190293.460620384 1190293.460620384 -5414316.216286212 0 0 0 0 0 121536816.418283 1376410.026970912 1376410.026970912 -5010901.008570598 0 0 0 0 0 120498544.8870066 1278534.76711332 1278534.76711332 -5266664.501536053 0 0 0 0 0 120061285.5824541 1581713.244121477 1581713.244121477 -4919180.760952499 0 0 0 0 0 119618115.0609726 1850536.507162524 1850536.507162524 -4594317.794794176 0 0 0 0 0 119167312.5258746 2087827.325264063 2087827.325264063 -4290041.012470623 0 0 0 0 0 118728618.139493 2310331.550415754 2310331.550415754 -3986275.808533353 0 0 0 0 0 117877727.8478581 2139677.86299644 2139677.86299644 -4200158.940158161 0 0 0 0 0 117473991.5371472 2333385.762812445 2333385.762812445 -3912569.684547526 0 0 0 0 0 117077574.3508558 2511867.250899398 2511867.250899398 -3625326.929580736 0 0 0 0 0 116682447.9164734 2673299.877502258 2673299.877502258 -3348713.7171286 0 0 0 0 0 116309444.3269779 2814917.966810762 2814917.966810762 -3090087.893377889 0 0 0 0 0 115930090.8756146 2934501.082163236 2934501.082163236 -2851995.581961597 0 0 0 0 0 114917476.8500288 2816445.269953407 2816445.269953407 -2862237.612332259 0 0 0 0 0 114573393.8511208 2904302.868563788 2904302.868563788 -2656597.409030786 0 0 0 0 0 114241365.2677455 2987007.474984499 2987007.474984499 -2454048.017725659 0 0 0 0 0 113915757.8841814 3058686.210096673 3058686.210096673 -2262096.455778076 0 0 0 0 0 113597283.2192974 3121035.241613505 3121035.241613505 -2079632.980561163 0 0 0 0 0 113077713.5669888 2923459.733544903 2923459.733544903 -2254413.614316692 0 0 0 0 0 112786677.5842168 2976706.131032129 2976706.131032129 -2085477.979911669 0 0 0 0 0 112500546.9971021 3022193.31923552 3022193.31923552 -1924259.798241629 0 0 0 0 0 112221545.2475692 3061732.292833552 3061732.292833552 -1769335.557933982 0 0 0 0 0 111949881.8305331 3095875.280846662 3095875.280846662 -1621308.999409961 0 0 0 0 0 111685004.0189635 3124367.648320282 3124367.648320282 -1480489.820060109 0 0 0 0 0 110815130.4686709 2824707.310654468 2824707.310654468 -1827176.629216524 0 0 0 0 0 111426613.3696773 3147628.433773178 3147628.433773178 -1346629.321315392 0 0 0 0 0 110793895.9205438 2988866.500409794 2988866.500409794 -1381684.751412871 0 0 0 0 0 110565660.4618006 3003362.78528134 3003362.78528134 -1265573.62639024 0 0 0 0 0 110348594.2363435 3014525.378484193 3014525.378484193 -1158661.695840576 0 0 0 0 0 109981939.638992 2904980.222646399 2904980.222646399 -1225250.009470098 0 0 0 0 0 109704474.9052061 2725068.143607114 2725068.143607114 -1498974.882968323 0 0 0 0 0 82658085.1182507 -45429847.09325224 -45429847.09325224 25373004.28808509 0 0 0 0 0 93392116.15653802 -42853358.6499701 -42853358.6499701 19137230.34476695 0 0 0 0 0 102394497.1526523 -39779437.80902271 -39779437.80902271 14040443.84150254 0 0 0 0 0 109826575.2064873 -36387662.39942704 -36387662.39942704 9913702.534970075 0 0 0 0 0 115774056.9776367 -32973939.90603785 -32973939.90603785 6597479.819917319 0 0 0 0 0 120571462.8981113 -29617154.85424689 -29617154.85424689 3957512.063034266 0 0 0 0 0 124387631.6427161 -26366462.45336374 -26366462.45336374 1897223.984737058 0 0 0 0 0 127369822.3578558 -23271849.85659856 -23271849.85659856 321715.2255546945 0 0 0 0 0 129645001.7454455 -20367241.22666893 -20367241.22666893 -858797.3864109491 0 0 0 0 0 131938960.6207209 -16600611.43865103 -16600611.43865103 -5259656.768116692 0 0 0 0 0 130730242.83218 -14723323.22084038 -14723323.22084038 -4524105.326620053 0 0 0 0 0 131546264.084791 -12628089.7751739 -12628089.7751739 -4763534.064446121 0 0 0 0 0 132050951.1158247 -10709112.05927382 -10709112.05927382 -4867935.708263187 0 0 0 0 0 130734599.9217074 -9043695.619030351 -9043695.619030351 -6505724.202074166 0 0 0 0 0 130840951.229063 -7536844.785315934 -7536844.785315934 -6324512.72514224 0 0 0 0 0 130783409.4745025 -6160775.060358964 -6160775.060358964 -6085639.965880524 0 0 0 0 0 130593148.2370332 -4913824.178900849 -4913824.178900849 -5807123.815139721 0 0 0 0 0 130290690.261818 -3782342.654410052 -3782342.654410052 -5499122.902809657 0 0 0 0 0 129901063.6683822 -2759045.312803126 -2759045.312803126 -5170901.255351136 0 0 0 0 0 129442289.1720508 -1838007.354978911 -1838007.354978911 -4829241.033279664 0 0 0 0 0 127814934.7324566 -1712147.534233849 -1712147.534233849 -6532089.10060229 0 0 0 0 0 127382973.5547697 -727803.3232302647 -727803.3232302647 -5224913.007603942 0 0 0 0 0 126838692.2053475 -69674.02769694067 -69674.02769694067 -4856562.960494455 0 0 0 0 0 126286503.6502301 527448.9070529385 527448.9070529385 -4488435.537842146 0 0 0 0 0 125714286.1973556 1062318.95902017 1062318.95902017 -4125864.499060366 0 0 0 0 0 125128138.9930689 1545252.352638394 1545252.352638394 -3768779.198270002 0 0 0 0 0 123546106.2116685 1231643.106892687 1231643.106892687 -5069184.283445899 0 0 0 0 0 123300572.5186944 1912515.458071574 1912515.458071574 -3918651.643266687 0 0 0 0 0 120768073.6505107 1451278.97464282 1451278.97464282 -5319768.615863648 0 0 0 0 0 117984653.7521325 2276698.81581382 2276698.81581382 -4266788.255980802 0 0 0 0 0 115241745.2232596 2816919.387719115 2816919.387719115 -3138155.837799402 0 0 0 0 0 115208496.5714623 3126935.779668459 3126935.779668459 -2434985.849652756 0 0 0 0 0 113021415.4708253 2994360.836159633 2994360.836159633 -2316783.404970783 0 0 0 0 0 111174704.0122895 3166166.082326467 3166166.082326467 -1219243.606071653 0 0 0 0 0 110131955.6934951 2994912.664992271 2994912.664992271 -1162954.784741687 0 0 0 0 0 121830056.8999974 1542204.065222884 1542204.065222884 -5053310.688401992 0 0 0 0 0 64225144.41429456 -52331043.67426307 -52331043.67426307 47338727.40817275 0 0 0 0 0 64884060.83303244 -53998157.09149119 -53998157.09149119 44717366.17436391 0 0 0 0 0 79799007.33835989 -51560270.52065298 -51560270.52065298 35109202.57021984 0 0 0 0 0 133934940.2025056 -17242419.27130837 -17242419.27130837 -2888120.802135325 0 0 0 0 0 133272750.3674325 -8969213.772556556 -8969213.772556556 -5951713.933604071 0 0 0 0 0 128830007.8268703 -1293543.420628361 -1293543.420628361 -5484791.248762184 0 0 0 0 0 124208692.9039181 1664356.877328199 1664356.877328199 -4277652.38178325 0 0 0 0 0 122402299.0714846 1960916.947029031 1960916.947029031 -4365481.261944691 0 0 0 0 0 121629122.3443334 2134933.317482659 2134933.317482659 -3992016.46567021 0 0 0 0 0 120587524.6444735 1998718.346071193 1998718.346071193 -4322120.881307343 0 0 0 0 0 120116661.8485449 2260735.94471215 2260735.94471215 -4001166.953403514 0 0 0 0 0 119644386.740768 2489868.342190685 2489868.342190685 -3709216.758384039 0 0 0 0 0 119171569.8923064 2697295.260278179 2697295.260278179 -3425123.193412672 0 0 0 0 0 118711704.9165137 2886576.684853306 2886576.684853306 -3146014.682965608 0 0 0 0 0 117871962.0180007 2691758.643366923 2691758.643366923 -3417638.935646202 0 0 0 0 0 117439797.5723664 2852706.941663567 2852706.941663567 -3148490.544836219 0 0 0 0 0 117026830.4251938 3002920.948786411 3002920.948786411 -2883683.710357218 0 0 0 0 0 116623027.0913143 3138035.72894029 3138035.72894029 -2629246.315635438 0 0 0 0 0 116234649.2617748 3254325.187334884 3254325.187334884 -2398028.980179419 0 0 0 0 0 115846133.8609152 3351659.79872071 3351659.79872071 -2184730.913602996 0 0 0 0 0 114839685.2838657 3198276.805290135 3198276.805290135 -2247751.053588641 0 0 0 0 0 114487173.3082645 3267195.396860565 3267195.396860565 -2058023.944414754 0 0 0 0 0 114146416.355715 3329172.306395519 3329172.306395519 -1874642.158855587 0 0 0 0 0 113814390.7977366 3382541.720482099 3382541.720482099 -1700261.648522847 0 0 0 0 0 113491490.7046195 3427836.102028895 3427836.102028895 -1535140.03272536 0 0 0 0 0 112983337.7534401 3219617.40166539 3219617.40166539 -1744125.122378387 0 0 0 0 0 112686536.5339025 3257547.570987385 3257547.570987385 -1589457.194117366 0 0 0 0 0 112397065.0253437 3289508.813162848 3289508.813162848 -1441064.933340225 0 0 0 0 0 112115628.3844678 3316300.141512563 3316300.141512563 -1299356.498952722 0 0 0 0 0 111841320.7678299 3337567.959634649 3337567.959634649 -1164754.816096981 0 0 0 0 0 111574240.3718441 3353802.876691326 3353802.876691326 -1037138.93637277 0 0 0 0 0 110703953.8612788 3030634.20622504 3030634.20622504 -1431737.373341467 0 0 0 0 0 111314197.1428818 3365541.561678641 3365541.561678641 -916360.5613800543 0 0 0 0 0 110690259.9936138 3189715.077772333 3189715.077772333 -977747.5637742708 0 0 0 0 0 110454444.4736093 3196748.379974135 3196748.379974135 -866166.3519587168 0 0 0 0 0 110258630.6595906 3176978.795558156 3176978.795558156 -865283.995124694 0 0 0 0 0 109764936.6583961 2925807.243105047 2925807.243105047 -1182171.375737265 0 0 0 0 0 110027405.5326574 3098459.95286982 3098459.95286982 -857653.6217941835 0 0 0 0 0 91900742.32059991 -48010358.86973904 -48010358.86973904 26950584.95643622 0 0 0 0 0 102024777.4288588 -44173408.56445057 -44173408.56445057 20398870.82149 0 0 0 0 0 110262122.9610857 -40039286.40319114 -40039286.40319114 15368105.54666219 0 0 0 0 0 116763753.2729843 -36004047.95566665 -36004047.95566665 11283362.32153892 0 0 0 0 0 121949069.8137999 -32117764.19671281 -32117764.19671281 8017275.549437854 0 0 0 0 0 126050799.4890754 -28387513.93062259 -28387513.93062259 5464377.722558154 0 0 0 0 0 129216686.5841222 -24867866.88880431 -24867866.88880431 3498598.804193078 0 0 0 0 0 131592172.3926302 -21597332.7118743 -21597332.7118743 2009443.81848917 0 0 0 0 0 133314673.7804766 -18588193.59596842 -18588193.59596842 898838.8647119551 0 0 0 0 0 134633983.4796984 -14893907.9141803 -14893907.9141803 -3475144.747759425 0 0 0 0 0 133327391.7215739 -12911218.88132725 -12911218.88132725 -2711641.860138831 0 0 0 0 0 133788039.3621069 -10838355.96726836 -10838355.96726836 -2943622.683586566 0 0 0 0 0 133975725.5237 -8959846.355683606 -8959846.355683606 -3046428.762164937 0 0 0 0 0 132350889.5804822 -7364732.648511534 -7364732.648511534 -4762355.134841902 0 0 0 0 0 132226256.0841274 -5919402.442676688 -5919402.442676688 -4597580.776838437 0 0 0 0 0 131962089.6106207 -4612866.195511555 -4612866.195511555 -4383705.435721424 0 0 0 0 0 131587130.4786542 -3435512.084120716 -3435512.084120716 -4133669.501784761 0 0 0 0 0 131122648.5386541 -2376634.594101593 -2376634.594101593 -3857290.146575077 0 0 0 0 0 130590661.1595486 -1426987.414447874 -1426987.414447874 -3563175.65373677 0 0 0 0 0 130009037.080318 -576757.8393051383 -576757.8393051383 -3259621.326204034 0 0 0 0 0 128192030.8053522 -576370.6846687425 -576370.6846687425 -5143553.936189069 0 0 0 0 0 127774313.9773948 398172.9547111656 398172.9547111656 -3808154.488366529 0 0 0 0 0 127152761.4698322 993451.7156588128 993451.7156588128 -3470139.598102143 0 0 0 0 0 126522381.0582333 1526229.453412528 1526229.453412528 -3141161.989032275 0 0 0 0 0 125887127.8324838 2003811.528855825 2003811.528855825 -2815305.944976267 0 0 0 0 0 125243476.2035365 2430751.444499497 2430751.444499497 -2495511.048604897 0 0 0 0 0 123588871.3786585 2042539.847441626 2042539.847441626 -3938045.43266587 0 0 0 0 0 123359348.4232521 2703107.942841634 2703107.942841634 -2774730.94570792 0 0 0 0 0 120776311.5516101 2141793.6134873 2141793.6134873 -4374862.876089842 0 0 0 0 0 117918886.7192907 2804706.860353162 2804706.860353162 -3482283.785832859 0 0 0 0 0 115132725.6508407 3197477.015789442 3197477.015789442 -2508713.515421312 0 0 0 0 0 115094680.4081738 3488434.760591653 3488434.760591653 -1813110.927980374 0 0 0 0 0 112899899.1180021 3277101.682474089 3277101.682474089 -1803820.800658652 0 0 0 0 0 111060780.3959033 3373392.944992585 3373392.944992585 -802359.66681453 0 0 0 0 0 121837245.3930175 2269577.799440698 2269577.799440698 -4033642.411686837 0 0 0 0 0 76584494.62078239 -58767222.66251524 -58767222.66251524 50442268.00441074 0 0 0 0 0 76520110.5241555 -59682722.43258606 -59682722.43258606 46394783.32978917 0 0 0 0 0 90559419.95805429 -55229306.55607077 -55229306.55607077 36528396.15753078 0 0 0 0 0 136736252.9591564 -15520198.87625738 -15520198.87625738 -1085059.793856051 0 0 0 0 0 134674102.9847723 -7359560.991105143 -7359560.991105143 -4210647.251029884 0 0 0 0 0 129157006.9365056 -160217.9259176829 -160217.9259176829 -4030555.854390014 0 0 0 0 0 124208356.4655275 2465952.007187005 2465952.007187005 -3095071.761292493 0 0 0 0 0 122373522.2298979 2680150.540436716 2680150.540436716 -3299314.685833447 0 0 0 0 0 121652156.7674596 2844482.234500817 2844482.234500817 -2960650.264326404 0 0 0 0 0 120614566.1505737 2675224.032034271 2675224.032034271 -3361441.176017942 0 0 0 0 0 120118900.0279544 2898673.760918505 2898673.760918505 -3074892.361531659 0 0 0 0 0 119617956.4559915 3091239.294223224 3091239.294223224 -2811272.067304354 0 0 0 0 0 119124474.4181396 3265152.669942077 3265152.669942077 -2550842.804103722 0 0 0 0 0 118646256.1559396 3422459.660000902 3422459.660000902 -2298525.013440723 0 0 0 0 0 117817287.7413562 3206030.500173981 3206030.500173981 -2627448.919687372 0 0 0 0 0 117375268.7599587 3339996.427417216 3339996.427417216 -2383190.903986125 0 0 0 0 0 116940277.5434462 3459717.457764528 3459717.457764528 -2146615.09179334 0 0 0 0 0 116523726.2840194 3564310.924004496 3564310.924004496 -1923807.190536912 0 0 0 0 0 116116305.6882023 3650431.308929983 3650431.308929983 -1719621.766801767 0 0 0 0 0 115717719.311071 3724000.183965556 3724000.183965556 -1525559.620858787 0 0 0 0 0 114728069.6465706 3547937.768202052 3547937.768202052 -1634188.564608979 0 0 0 0 0 114371908.3704691 3600591.394560149 3600591.394560149 -1460658.122775104 0 0 0 0 0 114026712.2783323 3645050.838067637 3645050.838067637 -1295309.826208427 0 0 0 0 0 113690546.8947964 3681516.287404803 3681516.287404803 -1138593.779086055 0 0 0 0 0 113364134.5853454 3710517.932838507 3710517.932838507 -990786.2004195616 0 0 0 0 0 112868661.1845013 3494479.970165801 3494479.970165801 -1232420.87183313 0 0 0 0 0 112568270.7538313 3518307.910201959 3518307.910201959 -1091917.007793768 0 0 0 0 0 112276850.3776498 3537455.331096341 3537455.331096341 -957486.3464981864 0 0 0 0 0 111993275.4001402 3551394.481110225 3551394.481110225 -829863.0509492519 0 0 0 0 0 111717384.9910412 3560431.886410993 3560431.886410993 -709070.3831331817 0 0 0 0 0 111449152.6454322 3564998.416741053 3564998.416741053 -595069.544752732 0 0 0 0 0 110591025.9200032 3229412.193290627 3229412.193290627 -1028506.277395275 0 0 0 0 0 111188280.5683253 3565607.709663891 3565607.709663891 -487810.5080515322 0 0 0 0 0 110577689.5277266 3374889.143968027 3374889.143968027 -586505.0891567563 0 0 0 0 0 110265529.5094679 3354722.64556909 3354722.64556909 -583364.7836401644 0 0 0 0 0 110105366.1421902 3291498.954144998 3291498.954144998 -557107.8107366675 0 0 0 0 0 109817238.7541262 3110624.71258616 3110624.71258616 -852335.916563972 0 0 0 0 0 101758621.9255501 -50383429.90219773 -50383429.90219773 27884126.06357111 0 0 0 0 0 111036421.42442 -44712403.29688212 -44712403.29688212 21408682.76877599 0 0 0 0 0 118001483.9470458 -39865399.0576674 -39865399.0576674 16344898.51351197 0 0 0 0 0 123574035.9036289 -35307183.28179723 -35307183.28179723 12388529.22639897 0 0 0 0 0 127974745.4870371 -30962066.76812771 -30962066.76812771 9298200.655309876 0 0 0 0 0 131324814.4740051 -26905570.0485727 -26905570.0485727 6920289.6439122 0 0 0 0 0 133786806.6259873 -23179499.11236769 -23179499.11236769 5093879.823084817 0 0 0 0 0 135526374.688498 -19791305.96999138 -19791305.96999138 3718729.865291973 0 0 0 0 0 136683305.6658747 -16726953.59723764 -16726953.59723764 2691684.841853654 0 0 0 0 0 137012151.5958918 -13164394.46649544 -13164394.46649544 -1660037.696144107 0 0 0 0 0 135656382.4561283 -11093364.96964673 -11093364.96964673 -845287.8830518179 0 0 0 0 0 135767590.8402246 -9063320.878125658 -9063320.878125658 -1069200.270363095 0 0 0 0 0 135649235.9065732 -7243173.583625189 -7243173.583625189 -1172801.939414538 0 0 0 0 0 133745304.6687587 -5731509.670520392 -5731509.670520392 -2963079.076769873 0 0 0 0 0 133399482.9129998 -4356941.8395967 -4356941.8395967 -2822225.410021886 0 0 0 0 0 132940819.7929286 -3125162.507077012 -3125162.507077012 -2637299.703528934 0 0 0 0 0 132394150.0713263 -2023815.437869099 -2023815.437869099 -2420591.646038891 0 0 0 0 0 131781019.8659072 -1040634.838921214 -1040634.838921214 -2180381.410072791 0 0 0 0 0 131118530.7519347 -165801.1832272668 -165801.1832272668 -1926346.725543985 0 0 0 0 0 130422975.4027255 610160.9619313277 610160.9619313277 -1666806.50262318 0 0 0 0 0 128442780.8120998 500500.9942818304 500500.9942818304 -3721383.985439329 0 0 0 0 0 128041197.6896072 1453896.627786549 1453896.627786549 -2355976.545320326 0 0 0 0 0 127351829.5818363 1989083.069114103 1989083.069114103 -2064410.081094643 0 0 0 0 0 126653557.3862083 2460157.458949795 2460157.458949795 -1780866.309649267 0 0 0 0 0 125959698.7014986 2880063.668113078 2880063.668113078 -1498862.84479774 0 0 0 0 0 125263236.3454192 3251073.824526969 3251073.824526969 -1223531.169230859 0 0 0 0 0 123554162.1859198 2797060.941769073 2797060.941769073 -2791818.454477324 0 0 0 0 0 123342521.3271084 3436574.943970192 3436574.943970192 -1622688.294700611 0 0 0 0 0 120732954.5468642 2791165.536831298 2791165.536831298 -3411827.083995481 0 0 0 0 0 117811845.8237917 3295548.336775392 3295548.336775392 -2689006.138011405 0 0 0 0 0 115010931.5818931 3552611.901670538 3552611.901670538 -1879254.540939881 0 0 0 0 0 114957246.5824235 3826568.020123653 3826568.020123653 -1185419.019867168 0 0 0 0 0 112760458.2028157 3539351.903090174 3539351.903090174 -1289064.838795243 0 0 0 0 0 110934490.9539435 3562810.90568735 3562810.90568735 -387550.750713403 0 0 0 0 0 121779095.2854164 2946539.405216417 2946539.405216417 -2999629.554791472 0 0 0 0 0 89956383.31816263 -64699305.56305964 -64699305.56305964 52501612.58498717 0 0 0 0 0 89082265.67389995 -64804949.57220203 -64804949.57220203 47328071.49365187 0 0 0 0 0 102154632.0798808 -58079715.0623261 -58079715.0623261 36705066.91130299 0 0 0 0 0 139219086.0042073 -13760127.22061231 -13760127.22061231 755018.9906854964 0 0 0 0 0 135839134.722311 -5795439.261653113 -5795439.261653113 -2419158.049363194 0 0 0 0 0 129361986.7970985 909837.2815468897 909837.2815468897 -2541856.763231501 0 0 0 0 0 124140651.4659269 3208630.645422405 3208630.645422405 -1898631.663940069 0 0 0 0 0 122279718.3267403 3345932.865143359 3345932.865143359 -2221892.346547679 0 0 0 0 0 121610555.1649775 3501858.760818623 3501858.760818623 -1921319.379756218 0 0 0 0 0 120576584.8684773 3301851.026390209 3301851.026390209 -2398524.35694687 0 0 0 0 0 120055716.8821709 3486112.664546966 3486112.664546966 -2147712.581552012 0 0 0 0 0 119536374.7198821 3645899.621725847 3645899.621725847 -1907691.357888644 0 0 0 0 0 119029756.5760715 3790952.039141772 3790952.039141772 -1672311.161155274 0 0 0 0 0 118536094.1583312 3917453.265754729 3917453.265754729 -1447572.100898745 0 0 0 0 0 117721930.9755007 3682094.19543973 3682094.19543973 -1832009.454629542 0 0 0 0 0 117271242.8257518 3789269.418940534 3789269.418940534 -1615299.245729634 0 0 0 0 0 116826804.5651848 3879246.237700093 3879246.237700093 -1409813.890755028 0 0 0 0 0 116397566.2706928 3953825.593191071 3953825.593191071 -1217435.162628907 0 0 0 0 0 115975573.1074339 4014338.673856042 4014338.673856042 -1035142.104776225 0 0 0 0 0 115567478.3999648 4065060.037790583 4065060.037790583 -861575.4171482861 0 0 0 0 0 114592128.8249635 3871556.876929867 3871556.876929867 -1020864.887226844 0 0 0 0 0 114233838.3558615 3907573.199168163 3907573.199168163 -864800.673279467 0 0 0 0 0 113885298.2784438 3935442.150200402 3935442.150200402 -717760.9567203864 0 0 0 0 0 113546331.6911018 3955919.133517671 3955919.133517671 -579397.9735417007 0 0 0 0 0 113216748.3026677 3969818.394516587 3969818.394516587 -449013.2101091785 0 0 0 0 0 112735618.4453526 3748418.217747499 3748418.217747499 -719974.0792256709 0 0 0 0 0 112433795.0692253 3759256.479452316 3759256.479452316 -594696.4261834659 0 0 0 0 0 112140547.9786521 3765380.5862261 3765380.5862261 -475216.7742217827 0 0 0 0 0 111855762.1027613 3766992.969828008 3766992.969828008 -362177.7499373426 0 0 0 0 0 111579231.1439761 3764385.374875661 3764385.374875661 -255336.0734980439 0 0 0 0 0 111310575.4365775 3757781.923429842 3757781.923429842 -154652.3762015873 0 0 0 0 0 110455821.8412506 3405697.225859478 3405697.225859478 -636770.511299617 0 0 0 0 0 111049867.1744721 3747641.29643688 3747641.29643688 -59774.29022140221 0 0 0 0 0 110465168.3886715 3548887.745001982 3548887.745001982 -207599.5245894474 0 0 0 0 0 110107571.2022133 3475596.496519542 3475596.496519542 -234291.7459703624 0 0 0 0 0 109852827.3899138 3296521.03028684 3296521.03028684 -537502.3224532722 0 0 0 0 0 112449079.0420499 -50654814.32613095 -50654814.32613095 27955925.9750432 0 0 0 0 0 119511037.5888137 -44824602.41865643 -44824602.41865643 21427088.78206477 0 0 0 0 0 125556033.9834129 -39330684.3781324 -39330684.3781324 16909006.59861507 0 0 0 0 0 130265087.2761758 -34191395.38876095 -34191395.38876095 13315433.513914 0 0 0 0 0 133788108.0163131 -29452226.73188127 -29452226.73188127 10519923.92073791 0 0 0 0 0 136311201.1789904 -25177132.90357471 -25177132.90357471 8375128.316341827 0 0 0 0 0 138040752.9526963 -21323803.15692565 -21323803.15692565 6713846.051838641 0 0 0 0 0 139129343.7383232 -17878239.0746131 -17878239.0746131 5461423.737987734 0 0 0 0 0 139712174.9181743 -14805083.72146702 -14805083.72146702 4518079.322177288 0 0 0 0 0 139086684.0894671 -11422111.33003905 -11422111.33003905 197062.8037629699 0 0 0 0 0 137700314.1430997 -9288499.410679499 -9288499.410679499 1065628.893683029 0 0 0 0 0 137476431.9657565 -7322553.917753289 -7322553.917753289 849289.3861469072 0 0 0 0 0 137067449.3236466 -5574816.288128091 -5574816.288128091 739457.2445567367 0 0 0 0 0 134913257.0034199 -4156805.340699797 -4156805.340699797 -1123196.232340812 0 0 0 0 0 134360142.0593608 -2860929.104335365 -2860929.104335365 -1011117.56932981 0 0 0 0 0 133721094.4412189 -1709655.95178021 -1709655.95178021 -860214.662876551 0 0 0 0 0 133017020.227717 -688316.1913902917 -688316.1913902917 -681291.5686105841 0 0 0 0 0 132268086.4222359 216346.6420924818 216346.6420924818 -483065.1268160922 0 0 0 0 0 131486690.025103 1014685.157123443 1014685.157123443 -274104.9000552892 0 0 0 0 0 130688399.3762475 1717433.656971999 1717433.656971999 -61695.43505041592 0 0 0 0 0 128572715.4247165 1509819.219396038 1509819.219396038 -2267623.476740246 0 0 0 0 0 128194506.7457679 2440059.745042723 2440059.745042723 -895065.5278747258 0 0 0 0 0 127435900.8529235 2909118.750538612 2909118.750538612 -654537.6592873923 0 0 0 0 0 126683126.8863833 3320947.038670273 3320947.038670273 -413839.1809697765 0 0 0 0 0 125938782.6993436 3683901.338342464 3683901.338342464 -179119.8943044344 0 0 0 0 0 125201646.99061 3999526.311402686 3999526.311402686 44567.72344277263 0 0 0 0 0 123453937.3156867 3491443.542992608 3491443.542992608 -1633497.18996918 0 0 0 0 0 123243041.4682901 4100983.952125192 4100983.952125192 -484317.1247254097 0 0 0 0 0 120623717.3745013 3384492.469708868 3384492.469708868 -2445956.28638914 0 0 0 0 0 117665229.8079738 3748402.205468554 3748402.205468554 -1890075.624917786 0 0 0 0 0 114851370.3859975 3875818.997844293 3875818.997844293 -1244204.207282639 0 0 0 0 0 114808661.3189442 4144274.209749066 4144274.209749066 -551972.473176847 0 0 0 0 0 112605490.5162587 3780627.295740891 3780627.295740891 -773036.0689239111 0 0 0 0 0 110794439.2849241 3735467.366440196 3735467.366440196 27759.57132546455 0 0 0 0 0 110310119.6222052 3521382.573851161 3521382.573851161 -164217.1961534153 0 0 0 0 0 121661057.0161193 3571473.05461234 3571473.05461234 -1956723.195683678 0 0 0 0 0 103973261.6944015 -70170364.33521268 -70170364.33521268 53425775.35287424 0 0 0 0 0 101883608.6747302 -69073514.17357993 -69073514.17357993 47279206.63290737 0 0 0 0 0 126104103.5914698 -55701326.09399596 -55701326.09399596 32739339.57516538 0 0 0 0 0 141365684.6368977 -11979574.00927979 -11979574.00927979 2625785.360207023 0 0 0 0 0 136770908.5329346 -4289359.087131124 -4289359.087131124 -589059.9310382907 0 0 0 0 0 129441452.335362 1906850.862234061 1906850.862234061 -1032488.140590103 0 0 0 0 0 123989398.2946044 3880192.123294828 3880192.123294828 -713295.0858917908 0 0 0 0 0 122129178.3347944 3954196.384044018 3954196.384044018 -1139417.539530512 0 0 0 0 0 121508058.2085264 4104713.796388844 4104713.796388844 -885373.0783252147 0 0 0 0 0 120485905.1811304 3878162.120837521 3878162.120837521 -1434926.157529266 0 0 0 0 0 119940851.2767431 4027354.123876684 4027354.123876684 -1214406.651168446 0 0 0 0 0 119409809.7124027 4159192.083701246 4159192.083701246 -998676.0031308569 0 0 0 0 0 118889542.1723962 4273331.394452373 4273331.394452373 -792580.8965792494 0 0 0 0 0 118384848.4850439 4371456.066991085 4371456.066991085 -594619.4914452631 0 0 0 0 0 117586661.9311952 4120003.562212782 4120003.562212782 -1035526.813828224 0 0 0 0 0 117126212.7576129 4198131.731812107 4198131.731812107 -845002.9215249651 0 0 0 0 0 116678317.8249979 4262654.283673119 4262654.283673119 -666834.2242842594 0 0 0 0 0 116245676.7653336 4316634.313494174 4316634.313494174 -500908.2674075064 0 0 0 0 0 115819576.2169449 4359344.14376767 4359344.14376767 -340492.3570923974 0 0 0 0 0 115412624.9936552 4390890.625083507 4390890.625083507 -193474.5773702415 0 0 0 0 0 114436220.4190956 4170130.04413816 4170130.04413816 -407326.1815131032 0 0 0 0 0 114074492.2990908 4188643.709296051 4188643.709296051 -271174.5607417941 0 0 0 0 0 113723543.1288965 4200239.585342135 4200239.585342135 -143435.9695079071 0 0 0 0 0 113382665.9918475 4205649.086055128 4205649.086055128 -23087.00601055404 0 0 0 0 0 113051890.8574978 4205503.868055478 4205503.868055478 90122.34192358259 0 0 0 0 0 112585175.9280215 3980233.432065689 3980233.432065689 -210645.144655422 0 0 0 0 0 112282521.4938287 3978395.10522774 3978395.10522774 -100736.6539500359 0 0 0 0 0 111989096.6271788 3972723.090093826 3972723.090093826 3500.981912630488 0 0 0 0 0 111704284.6292827 3963072.012782534 3963072.012782534 101938.8114892537 0 0 0 0 0 111427921.1052606 3949690.695732081 3949690.695732081 194510.5513980743 0 0 0 0 0 111159581.6933383 3932869.772700109 3932869.772700109 282345.1059538197 0 0 0 0 0 110305176.0154669 3561197.947650386 3561197.947650386 -249797.3274567115 0 0 0 0 0 110900134.5227742 3913196.526708239 3913196.526708239 365418.5747635133 0 0 0 0 0 110359719.7539806 3702809.719454748 3702809.719454748 170727.4044941142 0 0 0 0 0 109885076.9640698 3460687.025841772 3460687.025841772 -192760.3298725943 0 0 0 0 0 110179909.0519843 3651467.615107817 3651467.615107817 121523.215362474 0 0 0 0 0 122408343.1445516 -49523516.9675519 -49523516.9675519 27021615.69643867 0 0 0 0 0 128129811.3041639 -43962031.50906208 -43962031.50906208 21941739.07341214 0 0 0 0 0 133084840.4753857 -38084924.17326985 -38084924.17326985 17544231.05829103 0 0 0 0 0 136740386.50808 -32557373.9540286 -32557373.9540286 14280554.70132232 0 0 0 0 0 139251741.8740547 -27611120.03466623 -27611120.03466623 11762252.87369824 0 0 0 0 0 140919382.0856412 -23242029.97548416 -23242029.97548416 9858553.241631579 0 0 0 0 0 141918234.488833 -19319362.5284752 -19319362.5284752 8364243.347799155 0 0 0 0 0 142345530.1560058 -15879371.13862864 -15879371.13862864 7222327.696395721 0 0 0 0 0 142372347.6114155 -12849656.47149643 -12849656.47149643 6371449.822927179 0 0 0 0 0 140849293.780051 -9686508.060041912 -9686508.060041912 2088514.307967702 0 0 0 0 0 139445492.1274285 -7519119.293910882 -7519119.293910882 3009181.259709543 0 0 0 0 0 138905645.5523893 -5633639.605236213 -5633639.605236213 2795180.75062956 0 0 0 0 0 138224363.7974406 -3973606.435970242 -3973606.435970242 2673210.173545075 0 0 0 0 0 135854999.853263 -2653921.287782714 -2653921.287782714 743355.0207223176 0 0 0 0 0 135111169.7684015 -1443446.153617645 -1443446.153617645 821800.2675750219 0 0 0 0 0 134307543.1683016 -376958.5176480694 -376958.5176480694 933615.7102736912 0 0 0 0 0 133460355.4393781 561196.3715218725 561196.3715218725 1069545.320462128 0 0 0 0 0 132588584.4237905 1385408.194207704 1385408.194207704 1220774.657311384 0 0 0 0 0 131701626.6891098 2106621.658216027 2106621.658216027 1380549.220176955 0 0 0 0 0 130810019.0976354 2735507.425718709 2735507.425718709 1542612.661032199 0 0 0 0 0 128584200.7330413 2439512.313680608 2439512.313680608 -802860.1709543347 0 0 0 0 0 128227739.7020969 3342873.817779899 3342873.817779899 560387.0406809759 0 0 0 0 0 127411002.9326901 3748709.482059091 3748709.482059091 756158.7071200247 0 0 0 0 0 126613435.5025788 4105498.070106783 4105498.070106783 949686.815679188 0 0 0 0 0 125828556.9717639 4413448.965925239 4413448.965925239 1137636.049965924 0 0 0 0 0 125059690.6196939 4676852.735179535 4676852.735179535 1314164.234352512 0 0 0 0 0 123279114.3831967 4119055.88322571 4119055.88322571 -487974.2231196833 0 0 0 0 0 123084113.9744502 4705025.830569911 4705025.830569911 649646.5755637916 0 0 0 0 0 120468487.2576677 3932038.348840781 3932038.348840781 -1477136.37003132 0 0 0 0 0 117484864.1852792 4163274.574743174 4163274.574743174 -1089292.783575121 0 0 0 0 0 114668053.5317956 4174515.642885572 4174515.642885572 -606136.7196250663 0 0 0 0 0 114632157.8241875 4431274.9275302 4431274.9275302 77940.06582029077 0 0 0 0 0 112434933.9470553 3999598.242357495 3999598.242357495 -259656.3695534186 0 0 0 0 0 110648315.1577335 3890243.891731317 3890243.891731317 444322.8112915426 0 0 0 0 0 121486751.1094472 4137685.558776179 4137685.558776179 -913634.7347772932 0 0 0 0 0 118796620.5500133 -74514761.30228166 -74514761.30228166 53436611.63202171 0 0 0 0 0 116274381.6395074 -73046851.71699418 -73046851.71699418 46337627.33028435 0 0 0 0 0 126871859.4507994 -56261380.46234945 -56261380.46234945 32764618.13803286 0 0 0 0 0 143165634.8200952 -10203357.51853079 -10203357.51853079 4519722.742634862 0 0 0 0 0 137473743.3838687 -2854519.351557485 -2854519.351557485 1266674.435832619 0 0 0 0 0 129406217.8153095 2822008.791146736 2822008.791146736 481921.6063918384 0 0 0 0 0 123766181.3326478 4488090.868017811 4488090.868017811 467830.4760414964 0 0 0 0 0 121915246.2560523 4501230.777844313 4501230.777844313 -69474.42242910259 0 0 0 0 0 121343540.4171521 4647681.159827568 4647681.159827568 139197.8746482618 0 0 0 0 0 120339728.6103627 4404764.169902688 4404764.169902688 -473293.0972525001 0 0 0 0 0 119780699.7524292 4523366.704733028 4523366.704733028 -278655.3036870303 0 0 0 0 0 119236966.7591152 4625609.273961103 4625609.273961103 -93443.41071530653 0 0 0 0 0 118707656.9449831 4712833.902503873 4712833.902503873 87785.05734584144 0 0 0 0 0 118195534.9015943 4783041.146996036 4783041.146996036 251000.4192391876 0 0 0 0 0 117412956.7789268 4518459.324052728 4518459.324052728 -241127.7673115638 0 0 0 0 0 116947962.2344447 4572884.141005677 4572884.141005677 -78860.3710947208 0 0 0 0 0 116496672.6950298 4615277.532683334 4615277.532683334 73151.36008240533 0 0 0 0 0 116057796.6482986 4647347.384260215 4647347.384260215 216134.3665406817 0 0 0 0 0 115633240.0586617 4670409.326658864 4670409.326658864 349879.119445024 0 0 0 0 0 115221091.5444687 4684115.406336494 4684115.406336494 474831.5925746035 0 0 0 0 0 114257777.9319042 4440274.384238443 4440274.384238443 201743.114531354 0 0 0 0 0 113894790.9596158 4442773.591637416 4442773.591637416 317584.7594350353 0 0 0 0 0 113542695.5781546 4439395.830782827 4439395.830782827 425988.0187700948 0 0 0 0 0 113201380.3442039 4430872.597241964 4430872.597241964 527917.8606961095 0 0 0 0 0 112870511.1826643 4417546.199412306 4417546.199412306 623284.9127834413 0 0 0 0 0 112419792.7168955 4190446.561666851 4190446.561666851 294979.7542922231 0 0 0 0 0 112117248.7428559 4176973.165684252 4176973.165684252 388976.9130719342 0 0 0 0 0 111824155.1086598 4159961.428460998 4159961.428460998 477773.0935220278 0 0 0 0 0 111540218.4958681 4139724.899727905 4139724.899727905 560843.1072439619 0 0 0 0 0 111264903.444533 4116530.646508744 4116530.646508744 638585.8560826229 0 0 0 0 0 110998575.03147 4090827.643880458 4090827.643880458 711922.0002308408 0 0 0 0 0 110154765.1145859 3699818.104244951 3699818.104244951 145827.4254283934 0 0 0 0 0 110742351.1813578 4063216.872344838 4063216.872344838 772853.6335891933 0 0 0 0 0 110210041.3354744 3834308.84170723 3834308.84170723 494052.4118199054 0 0 0 0 0 109907715.017991 3632893.454923129 3632893.454923129 161149.4886892429 0 0 0 0 0 138219159.4657566 -58652615.36628921 -58652615.36628921 35850912.23398647 0 0 0 0 0 132377988.8645859 -49336139.68147093 -49336139.68147093 26606544.93427664 0 0 0 0 0 136410394.6386491 -42877541.10499823 -42877541.10499823 21834996.39827678 0 0 0 0 0 140273346.8159039 -36315103.44701781 -36315103.44701781 18142655.90825652 0 0 0 0 0 142735730.6327202 -30570257.05270302 -30570257.05270302 15246246.61585015 0 0 0 0 0 144267332.4100307 -25538144.14126517 -25538144.14126517 13054598.22833016 0 0 0 0 0 145100504.6868143 -21096596.53523669 -21096596.53523669 11338574.64953948 0 0 0 0 0 145312792.3119061 -17217877.68031619 -17217877.68031619 10009164.83231867 0 0 0 0 0 145133535.3542817 -13837423.05428158 -13837423.05428158 9001734.941520337 0 0 0 0 0 144647540.386504 -10891755.03288375 -10891755.03288375 8246136.710917464 0 0 0 0 0 142292896.1528994 -7982692.357014954 -7982692.357014954 4004887.060953385 0 0 0 0 0 140889007.9423033 -5802661.141193318 -5802661.141193318 4971800.371011612 0 0 0 0 0 140054950.561466 -4014581.415380801 -4014581.415380801 4754212.765055709 0 0 0 0 0 139123425.9670616 -2453860.503511562 -2453860.503511562 4614556.294190872 0 0 0 0 0 136575092.9401955 -1234887.33295619 -1234887.33295619 2622543.896876119 0 0 0 0 0 135658513.2901381 -114509.8562479391 -114509.8562479391 2662874.811055165 0 0 0 0 0 134707103.9911775 864237.4459513898 864237.4459513898 2731315.427912617 0 0 0 0 0 133734096.2558222 1718044.302420391 1718044.302420391 2819493.613349462 0 0 0 0 0 132753621.7303646 2461343.295570277 2461343.295570277 2920164.362079115 0 0 0 0 0 131775182.4422445 3105484.099129628 3105484.099129628 3027504.511165267 0 0 0 0 0 130802190.245296 3660428.16892769 3660428.16892769 3135105.664322625 0 0 0 0 0 128489459.0268664 3290451.950001903 3290451.950001903 658710.7890421804 0 0 0 0 0 128153193.2408157 4160467.851383173 4160467.851383173 2010856.698458956 0 0 0 0 0 127293021.0723681 4511737.826636939 4511737.826636939 2157612.969860665 0 0 0 0 0 126453952.8181082 4812971.552641329 4812971.552641329 2302671.269760336 0 0 0 0 0 125636602.9114794 5069662.746332603 5069662.746332603 2439557.971801638 0 0 0 0 0 124841308.6178679 5286048.534821218 5286048.534821218 2568615.343162622 0 0 0 0 0 123037118.12669 4685689.178466302 4685689.178466302 651562.712968042 0 0 0 0 0 122872090.2562318 5253579.547136472 5253579.547136472 1787899.92123818 0 0 0 0 0 120264683.6885788 4428374.988304676 4428374.988304676 -507496.9921493437 0 0 0 0 0 117271477.9919643 4540111.415495087 4540111.415495087 -289661.6291866549 0 0 0 0 0 114463972.7608211 4444337.029057196 4444337.029057196 28861.84128388473 0 0 0 0 0 114434486.790857 4689262.527061314 4689262.527061314 701961.1074681834 0 0 0 0 0 112251157.4891826 4196899.296956943 4196899.296956943 250404.7240818296 0 0 0 0 0 110526994.357407 4023138.290064736 4023138.290064736 795028.6488023789 0 0 0 0 0 121259712.9726287 4648783.199224408 4648783.199224408 118651.4436332705 0 0 0 0 0 133995927.0723346 -78373331.83374935 -78373331.83374935 52329754.68313006 0 0 0 0 0 130561592.1602424 -76200370.22368374 -76200370.22368374 44945744.03807405 0 0 0 0 0 136141692.0280927 -57309984.17155927 -57309984.17155927 33247729.29905968 0 0 0 0 0 144619939.7532608 -8454764.546587257 -8454764.546587257 6429165.581272946 0 0 0 0 0 137956065.1923769 -1502345.008594851 -1502345.008594851 3134406.418403543 0 0 0 0 0 129261384.4122355 3650624.623467708 3650624.623467708 1988614.340201794 0 0 0 0 0 123491993.6289021 5038488.210115884 5038488.210115884 1655861.064004698 0 0 0 0 0 121648526.2912156 4994759.819027822 4994759.819027822 991223.0689133316 0 0 0 0 0 121129177.6024093 5138685.107407632 5138685.107407632 1158952.985651386 0 0 0 0 0 120147354.8339098 4882731.165654615 4882731.165654615 488739.2767700035 0 0 0 0 0 119578933.3794675 4973409.074782979 4973409.074782979 651638.2393645864 0 0 0 0 0 119024876.9019337 5048625.698440284 5048625.698440284 812261.8350736151 0 0 0 0 0 118489397.0646839 5108699.142716112 5108699.142716112 957267.7190708767 0 0 0 0 0 117969811.1578753 5151549.200226665 5151549.200226665 1086160.482412104 0 0 0 0 0 117210636.9627172 4880432.288632408 4880432.288632408 548395.3251335257 0 0 0 0 0 116740434.509594 4911285.715856623 4911285.715856623 681611.5411639076 0 0 0 0 0 116284657.7898087 4932453.189587087 4932453.189587087 807292.9512324325 0 0 0 0 0 115843984.9056363 4944318.281273343 4944318.281273343 924709.0455034189 0 0 0 0 0 115416807.5112303 4948118.137887385 4948118.137887385 1033801.988002911 0 0 0 0 0 115003578.3972031 4944426.487221439 4944426.487221439 1135224.630042124 0 0 0 0 0 114059541.3889537 4682425.39139687 4682425.39139687 804518.7919224438 0 0 0 0 0 113696445.9672802 4670127.132824369 4670127.132824369 899983.0863436711 0 0 0 0 0 113344628.4532765 4652952.271552791 4652952.271552791 989241.2088989407 0 0 0 0 0 113004379.1412977 4631544.229110638 4631544.229110638 1072395.760896806 0 0 0 0 0 112674885.9256554 4606050.924567319 4606050.924567319 1148937.765958239 0 0 0 0 0 112239564.9040527 4378537.962769751 4378537.962769751 794267.7276224444 0 0 0 0 0 111938366.5287626 4354124.429639461 4354124.429639461 872583.2435506219 0 0 0 0 0 111646825.9649327 4326797.738070808 4326797.738070808 945756.1942377476 0 0 0 0 0 111364539.2708244 4296708.226923665 4296708.226923665 1013478.475672232 0 0 0 0 0 111091449.9374404 4264413.09838917 4264413.09838917 1075225.53556006 0 0 0 0 0 110831910.6988115 4228134.773609122 4228134.773609122 1131776.017164874 0 0 0 0 0 110207738.7508371 4000823.455411687 4000823.455411687 829575.6022303371 0 0 0 0 0 110585015.6010795 4192215.932123029 4192215.932123029 1163530.219808928 0 0 0 0 0 109932072.3830703 3802289.488677339 3802289.488677339 561991.826731454 0 0 0 0 0 145620643.205781 -61224680.53640125 -61224680.53640125 35165682.80651512 0 0 0 0 0 140999208.0446371 -49073768.29521547 -49073768.29521547 26060427.0705984 0 0 0 0 0 144787812.4083188 -40918833.88197167 -40918833.88197167 21800557.69247657 0 0 0 0 0 146898323.2690713 -34145557.05796573 -34145557.05796573 18663454.2247192 0 0 0 0 0 148183248.9739406 -28305521.39419894 -28305521.39419894 16208104.18982509 0 0 0 0 0 148719207.4035323 -23245431.0982377 -23245431.0982377 14307995.46099758 0 0 0 0 0 148722011.982361 -18852717.93342841 -18852717.93342841 12840483.41208283 0 0 0 0 0 148260751.0463833 -15055933.23381545 -15055933.23381545 11690492.28412768 0 0 0 0 0 147495423.2618 -11790118.53328555 -11790118.53328555 10812153.07650129 0 0 0 0 0 146531598.6446711 -8962396.059781872 -8962396.059781872 10138945.98706825 0 0 0 0 0 143421874.3002957 -6329556.643194768 -6329556.643194768 5935372.022283516 0 0 0 0 0 142029325.6569066 -4159261.396270375 -4159261.396270375 6939391.027208234 0 0 0 0 0 140928246.8352141 -2481213.2237725 -2481213.2237725 6711646.352102548 0 0 0 0 0 139770865.1079342 -1029121.129295653 -1029121.129295653 6549489.327142853 0 0 0 0 0 137078851.0886958 89258.02854205493 89258.02854205493 4499686.373409198 0 0 0 0 0 136008957.6018 1116689.58154558 1116689.58154558 4496594.304046553 0 0 0 0 0 134927005.4882233 2005662.515082712 2005662.515082712 4515956.569173848 0 0 0 0 0 133842510.2515382 2774001.067460652 2774001.067460652 4552523.195662061 0 0 0 0 0 132767750.5821582 3436651.778580745 3436651.778580745 4599163.994385291 0 0 0 0 0 131713041.2753839 4006202.011882464 4006202.011882464 4648886.919677347 0 0 0 0 0 130675108.7893281 4491164.341617569 4491164.341617569 4700274.824749632 0 0 0 0 0 128300492.6574769 4060612.186592818 4060612.186592818 2114834.612250002 0 0 0 0 0 127982395.4552241 4897042.694718661 4897042.694718661 3441588.100831813 0 0 0 0 0 127083677.6184077 5192035.073872618 5192035.073872618 3539389.880402575 0 0 0 0 0 126214872.26386 5441822.109424505 5441822.109424505 3633635.426551584 0 0 0 0 0 125369734.0783397 5649120.371436796 5649120.371436796 3718368.548415625 0 0 0 0 0 124553067.8891512 5821476.447757465 5821476.447757465 3799233.582925736 0 0 0 0 0 122748619.727308 5196770.901080539 5196770.901080539 1796984.314270323 0 0 0 0 0 122597012.186909 5738614.025408351 5738614.025408351 2907801.608027862 0 0 0 0 0 120016715.4753899 4878281.356261521 4878281.356261521 460531.1104287688 0 0 0 0 0 117028900.1218253 4878543.920584819 4878543.920584819 506196.8886532857 0 0 0 0 0 114241068.7994931 4684912.085164157 4684912.085164157 658704.9957091445 0 0 0 0 0 114217256.391475 4918010.196422534 4918010.196422534 1317530.179368933 0 0 0 0 0 112054629.5403642 4372063.916862314 4372063.916862314 754676.3561831859 0 0 0 0 0 110378813.1308599 4110565.874479238 4110565.874479238 979604.8248318302 0 0 0 0 0 120985878.1711219 5110043.006894415 5110043.006894415 1144584.836078895 0 0 0 0 0 149703100.0912594 -81009113.67684001 -81009113.67684001 50915955.58796622 0 0 0 0 0 158443130.0915091 -69263789.19718195 -69263789.19718195 41149262.6627748 0 0 0 0 0 148025226.6982574 -54897144.73246485 -54897144.73246485 29104381.10958043 0 0 0 0 0 145724631.091419 -6760460.62120883 -6760460.62120883 8346051.248755557 0 0 0 0 0 138227028.9201718 -243740.2331675742 -243740.2331675742 5000174.549237215 0 0 0 0 0 129015796.8278732 4391833.702730893 4391833.702730893 3479582.00935792 0 0 0 0 0 123162916.8080678 5523267.032069379 5523267.032069379 2829118.700083543 0 0 0 0 0 121338764.8369644 5433663.872056819 5433663.872056819 2054077.976174421 0 0 0 0 0 120869887.4200605 5579388.561504696 5579388.561504696 2173242.975275877 0 0 0 0 0 119914980.3204189 5314433.536275309 5314433.536275309 1443925.123278044 0 0 0 0 0 119336271.4290628 5377787.415818063 5377787.415818063 1580522.056914421 0 0 0 0 0 118776900.9488972 5426366.286166478 5426366.286166478 1703584.434926583 0 0 0 0 0 118234601.6782599 5457872.634036412 5457872.634036412 1813473.57702077 0 0 0 0 0 117710535.6000087 5476606.334741689 5476606.334741689 1913114.114073528 0 0 0 0 0 116977343.8243084 5202677.51301095 5202677.51301095 1327054.20015339 0 0 0 0 0 116503633.701143 5211895.706712211 5211895.706712211 1432525.17272414 0 0 0 0 0 116047028.2674599 5213365.704229431 5213365.704229431 1531443.875208945 0 0 0 0 0 115605278.1034275 5206750.760992122 5206750.760992122 1622961.701903053 0 0 0 0 0 115178387.9822325 5193223.713420764 5193223.713420764 1707453.310750283 0 0 0 0 0 114766037.2652102 5173434.817361921 5173434.817361921 1785170.241705985 0 0 0 0 0 113843173.7784238 4896764.245843544 4896764.245843544 1398944.102324673 0 0 0 0 0 113481222.7066459 4870906.774575656 4870906.774575656 1474268.408033008 0 0 0 0 0 113131123.7666869 4841168.545575496 4841168.545575496 1544159.495005455 0 0 0 0 0 112793064.31804 4807789.753193856 4807789.753193856 1607985.570642071 0 0 0 0 0 112465646.7398842 4771007.336162138 4771007.336162138 1666354.045127866 0 0 0 0 0 112046703.4981923 4544869.593237253 4544869.593237253 1286652.814482386 0 0 0 0 0 111747650.138161 4510510.930156022 4510510.930156022 1349066.042981721 0 0 0 0 0 111458334.8329462 4473550.323173387 4473550.323173387 1407183.690436188 0 0 0 0 0 111178434.55803 4434121.258898715 4434121.258898715 1461663.316163043 0 0 0 0 0 110905839.4759648 4393424.499727785 4393424.499727785 1513867.73191857 0 0 0 0 0 110647762.4969709 4353747.057975743 4353747.057975743 1554211.761372583 0 0 0 0 0 110211233.3245947 4157931.828906996 4157931.828906996 1231624.208058002 0 0 0 0 0 110417545.9464311 4268403.389824974 4268403.389824974 1340169.924240486 0 0 0 0 0 109954312.9387242 3972360.853024896 3972360.853024896 996791.9195141467 0 0 0 0 0 153144278.4175315 -62199784.51904821 -62199784.51904821 35512382.16670108 0 0 0 0 0 149787874.6330828 -46263598.87014717 -46263598.87014717 25263238.00034819 0 0 0 0 0 152010500.002363 -38310303.42917487 -38310303.42917487 21875880.53535848 0 0 0 0 0 152812869.7735288 -31576914.37509821 -31576914.37509821 19226250.16994499 0 0 0 0 0 152983608.9934046 -25770703.61707018 -25770703.61707018 17191541.27873173 0 0 0 0 0 152584972.6814946 -20797494.2753596 -20797494.2753596 15607500.66845616 0 0 0 0 0 151793970.6788166 -16537867.07884434 -16537867.07884434 14375010.46853616 0 0 0 0 0 150707864.4036573 -12884151.91086963 -12884151.91086963 13400694.88177254 0 0 0 0 0 149420658.8143485 -9761594.82745721 -9761594.82745721 12635205.80112008 0 0 0 0 0 148010665.3844581 -7086294.099285643 -7086294.099285643 12034233.54807022 0 0 0 0 0 144236465.5345441 -4747027.715318329 -4747027.715318329 7866754.24381634 0 0 0 0 0 142871722.2116689 -2605342.459929956 -2605342.459929956 8897054.923065647 0 0 0 0 0 141533273.4707584 -1047560.091285182 -1047560.091285182 8652867.475972138 0 0 0 0 0 140176534.1454374 289177.7933038037 289177.7933038037 8461857.716337627 0 0 0 0 0 137376370.7150076 1309387.719236238 1309387.719236238 6360392.774865306 0 0 0 0 0 136172713.1922117 2241419.326465311 2241419.326465311 6308771.417160914 0 0 0 0 0 134977310.4181254 3041399.160277768 3041399.160277768 6276339.997733201 0 0 0 0 0 133800743.3674733 3726677.484146078 3726677.484146078 6256674.020227306 0 0 0 0 0 132646503.0298001 4310759.390295469 4310759.390295469 6245528.458455299 0 0 0 0 0 131526304.7614762 4806760.499035927 4806760.499035927 6238450.039984167 0 0 0 0 0 130435996.0323928 5225458.443969175 5225458.443969175 6230970.506907329 0 0 0 0 0 128019964.8938508 4745650.702839164 4745650.702839164 3555660.826065529 0 0 0 0 0 127718804.4108364 5545291.215758703 5545291.215758703 4848198.323297763 0 0 0 0 0 126794113.7052597 5790482.369125864 5790482.369125864 4895360.019819076 0 0 0 0 0 125903831.5707552 5990888.71065259 5990888.71065259 4933616.779372292 0 0 0 0 0 125037109.3364436 6153475.549057214 6153475.549057214 4967624.367562945 0 0 0 0 0 124205046.5069104 6285121.433268461 6285121.433268461 5002602.821818604 0 0 0 0 0 122409928.0625225 5644804.897443894 5644804.897443894 2926726.821678162 0 0 0 0 0 122270212.6488007 6160451.229478542 6160451.229478542 4004939.808037308 0 0 0 0 0 119730770.3702234 5279742.893517716 5279742.893517716 1423434.522522598 0 0 0 0 0 116760141.2617776 5177723.878696269 5177723.878696269 1292733.190449981 0 0 0 0 0 114001554.6184197 4896679.248208277 4896679.248208277 1280503.621898283 0 0 0 0 0 113982590.964956 5118003.111306922 5118003.111306922 1922841.276941053 0 0 0 0 0 111847089.4630565 4525954.983858437 4525954.983858437 1251791.385705256 0 0 0 0 0 120671254.3818944 5517706.854269592 5517706.854269592 2167662.047726384 0 0 0 0 0 165279049.1152183 -82696651.25354251 -82696651.25354251 48318634.34363273 0 0 0 0 0 165045444.4538558 -59113485.7052682 -59113485.7052682 36000301.51182723 0 0 0 0 0 157306619.138155 -52728590.95104624 -52728590.95104624 28338801.85085715 0 0 0 0 0 146491168.3226489 -5135318.577196303 -5135318.577196303 10254807.62624935 0 0 0 0 0 138299975.0435149 912479.3061400634 912479.3061400634 6850374.811919183 0 0 0 0 0 128680492.9788682 5047009.93319647 5047009.93319647 4944370.796128735 0 0 0 0 0 122784499.6664352 5942517.262971842 5942517.262971842 3980289.452975037 0 0 0 0 0 120989277.1082595 5816116.861389528 5816116.861389528 3100071.812049994 0 0 0 0 0 120565934.6237931 5964890.602062601 5964890.602062601 3171719.597462173 0 0 0 0 0 119639615.0423505 5696817.850272057 5696817.850272057 2393251.089523987 0 0 0 0 0 119056374.9080467 5734078.153560308 5734078.153560308 2490904.456262982 0 0 0 0 0 118492637.972501 5754769.056438813 5754769.056438813 2576507.111645254 0 0 0 0 0 117948569.1915344 5763045.058461594 5763045.058461594 2653464.648834714 0 0 0 0 0 117423445.5874725 5760583.980528804 5760583.980528804 2723720.154859475 0 0 0 0 0 116716296.9540338 5485694.693373686 5485694.693373686 2092678.845612318 0 0 0 0 0 116242902.4579037 5475969.546126979 5475969.546126979 2171656.843094768 0 0 0 0 0 115786064.3537805 5458662.256741153 5458662.256741153 2242679.650464873 0 0 0 0 0 115345546.3553007 5435237.627850954 5435237.627850954 2308662.836458344 0 0 0 0 0 114920558.182815 5406013.688451578 5406013.688451578 2368553.813857379 0 0 0 0 0 114510461.3611363 5371604.544987594 5371604.544987594 2422769.043449297 0 0 0 0 0 113610640.6499828 5083629.53213908 5083629.53213908 1983211.78205819 0 0 0 0 0 113251136.0861518 5045557.898163073 5045557.898163073 2038447.659742927 0 0 0 0 0 112904128.476943 5004228.241749127 5004228.241749127 2088724.459759732 0 0 0 0 0 112568673.3925676 4959869.713055019 4959869.713055019 2133503.797946697 0 0 0 0 0 112244514.3204099 4913095.319673679 4913095.319673679 2174090.324759598 0 0 0 0 0 111842605.697662 4690082.994864312 4690082.994864312 1770601.850119821 0 0 0 0 0 111546313.4215607 4646581.632637712 4646581.632637712 1816645.958837608 0 0 0 0 0 111259842.1903095 4601160.59315531 4601160.59315531 1859201.381388457 0 0 0 0 0 110982731.5456634 4554899.828382934 4554899.828382934 1897690.103502469 0 0 0 0 0 110718100.0902597 4505316.123836725 4505316.123836725 1924827.316220439 0 0 0 0 0 110356004.1361339 4391516.179579598 4391516.179579598 1673549.217203867 0 0 0 0 0 109945658.5010238 4119628.450519113 4119628.450519113 1369241.866892415 0 0 0 0 0 110207807.6714996 4305931.925005999 4305931.925005999 1631486.184315949 0 0 0 0 0 170657890.9312293 -69902666.76873347 -69902666.76873347 39534489.71109076 0 0 0 0 0 158116964.1127389 -43160931.61926025 -43160931.61926025 24508300.70992883 0 0 0 0 0 158333649.5071701 -35358334.63490494 -35358334.63490494 21917484.33863506 0 0 0 0 0 157969750.6228884 -28695704.86517784 -28695704.86517784 19853799.95122091 0 0 0 0 0 157073368.2126825 -23049370.79011184 -23049370.79011184 18238045.41967979 0 0 0 0 0 155817396.8196603 -18257544.80314552 -18257544.80314552 16964156.22316781 0 0 0 0 0 154315213.666584 -14188580.97472837 -14188580.97472837 15948467.77354751 0 0 0 0 0 152650760.0862383 -10728863.79485776 -10728863.79485776 15129248.58174885 0 0 0 0 0 150896052.5589014 -7790149.017564862 -7790149.017564862 14464256.03429137 0 0 0 0 0 149095782.2316022 -5290482.855642427 -5290482.855642427 13917891.07378235 0 0 0 0 0 144749633.5582703 -3251002.193845209 -3251002.193845209 9785222.551585162 0 0 0 0 0 143426914.3557382 -1156690.701674848 -1156690.701674848 10831095.24819219 0 0 0 0 0 141880544.8508525 272885.0349283984 272885.0349283984 10564347.11625962 0 0 0 0 0 140353349.9913523 1491924.795816608 1491924.795816608 10338280.67059945 0 0 0 0 0 137476081.1701862 2417029.724026021 2417029.724026021 8187013.819775606 0 0 0 0 0 136158738.34306 3255369.57358668 3255369.57358668 8084002.815891298 0 0 0 0 0 134870392.8556457 3967361.973529933 3967361.973529933 7997749.067350597 0 0 0 0 0 133614304.6473913 4570767.411539651 4570767.411539651 7919741.314737795 0 0 0 0 0 132397323.2213497 5079242.059193055 5079242.059193055 7853243.718614614 0 0 0 0 0 131226616.3446187 5506636.623267517 5506636.623267517 7789626.127379056 0 0 0 0 0 130095714.3010686 5862162.828711309 5862162.828711309 7728705.872650159 0 0 0 0 0 127660921.7060014 5347697.102247789 5347697.102247789 4969148.934754812 0 0 0 0 0 127377188.5607585 6110079.622305385 6110079.622305385 6222061.369494893 0 0 0 0 0 126431973.1124853 6304844.397345114 6304844.397345114 6211966.268528014 0 0 0 0 0 125523896.5006492 6461173.451151714 6461173.451151714 6195851.719822745 0 0 0 0 0 124645222.5743584 6583570.783135589 6583570.783135589 6184053.970862255 0 0 0 0 0 123804943.1685468 6678606.754339703 6678606.754339703 6172143.88986362 0 0 0 0 0 122026828.3237109 6030679.407349184 6030679.407349184 4034612.001639002 0 0 0 0 0 121898415.3570531 6519858.082784452 6519858.082784452 5074107.934325701 0 0 0 0 0 119411507.0715867 5633664.966192506 5633664.966192506 2377761.533888513 0 0 0 0 0 116468697.6302862 5437483.415465912 5437483.415465912 2067309.408510464 0 0 0 0 0 113747341.0681947 5080082.175090344 5080082.175090344 1892401.98328224 0 0 0 0 0 113732637.1757698 5289824.833615307 5289824.833615307 2516040.392352395 0 0 0 0 0 111629931.0983122 4658543.367993317 4658543.367993317 1741178.691619502 0 0 0 0 0 120321141.5640988 5872219.209092898 5872219.209092898 3176089.508260156 0 0 0 0 0 180909576.6549176 -83012139.62332995 -83012139.62332995 45509078.84313777 0 0 0 0 0 169618268.8222728 -58519861.45308264 -58519861.45308264 30108478.80739041 0 0 0 0 0 164813915.416017 -48416221.42707501 -48416221.42707501 26799940.96930511 0 0 0 0 0 146935244.5435477 -3600998.735585109 -3600998.735585109 12144218.50417257 0 0 0 0 0 138183020.5565479 1958503.769559236 1958503.769559236 8667617.589292394 0 0 0 0 0 128267247.4651505 5614555.509230044 5614555.509230044 6377118.773364153 0 0 0 0 0 122363186.7178973 6297673.455708056 6297673.455708056 5105119.207520328 0 0 0 0 0 120603544.7355422 6142090.438771852 6142090.438771852 4124202.656132783 0 0 0 0 0 120225164.4751766 6295243.284365475 6295243.284365475 4145902.870120812 0 0 0 0 0 119328094.9902315 6029879.468342133 6029879.468342133 3319243.290381312 0 0 0 0 0 118742139.0975118 6039320.956518402 6039320.956518402 3379007.979218467 0 0 0 0 0 118178085.0210102 6036803.993343026 6036803.993343026 3430409.195600824 0 0 0 0 0 117634274.4405431 6024012.608544034 6024012.608544034 3475458.002057971 0 0 0 0 0 117111205.1285206 6002046.797861691 6002046.797861691 3514809.317894323 0 0 0 0 0 116429611.0110471 5729337.502655043 5729337.502655043 2843703.916589575 0 0 0 0 0 115959291.9428281 5702653.157328514 5702653.157328514 2894254.416515227 0 0 0 0 0 115504546.698642 5668867.051880331 5668867.051880331 2938834.628733407 0 0 0 0 0 115067123.8395892 5630329.108030096 5630329.108030096 2979398.36336316 0 0 0 0 0 114645446.1764065 5586986.68929068 5586986.68929068 3014955.966147917 0 0 0 0 0 114238997.695292 5539431.6046111 5539431.6046111 3045926.606440471 0 0 0 0 0 113363972.7805667 5243567.940038617 5243567.940038617 2555583.901374096 0 0 0 0 0 113008020.4062078 5194365.762127221 5194365.762127221 2590798.862979971 0 0 0 0 0 112664935.7955382 5142665.255860981 5142665.255860981 2621416.282650486 0 0 0 0 0 112333421.2486943 5088587.539827763 5088587.539827763 2648027.29407264 0 0 0 0 0 112013101.7043171 5032771.366784698 5032771.366784698 2671241.744854877 0 0 0 0 0 111628378.3290666 4814054.510107897 4814054.510107897 2244503.489343633 0 0 0 0 0 111335669.1192361 4762255.349081429 4762255.349081429 2273548.103146311 0 0 0 0 0 111053246.6900248 4708586.450338728 4708586.450338728 2298460.08621877 0 0 0 0 0 110786088.1399614 4652482.560517646 4652482.560517646 2318875.968722726 0 0 0 0 0 110518887.014189 4596691.179703644 4596691.179703644 2301709.371518032 0 0 0 0 0 110173133.8954462 4434411.360048977 4434411.360048977 2040816.841001862 0 0 0 0 0 109929217.0533151 4257541.574319819 4257541.574319819 1755785.522312278 0 0 0 0 0 183981051.2261969 -70899180.67512567 -70899180.67512567 37800206.07629641 0 0 0 0 0 164965400.1998864 -39473045.9316476 -39473045.9316476 24218367.46143418 0 0 0 0 0 163830880.8365675 -31957929.59098026 -31957929.59098026 22204293.23142696 0 0 0 0 0 162284866.6585854 -25577077.6606377 -25577077.6606377 20644240.66294528 0 0 0 0 0 160439616.8224809 -20202880.45818942 -20202880.45818942 19396147.88975313 0 0 0 0 0 158400388.5614893 -15678357.76425758 -15678357.76425758 18385990.3627595 0 0 0 0 0 156265669.9260264 -11860896.35400718 -11860896.35400718 17557517.42968354 0 0 0 0 0 154092609.1040503 -8635596.135770649 -8635596.135770649 16866264.49456403 0 0 0 0 0 151924618.1435864 -5910464.275206898 -5910464.275206898 16280265.90466717 0 0 0 0 0 149788031.6127624 -3606623.613268571 -3606623.613268571 15772066.40158251 0 0 0 0 0 144980574.3327359 -1856937.699617284 -1856937.699617284 11678502.41325248 0 0 0 0 0 143707205.1055809 171501.0253947572 171501.0253947572 12726225.66430766 0 0 0 0 0 141984483.5951634 1470801.050958661 1470801.050958661 12430376.68528104 0 0 0 0 0 140313390.9596299 2570034.295069697 2570034.295069697 12165462.28006744 0 0 0 0 0 137395123.6842274 3408745.660780716 3408745.660780716 9969833.458474997 0 0 0 0 0 135980365.8903971 4152350.432529686 4152350.432529686 9815674.862737173 0 0 0 0 0 134617803.2288451 4780164.647562708 4780164.647562708 9673637.329926057 0 0 0 0 0 133301971.6387748 5305879.253245164 5305879.253245164 9540690.700150551 0 0 0 0 0 132038910.8651118 5744951.922929156 5744951.922929156 9416004.392735282 0 0 0 0 0 130828372.6622975 6107519.61638472 6107519.61638472 9295163.57072928 0 0 0 0 0 129668105.0190848 6404619.134350928 6404619.134350928 9178446.143896792 0 0 0 0 0 127230307.9163521 5865475.294440897 5865475.294440897 6353154.53399375 0 0 0 0 0 126963684.4362352 6587727.159177735 6587727.159177735 7551013.167960705 0 0 0 0 0 126005569.4286651 6739064.815870219 6739064.815870219 7484925.294339034 0 0 0 0 0 125085524.5678203 6854926.699234139 6854926.699234139 7420199.618307037 0 0 0 0 0 124200720.8884149 6941615.845783304 6941615.845783304 7362788.257749541 0 0 0 0 0 123357025.6616237 7002555.385489541 7002555.385489541 7304007.190675592 0 0 0 0 0 121605493.938763 6355143.636301089 6355143.636301089 5115857.23083814 0 0 0 0 0 121486493.5792288 6817941.296016113 6817941.296016113 6110471.746366091 0 0 0 0 0 119059544.3054161 5935732.176142043 5935732.176142043 3318791.713666541 0 0 0 0 0 116156872.9440821 5659663.479416236 5659663.479416236 2825954.335256451 0 0 0 0 0 113480338.979881 5235654.49592405 5235654.49592405 2492535.14778542 0 0 0 0 0 113469322.9239813 5434042.444617789 5434042.444617789 3095348.136684385 0 0 0 0 0 111403978.6452932 4769919.112801725 4769919.112801725 2220829.992186769 0 0 0 0 0 110349686.1263791 4515303.079055973 4515303.079055973 2185241.950820944 0 0 0 0 0 119934452.8108749 6169978.07320448 6169978.07320448 4159937.606549251 0 0 0 0 0 198071555.6987773 -82500652.14744809 -82500652.14744809 42318846.77391661 0 0 0 0 0 175677726.0260617 -65713870.91567434 -65713870.91567434 29940520.63149631 0 0 0 0 0 172813499.8953155 -43925512.5733697 -43925512.5733697 26036247.88843102 0 0 0 0 0 176813319.5574637 -53638190.38056731 -53638190.38056731 28455956.88640204 0 0 0 0 0 147075705.3211068 -2177145.122288702 -2177145.122288702 14001398.02208422 0 0 0 0 0 137897858.9561895 2890385.709387305 2890385.709387305 10442518.57361038 0 0 0 0 0 127783452.8396596 6095118.596744149 6095118.596744149 7774590.545586704 0 0 0 0 0 121905412.6926703 6589853.80339022 6589853.80339022 6197524.438490352 0 0 0 0 0 120186499.4743817 6412652.87994321 6412652.87994321 5122351.231536525 0 0 0 0 0 119849286.3497681 6573051.698458341 6573051.698458341 5096184.93811559 0 0 0 0 0 118981475.3038554 6308130.566586405 6308130.566586405 4218752.903242567 0 0 0 0 0 118398629.0937547 6296483.53594297 6296483.53594297 4243979.380629852 0 0 0 0 0 117836912.8199929 6273988.181766612 6273988.181766612 4262475.023245446 0 0 0 0 0 117296433.4352904 6242269.558260164 6242269.558260164 4275562.062541852 0 0 0 0 0 116777038.7606271 6202843.617124186 6202843.617124186 4284204.327558323 0 0 0 0 0 116122346.0076031 5935833.298851904 5935833.298851904 3577304.414703574 0 0 0 0 0 115656203.8601677 5893180.512236577 5893180.512236577 3599168.515508167 0 0 0 0 0 115205588.7444191 5845071.533129842 5845071.533129842 3618080.252933564 0 0 0 0 0 114772429.7491072 5792888.284661748 5792888.284661748 3633424.91897278 0 0 0 0 0 114355385.5978742 5736919.263028448 5736919.263028448 3644976.193610631 0 0 0 0 0 113953833.6521885 5677685.004708247 5677685.004708247 3652949.915165283 0 0 0 0 0 113105045.0474751 5377154.929542977 5377154.929542977 3114214.383272504 0 0 0 0 0 112753704.0106309 5318003.165468803 5318003.165468803 3129566.201960238 0 0 0 0 0 112415039.3175635 5256982.741359733 5256982.741359733 3141282.249200483 0 0 0 0 0 112088241.4574755 5194421.061335547 5194421.061335547 3150038.843415969 0 0 0 0 0 111772749.197359 5130625.78440058 5130625.78440058 3156457.501743467 0 0 0 0 0 111405160.2354157 4916958.175436382 4916958.175436382 2708795.193909695 0 0 0 0 0 111116369.6298558 4856966.166535399 4856966.166535399 2722710.442353945 0 0 0 0 0 110835694.5893114 4794633.264128081 4794633.264128081 2735372.276489007 0 0 0 0 0 110586209.5100961 4748000.144503811 4748000.144503811 2749055.216742628 0 0 0 0 0 110353704.6603089 4657285.734337186 4657285.734337186 2606702.672160836 0 0 0 0 0 109910858.2897388 4387933.464427288 4387933.464427288 2175195.33708826 0 0 0 0 0 110164543.3958095 4565689.935878763 4565689.935878763 2473201.075877068 0 0 0 0 0 196234047.8071857 -69495445.19043903 -69495445.19043903 37029564.1154095 0 0 0 0 0 170700282.4116928 -35507346.47838946 -35507346.47838946 24133181.3520372 0 0 0 0 0 168356967.98848 -28336869.43080676 -28336869.43080676 22718647.03535348 0 0 0 0 0 165748212.7452435 -22342600.67653127 -22342600.67653127 21587019.37859021 0 0 0 0 0 163045120.9827371 -17332239.79860589 -17332239.79860589 20653336.7765466 0 0 0 0 0 160333233.4063163 -13131765.02605365 -13131765.02605365 19867182.7598802 0 0 0 0 0 157658655.8202993 -9605361.292673381 -9605361.292673381 19191036.48306095 0 0 0 0 0 155051800.1494982 -6641971.793801545 -6641971.793801545 18598529.04796765 0 0 0 0 0 152533216.9669812 -4149424.368952533 -4149424.368952533 18068758.79869617 0 0 0 0 0 150116852.4223407 -2053381.216456817 -2053381.216456817 17586501.70549825 0 0 0 0 0 144949287.1905873 -580752.4428372156 -580752.4428372156 13534575.43723639 0 0 0 0 0 143730207.677584 1369548.126616248 1369548.126616248 14568403.88388264 0 0 0 0 0 141863299.4309752 2537212.0708243 2537212.0708243 14238189.40312162 0 0 0 0 0 140077955.5083559 3518798.451423698 3518798.451423698 13931318.59585682 0 0 0 0 0 137148419.599462 4279205.186705272 4279205.186705272 11701023.89073283 0 0 0 0 0 135660135.1685379 4934145.825612698 4934145.825612698 11492048.55016396 0 0 0 0 0 134236850.2275362 5480220.51117661 5480220.51117661 11293708.38397421 0 0 0 0 0 132875806.1213613 5932961.79326247 5932961.79326247 11104184.33392137 0 0 0 0 0 131577447.6022472 6305287.287574461 6305287.287574461 10921083.09737935 0 0 0 0 0 130339328.8823688 6608150.614884672 6608150.614884672 10743425.34065429 0 0 0 0 0 129159881.8165464 6851282.46414469 6851282.46414469 10569757.52945181 0 0 0 0 0 126739673.8451417 6299842.752409313 6299842.752409313 7696421.064594056 0 0 0 0 0 126487344.3785874 6982812.049252615 6982812.049252615 8829424.094148943 0 0 0 0 0 125520316.1341662 7094434.971886513 7094434.971886513 8713232.813551463 0 0 0 0 0 124596932.1280017 7174757.768339357 7174757.768339357 8602479.163493235 0 0 0 0 0 123711232.5939374 7228107.516232993 7228107.516232993 8497651.406827051 0 0 0 0 0 122867152.7544512 7258647.369753385 7258647.369753385 8392164.75045158 0 0 0 0 0 121151050.6530101 6619770.910946734 6619770.910946734 6164704.863566665 0 0 0 0 0 121040006.6359204 7056395.520214958 7056395.520214958 7110492.123215488 0 0 0 0 0 118680781.000778 6187718.232350264 6187718.232350264 4225947.588353119 0 0 0 0 0 115827379.1561148 5844861.884603716 5844861.884603716 3568561.196111093 0 0 0 0 0 113202467.9445984 5364086.853998316 5364086.853998316 3079078.049994251 0 0 0 0 0 113194569.5131511 5551398.109452748 5551398.109452748 3659117.683485182 0 0 0 0 0 111170191.3442282 4861032.077796276 4861032.077796276 2690569.261205191 0 0 0 0 0 119524183.4495904 6418458.107070946 6418458.107070946 5120841.467736954 0 0 0 0 0 210510480.3283487 -79330829.00539353 -79330829.00539353 38007853.50889303 0 0 0 0 0 186108431.0631324 -60270557.74668831 -60270557.74668831 28579564.41038224 0 0 0 0 0 182696658.3224536 -49122653.67889718 -49122653.67889718 26450869.82224777 0 0 0 0 0 178851065.8378251 -39377163.19611534 -39377163.19611534 25236242.29834694 0 0 0 0 0 146937500.6159912 -878271.3287796725 -878271.3287796725 15815558.45714091 0 0 0 0 0 137463808.6285537 3705019.365990413 3705019.365990413 12166589.4584754 0 0 0 0 0 127241559.1245532 6490274.917509284 6490274.917509284 9123686.413332239 0 0 0 0 0 121415822.2302133 6820481.057723767 6820481.057723767 7252451.653509873 0 0 0 0 0 119743150.7374561 6629182.540848654 6629182.540848654 6089467.58209441 0 0 0 0 0 119442664.7469954 6797089.064023476 6797089.064023476 6012494.131425966 0 0 0 0 0 118610928.8920745 6540859.519466241 6540859.519466241 5093916.914676784 0 0 0 0 0 118030591.5730948 6508730.956905713 6508730.956905713 5084722.213126306 0 0 0 0 0 117473071.3885206 6467466.517225464 6467466.517225464 5069752.697807428 0 0 0 0 0 116937709.0508611 6418839.53608039 6418839.53608039 5051483.965360107 0 0 0 0 0 116423682.6070318 6364002.662292822 6364002.662292822 5030319.034946353 0 0 0 0 0 115796980.9707211 6105257.702042727 6105257.702042727 4289582.213527642 0 0 0 0 0 115335761.6837093 6048488.73580959 6048488.73580959 4284474.022000903 0 0 0 0 0 114891065.042646 5987746.291708762 5987746.291708762 4277927.949051501 0 0 0 0 0 114463692.5029625 5923682.283949019 5923682.283949019 4268724.524540183 0 0 0 0 0 114052569.6721031 5856650.776100328 5856650.776100328 4256739.115658388 0 0 0 0 0 113657050.0065286 5787207.910523217 5787207.910523217 4242228.773421997 0 0 0 0 0 112835701.1876343 5485140.978966552 5485140.978966552 3657619.218853085 0 0 0 0 0 112489804.138449 5417300.068958176 5417300.068958176 3653532.395802143 0 0 0 0 0 112156422.3718163 5348157.294547164 5348157.294547164 3647041.1349097 0 0 0 0 0 111834969.4116586 5278084.094577265 5278084.094577265 3638406.24783196 0 0 0 0 0 111524947.2521706 5207542.149496502 5207542.149496502 3627670.084461486 0 0 0 0 0 111173766.7333682 5000359.337382742 5000359.337382742 3163775.543754388 0 0 0 0 0 110887628.050484 4934612.773587787 4934612.773587787 3167171.104635558 0 0 0 0 0 110599032.0083285 4872234.639143117 4872234.639143117 3184624.911357759 0 0 0 0 0 110374280.2134563 4798878.927927083 4798878.927927083 3032136.377686687 0 0 0 0 0 110141723.9367269 4696434.466805194 4696434.466805194 2903022.465060456 0 0 0 0 0 109884655.5228255 4512964.808450682 4512964.808450682 2606704.820054365 0 0 0 0 0 209577850.7772672 -63477217.15555768 -63477217.15555768 31211917.16150185 0 0 0 0 0 175404234.4631473 -31285591.78635001 -31285591.78635001 24288721.76932452 0 0 0 0 0 171854401.1102877 -24625404.88463768 -24625404.88463768 23429684.23372468 0 0 0 0 0 168328794.0180781 -19106666.709542 -19106666.709542 22673054.00802173 0 0 0 0 0 164913938.5545874 -14511073.98387444 -14511073.98387444 21999312.3069378 0 0 0 0 0 161637347.5186655 -10674524.43931761 -10674524.43931761 21390955.21240335 0 0 0 0 0 158514417.7711772 -7466406.247616483 -7466406.247616483 20831690.40517025 0 0 0 0 0 155552140.0251968 -4780266.639728272 -4780266.639728272 20309678.87609404 0 0 0 0 0 152750207.6254456 -2531184.761471903 -2531184.761471903 19816736.20217329 0 0 0 0 0 150110231.6013319 -647756.9877501322 -647756.9877501322 19345884.86733408 0 0 0 0 0 144678479.1019196 568425.0394468815 568425.0394468815 15339175.98826912 0 0 0 0 0 143517101.0448387 2428196.176503977 2428196.176503977 16341881.9784874 0 0 0 0 0 141537032.5081326 3466993.638628503 3466993.638628503 15974564.72944594 0 0 0 0 0 139664962.8085142 4334579.162009446 4334579.162009446 15620848.17022477 0 0 0 0 0 136750769.824856 5027221.146569709 5027221.146569709 13365475.10812272 0 0 0 0 0 135206918.3284043 5596894.946464477 5596894.946464477 13100903.22309828 0 0 0 0 0 133740002.9825366 6066901.715121477 6066901.715121477 12846102.44816313 0 0 0 0 0 132347239.0619767 6451217.648836005 6451217.648836005 12599111.20651255 0 0 0 0 0 131025420.3249664 6762285.303769127 6762285.303769127 12358589.68914927 0 0 0 0 0 129772227.8710271 7010480.471929858 7010480.471929858 12124956.80095474 0 0 0 0 0 128582095.2884303 7203114.598266449 7203114.598266449 11894216.46050477 0 0 0 0 0 126192638.0214656 6650352.264047757 6650352.264047757 8989655.286473179 0 0 0 0 0 125953892.8229571 7296942.074355501 7296942.074355501 10056096.66378295 0 0 0 0 0 124985353.7217813 7373301.923185079 7373301.923185079 9892481.11377948 0 0 0 0 0 124064079.7440683 7421746.267341629 7421746.267341629 9734217.634173905 0 0 0 0 0 123182797.1957648 7446138.335709548 7446138.335709548 9582041.509124452 0 0 0 0 0 122344254.519681 7449949.583986932 7449949.583986932 9432003.947011493 0 0 0 0 0 120668614.168764 6826345.839419985 6826345.839419985 7177189.24758286 0 0 0 0 0 120564952.8821887 7237526.118685273 7237526.118685273 8069534.070826855 0 0 0 0 0 118279071.1043367 6392255.419213399 6392255.419213399 5113395.493044013 0 0 0 0 0 115482698.9986932 5993531.800941247 5993531.800941247 4290310.120268575 0 0 0 0 0 112915501.493793 5466103.065560735 5466103.065560735 3650433.052240132 0 0 0 0 0 112910148.3846377 5642694.491058119 5642694.491058119 4206127.766828179 0 0 0 0 0 110932346.2639353 4934858.173975641 4934858.173975641 3150451.621593664 0 0 0 0 0 119087198.9424453 6613553.416948527 6613553.416948527 6049472.290624162 0 0 0 0 0 226400383.8000121 -77168329.57774734 -77168329.57774734 33646054.0640635 0 0 0 0 0 193778787.0055859 -52749590.48736452 -52749590.48736452 26134499.39993904 0 0 0 0 0 188587257.2154436 -42859376.09975565 -42859376.09975565 26034530.81127245 0 0 0 0 0 183718346.6164284 -34125021.09397554 -34125021.09397554 25455645.69043442 0 0 0 0 0 146548994.743259 284519.0604506861 284519.0604506861 17570045.64643819 0 0 0 0 0 136896609.2485899 4400537.72462368 4400537.72462368 13825852.315075 0 0 0 0 0 126645834.4477678 6799824.734085203 6799824.734085203 10415314.31278131 0 0 0 0 0 120900646.7254215 6992199.504993523 6992199.504993523 8266227.711802813 0 0 0 0 0 119278318.3490308 6793972.748174362 6793972.748174362 7022412.689213924 0 0 0 0 0 119012409.9439485 6970730.351269129 6970730.351269129 6896526.970790334 0 0 0 0 0 118214021.9897633 6724675.359750666 6724675.359750666 5939314.63591384 0 0 0 0 0 117640274.0183457 6675248.164259625 6675248.164259625 5896023.730048986 0 0 0 0 0 117089679.3014865 6618270.990189582 6618270.990189582 5849456.504992967 0 0 0 0 0 116561259.0977988 6555150.672618561 6555150.672618561 5800953.696741773 0 0 0 0 0 116054568.7712087 6486931.77597049 6486931.77597049 5750641.267542114 0 0 0 0 0 115456235.6439225 6239014.740576782 6239014.740576782 4979222.665605361 0 0 0 0 0 115001524.8087184 6170050.935525476 6170050.935525476 4948243.611794331 0 0 0 0 0 114563861.1771677 6098287.519138812 6098287.519138812 4916997.183650088 0 0 0 0 0 114143348.9518696 6023828.561102726 6023828.561102726 4883609.49439319 0 0 0 0 0 113739242.5236919 5947302.188529351 5947302.188529351 4848750.661223426 0 0 0 0 0 113350706.4225071 5869040.242825027 5869040.242825027 4812296.18930776 0 0 0 0 0 112557524.3736509 5568333.633631361 5568333.633631361 4184985.340316055 0 0 0 0 0 112217764.8094061 5492977.664001579 5492977.664001579 4162175.04334069 0 0 0 0 0 111890529.1762712 5416914.568542557 5416914.568542557 4137786.179394351 0 0 0 0 0 111575243.5776141 5340383.962403577 5340383.962403577 4111803.834769779 0 0 0 0 0 111271394.7801209 5263882.480638929 5263882.480638929 4083746.244367968 0 0 0 0 0 110936040.9375916 5067039.581796827 5067039.581796827 3600956.93602792 0 0 0 0 0 110667045.0425252 4993711.997711436 4993711.997711436 3606561.203978178 0 0 0 0 0 110252243.5548427 4880289.28105021 4880289.28105021 3425587.009748115 0 0 0 0 0 110108544.3976764 4802493.435255321 4802493.435255321 3321667.662114578 0 0 0 0 0 109847858.472883 4621698.319308599 4621698.319308599 3039911.82893628 0 0 0 0 0 222227680.8427696 -62051446.79006437 -62051446.79006437 29565668.09935886 0 0 0 0 0 209535743.4320541 -55429812.73386475 -55429812.73386475 31589804.44273002 0 0 0 0 0 178884522.7678288 -26915434.51475654 -26915434.51475654 24892215.2316331 0 0 0 0 0 174338134.2409219 -20924144.59795471 -20924144.59795471 24382505.14880779 0 0 0 0 0 170068101.4415478 -15947972.67240961 -15947972.67240961 23893675.67775461 0 0 0 0 0 166075207.0637597 -11807507.22498069 -11807507.22498069 23412877.78157542 0 0 0 0 0 162345752.3953469 -8358143.251087372 -8358143.251087372 22935374.13256717 0 0 0 0 0 158867261.370694 -5480960.623665491 -5480960.623665491 22458620.91288496 0 0 0 0 0 155626602.9428759 -3079937.170339351 -3079937.170339351 21982869.16013622 0 0 0 0 0 152608682.0878373 -1075642.298247769 -1075642.298247769 21508022.4699029 0 0 0 0 0 149800110.3488524 596615.8692729839 596615.8692729839 21034942.08579724 0 0 0 0 0 144193943.302898 1581832.687148181 1581832.687148181 17078930.89400527 0 0 0 0 0 143090785.1508209 3342817.900397902 3342817.900397902 18031677.93792184 0 0 0 0 0 141027359.2272656 4257372.830178145 4257372.830178145 17620071.10624598 0 0 0 0 0 139090848.5789753 5015272.164555099 5015272.164555099 17218467.0058568 0 0 0 0 0 136217704.7823895 5651586.607591497 5651586.607591497 14950793.38134799 0 0 0 0 0 134634934.5709126 6141565.059180439 6141565.059180439 14631439.34709325 0 0 0 0 0 133140596.2089198 6540882.59248682 6540882.59248682 14319913.04599556 0 0 0 0 0 131729275.7085784 6862770.102799643 6862770.102799643 14016347.83429632 0 0 0 0 0 130395893.9719085 7118810.632002935 7118810.632002935 13723304.80316666 0 0 0 0 0 129137938.2874515 7317482.455540944 7317482.455540944 13433081.21987483 0 0 0 0 0 127950840.8489175 7467785.949406988 7467785.949406988 13146333.5150283 0 0 0 0 0 125599751.4947371 6923657.559369931 6923657.559369931 10227880.40373798 0 0 0 0 0 125371883.6519945 7532522.85324328 7532522.85324328 11225131.29927058 0 0 0 0 0 124408168.9745056 7577695.635864465 7577695.635864465 11014648.92803028 0 0 0 0 0 123494141.5751386 7598189.006909776 7598189.006909776 10809361.05645461 0 0 0 0 0 122621072.0907493 7596841.408126051 7596841.408126051 10613485.96394863 0 0 0 0 0 121791023.6031757 7578235.176088337 7578235.176088337 10420809.04621228 0 0 0 0 0 120163784.8215591 6977184.502479696 6977184.502479696 8150257.569389794 0 0 0 0 0 120065804.9020586 7363157.795653871 7363157.795653871 8984587.943339787 0 0 0 0 0 117858233.2763463 6550786.638398807 6550786.638398807 5969003.647469605 0 0 0 0 0 115126004.8063204 6107300.408877015 6107300.408877015 4989849.207620918 0 0 0 0 0 112621282.0259918 5542699.959670858 5542699.959670858 4205126.036066003 0 0 0 0 0 112617821.8411467 5708915.414699631 5708915.414699631 4735228.072495561 0 0 0 0 0 110691551.6270399 4989395.881298359 4989395.881298359 3595057.873990777 0 0 0 0 0 118632235.6410252 6760289.863373444 6760289.863373444 6944825.951887188 0 0 0 0 0 240124601.9260656 -72461044.36449637 -72461044.36449637 29751227.48169129 0 0 0 0 0 199770086.57926 -46918524.56493631 -46918524.56493631 25608515.36335405 0 0 0 0 0 193261153.4469205 -37062255.93200983 -37062255.93200983 25755296.70686499 0 0 0 0 0 186836748.5500129 -29206962.15081322 -29206962.15081322 25789429.2408838 0 0 0 0 0 145936672.4083703 1301827.42497364 1301827.42497364 19254019.51174766 0 0 0 0 0 136215083.6500648 4977367.320601186 4977367.320601186 15408136.77542073 0 0 0 0 0 126004559.6570208 7030077.819921679 7030077.819921679 11642886.13524047 0 0 0 0 0 120364423.6519136 7107295.956743035 7107295.956743035 9235883.116809355 0 0 0 0 0 118795677.5612008 6908437.355183894 6908437.355183894 7917204.471139229 0 0 0 0 0 118561542.0576396 7095538.334036704 7095538.334036704 7742207.532475863 0 0 0 0 0 117798918.5164435 6863948.231617937 6863948.231617937 6752776.806538715 0 0 0 0 0 117232803.8670984 6799362.053014991 6799362.053014991 6677394.555418215 0 0 0 0 0 116690357.2756553 6728515.587419062 6728515.587419062 6599817.824511223 0 0 0 0 0 116170672.7624487 6652926.452419681 6652926.452419681 6521840.044593386 0 0 0 0 0 115672638.7017654 6573152.324898006 6573152.324898006 6443146.549535778 0 0 0 0 0 115102542.9185975 6338208.337332017 6338208.337332017 5644473.793337706 0 0 0 0 0 114655494.9151848 6258981.144758479 6258981.144758479 5588901.480197681 0 0 0 0 0 114226060.3984652 6177702.692842229 6177702.692842229 5533083.044752794 0 0 0 0 0 113813441.6586321 6094468.315439819 6094468.315439819 5476641.047011777 0 0 0 0 0 113417291.0912116 6009856.780811412 6009856.780811412 5419470.349705108 0 0 0 0 0 113036689.9034603 5924212.35424157 5924212.35424157 5361733.356207738 0 0 0 0 0 112272028.0422962 5627679.80932813 5627679.80932813 4695059.716353507 0 0 0 0 0 111939145.8464004 5545967.835872569 5545967.835872569 4654120.713173597 0 0 0 0 0 111618711.4297454 5463967.028766289 5463967.028766289 4612419.05376617 0 0 0 0 0 111310236.0139241 5381721.863366487 5381721.863366487 4569990.029774978 0 0 0 0 0 111013270.1510715 5299772.455342703 5299772.455342703 4525683.416580897 0 0 0 0 0 110698030.1386272 5113180.607828757 5113180.607828757 4032350.913199252 0 0 0 0 0 110430654.5750657 5048846.973969174 5048846.973969174 4020948.061202756 0 0 0 0 0 110022113.8135006 4895676.250094348 4895676.250094348 3764316.510236493 0 0 0 0 0 109805645.5992395 4729555.732196897 4729555.732196897 3490615.050098132 0 0 0 0 0 235551898.520991 -59538463.07702625 -59538463.07702625 27277326.15360575 0 0 0 0 0 216190956.3789498 -49077423.06570298 -49077423.06570298 25040573.58620311 0 0 0 0 0 181104369.2619636 -22731832.43666169 -22731832.43666169 25681971.9020217 0 0 0 0 0 175839424.8128314 -17385498.36943648 -17385498.36943648 25478206.69900482 0 0 0 0 0 171010346.5272936 -12957945.82768949 -12957945.82768949 25199744.57348377 0 0 0 0 0 166577091.8108888 -9281790.203676313 -9281790.203676313 24860973.76137447 0 0 0 0 0 162505710.9773331 -6224690.563376925 -6224690.563376925 24474173.35682556 0 0 0 0 0 158763042.5266171 -3679853.89973445 -3679853.89973445 24050198.72688344 0 0 0 0 0 155318953.8414935 -1560766.120663721 -1560766.120663721 23597756.13093599 0 0 0 0 0 152145612.5730087 203630.2540737152 203630.2540737152 23124143.54851704 0 0 0 0 0 149218955.4050218 1671191.495155805 1671191.495155805 22635885.14262125 0 0 0 0 0 143515845.1229242 2454003.454848157 2454003.454848157 18738334.7801944 0 0 0 0 0 142475566.1912361 4112115.890951863 4112115.890951863 19627032.17791147 0 0 0 0 0 140357676.9411183 4908650.457865296 4908650.457865296 19170204.66675932 0 0 0 0 0 138382987.5050153 5564834.792971771 5564834.792971771 18719585.2463568 0 0 0 0 0 135564772.4485327 6152890.931352532 6152890.931352532 16443591.9362417 0 0 0 0 0 133959366.4442068 6569174.838247026 6569174.838247026 16069277.79112367 0 0 0 0 0 132450702.7467319 6904445.580769992 6904445.580769992 15704491.21008914 0 0 0 0 0 131033207.3439502 7171077.969908473 7171077.969908473 15353033.55322711 0 0 0 0 0 129700745.4355583 7378037.655004593 7378037.655004593 15005695.80757556 0 0 0 0 0 128447887.9110965 7533473.037401464 7533473.037401464 14661103.1275496 0 0 0 0 0 127265262.613815 7645538.754247686 7645538.754247686 14324340.57328276 0 0 0 0 0 124968708.5371925 7121566.290658051 7121566.290658051 11408112.67008058 0 0 0 0 0 124752301.9786933 7693715.000638687 7693715.000638687 12331733.13428809 0 0 0 0 0 123798065.9018546 7711801.150314365 7711801.150314365 12075278.07276443 0 0 0 0 0 122894942.6858812 7707951.353929272 7707951.353929272 11825489.85686661 0 0 0 0 0 122034072.5437285 7685794.790337932 7685794.790337932 11586657.79195369 0 0 0 0 0 121217507.5074321 7647390.79476492 7647390.79476492 11353194.6535271 0 0 0 0 0 119641692.950433 7074659.393719272 7074659.393719272 9079193.119231096 0 0 0 0 0 119547944.4721237 7436481.564526852 7436481.564526852 9853359.142063424 0 0 0 0 0 117422314.5863296 6664999.660737984 6664999.660737984 6795135.894322252 0 0 0 0 0 114759656.6626065 6187470.035672083 6187470.035672083 5665242.158633599 0 0 0 0 0 112321455.3274254 5594841.022413335 5594841.022413335 4741856.707903127 0 0 0 0 0 112319234.8565463 5751098.080316926 5751098.080316926 5245170.307787181 0 0 0 0 0 110433769.0070876 5021475.239833183 5021475.239833183 4020186.032637788 0 0 0 0 0 110243751.8605435 4987487.424962074 4987487.424962074 3961326.193639032 0 0 0 0 0 118160562.5880357 6858895.221176487 6858895.221176487 7803402.14985296 0 0 0 0 0 251402448.8048722 -67515721.27796194 -67515721.27796194 24019748.76974297 0 0 0 0 0 204061373.6100841 -39314029.83038383 -39314029.83038383 25543215.32580777 0 0 0 0 0 195910504.6573537 -31230754.65001471 -31230754.65001471 26140474.58310585 0 0 0 0 0 188714516.6583787 -24389813.22082285 -24389813.22082285 26518793.89140513 0 0 0 0 0 145127348.8819445 2169813.992875596 2169813.992875596 20852449.16567099 0 0 0 0 0 135431750.8795296 5435294.921786001 5435294.921786001 16898604.35583859 0 0 0 0 0 125330399.3384948 7184523.523353834 7184523.523353834 12808216.07054908 0 0 0 0 0 119813244.9882979 7169179.676299304 7169179.676299304 10156285.99793399 0 0 0 0 0 118300135.92202 6975736.355052561 6975736.355052561 8771921.491119569 0 0 0 0 0 118094411.6209966 7173916.334462289 7173916.334462289 8550337.706469283 0 0 0 0 0 117366231.7863508 6958829.527957363 6958829.527957363 7532474.283791608 0 0 0 0 0 116810404.4055357 6881627.082739154 6881627.082739154 7425417.994958641 0 0 0 0 0 116277995.7242901 6799695.749918735 6799695.749918735 7318833.675982448 0 0 0 0 0 115768301.0674516 6713503.92314951 6713503.92314951 7212025.189406273 0 0 0 0 0 115280577.541481 6624218.125892139 6624218.125892139 7105845.379797579 0 0 0 0 0 114738649.397441 6404434.360788458 6404434.360788458 6284034.85347615 0 0 0 0 0 114300327.399818 6316640.309095991 6316640.309095991 6204572.076846527 0 0 0 0 0 113879878.407988 6227338.487514066 6227338.487514066 6125139.801191536 0 0 0 0 0 113476253.0247273 6136881.70367836 6136881.70367836 6046272.506113475 0 0 0 0 0 113088816.9942431 6045605.060876629 6045605.060876629 5967644.046117961 0 0 0 0 0 112716832.700969 5953880.676433938 5953880.676433938 5889441.800831159 0 0 0 0 0 111980963.6393395 5664156.937267168 5664156.937267168 5186572.583183962 0 0 0 0 0 111655529.9935646 5577288.499678869 5577288.499678869 5128106.184075759 0 0 0 0 0 111342371.5762089 5490501.096679019 5490501.096679019 5070058.088128926 0 0 0 0 0 111041166.5979043 5403490.338486789 5403490.338486789 5013832.156701087 0 0 0 0 0 110751391.1901429 5317448.42780346 5317448.42780346 4959593.731947077 0 0 0 0 0 110452705.2370071 5143823.44744434 5143823.44744434 4430007.922642701 0 0 0 0 0 110217032.4616779 5080645.680278626 5080645.680278626 4419078.541950439 0 0 0 0 0 109750929.8422224 4807228.50099416 4807228.50099416 3933496.716280357 0 0 0 0 0 109997535.2872358 4978240.36474596 4978240.36474596 4235750.041835639 0 0 0 0 0 236367804.9588277 -52668913.48712046 -52668913.48712046 24938137.37014158 0 0 0 0 0 223598297.6839873 -50579450.90388959 -50579450.90388959 27841052.5565594 0 0 0 0 0 216119848.9130795 -41462303.5411246 -41462303.5411246 23903174.0745299 0 0 0 0 0 182275244.426814 -18736834.51133943 -18736834.51133943 26693476.73328961 0 0 0 0 0 176474561.0437475 -14061440.59082031 -14061440.59082031 26696698.09680478 0 0 0 0 0 171234673.2198089 -10188606.68854806 -10188606.68854806 26560638.58171031 0 0 0 0 0 166486600.6874257 -6974810.107480299 -6974810.107480299 26313646.90228052 0 0 0 0 0 162174931.8570168 -4304173.384626447 -4304173.384626447 25981962.94021446 0 0 0 0 0 158251793.8390906 -2083173.858604747 -2083173.858604747 25582754.16339328 0 0 0 0 0 154672063.9418693 -236381.2613152742 -236381.2613152742 25133728.53832106 0 0 0 0 0 151399003.2476944 1298534.249385293 1298534.249385293 24647426.04218097 0 0 0 0 0 148402110.4852489 2572836.238176827 2572836.238176827 24133690.50926796 0 0 0 0 0 142672526.9508763 3183387.58391697 3183387.58391697 20306815.39922756 0 0 0 0 0 141700675.0409811 4737309.359583786 4737309.359583786 21124114.20718865 0 0 0 0 0 139554394.3870073 5425250.868202155 5425250.868202155 20621569.6264842 0 0 0 0 0 137562198.0583645 5987832.134834326 5987832.134834326 20122356.1874072 0 0 0 0 0 134815648.6589809 6537619.147685935 6537619.147685935 17840041.93601611 0 0 0 0 0 133202066.231565 6887768.861971499 6887768.861971499 17415975.23153683 0 0 0 0 0 131691908.927647 7166016.704429774 7166016.704429774 17005242.63277521 0 0 0 0 0 130277877.2258267 7382403.759292966 7382403.759292966 16601817.82930128 0 0 0 0 0 128953671.7492509 7545300.982094828 7545300.982094828 16201459.90338407 0 0 0 0 0 127710916.1724068 7662974.710392596 7662974.710392596 15807664.07620382 0 0 0 0 0 126542539.7454034 7742167.491211887 7742167.491211887 15421135.63024129 0 0 0 0 0 124308823.607811 7247642.487438976 7247642.487438976 12528566.28783862 0 0 0 0 0 124100831.060401 7783283.721374149 7783283.721374149 13370765.76680279 0 0 0 0 0 123160832.6835433 7778524.11569078 7778524.11569078 13070318.73374818 0 0 0 0 0 122272988.2405253 7754454.347433524 7754454.347433524 12778141.15756658 0 0 0 0 0 121425186.6792013 7713544.512746215 7713544.512746215 12501173.87423869 0 0 0 0 0 120624617.0086135 7660325.739779757 7660325.739779757 12228826.42745676 0 0 0 0 0 119106250.742499 7121465.687463679 7121465.687463679 9961472.741924243 0 0 0 0 0 119015869.3343875 7460197.666955639 7460197.666955639 10673454.0614416 0 0 0 0 0 116974714.6851205 6737012.228203826 6737012.228203826 7584975.690082042 0 0 0 0 0 114386229.5078461 6235617.327172271 6235617.327172271 6314685.797869597 0 0 0 0 0 112017652.157238 5623598.640864281 5623598.640864281 5259528.298789513 0 0 0 0 0 112016031.7180368 5770221.002657074 5770221.002657074 5734675.186933094 0 0 0 0 0 110184990.0253106 5035532.814504794 5035532.814504794 4431300.262686675 0 0 0 0 0 117678971.8241191 6913436.429040286 6913436.429040286 8623013.632344337 0 0 0 0 0 267951024.3329838 -62059265.55421843 -62059265.55421843 19755865.38261376 0 0 0 0 0 205928220.9039283 -33013194.69568204 -33013194.69568204 25664425.89090485 0 0 0 0 0 197148252.6458206 -25822451.86727192 -25822451.86727192 26763713.54341917 0 0 0 0 0 189384197.755462 -19912462.02990363 -19912462.02990363 27461537.36714952 0 0 0 0 0 144158596.7888848 2888802.900468023 2888802.900468023 22354856.09858841 0 0 0 0 0 134563325.1797344 5778996.260750704 5778996.260750704 18296157.30388582 0 0 0 0 0 124629987.704525 7266764.470378757 7266764.470378757 13906438.35886079 0 0 0 0 0 119252631.7518557 7180357.447238898 7180357.447238898 11025190.29891335 0 0 0 0 0 117795156.9861245 6997656.846831135 6997656.846831135 9583107.424362713 0 0 0 0 0 117614783.913204 7208039.612741975 7208039.612741975 9315606.322540609 0 0 0 0 0 116922158.4351873 7012881.979933988 7012881.979933988 8275899.972455028 0 0 0 0 0 116376985.2510286 6925370.314802251 6925370.314802251 8140557.37846693 0 0 0 0 0 115855600.4897244 6833453.532566516 6833453.532566516 8004054.793761969 0 0 0 0 0 115357545.0869401 6738863.557480278 6738863.557480278 7869605.884424821 0 0 0 0 0 114881128.2428509 6642076.202662102 6642076.202662102 7737628.695622229 0 0 0 0 0 114366640.3589671 6439180.690309511 6439180.690309511 6896475.024137229 0 0 0 0 0 113938217.0333754 6344333.941948291 6344333.941948291 6793462.792093448 0 0 0 0 0 113527427.206652 6248559.168424336 6248559.168424336 6691687.351869195 0 0 0 0 0 113133499.5510365 6152263.320021699 6152263.320021699 6591246.800281134 0 0 0 0 0 112755597.8744253 6055741.10350691 6055741.10350691 6492108.590446518 0 0 0 0 0 112392872.0113685 5959268.055384899 5959268.055384899 6394268.52862111 0 0 0 0 0 111685885.5568833 5678839.942357489 5678839.942357489 5658324.545481985 0 0 0 0 0 111368423.5881421 5587969.745634795 5587969.745634795 5582397.410949766 0 0 0 0 0 111063010.2228052 5497885.702759639 5497885.702759639 5506642.269960479 0 0 0 0 0 110770200.9106297 5407896.287137114 5407896.287137114 5431536.305365128 0 0 0 0 0 110494143.2238614 5319654.971112964 5319654.971112964 5341226.730612309 0 0 0 0 0 110187580.4521634 5145832.376397743 5145832.376397743 4854372.851036065 0 0 0 0 0 109957611.8422496 5075676.981494605 5075676.981494605 4718370.453761191 0 0 0 0 0 109687659.5255026 4881585.567905489 4881585.567905489 4379790.874865016 0 0 0 0 0 251345383.4582117 -53021296.84698421 -53021296.84698421 21425465.16476098 0 0 0 0 0 224056522.8228678 -42597030.22750477 -42597030.22750477 26585092.69449493 0 0 0 0 0 217315898.1451583 -34056061.67312022 -34056061.67312022 24407579.0653974 0 0 0 0 0 182484638.6411256 -15043131.21890022 -15043131.21890022 27847070.18514798 0 0 0 0 0 176329224.2729155 -11019114.35257881 -11019114.35257881 27987702.8595934 0 0 0 0 0 170820887.7082753 -7685225.077355187 -7685225.077355187 27937698.62216642 0 0 0 0 0 165873455.2526718 -4917020.704135972 -4917020.704135972 27741352.45797759 0 0 0 0 0 161416601.9838221 -2616147.937146818 -2616147.937146818 27431232.54866603 0 0 0 0 0 157386444.2845113 -703510.871612653 -703510.871612653 27034308.76528476 0 0 0 0 0 153732047.5547246 886174.2069957439 886174.2069957439 26572531.34153109 0 0 0 0 0 150410314.7682027 2206409.775842709 2206409.775842709 26062102.54011108 0 0 0 0 0 147383841.8626867 3300933.527468676 3300933.527468676 25516843.11770616 0 0 0 0 0 141697471.0132364 3773077.977841219 3773077.977841219 21779408.4880037 0 0 0 0 0 140784714.517898 5219430.151109949 5219430.151109949 22508517.66784601 0 0 0 0 0 138631798.4174482 5807590.96915276 5807590.96915276 21959873.40974926 0 0 0 0 0 136640822.5582393 6285636.670579299 6285636.670579299 21413474.32329876 0 0 0 0 0 133986224.8263939 6811481.396775811 6811481.396775811 19143614.27925818 0 0 0 0 0 132378811.9514201 7102912.126941089 7102912.126941089 18672564.45719649 0 0 0 0 0 130877363.387528 7329875.305059629 7329875.305059629 18211448.62144895 0 0 0 0 0 129473869.2832673 7501295.650906809 7501295.650906809 17756643.24639922 0 0 0 0 0 128163686.4992527 7625459.571034719 7625459.571034719 17307449.09844086 0 0 0 0 0 126938339.4215763 7711170.445306174 7711170.445306174 16868283.40738524 0 0 0 0 0 125790067.3177658 7763338.126936721 7763338.126936721 16438172.56377365 0 0 0 0 0 123626494.4474961 7305321.041749115 7305321.041749115 13581602.4003645 0 0 0 0 0 123425436.0158139 7805472.766925357 7805472.766925357 14339404.53920337 0 0 0 0 0 122503801.4066491 7781896.950962541 7781896.950962541 13997261.95556406 0 0 0 0 0 121633907.7684198 7741913.323436514 7741913.323436514 13666601.12434806 0 0 0 0 0 120806071.1766589 7687921.885767391 7687921.885767391 13351866.69408585 0 0 0 0 0 120023245.8343373 7621197.185786812 7621197.185786812 13044774.57722684 0 0 0 0 0 118561988.1120866 7120985.587707937 7120985.587707937 10794769.32696406 0 0 0 0 0 118473621.3042582 7437023.65504645 7437023.65504645 11442043.52361929 0 0 0 0 0 116518506.678097 6768845.720434552 6768845.720434552 8341060.257781425 0 0 0 0 0 114007827.1800907 6253378.431083554 6253378.431083554 6936872.064149479 0 0 0 0 0 111711569.472091 5630054.516096462 5630054.516096462 5756878.72070522 0 0 0 0 0 111709822.4513169 5767436.888949793 5767436.888949793 6203073.340497416 0 0 0 0 0 110033212.502301 5082829.201388218 5082829.201388218 4825392.919610796 0 0 0 0 0 117188175.4776037 6924823.479404191 6924823.479404191 9401198.158645654 0 0 0 0 0 273519965.8393776 -52672044.2101659 -52672044.2101659 17478340.86407628 0 0 0 0 0 235459533.7350419 -43405578.37779193 -43405578.37779193 24572936.87350712 0 0 0 0 0 206478466.8229101 -26796362.13913595 -26796362.13913595 26379128.1540876 0 0 0 0 0 197192022.2930785 -20766735.16885601 -20766735.16885601 27736295.85816743 0 0 0 0 0 189046313.0540507 -15799165.86399996 -15799165.86399996 28608378.57565775 0 0 0 0 0 143054331.4997879 3459314.630573339 3459314.630573339 23751074.72324481 0 0 0 0 0 133633904.1789246 6015602.804838694 6015602.804838694 19598924.7364269 0 0 0 0 0 123908218.6608563 7280221.226044916 7280221.226044916 14930621.88512783 0 0 0 0 0 118685362.0570328 7144647.103521663 7144647.103521663 11842074.10368085 0 0 0 0 0 117284960.9566337 6977988.203361213 6977988.203361213 10349809.68270237 0 0 0 0 0 117126500.2424892 7200997.534931564 7200997.534931564 10040009.84458093 0 0 0 0 0 116467538.6082288 7027090.514201611 7027090.514201611 8983917.815229727 0 0 0 0 0 115934833.841556 6931002.630884878 6931002.630884878 8816934.667208629 0 0 0 0 0 115426247.7182364 6832051.217113047 6832051.217113047 8653975.860132121 0 0 0 0 0 114940528.5861907 6730821.869336159 6730821.869336159 8493937.462386539 0 0 0 0 0 114476603.0047258 6628539.68970301 6628539.68970301 8337915.26953691 0 0 0 0 0 113989016.7366308 6443997.504459445 6443997.504459445 7480193.051221441 0 0 0 0 0 113571205.0400399 6343608.311027496 6343608.311027496 7354781.109348648 0 0 0 0 0 113170922.894912 6242861.320687353 6242861.320687353 7231571.675406895 0 0 0 0 0 112787333.4190495 6142181.642520318 6142181.642520318 7110731.90701985 0 0 0 0 0 112419468.6562804 6041688.812228213 6041688.812228213 6992076.756948561 0 0 0 0 0 112066480.2528537 5941671.356737663 5941671.356737663 6875620.197898896 0 0 0 0 0 111388202.3197993 5672467.857069108 5672467.857069108 6109607.811823561 0 0 0 0 0 111079212.7529362 5578235.435307652 5578235.435307652 6017394.582745883 0 0 0 0 0 110782052.1298537 5484691.389292059 5484691.389292059 5925792.790610638 0 0 0 0 0 110493949.6969306 5391242.109687997 5391242.109687997 5836306.022851786 0 0 0 0 0 110237441.3986606 5306728.522689244 5306728.522689244 5649233.209225398 0 0 0 0 0 109843334.1347679 5106219.677633808 5106219.677633808 5121206.738070253 0 0 0 0 0 109635618.3859053 4946150.323011023 4946150.323011023 4893283.902269543 0 0 0 0 0 262872223.0369659 -39424619.06145418 -39424619.06145418 19243760.39267081 0 0 0 0 0 222734032.2689302 -34986358.12263934 -34986358.12263934 26334872.13055564 0 0 0 0 0 216625047.9949774 -27096448.70406479 -27096448.70406479 25356822.70790598 0 0 0 0 0 181866655.4918382 -11697083.8014832 -11697083.8014832 29103352.89774845 0 0 0 0 0 175510110.1841185 -8298586.898397659 -8298586.898397659 29309476.42774625 0 0 0 0 0 169858575.0893238 -5476151.446155968 -5476151.446155968 29294755.75067323 0 0 0 0 0 164811424.0402955 -3128496.7568291 -3128496.7568291 29111050.73639949 0 0 0 0 0 160289146.9281346 -1173968.054652766 -1173968.054652766 28798031.79726685 0 0 0 0 0 156219981.1150334 452624.9935533042 452624.9935533042 28384292.13320182 0 0 0 0 0 152546605.9697812 1805622.706040249 1805622.706040249 27896977.1316301 0 0 0 0 0 149220077.6208692 2928598.647540437 2928598.647540437 27354644.96418132 0 0 0 0 0 146199299.8507642 3859042.462976252 3859042.462976252 26772662.69069816 0 0 0 0 0 140611276.3258416 4224635.957644795 4224635.957644795 23142179.92643452 0 0 0 0 0 139755957.7673247 5564303.32137401 5564303.32137401 23771981.5246059 0 0 0 0 0 137615584.9469446 6062926.801205435 6062926.801205435 23178586.04789213 0 0 0 0 0 135642725.0375496 6465889.563689862 6465889.563689862 22587256.57561927 0 0 0 0 0 133087213.2531357 6976350.904823869 6976350.904823869 20343189.11490794 0 0 0 0 0 131493560.6632351 7215584.017545061 7215584.017545061 19826748.46589851 0 0 0 0 0 130010598.7918047 7398064.748199793 7398064.748199793 19316916.0548053 0 0 0 0 0 128630840.400289 7531845.756275701 7531845.756275701 18812214.46028003 0 0 0 0 0 127342351.243982 7625511.085674056 7625511.085674056 18322700.95998602 0 0 0 0 0 126140175.3423481 7684406.778482602 7684406.778482602 17842423.21071594 0 0 0 0 0 125014570.3415128 7714529.674381581 7714529.674381581 17375849.71193782 0 0 0 0 0 122928699.4648028 7298703.735291363 7298703.735291363 14563506.51976401 0 0 0 0 0 122734608.4688415 7765668.535742132 7765668.535742132 15234464.70917672 0 0 0 0 0 121833236.6498856 7727213.672775417 7727213.672775417 14854293.84212861 0 0 0 0 0 120985039.3141035 7675010.922447119 7675010.922447119 14488031.58617851 0 0 0 0 0 120175899.2261061 7609425.528124304 7609425.528124304 14140928.4089277 0 0 0 0 0 119415156.1721012 7534262.546566851 7534262.546566851 13800613.70134967 0 0 0 0 0 118014362.75466 7076018.407767091 7076018.407767091 11577459.92826387 0 0 0 0 0 117926005.7071992 7371045.10451983 7371045.10451983 12159220.25519794 0 0 0 0 0 116056932.2157888 6762903.829768513 6762903.829768513 9056830.336185651 0 0 0 0 0 113626369.8944916 6242154.06926603 6242154.06926603 7530477.357663811 0 0 0 0 0 111404011.8474984 5615180.237199993 5615180.237199993 6232885.080596169 0 0 0 0 0 111402203.3772458 5743959.13397376 5743959.13397376 6649540.130462797 0 0 0 0 0 110004486.8961746 5200631.996473886 5200631.996473886 5375758.592945951 0 0 0 0 0 116694556.0224274 6897338.790942382 6897338.790942382 10136125.84379425 0 0 0 0 0 283538431.0221875 -44437016.82210822 -44437016.82210822 15256036.52283221 0 0 0 0 0 232982453.2923911 -34415930.53299858 -34415930.53299858 23440006.69102402 0 0 0 0 0 205662009.6005086 -21130116.87517891 -21130116.87517891 27511066.35831289 0 0 0 0 0 196135091.4639231 -16206487.93680443 -16206487.93680443 28964024.64063736 0 0 0 0 0 187822022.6803029 -12133117.88051415 -12133117.88051415 29884357.13854094 0 0 0 0 0 141844645.9225774 3885694.889422867 3885694.889422867 25030990.15641631 0 0 0 0 0 132658408.0542265 6149558.487940644 6149558.487940644 20795793.16883028 0 0 0 0 0 123176787.7472415 7230670.522872017 7230670.522872017 15878686.48254389 0 0 0 0 0 118120582.6118544 7066310.882863581 7066310.882863581 12604099.26531696 0 0 0 0 0 116772117.4851504 6918655.864769123 6918655.864769123 11069372.80182922 0 0 0 0 0 116632782.4783408 7154848.072090772 7154848.072090772 10718302.32023845 0 0 0 0 0 116007444.4828386 7004886.216086825 7004886.216086825 9648669.651997618 0 0 0 0 0 115487777.2732889 6902076.323043093 6902076.323043093 9456210.959189497 0 0 0 0 0 114992903.2073687 6797466.973647065 6797466.973647065 9266911.789343277 0 0 0 0 0 114520382.707398 6692038.488114933 6692038.488114933 9084753.334330656 0 0 0 0 0 114068919.9517004 6585079.300289758 6585079.300289758 8904683.306164863 0 0 0 0 0 113608033.6064863 6420668.743025431 6420668.743025431 8034504.185557402 0 0 0 0 0 113201550.091434 6316202.250430719 6316202.250430719 7887490.887509299 0 0 0 0 0 112812318.6552195 6212004.04557896 6212004.04557896 7744267.623496572 0 0 0 0 0 112439378.6503852 6108103.689249229 6108103.689249229 7603970.004037637 0 0 0 0 0 112081936.0242411 6004879.862159176 6004879.862159176 7466730.379425542 0 0 0 0 0 111739247.9806645 5902490.407756545 5902490.407756545 7332559.699650714 0 0 0 0 0 111089327.8313087 5646429.726894923 5646429.726894923 6540530.920327839 0 0 0 0 0 110788533.0952241 5549620.540129334 5549620.540129334 6434420.592456074 0 0 0 0 0 110497652.5128785 5454882.965127937 5454882.965127937 6331353.528467399 0 0 0 0 0 110203210.9220461 5362965.27310625 5362965.27310625 6210518.522896472 0 0 0 0 0 109943914.5561612 5240792.653679718 5240792.653679718 5868807.052855885 0 0 0 0 0 109574363.5526571 5001972.02623389 5001972.02623389 5403443.464897714 0 0 0 0 0 109758087.5077473 5139174.229073937 5139174.229073937 5608535.952688945 0 0 0 0 0 267848529.6260933 -32754474.09902083 -32754474.09902083 18311708.12079298 0 0 0 0 0 247284206.1445221 -33838302.28772884 -33838302.28772884 21936401.21842904 0 0 0 0 0 219864561.230539 -27786386.65656154 -27786386.65656154 26599891.27904102 0 0 0 0 0 214708581.9458814 -20777943.04221509 -20777943.04221509 26941149.57504544 0 0 0 0 0 180538735.5971915 -8748317.821106637 -8748317.821106637 30403020.76775272 0 0 0 0 0 174120493.7868447 -5929478.214168369 -5929478.214168369 30615789.82377258 0 0 0 0 0 168435355.3191079 -3578996.220103198 -3578996.220103198 30596314.06775709 0 0 0 0 0 163378398.7298852 -1616596.964079011 -1616596.964079011 30396880.46163076 0 0 0 0 0 158861128.0735068 20358.98087971559 20358.98087971559 30057106.3440967 0 0 0 0 0 154806154.6021539 1387075.118001879 1387075.118001879 29615895.75315766 0 0 0 0 0 151160865.2866751 2524753.670695968 2524753.670695968 29093668.53966235 0 0 0 0 0 147867927.30225 3470755.048640266 3470755.048640266 28514928.74093207 0 0 0 0 0 144885224.6102698 4254991.554634815 4254991.554634815 27895231.10924184 0 0 0 0 0 139439138.7829528 4543513.433265725 4543513.433265725 24388725.05973341 0 0 0 0 0 138636976.0255646 5778438.368983204 5778438.368983204 24908128.08557474 0 0 0 0 0 136526705.9482655 6198489.141843679 6198489.141843679 24272936.64703405 0 0 0 0 0 134586124.4920584 6535677.5851158 6535677.5851158 23640052.92468652 0 0 0 0 0 132134500.4052008 7040118.050627867 7040118.050627867 21428637.65054574 0 0 0 0 0 130566847.7250748 7234291.626379606 7234291.626379606 20865477.55968771 0 0 0 0 0 129108066.3071305 7378352.320185925 7378352.320185925 20312937.14611878 0 0 0 0 0 127755966.0418582 7481582.894536901 7481582.894536901 19771580.90165477 0 0 0 0 0 126498227.01805 7550080.88502844 7550080.88502844 19242050.84634483 0 0 0 0 0 125323926.8408731 7587122.749659537 7587122.749659537 18723867.25309391 0 0 0 0 0 124222944.1357017 7598722.346670707 7598722.346670707 18222604.12361119 0 0 0 0 0 122222016.4677181 7233714.386936847 7233714.386936847 15474097.50060351 0 0 0 0 0 122032727.6863032 7667813.939119679 7667813.939119679 16053750.7933169 0 0 0 0 0 121155062.7026489 7618982.605281689 7618982.605281689 15641293.58541082 0 0 0 0 0 120329656.7685373 7557497.435883099 7557497.435883099 15241678.87020921 0 0 0 0 0 119546727.6095855 7485050.905939529 7485050.905939529 14861617.17032397 0 0 0 0 0 118805567.1623329 7402641.072830299 7402641.072830299 14487815.29686661 0 0 0 0 0 117467314.0932386 6991028.908818223 6991028.908818223 12306876.38372763 0 0 0 0 0 117375655.9817529 7264882.730788758 7264882.730788758 12823130.69253148 0 0 0 0 0 115593098.7943351 6721820.141315334 6721820.141315334 9736680.579497926 0 0 0 0 0 113244264.4745103 6203903.380231357 6203903.380231357 8094735.61094104 0 0 0 0 0 111096838.9357641 5580480.468307707 5580480.468307707 6687190.522364055 0 0 0 0 0 111094008.3492872 5701006.435970277 5701006.435970277 7073281.808096925 0 0 0 0 0 116197516.1293816 6832048.480518361 6832048.480518361 10826905.90835376 0 0 0 0 0 290611022.2805915 -35100697.86447747 -35100697.86447747 12187102.49808331 0 0 0 0 0 229540321.3027818 -27253988.18866395 -27253988.18866395 25321158.09085655 0 0 0 0 0 203688923.425943 -16121651.52160091 -16121651.52160091 28952963.4096996 0 0 0 0 0 194149443.4974865 -12227781.18696809 -12227781.18696809 30330663.53656448 0 0 0 0 0 185866353.7785808 -8961664.960385798 -8961664.960385798 31204626.9223248 0 0 0 0 0 140555725.9335138 4174615.93007684 4174615.93007684 26186932.68460233 0 0 0 0 0 131645901.7636044 6188098.868528637 6188098.868528637 21884295.45669883 0 0 0 0 0 122439218.0507135 7123140.935087405 7123140.935087405 16750999.31230403 0 0 0 0 0 117556482.1921702 6947959.726994738 6947959.726994738 13306240.94167565 0 0 0 0 0 116259255.6158595 6823365.070911113 6823365.070911113 11742379.00416011 0 0 0 0 0 116136259.9653828 7072843.449977488 7072843.449977488 11352909.77873022 0 0 0 0 0 115542343.7761366 6947040.129254338 6947040.129254338 10273529.40120656 0 0 0 0 0 115038315.9046508 6840172.13118553 6840172.13118553 10056177.79446277 0 0 0 0 0 114557866.0354939 6732574.217210802 6732574.217210802 9846062.479510562 0 0 0 0 0 114099019.3787905 6623568.43561493 6623568.43561493 9638919.017571405 0 0 0 0 0 113661117.9015325 6514311.685700023 6514311.685700023 9437161.590224035 0 0 0 0 0 113225377.1843537 6370735.03181651 6370735.03181651 8557821.767752437 0 0 0 0 0 112830725.4296942 6263787.057624569 6263787.057624569 8391382.177062776 0 0 0 0 0 112453002.1917966 6157268.919386528 6157268.919386528 8228846.82523312 0 0 0 0 0 112091206.2911847 6051495.2134283 6051495.2134283 8070410.638988896 0 0 0 0 0 111744555.4509829 5946638.964230443 5946638.964230443 7915870.70407124 0 0 0 0 0 111412216.8917793 5842950.083592001 5842950.083592001 7765101.743174089 0 0 0 0 0 110790220.8774706 5602378.266527846 5602378.266527846 6947773.751236161 0 0 0 0 0 110498319.0106196 5504891.414123082 5504891.414123082 6826759.91215285 0 0 0 0 0 110225645.1534867 5406899.858183351 5406899.858183351 6713734.184386003 0 0 0 0 0 109799305.2863603 5239904.440684112 5239904.440684112 6284002.651778808 0 0 0 0 0 109660495.5620133 5168928.460921387 5168928.460921387 6070075.168433795 0 0 0 0 0 109495098.0747384 5040460.720945626 5040460.720945626 5878331.367603924 0 0 0 0 0 273737263.3771905 -25392002.83544232 -25392002.83544232 17305962.29245857 0 0 0 0 0 252892103.171128 -22570503.37826163 -22570503.37826163 20741297.88959605 0 0 0 0 0 215959404.029441 -21665277.64918974 -21665277.64918974 27841816.3998897 0 0 0 0 0 211526254.3479297 -15534273.92841919 -15534273.92841919 28470306.54695643 0 0 0 0 0 178629094.5061043 -6221688.746807914 -6221688.746807914 31685593.16674805 0 0 0 0 0 172265021.6056207 -3924819.289287155 -3924819.289287155 31861853.35180067 0 0 0 0 0 166640893.8196742 -1997354.06521167 -1997354.06521167 31806154.14005296 0 0 0 0 0 161645515.1379439 -383931.7680110453 -383931.7680110453 31568040.1992254 0 0 0 0 0 157185874.3728552 970444.5681136767 970444.5681136767 31192386.98676412 0 0 0 0 0 153197624.2015297 2104285.233279312 2104285.233279312 30712155.16437136 0 0 0 0 0 149617880.0288137 3052221.917965261 3052221.917965261 30152118.38582649 0 0 0 0 0 146391539.3981311 3841644.488662118 3841644.488662118 29533768.59702056 0 0 0 0 0 143472241.5003545 4497428.303272909 4497428.303272909 28876511.70248019 0 0 0 0 0 138204198.9719231 4737338.241440025 4737338.241440025 25511570.57302008 0 0 0 0 0 137450351.6321776 5870933.874317138 5870933.874317138 25914106.00483038 0 0 0 0 0 135384662.6550119 6223065.72483772 6223065.72483772 25240441.75257138 0 0 0 0 0 133488165.9781271 6504821.552707949 6504821.552707949 24569672.98222798 0 0 0 0 0 131142777.6691124 7010625.090437217 7010625.090437217 22399920.76252532 0 0 0 0 0 129610648.1455502 7167729.707336414 7167729.707336414 21797781.81227024 0 0 0 0 0 128189154.8507651 7281702.801697074 7281702.801697074 21207798.90372152 0 0 0 0 0 126868654.6997814 7359989.685534931 7359989.685534931 20633415.73221684 0 0 0 0 0 125643448.8380223 7406755.850155899 7406755.850155899 20065424.70698721 0 0 0 0 0 124498628.1695329 7427552.72184617 7427552.72184617 19515838.88509602 0 0 0 0 0 123430711.0642368 7425648.738695541 7425648.738695541 18980803.09138292 0 0 0 0 0 121512540.8699521 7114100.058469404 7114100.058469404 16309767.89608526 0 0 0 0 0 121326169.1066825 7517736.264164626 7517736.264164626 16799655.67491958 0 0 0 0 0 120474923.712258 7461510.726341182 7461510.726341182 16355854.46471921 0 0 0 0 0 119674395.9011365 7394203.39931842 7394203.39931842 15927297.70148237 0 0 0 0 0 118915885.496657 7317456.537924506 7317456.537924506 15515381.03032585 0 0 0 0 0 118201375.1786025 7233074.28675492 7233074.28675492 15112280.57641384 0 0 0 0 0 116921451.9623492 6867749.299281531 6867749.299281531 12981195.61966352 0 0 0 0 0 116827631.5393606 7123578.82046485 7123578.82046485 13437241.94002734 0 0 0 0 0 115129014.839177 6647263.386955279 6647263.386955279 10371634.25323667 0 0 0 0 0 112863102.1374363 6140466.68835758 6140466.68835758 8628350.421045307 0 0 0 0 0 110790893.971944 5526769.812606415 5526769.812606415 7118681.267404487 0 0 0 0 0 110787001.1168605 5639566.751369103 5639566.751369103 7473906.409283545 0 0 0 0 0 115703700.4237288 6733055.101299146 6733055.101299146 11471963.4382143 0 0 0 0 0 296546694.9201058 -25297446.79168276 -25297446.79168276 10709447.53148132 0 0 0 0 0 223797122.8575835 -20230250.01457793 -20230250.01457793 25668444.91091571 0 0 0 0 0 200743677.9101666 -11915404.23707292 -11915404.23707292 30417430.76345571 0 0 0 0 0 191435180.5257251 -8871815.907495314 -8871815.907495314 31700304.90797729 0 0 0 0 0 183338263.279924 -6296433.330072083 -6296433.330072083 32491612.35590196 0 0 0 0 0 139210861.4940631 4335197.257391524 4335197.257391524 27214209.63673003 0 0 0 0 0 130607496.7351303 6138542.340157825 6138542.340157825 22859537.7238443 0 0 0 0 0 121703693.8575292 6963670.51713331 6963670.51713331 17542115.20616935 0 0 0 0 0 116998562.0530879 6794376.154971237 6794376.154971237 13948799.34280777 0 0 0 0 0 115751094.2154294 6694335.108223498 6694335.108223498 12365461.45666353 0 0 0 0 0 115640619.564628 6957357.812282899 6957357.812282899 11940074.34319479 0 0 0 0 0 115078508.8057197 6857980.258110135 6857980.258110135 10858009.79625406 0 0 0 0 0 114589621.4947112 6748840.293479201 6748840.293479201 10619287.95227458 0 0 0 0 0 114123009.6815023 6638633.514779515 6638633.514779515 10384744.10551381 0 0 0 0 0 113678322.2022346 6528144.50552689 6528144.50552689 10156605.72855735 0 0 0 0 0 113254368.2463639 6417972.055574805 6417972.055574805 9935100.253231721 0 0 0 0 0 112843095.2701225 6296267.255226342 6296267.255226342 9050432.651156757 0 0 0 0 0 112460709.3126618 6188008.835759691 6188008.835759691 8865270.656170134 0 0 0 0 0 112094715.3585965 6080465.605699651 6080465.605699651 8684994.742224606 0 0 0 0 0 111744316.3178146 5973910.783979055 5973910.783979055 8509661.183224844 0 0 0 0 0 111408622.5370337 5868532.606414986 5868532.606414986 8339203.376886375 0 0 0 0 0 111086869.6616089 5764414.362749813 5764414.362749813 8173027.902818738 0 0 0 0 0 110492267.3371826 5540519.7329049 5540519.7329049 7332108.7802541 0 0 0 0 0 110211754.4866233 5441744.586896381 5441744.586896381 7202667.443874546 0 0 0 0 0 109945559.09529 5348012.585508953 5348012.585508953 7029650.024837907 0 0 0 0 0 109558325.9629202 5180703.527341893 5180703.527341893 6553065.230178141 0 0 0 0 0 109409108.1369474 5059140.831874648 5059140.831874648 6352734.187048577 0 0 0 0 0 276117372.937851 -17941124.79434833 -17941124.79434833 15800734.01518858 0 0 0 0 0 259194106.1269068 -17721241.7076951 -17721241.7076951 20651442.53944876 0 0 0 0 0 241677600.1020336 -15007724.5415864 -15007724.5415864 22627319.81962406 0 0 0 0 0 211057506.6287301 -16196988.78352276 -16196988.78352276 28807778.13576185 0 0 0 0 0 207543691.4923243 -11028544.36963865 -11028544.36963865 30240821.98324605 0 0 0 0 0 176263015.9196867 -4120202.964877172 -4120202.964877172 32895067.67506333 0 0 0 0 0 170041481.0106921 -2279416.079455393 -2279416.079455393 33009553.0742658 0 0 0 0 0 164554911.1118995 -727479.6332667203 -727479.6332667203 32896779.6379175 0 0 0 0 0 159679077.9112303 584468.4925120338 584468.4925120338 32608838.26253998 0 0 0 0 0 155333095.0911039 1688784.473406706 1688784.473406706 32185500.64995521 0 0 0 0 0 151445877.2469803 2619142.875866774 2619142.875866774 31663908.81160375 0 0 0 0 0 147961790.1467513 3399953.481035993 3399953.481035993 31063420.21651124 0 0 0 0 0 144825481.250425 4053348.399217108 4053348.399217108 30405601.57013749 0 0 0 0 0 141990674.0908043 4599047.341626325 4599047.341626325 29712822.80579204 0 0 0 0 0 136927169.5478186 4814774.530828887 4814774.530828887 26505987.26136151 0 0 0 0 0 136217505.6878528 5852080.413286663 5852080.413286663 26787350.77467785 0 0 0 0 0 134206896.7466251 6147183.110625476 6147183.110625476 26079842.65204169 0 0 0 0 0 132362379.056871 6382775.697856741 6382775.697856741 25376588.70914369 0 0 0 0 0 130130784.5799923 6897965.782456485 6897965.782456485 23257455.4619711 0 0 0 0 0 128640814.6258848 7024033.106870617 7024033.106870617 22618921.33565246 0 0 0 0 0 127257800.4710889 7113800.935320028 7113800.935320028 21998858.34835627 0 0 0 0 0 125971027.9745782 7171286.781899054 7171286.781899054 21394376.4152485 0 0 0 0 0 124780500.7886835 7201845.077818437 7201845.077818437 20795988.97177819 0 0 0 0 0 123672384.011151 7210200.216001527 7210200.216001527 20215358.41491809 0 0 0 0 0 122638580.719323 7200090.794017452 7200090.794017452 19653116.47649061 0 0 0 0 0 120806386.5997545 6945378.447546273 6945378.447546273 17066806.51041055 0 0 0 0 0 120619767.5215052 7320097.387666672 7320097.387666672 17471238.34948934 0 0 0 0 0 119796449.6925864 7259569.561981073 7259569.561981073 16999775.6050356 0 0 0 0 0 119021291.9858864 7189951.614378369 7189951.614378369 16544660.94342771 0 0 0 0 0 118291402.6978454 7112173.337959384 7112173.337959384 16105055.77589618 0 0 0 0 0 117601906.9878239 7027729.009268406 7027729.009268406 15678573.63620891 0 0 0 0 0 116384141.4390126 6711670.884287711 6711670.884287711 13598268.9463192 0 0 0 0 0 116283142.565875 6948448.776631752 6948448.776631752 13995315.34166645 0 0 0 0 0 114667640.2000124 6542771.450014165 6542771.450014165 10967067.47238544 0 0 0 0 0 112484617.3566229 6053436.071780319 6053436.071780319 9129944.563482054 0 0 0 0 0 110486508.9521659 5455043.280260755 5455043.280260755 7527274.601758665 0 0 0 0 0 110481702.1847122 5560768.431929369 5560768.431929369 7853760.982643548 0 0 0 0 0 109755808.2541703 5259080.444713803 5259080.444713803 6824128.225577045 0 0 0 0 0 115211788.207352 6602535.831933567 6602535.831933567 12070780.64421431 0 0 0 0 0 297163783.8613966 -16323831.08063969 -16323831.08063969 7851499.304588303 0 0 0 0 0 217514920.5009745 -14632406.42107601 -14632406.42107601 27709154.95492971 0 0 0 0 0 197160897.8818896 -8385597.694359885 -8385597.694359885 31917173.36123549 0 0 0 0 0 188196002.1000794 -6091761.663087387 -6091761.663087387 33032637.92657807 0 0 0 0 0 180388525.921507 -4121170.324147978 -4121170.324147978 33690321.57994073 0 0 0 0 0 137832525.6683914 4377498.816868928 4377498.816868928 28107727.14039607 0 0 0 0 0 129561533.9926701 6008896.801474249 6008896.801474249 23719819.06969016 0 0 0 0 0 120973965.2472601 6756449.877402023 6756449.877402023 18251601.55580692 0 0 0 0 0 116440063.4449246 6604694.588457988 6604694.588457988 14535867.14490618 0 0 0 0 0 115246849.4236118 6535408.695135483 6535408.695135483 12941562.01413834 0 0 0 0 0 115148291.1519806 6811693.085987656 6811693.085987656 12483237.26459359 0 0 0 0 0 114615974.5278111 6738940.35848897 6738940.35848897 11401670.38221483 0 0 0 0 0 114141816.289086 6628896.948150744 6628896.948150744 11140674.532158 0 0 0 0 0 113690502.9490222 6518219.878300617 6518219.878300617 10884890.37643293 0 0 0 0 0 113261092.5627949 6408113.088503861 6408113.088503861 10637659.52812608 0 0 0 0 0 112851325.4955213 6298378.67686921 6298378.67686921 10398192.47095875 0 0 0 0 0 112462742.2551731 6198952.686894231 6198952.686894231 9511488.321179433 0 0 0 0 0 112092854.6319555 6090576.356736565 6090576.356736565 9308956.393822031 0 0 0 0 0 111738907.4037537 5983191.599522894 5983191.599522894 9112360.165259838 0 0 0 0 0 111400050.7581037 5876978.277659986 5876978.277659986 8921611.146809319 0 0 0 0 0 111075441.9145272 5772074.349041085 5772074.349041085 8736168.307649393 0 0 0 0 0 110764377.7699844 5668664.568236846 5668664.568236846 8556120.051832745 0 0 0 0 0 110194818.5948725 5462160.738461188 5462160.738461188 7696409.279545819 0 0 0 0 0 109915212.4723364 5363205.716336863 5363205.716336863 7527821.561355277 0 0 0 0 0 109693092.1757645 5278442.389468183 5278442.389468183 7316435.737094426 0 0 0 0 0 109489304.433994 5178771.522761961 5178771.522761961 7032767.43845436 0 0 0 0 0 109314652.8765622 5051516.336543551 5051516.336543551 6817804.803368021 0 0 0 0 0 264512663.2540652 -11097512.79923563 -11097512.79923563 14895768.16456085 0 0 0 0 0 256767625.0540828 -12239387.09698729 -12239387.09698729 21405688.2464667 0 0 0 0 0 240859051.54102 -15360974.98665714 -15360974.98665714 22530062.39607814 0 0 0 0 0 234533708.7087296 -8850262.014141856 -8850262.014141856 25617332.95698822 0 0 0 0 0 205799412.502162 -11836521.88607234 -11836521.88607234 30364798.07212882 0 0 0 0 0 202891865.1461314 -7481241.660326722 -7481241.660326722 31842454.09273686 0 0 0 0 0 173560038.1455297 -2426480.110128744 -2426480.110128744 33995540.77864996 0 0 0 0 0 167553368.1725237 -981768.9477957654 -981768.9477957654 34027535.97270725 0 0 0 0 0 162246059.1067472 249838.0850221403 249838.0850221403 33845701.81878368 0 0 0 0 0 157540175.6508922 1296970.767440423 1296970.767440423 33499490.13631487 0 0 0 0 0 153344561.7729042 2188889.382836116 2188889.382836116 33029187.05158049 0 0 0 0 0 149594147.4971186 2943619.746300288 2943619.746300288 32462061.04712662 0 0 0 0 0 146229980.162373 3581692.086659219 3581692.086659219 31820242.97775669 0 0 0 0 0 143201954.6874402 4120060.893090336 4120060.893090336 31127524.73810396 0 0 0 0 0 140467587.4765837 4573356.382747296 4573356.382747296 30403027.65286185 0 0 0 0 0 135626376.1401553 4786232.104401465 4786232.104401465 27369970.25929504 0 0 0 0 0 134956584.3231309 5732830.940724312 5732830.940724312 27528013.55128711 0 0 0 0 0 133009765.3112829 5980842.585984945 5980842.585984945 26791855.80494151 0 0 0 0 0 131224840.7833765 6178752.976003657 6178752.976003657 26062205.32980831 0 0 0 0 0 129104042.0078871 6707381.331530877 6707381.331530877 24000114.66929559 0 0 0 0 0 127660161.1025396 6811147.051851277 6811147.051851277 23339091.59955655 0 0 0 0 0 126322425.4189752 6882614.800922127 6882614.800922127 22691508.71029986 0 0 0 0 0 125078019.8683889 6924593.789651038 6924593.789651038 22055725.45912515 0 0 0 0 0 123924819.7764924 6943247.814729317 6943247.814729317 21429687.72500566 0 0 0 0 0 122853124.8425889 6944409.266722124 6944409.266722124 20826270.79369476 0 0 0 0 0 121854088.3301765 6928689.471668311 6928689.471668311 20240615.65987493 0 0 0 0 0 120107011.4067997 6733111.34449634 6733111.34449634 17748626.12373461 0 0 0 0 0 119920818.2756856 7080882.136445426 7080882.136445426 18067550.10382015 0 0 0 0 0 119124820.6330431 7019232.774391849 7019232.774391849 17573449.367548 0 0 0 0 0 118376581.5667714 6949222.484923539 6949222.484923539 17095671.58734228 0 0 0 0 0 117672491.5500399 6872475.727964958 6872475.727964958 16633769.51980243 0 0 0 0 0 117009778.4926693 6789985.254381346 6789985.254381346 16188703.38058433 0 0 0 0 0 115847278.5017907 6522777.516801184 6522777.516801184 14167144.18599527 0 0 0 0 0 115751094.5693452 6746563.235764732 6746563.235764732 14503693.16208523 0 0 0 0 0 114209892.0402731 6409386.125471086 6409386.125471086 11517951.97283452 0 0 0 0 0 112110191.1579797 5944893.867531332 5944893.867531332 9599633.487274189 0 0 0 0 0 110185906.5475642 5368066.539313575 5368066.539313575 7913858.25130686 0 0 0 0 0 110180206.0783013 5466534.26695212 5466534.26695212 8212396.152783621 0 0 0 0 0 114728180.8980675 6443041.131987837 6443041.131987837 12622208.79406048 0 0 0 0 0 303569235.9258946 -7613450.456817023 -7613450.456817023 7603531.127580981 0 0 0 0 0 211587739.6935597 -10333322.08591643 -10333322.08591643 29446916.56684807 0 0 0 0 0 193112383.8916819 -5556844.957916162 -5556844.957916162 33318862.4082631 0 0 0 0 0 184576298.4325453 -3883897.773282814 -3883897.773282814 34240330.02101173 0 0 0 0 0 177141644.2948315 -2398691.541849306 -2398691.541849306 34766309.0463476 0 0 0 0 0 136439936.7807698 4313178.492779638 4313178.492779638 28866141.49033331 0 0 0 0 0 128515416.7401599 5808146.135585556 5808146.135585556 24469819.40243805 0 0 0 0 0 120254464.145051 6507649.363551342 6507649.363551342 18882222.68153856 0 0 0 0 0 115893485.2250057 6387022.013301363 6387022.013301363 15073119.85999548 0 0 0 0 0 114753920.0411405 6349103.244736986 6349103.244736986 13465388.81112676 0 0 0 0 0 114661073.6314479 6638492.829106358 6638492.829106358 12978370.95603592 0 0 0 0 0 114156817.9922192 6593497.236802521 6593497.236802521 11902999.81932358 0 0 0 0 0 113699508.993638 6483775.078170186 6483775.078170186 11620545.33810337 0 0 0 0 0 113263464.940707 6374359.136576816 6374359.136576816 11347418.27888381 0 0 0 0 0 112848751.750661 6265684.707633622 6265684.707633622 11083119.70161893 0 0 0 0 0 112453071.9252656 6157367.63402428 6157367.63402428 10826710.88440716 0 0 0 0 0 112086180.6453152 6080742.949958054 6080742.949958054 9940677.627527833 0 0 0 0 0 111728831.6145881 5973384.49762961 5973384.49762961 9722303.674204979 0 0 0 0 0 111387003.7353304 5867200.237177273 5867200.237177273 9510692.407820078 0 0 0 0 0 111059636.592263 5762308.967014169 5762308.967014169 9305613.165994721 0 0 0 0 0 110746162.9432935 5658924.722021358 5658924.722021358 9106609.467523856 0 0 0 0 0 110446066.2495626 5556996.700484019 5556996.700484019 8913440.665375045 0 0 0 0 0 109901232.885249 5368131.839280525 5368131.839280525 8038005.760548231 0 0 0 0 0 109626595.1325025 5266428.596713727 5266428.596713727 7866331.767822315 0 0 0 0 0 109403006.0154782 5173540.28898477 5173540.28898477 7518170.543498518 0 0 0 0 0 109219918.7840102 5038440.291260321 5038440.291260321 7297588.159431394 0 0 0 0 0 275634514.7735682 -6164407.482854131 -6164407.482854131 11282634.96158346 0 0 0 0 0 255502681.8506049 -5844297.803174956 -5844297.803174956 18583136.69009179 0 0 0 0 0 241834760.0682347 -5221951.8072243 -5221951.8072243 23907795.90558048 0 0 0 0 0 228742337.4825939 -5358004.734099021 -5358004.734099021 28516751.54007105 0 0 0 0 0 200358576.3709642 -8307381.765060782 -8307381.765060782 31793025.73336393 0 0 0 0 0 197959129.1929385 -4616552.702281829 -4616552.702281829 33362045.61398551 0 0 0 0 0 170621450.0440817 -1117815.622106819 -1117815.622106819 34947591.31309248 0 0 0 0 0 164874704.542039 -6710.12818366615 -6710.12818366615 34891128.45971234 0 0 0 0 0 159795219.4631024 951431.4696207356 951431.4696207356 34636834.43138856 0 0 0 0 0 155286450.1414351 1777747.32422918 1777747.32422918 34232845.76272054 0 0 0 0 0 151273842.5300759 2487036.854350129 2487036.854350129 33712016.0786657 0 0 0 0 0 147678748.7615872 3094506.964872216 3094506.964872216 33101263.41872844 0 0 0 0 0 144454553.7106564 3613038.838464887 3613038.838464887 32419592.4975356 0 0 0 0 0 141550717.2655327 4057914.334135659 4057914.334135659 31698558.65289754 0 0 0 0 0 138926380.5299219 4434936.737935753 4434936.737935753 30948366.0127244 0 0 0 0 0 134318665.188862 4662530.592576432 4662530.592576432 28102430.69529148 0 0 0 0 0 133684041.6183821 5524453.215365962 5524453.215365962 28137442.36193834 0 0 0 0 0 131807427.0449217 5734794.350206412 5734794.350206412 27378749.083496 0 0 0 0 0 130087248.8076458 5902845.338271569 5902845.338271569 26627425.80182208 0 0 0 0 0 128074396.0671388 6450872.489371181 6450872.489371181 24638757.90569483 0 0 0 0 0 126679164.8934957 6536120.892174617 6536120.892174617 23956072.53463956 0 0 0 0 0 125387111.29851 6591594.29220203 6591594.29220203 23278237.97446619 0 0 0 0 0 124186763.9149908 6623309.740728674 6623309.740728674 22616590.56066195 0 0 0 0 0 123075823.582026 6637162.470423608 6637162.470423608 21973324.72067337 0 0 0 0 0 122043287.1916716 6634308.779643761 6634308.779643761 21349448.07615825 0 0 0 0 0 121081115.8063451 6616851.195900326 6616851.195900326 20744555.87359624 0 0 0 0 0 119418594.0728422 6482092.693601849 6482092.693601849 18355521.69421827 0 0 0 0 0 119231607.6668825 6804995.915087544 6804995.915087544 18591079.53039953 0 0 0 0 0 118464433.9847126 6744420.807433189 6744420.807433189 18077112.49622371 0 0 0 0 0 117743552.9041216 6676552.710551719 6676552.710551719 17580389.09316345 0 0 0 0 0 117065674.1646607 6602518.6617258 6602518.6617258 17100189.5760032 0 0 0 0 0 116427446.6922101 6523551.90930086 6523551.90930086 16637221.23722102 0 0 0 0 0 115321475.0740716 6305574.250358207 6305574.250358207 14682860.30391567 0 0 0 0 0 115220985.6922261 6513535.730234447 6513535.730234447 14953176.95208699 0 0 0 0 0 113760396.8439641 6251892.33122292 6251892.33122292 12027476.53027994 0 0 0 0 0 111741130.5869893 5816548.773858605 5816548.773858605 10037299.79888753 0 0 0 0 0 109890101.7044668 5269749.578853094 5269749.578853094 8280912.590049275 0 0 0 0 0 109884311.5342717 5358642.088934365 5358642.088934365 8529969.395212924 0 0 0 0 0 114252023.4896305 6258846.452782763 6258846.452782763 13126825.60326178 0 0 0 0 0 280046597.2961431 -485513.1781907282 -485513.1781907282 5317531.745362507 0 0 0 0 0 255456564.327326 -5375968.492448085 -5375968.492448085 18447485.43105919 0 0 0 0 0 207189482.1210902 -7020829.440913192 -7020829.440913192 31105305.58502734 0 0 0 0 0 188751413.1544473 -3376104.048840835 -3376104.048840835 34540460.40492238 0 0 0 0 0 180724273.6189478 -2173477.917102 -2173477.917102 35318566.71944387 0 0 0 0 0 173695410.8327161 -1098118.861208339 -1098118.861208339 35679093.96186592 0 0 0 0 0 135050077.4577785 4154084.153721835 4154084.153721835 29489622.51093498 0 0 0 0 0 127481653.8818399 5542806.97250651 5542806.97250651 25104050.64295577 0 0 0 0 0 119548747.8395993 6222404.311920326 6222404.311920326 19435110.19655171 0 0 0 0 0 115364588.2482085 6144326.058899173 6144326.058899173 15551782.22079312 0 0 0 0 0 114268911.0663824 6139189.034521974 6139189.034521974 13943692.30424749 0 0 0 0 0 114181337.3258787 6441029.590305913 6441029.590305913 13430330.81142603 0 0 0 0 0 113702707.1308238 6423172.42025904 6423172.42025904 12361629.35731231 0 0 0 0 0 113262220.3949973 6315288.211003846 6315288.211003846 12060940.61153898 0 0 0 0 0 112842440.8686693 6208817.357057142 6208817.357057142 11772499.73374651 0 0 0 0 0 112442342.4736618 6102449.872275082 6102449.872275082 11491678.15590258 0 0 0 0 0 112060958.513399 5996958.55505146 5996958.55505146 11220396.00202334 0 0 0 0 0 111714725.6480216 5943494.283858045 5943494.283858045 10338038.48431049 0 0 0 0 0 111369924.5624086 5838205.11028992 5838205.11028992 10105328.24368438 0 0 0 0 0 111040102.2469326 5734124.033462233 5734124.033462233 9880286.691502403 0 0 0 0 0 110724335.316057 5631440.471677411 5631440.471677411 9662675.240965655 0 0 0 0 0 110421528.9223549 5530130.717670033 5530130.717670033 9449723.038738804 0 0 0 0 0 110133534.5696461 5429988.049409804 5429988.049409804 9244652.360464703 0 0 0 0 0 109655881.567848 5262137.148934296 5262137.148934296 8325423.541677686 0 0 0 0 0 109239253.3167218 5088491.764259513 5088491.764259513 7931782.022345579 0 0 0 0 0 109141738.9903147 5018998.797961648 5018998.797961648 7844765.614983218 0 0 0 0 0 264155505.6264488 -802817.3004895492 -802817.3004895492 12824099.01486259 0 0 0 0 0 246100579.7133367 202129.0150770053 202129.0150770053 19858814.40096496 0 0 0 0 0 224264786.9824366 -3658828.64425425 -3658828.64425425 28528473.76990065 0 0 0 0 0 215755510.2777912 -5582225.488047951 -5582225.488047951 30739683.93482339 0 0 0 0 0 195036383.0524432 -5616044.874180868 -5616044.874180868 33337240.92877118 0 0 0 0 0 193034082.2544571 -2670179.055644594 -2670179.055644594 34538534.01538619 0 0 0 0 0 167539584.068089 -155023.1904468002 -155023.1904468002 35726752.42569019 0 0 0 0 0 162092991.4809618 676050.5068174396 676050.5068174396 35587534.36693485 0 0 0 0 0 157261754.6577122 1403215.649645676 1403215.649645676 35258336.73500187 0 0 0 0 0 152981401.730965 2045607.140158409 2045607.140158409 34799248.19549526 0 0 0 0 0 149160368.7672791 2603192.484619683 2603192.484619683 34229427.46255151 0 0 0 0 0 145737325.2307816 3087346.419113177 3087346.419113177 33573624.88856005 0 0 0 0 0 142665776.3113228 3514218.949122114 3514218.949122114 32865078.47638029 0 0 0 0 0 139893829.8601684 3883487.675110755 3883487.675110755 32122522.54596267 0 0 0 0 0 137385958.8107823 4197390.869530282 4197390.869530282 31351322.73446084 0 0 0 0 0 133018666.2169115 4454941.19527748 4454941.19527748 28704419.70212245 0 0 0 0 0 132414820.1128773 5238876.754636157 5238876.754636157 28619120.59281402 0 0 0 0 0 130612288.5913817 5419329.094319297 5419329.094319297 27843154.22522823 0 0 0 0 0 128961476.6019353 5564254.879041587 5564254.879041587 27077433.18663096 0 0 0 0 0 127052335.0066187 6133791.291362302 6133791.291362302 25169122.81659274 0 0 0 0 0 125704219.6365252 6204295.741032051 6204295.741032051 24464422.99959207 0 0 0 0 0 124460419.4963897 6249934.643455933 6249934.643455933 23762752.29611611 0 0 0 0 0 123310219.2909091 6278735.10787132 6278735.10787132 23085137.08112433 0 0 0 0 0 122242122.9298811 6290258.256778356 6290258.256778356 22426396.23879996 0 0 0 0 0 121249212.4498992 6286899.22151053 6286899.22151053 21787085.26068597 0 0 0 0 0 120324135.9172891 6270664.045265936 6270664.045265936 21167347.80855471 0 0 0 0 0 118744331.0022541 6197049.461347229 6197049.461347229 18887890.64230427 0 0 0 0 0 118556003.2056276 6497021.488256683 6497021.488256683 19042824.56524373 0 0 0 0 0 117817798.1777193 6439748.014637622 6439748.014637622 18512743.41052726 0 0 0 0 0 117124506.6674969 6375833.425556299 6375833.425556299 18000574.65094942 0 0 0 0 0 116472215.9402816 6306414.50676051 6306414.50676051 17506039.91821421 0 0 0 0 0 115858093.407049 6232637.215009337 6232637.215009337 17030436.7644545 0 0 0 0 0 114810499.3634618 6068388.748966263 6068388.748966263 15151301.96869653 0 0 0 0 0 114705914.5009751 6260413.391128454 6260413.391128454 15353306.58472832 0 0 0 0 0 113317230.2460006 6071131.869143243 6071131.869143243 12496328.01187767 0 0 0 0 0 111378672.1828218 5670292.993963376 5670292.993963376 10443053.0261011 0 0 0 0 0 109587763.0631042 5159189.178128879 5159189.178128879 8622963.858346649 0 0 0 0 0 109580666.6704198 5232450.413689699 5232450.413689699 8782346.00582015 0 0 0 0 0 113785343.6731853 6051714.004040231 6051714.004040231 13585986.92197468 0 0 0 0 0 246100579.7133367 202129.0150770053 202129.0150770053 19858814.40096496 0 0 0 0 0 203641123.5607311 -4426570.298275781 -4426570.298275781 33231981.8738962 0 0 0 0 0 184181129.4344915 -1785142.948660056 -1785142.948660056 35678122.24049252 0 0 0 0 0 176664256.4176607 -902174.4081185822 -902174.4081185822 36213450.69573601 0 0 0 0 0 170211396.8257103 -184296.5598208026 -184296.5598208026 36384378.5909144 0 0 0 0 0 133678880.3726413 3912718.493593872 3912718.493593872 29979687.28670016 0 0 0 0 0 126460318.8595044 5221871.395359606 5221871.395359606 25630967.3053615 0 0 0 0 0 118860219.7739958 5905743.619713999 5905743.619713999 19911472.27378621 0 0 0 0 0 114844577.719067 5880045.319113575 5880045.319113575 15981734.07282324 0 0 0 0 0 113794808.2115597 5907661.308419941 5907661.308419941 14372890.71648817 0 0 0 0 0 113711132.6220839 6221724.73694172 6221724.73694172 13834035.22652449 0 0 0 0 0 113258404.9766093 6231090.004941724 6231090.004941724 12777932.41024835 0 0 0 0 0 112833503.0511723 6126859.858849007 6126859.858849007 12463723.90480513 0 0 0 0 0 112428891.0863672 6023561.517110292 6023561.517110292 12158872.62876554 0 0 0 0 0 112043574.6074177 5920966.917234605 5920966.917234605 11864327.98462157 0 0 0 0 0 111676392.253384 5819174.593398524 5819174.593398524 11579497.52896198 0 0 0 0 0 111349371.8727725 5788944.434096416 5788944.434096416 10703785.66752839 0 0 0 0 0 111017130.8066861 5686710.920100019 5686710.920100019 10458220.67157054 0 0 0 0 0 110699296.1375855 5585657.359863797 5585657.359863797 10221955.04962779 0 0 0 0 0 110394923.2100019 5485634.389155052 5485634.389155052 9993973.28653452 0 0 0 0 0 110100242.32571 5387840.486595131 5387840.486595131 9770320.181958247 0 0 0 0 0 109811707.2709703 5294003.473926079 5294003.473926079 9542013.525476301 0 0 0 0 0 109357909.8926122 5119592.532427683 5119592.532427683 8311150.555052971 0 0 0 0 0 109045126.8620297 4985325.438004149 4985325.438004149 8339115.960981635 0 0 0 0 0 228894636.3646398 357615.8964780438 357615.8964780438 25247329.11297216 0 0 0 0 0 210897011.6669613 -2749315.40268483 -2749315.40268483 31558781.74491609 0 0 0 0 0 195431417.8365114 -3194589.317812681 -3194589.317812681 34670569.2173325 0 0 0 0 0 187483347.7161243 -1345476.728883673 -1345476.728883673 35697966.49186656 0 0 0 0 0 164399708.749687 483295.3720210734 483295.3720210734 36337638.6394528 0 0 0 0 0 159240178.6401162 1075957.117162636 1075957.117162636 36107641.25569182 0 0 0 0 0 154710927.2760469 1634614.728877826 1634614.728877826 35707891.39806627 0 0 0 0 0 150659960.9719993 2123822.730605335 2123822.730605335 35199869.61366651 0 0 0 0 0 147039007.9277511 2551669.276125284 2551669.276125284 34568881.05865331 0 0 0 0 0 143806550.3235318 2951572.77610577 2951572.77610577 33888523.88678479 0 0 0 0 0 140888171.2650371 3307189.543957264 3307189.543957264 33164443.75519343 0 0 0 0 0 138248854.9642516 3610905.567565206 3610905.567565206 32402981.63111064 0 0 0 0 0 135864089.9874533 3872821.470842969 3872821.470842969 31610612.71056832 0 0 0 0 0 131736254.2383737 4175355.048871959 4175355.048871959 29178615.87523729 0 0 0 0 0 131160032.2714979 4886604.878149583 4886604.878149583 28976829.36665744 0 0 0 0 0 129435344.3750205 5044489.289089249 5044489.289089249 28188812.84679941 0 0 0 0 0 127855559.4132397 5173462.724856818 5173462.724856818 27417310.06185401 0 0 0 0 0 126044660.6948632 5765575.714156749 5765575.714156749 25591233.9022586 0 0 0 0 0 124749366.8126811 5826373.287160926 5826373.287160926 24864001.15829181 0 0 0 0 0 123556615.6926296 5869903.823419083 5869903.823419083 24153085.43315373 0 0 0 0 0 122452669.1812947 5896973.029449659 5896973.029449659 23462670.50910177 0 0 0 0 0 121427858.2773934 5909248.379291686 5909248.379291686 22792584.2041404 0 0 0 0 0 120474787.1314879 5908247.771177508 5908247.771177508 22142278.26530928 0 0 0 0 0 119586770.9135176 5895745.395281058 5895745.395281058 21511848.60030574 0 0 0 0 0 118087090.8191913 5883005.923740523 5883005.923740523 19347685.02524459 0 0 0 0 0 117896930.5355278 6161671.187799259 6161671.187799259 19424831.73729967 0 0 0 0 0 117187708.9848328 6109670.84035343 6109670.84035343 18882158.71087797 0 0 0 0 0 116521642.8122571 6051702.602836662 6051702.602836662 18358236.68594764 0 0 0 0 0 115895071.5048778 5988812.088798556 5988812.088798556 17851187.51156826 0 0 0 0 0 115305709.7510968 5922133.101402582 5922133.101402582 17361876.72893737 0 0 0 0 0 114312165.5939888 5807827.243977636 5807827.243977636 15556805.05155759 0 0 0 0 0 114206025.5279648 5989277.841872565 5989277.841872565 15705036.75429533 0 0 0 0 0 112885323.2903526 5870849.905219352 5870849.905219352 12921207.95427197 0 0 0 0 0 111024015.1852875 5507987.979960037 5507987.979960037 10816547.29366798 0 0 0 0 0 109339437.2234591 5018898.875264768 5018898.875264768 8878114.992825732 0 0 0 0 0 109082831.1166219 5021472.728874177 5021472.728874177 8385537.280651819 0 0 0 0 0 109093361.3811411 4961110.435031242 4961110.435031242 8732579.846502461 0 0 0 0 0 113330208.125869 5824302.38506537 5824302.38506537 13998768.10186834 0 0 0 0 0 214885342.5097482 259702.3359637724 259702.3359637724 28821122.64839 0 0 0 0 0 200199718.3556176 -2534463.042999469 -2534463.042999469 34128568.48308412 0 0 0 0 0 179299791.9749275 -610761.4838462343 -610761.4838462343 36394198.22208983 0 0 0 0 0 172564056.3850938 -55362.25364420623 -55362.25364420623 36760515.10889154 0 0 0 0 0 166736937.7204013 397920.4671644018 397920.4671644018 36906929.79787148 0 0 0 0 0 132330966.4033889 3603020.97301687 3603020.97301687 30340350.98457602 0 0 0 0 0 125459717.5467351 4854455.725473646 4854455.725473646 26052046.30153018 0 0 0 0 0 118191678.8703881 5562692.367087001 5562692.367087001 20313270.65966861 0 0 0 0 0 114340177.1754787 5596281.942364881 5596281.942364881 16349799.25538005 0 0 0 0 0 113333852.6079602 5657818.497641259 5657818.497641259 14752810.66820297 0 0 0 0 0 113251840.0331804 5982854.084051601 5982854.084051601 14196692.45656312 0 0 0 0 0 112823204.7013417 6019839.6183114 6019839.6183114 13154176.50406544 0 0 0 0 0 112413522.0636007 5919901.925998713 5919901.925998713 12826057.59366938 0 0 0 0 0 112024083.9582143 5821068.615355726 5821068.615355726 12507729.59470138 0 0 0 0 0 111653554.1158946 5722964.570204614 5722964.570204614 12200723.30232145 0 0 0 0 0 111300651.3128662 5626077.055544026 5626077.055544026 11904523.34812688 0 0 0 0 0 110991407.9226963 5619022.16282121 5619022.16282121 11037978.16355545 0 0 0 0 0 110671633.0189388 5520683.232913018 5520683.232913018 10781119.50285063 0 0 0 0 0 110365304.6266007 5423526.112953571 5423526.112953571 10533179.00315697 0 0 0 0 0 110073337.9214308 5327176.204057827 5327176.204057827 10290742.1177527 0 0 0 0 0 109795462.6805198 5231041.93691805 5231041.93691805 10057393.25387708 0 0 0 0 0 109355044.9704201 5039120.434547072 5039120.434547072 9485365.489616076 0 0 0 0 0 108916498.5877229 4906828.219434947 4906828.219434947 8731608.673362695 0 0 0 0 0 204029191.909533 371751.0418091989 371751.0418091989 31813711.72855799 0 0 0 0 0 190084982.6024218 -1818503.248481442 -1818503.248481442 35017098.48805435 0 0 0 0 0 185364884.5641478 -2216972.76782223 -2216972.76782223 35435974.23034565 0 0 0 0 0 181965938.7392579 -318579.1078094695 -318579.1078094695 36112577.62246004 0 0 0 0 0 161231663.5230733 739692.3382608809 739692.3382608809 36619531.84943609 0 0 0 0 0 156378933.3507693 1260582.442037869 1260582.442037869 36461972.82839645 0 0 0 0 0 152166309.5292613 1680200.66671159 1680200.66671159 36002846.61824687 0 0 0 0 0 148340229.401724 2009609.061551347 2009609.061551347 35395397.51764865 0 0 0 0 0 144963276.1890843 2383881.473357712 2383881.473357712 34751429.33087866 0 0 0 0 0 141894775.510989 2719252.512805048 2719252.512805048 34072659.86652274 0 0 0 0 0 139140848.751013 2998665.574388845 2998665.574388845 33307860.15753827 0 0 0 0 0 136640503.4185943 3244265.128965354 3244265.128965354 32515378.78144788 0 0 0 0 0 134382173.1925547 3498391.537064465 3498391.537064465 31767825.95602439 0 0 0 0 0 130482870.7336267 3833938.788814653 3833938.788814653 29529169.80445958 0 0 0 0 0 129930459.262437 4478937.214872104 4478937.214872104 29214878.90768189 0 0 0 0 0 128284761.388454 4620819.041193869 4620819.041193869 28421747.46736816 0 0 0 0 0 126776098.1318616 4738712.515973615 4738712.515973615 27647584.52125509 0 0 0 0 0 125056958.5557338 5352218.611798231 5352218.611798231 25901960.82315058 0 0 0 0 0 123819944.6274549 5412761.421622937 5412761.421622937 25167642.45251887 0 0 0 0 0 122676938.4579168 5456027.399695263 5456027.399695263 24449871.9164392 0 0 0 0 0 121618995.2779458 5484897.768097906 5484897.768097906 23752896.53674651 0 0 0 0 0 120636920.3438561 5500416.890612744 5500416.890612744 23075610.72814906 0 0 0 0 0 119723368.9879379 5504112.896570027 5504112.896570027 22418408.8711912 0 0 0 0 0 118872032.0475098 5497434.094445918 5497434.094445918 21781274.08918104 0 0 0 0 0 117449515.6064746 5544497.720263179 5544497.720263179 19736776.19110519 0 0 0 0 0 117256898.4279656 5803675.249819472 5803675.249819472 19739765.51622715 0 0 0 0 0 116576401.6120716 5758667.70557442 5758667.70557442 19187586.74368115 0 0 0 0 0 115937395.488173 5708316.594048394 5708316.594048394 18654086.88656165 0 0 0 0 0 115335800.2370529 5653684.562695506 5653684.562695506 18139381.9375768 0 0 0 0 0 114770001.06524 5594529.895563377 5594529.895563377 17641150.6186524 0 0 0 0 0 113826493.7652484 5529407.553207655 5529407.553207655 15913515.81608848 0 0 0 0 0 113716921.9570863 5699547.485670617 5699547.485670617 16009199.92950323 0 0 0 0 0 112463646.1882022 5651655.794349532 5651655.794349532 13306261.86594483 0 0 0 0 0 110677900.6020637 5331329.180499562 5331329.180499562 11158083.33626947 0 0 0 0 0 109220443.8948522 5010478.836276943 5010478.836276943 9112230.990712482 0 0 0 0 0 109077813.8602364 5022718.192678045 5022718.192678045 8952913.97637433 0 0 0 0 0 112888475.6228689 5580225.524777366 5580225.524777366 14367238.58747267 0 0 0 0 0 194112850.8470158 573471.2707687707 573471.2707687707 34083728.45165734 0 0 0 0 0 175132093.8248858 167004.6028556635 167004.6028556635 36848399.65267111 0 0 0 0 0 168870067.2572206 430671.8729931501 430671.8729931501 37075601.18961654 0 0 0 0 0 163680310.0163877 274524.9556182918 274524.9556182918 37152105.15681729 0 0 0 0 0 131022382.8120999 3232773.938392989 3232773.938392989 30577657.01248479 0 0 0 0 0 124495686.0594281 4453410.39019587 4453410.39019587 26373178.64462847 0 0 0 0 0 117545288.5741154 5198064.237867168 5198064.237867168 20643430.05859972 0 0 0 0 0 113849356.0945535 5294391.884549868 5294391.884549868 16665074.31692255 0 0 0 0 0 112888184.3526689 5391688.621065963 5391688.621065963 15087829.82846437 0 0 0 0 0 112808209.0341246 5728042.065367737 5728042.065367737 14512699.69259337 0 0 0 0 0 112398518.9753723 5791349.653659483 5791349.653659483 13490730.94112867 0 0 0 0 0 112004761.7204382 5697061.752955088 5697061.752955088 13148477.27586146 0 0 0 0 0 111630207.8841798 5603689.562494997 5603689.562494997 12818250.75017471 0 0 0 0 0 111273782.9009156 5511190.109801355 5511190.109801355 12502336.0360763 0 0 0 0 0 110934777.8921601 5419716.109492041 5419716.109492041 12196516.33112367 0 0 0 0 0 110641869.602879 5435213.611606823 5435213.611606823 11341105.73334887 0 0 0 0 0 110334236.2540909 5341095.79827121 5341095.79827121 11073960.03357775 0 0 0 0 0 110039549.5677352 5247555.052484436 5247555.052484436 10815010.56765933 0 0 0 0 0 109758909.0004598 5153779.407932624 5153779.407932624 10565225.24426571 0 0 0 0 0 109490244.9944808 5068320.18448178 5068320.18448178 10292423.94371396 0 0 0 0 0 109101632.9824464 4956100.297467506 4956100.297467506 9628122.462128893 0 0 0 0 0 108943554.6609898 4912498.642430139 4912498.642430139 9324759.427364996 0 0 0 0 0 108794748.4926196 4809744.761616364 4809744.761616364 9148008.46187135 0 0 0 0 0 181997780.6268717 -1481190.69209405 -1481190.69209405 36076352.35008783 0 0 0 0 0 185751438.6466968 645680.916116816 645680.916116816 35468332.636151 0 0 0 0 0 178149093.61627 696730.8903082079 696730.8903082079 36427478.14637975 0 0 0 0 0 157822454.1470643 965882.1430926116 965882.1430926116 36898631.92018017 0 0 0 0 0 153735934.7716046 1340655.035189826 1340655.035189826 36717283.92644077 0 0 0 0 0 149659703.7188779 1432578.537372049 1432578.537372049 35993457.12326001 0 0 0 0 0 146081304.1340067 1820643.884555408 1820643.884555408 35483126.23561085 0 0 0 0 0 142938209.3534843 2113835.516980562 2113835.516980562 34770213.55126523 0 0 0 0 0 140055195.0584333 2391322.805372047 2391322.805372047 34090301.95725478 0 0 0 0 0 137432749.2041607 2581109.874739235 2581109.874739235 33305883.32405693 0 0 0 0 0 135061227.1092736 2856927.196838025 2856927.196838025 32588246.83883539 0 0 0 0 0 132938370.3784485 3050918.046991979 3050918.046991979 31774115.87775744 0 0 0 0 0 129265714.404326 3441049.042298866 3441049.042298866 29760048.55389085 0 0 0 0 0 128734414.4522874 4025222.25122301 4025222.25122301 29339338.72583606 0 0 0 0 0 127168244.2755233 4158332.082542141 4158332.082542141 28552044.82529188 0 0 0 0 0 125727525.9004239 4268888.035495927 4268888.035495927 27771369.86544311 0 0 0 0 0 124096665.2404963 4907875.991479594 4907875.991479594 26119459.93767948 0 0 0 0 0 122915839.7194921 4968658.980926577 4968658.980926577 25379299.16698674 0 0 0 0 0 121824246.7304574 5015225.391241982 5015225.391241982 24659288.63984685 0 0 0 0 0 120812301.2557024 5048432.966014712 5048432.966014712 23959679.86163244 0 0 0 0 0 119872368.8659369 5069516.23217863 5069516.23217863 23279378.2069817 0 0 0 0 0 118997696.8928638 5079838.199707772 5079838.199707772 22619012.24211686 0 0 0 0 0 118182380.1268678 5080846.825579818 5080846.825579818 21978928.1510336 0 0 0 0 0 116833537.0528834 5186093.825791749 5186093.825791749 20057623.26900406 0 0 0 0 0 116638090.7924795 5427492.851667122 5427492.851667122 19990177.52992303 0 0 0 0 0 115985489.3320651 5391048.053668724 5391048.053668724 19431975.16570829 0 0 0 0 0 115372723.7543187 5349464.982602645 5349464.982602645 18893037.1121476 0 0 0 0 0 114796023.1596304 5303308.768098935 5303308.768098935 18372104.36035856 0 0 0 0 0 114254356.479691 5254560.436197222 5254560.436197222 17879120.985839 0 0 0 0 0 113353973.8025154 5233796.369663219 5233796.369663219 16224159.3279941 0 0 0 0 0 113242745.7765193 5392627.439309984 5392627.439309984 16263638.11683914 0 0 0 0 0 112056354.5278808 5418310.105185009 5418310.105185009 13650157.65017848 0 0 0 0 0 110340506.0780448 5141713.172107117 5141713.172107117 11467888.04456419 0 0 0 0 0 109273328.858126 4984913.901628018 4984913.901628018 9935312.523141315 0 0 0 0 0 112459686.8230561 5320773.533242427 5320773.533242427 14692213.60053828 0 0 0 0 0 171358930.2121062 847106.2446637932 847106.2446637932 36946021.82224432 0 0 0 0 0 162898895.585138 -734312.0018674466 -734312.0018674466 37466474.45593167 0 0 0 0 0 159043975.0819764 -380930.1666288216 -380930.1666288216 37207855.82206816 0 0 0 0 0 129756414.2461261 2814457.72085463 2814457.72085463 30695223.8817312 0 0 0 0 0 123562272.4769073 4020774.268239976 4020774.268239976 26586992.4963487 0 0 0 0 0 116922652.4446716 4816327.797408674 4816327.797408674 20904540.02983765 0 0 0 0 0 113373114.147098 4976120.657745379 4976120.657745379 16936997.64699093 0 0 0 0 0 112458044.7438384 5112789.103065234 5112789.103065234 15379165.12149126 0 0 0 0 0 112376965.4074211 5459942.057007296 5459942.057007296 14785460.99560171 0 0 0 0 0 111984451.3030725 5548577.411504986 5548577.411504986 13786257.66013688 0 0 0 0 0 111606053.4165114 5459976.005585728 5459976.005585728 13431464.18757861 0 0 0 0 0 111247728.7538241 5373550.611869527 5373550.611869527 13091073.03306024 0 0 0 0 0 110905059.0889751 5287954.686281693 5287954.686281693 12768706.01585839 0 0 0 0 0 110578819.8773026 5202167.032838222 5202167.032838222 12455282.50478894 0 0 0 0 0 110301041.3296608 5239089.18453192 5239089.18453192 11614344.69880185 0 0 0 0 0 110004969.4491557 5149586.334127709 5149586.334127709 11337850.20529387 0 0 0 0 0 109721725.0067725 5060524.790361907 5060524.790361907 11070661.66839572 0 0 0 0 0 109446200.4713516 4973967.377862643 4973967.377862643 10811118.94959025 0 0 0 0 0 109199041.5025411 4902465.648328939 4902465.648328939 10440712.57463628 0 0 0 0 0 108996447.1084391 4839120.703271289 4839120.703271289 10087631.81815078 0 0 0 0 0 108819362.6551362 4791686.240541478 4791686.240541478 9774191.445220402 0 0 0 0 0 108698796.1312674 4715098.78145966 4715098.78145966 9647387.846465122 0 0 0 0 0 178149093.61627 696730.8903082079 696730.8903082079 36427478.14637975 0 0 0 0 0 171358930.2121062 847106.2446637932 847106.2446637932 36946021.82224432 0 0 0 0 0 154953874.7309566 520657.6657670676 520657.6657670676 36860436.69580963 0 0 0 0 0 151116641.4822519 580743.6229611497 580743.6229611497 36303402.4263225 0 0 0 0 0 147222343.1294959 1319310.789304985 1319310.789304985 36133026.13044071 0 0 0 0 0 143901095.8709676 1534504.781186674 1534504.781186674 35535986.58189841 0 0 0 0 0 140911117.0794983 1769901.950158042 1769901.950158042 34696633.30327309 0 0 0 0 0 138446479.9563343 1780094.027016623 1780094.027016623 33848667.19913549 0 0 0 0 0 135724748.7388991 2253623.618825274 2253623.618825274 33455036.459135 0 0 0 0 0 133598434.4624319 2387691.53863796 2387691.53863796 32515604.44002798 0 0 0 0 0 131536608.0629971 2562356.390180151 2562356.390180151 31665042.6014006 0 0 0 0 0 128094056.4728854 3006863.828253413 3006863.828253413 29876452.69655774 0 0 0 0 0 127580852.8934129 3537048.136174408 3537048.136174408 29357136.28031865 0 0 0 0 0 126089809.6533424 3664488.192577022 3664488.192577022 28575433.94014934 0 0 0 0 0 124716361.3744084 3773856.803635811 3773856.803635811 27796954.19222087 0 0 0 0 0 123173779.7504977 4438311.970529887 4438311.970529887 26240418.04405371 0 0 0 0 0 122046368.0145878 4503009.137779122 4503009.137779122 25503731.32917527 0 0 0 0 0 121002955.4065598 4554417.205999307 4554417.205999307 24786286.49224502 0 0 0 0 0 120035363.5966982 4593588.849705935 4593588.849705935 24087904.15715396 0 0 0 0 0 119136538.0500759 4621761.408818764 4621761.408818764 23407487.64971826 0 0 0 0 0 118299837.9474033 4640707.212235586 4640707.212235586 22748155.38288377 0 0 0 0 0 117519493.825179 4650792.039957086 4650792.039957086 22108797.19929739 0 0 0 0 0 116240521.0095662 4812030.155983269 4812030.155983269 20313031.96503655 0 0 0 0 0 116042135.8166228 5037312.891784721 5037312.891784721 20179041.07048687 0 0 0 0 0 115416684.2429838 5010357.427126408 5010357.427126408 19617961.36331142 0 0 0 0 0 114828670.5481526 4978203.840927555 4978203.840927555 19076390.82401973 0 0 0 0 0 114278159.2868459 4942150.233058755 4942150.233058755 18557785.62983646 0 0 0 0 0 113754274.4641674 4899773.999639893 4899773.999639893 18062279.59996903 0 0 0 0 0 112901599.0709375 4926430.466576508 4926430.466576508 16491110.44746483 0 0 0 0 0 112785138.6164644 5075785.329563658 5075785.329563658 16473888.89764851 0 0 0 0 0 111663576.5851866 5173197.397752811 5173197.397752811 13951131.14038433 0 0 0 0 0 110012122.8901757 4940924.015505225 4940924.015505225 11747102.70360415 0 0 0 0 0 112046225.6020309 5049162.750788832 5049162.750788832 14972336.55714206 0 0 0 0 0 164539480.3603788 921791.5929106988 921791.5929106988 37464907.23967676 0 0 0 0 0 157879499.2578302 -560285.804300321 -560285.804300321 37546488.34784271 0 0 0 0 0 128553834.9275349 2353990.473564205 2353990.473564205 30699558.92107954 0 0 0 0 0 122669071.7373827 3566552.148239462 3566552.148239462 26709085.84260182 0 0 0 0 0 116325094.7062974 4421738.583857072 4421738.583857072 21099759.78451391 0 0 0 0 0 112915963.8793032 4650203.276400078 4650203.276400078 17168345.0059095 0 0 0 0 0 112042959.7081411 4822826.941178614 4822826.941178614 15625934.82701299 0 0 0 0 0 111958456.6818074 5179687.230080743 5179687.230080743 15016146.36641314 0 0 0 0 0 111586302.8716761 5295033.692675211 5295033.692675211 14034854.92179948 0 0 0 0 0 111222489.0142871 5214385.691862672 5214385.691862672 13674352.56292273 0 0 0 0 0 110877826.0969872 5134675.168997498 5134675.168997498 13329619.78411156 0 0 0 0 0 110548393.0147938 5055544.839292111 5055544.839292111 13001741.62592285 0 0 0 0 0 110233787.0690552 4975147.551497514 4975147.551497514 12684748.76567345 0 0 0 0 0 109969209.2110126 5032339.87536919 5032339.87536919 11858108.05452694 0 0 0 0 0 109684145.2229561 4948333.816624193 4948333.816624193 11576743.13371577 0 0 0 0 0 109408257.9123801 4867215.553635464 4867215.553635464 11306379.98572586 0 0 0 0 0 109137499.6291133 4792017.591549017 4792017.591549017 11023918.97237671 0 0 0 0 0 108891390.950297 4700516.261963186 4700516.261963186 10546220.88721326 0 0 0 0 0 108694054.9646266 4659705.330533672 4659705.330533672 10191808.52919541 0 0 0 0 0 108587757.8141862 4598456.131376188 4598456.131376188 10089389.81385649 0 0 0 0 0 159193792.8749778 643892.7921210905 643892.7921210905 37450003.63045242 0 0 0 0 0 149170502.832309 -318601.7670811348 -318601.7670811348 36644394.35241721 0 0 0 0 0 155086014.5252039 609003.9328011095 609003.9328011095 37071040.80148503 0 0 0 0 0 146998561.6133165 103278.5404349501 103278.5404349501 36332021.7321261 0 0 0 0 0 145256100.2595164 1065902.28911733 1065902.28911733 36033930.25491325 0 0 0 0 0 141962120.2381742 1243108.437229947 1243108.437229947 35392346.73863406 0 0 0 0 0 138091060.4317418 558650.9649131402 558650.9649131402 34253409.55707754 0 0 0 0 0 136221218.693869 1188962.086019002 1188962.086019002 33454603.43889276 0 0 0 0 0 134294415.4728313 1476005.899646017 1476005.899646017 32864774.0489538 0 0 0 0 0 132124939.1723719 1925494.062638604 1925494.062638604 32282690.53195538 0 0 0 0 0 130207919.4867985 2024527.620729811 2024527.620729811 31430491.08248304 0 0 0 0 0 126969299.8693057 2543529.310829825 2543529.310829825 29883164.31125595 0 0 0 0 0 126472289.5366855 3025721.815988173 3025721.815988173 29277191.25530509 0 0 0 0 0 125054419.1412298 3149535.971289936 3149535.971289936 28503779.41632066 0 0 0 0 0 123750417.7953874 3261218.621888489 3261218.621888489 27731128.47031962 0 0 0 0 0 122285509.9322486 3950310.483135858 3950310.483135858 26276939.48913576 0 0 0 0 0 121210379.4569444 4020875.309820508 4020875.309820508 25547424.20396664 0 0 0 0 0 120214312.8409139 4078434.763488607 4078434.763488607 24835410.13109341 0 0 0 0 0 119290228.1412079 4125325.67661676 4125325.67661676 24140685.89334114 0 0 0 0 0 118431381.815881 4162888.990448284 4162888.990448284 23465347.25925387 0 0 0 0 0 117631309.0979602 4191510.62725396 4191510.62725396 22810242.48599668 0 0 0 0 0 116884589.5720177 4211466.95500895 4211466.95500895 22174562.16611172 0 0 0 0 0 115671581.6755561 4426096.49452096 4426096.49452096 20505414.57777335 0 0 0 0 0 115470037.1659328 4636785.898712298 4636785.898712298 20309600.3836332 0 0 0 0 0 114870371.7897713 4620263.870144013 4620263.870144013 19748646.14460317 0 0 0 0 0 114307601.4762316 4597706.289383953 4597706.289383953 19211679.57924173 0 0 0 0 0 113776387.8997647 4570062.49908346 4570062.49908346 18693623.11858251 0 0 0 0 0 113269906.0286922 4534434.214934033 4534434.214934033 18190013.72765027 0 0 0 0 0 112466488.713019 4609827.649354064 4609827.649354064 16708630.53482497 0 0 0 0 0 112346432.2235314 4749910.501515099 4749910.501515099 16636244.04127509 0 0 0 0 0 111282100.0813495 4918740.051253061 4918740.051253061 14214256.47760662 0 0 0 0 0 109694650.6506566 4731225.652501825 4731225.652501825 11996398.59741058 0 0 0 0 0 111647705.666563 4768159.202353781 4768159.202353781 15214012.1046136 0 0 0 0 0 155086014.5252039 609003.9328011095 609003.9328011095 37071040.80148503 0 0 0 0 0 127414161.6323893 1870078.89733728 1870078.89733728 30591437.8722726 0 0 0 0 0 121815548.6664499 3097508.527518941 3097508.527518941 26741573.49632553 0 0 0 0 0 115753525.2942729 4018116.701652854 4018116.701652854 21232177.64721157 0 0 0 0 0 112479476.5928232 4316762.531493412 4316762.531493412 17346505.49968595 0 0 0 0 0 111644151.916115 4525445.652657796 4525445.652657796 15830861.26869682 0 0 0 0 0 111554823.5855941 4891127.395286178 4891127.395286178 15206838.87598303 0 0 0 0 0 111201895.1585073 5033089.850500153 5033089.850500153 14244503.91478432 0 0 0 0 0 110855702.207785 4960934.533518814 4960934.533518814 13875945.42576261 0 0 0 0 0 110524060.8703378 4890218.388331829 4890218.388331829 13539842.13186144 0 0 0 0 0 110204403.1722231 4815143.759625372 4815143.759625372 13207834.92821205 0 0 0 0 0 109900077.1727061 4739027.668365163 4739027.668365163 12881204.79242342 0 0 0 0 0 109647545.7247147 4817543.194839563 4817543.194839563 12072082.47216967 0 0 0 0 0 109373129.8710452 4740509.478009325 4740509.478009325 11782343.53700829 0 0 0 0 0 109116554.7492404 4663857.706421905 4663857.706421905 11505570.94484756 0 0 0 0 0 108709107.4706988 4491784.285258568 4491784.285258568 10923016.87730126 0 0 0 0 0 108558158.5145439 4509156.325458455 4509156.325458455 10603185.23580515 0 0 0 0 0 108482436.0462635 4469345.71496835 4469345.71496835 10539218.64492114 0 0 0 0 0 150930253.3291421 719129.9717009915 719129.9717009915 36786461.08811767 0 0 0 0 0 145513801.0173186 -238085.002186956 -238085.002186956 36155546.0234012 0 0 0 0 0 143602011.6213069 657473.9555097633 657473.9555097633 35885959.37732611 0 0 0 0 0 140662752.685971 658435.6609404536 658435.6609404536 35310893.72960523 0 0 0 0 0 135575884.7402311 566428.8180292756 566428.8180292756 33586631.90248177 0 0 0 0 0 132486424.4468495 1217136.241585574 1217136.241585574 32725053.65506701 0 0 0 0 0 130687524.4801088 1198936.550826219 1198936.550826219 31752070.09906017 0 0 0 0 0 128969267.8309294 1450359.785722604 1450359.785722604 31043452.11785585 0 0 0 0 0 125883844.9968434 2065468.764345904 2065468.764345904 29785712.41273133 0 0 0 0 0 125410632.6156341 2495367.353343312 2495367.353343312 29111089.91849666 0 0 0 0 0 124071611.8731267 2621633.110358323 2621633.110358323 28341774.28012318 0 0 0 0 0 122833461.3187131 2743046.808993023 2743046.808993023 27589359.39367272 0 0 0 0 0 121436754.7433105 3451495.330430554 3451495.330430554 26235120.27879602 0 0 0 0 0 120410240.9245686 3527183.876593764 3527183.876593764 25514744.70350836 0 0 0 0 0 119460298.6069436 3592857.286918923 3592857.286918923 24811323.73418273 0 0 0 0 0 118578964.8932941 3649483.812297339 3649483.812297339 24124054.99730486 0 0 0 0 0 117758213.8268927 3697584.886459099 3697584.886459099 23457516.80007349 0 0 0 0 0 116992735.3494097 3736002.103195076 3736002.103195076 22809072.22501035 0 0 0 0 0 116278660.8754191 3766848.737740985 3766848.737740985 22180143.49985096 0 0 0 0 0 115127446.4699901 4031985.294893151 4031985.294893151 20638100.22106267 0 0 0 0 0 114922620.9107457 4229532.921728005 4229532.921728005 20384665.3931188 0 0 0 0 0 114349286.0617554 4223187.451532407 4223187.451532407 19826527.37606967 0 0 0 0 0 113805809.6491942 4210819.296399405 4210819.296399405 19303007.23549931 0 0 0 0 0 113292192.9934116 4189156.288502649 4189156.288502649 18774330.64625673 0 0 0 0 0 112806810.5640527 4163608.648961876 4163608.648961876 18267133.67938691 0 0 0 0 0 112051114.5889096 4287912.648533157 4287912.648533157 16881040.84848509 0 0 0 0 0 111925937.9960342 4419831.531320401 4419831.531320401 16759878.35377344 0 0 0 0 0 110915492.3032714 4655266.490672355 4655266.490672355 14436547.12083729 0 0 0 0 0 109388039.8684383 4513510.981867328 4513510.981867328 12215424.43755126 0 0 0 0 0 111264355.7005885 4479433.732031187 4479433.732031187 15413302.78376821 0 0 0 0 0 147054196.5958308 696897.2884522497 696897.2884522497 36415634.86864085 0 0 0 0 0 136748451.6938518 -72858.60179294369 -72858.60179294369 34295364.68134748 0 0 0 0 0 134418118.0220634 1131383.245649266 1131383.245649266 33564369.46214858 0 0 0 0 0 126399278.2405011 1352695.008977554 1352695.008977554 30406124.57201116 0 0 0 0 0 120995533.4795014 2620318.194542818 2620318.194542818 26693437.07673911 0 0 0 0 0 115208380.6547088 3608970.628507794 3608970.628507794 21305147.98229974 0 0 0 0 0 112065505.4783695 3980765.58511092 3980765.58511092 17476617.66034107 0 0 0 0 0 111261640.7196133 4221708.045789621 4221708.045789621 15994569.00554647 0 0 0 0 0 111166337.5768629 4595345.868203951 4595345.868203951 15360128.46680849 0 0 0 0 0 110830293.2859281 4763269.697739795 4763269.697739795 14426035.51594536 0 0 0 0 0 110500990.1700649 4700822.846034149 4700822.846034149 14061227.35629602 0 0 0 0 0 110182231.4624627 4635589.310679505 4635589.310679505 13717302.9431131 0 0 0 0 0 109873677.4349851 4565434.886325009 4565434.886325009 13376347.72124171 0 0 0 0 0 109579851.8212436 4497513.383185307 4497513.383185307 13047374.99518575 0 0 0 0 0 109336980.1001297 4594898.032383339 4594898.032383339 12257971.30587372 0 0 0 0 0 109071276.2338908 4523722.497457503 4523722.497457503 11958565.69122851 0 0 0 0 0 108823052.6914274 4455267.287201368 4455267.287201368 11653344.99488996 0 0 0 0 0 108423488.3454312 4327115.029853465 4327115.029853465 10991648.96870738 0 0 0 0 0 108379309.2104567 4319227.723859302 4319227.723859302 10980966.48941574 0 0 0 0 0 143602011.6213069 657473.9555097633 657473.9555097633 35885959.37732611 0 0 0 0 0 140662752.685971 658435.6609404536 658435.6609404536 35310893.72960523 0 0 0 0 0 137965967.4289574 672575.8528771162 672575.8528771162 34693537.65473281 0 0 0 0 0 134362106.4399998 -14785.46527929517 -14785.46527929517 33602283.86994245 0 0 0 0 0 131076427.9450846 609512.8904980032 609512.8904980032 32576813.01541736 0 0 0 0 0 133339957.1628879 636560.8375983967 636560.8375983967 33217584.16074423 0 0 0 0 0 129103081.8855593 765048.6670832773 765048.6670832773 31191691.92341052 0 0 0 0 0 127621302.3945762 821254.9264669439 821254.9264669439 30582894.77784239 0 0 0 0 0 124924263.5678967 1537383.343523441 1537383.343523441 29642590.52595422 0 0 0 0 0 124412596.2757187 1943403.530301692 1943403.530301692 28838018.59339983 0 0 0 0 0 123147692.1810003 2093727.199796038 2093727.199796038 28120891.90569355 0 0 0 0 0 121959256.3086407 2228135.478203124 2228135.478203124 27383798.46337135 0 0 0 0 0 120624180.1051815 2943290.77393926 2943290.77393926 26118284.74894382 0 0 0 0 0 119648427.9336443 3027505.719198443 3027505.719198443 25410208.24296008 0 0 0 0 0 118743520.054288 3103771.182129337 3103771.182129337 24720625.32765355 0 0 0 0 0 117901784.9025976 3171658.792746055 3171658.792746055 24045705.1415253 0 0 0 0 0 117116257.1421305 3228463.588633901 3228463.588633901 23387408.74029304 0 0 0 0 0 116385108.7852703 3278226.423409954 3278226.423409954 22749033.09174179 0 0 0 0 0 115702404.4795733 3320681.75621034 3320681.75621034 22129731.95279138 0 0 0 0 0 114608654.4059225 3632939.837793383 3632939.837793383 20714276.11492793 0 0 0 0 0 114400770.6851482 3818504.001879177 3818504.001879177 20408094.95268229 0 0 0 0 0 113851740.3254793 3823175.141218564 3823175.141218564 19862337.92128839 0 0 0 0 0 113324745.7676217 3818283.113064127 3818283.113064127 19345862.7854701 0 0 0 0 0 112830407.3461148 3802582.697481026 3802582.697481026 18800807.51366184 0 0 0 0 0 112370082.1369231 3793529.076344415 3793529.076344415 18300327.65057485 0 0 0 0 0 111654737.533119 3961800.216294649 3961800.216294649 17009386.45468309 0 0 0 0 0 111524735.1642662 4086303.155079347 4086303.155079347 16844115.83221068 0 0 0 0 0 110563283.8694297 4384991.646388112 4384991.646388112 14625986.93021327 0 0 0 0 0 109089628.6671709 4288815.026534563 4288815.026534563 12405812.46327566 0 0 0 0 0 108635663.0818105 4391664.4624514 4391664.4624514 11383432.88908645 0 0 0 0 0 110897162.7570949 4185023.159102929 4185023.159102929 15575025.80148335 0 0 0 0 0 135451491.3174054 639167.5765336421 639167.5765336421 34013957.03122492 0 0 0 0 0 126255598.8751426 895052.562912841 895052.562912841 29840320.20897444 0 0 0 0 0 120217281.5242739 2138281.7179232 2138281.7179232 26567089.18327108 0 0 0 0 0 114689945.2726615 3197739.638509674 3197739.638509674 21322546.09173122 0 0 0 0 0 111670945.6141698 3642542.487215281 3642542.487215281 17562440.07069118 0 0 0 0 0 110895900.4424593 3913972.427752724 3913972.427752724 16120033.29880524 0 0 0 0 0 110794100.2317827 4294539.473832403 4294539.473832403 15479967.59672629 0 0 0 0 0 110476133.4589584 4486735.179800206 4486735.179800206 14577833.52269321 0 0 0 0 0 110157517.8493198 4431036.195795187 4431036.195795187 14212066.59326276 0 0 0 0 0 109848209.6229012 4371815.457458281 4371815.457458281 13860534.12863231 0 0 0 0 0 109553475.6042906 4310995.077005332 4310995.077005332 13517843.73201303 0 0 0 0 0 109271547.8939741 4251629.164425845 4251629.164425845 13185115.09718145 0 0 0 0 0 109034457.7891188 4366670.19874008 4366670.19874008 12416179.3369651 0 0 0 0 0 108772935.1365435 4297606.898500941 4297606.898500941 12113933.08433009 0 0 0 0 0 108541291.6123497 4244732.390740458 4244732.390740458 11792747.49155111 0 0 0 0 0 108329109.4007672 4167870.523480942 4167870.523480942 11402919.90956597 0 0 0 0 0 108270709.982126 4152525.191974751 4152525.191974751 11384903.73817527 0 0 0 0 0 133339957.1628879 636560.8375983967 636560.8375983967 33217584.16074423 0 0 0 0 0 129298994.0755544 439457.1657256765 439457.1657256765 31844418.43735924 0 0 0 0 0 131076427.9450846 609512.8904980032 609512.8904980032 32576813.01541736 0 0 0 0 0 127706564.531039 510873.2731480368 510873.2731480368 31064428.84760232 0 0 0 0 0 124077862.5779682 1080961.422578755 1080961.422578755 29379639.73195332 0 0 0 0 0 123526872.1927451 1471622.444393408 1471622.444393408 28614575.59908451 0 0 0 0 0 122279541.6493442 1595927.057764698 1595927.057764698 27899194.560531 0 0 0 0 0 121132891.4824533 1705650.497264082 1705650.497264082 27091194.05232747 0 0 0 0 0 119853994.8225999 2433590.645418386 2433590.645418386 25936518.77101457 0 0 0 0 0 118928992.3310329 2528822.240408634 2528822.240408634 25239624.9180799 0 0 0 0 0 118064149.7045292 2619939.748083559 2619939.748083559 24576823.17548666 0 0 0 0 0 117256234.4595278 2691067.04412776 2691067.04412776 23906032.24235262 0 0 0 0 0 116507635.6146719 2759979.809583717 2759979.809583717 23259181.80710023 0 0 0 0 0 115809127.4475115 2821827.777234524 2821827.777234524 22634262.1789301 0 0 0 0 0 115156085.4988611 2876415.527731316 2876415.527731316 22027129.54943975 0 0 0 0 0 114115448.0550888 3232174.472002771 3232174.472002771 20737527.4075128 0 0 0 0 0 113905534.7652025 3406171.404296319 3406171.404296319 20384436.21267803 0 0 0 0 0 113377722.770597 3420653.115060074 3420653.115060074 19850633.28992313 0 0 0 0 0 112867097.5213161 3423406.801432837 3423406.801432837 19329948.30576017 0 0 0 0 0 112394040.1744068 3422568.060863294 3422568.060863294 18792124.55467659 0 0 0 0 0 111956228.8227825 3427081.904579381 3427081.904579381 18298211.4653892 0 0 0 0 0 111276286.8762711 3633196.694712827 3633196.694712827 17096589.23020202 0 0 0 0 0 111142294.5468858 3751298.501330588 3751298.501330588 16892007.63877535 0 0 0 0 0 110223050.7080037 4106414.183698426 4106414.183698426 14778477.03723962 0 0 0 0 0 108798753.3106209 4056263.834669488 4056263.834669488 12559913.35383797 0 0 0 0 0 110546065.0561994 3886332.66694353 3886332.66694353 15699739.88706242 0 0 0 0 0 129298994.0755544 439457.1657256765 439457.1657256765 31844418.43735924 0 0 0 0 0 125385074.2958152 289582.9037403715 289582.9037403715 30366268.29522917 0 0 0 0 0 125081331.3753893 383443.4192115217 383443.4192115217 29382043.41243761 0 0 0 0 0 119508212.8206032 1654583.044928976 1654583.044928976 26382321.29763432 0 0 0 0 0 114197412.0760086 2787209.119117372 2787209.119117372 21287939.25308688 0 0 0 0 0 111295599.5749405 3303345.16469116 3303345.16469116 17607666.51734072 0 0 0 0 0 110547312.3595526 3603779.935077722 3603779.935077722 16208393.11072934 0 0 0 0 0 110438878.8574092 3989969.165276882 3989969.165276882 15566567.69271966 0 0 0 0 0 110132800.9391541 4203300.912280456 4203300.912280456 14697094.08146858 0 0 0 0 0 109824595.1884711 4155535.322810909 4155535.322810909 14325988.76715744 0 0 0 0 0 109530297.933101 4105962.677198985 4105962.677198985 13971038.04211538 0 0 0 0 0 109247964.467936 4054300.388154227 4054300.388154227 13635041.09729865 0 0 0 0 0 108976938.7451893 4001785.988068616 4001785.988068616 13293728.991134 0 0 0 0 0 108738840.5725663 4129910.035800684 4129910.035800684 12558412.04186561 0 0 0 0 0 108482510.4996783 4066271.084483329 4066271.084483329 12275722.80220857 0 0 0 0 0 108237754.1867382 3990391.064037233 3990391.064037233 11785476.53271115 0 0 0 0 0 108160706.350472 3970590.661645229 3970590.661645229 11760445.84981112 0 0 0 0 0 127706564.531039 510873.2731480368 510873.2731480368 31064428.84760232 0 0 0 0 0 126240919.6058014 518694.6597381425 518694.6597381425 30276809.74021493 0 0 0 0 0 123222222.5217578 650690.0131357107 650690.0131357107 29011596.43587773 0 0 0 0 0 122717163.0551341 1003692.970457576 1003692.970457576 28383555.62704126 0 0 0 0 0 121480510.1876186 1090674.173385847 1090674.173385847 27694110.14281178 0 0 0 0 0 120367115.2230473 1177352.942931762 1177352.942931762 26769453.00081711 0 0 0 0 0 119137123.5582033 1929511.816250733 1929511.816250733 25709271.06204995 0 0 0 0 0 118248014.9367167 2050909.219673614 2050909.219673614 25030872.13515127 0 0 0 0 0 117413834.3729805 2132822.5314236 2132822.5314236 24374352.68186769 0 0 0 0 0 116646601.3022631 2215822.820995644 2215822.820995644 23713498.97761931 0 0 0 0 0 115932661.2152121 2296378.48593408 2296378.48593408 23077749.79903772 0 0 0 0 0 115264363.7705743 2370890.085447216 2370890.085447216 22470576.09869314 0 0 0 0 0 114639587.997368 2438544.018055539 2438544.018055539 21881649.3265667 0 0 0 0 0 113647986.1349217 2831127.085395103 2831127.085395103 20710554.37875978 0 0 0 0 0 113435463.5075724 2995742.917658946 2995742.917658946 20313948.88767077 0 0 0 0 0 112928030.5691101 3021118.181010677 3021118.181010677 19786865.29465705 0 0 0 0 0 112441727.9954338 3039224.197732165 3039224.197732165 19276291.60217239 0 0 0 0 0 111985333.7831842 3050519.634454423 3050519.634454423 18754752.56174388 0 0 0 0 0 111563971.4599523 3062084.538704008 3062084.538704008 18257803.47845533 0 0 0 0 0 110915992.2182121 3303377.094849882 3303377.094849882 17144239.14270578 0 0 0 0 0 110777873.3496021 3415994.549588221 3415994.549588221 16904470.20852999 0 0 0 0 0 109897402.8327351 3824072.069853476 3824072.069853476 14898926.36170008 0 0 0 0 0 108525999.9467958 3828318.982142728 3828318.982142728 12694714.66607281 0 0 0 0 0 110210628.3197909 3584808.239501923 3584808.239501923 15787901.04023938 0 0 0 0 0 124428141.1710386 448902.0293710015 448902.0293710015 29709818.40098148 0 0 0 0 0 123836362.6636376 83776.41357097715 83776.41357097715 29226337.94978796 0 0 0 0 0 118831225.934442 1191852.646607899 1191852.646607899 26181160.51796383 0 0 0 0 0 113734748.3281098 2378249.785643411 2378249.785643411 21205917.34155715 0 0 0 0 0 110939091.4022805 2965188.123237662 2965188.123237662 17615302.08753559 0 0 0 0 0 110215172.1245709 3292874.459102532 3292874.459102532 16261770.0339749 0 0 0 0 0 110099042.070713 3683704.217355678 3683704.217355678 15620533.55135316 0 0 0 0 0 109802035.827069 3917045.168821721 3917045.168821721 14783875.71579256 0 0 0 0 0 109506373.6191702 3878311.904355987 3878311.904355987 14412090.45716487 0 0 0 0 0 109226277.7440245 3837320.899606223 3837320.899606223 14055292.15235735 0 0 0 0 0 108957208.0020757 3791292.240646473 3791292.240646473 13706980.92874489 0 0 0 0 0 108695936.4701889 3756998.565261707 3756998.565261707 13337426.78262311 0 0 0 0 0 108474889.5244688 3885335.273595846 3885335.273595846 12691738.45554963 0 0 0 0 0 108055277.477899 3712908.821526993 3712908.821526993 12074529.98596137 0 0 0 0 0 108070390.5773828 3783072.013714853 3783072.013714853 12173814.10716966 0 0 0 0 0 122568224.7802613 106771.0967846479 106771.0967846479 28570340.31559728 0 0 0 0 0 121974778.579246 469121.6907433829 469121.6907433829 28128717.2559663 0 0 0 0 0 120812934.5833839 492028.815961687 492028.815961687 27426682.01785443 0 0 0 0 0 119278965.6164587 198577.2193682296 198577.2193682296 26165347.66142819 0 0 0 0 0 118450529.4827645 1457383.269761886 1457383.269761886 25411177.11150435 0 0 0 0 0 117602549.1589822 1567099.273918173 1567099.273918173 24713655.53125382 0 0 0 0 0 116809331.9641103 1660559.874174864 1660559.874174864 24140244.07373914 0 0 0 0 0 116078412.6744258 1755732.139685509 1755732.139685509 23469009.34667021 0 0 0 0 0 115390500.9152765 1846858.025336204 1846858.025336204 22855083.77262008 0 0 0 0 0 114752927.6682166 1939447.98010208 1939447.98010208 22283074.67616304 0 0 0 0 0 114146580.4257907 1993397.730426278 1993397.730426278 21681662.58341835 0 0 0 0 0 113202019.6950091 2434072.78210421 2434072.78210421 20638010.24040946 0 0 0 0 0 112986800.0996058 2590874.679982132 2590874.679982132 20204494.69041756 0 0 0 0 0 112504957.3334141 2627481.68604263 2627481.68604263 19686776.80454378 0 0 0 0 0 112040389.6230915 2655290.482209669 2655290.482209669 19173237.49168406 0 0 0 0 0 111600926.7352349 2680336.650309415 2680336.650309415 18672067.34954951 0 0 0 0 0 111192880.5648346 2701075.588513439 2701075.588513439 18182956.67745658 0 0 0 0 0 110573790.7060659 2974842.397917776 2974842.397917776 17156148.00825099 0 0 0 0 0 110431960.5520299 3082307.039051014 3082307.039051014 16883711.29956005 0 0 0 0 0 109586821.4395198 3540706.813334709 3540706.813334709 14988297.11040169 0 0 0 0 0 108273171.9351064 3596399.449546906 3596399.449546906 12767772.84402681 0 0 0 0 0 109891350.7415204 3283167.314829844 3283167.314829844 15843269.79582045 0 0 0 0 0 123197118.1092438 431512.3969610955 431512.3969610955 28840146.59888989 0 0 0 0 0 118095849.4951579 747173.3173909378 747173.3173909378 25662577.07051162 0 0 0 0 0 113292029.5612743 1977866.128574847 1977866.128574847 21079660.20917521 0 0 0 0 0 110600957.2282867 2629928.651516354 2629928.651516354 17587689.79412856 0 0 0 0 0 109899556.3310014 2983045.148644786 2983045.148644786 16282215.30935227 0 0 0 0 0 109775545.0467757 3377643.341821156 3377643.341821156 15643061.91577971 0 0 0 0 0 109487264.1119011 3629315.910792732 3629315.910792732 14840125.3892525 0 0 0 0 0 109203237.0355628 3599232.791946422 3599232.791946422 14472506.23898289 0 0 0 0 0 108931251.907615 3567450.975506478 3567450.975506478 14117482.49397946 0 0 0 0 0 108662189.290037 3536798.002431444 3536798.002431444 13776417.08748454 0 0 0 0 0 108397594.6407928 3472076.113233355 3472076.113233355 13255291.11769356 0 0 0 0 0 108232029.0094899 3639828.21243202 3639828.21243202 12920492.11609243 0 0 0 0 0 107966483.0996497 3571063.804495389 3571063.804495389 12510080.00729 0 0 0 0 0 121974778.579246 469121.6907433829 469121.6907433829 28128717.2559663 0 0 0 0 0 120812934.5833839 492028.815961687 492028.815961687 27426682.01785443 0 0 0 0 0 119703055.3967882 520261.1347340957 520261.1347340957 26808551.29336775 0 0 0 0 0 118364682.9147654 138258.386290281 138258.386290281 25827476.48093928 0 0 0 0 0 117780320.8104032 994577.1708480546 994577.1708480546 25035751.39836749 0 0 0 0 0 116972454.7539627 991754.859711656 991754.859711656 24239440.86988891 0 0 0 0 0 116252552.6109467 1270138.166673278 1270138.166673278 23906389.14786367 0 0 0 0 0 115558403.3157471 1351150.445463078 1351150.445463078 23316622.75290095 0 0 0 0 0 114884275.6290091 1426930.939518576 1426930.939518576 22728257.04296934 0 0 0 0 0 114264958.8392778 1432621.699797933 1432621.699797933 21972065.96109334 0 0 0 0 0 113687636.1142581 1567356.38988535 1567356.38988535 21434925.69682535 0 0 0 0 0 112781883.2364018 2043905.476848061 2043905.476848061 20524250.90686492 0 0 0 0 0 112565912.2489741 2190690.796065928 2190690.796065928 20054136.17692941 0 0 0 0 0 112098524.0231401 2238698.233220225 2238698.233220225 19548117.17288204 0 0 0 0 0 111653944.495227 2278431.4323246 2278431.4323246 19049624.1060338 0 0 0 0 0 111233917.1466753 2310445.774429371 2310445.774429371 18546711.81961487 0 0 0 0 0 110842066.2791418 2345937.192520518 2345937.192520518 18075984.13218805 0 0 0 0 0 110249440.9918471 2648998.97806303 2648998.97806303 17134759.61022278 0 0 0 0 0 110104106.9460516 2751888.619757755 2751888.619757755 16832218.67203728 0 0 0 0 0 109291595.6654598 3257294.550357766 3257294.550357766 15047440.4746868 0 0 0 0 0 108185369.0509217 3471269.071473191 3471269.071473191 12807896.1067084 0 0 0 0 0 108023333.8203594 3587009.954552664 3587009.954552664 12524029.46177987 0 0 0 0 0 109587891.1656063 2982511.043492962 2982511.043492962 15866968.8216728 0 0 0 0 0 118865276.5388924 424627.3507040156 424627.3507040156 26147452.40854548 0 0 0 0 0 117472660.9131101 168403.0595188572 168403.0595188572 25194275.44244246 0 0 0 0 0 112872091.9370555 1587620.993689536 1587620.993689536 20906451.78282188 0 0 0 0 0 110281071.7270558 2298958.828969774 2298958.828969774 17527583.43043784 0 0 0 0 0 109600407.4214567 2675629.378090925 2675629.378090925 16271523.34311038 0 0 0 0 0 109468218.4125792 3073076.11405263 3073076.11405263 15637031.10402071 0 0 0 0 0 109187097.3022428 3341560.136880699 3341560.136880699 14863798.581344 0 0 0 0 0 108914010.2519533 3322150.795197435 3322150.795197435 14494449.18573051 0 0 0 0 0 108663291.0902446 3298907.954243891 3298907.954243891 14158416.71371769 0 0 0 0 0 108254428.1355274 3167677.576972587 3167677.576972587 13508328.87726706 0 0 0 0 0 108075812.9187991 3264200.58063184 3264200.58063184 13122295.9195565 0 0 0 0 0 107910859.9320033 3325514.656033087 3325514.656033087 12772848.80120384 0 0 0 0 0 107859279.3996237 3331604.218346586 3331604.218346586 12799686.36497329 0 0 0 0 0 117995174.9304122 426526.701005184 426526.701005184 25429315.31355704 0 0 0 0 0 116672223.4679407 180418.8253341478 180418.8253341478 24396554.83325207 0 0 0 0 0 116220393.0881677 660908.3498947702 660908.3498947702 24049938.55971872 0 0 0 0 0 115863675.2204065 860161.4677524654 860161.4677524654 23806078.20030002 0 0 0 0 0 115174339.4014353 876369.6941163613 876369.6941163613 23248272.46102097 0 0 0 0 0 114229550.3914975 674026.4910194107 674026.4910194107 22105497.50195725 0 0 0 0 0 113773189.6222309 1092277.004858149 1092277.004858149 21714680.73052931 0 0 0 0 0 113252284.8523582 1196171.557893376 1196171.557893376 21214697.37574818 0 0 0 0 0 112384889.0623427 1660556.093432351 1660556.093432351 20368344.76336863 0 0 0 0 0 112169168.7157225 1798825.152679824 1798825.152679824 19871480.44619846 0 0 0 0 0 111723332.8236142 1858569.053599881 1858569.053599881 19373990.20498424 0 0 0 0 0 111291914.23477 1911343.777250719 1911343.777250719 18891096.69966941 0 0 0 0 0 110886736.4942191 1953488.034532778 1953488.034532778 18406786.59229878 0 0 0 0 0 110510113.1353366 1996534.829949385 1996534.829949385 17937129.80006885 0 0 0 0 0 109942375.8532522 2327188.402067543 2327188.402067543 17081859.30500376 0 0 0 0 0 109793901.5827193 2425877.580407255 2425877.580407255 16751893.00540368 0 0 0 0 0 109009566.1978721 2974705.747847116 2974705.747847116 15077482.48816025 0 0 0 0 0 109299971.7163673 2683965.599810504 2683965.599810504 15860572.96764949 0 0 0 0 0 117085449.4971066 447694.5767662938 447694.5767662938 24829068.61502593 0 0 0 0 0 112477171.0895379 1210737.951384692 1210737.951384692 20694032.70156002 0 0 0 0 0 109978270.8003531 1973717.899300213 1973717.899300213 17436824.88286584 0 0 0 0 0 109317469.261759 2371697.072768517 2371697.072768517 16231399.14078938 0 0 0 0 0 109176204.0265733 2771431.111194904 2771431.111194904 15602649.03781486 0 0 0 0 0 108900795.7788666 3055574.800163996 3055574.800163996 14863377.03481508 0 0 0 0 0 108643035.7243665 3041409.449835948 3041409.449835948 14497732.31517279 0 0 0 0 0 108399525.8804099 3021784.943158588 3021784.943158588 14155986.11848464 0 0 0 0 0 107992689.7505015 3006185.636876747 3006185.636876747 13442617.21083089 0 0 0 0 0 107809057.8097184 3050169.700764844 3050169.700764844 13071776.8423388 0 0 0 0 0 107781995.8279284 3092503.781089319 3092503.781089319 13149631.39014507 0 0 0 0 0 115914169.8568695 156311.1280320429 156311.1280320429 23828081.45371803 0 0 0 0 0 116297436.6989421 398818.485062262 398818.485062262 24221655.11740461 0 0 0 0 0 115546618.7818414 368201.1884467988 368201.1884467988 23596843.10301675 0 0 0 0 0 114865132.822142 342762.2242486536 342762.2242486536 23005300.04066892 0 0 0 0 0 113639539.9814234 583227.5305225379 583227.5305225379 21922853.97257547 0 0 0 0 0 113398275.6022748 747581.7577640244 747581.7577640244 21535813.31384997 0 0 0 0 0 112843533.716567 808858.7901271753 808858.7901271753 20985994.03872833 0 0 0 0 0 112013870.0189548 1290858.456926354 1290858.456926354 20178111.5897635 0 0 0 0 0 111798843.6113534 1422415.103254423 1422415.103254423 19668096.95207052 0 0 0 0 0 111369005.074593 1498085.650725214 1498085.650725214 19178967.84617477 0 0 0 0 0 110949585.2868609 1548550.497723837 1548550.497723837 18697260.68343957 0 0 0 0 0 110560698.930538 1598463.964183819 1598463.964183819 18226775.32000681 0 0 0 0 0 110199294.4499391 1657127.032060297 1657127.032060297 17768374.68688145 0 0 0 0 0 109652531.9881697 2010609.709639551 2010609.709639551 16999894.71661894 0 0 0 0 0 109501208.0289951 2105538.74562841 2105538.74562841 16645105.78252194 0 0 0 0 0 108742014.0705865 2694574.287057187 2694574.287057187 15079519.41918764 0 0 0 0 0 108184235.1082015 2995777.215339668 2995777.215339668 13801590.68119453 0 0 0 0 0 109027398.471758 2389108.017125713 2389108.017125713 15826384.2147167 0 0 0 0 0 113904911.0667771 153555.7101517368 153555.7101517368 22116044.40958699 0 0 0 0 0 112104335.7001366 856812.6347969437 856812.6347969437 20480237.95267332 0 0 0 0 0 109692719.5269376 1655114.836668274 1655114.836668274 17318036.22224703 0 0 0 0 0 109049325.5841004 2072725.21297137 2072725.21297137 16164488.48006377 0 0 0 0 0 108899867.1086656 2473721.427579722 2473721.427579722 15542943.85966195 0 0 0 0 0 108629367.4902725 2771682.896342978 2771682.896342978 14835732.61602367 0 0 0 0 0 108375232.9034326 2768341.350633624 2768341.350633624 14477115.84521349 0 0 0 0 0 108130971.2736641 2764616.193760417 2764616.193760417 14122308.92385019 0 0 0 0 0 107724573.250786 2778510.128978828 2778510.128978828 13350196.04199068 0 0 0 0 0 107929656.0795697 2755263.326642224 2755263.326642224 13713016.72532666 0 0 0 0 0 107704207.9162161 2837617.924709497 2837617.924709497 13454960.50328135 0 0 0 0 0 115546618.7818414 368201.1884467988 368201.1884467988 23596843.10301675 0 0 0 0 0 114865132.822142 342762.2242486536 342762.2242486536 23005300.04066892 0 0 0 0 0 114197809.4806242 336613.6041528417 336613.6041528417 22451492.13727586 0 0 0 0 0 113345168.7231167 146958.9366098888 146958.9366098888 21657720.66987313 0 0 0 0 0 113068028.5921733 331054.230727149 331054.230727149 21331926.34420519 0 0 0 0 0 112259721.3951409 164694.7197181731 164694.7197181731 20381153.97834246 0 0 0 0 0 111671349.9216424 962749.8267719087 962749.8267719087 19932106.8389182 0 0 0 0 0 111448439.0836418 1110426.562498191 1110426.562498191 19538629.14392645 0 0 0 0 0 111029811.213577 1123136.799049866 1123136.799049866 18962513.99765866 0 0 0 0 0 110626048.2849303 1189471.652425331 1189471.652425331 18450132.95681 0 0 0 0 0 110256311.8330629 1267895.868944705 1267895.868944705 18048737.3762855 0 0 0 0 0 109904941.8293372 1328538.308481794 1328538.308481794 17569203.78066629 0 0 0 0 0 109380568.9284722 1700507.897043956 1700507.897043956 16890903.64593372 0 0 0 0 0 109226227.5996854 1793263.460440458 1793263.460440458 16515656.27467934 0 0 0 0 0 108485352.4710125 2416545.296806302 2416545.296806302 15056236.82270123 0 0 0 0 0 108769371.0198782 2098314.523992792 2098314.523992792 15765854.02151036 0 0 0 0 0 113638500.865455 316914.9144765395 316914.9144765395 21879947.20754301 0 0 0 0 0 111685880.8677967 658069.235721605 658069.235721605 20149462.32711236 0 0 0 0 0 109428295.0494782 1344248.98193962 1344248.98193962 17173596.98494371 0 0 0 0 0 108795473.8953726 1779108.50272333 1779108.50272333 16072500.64770428 0 0 0 0 0 108638779.877185 2180356.72386554 2180356.72386554 15460334.95809667 0 0 0 0 0 108369427.4467874 2491996.536905691 2491996.536905691 14794949.72182116 0 0 0 0 0 108121845.8394338 2496676.805131776 2496676.805131776 14441527.81093758 0 0 0 0 0 107885256.0652781 2505323.639437759 2505323.639437759 14069965.39689685 0 0 0 0 0 107628764.5990412 2570328.853255732 2570328.853255732 13721843.58542564 0 0 0 0 0 107652136.1618657 2487923.298432357 2487923.298432357 13576834.87035335 0 0 0 0 0 113068028.5921733 331054.230727149 331054.230727149 21331926.34420519 0 0 0 0 0 112504341.0278855 324645.3589117299 324645.3589117299 20836224.39877571 0 0 0 0 0 112037543.0131339 252672.1987816041 252672.1987816041 20342853.50871498 0 0 0 0 0 111487460.7805208 598225.5413286141 598225.5413286141 19523619.55880436 0 0 0 0 0 111050980.0788532 553384.1427642584 553384.1427642584 19024713.42109039 0 0 0 0 0 110703878.7357048 847499.5316918625 847499.5316918625 18767885.75218286 0 0 0 0 0 110345911.3708395 915744.3494235285 915744.3494235285 18323304.56250253 0 0 0 0 0 109974188.8076258 955148.7536937463 955148.7536937463 17919956.12432891 0 0 0 0 0 109625778.5700445 970129.2486048259 970129.2486048259 17333241.91673649 0 0 0 0 0 109122410.0703824 1398380.91766588 1398380.91766588 16756500.0430907 0 0 0 0 0 108966142.1924709 1488629.38029518 1488629.38029518 16364951.61380505 0 0 0 0 0 108240878.0847371 2142516.299022647 2142516.299022647 15009621.80025074 0 0 0 0 0 108525511.0578356 1812263.480768195 1812263.480768195 15681767.99985251 0 0 0 0 0 112037543.0131339 252672.1987816041 252672.1987816041 20342853.50871498 0 0 0 0 0 111318554.0373855 129030.8926751812 129030.8926751812 19533604.70909232 0 0 0 0 0 109178121.7363787 1044316.754228628 1044316.754228628 17009290.41435973 0 0 0 0 0 108553553.0504922 1491454.299086882 1491454.299086882 15958026.13023273 0 0 0 0 0 108391776.8294348 1891787.754820418 1891787.754820418 15353709.58684801 0 0 0 0 0 108124485.173991 2213722.912026402 2213722.912026402 14731829.1758087 0 0 0 0 0 107893710.0925736 2227285.890976191 2227285.890976191 14416718.40145103 0 0 0 0 0 107540247.5745916 2136047.075980966 2136047.075980966 13772547.0865375 0 0 0 0 0 107561769.9447795 2303952.06495841 2303952.06495841 13967542.63028113 0 0 0 0 0 111558589.6262704 279606.1481178172 279606.1481178172 19833547.6217238 0 0 0 0 0 110916735.6561872 592434.5383629715 592434.5383629715 19129073.60725947 0 0 0 0 0 110505676.6612424 574610.0968569987 574610.0968569987 18631830.02898263 0 0 0 0 0 110125374.7603159 588771.2615528499 588771.2615528499 18200359.87360421 0 0 0 0 0 109610341.6715576 463182.4652069464 463182.4652069464 17356917.52894581 0 0 0 0 0 109338931.8637258 672109.3929718573 672109.3929718573 17107269.08730429 0 0 0 0 0 108882468.3025224 1108037.778026495 1108037.778026495 16597605.4204218 0 0 0 0 0 108722058.8345492 1201138.717823435 1201138.717823435 16200222.74168495 0 0 0 0 0 108010761.6545486 1879453.760541389 1879453.760541389 14939667.32423828 0 0 0 0 0 108296438.2940356 1530845.046797518 1530845.046797518 15575842.33575785 0 0 0 0 0 111086312.8692172 252660.808779881 252660.808779881 19377697.56885614 0 0 0 0 0 110892653.70285 127708.5621984041 127708.5621984041 19084540.04132445 0 0 0 0 0 108945287.3512029 770885.4361402128 770885.4361402128 16811198.5599334 0 0 0 0 0 108332333.3063857 1213008.444401386 1213008.444401386 15825510.13144188 0 0 0 0 0 108153403.8184509 1613341.503898111 1613341.503898111 15216659.0800811 0 0 0 0 0 107902323.9461915 1942691.160850095 1942691.160850095 14672274.59948602 0 0 0 0 0 107693660.1368028 1954528.067321435 1954528.067321435 14357107.76042764 0 0 0 0 0 107491298.9326966 2021962.711982804 2021962.711982804 14149491.23024766 0 0 0 0 0 110702892.1681306 237963.7701664339 237963.7701664339 18900080.78318875 0 0 0 0 0 110307841.9878848 233574.6154406037 233574.6154406037 18455121.4666562 0 0 0 0 0 109945976.0057941 234750.3406923954 234750.3406923954 18017876.0130924 0 0 0 0 0 109343428.0830153 209056.9553495362 209056.9553495362 17133743.95858558 0 0 0 0 0 109105067.3943262 438806.8174753517 438806.8174753517 16909236.67636441 0 0 0 0 0 108644150.3516577 827110.9030676247 827110.9030676247 16395766.24942875 0 0 0 0 0 108489408.1265903 907414.4481575828 907414.4481575828 15977633.77102307 0 0 0 0 0 107799158.7903325 1620571.6650578 1620571.6650578 14821903.73513035 0 0 0 0 0 107467165.4107306 1950451.8408921 1950451.8408921 13948411.62066397 0 0 0 0 0 108084509.2802776 1250979.76928694 1250979.76928694 15423230.51332285 0 0 0 0 0 110702892.1681306 237963.7701664339 237963.7701664339 18900080.78318875 0 0 0 0 0 109627477.225219 205550.8531137257 205550.8531137257 17565761.80584445 0 0 0 0 0 108704374.9082912 470253.3920549451 470253.3920549451 16549970.89413567 0 0 0 0 0 108141112.1095573 957865.2055740117 957865.2055740117 15689162.91636924 0 0 0 0 0 107837631.6803705 1256173.29539347 1256173.29539347 14909591.80319627 0 0 0 0 0 107695373.4326986 1690237.395672703 1690237.395672703 14672244.20612938 0 0 0 0 0 107476104.3210302 1679501.738096719 1679501.738096719 14190767.28991395 0 0 0 0 0 107429916.9239459 1714092.80024951 1714092.80024951 14307051.04450552 0 0 0 0 0 110307841.9878848 233574.6154406037 233574.6154406037 18455121.4666562 0 0 0 0 0 109945976.0057941 234750.3406923954 234750.3406923954 18017876.0130924 0 0 0 0 0 109627477.225219 205550.8531137257 205550.8531137257 17565761.80584445 0 0 0 0 0 109088595.3058249 107628.5778509118 107628.5778509118 17037812.32800968 0 0 0 0 0 109251664.7985582 208601.6635045286 208601.6635045286 17271938.38052769 0 0 0 0 0 108947897.6161078 198437.1174763969 198437.1174763969 16800373.36547535 0 0 0 0 0 108415926.2020241 554410.2943481504 554410.2943481504 16221073.90860716 0 0 0 0 0 108257413.4238721 594377.0155661972 594377.0155661972 15712199.63361332 0 0 0 0 0 107658008.4050841 1419260.757431573 1419260.757431573 14560297.58271733 0 0 0 0 0 107927264.5859259 1011906.168016769 1011906.168016769 15360059.39264828 0 0 0 0 0 108483553.3099238 136677.0286242045 136677.0286242045 16300935.94198257 0 0 0 0 0 107952758.8909783 715068.251295012 715068.251295012 15519564.62406917 0 0 0 0 0 107605457.5648913 1167014.287772428 1167014.287772428 14600758.72827956 0 0 0 0 0 107429622.2384551 1314806.123138989 1314806.123138989 14301741.94064202 0 0 0 0 0 107390431.1083372 1411463.83352225 1411463.83352225 14480705.86341112 0 0 0 0 0 108947897.6161078 198437.1174763969 198437.1174763969 16800373.36547535 0 0 0 0 0 108620274.0031371 215247.2534365238 215247.2534365238 16418902.26525201 0 0 0 0 0 108194133.3360977 140285.6698728023 140285.6698728023 15801196.29422618 0 0 0 0 0 108025210.3848555 425291.6236604094 425291.6236604094 15601855.39142182 0 0 0 0 0 107774692.6657686 1073268.018082148 1073268.018082148 14899489.16081291 0 0 0 0 0 107732790.4760711 803952.9533604922 803952.9533604922 15240427.81443796 0 0 0 0 0 108336475.6236478 232504.9338607589 232504.9338607589 16062253.28921684 0 0 0 0 0 107779927.1751736 420386.2843646323 420386.2843646323 15292705.30835471 0 0 0 0 0 107567205.177365 829344.4041550213 829344.4041550213 14694975.38745519 0 0 0 0 0 107377264.2763591 973464.2576627021 973464.2576627021 14393395.43519398 0 0 0 0 0 107359360.7750262 1108042.753525139 1108042.753525139 14623649.13063579 0 0 0 0 0 108077955.4266633 208240.3965022798 208240.3965022798 15707710.20499046 0 0 0 0 0 107938342.3662683 117393.5038787972 117393.5038787972 15478352.01750371 0 0 0 0 0 107535817.0294023 423530.5556793929 423530.5556793929 14788731.03762219 0 0 0 0 0 107667836.1577657 103684.5983733643 103684.5983733643 15114166.30859124 0 0 0 0 0 107332126.1111161 647419.562982249 647419.562982249 14434632.05133658 0 0 0 0 0 107322900.620185 794797.1270451674 794797.1270451674 14688345.36505574 0 0 0 0 0 107804574.4814512 194275.6095124282 194275.6095124282 15355123.87233797 0 0 0 0 0 107437457.9387126 102244.0345438561 102244.0345438561 14822524.37606165 0 0 0 0 0 107549396.9857056 173778.6259125263 173778.6259125263 15024719.97256338 0 0 0 0 0 107332340.9561855 360010.7058651533 360010.7058651533 14519283.67579693 0 0 0 0 0 107300074.446213 475632.5169296711 475632.5169296711 14737056.43253425 0 0 0 0 0 107278328.6526642 147535.016695302 147535.016695302 14727163.81035637 0 0 0 0 0 107359026.7065714 155793.928845395 155793.928845395 14676467.36541245 0 0 0 0 0 107278328.6526642 147535.016695302 147535.016695302 14727163.81035637 0 0 0 0 0 107278328.6526642 147535.016695302 147535.016695302 14727163.81035637 0 0 0 0 0 </DataArray>
      </PointData>
    </Piece>
  </UnstructuredGrid>
</VTKFile>
