<?xml version="1.0"?>
<VTKFile type="UnstructuredGrid" version="2.2">
  <UnstructuredGrid>
    <Piece NumberOfPoints="51" NumberOfCells="20">
      <Points>
        <DataArray type="Float64" NumberOfComponents="3" format="ascii">0.6649999999989589 -2.540120274599389e-17 0 1 -1.169724146093436e-18 0 0.7120860473825434 0.2857129206375194 0 0.8560430236912716 0.1428564603187597 0 0.6885430236907514 0.1428564603187598 0 0.832499999999563 3.977783378011274e-17 0 1 0.499999999998694 0 0.8560430236912717 0.3928564603181067 0 1 0.2499999999994195 0 0.4802408687832743 0.1819440162619867 0 0.596163458082909 0.2338284684497531 0 0.5726204343911168 0.09097200813099336 0 0.3299999999999999 -2.663752839931532e-17 0 0.4051204343916373 0.09097200813099336 0 0.4974999999994729 2.533080695128016e-17 0 0.6492432260951949 0.6624668562888786 0 0.6806646367388693 0.4740898884631992 0 0.8246216130475974 0.5812334281437863 0 0.4607730582016282 0.3906619234225344 0 0.4705069634924515 0.2863029698422607 0 0.5864295527920859 0.3381874220300271 0 0.2333452383332417 0.2333452372498797 0 0.3567930535582581 0.2076446267559332 0 0.3048802458660949 0.1262855323488387 0 1 1 0 0.8246216130475975 0.8312334281444393 0 1 0.7499999999993472 0 0.5550081421484117 0.5265643898557066 0 0.3470591482674349 0.3120035803362071 0 0.5000000000020592 1 0 0.574621613048627 0.8312334281444395 0 0.7500000000009892 1 0 0.2908264624533337 0.7254034792111052 0 0.4700348442742643 0.6939351677499922 0 0.3757997603274811 0.55803270131682 0 0.1959439281524295 0.4796741652015038 0 0.3283584931770291 0.4351680443120194 0 0.2146445832428357 0.3565097012256918 0 0.3954132312276964 0.8627017396055526 0 0.2433851953028816 0.6025388222063046 0 -2.735573034003759e-17 0.33 0 0.09797196407621479 0.404837082600752 0 0.1262855330554269 0.3048802455734166 0 -2.449207667726095e-17 1 0 0.1454132312266668 0.8627017396055527 0 0.2500000000010297 1 0 -4.060228024229193e-17 0.6650000000010193 0 0.1454132312266668 0.6952017396060625 0 0.09797196407621481 0.5723370826012617 0 2.727991785208109e-17 0.4975000000008095 0 4.048975683883631e-17 0.8325000000003405 0 </DataArray>
      </Points>
      <Cells>
        <DataArray type="Int32" Name="connectivity" format="ascii">0 1 2 5 3 4 1 6 2 8 7 3 0 2 9 4 10 11 12 0 9 14 11 13 6 15 2 17 16 7 2 18 9 20 19 10 21 12 9 23 13 22 6 24 15 26 25 17 15 18 2 27 20 16 18 21 9 28 22 19 24 29 15 31 30 25 32 18 15 34 27 33 35 21 18 37 28 36 29 32 15 38 33 30 35 18 32 36 34 39 40 21 35 42 37 41 29 43 32 45 44 38 46 35 32 48 39 47 46 40 35 49 41 48 43 46 32 50 47 44 </DataArray>
        <DataArray type="Int32" Name="offsets" format="ascii">6 12 18 24 30 36 42 48 54 60 66 72 78 84 90 96 102 108 114 120 </DataArray>
        <DataArray type="Int8" Name="types" format="ascii">69 69 69 69 69 69 69 69 69 69 69 69 69 69 69 69 69 69 69 69 </DataArray>
      </Cells>
      <CellData>
        <DataArray type="UInt8" Name="vtkGhostType" format="ascii" RangeMin="0" RangeMax="1">0 0 0 0 0 0 0 0 0 0 0 0 0 0 0 0 0 0 0 0 </DataArray>
        <DataArray type="Int64" IdType="1" Name="vtkOriginalCellIds" format="ascii" RangeMin="0" RangeMax="19">0 1 2 3 4 5 6 7 8 9 10 11 12 13 14 15 16 17 18 19 </DataArray>
      </CellData>
      <PointData Vectors="u" Tensors="stress">
        <DataArray type="Int64" IdType="1" Name="vtkOriginalPointIds" format="ascii" RangeMin="0" RangeMax="50">0 1 2 3 4 5 6 7 8 9 10 11 12 13 14 15 16 17 18 19 20 21 22 23 24 25 26 27 28 29 30 31 32 33 34 35 36 37 38 39 40 41 42 43 44 45 46 47 48 49 50 </DataArray>
        <DataArray type="UInt8" Name="vtkGhostType" format="ascii" RangeMin="0" RangeMax="0">0 0 0 0 0 0 0 0 0 0 0 0 0 0 0 0 0 0 0 0 0 0 0 0 0 0 0 0 0 0 0 0 0 0 0 0 0 0 0 0 0 0 0 0 0 0 0 0 0 0 0 </DataArray>
        <DataArray type="Float64" Name="u" format="ascii" NumberOfComponents="3">0.0005100140465042211 0 0 0.0006099411969047082 1.04161406098904e-22 0 0.0004791993768209892 -2.554650664036703e-05 0 0.0005537661381524933 -1.162329803446168e-05 0 0.0005013098191115202 -9.538195152647134e-06 0 0.0005548259879609128 0 0 0.0005640851970134574 -5.887046404550374e-05 0 0.0005168612846980485 -4.205446184797223e-05 0 0.0005955772456871556 -2.457572692383553e-05 0 0.0004335462233910656 -1.655869656749649e-05 0 0.0004504472737841425 -1.923258132900913e-05 0 0.0004821311210831244 -4.681884745180142e-06 0 0.0004693774005054788 0 0 0.0004584819332339174 -1.269230054551154e-05 0 0.0004808386370144163 0 0 0.0003641617927175795 -0.0001012072625832788 0 0.0004181786326344023 -5.990348783155731e-05 0 0.0004686311789593997 -7.512801441177129e-05 0 0.0003298399771461745 -6.11057730137224e-05 0 0.0003802912281559529 -3.573372001043222e-05 0 0.0004107053838580381 -3.756821476044234e-05 0 0.0003306403947042452 -0.0001087895451529195 0 0.0003858154048080695 -4.513106966097129e-05 0 0.0004311659039791332 -5.445081001985621e-05 0 0.0005121117245832882 -0.0001450712483928443 0 0.0004359676291408073 -0.0001223049463805183 0 0.0005337372372719151 -0.0001010860692390991 0 0.0003397303025550045 -8.063997568261808e-05 0 0.0003082648814381952 -6.597153540125801e-05 0 0.0002525028449991497 -0.0001768204351083709 0 0.0003033304466315429 -0.0001410766863783376 0 0.0003834449263825619 -0.0001572587610813402 0 0.0001553409502174141 -0.0001612334317063365 0 0.0002604230070529682 -0.0001276519210963744 0 0.0002285275358118404 -0.0001158791562161412 0 0.0001343921403323348 -0.0001461000815302005 0 0.0002337487609207413 -0.0001002782093838359 0 0.0002010716707141 -0.0001243551877813879 0 0.0002039387358726897 -0.0001670141025553919 0 0.0001403024216342418 -0.0001525877185364761 0 0 -0.000155992227910927 0 8.339058683195483e-05 -0.0001643395744414628 0 0.000173853266173026 -0.0001412091020832098 0 2.999132192676397e-20 -0.0002091935778571244 0 7.318886974449756e-05 -0.0001922906666613886 0 0.0001237712451316959 -0.0001987951728579198 0 0 -0.0001870218605469139 0 7.749180023684775e-05 -0.0001785108197817924 0 5.691329530759794e-05 -0.000175880306816765 0 0 -0.0001793655092096573 0 0 -0.0001964996950826395 0 </DataArray>
        <DataArray type="Float64" Name="stress" format="ascii" NumberOfComponents="9">48199155.53494675 -3578160.259703313 -3578160.259703313 11403395.57523058 0 0 0 0 0 68854076.1207981 296495.325524891 296495.325524891 5351594.100839982 0 0 0 0 0 79906433.49465019 -21843215.57563257 -21843215.57563257 -6553145.050920095 0 0 0 0 0 74380254.80772415 -10773360.12505384 -10773360.12505384 -600775.4750400577 0 0 0 0 0 64052794.51479848 -12710687.91766794 -12710687.91766794 2425125.262155245 0 0 0 0 0 58526615.82787243 -1640832.467089212 -1640832.467089212 8377494.838035285 0 0 0 0 0 96020234.32536785 -12282009.95636192 -12282009.95636192 -4661987.172856396 0 0 0 0 0 87963333.91000903 -17062612.76599724 -17062612.76599724 -5607566.111888247 0 0 0 0 0 82437155.22308299 -5992757.315418513 -5992757.315418513 344803.4639917933 0 0 0 0 0 43975038.89900018 -31243229.92724135 -31243229.92724135 -10864376.5175452 0 0 0 0 0 61940736.1968252 -26543222.75143696 -26543222.75143696 -8708760.784232648 0 0 0 0 0 46087097.21697348 -17410695.09347234 -17410695.09347234 269509.5288426932 0 0 0 0 0 -25996119.16233282 8924142.094209475 8924142.094209475 -61792943.65882009 0 0 0 0 0 8989459.868333684 -11159543.91651594 -11159543.91651594 -36328660.08818264 0 0 0 0 0 11101518.18630696 2672990.917253084 2672990.917253084 -25194774.04179476 0 0 0 0 0 112286557.4781073 -5836570.972596551 -5836570.972596551 -11250708.05536851 0 0 0 0 0 96096495.48637876 -13839893.27411456 -13839893.27411456 -8901926.553144302 0 0 0 0 0 104153395.9017376 -9059290.464479234 -9059290.464479234 -7956347.614112454 0 0 0 0 0 116753092.3390362 -18072750.99853172 -18072750.99853172 -24632278.51327409 0 0 0 0 0 80364065.6190182 -24657990.46288653 -24657990.46288653 -17748327.51540964 0 0 0 0 0 98329762.91684321 -19957983.28708214 -19957983.28708214 -15592711.78209709 0 0 0 0 0 91290920.38286066 -48070344.99973208 -48070344.99973208 6949784.948853866 0 0 0 0 0 67632979.64093041 -39656787.46348672 -39656787.46348672 -1957295.784345668 0 0 0 0 0 32647400.61026391 -19573101.45276131 -19573101.45276131 -27421579.35498311 0 0 0 0 0 105153833.8092323 -2500179.716778609 -2500179.716778609 -5309812.216155807 0 0 0 0 0 108720195.6436698 -4168375.34468758 -4168375.34468758 -8280260.135762159 0 0 0 0 0 100587034.0673001 -7391094.836570265 -7391094.836570265 -4985899.694506101 0 0 0 0 0 114519824.9085717 -11954660.98556414 -11954660.98556414 -17941493.2843213 0 0 0 0 0 104022006.3609484 -33071547.9991319 -33071547.9991319 -8841246.782210115 0 0 0 0 0 109073495.1396738 4787641.495161021 4787641.495161021 -683685.8571908241 0 0 0 0 0 110680026.3088905 -524464.7387177651 -524464.7387177651 -5967196.956279668 0 0 0 0 0 107113664.4744531 1143730.889191206 1143730.889191206 -2996749.036673316 0 0 0 0 0 121050069.6935411 8783432.777617021 8783432.777617021 6043783.440082046 0 0 0 0 0 116668313.5858242 1473430.902510235 1473430.902510235 -2603462.307643231 0 0 0 0 0 118901581.0162887 -4644659.11045735 -4644659.11045735 -9294247.536596023 0 0 0 0 0 144229579.7992543 5642403.443452857 5642403.443452857 16117608.54559798 0 0 0 0 0 130491336.0691453 -6215173.777539432 -6215173.777539432 -4257334.983838054 0 0 0 0 0 117760250.0910575 -21213970.77813961 -21213970.77813961 11533696.74722592 0 0 0 0 0 115061782.4166074 6785537.136389021 6785537.136389021 2680048.791445612 0 0 0 0 0 132639824.7463977 7212918.110534938 7212918.110534938 11080695.99284001 0 0 0 0 0 254539700.3265992 -24705856.51381255 -24705856.51381255 35938026.39869469 0 0 0 0 0 199384640.0629268 -9531726.535179848 -9531726.535179848 26027817.47214633 0 0 0 0 0 172915310.35473 -36388100.75677232 -36388100.75677232 21443905.67377428 0 0 0 0 0 106505361.2881894 202568.0859997475 202568.0859997475 18161575.95119127 0 0 0 0 0 113777715.4908652 4493000.431808384 4493000.431808384 12102679.69563666 0 0 0 0 0 107789428.2139316 2495104.790580385 2495104.790580385 8738945.047000222 0 0 0 0 0 109115484.5842311 5295810.35418631 5295810.35418631 32388489.77616407 0 0 0 0 0 115082777.1388861 7039621.565901665 7039621.565901665 19216136.60812306 0 0 0 0 0 126672532.1917427 5469106.898819583 5469106.898819583 24253049.16088102 0 0 0 0 0 181827592.4554152 -9705023.079813121 -9705023.079813121 34163258.08742938 0 0 0 0 0 107810422.9362103 2749189.220093029 2749189.220093029 25275032.86367767 0 0 0 0 0 </DataArray>
      </PointData>
    </Piece>
  </UnstructuredGrid>
</VTKFile>
