<?xml version="1.0"?>
<VTKFile type="UnstructuredGrid" version="2.2">
  <UnstructuredGrid>
    <Piece NumberOfPoints="7058" NumberOfCells="13804">
      <Points>
        <DataArray type="Float64" NumberOfComponents="3" format="ascii">0.9875925925925668 0 0 1 0 0 0.9909330519583092 0.009092035120655317 0 1 0.01249999999997642 0 0.981236087833541 0.009384804023422708 0 0.9880515345541606 0.01848938527275309 0 0.9751851851851336 0 0 1 0.02499999999995287 0 0.9689358255354583 0.01015806840449193 0 0.9747007252876962 0.01778140908164611 0 0.9898047665715467 0.03135447436118231 0 0.9627777777777005 0 0 0.9786036581237504 0.02764756447729527 0 1 0.03749999999992728 0 0.9559751956350334 0.01092001010571287 0 0.962777777777692 0.01740999414888824 0 0.9674367641477275 0.02525660513613909 0 0.9905461975052235 0.04376583944109863 0 1 0.04999999999989965 0 0.9808337364603431 0.0395283297232995 0 0.950370370370224 0 0 0.9702346027593478 0.03619517821620231 0 0.9898969123290963 0.0562471489765464 0 1 0.06249999999987325 0 0.9442929485423838 0.00856842592302362 0 0.9557746443352786 0.02280619297906341 0 0.9585202131458016 0.03407231739277096 0 0.9826664106061109 0.04999425894105669 0 0.9894765352394789 0.0684380139705313 0 1 0.07499999999985282 0 0.9731467831960799 0.04821266290296181 0 0.9379629629627908 0 0 0.9446345804604215 0.0190773717571234 0 0.9616802182419637 0.04595372140219305 0 0.9782823802273823 0.06030217706090735 0 0.989451985183032 0.08050744408867089 0 0.9325216332834495 0.01284474775228183 0 0.9465170804786112 0.03069153537648504 0 0.9496934608109858 0.04256781341738092 0 0.9795050742281742 0.07337817575351858 0 1 0.08749999999983374 0 0.9652162332542844 0.05720512920597365 0 0.9255555555553578 0 0 0.9345170634489889 0.02719558348064075 0 0.953093815431172 0.05405921440616954 0 0.9685460058097899 0.06909536582968334 0 0.98728369388849 0.09382659378260867 0 0.9805226442312183 0.08514170609006395 0 1 0.09999999999981467 0 1 0.1124999999997956 0 0.988993737660691 0.107078473770018 0 0.9184213778043754 0.01153481073425222 0 0.9223932260857072 0.02381901809360759 0 0.9376425683520706 0.0390984544005625 0 0.9410785227986793 0.05075649555879436 0 0.9720472864038698 0.08087326889897072 0 0.9894886508945546 0.1189207605968316 0 1 0.1249999999997738 0 0.9565481966193201 0.06560763363392677 0 0.9131481481478814 0 0 0.925639432542712 0.03591922197275709 0 0.9445312594534674 0.06233595697900492 0 0.9599378992065449 0.0775170992494431 0 0.9751463397801405 0.09296133503299653 0 0.9776850130671995 0.1037319287169659 0 0.9810986690084555 0.1134226928074858 0 0.9892291597290137 0.1312762650808165 0 1 0.13749999999974 0 1 0.1499999999997036 0 0.9891738418632859 0.1437446394041732 0 0.9055302637531844 0.01013025364358556 0 0.9103058984467449 0.02099397219756099 0 0.9137203866696026 0.03267443668551233 0 0.9290557275790026 0.04757911449155537 0 0.9325145141084108 0.05916486362217102 0 0.9631498160570073 0.08951087246383714 0 0.979397463887002 0.1233896481180298 0 0.9892504408890122 0.1561987623495273 0 1 0.1624999999996672 0 0.9480237354019692 0.07416040309348571 0 0.9007407407404482 0 0 0.9168131675569479 0.04450612865745524 0 0.9360190899573584 0.07083238510343604 0 0.9511626858069369 0.08608459361904336 0 0.9662588571852965 0.1010948051681662 0 0.9699284795328293 0.1139926528355835 0 0.976601407186647 0.1359404142796009 0 0.9782682008692027 0.1499161975483909 0 0.9897133697830596 0.1685239443939478 0 0.8933901096606934 0.009436185767582535 0 0.8983317591691568 0.01883746530513343 0 0.901748855600996 0.02934017175846439 0 0.9047869272022201 0.04131532278892425 0 0.9204682368485957 0.0561906632175497 0 0.9239884312344803 0.06761082729229748 0 0.9544733516146071 0.09751690898054755 0 0.9697733599214358 0.1253958683314178 0 0.9801423743827566 0.1626564265440821 0 1 0.1749999999996307 0 0.9391166733407588 0.08287876936488041 0 0.888333333333015 0 0 0.9075625081884329 0.05302522005073664 0 0.9271212373438831 0.07951631679725185 0 0.9424154799986048 0.09458456432262143 0 0.9578887843158184 0.1088935957016878 0 0.9604213594695432 0.1209516685858275 0 0.9637488134955779 0.1332447003665467 0 0.9668432489893313 0.1450780233889703 0 0.9694748409806534 0.1575501707360291 0 0.9887236713352245 0.1815698909046032 0 0.9815957922829862 0.1736451256453342 0 1 0.1874999999995943 0 1 0.1999999999995579 0 0.9917067147210873 0.1933253362578645 0 0.8820492215323276 0.01040767815824815 0 0.8881822481868983 0.01734674085947167 0 0.8900261939104377 0.0265654930978181 0 0.8928815704064417 0.03804595475483823 0 0.8959456775599459 0.05005331225609171 0 0.9116768085669851 0.06446485117555396 0 0.9151380011147323 0.07617171312700985 0 0.9457678288718874 0.1059278755140931 0 0.972345776376434 0.1703066898120533 0 0.9898709704448465 0.204079847391841 0 1 0.2124999999995214 0 0.9303062095295664 0.09130389552697694 0 0.875925925925582 0 0 0.8992435267085452 0.06163480385399679 0 0.9182124172746597 0.08822117360001572 0 0.9336464510150875 0.1029160467118642 0 0.9491352145597054 0.1175148515779027 0 0.9521480277453472 0.1295003702523354 0 0.9551291464185283 0.1416041482711985 0 0.9581404898409531 0.1535170980812285 0 0.961327897107856 0.1658553447910809 0 0.9759598231186992 0.1812555885386402 0 0.9799389318253646 0.1934769429937261 0 0.9870483146808404 0.2170972481048149 0 1 0.224999999999485 0 1 0.2374999999994486 0 1 0.2499999999994121 0 0.9905152135261781 0.2438876644996173 0 0.9889921728723442 0.231193340274281 0 0.8702405722340274 0.011531837055926 0 0.877844606903756 0.02226596653373714 0 0.8809179770894183 0.03471233857925928 0 0.8840098104483458 0.04675260891877209 0 0.8870381422747037 0.05872508367786608 0 0.9028083493450056 0.07325309054724662 0 0.9062819421074078 0.08493945212886217 0 0.9371640182278904 0.1144061874457897 0 0.9643517784558135 0.1782320640690351 0 0.9796819702083701 0.2062253615932715 0 0.9918555620461244 0.2542926600006307 0 1 0.2624999999993757 0 0.9214361268875795 0.09985788520371683 0 0.8635185185181053 0 0 0.8904296743161983 0.07028726541648578 0 0.909220561917982 0.09684906309385551 0 0.9247890425749956 0.1114158722579871 0 0.9401313853986293 0.1261505528583476 0 0.9432381347705594 0.1382318400904531 0 0.946345545599082 0.1503147613727666 0 0.9494520603245462 0.1623987734964817 0 0.9525600097629818 0.1744790571443514 0 0.9676037197905778 0.1899360837272812 0 0.9702491219827724 0.202146290668936 0 0.9737989535728304 0.2144719318057308 0 0.9770273005844251 0.2263178053566475 0 0.9796932749673897 0.2392893339806144 0 0.9824711672575361 0.2517369549139118 0 0.9863511236944368 0.2624426993898966 0 0.8579113845969051 0.01085327188741293 0 0.864397503238819 0.02106207911396456 0 0.8688199017079503 0.03182307588836912 0 0.8720376002424004 0.0434153808090714 0 0.8751310851660304 0.05545277394361064 0 0.8781492505836358 0.06741321202909975 0 0.8937591411734559 0.0820274561688385 0 0.897336349157667 0.09367221886646199 0 0.9281811679385444 0.1230396117987398 0 0.9556153663415873 0.1866346818405648 0 0.9907071581400868 0.2714043257512322 0 1 0.2749999999993392 0 0.9126216792674982 0.1084503313419016 0 0.8511111111106724 0 0 0.8814594790255257 0.07910042074120427 0 0.9003522197583887 0.1055977157049096 0 0.9157959407965486 0.1199765538843992 0 0.9312230053175014 0.1348821342870912 0 0.9343284893604789 0.1469639338093412 0 0.9374345574808611 0.1590472428606468 0 0.940540652812232 0.1711305601635155 0 0.9436472643011627 0.1832130180421512 0 0.958776328408956 0.1986505642636206 0 0.9618824497585378 0.2107367457293892 0 0.96494713030503 0.2228598147671519 0 0.9679751608141874 0.2347761396250608 0 0.9709608845551634 0.2472311371589359 0 0.9742265507593375 0.2594147824151704 0 0.9789870721579426 0.2724087443736974 0 0.9890874855468705 0.2821801686984516 0 1 0.2874999999993028 0 0.8445253332488828 0.01160751185067265 0 0.8529631393760325 0.01931322794384118 0 0.856898224356486 0.02832287142064789 0 0.8600669242578837 0.04007853497736866 0 0.8631601831611142 0.05211347914490796 0 0.8662414298949713 0.06413871242209747 0 0.8692582941563405 0.07605838033075382 0 0.8847748544409819 0.0908864166290575 0 0.8881402656565538 0.1024850490228694 0 0.9192104845974052 0.1315340673771106 0 0.9467530973300319 0.1952973037969496 0 0.9929472411220132 0.293749999999285 0 1 0.2999999999992664 0 0.9033630529511985 0.1171325952248282 0 0.8387037037032392 0 0 0.8723856594825417 0.0879297938729903 0 0.89136536183624 0.1142963245700891 0 0.9070289342543095 0.128626682007392 0 0.9223147815155404 0.1436121313825162 0 0.925422194734306 0.1556983023627169 0 0.9285239212359375 0.1677786667896079 0 0.9316291552240901 0.1798604881723186 0 0.934733745996543 0.191943487930654 0 0.9498576994511916 0.2073829610948395 0 0.9529632490178164 0.2194644893518062 0 0.9560755309010811 0.2315428106114506 0 0.9591832349912679 0.2436317457793029 0 0.9622893720528276 0.2557258806020916 0 0.9653953513767353 0.2678187565472777 0 0.9781177029811652 0.2840368429579503 0 0.9827039490530499 0.2936614009815051 0 0.9892425494578053 0.3063675491002046 0 1 0.3124999999992299 0 1 0.3249999999991935 0 0.989799902810292 0.3199385458385526 0 0.8306400280491431 0.009849342425880127 0 0.8450106993141278 0.02470841824516257 0 0.8480974540832851 0.03674279014046261 0 0.8511899809130148 0.04877572163608379 0 0.8542835871274909 0.06081103388065175 0 0.857376893712005 0.07285004833572314 0 0.8604728535914139 0.08489222189969534 0 0.875913610313791 0.09962048331554788 0 0.8792454578778974 0.1113040558850513 0 0.9103897615394085 0.1403565625848771 0 0.9378388600288449 0.2040278532185415 0 0.9685076097759421 0.2798889604286196 0 0.9713023983720215 0.292044940307478 0 0.9907948350437186 0.332242777623705 0 1 0.3374999999991571 0 0.8946788506737732 0.1257811933431336 0 0.826296296295737 0 0 0.8327697282498032 0.02232352842215449 0 0.8636441366198155 0.09660923507975627 0 0.8825151735801883 0.1229809769097979 0 0.8980903103380307 0.1374440140841023 0 0.9134210374308382 0.1523624691681859 0 0.9165103813821804 0.1644253701660036 0 0.9196141889421736 0.176507450517427 0 0.922718042318351 0.188589404957844 0 0.9258219162838723 0.2006725798178379 0 0.9409420654454181 0.2161107518850347 0 0.9440496505769886 0.2281954669072873 0 0.947158185177865 0.240277471045529 0 0.9502633948441698 0.2523672486982639 0 0.9533683719934709 0.2644556468199512 0 0.9564790362839998 0.2765300323923641 0 0.9750097940073998 0.3039142303983776 0 0.9781389094860351 0.3159738368217406 0 0.9803157198782249 0.3279776591991946 0 0.9904675417326658 0.3454132082219944 0 1 0.3499999999991206 0 1 0.3624999999990842 0 0.9888731005438072 0.3563942151107897 0 0.8202175922978169 0.008128506810177114 0 0.8214636635203771 0.01861825212683611 0 0.8360775745564659 0.03359086486237652 0 0.8392124566901226 0.04546944130100509 0 0.8423131067007567 0.0574722410558789 0 0.8454062360530843 0.06950827545684604 0 0.8484997073224397 0.08154803137773031 0 0.8515694444220601 0.09337722619708275 0 0.8671307293882835 0.1081215280737522 0 0.8705738837476247 0.1198325256426484 0 0.9014500754927851 0.1491898860801383 0 0.928925445662776 0.2127557395309249 0 0.9595920417790322 0.2886002912705489 0 0.9626978648350855 0.3006949017847034 0 0.9825579934254473 0.3385365599238172 0 0.989260738826057 0.3685474363198081 0 1 0.3749999999990478 0 0.88590676393516 0.1345595498599485 0 0.8138888888882863 0 0 0.824117422790658 0.03022902674855948 0 0.8550115561755101 0.1049786959938998 0 0.873666991799511 0.1317098183672355 0 0.8890874761327474 0.1461502106291242 0 0.9044995835966231 0.1610760139200082 0 0.9076018430574291 0.1731565966379497 0 0.9107034306437501 0.1852331789335172 0 0.9138073920800378 0.1973184509822529 0 0.9169102055923424 0.2094009345694108 0 0.932028483317908 0.224839103024328 0 0.9351353856174558 0.2369229095124617 0 0.9382403553588949 0.249008899838505 0 0.9413442847429639 0.2610931333993255 0 0.9444501863867306 0.2731730272127891 0 0.9475624680408605 0.2852457846484738 0 0.9657406991899588 0.3127831483267228 0 0.9687247915725302 0.3248618880673914 0 0.9720124173770699 0.3369833514257939 0 0.977595419224371 0.3493191496464361 0 0.9782687106800494 0.3623404462610403 0 0.9890784814155349 0.3814352090199269 0 0.8090490841471555 0.01246689066161025 0 0.8120502408167876 0.02661711879640604 0 0.82725217494166 0.04210148750845535 0 0.8303444489455538 0.05413354260277339 0 0.8334366207787973 0.06616735220336986 0 0.8365280557578485 0.07820235081057722 0 0.8395395135035766 0.09012483707489279 0 0.8428543367402841 0.1018227114385292 0 0.8584815765566718 0.1165908295718048 0 0.8617074086688576 0.1283856973043174 0 0.8924910781359074 0.1577293046860936 0 0.9200132982286273 0.2214834423165978 0 0.95066982676895 0.2973360357461672 0 0.9537737977584719 0.3094309497398147 0 0.9792785964698835 0.3749877948602146 0 1 0.3874999999990114 0 0.8766805753035547 0.1432703444178593 0 0.8014814814808531 0 0 0.8152893528415821 0.03876215216631772 0 0.8463891133259456 0.1133506456024735 0 0.8647156622716823 0.1403631724206937 0 0.8803220634125195 0.1547947294411677 0 0.8955929520293768 0.1698070962034787 0 0.8986933951007505 0.1818878962718762 0 0.9017950504481356 0.193966505006584 0 0.9048972275823481 0.2060461059301884 0 0.9079983046587585 0.2181288870846248 0 0.9231172522246096 0.2335667233818414 0 0.92622074406623 0.2456511073624129 0 0.9293228497080184 0.2577388448914955 0 0.9324283831953487 0.2698170560335484 0 0.9355356825237482 0.2818967474082917 0 0.9386440007221173 0.2939809642821704 0 0.9568776297862379 0.3215269255030328 0 0.9599819381654675 0.3336227035908461 0 0.9630867494699891 0.3457140970108924 0 0.9664444510387675 0.357807368439646 0 0.9686198947463703 0.3698475881846577 0 0.9873040642130249 0.3950665586546139 0 0.9781966743275922 0.3872464777669481 0 1 0.3999999999989749 0 1 0.4124999999989385 0 0.9894588942307285 0.4076377221442958 0 0.7949820515128484 0.01151341351829837 0 0.799779594130957 0.02320499604511571 0 0.8032152269048125 0.03537881369311614 0 0.8183783598451024 0.05079374478183671 0 0.8214685048640693 0.06282782474136245 0 0.8245585410940908 0.07486144038354847 0 0.8276412212781313 0.08688846606694869 0 0.8306728076546022 0.09886270796992248 0 0.834029430321619 0.1104488128390991 0 0.8497764607735532 0.1251564549520219 0 0.8528113562984264 0.1370945615047843 0 0.8836712010144046 0.1665401939928198 0 0.9111021217751434 0.230211848275364 0 0.941747825340959 0.3060721209129009 0 0.9448510611216034 0.3181659051554059 0 0.9703892443165674 0.3802349851703899 0 0.9893611784167394 0.4194621493591946 0 1 0.4249999999989021 0 0.8679910992826567 0.1519149640594345 0 0.7890740740733984 0 0 0.8063884688333769 0.04744765817914595 0 0.8374573732482986 0.122128772154819 0 0.8558276179803459 0.1490814372496861 0 0.8713847711455962 0.1636031608074893 0 0.8866858543898664 0.1785362454998154 0 0.8897854367967991 0.1906165237496031 0 0.8928867783470407 0.2026914379389088 0 0.8959873184319069 0.2147668388386634 0 0.8990885105554525 0.2268571627432962 0 0.9142041897558573 0.2422947348776854 0 0.9173063821970344 0.2543780391652709 0 0.9204090195897243 0.2664597542553131 0 0.9235154047459113 0.2785409279612506 0 0.9266214850803711 0.2906246474101177 0 0.9297237860396238 0.3027141726213223 0 0.9479560841259254 0.3302539452259111 0 0.9510573655630548 0.3423361019902841 0 0.9541629805274361 0.3543938747174569 0 0.9572396214901985 0.3664253903925596 0 0.9601024343248019 0.3783025808987218 0 0.9750603774986275 0.3964639595198263 0 0.9652132906773192 0.3903602373006183 0 0.9786362290192805 0.4061076680507322 0 0.9799740975200328 0.4157382830252807 0 0.988567768301242 0.4315579008984893 0 1 0.4374999999988656 0 1 0.4499999999988292 0 0.9888225073548208 0.4440808879925994 0 0.7827497393923257 0.01050110781275959 0 0.7874792079998653 0.02091811230202708 0 0.7912988536199954 0.0321203014273807 0 0.7944176312118847 0.0441153117890023 0 0.8095000092214056 0.05948747739997115 0 0.8125916694361602 0.07152338792107843 0 0.8156842455435025 0.08356054804069768 0 0.8187772368083857 0.09560035904820288 0 0.8218030668361902 0.1075738686123221 0 0.8251745213784406 0.1191563514355575 0 0.8409103466421759 0.1338420560900088 0 0.8439181647708877 0.145808329649262 0 0.8747305715156506 0.1753630087878393 0 0.90219011004362 0.2389408654897423 0 0.932826377167784 0.3148048988885758 0 0.9359315515567193 0.3268897119837694 0 0.9779253409485666 0.4252578704200743 0 0.9895766848705023 0.456401357215546 0 1 0.4624999999987927 0 0.8592086216142132 0.1606950303121381 0 0.7766666666659507 0 0 0.7975302329754745 0.05614844924463168 0 0.8284643670480577 0.1308183120097536 0 0.8469715509641664 0.1578317742403682 0 0.8623850700341327 0.1723110382515365 0 0.8777799712658201 0.1872625150106177 0 0.8808785481470324 0.1993395991605392 0 0.8839790104512562 0.2114143176443668 0 0.8870795759137767 0.223487783615161 0 0.8901795447650704 0.2355805499441858 0 0.9052915729979565 0.2510218967012067 0 0.9083936486123489 0.263103535149494 0 0.9114971092985586 0.2751858782926004 0 0.9146015621713115 0.2872685807762213 0 0.9177041239644861 0.2993541148532654 0 0.9208055601836841 0.3114408338696554 0 0.9390398074546991 0.3389483851688813 0 0.9421462028114707 0.3510262088948793 0 0.94524424925079 0.3630962367214239 0 0.9483687776875758 0.3751841795990712 0 0.9514710720713753 0.3872823647780543 0 0.9666037542806201 0.4027448913576725 0 0.9698499447085065 0.4162164091353942 0 0.9760596533067124 0.4375528038004566 0 0.9786687667812539 0.4513093152086916 0 0.989529685298786 0.4687504347444294 0 1 0.4749999999987564 0 1 0.48749999999872 0 0.9891751685622608 0.4812508419651648 0 0.7704443986958855 0.0101119605117314 0 0.7752565841253443 0.01905981897249756 0 0.7793983426771107 0.02928361701689752 0 0.7824746540411708 0.04077923724902725 0 0.7855680088425295 0.05281010859678552 0 0.8006230998435917 0.06818338088387443 0 0.803714164048988 0.08021891685222621 0 0.8068043593941792 0.09225768010085392 0 0.8098953690351343 0.1042977550720447 0 0.8127388219018498 0.1161268016852876 0 0.8158453111523222 0.1278521714550654 0 0.8319385996278486 0.1424654190346129 0 0.835013669293982 0.1545106763931566 0 0.8657757724043456 0.1839136230455709 0 0.893278741526574 0.2476684587002805 0 0.9239066572184969 0.3235242268385595 0 0.9270171995712246 0.3355871761510972 0 0.9548587172798 0.3993346732516626 0 0.9688288581954039 0.4278399516304247 0 0.9798268517484516 0.4631500067071392 0 0.9887729656383784 0.4955413377305926 0 1 0.4999999999986943 0 0.8499908314386428 0.1694165311451274 0 0.7642592592585096 0 0 0.7886552733376038 0.06484282514809905 0 0.8197391562500604 0.139226029151156 0 0.8380269771909515 0.1664905183608806 0 0.8536079186968053 0.1809742390388454 0 0.868870438938329 0.1959954542201913 0 0.8719682865035734 0.2080686789616578 0 0.8750693417617113 0.2201454573199586 0 0.878171783742812 0.2322181975188332 0 0.881268546808189 0.2443108315978018 0 0.8963804039591597 0.2597489165778961 0 0.8994823908498868 0.2718307215903187 0 0.902584361370099 0.2839133882689869 0 0.9056860339114495 0.295995570789493 0 0.9087880367905636 0.3080775969535167 0 0.9118874790987137 0.3201580848351292 0 0.9301319801137817 0.3476408695208813 0 0.9332309010379618 0.3597318063823503 0 0.9363419235670969 0.3718237688000743 0 0.9394436272737182 0.383919219035477 0 0.9426015008174466 0.3960050982482252 0 0.9577150908060613 0.4114656342660656 0 0.959955981142536 0.4239618183508291 0 0.9631664484479903 0.4357413599928797 0 0.9669522262327768 0.4475744415635466 0 0.9701253066174418 0.4597463180025897 0 0.9787926362881857 0.4749758434647687 0 0.9785707911384682 0.4875000085724875 0 0.9922845346239459 0.5062499999987042 0 1 0.5124999999987164 0 0.7582479743130419 0.01005637537495318 0 0.7643755866833488 0.01717921730838611 0 0.7674268725005813 0.0264798791100035 0 0.7705077653255362 0.03744261412538018 0 0.773601922798633 0.04946951523667398 0 0.7766901226993951 0.06150106732530015 0 0.7917458348231936 0.07687700401942071 0 0.7948358737238741 0.08891320035612224 0 0.7979252396388001 0.1009518640023338 0 0.8009145598792264 0.1128631426278145 0 0.8039456286485247 0.1247537968822699 0 0.8070775527561943 0.1365456165199009 0 0.8229961115857211 0.1512392308433659 0 0.8261306623980531 0.1632316461841994 0 0.856955900840076 0.1927554397646936 0 0.8843678107587492 0.2563941451364159 0 0.9149889337524768 0.3322298405085732 0 0.9181023138821727 0.3442915428880121 0 0.9457003594846223 0.4081054110143216 0 0.9707095412981803 0.4692765892781585 0 0.9781831624835344 0.497940464511669 0 0.9825202993478184 0.507798399076046 0 0.9891746824526707 0.5187499999987335 0 1 0.5249999999987492 0 1 0.5374999999987822 0 0.9908484328273854 0.5312499999987657 0 0.8412922434857109 0.17806909814179 0 0.7518518518510555 0 0 0.7797784931662837 0.07353533237990884 0 0.8106809370593897 0.1481158349450165 0 0.8291430169588683 0.1752107833510824 0 0.8447268594630049 0.1897754073274354 0 0.8599485016640301 0.2047563984507302 0 0.8630599156165539 0.216815205858238 0 0.8661567565195946 0.2288886787141275 0 0.8692596300680258 0.2409571236863745 0 0.8723582077732313 0.253038208416989 0 0.8874688156294521 0.2684754939595335 0 0.8905695162677538 0.2805578616309766 0 0.8936703751638692 0.2926398792831636 0 0.8967725972857489 0.3047205038278726 0 0.8998745948925284 0.3168004439767677 0 0.9029736303744977 0.328881860243323 0 0.9212130294515659 0.3563699571561497 0 0.9243166745703477 0.3684632679979084 0 0.927418674956987 0.3805571159762963 0 0.9305290021259804 0.3926484262102274 0 0.9336413147482374 0.4047379812147107 0 0.9487581814284138 0.4201925369464839 0 0.9517399639084385 0.4322611767974319 0 0.9549886723119051 0.444292630157577 0 0.9580938186397731 0.4563812718466503 0 0.9607755659464114 0.4680527275616105 0 0.966269347516868 0.4798578220223089 0 0.9674014325797935 0.492672081002389 0 0.9893675865753215 0.5439044913552641 0 1 0.5499999999988151 0 0.7456481481473323 0.008476090991807309 0 0.7552567143256073 0.02182169163540057 0 0.758549713841558 0.03428793547237512 0 0.7616494173964116 0.04616022709106654 0 0.7647233323567351 0.0581627809532337 0 0.767811300310601 0.07019693836531642 0 0.7828669324462174 0.0855712794947185 0 0.7859566167936991 0.09760981815769723 0 0.7890237074518357 0.1096389898470077 0 0.7919984878407909 0.1216334297818311 0 0.7950990383607657 0.1335016192237198 0 0.7981967036103083 0.1454275369060955 0 0.8141001685404838 0.1601768638081875 0 0.8172957931122795 0.1720017606189422 0 0.8480482402500794 0.2014931278133865 0 0.8754577721054605 0.2651203211441695 0 0.9060749473013596 0.3409521211221012 0 0.9091806537138246 0.3530248040176026 0 0.9367283657426657 0.4168201740705496 0 0.9704806793645879 0.5051914765842671 0 0.9752847799186177 0.5170861916284021 0 0.9799352708926694 0.5283381337701176 0 0.9828565689291061 0.5370787425628633 0 0.9919023468065138 0.555179566187572 0 1 0.562499999998848 0 0.8325637329749044 0.1868374036256851 0 0.7394444444436055 0 0 0.7708981266521204 0.08222994958635647 0 0.8017500532111091 0.1571601806066354 0 0.8202415120254832 0.1839125931871876 0 0.8358931205304529 0.1985231355802116 0 0.8510637298749546 0.2134886582109043 0 0.8541528773754595 0.2255433634920501 0 0.8572513334193539 0.2376099027131882 0 0.8603497198985404 0.2496840242333981 0 0.8634500776522573 0.2617616540521363 0 0.8785571280876969 0.2772026472532051 0 0.881657209264826 0.2892846012904455 0 0.8847575815006794 0.3013654492018754 0 0.8878586735500944 0.3134460704809525 0 0.8909612869836268 0.325528104145725 0 0.8940587834045026 0.3376095476281519 0 0.9122911529596522 0.3651068818832561 0 0.9153952510575429 0.3771967982306179 0 0.9184967768884942 0.3892891713700984 0 0.9215972461308408 0.4013801777656722 0 0.9246914141878679 0.4134685999792684 0 0.9398381793878243 0.4288853595677179 0 0.9429600591719585 0.4409243510064139 0 0.9460622338599731 0.4530201007418468 0 0.9491639495321067 0.4651194644793539 0 0.9522663704648164 0.4772156182119498 0 0.9553690949022219 0.4893118860647984 0 0.9584713048458866 0.5014097053819466 0 0.9800347959591621 0.544373035019726 0 0.9827395899894329 0.5537801746180049 0 0.9865599461675908 0.5635722973444066 0 1 0.574999999998881 0 1 0.5874999999989139 0 0.9894304399450943 0.5815186875151507 0 0.991216974350895 0.5721038250339614 0 0.7333221517271394 0.01119165690736187 0 0.7429846914329099 0.02004403188396226 0 0.7466849604532746 0.03090228755262462 0 0.749772553047938 0.04292091331977536 0 0.7527729615072314 0.05485221763825174 0 0.7558453140064365 0.06686180925811887 0 0.7589324129826356 0.07889069068898051 0 0.7739883331726386 0.09426695414932147 0 0.7770779735488147 0.1063054567812685 0 0.7801698418538209 0.1183462924385483 0 0.7831704931770482 0.1304123077307005 0 0.7862452593733039 0.1424608090254088 0 0.7893595643903337 0.154415209431521 0 0.8049780331778271 0.1689654691064746 0 0.8083859701898726 0.1806947229583387 0 0.8391363763694706 0.210213560920256 0 0.866544592731376 0.2738497780467373 0 0.8971579073006499 0.3496814248265646 0 0.9002636976900242 0.3617577262607596 0 0.9277852427332398 0.4255342513380969 0 0.9620259038589472 0.5139005908259384 0 0.9664917503140704 0.5276561974900078 0 0.9740967583909923 0.5375280526704433 0 0.989850513035297 0.5933625857600944 0 1 0.5999999999989468 0 0.8234934746775315 0.1955016035658651 0 0.7270370370361676 0 0 0.7620195036078403 0.09092588983189601 0 0.7928210822010533 0.1659745175996442 0 0.8113352769598876 0.1926089199314188 0 0.8269295646501695 0.207230642485881 0 0.8421476834180044 0.2221909289729105 0 0.8452469285248351 0.2342590115676661 0 0.848345680535005 0.2463302162585896 0 0.8514433303561701 0.2584147760593306 0 0.8545406659273732 0.2704963325493278 0 0.8696442280679377 0.2859318683687073 0 0.87274576028981 0.29801069389879 0 0.8758461239402561 0.3100908900129409 0 0.8789466547248259 0.3221720237952157 0 0.8820468280073066 0.334254002854377 0 0.8851427605215215 0.3463326145635923 0 0.9033727831470603 0.3738387009505871 0 0.9064749532822689 0.3859304051564699 0 0.9095761105606989 0.39802056162703 0 0.9126770657166837 0.4101115107720947 0 0.9157719408193531 0.4221974877862299 0 0.9309207251338685 0.4375839902450969 0 0.9340243166714284 0.4496727714455377 0 0.9371260794986371 0.4617669259192557 0 0.9402371069711144 0.473854876876394 0 0.9433398792332026 0.4859501304568515 0 0.9464411731634819 0.4980466777846924 0 0.9495399687889952 0.5101394851911396 0 0.9706662533090675 0.5489107415851534 0 0.9739594793705449 0.5619781064365627 0 0.9789926201121733 0.5744192864864109 0 0.9794108931286345 0.5872852682293574 0 0.9902083716224147 0.6058831123073061 0 1 0.6124999999989796 0 0.7206685032562361 0.009293222768118467 0 0.7338386493306097 0.02755987679663536 0 0.7383125551666648 0.04009923302824023 0 0.7408650027603666 0.05157956501857754 0 0.7438913855318181 0.06353910316605269 0 0.7469634799412349 0.07555122628958175 0 0.7500515429329624 0.0875838981295798 0 0.7651090582803952 0.1029628562644514 0 0.7681980972600044 0.1150017562987534 0 0.7712875420840641 0.1270438257064739 0 0.7743638711962841 0.1390878677587947 0 0.7774510735706053 0.1511303622284946 0 0.7804983303405215 0.1629395848847773 0 0.7961990431089173 0.1776437601409951 0 0.7994242327023199 0.189333615763989 0 0.8302232640108436 0.218917381353052 0 0.8576347268301904 0.2825775812176298 0 0.8882406594638497 0.3584103431166321 0 0.891349851626727 0.3704897856521593 0 0.9188775417800576 0.4342840812282533 0 0.953022815795586 0.5226347418862841 0 0.9645247335127849 0.5388048488799093 0 0.9809191573605789 0.60002660987954 0 0.9898661514688429 0.617635109833964 0 0.8147573347554651 0.2042618293767707 0 0.7146296296287233 0 0 0.7231786261666291 0.02022555810823073 0 0.7531407141100392 0.09961928057162529 0 0.7839589120459969 0.1745591551078317 0 0.8024429816897072 0.2013189976444205 0 0.8180738175572533 0.2159663441191305 0 0.8332455476285974 0.2309079663012466 0 0.8363428499631584 0.2429771663283689 0 0.8394373682884806 0.2550675819398745 0 0.8425260079747559 0.2671657055775386 0 0.8456201515540309 0.2792489601543099 0 0.860724907838864 0.2946694600769116 0 0.8638288752971066 0.3067406872825993 0 0.8669341381287735 0.3188160892290505 0 0.8700337700226373 0.3308975152639606 0 0.8731332338821228 0.3429788008597541 0 0.876231755998955 0.3550581933075195 0 0.8944538765342579 0.3825751353148533 0 0.8975555271301352 0.394661496317671 0 0.9006559525276147 0.4067513753627806 0 0.9037558096856717 0.4188428400280329 0 0.9068545918264951 0.4309339505922686 0 0.9219835553801587 0.4463606156868416 0 0.9250942181057114 0.4584287495799516 0 0.9282001817158223 0.4705072685011589 0 0.9313123583895919 0.4825870167462143 0 0.9344133072525116 0.4946832598539747 0 0.9375115875146589 0.5067784903531641 0 0.9557515869138102 0.5343026536344875 0 0.9406093936652089 0.5188644489898648 0 0.9619563380506309 0.5585052242173169 0 0.9581852366568377 0.5464228664397724 0 0.9650582152641871 0.5706068941295088 0 0.9681600937012432 0.5827075561792816 0 0.9705916682574337 0.5949797461347136 0 0.9821081390548134 0.6110700227238743 0 1 0.6249999999990126 0 1 0.6374999999990455 0 0.989174682452666 0.6312499999990291 0 0.708422744861812 0.009313114356182393 0 0.7135318424291901 0.01695913912537308 0 0.7216656974340423 0.03220981709513157 0 0.7285500342820104 0.03891154450414073 0 0.7293389972854994 0.04868332046787425 0 0.7319060955423542 0.06017962265093227 0 0.7349954594332855 0.07221017814085398 0 0.7380851070240492 0.08424240454759394 0 0.7411741524836328 0.09627624166546862 0 0.756229616954684 0.1116561216033234 0 0.7593173150712077 0.12369638842353 0 0.7624023692048449 0.1357415297150041 0 0.765491289170754 0.147773463740858 0 0.7685041671397799 0.1596958814898579 0 0.7716632783376118 0.1715061639972448 0 0.787402785530495 0.1861636000084775 0 0.7905407080991373 0.1980529699547641 0 0.8213163267972747 0.2276739067914805 0 0.8487055640473802 0.2913464992376927 0 0.8793331228813194 0.3671384907699128 0 0.8824363735284183 0.3792177449363653 0 0.9099553919858351 0.4430256994627305 0 0.9437182912324844 0.5309450751862668 0 0.9734685618766279 0.6072415360566032 0 0.9778289184949113 0.6197701359102911 0 0.9922317142588768 0.643314702983642 0 1 0.6499999999990784 0 0.8056971367140051 0.2129403668807158 0 0.7022222222212797 0 0 0.7131392090782253 0.02617437332104617 0 0.7442626860267835 0.1083118139651479 0 0.7751689527573831 0.1831273040158512 0 0.7935632353999709 0.2100410581933389 0 0.8091201578209641 0.224695687507823 0 0.8243529765328551 0.2396602034104806 0 0.8274278220077331 0.2517319333901238 0 0.8305160845245974 0.2638346160398335 0 0.8336080014874295 0.2759169911511656 0 0.8367006784457205 0.2879983928847676 0 0.851810718769185 0.30340608584663 0 0.8549121374877227 0.3154763313744017 0 0.8580192697642237 0.3275472607966078 0 0.8611214230761166 0.3396224873741581 0 0.8642206580152014 0.3517029552303069 0 0.8673201778597242 0.3637827016596669 0 0.8855368330130582 0.3913035865965264 0 0.8886365398212966 0.4033897913928051 0 0.8917357211881417 0.4154833396128072 0 0.894833332528383 0.427573275379991 0 0.8979329045818331 0.4396657394637624 0 0.9130569909671613 0.4550936017116716 0 0.9161741844010609 0.4671713142152442 0 0.9192848287479342 0.4792299547959364 0 0.922386721065295 0.4913205977621073 0 0.9254863872933872 0.5034162848730893 0 0.9285819439833599 0.5155068074963887 0 0.9468228407261798 0.5430392261203375 0 0.93168524132515 0.527591883637732 0 0.9530261596017775 0.5672417632171035 0 0.9499246503495642 0.55514039324733 0 0.9561274287033765 0.579342261261891 0 0.959229757072005 0.5914415385803297 0 0.9623315009640604 0.6035447695349606 0 0.9822358505547696 0.6423198441117187 0 0.9881657427441437 0.6546330767784984 0 1 0.6624999999991114 0 0.6960185185175514 0.01033824067659545 0 0.7022501287830477 0.01978942707328766 0 0.7181223487467029 0.04406314665745047 0 0.7126821115631448 0.03572744042543344 0 0.7199448582204195 0.05683951550382316 0 0.7230319106304536 0.06886903342846785 0 0.7261196632671038 0.08090099704846959 0 0.7292075305192992 0.0929342207508789 0 0.732296582453374 0.1049688186210741 0 0.7473511256081493 0.1203484438590705 0 0.7504390546618696 0.1323876923645863 0 0.7535254010025572 0.144421017439894 0 0.7566146633431825 0.1564506675204294 0 0.7596592989203892 0.1684370386316819 0 0.7628544859165106 0.1802630544882505 0 0.7785230280412018 0.1949877181055698 0 0.7817075297274135 0.2068221803245999 0 0.8124189935157411 0.2364427462030633 0 0.8397960749626329 0.300067944700533 0 0.8704213133528919 0.37586286249332 0 0.8735208570919102 0.3879454729602841 0 0.901030682396983 0.4517460054939406 0 0.934792211748974 0.5396792444076006 0 0.9654328765008354 0.6156488827602834 0 0.977729693788755 0.6322295697235024 0 0.9890818616212047 0.6687115498068004 0 1 0.6749999999991443 0 0.7969528824130852 0.2217116379285052 0 0.6898148148138249 0 0 0.7028193554435147 0.03129378473396422 0 0.7353853818542829 0.1170041824665702 0 0.7660652417197631 0.1923369312427292 0 0.7846631180526964 0.218741560012273 0 0.8002617899284261 0.2334391231240432 0 0.8154294972412194 0.2484271777234258 0 0.8185085229835654 0.2604992491217227 0 0.82160137309373 0.2725777691303253 0 0.8246986908056666 0.2846460995983932 0 0.8277954521653899 0.2967155293092545 0 0.8428967529814044 0.312135592407642 0 0.846004212021755 0.3242029056263415 0 0.8491092280301453 0.3362713993588678 0 0.8522097137298408 0.3483466162434171 0 0.8553085145140196 0.3604263376766451 0 0.8584077522262097 0.3725067652527538 0 0.8766182654900998 0.4000326538098474 0 0.8797156322751856 0.412122667768098 0 0.8828131158515551 0.4242148117236149 0 0.8859110823810071 0.4363042141064959 0 0.8890065576541999 0.4483894994053096 0 0.9041446499710071 0.4638077974273581 0 0.9072621686066572 0.4758608782816802 0 0.9103620014084588 0.4879548188193558 0 0.9134611446063962 0.5000501157443715 0 0.9165579960862558 0.5121438990713819 0 0.91965706616461 0.5242344547389859 0 0.9378940810245142 0.5517755312577841 0 0.9227623934712696 0.5363214315001661 0 0.9409955000979882 0.5638767156091308 0 0.9440965120060805 0.5759782035982866 0 0.9471977945505377 0.5880781013065595 0 0.9502991136197988 0.6001792781434947 0 0.9534001628255095 0.6122819886544157 0 0.9681877468141346 0.6278425161514298 0 0.9712212706272926 0.6399653524450437 0 0.9747354322406599 0.651965637455172 0 0.9780063161695685 0.6635262663587577 0 0.9899720740109756 0.6813915255340841 0 1 0.6874999999991772 0 0.6838633967711172 0.01003045734113664 0 0.6898148148138181 0.01719202778676289 0 0.6909257155168147 0.02692405656112443 0 0.7051554576670396 0.04216372574310678 0 0.7081804337707673 0.05338701063878068 0 0.7111042879147546 0.06551180610078852 0 0.7141513352473391 0.07756479290534168 0 0.7172408443256867 0.08959508945635963 0 0.7203302397328173 0.1016266790314823 0 0.7234188106174768 0.1136615651129336 0 0.7384762716049696 0.1290407976308626 0 0.7415629982198233 0.1410786740448158 0 0.744653982907109 0.1531159230000423 0 0.7477529495250944 0.1651583511920769 0 0.7508436530443229 0.17720297599828 0 0.7538526450260592 0.1890273746038551 0 0.7698591272467603 0.2037889914882638 0 0.7727994027336759 0.2155140455231498 0 0.803486391648209 0.2451724436146411 0 0.8308914385040251 0.3087862006990539 0 0.8615069755428928 0.3845880279339212 0 0.8646037542601619 0.3966723856303878 0 0.8921171972199153 0.4604587507421868 0 0.9258641139524771 0.5484110661491574 0 0.9565006420770381 0.6243863527714651 0 0.9801625662911555 0.6761548763989419 0 0.9882080550369313 0.6946376787725481 0 0.7878998096858068 0.2303827739110137 0 0.6774074074063781 0 0 0.6929104189873159 0.0381611865562471 0 0.7265081094434197 0.1256974653729704 0 0.7572678850793366 0.2005830062833455 0 0.7757582594060164 0.2274363651978127 0 0.7913048032202579 0.2421436539004528 0 0.8065071566761707 0.2571570117168813 0 0.8096019566530065 0.2692257876703144 0 0.8126988114451186 0.2812936884545369 0 0.8157949723783744 0.29336181480926 0 0.8188900781479562 0.3054287470425343 0 0.8339949658556354 0.3208508425260989 0 0.8370988992106453 0.3329186566781791 0 0.8402001956492924 0.3449914149026677 0 0.8432982418045225 0.3570699999070221 0 0.8463965168799433 0.3691500652828392 0 0.8494945013080182 0.3812310590895176 0 0.8676983616026939 0.4087635204473527 0 0.8707912083237553 0.4208593869605259 0 0.8738917184128577 0.4329459865137714 0 0.8769903119584161 0.4450355535931321 0 0.880089323401464 0.4571159908834 0 0.8952289599809314 0.4725150961706057 0 0.8983388891966697 0.4845928566199076 0 0.9014383637525885 0.4966865963706415 0 0.9045365546993456 0.5087793423700686 0 0.9076347115687877 0.5208720207396067 0 0.9107368272130703 0.5329636528018732 0 0.9289659993975197 0.5605133074447419 0 0.9138365802566236 0.5450587707172686 0 0.9320669184303628 0.5726129832773812 0 0.9351675411113246 0.5847134569944747 0 0.9382680647804619 0.5968140731940977 0 0.941368729485686 0.6089154634137758 0 0.9444690350770341 0.6210153565384413 0 0.9595432350659627 0.6365064606178511 0 0.9627031966784942 0.6485195043554891 0 0.9660483928859548 0.659819152980315 0 0.9693583159316075 0.6718484137514926 0 0.9818106419566435 0.687005651239485 0 1 0.69999999999921 0 0.6713789142993969 0.01082100182756728 0 0.6787459107757347 0.02183147375589425 0 0.680956044745367 0.03482318759758471 0 0.6960415227718874 0.05015747445461477 0 0.6991277453475804 0.0621845344214071 0 0.7021894442719679 0.07422594970691077 0 0.7052735310028637 0.08625819992546967 0 0.7083635659253795 0.09828708633598028 0 0.7114524704680952 0.1103188420371909 0 0.7145406554231447 0.1223537139196594 0 0.7295972440836886 0.1377348131975624 0 0.7326872627956735 0.149773538870217 0 0.7357777601270349 0.1618140418602322 0 0.7388677747053075 0.173856745515916 0 0.7417963830157526 0.1857156787538373 0 0.7448574923786068 0.197470492759725 0 0.7607629320241092 0.21226823274982 0 0.763840264391427 0.224152693929008 0 0.7945760425218853 0.2538762771551963 0 0.8219879938329676 0.3174956854100953 0 0.8525926710656773 0.3933118604577684 0 0.8556886186173831 0.4053992926999079 0 0.8832030099149061 0.469178115072507 0 0.9169375208031405 0.5571529041862581 0 0.9475634948271379 0.6331068543315125 0 0.9724755503776376 0.6839515703684567 0 0.9893891810619114 0.7070484700415121 0 0.9758750035030564 0.6945824718858982 0 1 0.712499999999243 0 0.7791501507346899 0.239129365185474 0 0.6649999999989586 0 0 0.6840421020196034 0.04684689889074423 0 0.717628378896582 0.1343904722390278 0 0.7485904162326067 0.2088812942677311 0 0.7668662612903876 0.2361436562999878 0 0.7824546348025306 0.2508619404123484 0 0.797605393083372 0.2658730629974052 0 0.8007030289947524 0.277943251526717 0 0.8037962451120425 0.2900095460686832 0 0.8068921221314204 0.3020768007953031 0 0.8099882642360036 0.3141432720626984 0 0.8250910701808026 0.3295643562106398 0 0.8281926283283809 0.341636995131248 0 0.8312901690540049 0.3537130281740127 0 0.8343874646153089 0.3657921152263315 0 0.8374841531232803 0.3778745950984428 0 0.8405818184997861 0.3899547799425237 0 0.8587822434651718 0.417489573477422 0 0.8618752797777983 0.4295857372208458 0 0.864972638683787 0.4416743159457528 0 0.8680733656823589 0.4537519113645312 0 0.8711810368910573 0.4658156101342634 0 0.8863135284607428 0.4812413538614937 0 0.8894168829917428 0.4933234734692443 0 0.8925155358597554 0.5054155532833766 0 0.8956137774643471 0.517508113980828 0 0.8987128521945553 0.5296014659564523 0 0.9018125669683702 0.5416957993710287 0 0.9200384610681582 0.5692494567789821 0 0.9049117255200392 0.5537911627355021 0 0.923138694286578 0.5813485950870675 0 0.9262384292012132 0.5934485772169585 0 0.9293383615294629 0.6055495261034455 0 0.9324384104649954 0.6176509251290356 0 0.9355438143004857 0.6297201164674189 0 0.9506939106087799 0.645085372636701 0 0.9540957137558679 0.6566196410829613 0 0.9577947098045507 0.6685379571708525 0 0.9612858019876298 0.6805973038580111 0 0.9804034410127094 0.7034572203484245 0 0.9891746830567354 0.7187498499542513 0 1 0.724999999999276 0 1 0.7499999999993417 0 1 0.7624999999993747 0 0.9898228873478601 0.7562497653036149 0 1 0.7374999999993088 0 0.9891624535375731 0.7439776244924784 0 0.9891905734601589 0.7312748074564577 0 0.6588738436249253 0.01037788775306429 0 0.6649139594447996 0.02048472052276413 0 0.6689466825781196 0.03167978275995426 0 0.672086226560717 0.04350753472163793 0 0.6871285359306474 0.05887134194141366 0 0.6902151876891285 0.07089664633490117 0 0.6933086124462129 0.08291995980665033 0 0.696398177183315 0.09494608791613124 0 0.6994868286270902 0.106977322767121 0 0.702574878924052 0.1190102902027201 0 0.7056627927659349 0.1310434005835943 0 0.7207159877496807 0.1464291203770355 0 0.723804445739582 0.1584695599157765 0 0.7268934129778279 0.1705113778992395 0 0.7299628628314913 0.1824611606785871 0 0.7329576560603966 0.1943189200457435 0 0.7360385955930587 0.2061232383983615 0 0.7518632612561373 0.2208811112871715 0 0.75495705684641 0.2328691040877156 0 0.7856862595559441 0.2625993040300152 0 0.8130868945573305 0.326211700053651 0 0.8436796043347534 0.4020346683074244 0 0.846774447016167 0.4141205175731231 0 0.8742949618747757 0.4778795104990028 0 0.9080116948151937 0.5658868218116836 0 0.9387141540698237 0.6416396184969217 0 0.9643910764719404 0.6927014974420214 0 0.9788579628304079 0.7132196080147131 0 0.9687293878398566 0.7056567313819923 0 0.9895214136108333 0.7687499799728399 0 1 0.7749999999994076 0 0.7701104911926048 0.2477993864541075 0 0.6525925925915987 0 0 0.6751715990739309 0.05553174870625029 0 0.7087492707588475 0.14307880078688 0 0.7394411673235537 0.2178742939106496 0 0.7579817734476851 0.2448576747807991 0 0.7735116859128921 0.259572024286866 0 0.7887176308667327 0.2745998795007398 0 0.791798136808243 0.2866575444686225 0 0.7948941142244563 0.2987248056809135 0 0.7979900446563125 0.3107914683033551 0 0.8010870654630798 0.3228592403318392 0 0.8161872602392927 0.3382822699912407 0 0.8192842061838933 0.3503556671115332 0 0.8223799903674462 0.362431741172105 0 0.8254757164626563 0.3745132617235671 0 0.8285715224953825 0.3865988777870409 0 0.8316696046322507 0.3986780292591943 0 0.8498655454532342 0.4262089859627772 0 0.8529563179233058 0.4383013965835574 0 0.8560543604048014 0.4503892470016302 0 0.8591635141740332 0.4624539513074715 0 0.8622771502173292 0.4745182325358476 0 0.8773963065418677 0.4899631094931055 0 0.880495152538992 0.5020530573161612 0 0.883593203957919 0.5141446331785067 0 0.8866909843681761 0.5262378534629134 0 0.8897880745997455 0.5383336068722012 0 0.8928856936876404 0.5504297278986137 0 0.9111115832907921 0.5779831382890043 0 0.8959855096020346 0.5625240165887218 0 0.9142116788706659 0.5900786835338045 0 0.9173142186670821 0.6021606472307708 0 0.9204098013627778 0.6142440600796476 0 0.9235070213665246 0.6263336226742537 0 0.9266761959061636 0.6383566566835644 0 0.942021984148562 0.6534345833095468 0 0.9457824127587986 0.6652734308913816 0 0.9490692882903979 0.6773810815178901 0 0.9523756683919361 0.6893592929582399 0 0.9784452147084344 0.7251513780938688 0 0.9793125463422698 0.7510512200436139 0 0.9809834615724888 0.763718957222577 0 0.976517629037813 0.7388413005084558 0 0.9900103815041739 0.7812155351060579 0 1 0.7874999999994404 0 1 0.7999999999994734 0 0.9892939520110569 0.7935433919761073 0 0.6455819636351394 0.01185060841821199 0 0.653400101796636 0.01904792857546555 0 0.6568189875205472 0.02887660837446892 0 0.6601110674723406 0.04021012613403821 0 0.6632118848868149 0.05220027925106847 0 0.6782575913832815 0.06755672918588979 0 0.6813442173223681 0.07958238005151724 0 0.6844329910588007 0.09160871826861014 0 0.6875225253249717 0.1036372562476678 0 0.6906101348464759 0.115668265321826 0 0.6936978372755682 0.1276991349133094 0 0.6967853173446645 0.1397303933911446 0 0.7118348702082634 0.1551184941847807 0 0.7149240560274257 0.1671549201227506 0 0.7180126424802242 0.1791718166399514 0 0.7209914994357699 0.1911325710860267 0 0.7240991031077011 0.2030103785979237 0 0.7272024243633504 0.2149135760108239 0 0.7429504380834243 0.2297754353039212 0 0.7461192743634772 0.2416302753807113 0 0.7768007804683444 0.2713325537512538 0 0.8041840145217112 0.3349287347769872 0 0.8347669393584853 0.4107567094796434 0 0.8378586181150907 0.4228408632155073 0 0.8653775776421053 0.4866032842782134 0 0.8990855713545884 0.5746188194942587 0 0.9299772773947997 0.6502990766519194 0 0.9554591383648925 0.7014409202391865 0 0.9683467502544656 0.719248402671431 0 0.9828974474912575 0.7749999672851561 0 0.9891746826792014 0.8062499996071101 0 1 0.8124999999995064 0 0.7613595106818126 0.2565485636324997 0 0.6401851851842548 0 0 0.6663005320170836 0.06421666508574141 0 0.6998713094252587 0.151765017671649 0 0.7305509884917749 0.2270508585712094 0 0.7490835736109085 0.2535568027588291 0 0.7646584387761168 0.2682903974409718 0 0.7798247653715458 0.2833243918594401 0 0.7829010549121949 0.2953759871466464 0 0.78599201563657 0.3074392582202471 0 0.7890874441907989 0.3195061413873173 0 0.7921822798545823 0.3315751710532175 0 0.8072795099116845 0.3470006300234654 0 0.8103759196020907 0.3590704332006217 0 0.8134686042608955 0.3711391581221269 0 0.8165627738753752 0.3832427378561034 0 0.8196610586208403 0.3953212433296334 0 0.822758218212278 0.4074004424315766 0 0.8409521963851938 0.4349247284035029 0 0.8440484887981712 0.4470091563809573 0 0.8471425589941983 0.4590860502280241 0 0.8502540562717442 0.4711630437037335 0 0.8533608970325151 0.4832425592230949 0 0.8684756847550525 0.4986914908903829 0 0.8715724306156953 0.5107822702533411 0 0.8746683522643117 0.5228761000069146 0 0.8777625623197844 0.5349753542396077 0 0.8808609391423521 0.5470692295765206 0 0.8839595828389242 0.5591628873381476 0 0.9021846603832895 0.5867113696812775 0 0.8870597999451033 0.5712561295400667 0 0.9052891859511958 0.5987865300362494 0 0.9083952598647449 0.6108344403011163 0 0.911487421446029 0.6229013578369531 0 0.9146040388718484 0.6349845871913978 0 0.9177627205739824 0.6470530507477982 0 0.9334102964770439 0.6622515425961666 0 0.9364076513683532 0.674407193807109 0 0.9401311661339609 0.6861689506932562 0 0.9434341593147958 0.6980884942329774 0 0.9577793432096688 0.7139337353776645 0 0.9673409815632497 0.7310877120761226 0 0.9705929776956042 0.7609481014153445 0 0.9678792963744358 0.7498462840184723 0 0.9733658425324335 0.7732402077688467 0 0.9782931810811977 0.7856376259904568 0 0.9790589496167617 0.7999186036602697 0 0.9893437381434431 0.8190427880523653 0 0.6328994822674934 0.009910993426371761 0 0.6450543053108615 0.02489077367212423 0 0.6481135841785326 0.03699694729601453 0 0.6512439781362742 0.04887609412056156 0 0.6543425037936934 0.06088295212455731 0 0.6693863143294073 0.07624215561337996 0 0.672472899466722 0.08826879223235889 0 0.6755599322414231 0.1002968063419534 0 0.678647087992726 0.1123263368703648 0 0.6817341722253648 0.1243569605244538 0 0.6848214572751874 0.1363871613413064 0 0.6879112865733426 0.1484169045458023 0 0.7029587692134968 0.1638020954197519 0 0.7060455575219433 0.175840908853207 0 0.7091328689234397 0.1878502623138665 0 0.712158782121438 0.199886233848102 0 0.7152676800260706 0.2119051496831532 0 0.718395726929264 0.2237602973733246 0 0.7342652210219608 0.2385692755228874 0 0.7372136844169672 0.2503213508445965 0 0.7678807846180247 0.2800314116414131 0 0.7952780557161947 0.3436447459009926 0 0.8258541916262796 0.4194792314164817 0 0.8289486999329052 0.431559142587541 0 0.8564556095979081 0.4953332947264794 0 0.8901596889742933 0.5833502650125372 0 0.9210344152216872 0.65909792831477 0 0.9465306036396545 0.7101827692276255 0 0.9594478617263673 0.7244186372986318 0 0.9642746600399762 0.7402524375150796 0 0.9794512262882973 0.8134949513180063 0 1 0.8249999999995392 0 0.7523158276100147 0.2652169368045541 0 0.6277777777768812 0 0 0.6334313735721495 0.02152350213771248 0 0.6574292037826382 0.07290146719922297 0 0.6910002705145639 0.1604515114132657 0 0.7217386062929976 0.235388271715826 0 0.7401810231843857 0.2622505118508447 0 0.7557070478647161 0.2769912869667301 0 0.7709016334387495 0.2920221289386871 0 0.7739956639936056 0.3040877937119678 0 0.7770901350977582 0.316152337965252 0 0.7801837921307033 0.3282208640278413 0 0.7832786241683657 0.3402901855266569 0 0.7983725509288674 0.3557141776890755 0 0.8014678707276494 0.367784842736367 0 0.8045620995915541 0.3798622497466121 0 0.8076539815328425 0.391963177141947 0 0.8107502509769122 0.4040441955019382 0 0.8138466494227223 0.416122088012119 0 0.8320470974158283 0.4436382412761891 0 0.8351469436680178 0.4557182998080845 0 0.8382413673911887 0.4678018918574331 0 0.8413459163199922 0.4798827465356889 0 0.844440121021517 0.4919703952629704 0 0.8595464807627373 0.5074319957671805 0 0.86264055780588 0.5195272823753755 0 0.8657353803755239 0.5316218846500244 0 0.8688364466628312 0.5437108240545094 0 0.8719355533204733 0.5558020377057407 0 0.8750354699166276 0.5678939282784924 0 0.8932565074560788 0.5954206657743533 0 0.8781352018625965 0.5799866728827402 0 0.8963779707178077 0.6074613477779107 0 0.8994951916691809 0.6195117799307109 0 0.9026279068443477 0.6315821976663237 0 0.9057137121715787 0.6436856735740758 0 0.908830340063867 0.655778055268827 0 0.9241642744642228 0.6711912451855487 0 0.9274415172289949 0.6830898767303339 0 0.931297238604722 0.6948356154578583 0 0.9345145210785383 0.7068387156161962 0 0.9494078773531902 0.7222341479014336 0 0.9544136384751748 0.7342664849839833 0 0.958947596175126 0.7585898862527056 0 0.9620528320083314 0.770694064621582 0 0.9558401014000658 0.7464875278288874 0 0.9651895165647271 0.7826850139556103 0 0.9682625073269288 0.794904424389524 0 0.9699517162235753 0.8076986284999859 0 0.9880714028062195 0.8325820583806219 0 0.9784399248347835 0.8247622143652171 0 1 0.837499999999572 0 0.6215740740731996 0.008055175217386882 0 0.6226142038960263 0.0180938620688913 0 0.6361820646564725 0.03356627381318163 0 0.6392711019746993 0.04556180766171269 0 0.6423721780043617 0.05756230932286555 0 0.6454708418246391 0.06956858861135319 0 0.6605141379895644 0.08492789248819356 0 0.663599703842556 0.09695538599373303 0 0.6666858504648305 0.1089843593450374 0 0.6697719866348468 0.1210147292782463 0 0.6728582300197524 0.1330455231957331 0 0.675945270476169 0.1450762124186343 0 0.6790333990694211 0.1571077154945334 0 0.6940875928406872 0.1724879270589797 0 0.6971808192027305 0.1845006656329616 0 0.7002847156865848 0.1965122111781367 0 0.7033864572632746 0.2085477570469879 0 0.7064153551990098 0.2205298480698057 0 0.7093481371123727 0.2322685480702492 0 0.7251892022342941 0.2470677743714658 0 0.7282605048286239 0.2589625665042097 0 0.7589701687277843 0.2887390904200744 0 0.78637308644034 0.3523590687685437 0 0.8169419903327136 0.4282044027378671 0 0.8200400063852362 0.4402810148711783 0 0.8475230748484821 0.5040766497772711 0 0.8812296776248161 0.592071477478797 0 0.9119307235306076 0.6678777359306102 0 0.9375977974664359 0.7189194719652061 0 0.9712366983778749 0.8185555446884246 0 0.9906477732677827 0.8445922406344951 0 1 0.8499999999996051 0 0.7435600599205201 0.2739601111567953 0 0.6153703703695188 0 0 0.6242352866541994 0.03023208178543005 0 0.6485555444517244 0.08158975100187407 0 0.6821191953525139 0.1691340445630265 0 0.7127798271506333 0.2439429225316203 0 0.7312891245930946 0.270954331678282 0 0.7468570075358373 0.2857097743365723 0 0.7620012229642212 0.3007367759717634 0 0.7650951359741962 0.3127993202215064 0 0.7681845689731213 0.3248709083825216 0 0.7712766237508568 0.3369392146454757 0 0.7743669281308971 0.3490101848048187 0 0.7894665955959976 0.364428339898038 0 0.792560534714038 0.376504922528472 0 0.7956508702894822 0.3885885475950586 0 0.7987399126307647 0.4007010658305492 0 0.8018397670758581 0.4127641003252865 0 0.8049276549798761 0.424859125047523 0 0.8231375721857312 0.4523597288020064 0 0.8262349832448022 0.4644409544149517 0 0.8293322878506976 0.4765232814693604 0 0.8324290140989219 0.4886056455455084 0 0.8355200236165262 0.5006958774217991 0 0.8506196453278211 0.5161707871123564 0 0.8537154832626068 0.5282630405248524 0 0.856815037091932 0.5403510740319906 0 0.8599142397146884 0.5524402686504164 0 0.8630130229554713 0.5645314053065731 0 0.8661119371524844 0.5766234975473824 0 0.8843502807561149 0.6041184389066827 0 0.8692102844146495 0.5887171935997993 0 0.8874769399148976 0.6161524228684202 0 0.8906009703727326 0.6282188527704177 0 0.8937014800555627 0.6403160839371616 0 0.8968020151655021 0.6524139774564934 0 0.899902714496887 0.6645120966550433 0 0.915100078600426 0.6798447513488235 0 0.9187428928441774 0.6916687293709869 0 0.9223364068210025 0.7034985055127848 0 0.9255641835831938 0.7155574387039813 0 0.9407026607137965 0.7310224368142283 0 0.9438070883495551 0.7431251251774406 0 0.9500171996973844 0.7673308758017996 0 0.9469119119964162 0.7552279425491784 0 0.9531217935239412 0.7794353514354064 0 0.9562262923570333 0.7915404539521278 0 0.9593326025556925 0.8036397354759472 0 0.9618430231784064 0.8158301121439046 0 0.9766309640396393 0.8343232882866383 0 0.9664430232638654 0.8279041536655081 0 0.9807351507939908 0.8432733432632512 0 0.98997504128936 0.8566591596657429 0 0.6101777611949745 0.01195742888136329 0 0.6125724222821762 0.02634951219338904 0 0.6273157036641834 0.04224789329029325 0 0.6304003549142616 0.05424716445769781 0 0.6335042873826038 0.06623724896131086 0 0.6365908674680456 0.07825596745296629 0 0.6516389300558405 0.0936184665876557 0 0.6547243102524366 0.1056456157752451 0 0.6578098214862479 0.1176759850863448 0 0.6608964151021089 0.1297039990464647 0 0.6639826087625167 0.1417338823975297 0 0.6670690235582799 0.1537650126091844 0 0.6701528124041505 0.1657950698864878 0 0.6852134292947683 0.1811499193124405 0 0.6883137267366248 0.1931691413690544 0 0.6914135337793492 0.2052022703477761 0 0.6945016101562583 0.2172434381131769 0 0.697338608590036 0.2291073032629046 0 0.7002620726329293 0.2409409607609327 0 0.7162896978443909 0.255645943225372 0 0.7193708532760185 0.2676683592985283 0 0.7500910739195429 0.2974717860349872 0 0.7774620974788817 0.3610764831781788 0 0.8080212134790489 0.4369467157599527 0 0.8111252619564088 0.4490090355122221 0 0.8386020723670989 0.5128104089723567 0 0.8723134583021563 0.6007851069317776 0 0.903014064941468 0.6765889280400095 0 0.9286688377955887 0.7276596834450416 0 0.9809132987675571 0.8523901885552487 0 1 0.862499999999638 0 0.7345279116801506 0.282629336206846 0 0.6029629629621371 0 0 0.6153685706866496 0.03891337235804024 0 0.6396777254851997 0.09028608233672367 0 0.6732428495037117 0.1778165437432451 0 0.7040673009629111 0.2524064073738263 0 0.7224045510288667 0.2796648737714247 0 0.7378844921333033 0.2944027137488788 0 0.753102350618884 0.3094474513749116 0 0.7561780407626655 0.3215509320510219 0 0.7592659640498245 0.333613324193978 0 0.7623475144637056 0.3457080152851137 0 0.7654446090067004 0.3577787544844937 0 0.780561317475845 0.3731422879301068 0 0.7836493611402806 0.3852275906000374 0 0.7867402486867935 0.3973365849611256 0 0.7898206546847784 0.4094741039648059 0 0.792888607663599 0.4215763398855711 0 0.7959819088407314 0.433648572437044 0 0.8142237580825001 0.4610818162195172 0 0.8173200865304587 0.4731640997020442 0 0.8204168819851337 0.4852465740234713 0 0.8235125038310733 0.4973277736432638 0 0.8266033110359767 0.5094216453979638 0 0.8416994339473233 0.5249019940358196 0 0.8447959152354896 0.5369902656684433 0 0.8478942914803866 0.5490785399213998 0 0.8509924240178754 0.5611685484263468 0 0.8540899705350941 0.5732603998630468 0 0.8571884591086836 0.5853532458427899 0 0.8754482586066017 0.612827162775736 0 0.8602832942620857 0.5974195726785394 0 0.8785704922438938 0.6248649741232346 0 0.8816747169949708 0.6369526192546097 0 0.8847748605252633 0.6490501292516776 0 0.8878747561024373 0.6611480749109913 0 0.89097605813043 0.6732423674096975 0 0.9063555556587272 0.6884410988141987 0 0.9099265601511932 0.7003025283619229 0 0.913487175255036 0.7122668540969694 0 0.9166277383577045 0.7243084917721281 0 0.9317733663099014 0.7397624056304106 0 0.9348777986320144 0.7518649470600619 0 0.9410866188013164 0.7760714952285592 0 0.9379823124654094 0.7639676277519883 0 0.9441906716840635 0.7881763125551694 0 0.9472967194792625 0.8002748999497366 0 0.9504125445559055 0.8123607524571065 0 0.9536752951370522 0.8244677682313295 0 0.9685415664210849 0.8404663471391834 0 0.9718024057811891 0.8520157105590574 0 0.9893585753409183 0.8688289881822957 0 0.9777624066174769 0.8626776603570936 0 1 0.8749999999996708 0 1 0.8874999999997039 0 1 0.8999999999997368 0 0.9901504819086442 0.8937555315026656 0 0.9894402862380729 0.8812500000028269 0 0.5964026079474412 0.01032653566646274 0 0.6008441335036061 0.02159365949789747 0 0.6035522917339061 0.03509392938317935 0 0.6184515626558575 0.05093144355830333 0 0.6215323759908795 0.06293210293386729 0 0.6246246422853378 0.07494220115233566 0 0.6277066279186725 0.08696089553980775 0 0.6427606051544851 0.1023159900923339 0 0.6458460414655754 0.1143410531507937 0 0.6489343249976897 0.1263661539222816 0 0.6520213051126817 0.1383919078832816 0 0.6551066215312926 0.1504217078588311 0 0.6581915347032419 0.1624537092793619 0 0.6612744429224031 0.1744837672111637 0 0.6763358720261625 0.189835688849327 0 0.6794420321882008 0.2018569964723424 0 0.6825297613160086 0.2138965870053277 0 0.6854907494919035 0.2258341036282684 0 0.6884438490341068 0.237705037587627 0 0.6915916211063509 0.2495785179231123 0 0.7073989745439843 0.2643286368504391 0 0.7104918791027679 0.2763845094912136 0 0.741169750844729 0.3061667824068874 0 0.7685528727793554 0.3698067848026308 0 0.7991052161747254 0.4456890243618211 0 0.8022117062351022 0.457731792359396 0 0.8296903024813689 0.5215394450661686 0 0.863409915114896 0.6094710241131787 0 0.8941298564104623 0.6852444844496205 0 0.9197401232270965 0.7363996138312014 0 0.9566583407432487 0.8365490139682896 0 0.9899392050990337 0.9062831890118689 0 1 0.9124999999997696 0 0.7257453164399089 0.2913772421999062 0 0.5905555555547555 0 0 0.60650107750562 0.04759440031457939 0 0.6308044701635432 0.09897557756497724 0 0.6643592462663526 0.1865034852488348 0 0.6950212834196151 0.2612986696355986 0 0.7135446528897108 0.2883997740086788 0 0.7289158923796513 0.3030613613080743 0 0.7441851042553593 0.3182010720132765 0 0.7472266513089842 0.3303967481199933 0 0.7503012560796039 0.3425108476533787 0 0.7534004497130079 0.3545376292924225 0 0.7565377914743557 0.3665334295437979 0 0.7716555755961936 0.3818583414525048 0 0.774736303603521 0.3939725486820574 0 0.7778443897719338 0.4060556530942451 0 0.7808997879021673 0.4182064628715488 0 0.7839732628343101 0.4302939659520882 0 0.7870603492508388 0.4423472069456905 0 0.805309654470578 0.4698052426744255 0 0.8084058337289755 0.4818854373082689 0 0.8115017774930759 0.4939693494014041 0 0.8145975836826798 0.5060501672768446 0 0.8176904217961756 0.5181406051916986 0 0.8327801843828785 0.5336288590346098 0 0.8358756745223666 0.5457174644300252 0 0.838973030524652 0.5578059184458461 0 0.8420699184511038 0.5698930182391024 0 0.8451676625396902 0.5819892017878053 0 0.8482586366499395 0.5940737762932753 0 0.8665382074627117 0.621514660219759 0 0.8513747045169964 0.6061188595335604 0 0.8696489030869656 0.6335897032641784 0 0.8727487807714571 0.645686858020459 0 0.875849123626645 0.6577835277533581 0 0.878949428547551 0.6698785709814512 0 0.8820534114355023 0.6819593811024796 0 0.8978010834327127 0.6971845942274406 0 0.9012380730669176 0.7090950205032917 0 0.9045984486482195 0.7209300550188595 0 0.9077076616370925 0.7330373055367154 0 0.922844349776033 0.7485019321245343 0 0.9259485676588378 0.7606043466615251 0 0.9290525421974347 0.7727073265097506 0 0.9321562961637123 0.7848110726716113 0 0.9352603391425427 0.7969132907525465 0 0.9383750050094759 0.8089859483485959 0 0.9414936431133873 0.8210873332550915 0 0.944616258646514 0.8331859829118186 0 0.9597648000111185 0.8486495752070784 0 0.9634504419256038 0.8604920149377142 0 0.9786583017313398 0.8762635434155813 0 0.980036431839123 0.8887853977935876 0 0.9815314932491886 0.9009169620549529 0 0.9900447974762907 0.9184651802856941 0 1 0.9249999999998024 0 1 0.9374999999998355 0 0.989522457985586 0.9298547181611645 0 0.5842235477777176 0.009675746445041012 0 0.5886674194716921 0.01994708170892562 0 0.5916282730708895 0.03166205139833367 0 0.5945733334633224 0.04417512382781606 0 0.6095844220218249 0.05961417122327215 0 0.6126646020954186 0.07163067275181811 0 0.6157490928564064 0.08363631927424364 0 0.6188398518267407 0.09565079272240889 0 0.63388874341561 0.1110014879121361 0 0.636975484728025 0.1230253266593765 0 0.6400615029369504 0.1350503920979562 0 0.6431467164953697 0.1470773614877454 0 0.6462290128572092 0.1591097488683159 0 0.6493136790708677 0.1711389650633736 0 0.6523987012605124 0.1831664323433455 0 0.6674659718116269 0.1985209125157071 0 0.6705603099894198 0.2105508212821436 0 0.6736471443656709 0.2225901246072182 0 0.6765947118962188 0.2345717643262337 0 0.6796521826637105 0.2464606951432166 0 0.6827972271290911 0.2583777691637708 0 0.6984882924738246 0.2732692635787056 0 0.7016513363770616 0.2851384709038781 0 0.7322133985249424 0.3148051642930415 0 0.7596530490572404 0.3785208910119296 0 0.7901941043524017 0.4543792907198528 0 0.7932910212451519 0.4664538924329256 0 0.8207623818853448 0.5302685385899758 0 0.8545015675388244 0.6181607825396999 0 0.8853264935250027 0.6939172966863365 0 0.9108116066254668 0.7451392143839179 0 0.9477283073408277 0.8452854957693492 0 0.9659831296589777 0.8728526442394988 0 0.9831890707248955 0.9124543356150445 0 0.9896640293834384 0.9425917265824297 0 1 0.9499999999998684 0 0.716691399833054 0.3000931387064781 0 0.5781481481473866 0 0 0.597637683458538 0.05626091795634528 0 0.6219282107778077 0.1076682279058656 0 0.6554943310226764 0.195190322910049 0 0.6862389845326935 0.2701763736729998 0 0.7046260685113623 0.2970732416774874 0 0.7200238634394976 0.3118265699559178 0 0.7352857408689364 0.3269098491211381 0 0.7383214640639638 0.3391168337255453 0 0.7413908062406432 0.3512065859343397 0 0.7445084553514008 0.3632275379041439 0 0.7476234840023648 0.3752233727962589 0 0.7627307292930499 0.3906295977291932 0 0.765814365625981 0.402744066745833 0 0.7688912617673351 0.4148551909617127 0 0.771972799510498 0.426946762806081 0 0.7750624915886611 0.4390077632078833 0 0.7781599696121396 0.4510659063948127 0 0.7963962723385809 0.4785219213768026 0 0.7994903295560265 0.4906054366714659 0 0.8025856399538676 0.5026894250221866 0 0.805682499978055 0.5147716550799704 0 0.8087737415649243 0.526854645859689 0 0.8238615044042894 0.5423488464086039 0 0.8269574543172 0.5544210370199517 0 0.8300501330924522 0.5665073793485027 0 0.8331465561506786 0.578597299469729 0 0.8362427839868616 0.5906905416331463 0 0.8393364295095713 0.6027579965952695 0 0.8576243702442177 0.6302269477821831 0 0.8424617024820992 0.6148388733917173 0 0.860723881655111 0.6423224985000175 0 0.8638235579478888 0.6544195537665625 0 0.8669233578652731 0.666517979589008 0 0.870022275259943 0.678614738938757 0 0.8731543210874666 0.6905938019921007 0 0.8889926192306215 0.7057980680382051 0 0.8924891067094923 0.7177156805805677 0 0.8956717283881575 0.7296709251342693 0 0.8987797872326487 0.7417761024640688 0 0.9139154705566503 0.7572414374687139 0 0.9170193528522936 0.7693435095075785 0 0.9201232243122661 0.7814448190874497 0 0.9232267838598687 0.7935410926937819 0 0.9263412994189137 0.805624450883205 0 0.9294711157281728 0.8177162182515435 0 0.9325774999745635 0.8298205292718462 0 0.9356927216216205 0.8419217919881434 0 0.9508327361001445 0.8573873578967737 0 0.9539328204342113 0.8694820322976586 0 0.9688380720187411 0.8845848586408664 0 0.9715510365865284 0.8968584531995105 0 0.9740673233100507 0.909129606974124 0 0.9784017778987185 0.9212825182736424 0 0.9795086187939496 0.934736645262388 0 0.9880437784283839 0.9561999923705249 0 1 0.9624999999999012 0 0.5719499050392245 0.01023333040023989 0 0.5773294809025995 0.01876798104379689 0 0.5798495033650204 0.02916106173481437 0 0.5826213897732683 0.04085076481267313 0 0.5856835004304028 0.05292959814828196 0 0.6007173350013001 0.06829564842149012 0 0.603800729261015 0.08031547021369309 0 0.6068804233581188 0.09232520827420622 0 0.6099702858858957 0.1043385277753529 0 0.6250185790313918 0.1196839036106342 0 0.6281037165209327 0.1317089692624575 0 0.6311886069954625 0.1437347479229836 0 0.6342729440267195 0.1557613327659008 0 0.6373531255257119 0.1677930728670437 0 0.6404389199155254 0.1798170620966741 0 0.6435253838013226 0.1918446065064691 0 0.6585885152334544 0.2072125974780716 0 0.6616786085627171 0.2192442308915876 0 0.6647626717407862 0.2312802877323632 0 0.6677379034746385 0.2433104190256693 0 0.6708589717487362 0.255330295965764 0 0.6739787877921952 0.2672910111094537 0 0.6895265935569738 0.2820479768560544 0 0.6927612633526712 0.2938407639727313 0 0.7232889527555784 0.3237402497864897 0 0.7507376871610512 0.3872642756834704 0 0.7812674748575124 0.4631236107804957 0 0.7843616757301284 0.4751886085419151 0 0.8118490500226156 0.5389800003563862 0 0.8455915384550413 0.6268822148377852 0 0.876770399335817 0.7025178989955974 0 0.9018825023981398 0.7538793939248551 0 0.9387967321115636 0.8540267699594555 0 0.9570065574643871 0.8815337364697952 0 0.9805225823692966 0.9465462953839242 0 0.9915243053284564 0.96865138010739 0 1 0.9749999999999343 0 0.7078430128206865 0.3087853776295443 0 0.5657407407400138 0 0 0.5887664323287576 0.06495656580263204 0 0.6130619593451037 0.1163467776143089 0 0.6466211094854141 0.2038691742556197 0 0.6773878749606791 0.2790146129893318 0 0.6957475439427558 0.3057868044184811 0 0.7111384687353232 0.3206264723991521 0 0.7263452608115719 0.3357599547062468 0 0.7294112144883391 0.3478672242624228 0 0.7324994013733579 0.3599189804321656 0 0.7355987993046751 0.371945229425879 0 0.7387081324799931 0.3839951578412319 0 0.7538067855906905 0.3994025244785017 0 0.7568809747802234 0.4115212275083207 0 0.7599730763935151 0.4235924139931853 0 0.7630671982015125 0.4356614473491687 0 0.7661613107299488 0.4477315122646255 0 0.7692515165045766 0.4597990284631099 0 0.7874666754289597 0.4872526731851278 0 0.7905691337224842 0.4993226734397869 0 0.7936698155616109 0.5114088699229065 0 0.7967678627555237 0.523494719662119 0 0.7998559169292884 0.5355781100961081 0 0.8149508526970001 0.551039713364444 0 0.8180373828281594 0.5631134575444172 0 0.8211357076557089 0.575198492097135 0 0.8242371888737299 0.5872880473864802 0 0.8273179371017244 0.5993649343037628 0 0.8304304419456309 0.6114555194909312 0 0.8486984518540583 0.6389603445944665 0 0.8335551843983821 0.6235342102190192 0 0.8517988010002846 0.6510528052242379 0 0.8548984156131697 0.6631518974064939 0 0.8579973563319974 0.6752511893247988 0 0.861096298838343 0.687346767280669 0 0.8644805584773458 0.6990958017382837 0 0.8803305593137859 0.7143579172359973 0 0.8836279520253847 0.7263196709288908 0 0.8867440170602169 0.7384179844577843 0 0.8898475541474618 0.7505195840876012 0 0.9049867748828031 0.76598067924758 0 0.9080904396397175 0.7780822498345448 0 0.9111925882120009 0.7901809409683289 0 0.9142989078751477 0.8022728779358922 0 0.9174293666683552 0.8143580482761835 0 0.9205500970883358 0.8264553997932993 0 0.9236570142200091 0.8385577108934996 0 0.9267610381925862 0.8506629495889965 0 0.9419017472082722 0.8661306486280079 0 0.9449981786758914 0.8782216874014956 0 0.9601517461041251 0.8937031190764779 0 0.9632463479853445 0.9058128181394158 0 0.9662972904118858 0.9179335494524339 0 0.9690692263184337 0.9301251660511003 0 0.9721548438723906 0.9422391145512277 0 0.9741856165156895 0.9555585688902902 0 0.9804009332876754 0.9682506335298773 0 0.9885832225225963 0.9801157403062909 0 1 0.9874999999999672 0 0.5595370370363454 0.01067270362624106 0 0.5659155388471562 0.01722788746478639 0 0.5681361626213537 0.02658368418558338 0 0.5708025061405959 0.03785027418952917 0 0.5737063548189684 0.04968800570365933 0 0.5767988818204417 0.06165743894186235 0 0.5918496639902866 0.07697551712888295 0 0.5949303425247794 0.08899174153786749 0 0.5980160417984256 0.1010044777176637 0 0.60110126226123 0.1130140062346585 0 0.6161472485862718 0.1283677277856382 0 0.6192317920030437 0.1403932191764569 0 0.6223162597392122 0.1524184830319262 0 0.6253986064025336 0.1644459721191944 0 0.628481671139288 0.176472612435321 0 0.6315697902122768 0.1884985710818134 0 0.6346559614593217 0.2005276772412279 0 0.6497107605288723 0.2159001230133225 0 0.6527970183240933 0.2279365383381953 0 0.6558819117380301 0.2399700527741002 0 0.6589574396465609 0.2519878764542225 0 0.6620624276065529 0.2640020922823203 0 0.6651073185013365 0.2759858782652148 0 0.6806318096449125 0.29084837601868 0 0.683867417025251 0.3025381616590288 0 0.7143292539909895 0.3324612200340971 0 0.741797965956619 0.3960797030378768 0 0.7723465617006762 0.4718549381303578 0 0.7754535657483551 0.4839159462444156 0 0.8029324330051795 0.547666569160141 0 0.8366703129508887 0.6356113682632822 0 0.8681245465846799 0.7109554854283298 0 0.8929538209438094 0.76261934589725 0 0.9298649876705505 0.8627689656598603 0 0.9481046870750364 0.8903306282875377 0 0.9908493236212099 0.9908493236212137 0 1 1 0 0.6990559706529189 0.3175614284233678 0 0.5533333333326754 0 0 0.5798979081492863 0.0736404526637271 0 0.6041921141868681 0.125026593059864 0 0.6377451737734012 0.2125568732703316 0 0.668419752754733 0.2877115784751643 0 0.6868538241396145 0.3144838326603832 0 0.7022897587522691 0.3293839885654961 0 0.7174221698280372 0.3445179568045161 0 0.7205140741959242 0.3565769888230144 0 0.7236067597000944 0.368637007432535 0 0.7266990573848482 0.3806981621037063 0 0.7297918010704003 0.3927602040002003 0 0.7448870112000032 0.4081592196457964 0 0.7479763690394385 0.4202366159929062 0 0.7510682930554731 0.4323066623835053 0 0.7541614063561181 0.4443755051210572 0 0.7572541618622722 0.4564462844767903 0 0.7603466698914654 0.4685172079109154 0 0.7785506668136645 0.495980238811934 0 0.7816568336034526 0.5080558321577915 0 0.7847608665767537 0.5201360032482936 0 0.7878461670026187 0.5322270647206168 0 0.7909433148907158 0.5443002968362007 0 0.8060434601798179 0.5597458227569913 0 0.8091547690149429 0.5718229324893003 0 0.8122586993707226 0.5839058959380243 0 0.8153562148242453 0.5959917322887351 0 0.8184555842991579 0.6080781423513529 0 0.8215436858304201 0.6201683099580924 0 0.8397735983908419 0.6476969185048743 0 0.8246519447537534 0.632253263571944 0 0.8428744257335322 0.6597882384456575 0 0.8459736820411341 0.6718858164841859 0 0.8490723519345003 0.6839821813599894 0 0.8522522434979796 0.6958660660399736 0 0.8557181819803232 0.7076082365478154 0 0.871609976110862 0.7229912288066221 0 0.8747038551199338 0.7350696023064296 0 0.8778118264794826 0.7471651608619021 0 0.8809157366490037 0.7592640236071999 0 0.8960583748029847 0.7747196607820671 0 0.8991620447610297 0.7868210329892815 0 0.9022649513039167 0.7989214757283147 0 0.905366714396294 0.8110126923580042 0 0.9085112710320472 0.8230941696591032 0 0.9116061204528851 0.8352062941772742 0 0.9147124015443757 0.847308670141917 0 0.9178175003757465 0.8594129803060128 0 0.9329691866535361 0.8748742802048248 0 0.9360740732199053 0.8869787985211499 0 0.9512163885532614 0.9024463735254212 0 0.9543150668644111 0.91455422557373 0 0.9574304735334632 0.9266570507145975 0 0.9605341420946552 0.9387574419600946 0 0.9630353410203822 0.9503338684468878 0 0.9686776586804535 0.9684675710971945 0 0.9749495861914174 0.9790241023362778 0 0.9811939558119313 0.9894561023391901 0 0.987499999999948 1 0 0.5479058223416857 0.01072817081171049 0 0.5556346954650682 0.02238441881222455 0 0.5587180840114004 0.03439982900794061 0 0.561801502456323 0.04641530428216172 0 0.5648365625657183 0.05837358329927185 0 0.5679328420931428 0.07035726534917774 0 0.5829809868470278 0.08565912342049353 0 0.586064599966753 0.09767289536456605 0 0.5891473740398318 0.1096828432815896 0 0.5922347846514178 0.1216934004100707 0 0.6072767325318408 0.137052118155934 0 0.6103608121473042 0.1490766479182674 0 0.6134440339079127 0.1611023776120441 0 0.6165268644739343 0.1731281982556766 0 0.6196112794597834 0.1851553999857957 0 0.6226968646897213 0.197183707113173 0 0.6257820493194517 0.2092134091522378 0 0.6408312805493211 0.2245903315240396 0 0.643916140690972 0.2366212126529368 0 0.6470058040425066 0.2486478912898245 0 0.6500989244166285 0.2606705313336559 0 0.6531944933089009 0.2726818209380397 0 0.6562895345332433 0.2846927495957333 0 0.671852098792979 0.2994320179848982 0 0.674967194694837 0.3112280267729052 0 0.7054800698993438 0.3412145721179608 0 0.7328848014514012 0.4048232673623361 0 0.7634406687368634 0.4805752507793418 0 0.7665551460798392 0.4926439680178178 0 0.7940432665500425 0.5563801723045603 0 0.8277511598532553 0.6443412578516049 0 0.8593558579102463 0.7196266202010354 0 0.8840245285330546 0.7713604328005351 0 0.9209264341745484 0.8715161889274683 0 0.9391778896456475 0.8990821597928578 0 0.9637701020759676 0.9599435835258877 0 0.6900521183313268 0.3262465888488948 0 0.5409259259252939 0 0 0.5710245782912353 0.08233623672845701 0 0.5953212550664267 0.1337147847620379 0 0.628867460156413 0.2212449840096399 0 0.6596632422996455 0.2962435482262409 0 0.6779592254531444 0.3231789716062499 0 0.6933422879276071 0.3380861152772223 0 0.7085252355248809 0.3532259639474178 0 0.7116182660182637 0.365287186754892 0 0.7147081166636682 0.3773454668728738 0 0.7177997381525818 0.3894069439756566 0 0.720891756169121 0.4014697014070125 0 0.7359778850588992 0.416887513823032 0 0.739070973748517 0.4289526586035977 0 0.7421639232650117 0.441018541264943 0 0.7452541120767768 0.4530896988886396 0 0.7483471558708419 0.4651579202760036 0 0.751439705003049 0.4772285180822377 0 0.7696497428660471 0.504706270874304 0 0.7727447853503625 0.5167830786620344 0 0.7758274080054425 0.5289083782241175 0 0.7788946400757433 0.541006282171741 0 0.7820063054998352 0.5530448750714843 0 0.7971464578591203 0.5684613878362745 0 0.8002385722165155 0.5805472480160035 0 0.8033358658458216 0.5926325916044977 0 0.8064333474038584 0.6047189485039324 0 0.8095323452658962 0.6168059488311928 0 0.8126336570404689 0.6288933639793086 0 0.8308516163178886 0.6564317601967221 0 0.8157321699678614 0.6409824644386922 0 0.8339509815638945 0.6685234313303219 0 0.8370495424684675 0.6806179667534533 0 0.8401474991179002 0.6927127965746351 0 0.843536460641235 0.7042303959360997 0 0.8471607580213545 0.7162378649762641 0 0.8626742245295749 0.7317171416502826 0 0.8657771508242017 0.743812749754527 0 0.8688826450760783 0.7559070209578709 0 0.8719846257910857 0.7680080166890515 0 0.8871298949734184 0.7834592500678951 0 0.8902337859136104 0.795559188324179 0 0.8933370557698999 0.8076571892792113 0 0.8964479514909949 0.8197535924961807 0 0.8995568693104969 0.831854805101955 0 0.9026632734675271 0.8439562433442915 0 0.9057661332036103 0.8560603484076543 0 0.9088740074688081 0.8681607591101805 0 0.9240369470451039 0.8836175974734923 0 0.9271412464238016 0.8957216866206086 0 0.9422837307018673 0.9111895139784556 0 0.9453929516168097 0.9232938618955651 0 0.9484974632187018 0.9353968009479965 0 0.9515961406262325 0.947455676132699 0 0.9544794821811666 0.9593668360508413 0 0.9568504261655708 0.9693557167106922 0 0.9625010910931399 0.9787648356919237 0 0.9687498890657277 0.9891745504589343 0 0.9749999999998958 1 0 0.5348165180096194 0.01047462704212293 0 0.541056383723998 0.02104953742233695 0 0.5467962527619334 0.03145803060179575 0 0.5499618092097387 0.0431671024778818 0 0.5529370316838292 0.05509248340211473 0 0.5559899453900821 0.06706811235032348 0 0.5590643072538704 0.07905007640792576 0 0.5741141553610781 0.09433905725203091 0 0.5771972867360393 0.1063502391566131 0 0.580280658898075 0.1183642836982659 0 0.5833660423027983 0.1303822440806794 0 0.5984059556730869 0.1457373376993203 0 0.601489505236117 0.1577602181208144 0 0.6045725595849737 0.1697849588308215 0 0.6076550196697658 0.1818113990411607 0 0.6107374220255902 0.1938403220874113 0 0.6138213997510658 0.205869060312806 0 0.6169049548680914 0.2179006833735815 0 0.6319514485628394 0.2332761394254213 0 0.6350348191355769 0.2453042736131976 0 0.6381280441578898 0.2573263856569573 0 0.6412217045880045 0.2693389006527946 0 0.6443449323015289 0.2812593912109568 0 0.6475548571927243 0.2929542667706608 0 0.6629501873835932 0.3079652099606268 0 0.6660246353899979 0.3198732421934983 0 0.6965905185116184 0.3499320619233278 0 0.7239835810942782 0.413533809986423 0 0.7545441404499186 0.4892856220548144 0 0.7576506702917699 0.5013450898832059 0 0.7851329186748993 0.5651018812677151 0 0.8188312291121044 0.6530722769563648 0 0.8505488951111781 0.7283541527128365 0 0.8750966264187741 0.7801014610099589 0 0.9119901672892478 0.8802561236976741 0 0.9302472119000132 0.9078259578239745 0 0.6812427179616072 0.3349776896456392 0 0.528518518517892 0 0 0.5621565481033478 0.09102554351866243 0 0.5864517377763659 0.142400126347351 0 0.6199895632168776 0.2299322007886961 0 0.6509130231406003 0.3047054665703626 0 0.6690922440028524 0.3319015378231427 0 0.6843985441094783 0.3467617905620154 0 0.6996368255494991 0.3619440278452336 0 0.7027185844755159 0.3739936656082775 0 0.7058097445191841 0.3860532425010657 0 0.7089007446053169 0.3981135413497692 0 0.7119914604396598 0.4101778093661216 0 0.7270755184496405 0.4255986924301284 0 0.7301672834359016 0.4376637473584462 0 0.7332602755620028 0.4497285020314876 0 0.7363490560829011 0.4617991577548112 0 0.7394431459427864 0.4738628039595438 0 0.7425367667231074 0.485927256771257 0 0.7607403550571938 0.5134294177130403 0 0.7638252228475558 0.5255447649163967 0 0.7668692058595432 0.5377427302078163 0 0.7699660372238035 0.5497707541480603 0 0.7730760747313303 0.5618079377331129 0 0.7882248104002159 0.5771869228666807 0 0.7913014914644215 0.5892768523413627 0 0.7943977699575538 0.601362993979155 0 0.7974928118732781 0.6134504946764108 0 0.8005936811437212 0.6255375276471153 0 0.8037102774785368 0.6376215182282714 0 0.8219298581962255 0.6651632537664582 0 0.8068085077460357 0.6497111127560441 0 0.8250275148617512 0.6772542083212223 0 0.8281759163927169 0.6892362711103246 0 0.831511870993067 0.7009861154631385 0 0.8352068305521071 0.712898126267042 0 0.8386282070372253 0.7249970328516736 0 0.8537503568847049 0.7404531676530159 0 0.8568536963944654 0.7525490307917547 0 0.8599566073752821 0.7646451150962694 0 0.8630629671130616 0.7767404722753343 0 0.8782020381258168 0.7921976368858644 0 0.881305816064631 0.8042973839863854 0 0.8844106073538757 0.8163972065252825 0 0.8875136855985445 0.8284999033312916 0 0.8906172244775621 0.840602243852785 0 0.8937208918162329 0.8527050983841653 0 0.8968250823111604 0.8648064753299418 0 0.8999462866020257 0.8768970639371452 0 0.915105122146514 0.8923585013519684 0 0.9182095131327579 0.9044626888570663 0 0.933353766985992 0.9199279479203316 0 0.9364611393446138 0.9320252986831133 0 0.9395726120993533 0.9440786732636247 0 0.9426261114650545 0.9559939700538269 0 0.9451281787769543 0.9677007634241716 0 0.9500065678643612 0.9783964421963569 0 0.9562510169379804 0.98918248313933 0 0.9624999999998438 1 0 0.5220141312778033 0.01051102417343047 0 0.5279546253252121 0.02078663968049385 0 0.5343609423491503 0.03073101342004423 0 0.5384517033537317 0.04023410513724609 0 0.541091668543438 0.05179834768220822 0 0.5440733548643449 0.06376980827729931 0 0.5471271308592893 0.07575553595540664 0 0.5502008973113292 0.08772475461753507 0 0.5652495312405251 0.1030144542688324 0 0.568332962302019 0.1150297116630594 0 0.5714160587908363 0.1270459577967681 0 0.5744993047881159 0.1390627155062211 0 0.5895356912804669 0.1544201308915168 0 0.5926183484649743 0.1664426618749842 0 0.5957036044678488 0.1784417416777573 0 0.5987791102331268 0.1904537319155644 0 0.6018561551725402 0.2024904696516389 0 0.6049440380458673 0.2145513802519401 0 0.6080275283102829 0.2265878232550242 0 0.6230734498256347 0.2419638916990036 0 0.626159518250919 0.2539894243001715 0 0.6292470321578727 0.2660156946988627 0 0.632325089657771 0.2780473414070523 0 0.6355188957510742 0.2898218574291141 0 0.6387602970969666 0.3015721734802409 0 0.654052581473949 0.3165486387782637 0 0.657130341433912 0.3285660292666822 0 0.6876512917540092 0.3585949397112947 0 0.715081621210984 0.4222450553727476 0 0.7456418858648833 0.4979936487950268 0 0.7487383768555778 0.5100712162442638 0 0.7761888104579162 0.5738757672248536 0 0.809909460271341 0.6618004900613472 0 0.8417239662839635 0.7370930889447478 0 0.8661693962289753 0.7888365977799811 0 0.9030638983557746 0.8889946280957278 0 0.9213130370817818 0.9165680271332635 0 0.6722317249280878 0.3436791740313903 0 0.5161111111105617 0 0 0.5532989777434443 0.09968790680772155 0 0.5775830706783737 0.1510818003611512 0 0.6111115667453826 0.2386186512085607 0 0.6420980305854019 0.3133037688585961 0 0.6601738496181407 0.3405698768520412 0 0.6755216894973934 0.3554858295084409 0 0.6907303698563858 0.3706426045070469 0 0.693821503854283 0.3827000070286996 0 0.6969116696718457 0.3947585138012643 0 0.7000020824387534 0.4068206319622896 0 0.7030910498779198 0.4188879886149842 0 0.7181707123041373 0.4343104168685351 0 0.7212614426076065 0.446374461174472 0 0.724354861314774 0.458439011310024 0 0.7274476419115398 0.4705047932399526 0 0.7305455158057579 0.4825690271837856 0 0.733639071412302 0.4946390000002032 0 0.7518224607432287 0.5221807686561517 0 0.7548884415703232 0.5343264844138861 0 0.7579291355767639 0.5464866814727836 0 0.761020861599605 0.5585360182314247 0 0.764143087837454 0.5705994841144928 0 0.7792714890242459 0.5859514649495249 0 0.7823051580358265 0.5980298421467836 0 0.7854575403779616 0.6101074053598177 0 0.788466194647179 0.622204165870483 0 0.7916842886787795 0.6342702760545225 0 0.7947716038398118 0.646359900558695 0 0.8130065475502645 0.6738910698547953 0 0.797872492322395 0.6584520086549879 0 0.8161021722328696 0.6859803142209722 0 0.8194317963947031 0.6978516932589329 0 0.8228901440495183 0.7097193033016784 0 0.8266203662245536 0.7216529254311236 0 0.8297426103043806 0.7337217434964045 0 0.8448269409650102 0.7491877915859341 0 0.8479289393993993 0.7612824077638589 0 0.8510319246171572 0.7733770470346308 0 0.8541386222470956 0.7854745960421132 0 0.8692745935990414 0.800934800154776 0 0.8723778611505209 0.8130355522532142 0 0.8754812321010923 0.825136805022596 0 0.8785847281186069 0.8372384953599218 0 0.8816878325314008 0.8493410659837807 0 0.8847918564152645 0.8614412338609423 0 0.8879023595276996 0.8735326926413305 0 0.8910222046594646 0.8856317047480173 0 0.9061737023783555 0.9010980079242344 0 0.9092775583597896 0.9132037801815707 0 0.9244245312708667 0.9286650280076177 0 0.9275481240117871 0.9407403045890816 0 0.9307240541361878 0.9527507040766714 0 0.934032295118753 0.964241182677244 0 0.9362773734668459 0.9768192672182237 0 0.9437499267558628 0.9891746925128394 0 0.9499999999997918 1 0 0.5099048550852264 0.01074365642630496 0 0.5159097135269894 0.02132689772603121 0 0.5222833924445465 0.03126436030148556 0 0.5284939973056105 0.03896336427847939 0 0.5295652670154218 0.04863681794841514 0 0.5322128969993555 0.06047287643905132 0 0.535209291982281 0.07244703815738646 0 0.5382491394490514 0.08439938533975133 0 0.5413523224993625 0.09634281957780137 0 0.5563850817120515 0.111691744870055 0 0.5594670955640294 0.1237102135757191 0 0.5625497676943256 0.135725498418814 0 0.5656321260434811 0.1477442612358436 0 0.5806657887524472 0.1631013079783103 0 0.5837427581873708 0.1750969678214221 0 0.5868328628067452 0.1870701680567464 0 0.5899029199715622 0.1990965080154468 0 0.5929735407707869 0.2111197196878913 0 0.5960629127711645 0.2232131866446774 0 0.5991515529076703 0.2352737004760215 0 0.614195272174118 0.2506488016233222 0 0.6172825142521808 0.2626775562446716 0 0.6203674406904149 0.2747112275684048 0 0.6233987474818447 0.2866918666827038 0 0.6266947402238714 0.2984672244186471 0 0.6297860154811691 0.3102726735870949 0 0.6451384164982696 0.3252734121627405 0 0.6482412218362633 0.3372645614375914 0 0.6787764277978645 0.3673893025367759 0 0.7061794742439566 0.4309573073086348 0 0.7367360596954324 0.506714419923138 0 0.7398199979849969 0.518821112053176 0 0.767230875061923 0.5826655285682647 0 0.8009822560764769 0.6705358640622252 0 0.8328011976776558 0.7458275775727122 0 0.8572439050223601 0.7975723922675769 0 0.8941367791986133 0.8977341715177373 0 0.9123826004406022 0.925309194826928 0 0.6633744457799888 0.3523501224362673 0 0.5037037037032137 0 0 0.5444409064314512 0.1083564283258255 0 0.5687146907465581 0.1597624621509079 0 0.6022342982572276 0.2473045120019664 0 0.6330350490957888 0.3220328172116954 0 0.6512858505727706 0.3492686929480939 0 0.6666623005254292 0.3642114356042476 0 0.6818486776358954 0.379373592075081 0 0.6849247115854401 0.3914052824224038 0 0.6880142435658422 0.4034623033922375 0 0.6911033264719366 0.41552363524936 0 0.6941885158265673 0.4276054715967013 0 0.7092558998363346 0.4430239253654688 0 0.7123516693351115 0.455086385529787 0 0.715454648687972 0.4671484165471769 0 0.7185461380904441 0.479214983497388 0 0.7216416921280487 0.4912817955141643 0 0.7247370718047951 0.5033499830358127 0 0.7428808304927221 0.5309648014761932 0 0.7459418598119534 0.5431151438152898 0 0.749018837295958 0.5552154947969472 0 0.7521141404109001 0.5672929125902395 0 0.7552104517972986 0.5793695586044245 0 0.7702885562978415 0.5947510771540083 0 0.773380969833368 0.6067841930583435 0 0.7764868372394372 0.618872127120051 0 0.7795938233206867 0.6309864502387441 0 0.7827284071141631 0.6430696836042042 0 0.7858360401165774 0.6551330038046463 0 0.8040822229210454 0.6826189146502492 0 0.7889352230541649 0.667214128370256 0 0.8071658194823851 0.6946949586607271 0 0.8106625008814095 0.7065995858289329 0 0.8140015589488266 0.7185762197860682 0 0.8176117201603124 0.7304256698568161 0 0.8208366146484735 0.742306904284568 0 0.8359030779488805 0.7579216627296211 0 0.8390020945056431 0.7700131393385741 0 0.8421046922147593 0.7821083236473722 0 0.8452141368510822 0.7942103933752573 0 0.8603467662528193 0.8096724845835751 0 0.8634497041886791 0.8217735778181793 0 0.8665529700692813 0.833874842531555 0 0.869655851520923 0.8459762383806519 0 0.8727584105335091 0.8580790068746321 0 0.8758676317329013 0.8701754414261149 0 0.8789892570058029 0.8822718461681518 0 0.882102032390951 0.8943705137685785 0 0.8972418202657337 0.909839023859127 0 0.9003456730626571 0.9219448781032181 0 0.9155066662528959 0.9373888888973261 0 0.9186724287595683 0.9494070563538762 0 0.9221774570215359 0.9609278282084311 0 0.9260653082794356 0.9699401777402131 0 0.931315203894044 0.9892378571175772 0 0.9374999999997398 1 0 0.4974991058338874 0.01074357712906235 0 0.5036993861661728 0.0214858968539325 0 0.5104134137662549 0.03223386712737209 0 0.5175877512402831 0.04366958623651946 0 0.5201747641710659 0.05712012965627464 0 0.5232674353975172 0.06910904549195096 0 0.5263170865092623 0.08108253228928229 0 0.5294008561175759 0.09303474622387185 0 0.5324892781505254 0.1050125510980039 0 0.5475225251689724 0.1203753442744527 0 0.5506003934540483 0.132404938773185 0 0.5536824254063801 0.1444103533253735 0 0.5567614375339631 0.1564341081123225 0 0.5717871240823464 0.171765268944569 0 0.5748449427074728 0.1837439048893086 0 0.5779383593355012 0.1957211634986338 0 0.5810374915106736 0.2077237952822057 0 0.5841226462535689 0.219792244998412 0 0.5871935467833624 0.2318980387200566 0 0.5902753620873447 0.2439596853392675 0 0.6053184468331727 0.2593348540261798 0 0.6084028791317666 0.2713665165226701 0 0.6114870245517792 0.283400055270679 0 0.6145225782669509 0.2953554920030208 0 0.6176209870712805 0.3071894174794721 0 0.6208794833938441 0.3190412680250053 0 0.6362732745643034 0.3339246574236143 0 0.6393525311679827 0.3459628590921359 0 0.6699001705429622 0.3760504146079034 0 0.6972627963881277 0.4396707643772698 0 0.727828025911293 0.5154285811999095 0 0.7308808142799397 0.5276027408327544 0 0.7582916041054268 0.5914283079803171 0 0.7920553671203591 0.679282875956347 0 0.8237649218344939 0.7543977176667603 0 0.8483168374220977 0.8063092209546245 0 0.8852061642357169 0.9064743419782739 0 0.9034504085710806 0.9340506665973067 0 0.923720562776629 0.9795645956501687 0 0.6545822392269526 0.3610779690429581 0 0.4912962962957995 0 0 0.5355869868362908 0.1170577855115793 0 0.5598476080928851 0.16844097088466 0 0.593357282726888 0.2559904520945508 0 0.6241660456967437 0.3308456175201656 0 0.6423974857309965 0.3579659840712552 0 0.6578188303074139 0.37291497549314 0 0.6729388821784369 0.3880539413476564 0 0.6760279459632331 0.4001100086923137 0 0.6791163156648536 0.4121702555290932 0 0.6821984362968527 0.4242418781066455 0 0.6852684482165783 0.4363087249790623 0 0.7002818939092399 0.4517518538660444 0 0.7033870315508108 0.4638126176400482 0 0.7065513880032548 0.4758595152927106 0 0.7096308383485015 0.4879296787683337 0 0.7127254238204728 0.4999972326293259 0 0.7158304553332735 0.5120638472949709 0 0.733938796980482 0.5397381519671288 0 0.7370169209620381 0.5518513988361038 0 0.7401100729850031 0.5639333234814491 0 0.7432049780465363 0.5760096844911169 0 0.7462997702866081 0.5880871894639073 0 0.7613760965568502 0.6034749958555069 0 0.7644537872491182 0.6155294614742493 0 0.7675809172202128 0.6276338174299472 0 0.7707017466536843 0.6397421266970906 0 0.7738024563734545 0.6518175911570367 0 0.7769060579954755 0.6638847104826986 0 0.7951599913176362 0.6913554222460452 0 0.7800070297412287 0.6759797124971347 0 0.7982474115527124 0.7034247742868033 0 0.8015413775837397 0.7154087436859102 0 0.8044564815867425 0.7276183743751088 0 0.8081816157679063 0.7389403348816638 0 0.8118599225942784 0.7505872375313054 0 0.8269803462104656 0.7666567021750509 0 0.8300565172479635 0.7787255821117572 0 0.8331855632296559 0.7908485239755298 0 0.8362879433819572 0.8029458297909806 0 0.8514199870855946 0.8184099676076043 0 0.8545222528763406 0.8305112564076897 0 0.8576244764711924 0.842612813446892 0 0.8607270842655317 0.8547143718309185 0 0.8638307888723903 0.866814765859705 0 0.8669381017051623 0.8789135598505808 0 0.870064793868965 0.8910064564418347 0 0.8731710246631597 0.9031095544657403 0 0.8883099043085914 0.9185798239072744 0 0.8914138519111156 0.9306856602687674 0 0.9065619044634714 0.9461610830091474 0 0.9096564966397548 0.958276269024734 0 0.914453241848739 0.9704222099170878 0 0.9249999999996876 1 0 0.9191413716211738 0.9895534388790562 0 0.4850926735031788 0.01071632196977994 0 0.4912952739636232 0.02148106283205967 0 0.4978936616037893 0.03185452266155946 0 0.5041001019563216 0.04239934606329802 0 0.5081943976317487 0.05391183611208111 0 0.5113198050432892 0.06576935927046626 0 0.5143871009441885 0.07777321479119638 0 0.5174594288323893 0.08977352212779607 0 0.5205407163022295 0.1017904774389427 0 0.5236325335985785 0.1137765707108308 0 0.5386590096637456 0.1291106933480632 0 0.541732763157445 0.1411192776830437 0 0.5448075558029986 0.1531252255838753 0 0.547893995575393 0.165119044633997 0 0.5629306739837188 0.1804547673454223 0 0.5659535255329295 0.1924150313822866 0 0.5690964565366576 0.2043744278690985 0 0.5721974161126324 0.216365968284866 0 0.5752709695727936 0.2284327613707747 0 0.5783150048882058 0.2406170913927311 0 0.5813968662666471 0.2526476937849383 0 0.5964397773048793 0.268021739902278 0 0.599523265245566 0.280054097289532 0 0.60260708280727 0.2920876491545956 0 0.6056906880027721 0.3041217632092716 0 0.6087224776638382 0.3161037157753045 0 0.6119463253542452 0.3278033665762996 0 0.6274364281219853 0.3426756379017423 0 0.6304647816613224 0.3546606106149424 0 0.660997107067399 0.3847484701143276 0 0.688260874297942 0.4483704492072003 0 0.718905705034388 0.5241664197178233 0 0.7219395568142636 0.5363764267968667 0 0.7493747848061143 0.6001483391571638 0 0.7831341330045167 0.6880319818284013 0 0.8143202463053535 0.7628744342423172 0 0.8393905466595545 0.8150470026054668 0 0.8762744005904486 0.9152146871765929 0 0.8945134527925322 0.9428136374965908 0 0.9137318772959573 0.981380025690561 0 0.6455969884104102 0.3697533324193512 0 0.4788888888884407 0 0 0.5267197786704021 0.1257908392754552 0 0.5509821261971579 0.1771152836664333 0 0.5844787019266759 0.2646672960695703 0 0.6152514049733585 0.3395797694999295 0 0.6335120266380559 0.366665079312231 0 0.6488916761234105 0.3816202997090439 0 0.6640404789783452 0.3967652487669152 0 0.6671298573405007 0.4088239843438831 0 0.6702150864105367 0.4208879097072105 0 0.673298925190644 0.4329552715784457 0 0.6763906364113843 0.4450190825779379 0 0.6912508727980268 0.4604628277495458 0 0.6945602837103612 0.4725027757816919 0 0.6976046330408254 0.4846406746166909 0 0.7006624173841485 0.4966578915157638 0 0.7037659109283936 0.5087531818924016 0 0.7069117161178426 0.5207801427858539 0 0.7250153567900252 0.5484930150414364 0 0.7281067303766476 0.5605765276976049 0 0.731201923090565 0.5726505022255635 0 0.7342967702865139 0.5847246131520221 0 0.7373910711286576 0.5967974242401941 0 0.7524668770492331 0.61220859630896 0 0.755566660408892 0.6242896673769841 0 0.7586826484494591 0.6363830716725641 0 0.7617949124745633 0.648463479670159 0 0.7648912068835789 0.6605464793415157 0 0.7679884931332916 0.6726127293358524 0 0.7862421820736509 0.700084011235933 0 0.7711026177530463 0.6846706296554872 0 0.7893416243955278 0.7121654140201948 0 0.7923488321765102 0.7241113039203322 0 0.7949902062334117 0.7357838779732659 0 0.7993347493842184 0.746919945268918 0 0.8023542374876246 0.7587406212355061 0 0.8173590735229408 0.7750474295794275 0 0.8209998101788553 0.7873266980588356 0 0.8242602785012793 0.7995830600147823 0 0.8273369879447229 0.8116843116874621 0 0.8424889502719625 0.827149229117525 0 0.8455937506280163 0.8392498695019779 0 0.8486961284907947 0.8513506136573668 0 0.8517988034188752 0.8634518412255403 0 0.854902038459496 0.8755530912591898 0 0.8580091945048014 0.8876516555579839 0 0.8611279106665626 0.8997486895915574 0 0.8642339743319384 0.9118517753699488 0 0.8793780015012249 0.9273203383843627 0 0.8824817347212572 0.9394264051973247 0 0.8975871346530596 0.9550250653619854 0 0.9007410356316015 0.9669546701905793 0 0.9041638958614353 0.9779216790136965 0 0.9124999999996356 1 0 0.9071803143718091 0.9894382049927961 0 0.4726849432193074 0.01058346391888827 0 0.4784253112053201 0.02348767901456496 0 0.4870005652797608 0.03318500040204886 0 0.4938004000348988 0.04084942482361904 0 0.4961227104874659 0.05103973276411738 0 0.4993768404821323 0.06243276414679064 0 0.5024586848845419 0.07444328671773857 0 0.5055352678570989 0.08645471192314858 0 0.5086185308195037 0.09846469681154084 0 0.5116972721965589 0.1104753015963682 0 0.5147786163315817 0.122485745704442 0 0.5297962383223049 0.1378253132643756 0 0.532864153855406 0.1498226717104153 0 0.5359422334339143 0.1618063698149618 0 0.5390334307105451 0.1737840187536957 0 0.5540576951055629 0.1891230941502411 0 0.5571152164023763 0.2010855048820561 0 0.5602454067503959 0.2130471812360453 0 0.5633463126510119 0.2250390083939328 0 0.5664042091600112 0.2371226968945159 0 0.5694570646826923 0.2491967758331934 0 0.5725186839367855 0.2612699343295509 0 0.5875613223796605 0.2767078195447864 0 0.5906439458177652 0.2887413513305097 0 0.5937271889405642 0.3007745644968617 0 0.5968098523556923 0.3128092917533645 0 0.5998329087221039 0.3247842158852405 0 0.6031162689394597 0.3364876234711873 0 0.6185231384971328 0.351425692870206 0 0.6215775310390577 0.3633575126175332 0 0.6521090232802664 0.3934860567068599 0 0.679352168952979 0.45705718688116 0 0.7099747871316709 0.5329251506855188 0 0.713023712643898 0.5451128231223632 0 0.7404809393948409 0.6088727095581932 0 0.7742263182254731 0.6967152716948537 0 0.804752599026636 0.7713169055332162 0 0.8304458760097635 0.8237900897665578 0 0.8673422274626326 0.9239546046661908 0 0.8855856824352101 0.9515329445450129 0 0.6368006906440977 0.3784826846762557 0 0.4664814814811004 0 0 0.5178597550323286 0.1344961627750571 0 0.5421162348384928 0.1857883403922213 0 0.5755999791199579 0.2733662048273199 0 0.6063202232305849 0.3482406786599764 0 0.6246251620688374 0.3753614610939239 0 0.6400274170308758 0.3903362788443289 0 0.6551568610459451 0.4055031801697204 0 0.6582308381208899 0.4175476018229421 0 0.661313991342545 0.4296080446359068 0 0.6644035880499772 0.4416637713656065 0 0.6674925737701073 0.4537227885803469 0 0.6822495019811616 0.4692064760583951 0 0.6854951873539443 0.4813602225378859 0 0.6886173485787209 0.4934561617339879 0 0.6916271623944359 0.5055574175404826 0 0.6948965883096055 0.5174636403753725 0 0.6979645220843281 0.5296009010485838 0 0.7161035323312648 0.5572250240139951 0 0.7191995473085226 0.5692941472667568 0 0.7222952189291578 0.5813659790447563 0 0.7253907349126649 0.5934393640592562 0 0.7284865965911727 0.60551288706388 0 0.7435822976187569 0.6209475131672644 0 0.7466863702588697 0.6330243748398938 0 0.7497833539252666 0.6451038335096322 0 0.7528792468028429 0.6571855129087707 0 0.755973613790257 0.669257250189498 0 0.7590798243650753 0.6813196633842837 0 0.7773240455675297 0.7088035243688446 0 0.7621940012587803 0.6933772726173194 0 0.7804212542874871 0.7208917755976545 0 0.783342048972153 0.7327996378698589 0 0.7866177242021792 0.7442470730037757 0 0.7900548156060018 0.7552327852535429 0 0.7929054009648444 0.767432212698089 0 0.8082780943712006 0.7836389073878338 0 0.8120485807234012 0.796034351268238 0 0.8153042661047609 0.8082860854963931 0 0.8183330170110228 0.8204538024505933 0 0.8335612883725055 0.8358871888158532 0 0.8366652038586336 0.8479879476689705 0 0.8397680178313258 0.8600881045429478 0 0.8428703309005934 0.8721894856550489 0 0.8459751330653266 0.8842896454490026 0 0.849081753239693 0.896389868491212 0 0.8521901825006404 0.9084901372771779 0 0.8553043358982126 0.9205897106556613 0 0.8704461487840456 0.9360604569825937 0 0.8735494773101092 0.948167464117324 0 0.8884772333248537 0.9643999587121722 0 0.8913512526395999 0.9768701624122282 0 0.8942933347236599 0.989074866743775 0 0.8999999999995836 1 0 0.4602773066287013 0.01005916545107347 0 0.4652421967925594 0.02069012436578054 0 0.4776866993546273 0.03585170596574635 0 0.483884960847156 0.04576852222707147 0 0.4874075532645864 0.05920227683658238 0 0.4905172973714608 0.07110730574419753 0 0.4935985076197679 0.08311626966774444 0 0.4966792542029466 0.09512718140810039 0 0.4997596598281172 0.1071359743405925 0 0.5028415059645639 0.1191477443635462 0 0.5059219233701624 0.1311579831226766 0 0.5209383000021464 0.1464995218339424 0 0.5239941120360702 0.1584824961131114 0 0.5270815501762695 0.1704657962978076 0 0.5301715338366585 0.1824499763259968 0 0.5451823642903638 0.1977741965703846 0 0.5482852350306492 0.209748434676181 0 0.5513918241247496 0.2217103870543617 0 0.5544766807514816 0.2337172247443689 0 0.5575233112222682 0.2457737467878956 0 0.5605946580324979 0.2578469108413015 0 0.5636526109315056 0.2699462940139855 0 0.5786822648631194 0.2853962278495089 0 0.5817650509664718 0.2974273395008264 0 0.584851582813997 0.3094293750339897 0 0.587918412723103 0.3214099157274904 0 0.5909069918517076 0.3333379177526019 0 0.5939635455184522 0.3451580715218636 0 0.6096122479701821 0.3600182269958997 0 0.6126925179727246 0.3720547075916381 0 0.6431988675188235 0.4021910875667583 0 0.6704603124177827 0.4657020810345652 0 0.7010310932415802 0.5417410059798895 0 0.704100092181263 0.5538793591800077 0 0.7315849886377236 0.6175868644301443 0 0.7653071742255891 0.7054423762856677 0 0.7959260486203064 0.7803466485403874 0 0.8215342067781677 0.8325239305842773 0 0.8584112219085315 0.9326917082809212 0 0.8764708192500394 0.9609257995339029 0 0.6278133814959008 0.3871647056590184 0 0.4540740740737054 0 0 0.4685976116533167 0.03225070585237642 0 0.5090035416493123 0.143168573766531 0 0.5332455695940096 0.194456643993233 0 0.5667252128582891 0.2820513081638787 0 0.5976410922551353 0.3566719895228215 0 0.6157415161627429 0.3840601418034158 0 0.6310982197035341 0.3990368307769477 0 0.6462398454201816 0.4142052633177379 0 0.6493293871656313 0.4262572287631947 0 0.652418662412161 0.4383109566956606 0 0.655494522129625 0.45046828615092 0 0.6585577003896467 0.4628888512094718 0 0.6734827203533691 0.4780393712676075 0 0.676604228652093 0.4902626761642874 0 0.6796501604159182 0.5023546132432958 0 0.6827606048886158 0.51436154051113 0 0.6858593856156115 0.5265022374971493 0 0.6889520232855919 0.5385669104715284 0 0.7071980360694193 0.5659381540227345 0 0.7102927672181792 0.5780097669983855 0 0.7133874962533585 0.5900820158580891 0 0.7164833116081299 0.6021554310183269 0 0.7195787554228905 0.6142290347200944 0 0.7346795284065678 0.6296648953770534 0 0.7377738500355235 0.6417440948044165 0 0.7408683241933249 0.6538253590168313 0 0.7439635347876312 0.6659068460165883 0 0.7470577182386592 0.6779728130717798 0 0.7501683741872865 0.6900326410294829 0 0.7684042841872671 0.7175299925685559 0 0.7532894257875162 0.7020881617607185 0 0.7715012218284777 0.7296177653656221 0 0.7744131296045884 0.7415162241915177 0 0.7775713954127023 0.7532299674655514 0 0.7808262313125659 0.7655679691545586 0 0.7839293698237949 0.7773225253384408 0 0.7995937360817358 0.7928226316832094 0 0.8031543072393597 0.8050173943817583 0 0.806036127349644 0.8172041997614274 0 0.8092980929025411 0.8292379904637528 0 0.8246348778463758 0.8446250320972453 0 0.8277375650537048 0.8567245953219638 0 0.830840067280312 0.8688252744962754 0 0.8339430850910097 0.8809259980571192 0 0.8370469981741249 0.8930270722616429 0 0.8401513254289361 0.9051288706983245 0 0.8432643972342235 0.9172234644062743 0 0.8463757483360981 0.9293174766968486 0 0.8615095132118185 0.9448168887769577 0 0.8645865325711901 0.9570170236522891 0 0.87672266503256 0.9754591915318743 0 0.8812499999995151 0.9891746824527096 0 0.8874999999995314 1 0 0.4478703787691451 0.01043700453555594 0 0.4529548569157568 0.01892977292842295 0 0.4573942335962971 0.02895307673926541 0 0.4717189563034174 0.04394116278877492 0 0.4753764538988651 0.05581421523333791 0 0.4785772458020343 0.0677731385360701 0 0.4816583937291661 0.07977998714141743 0 0.4847377565174482 0.09178594416187126 0 0.487819605905169 0.1037980143713546 0 0.4909003478562914 0.1158103569143522 0 0.4939817862779238 0.12782130912477 0 0.4970626173811062 0.1398311388624286 0 0.5120759914536117 0.1551704771172951 0 0.5151364831435883 0.1671521676898363 0 0.5182221710009678 0.1791360538223867 0 0.5213100154790168 0.1911269445301245 0 0.5363080421403472 0.2064330458975443 0 0.5394216126863018 0.2183967062534274 0 0.5425246490753017 0.2303823905167098 0 0.5456043922213718 0.2423985915899555 0 0.5486697300264627 0.2544215851934847 0 0.5517465473952732 0.2664731288896991 0 0.5547910426970419 0.2786368474080558 0 0.5698052408164789 0.2940809577770953 0 0.5728865232313692 0.3061117548928119 0 0.5760153025216758 0.317972360066656 0 0.5789955399599018 0.3299011779889456 0 0.5820667357072211 0.3418602824451307 0 0.5852730459545319 0.353677262495401 0 0.6007233897057488 0.3687350128034289 0 0.6038132726491107 0.3807577687583135 0 0.6342980195664043 0.4108949639165339 0 0.6615409643374981 0.4747688823600725 0 0.6920865129690877 0.5505717207259739 0 0.6951947687037263 0.5625928002947167 0 0.7226732032037605 0.6263048753790749 0 0.7563880979612763 0.7141684092440708 0 0.7871826839810929 0.7899523001463007 0 0.8126054153676967 0.8412615079361162 0 0.8494818707233023 0.9414230271485701 0 0.8676489706720036 0.9684230723188347 0 0.6190161533887851 0.3958896363536833 0 0.4416666666663233 0 0 0.4604782359416209 0.04043001180047746 0 0.5001429564852822 0.1518401866862275 0 0.524389915830851 0.2031379225279144 0 0.5578500552004875 0.2907346846911006 0 0.5886980759076181 0.3654172713616185 0 0.6068597665328297 0.3927594760275058 0 0.6222354792204152 0.4077443123213636 0 0.6373470900099546 0.4229057603838804 0 0.6404348306992678 0.4349589809575568 0 0.643523508970385 0.4470124210836966 0 0.6465710991854734 0.459210927970738 0 0.6495615827894828 0.471506381294144 0 0.6645816978426602 0.486984735796916 0 0.6676748851094187 0.4990368346212326 0 0.6707671871845707 0.5110913345368316 0 0.6738655857134264 0.5231483547398045 0 0.6769506108869395 0.5352045597542119 0 0.680046706695231 0.5472420635234871 0 0.6982915746026364 0.5746533749359806 0 0.701385636994444 0.5867252190015098 0 0.704479820939749 0.5987979701857589 0 0.70757423408498 0.6108714949573053 0 0.7106686748610622 0.6229457505461581 0 0.7257652252330571 0.6383850877321193 0 0.7288598191951792 0.6504651099234673 0 0.7319529280230018 0.6625465921804174 0 0.735044073799922 0.6746239516871176 0 0.7381506646864764 0.6866878664193861 0 0.7412569522567491 0.6987506118452119 0 0.7594849666983601 0.7262557727919919 0 0.7443706250399353 0.7108138286337532 0 0.7625816156910609 0.7383434743534457 0 0.7656785516988502 0.7504309045958421 0 0.7687758398848752 0.7625194577668986 0 0.7718561095805878 0.7746136349470878 0 0.7749510806097376 0.7867054037086524 0 0.7907299828088278 0.8018907390978752 0 0.7937976234227755 0.813990401515942 0 0.7964634462384039 0.8262020957654084 0 0.800464921372809 0.8379487594215073 0 0.8157077981566621 0.8533614648411074 0 0.8188100484147346 0.8654617980930166 0 0.8219122630217924 0.8775619029990074 0 0.825015105238359 0.8896634371687455 0 0.8281186373846611 0.9017640532229427 0 0.831225860348038 0.9138614289191027 0 0.834338930893416 0.9259531621905317 0 0.8374622156211593 0.938004158732058 0 0.8524750194006112 0.9537509616988445 0 0.8549566186338261 0.9672146340120299 0 0.8624662981349362 0.978488524463116 0 0.8693603793285801 0.9890325171879975 0 0.8749999999995011 1 0 0.4347591990546095 0.01118784869091584 0 0.4416671598842044 0.01707446876146019 0 0.4452778658236336 0.02636479771740216 0 0.4485460654753344 0.03711104627063678 0 0.4635597417396227 0.05243621015815729 0 0.4666397671674476 0.06444033101597653 0 0.4697198320783545 0.0764455948926487 0 0.4728005238598291 0.0884507788541562 0 0.4758801302725584 0.1004564112312914 0 0.4789604867536528 0.1124722181719201 0 0.4820422166534737 0.1244856644203384 0 0.4851240043012746 0.1364919231556917 0 0.4882046584296966 0.148500683277114 0 0.50321700984685 0.1638419566242429 0 0.5062801251970563 0.175817893370122 0 0.509366934058497 0.1877967935672874 0 0.5124484850143858 0.1997985200819376 0 0.5274503694801371 0.2151079986661705 0 0.5305547429412445 0.2270962445154451 0 0.5336430886884983 0.2390886529308717 0 0.5367296508623062 0.2510896147553537 0 0.5398213280715694 0.2630958956744378 0 0.5428974777542954 0.2751337336751142 0 0.5459043564991426 0.2873217788870767 0 0.5609282414011613 0.3027632277226929 0 0.564052188492421 0.3146325859168796 0 0.5671369960369463 0.3265647879797006 0 0.570172187621937 0.3385205858328107 0 0.5732791444404404 0.350463734015442 0 0.5764040665327089 0.3624394058135834 0 0.5918239694517664 0.3775422560047861 0 0.5949563220018785 0.389481609348675 0 0.6254107662093387 0.4196026675709408 0 0.6525935301905788 0.483632457478761 0 0.6831774299099003 0.5592544500194563 0 0.6862779943863555 0.5713143411904271 0 0.7137618996402927 0.6350223504721435 0 0.7474695163118324 0.7228944548026018 0 0.7782441585497106 0.798747176951043 0 0.8036765808926278 0.8500027643383035 0 0.840664780663382 0.9497538291970917 0 0.6100408911139183 0.40456403223334 0 0.429259259258989 0 0 0.4516261340715775 0.04910796654497614 0 0.4912767159428865 0.1605006552154841 0 0.5155200449465037 0.2118007137568668 0 0.5489677601462665 0.2993402683145772 0 0.5796193599185108 0.3745192457320209 0 0.5979740822494892 0.4014536546587444 0 0.6132786834324131 0.4164553988865008 0 0.6284542068242404 0.4316046300704501 0 0.6315413129287104 0.4436597807348527 0 0.6345918694736495 0.4557843938834153 0 0.6375890379777908 0.468055999312369 0 0.6406080150057514 0.4802764927629224 0 0.6556861895375387 0.4956838718582551 0 0.6587783940262305 0.5077410285003493 0 0.6618713408798922 0.5197983647444535 0 0.6649649070545947 0.5318581976777957 0 0.6680501808551207 0.5439144137793837 0 0.6711477796197995 0.555951892383673 0 0.6893802367692944 0.5833755819188553 0 0.6924778625403143 0.595441079633013 0 0.6955714273557124 0.6075137971837854 0 0.6986652187258227 0.6195871399964421 0 0.7017589964015444 0.6316615709235742 0 0.7168538577859149 0.6471033467975895 0 0.7199444873464916 0.6591861596549851 0 0.7230372318016408 0.6712667271629613 0 0.7261279799140424 0.6833436771410755 0 0.7292344030730972 0.695402713332707 0 0.7323458847991164 0.7074673659759536 0 0.7505661506212251 0.7349811854885584 0 0.7354524726041236 0.7195411582753839 0 0.7536625697029666 0.7470684042452214 0 0.7567584756900798 0.7591565099172242 0 0.7598543957730122 0.77124613339398 0 0.7629509526805033 0.7833365069927356 0 0.7660505600152876 0.7954228120112204 0 0.7813802824705638 0.8108319216073152 0 0.7843030189019152 0.8229414458363116 0 0.7873652347207387 0.8350775993835687 0 0.7915969606217428 0.846736206167167 0 0.8067816146403912 0.8621000993335977 0 0.8098821626708559 0.874198686394423 0 0.812983936917486 0.8862994535210734 0 0.8160860774696721 0.8984011870569832 0 0.8191907240305826 0.9104997971217086 0 0.82229878301607 0.9225986255529991 0 0.8254101406697656 0.9346986324599867 0 0.828621883987207 0.9464159015916291 0 0.8425439837741379 0.9611025361276244 0 0.8497796803244215 0.9793008978154185 0 0.8562485903100845 0.9893417371713552 0 0.8624999999995662 1 0 0.4223376710538556 0.01035574728321663 0 0.4345540376872772 0.02294499784070171 0 0.4365654454360788 0.03387902642041055 0 0.4396923437060378 0.0458183056466088 0 0.4547029505781355 0.0611073424742017 0 0.4577830664781954 0.07311115227092899 0 0.4608636237069993 0.08511534770029938 0 0.4639440689476853 0.09712076519704158 0 0.4670236353919751 0.1091297156006147 0 0.4701013058682035 0.1211365305750134 0 0.4731807361745733 0.1331443894209943 0 0.4762618908584203 0.1451480247444997 0 0.4793366218626736 0.1571492865440273 0 0.4943506322885238 0.172481609881156 0 0.4974285032645365 0.1844609941103191 0 0.5005094272721722 0.1964614150242371 0 0.5035877661653612 0.2084691516150935 0 0.5185989394120772 0.2237992333237927 0 0.5216807642398644 0.2357926205191395 0 0.5247723831475144 0.2477809276305429 0 0.5278619468775122 0.2597741109671721 0 0.5309558618018566 0.271770122729633 0 0.5340050448695143 0.2838152470221556 0 0.5370288219323585 0.2958668613827299 0 0.5520879214358484 0.3112784777724097 0 0.5552210507888676 0.3232136499781757 0 0.5583337120931844 0.3351981009192385 0 0.5613729711394728 0.3472387398969628 0 0.5644475802995729 0.3592719147697908 0 0.5675886398946743 0.3712361919858343 0 0.5830501835097517 0.3862855488285247 0 0.5860667372580318 0.398171177618317 0 0.6165036248924632 0.4283193175683285 0 0.6436988337443543 0.4923323015428541 0 0.6742646985299212 0.5679895849334239 0 0.6773712649063875 0.5800344469666014 0 0.7048500925244099 0.643739795391421 0 0.738551717530805 0.7316195806782738 0 0.7691788924707963 0.8075126258753855 0 0.7947613409326277 0.8587485030602313 0 0.8328042750029483 0.9562074475695774 0 0.8434640275171008 0.971168850520152 0 0.6011953587296314 0.4133045369936851 0 0.4168518518516177 0 0 0.4260427085732729 0.01912916714509193 0 0.4427728926943756 0.05778600338917859 0 0.4824133388168266 0.1691418029796916 0 0.5066659824876637 0.2204783054179659 0 0.5401002306692344 0.3078684316156227 0 0.5708081542940545 0.3830295598498043 0 0.5890885989835484 0.4101468276257581 0 0.6042859804287113 0.4251975266313471 0 0.6195603282284703 0.4403087654726725 0 0.6226470231120922 0.4523606913262052 0 0.6256603506794991 0.4645574286787955 0 0.6286639602642623 0.4768190584596445 0 0.6317194939485371 0.4889640365099271 0 0.646789449089316 0.5043890786392095 0 0.649881312356647 0.5164466866021137 0 0.652973550009776 0.5285052783753689 0 0.6560648181576406 0.5405658838223699 0 0.659154052892805 0.5526277469874941 0 0.6622483216294957 0.5646788820492673 0 0.6804770871856296 0.5920850297856008 0 0.6835701777223071 0.6041559416441045 0 0.6866630292305673 0.6162269811088893 0 0.68975596523727 0.6283013714891784 0 0.6928494506002343 0.6403771936444984 0 0.7079416227760601 0.6558215776114017 0 0.711030171577746 0.6679066042164585 0 0.7141223017128775 0.6799866151366565 0 0.7172172800005542 0.6920683769861595 0 0.720328019017185 0.7041168071072781 0 0.7234400487440241 0.7161796415184012 0 0.7416475234010244 0.7437062229542902 0 0.7265382296580816 0.7282598993266824 0 0.7447450294915582 0.755788127289855 0 0.7478420758881896 0.7678742420242367 0 0.7509354843493345 0.7799661403828823 0 0.7540416839505142 0.7920500384130498 0 0.7571473028146973 0.8041346411125168 0 0.7723142529205825 0.8194966722092714 0 0.7754715620815837 0.831517232146847 0 0.7786169232100963 0.8437505899206813 0 0.7827183181272859 0.8554794114537932 0 0.7978517982282367 0.8708346574867536 0 0.8009538177136161 0.8829348003684629 0 0.8040555676469365 0.8950361211016331 0 0.8071568187381098 0.9071386132667483 0 0.8102641579151844 0.9192379223135806 0 0.813371454881491 0.9313407139315572 0 0.8164882694161563 0.9434019968749926 0 0.8209499844899083 0.9562503524121568 0 0.8312407421001066 0.967514618519385 0 0.8374904923287289 0.9790101821544821 0 0.8437457238884007 0.9893273799350863 0 0.8499999999996529 1 0 0.4104916863785229 0.01065933571225462 0 0.4164272415210066 0.02097839568259648 0 0.4238883011541135 0.02989051038983025 0 0.4277526471242553 0.04258149862821319 0 0.430844496031557 0.05450200060892094 0 0.4458505822585956 0.06978036785346417 0 0.4489276881549099 0.08178003106557247 0 0.4520093991296954 0.09378552793651479 0 0.4550896898996196 0.1057894491056648 0 0.4581666518939476 0.1177955844958796 0 0.4612376876650509 0.1297932476607536 0 0.4643247646037159 0.1417996005440911 0 0.467400559778588 0.1538022655250797 0 0.4704774022279111 0.1658004024412417 0 0.4854938499351183 0.1811198373710346 0 0.4885722344518849 0.1931244563504517 0 0.491649335445678 0.2051311620235582 0 0.4947264786641671 0.2171391857385424 0 0.5097446590553881 0.2324888841318846 0 0.5128127278742449 0.2444795669849074 0 0.5159061203426611 0.2564609996258134 0 0.5190062723994362 0.2684384229675085 0 0.5220887159110115 0.2804453659625558 0 0.5251456048949278 0.2924662820281339 0 0.5282219846615012 0.3044836321097689 0 0.5432558813746788 0.3198590811194943 0 0.5463758644721215 0.3318544700511573 0 0.5494572594071359 0.3438824677885151 0 0.5525312548774336 0.3559144329260188 0 0.5556118934983996 0.3679419065697279 0 0.5587791505140337 0.3798097697320948 0 0.5741002528638934 0.3949034181137071 0 0.5771560740260313 0.4068378080791643 0 0.6074874366738188 0.437044089993051 0 0.6348027641252497 0.5010375167108942 0 0.665365400727589 0.5767034969911187 0 0.6684756484670361 0.5887378938803066 0 0.6959402938896379 0.6524578045917585 0 0.7296337396114954 0.7403445521243627 0 0.7602416662632925 0.8161868534477926 0 0.7858292535431757 0.8675022688530765 0 0.5921673783120298 0.4220199567280257 0 0.404444444444236 0 0 0.4339219615220477 0.06647552717445392 0 0.4735543989122282 0.1777927145082122 0 0.4978038428477405 0.2291497191226121 0 0.5313059205165322 0.3165022128149597 0 0.5619822095692025 0.3916949600632065 0 0.5802295335471749 0.418865867289072 0 0.5953560816964758 0.4339687025458129 0 0.6106424979574721 0.4490788109057784 0 0.613651870112687 0.4612955041584466 0 0.6166964915570925 0.4734341749130285 0 0.6197263907435056 0.485632559745482 0 0.6228169998080989 0.4976862898377655 0 0.6378932398615345 0.5130942394377759 0 0.6409840935716884 0.5251524402733552 0 0.6440750114494307 0.537211454874404 0 0.6471652054871311 0.549269304461371 0 0.6502550612668159 0.561318623592693 0 0.6533617888503845 0.5733532626707794 0 0.6715706778896497 0.6007986660037927 0 0.6746628827309157 0.6128677788683995 0 0.6777556337480242 0.6249402525343793 0 0.6808476509979495 0.6370160611715575 0 0.6839406239950935 0.6490939149238044 0 0.6990294195384394 0.6645352940132283 0 0.7021183292228855 0.6766167876647384 0 0.7052099757233361 0.6886978308357287 0 0.7083099280555539 0.7007560384366399 0 0.7114205694307638 0.7128267063938076 0 0.714525999259919 0.724900853705867 0 0.7327292107708649 0.7524283213312117 0 0.7176213087530012 0.7369833088192064 0 0.7358319039715258 0.7645012299907812 0 0.7389314907900217 0.776590060449682 0 0.74202976379291 0.7886750382315217 0 0.7451360400503522 0.8007650917474221 0 0.7482467070244643 0.8127973483419475 0 0.76354118794147 0.8278665847045557 0 0.7669406031623766 0.8401630141106711 0 0.770456051244055 0.8525035326935368 0 0.7737720714250093 0.8642296731790023 0 0.7889251991516335 0.8795759137844039 0 0.792026149993458 0.8916722791906389 0 0.7951277180512095 0.9037726558722975 0 0.7982309592378287 0.9158738921795164 0 0.8013362075870247 0.9279758918289549 0 0.8044415313720857 0.9400800973432598 0 0.8077151495593056 0.9516209554953321 0 0.8184719965094668 0.9676625110777333 0 0.8249740132664073 0.9783608939786781 0 0.8312437188579809 0.9892834916773322 0 0.8374999999997397 1 0 0.3982138243413651 0.01068764458504585 0 0.4035211201082667 0.02333058101669136 0 0.4119608746169439 0.03009211946147748 0 0.4157172220808835 0.03967080520836738 0 0.4189284694746901 0.05118289198895704 0 0.4219986616679356 0.06316777682611416 0 0.4369985264797853 0.07846469638222808 0 0.4400741016016902 0.090451612115163 0 0.4431572224672684 0.1024559624353475 0 0.4462371717512452 0.1144567033355053 0 0.4493130261423905 0.1264553793261961 0 0.4523908260473699 0.1384540639018253 0 0.4554680473440269 0.1504537535323501 0 0.4585451603201771 0.1624534176196676 0 0.4616236822016522 0.1744532406753123 0 0.4766375326354891 0.1897880794700461 0 0.4797141427371362 0.2017916490422675 0 0.4827896003927353 0.213801018651732 0 0.4858625555195352 0.2258124740217682 0 0.5008764641065381 0.2411543408482948 0 0.5039614606901737 0.2531398612856043 0 0.5070484570362386 0.2651188984871161 0 0.5101433072141569 0.2771062168299937 0 0.5132235587095135 0.289121697381302 0 0.5162994906087017 0.3011375580067362 0 0.5193805072246114 0.3131540444568598 0 0.5344204915248725 0.328511482229043 0 0.5375014635594233 0.3405365719877614 0 0.5405805453539035 0.3525596719629934 0 0.5436593362576455 0.3645888727775775 0 0.5467284009297704 0.3765482432122494 0 0.5499484369590939 0.3884838832279616 0 0.5652213011620958 0.4035607321623654 0 0.5682768563297298 0.4155356989461603 0 0.5985003160050888 0.4459628586164465 0 0.6259066446605752 0.5097418906071939 0 0.6564801631772532 0.5853750004752815 0 0.6595724312692868 0.5974438377831628 0 0.6870306039044168 0.6611695197173566 0 0.720716844247082 0.7490642227068158 0 0.7515045168045593 0.824378102337312 0 0.7768944514785061 0.8762070675962513 0 0.8119217647823744 0.9602786155019122 0 0.5832800791837325 0.4308028398319794 0 0.3920370370368668 0 0 0.4250710045188574 0.07515665934202415 0 0.4647042622889255 0.186452897509938 0 0.488940655632721 0.2378197949246999 0 0.5224679881013707 0.3251695635260885 0 0.5530829877515127 0.4004295805149314 0 0.5713498426145367 0.4275626501330665 0 0.5864152995754746 0.4427849434740277 0 0.6016329980602084 0.4580251636505023 0 0.6046832165668962 0.4701839063464719 0 0.6077586279153684 0.4822512636560388 0 0.6108329267037981 0.4943356788827648 0 0.6139222087177651 0.5063890653984016 0 0.628996564444831 0.5217995313210462 0 0.6320863472967224 0.533858133810119 0 0.6351763039447731 0.5459169738156846 0 0.6382633618377338 0.5579664997281314 0 0.6413640633460808 0.5700077172466923 0 0.6444712396040229 0.5820389331426917 0 0.6626647421506622 0.6095108843079614 0 0.6657561885403975 0.621579000868443 0 0.6688480857510446 0.6336503216998086 0 0.671939105484453 0.6457352829850214 0 0.6750324898744537 0.6578084600737073 0 0.6901205272541137 0.6732458730724488 0 0.6932106178377473 0.6853212118251175 0 0.6963018981312667 0.69739449398428 0 0.6994112984817847 0.7094662410156236 0 0.7025153349665312 0.7215412214360493 0 0.7056102620533833 0.7336224559866065 0 0.7238216283509492 0.7611412572131467 0 0.7087049589365363 0.7457037675974439 0 0.7269319874286542 0.7732214924808418 0 0.730031654158951 0.7853095779643531 0 0.7331330861045253 0.7973958290045717 0 0.7362373902269441 0.8094881404163515 0 0.7395584286475374 0.8210709287269322 0 0.7550401837903774 0.8365523181597929 0 0.7585177107066781 0.8487878270386131 0 0.7617052165479899 0.8608994930404437 0 0.7648653002043868 0.8728434594205614 0 0.7799965318966204 0.8883075984775874 0 0.7830985707040261 0.9004071550187775 0 0.7862002778060255 0.9125088977658207 0 0.7893041736697889 0.9246111783028345 0 0.7924080784643787 0.9367145263291314 0 0.7957212292923663 0.948308143302897 0 0.8004506216535227 0.9590133448148941 0 0.8124443389704268 0.9785236216119989 0 0.8059795783022424 0.9685190156729284 0 0.8187478075534852 0.9891711500764032 0 0.8249999999998263 1 0 0.3858324797383128 0.01049903975304194 0 0.3904440575733109 0.02117868711663253 0 0.4040719726999168 0.03593758719777984 0 0.4070026391001941 0.04785463382687682 0 0.4100803287897621 0.0598498888139834 0 0.4131505222619289 0.07183710700268398 0 0.4281483159163652 0.08714496048481209 0 0.4312270734464033 0.09913136834436437 0 0.4343073179340861 0.1111255931611605 0 0.4373853317366622 0.1231218625192604 0 0.4404627667278295 0.1351189802206902 0 0.4435414060899872 0.1471201796043742 0 0.4466186221602875 0.1591201654779722 0 0.449695738060744 0.1711196394193967 0 0.4527738278257757 0.183119673754994 0 0.4677815229984198 0.1984537226539793 0 0.4708568453453681 0.2104573732179121 0 0.4739290346318422 0.2224605949106843 0 0.4770021425805858 0.2344663949669565 0 0.4920169733036154 0.249820295029987 0 0.4951015924316488 0.2618000684730754 0 0.4981975041339921 0.2737731642224415 0 0.5012792196189306 0.2857811997774844 0 0.504357945396691 0.2977958350801638 0 0.507437644365858 0.3098110789719872 0 0.5105177986389378 0.3218282513344985 0 0.5255484671238625 0.3371915458072023 0 0.5286287760410069 0.3492098408315579 0 0.5317086975963881 0.3612300944709739 0 0.5347897730696469 0.3732467841963772 0 0.5378521601204447 0.3852443642201337 0 0.5409617383191594 0.3972304699339119 0 0.5562891970971395 0.4122987453132419 0 0.5594178156847984 0.4242532257160259 0 0.5896369307578289 0.4547516810698395 0 0.6170109879114851 0.5184458267003881 0 0.6475748788074949 0.5940894523086003 0 0.6506678091255782 0.6061545833174304 0 0.6781228600060019 0.6698819223274707 0 0.7118069266044429 0.7577790831036257 0 0.743221175933962 0.8331543092621025 0 0.7679666641626414 0.8849426615846483 0 0.5744517156076572 0.4395341723824924 0 0.3796296296294943 0 0 0.393062515921866 0.0330657067777174 0 0.4162248445979072 0.08382589598708204 0 0.4558503720926723 0.1951185887940175 0 0.4800790994672892 0.2464674805294839 0 0.5135974153832308 0.3338478094290956 0 0.5440541654248156 0.4093245950074806 0 0.5624691454112005 0.4362571502646749 0 0.5775749706706803 0.451518354847476 0 0.5926831569612785 0.466878220806031 0 0.5957618363033634 0.4789359833667136 0 0.5988509056175554 0.4909852786817724 0 0.6019396390180503 0.5030360763212416 0 0.6050266822492807 0.5150911839309059 0 0.620098636257181 0.5305055227103055 0 0.6231883315792355 0.542564077148762 0 0.6262778967885552 0.5546211401611112 0 0.6293649021304525 0.5666656287005344 0 0.632473658324137 0.5787046379257698 0 0.6355773345745709 0.5907411983254434 0 0.653759085040974 0.6182218975720523 0 0.6568492171849221 0.6302955864494131 0 0.6599403440797074 0.6423673461736292 0 0.6630318953598089 0.6544486960100939 0 0.66612423209339 0.6665229884631134 0 0.6812176803309999 0.6819547839783827 0 0.6843154119534121 0.6940286974743408 0 0.6874052423142963 0.7061065862597991 0 0.6905057274928512 0.7181821619495539 0 0.6936006513318067 0.7302616286695638 0 0.6966954419869623 0.7423398981802434 0 0.7149144795584277 0.7698593603894397 0 0.69979285197647 0.7544163469462846 0 0.7180200041368567 0.7819471509371297 0 0.721117991908774 0.7940328267405288 0 0.7242212865972758 0.8061086969680635 0 0.727565956290716 0.8179227409440238 0 0.731353723546103 0.829857298828353 0 0.7466351215000862 0.8452850620141292 0 0.7497358346285123 0.8573820139599506 0 0.7528366991225441 0.869479800014222 0 0.755937857737951 0.8815784345900554 0 0.7710684368413583 0.8970428144588763 0 0.7741702782682434 0.9091439099005738 0 0.7772725079274789 0.9212461880896027 0 0.7803747965314143 0.9333493364281289 0 0.7836049784625271 0.945784993553541 0 0.7878599629760414 0.9574076604902289 0 0.7935060450088065 0.967945678426066 0 0.7999539645310432 0.9784245915153225 0 0.8062324441938636 0.9892152345261889 0 0.8124999999999131 1 0 0.3734155673960002 0.01052626882073145 0 0.3781604093713918 0.01972331115935404 0 0.3817245815451917 0.03099025217234886 0 0.3951662106697216 0.04491671882564 0 0.3981562196769756 0.05651950358650955 0 0.4012321119745164 0.06850997594493625 0 0.4043077656849135 0.08049789670533292 0 0.4193025936300197 0.0958116093753012 0 0.4223802198353881 0.1078001056849412 0 0.4254588215966411 0.1197899937484539 0 0.4285356583993281 0.1317825446360285 0 0.4316140348917024 0.1437835000219717 0 0.4346933105917639 0.1557919367123375 0 0.4377681201974616 0.1677974734562686 0 0.4408466199975211 0.1797933289543945 0 0.4439216621609011 0.1917896982832017 0 0.4589270505750848 0.2071178598346926 0 0.4619997207369911 0.2191193942141168 0 0.4650702341017623 0.2311156107534545 0 0.4681476695414508 0.2431169945800824 0 0.4831653459048654 0.2584599830669004 0 0.4862564432945124 0.2704338107061008 0 0.4893365124925473 0.2824427006732144 0 0.4924147873862926 0.2944546406588929 0 0.4954920435657686 0.3064695440752939 0 0.4985695432081563 0.3184868129016593 0 0.5016486510231127 0.3305043434585026 0 0.5166769690346034 0.3458679357700959 0 0.5197596413080297 0.357881558097418 0 0.5228436070124045 0.3698963466718785 0 0.5259258721425522 0.3819215173609061 0 0.5290107649809477 0.3939483429466315 0 0.5320922595187831 0.4059781751367093 0 0.5475789096465171 0.421039194621826 0 0.5505218015014752 0.4329315792060047 0 0.5806941905276182 0.4635507513374664 0 0.608114325445291 0.5271470628035304 0 0.6386720037204672 0.6027990964509874 0 0.6417630216722761 0.6148650830209289 0 0.6692166579728611 0.6785963114546079 0 0.7028982914015699 0.7664981642616491 0 0.7346187391966219 0.8419314684303387 0 0.7590389514677419 0.8936780676601841 0 0.5655749904242053 0.4482490091483026 0 0.3672222222221126 0 0 0.3834471529347887 0.04204041433721187 0 0.407382970061085 0.09248507582268242 0 0.4469981362903666 0.2037831729574267 0 0.4712245432904628 0.2551145700308914 0 0.5047274665983685 0.3425220980575106 0 0.5352881292353515 0.4178906319791955 0 0.5535888850697972 0.444950948751158 0 0.5686766971312979 0.4602395716727271 0 0.5837837152140144 0.4755861056272214 0 0.5868715761283424 0.4876346091586617 0 0.5899591638712869 0.4996841001453174 0 0.5930466332342728 0.5117346271129295 0 0.5961326995229096 0.5237868243423049 0 0.6112008320511153 0.5392097312041382 0 0.6142910025212036 0.5512694183202635 0 0.6173769304301668 0.5633205592314177 0 0.6204590196464845 0.5753627186493743 0 0.6235810924283407 0.5873885049598533 0 0.6266710663114026 0.5994509352137332 0 0.6448522872576894 0.6269405214266651 0 0.6479410505749363 0.6390189701482478 0 0.6510320280995175 0.6510929676658965 0 0.6541240661905673 0.6631651604669576 0 0.6572120400967638 0.6752381389391453 0 0.6723099572676042 0.6906706110489138 0 0.675404040493264 0.7027458867254427 0 0.6784979593647865 0.7148229578489236 0 0.6815921637737916 0.7269012694489458 0 0.6846864929033953 0.7389801634006862 0 0.6877831004511298 0.7510591034644191 0 0.7060029834878945 0.778584863563063 0 0.6908819051947557 0.763139836002418 0 0.7090996340590491 0.790673464632258 0 0.7121968764927536 0.8027628060332506 0 0.715322391327337 0.8147523028764339 0 0.718944837202377 0.8266423678142198 0 0.7224507780089726 0.8385585603769963 0 0.7377093125961891 0.8540182924137384 0 0.7408096190240185 0.8661158089763112 0 0.7439098897977422 0.878214179196994 0 0.7470106148398725 0.8903133383688553 0 0.7621397312174254 0.9057789046210956 0 0.7652410363563205 0.9178809550114031 0 0.7683420194699986 0.929983854476861 0 0.771359318448825 0.9424503014301404 0 0.7739093364568553 0.9560354868623593 0 0.7811582748839132 0.9677646945097723 0 0.7874822630728355 0.978399177729125 0 0.7937485541083138 0.9891720439534089 0 0.7999999999999998 1 0 0.3608479085007796 0.01131711299877281 0 0.3676127635265427 0.01782247771715884 0 0.3703030044900693 0.02751222860728195 0 0.3720130284265314 0.03859520027587125 0 0.3861438485694251 0.05347098695788505 0 0.3893143702554686 0.06518207294431147 0 0.392389705330859 0.07716938448436586 0 0.3954654758041152 0.08915665331702539 0 0.4104585962187604 0.1044721318839799 0 0.4135356957859693 0.1164594701643976 0 0.4166116730328865 0.1284481381775235 0 0.4196885346204301 0.1404401583125931 0 0.4227686847967752 0.1524580637203554 0 0.4258400121486872 0.1644656310079318 0 0.428917456653067 0.1764723252016413 0 0.4319961583651857 0.1884630512441475 0 0.4350709360590486 0.2004552211745506 0 0.4500737783079486 0.2157803886781647 0 0.4531453926402894 0.2277770511879484 0 0.4562224116439887 0.2397720439966597 0 0.459301040632043 0.2517692713344746 0 0.4743109604381851 0.2671084938357934 0 0.477395787876113 0.2791058400284984 0 0.4804738623233194 0.2911140202540699 0 0.4835485237545088 0.303129607520328 0 0.4866241922595406 0.3151449809267358 0 0.4897011650666622 0.3271620987833316 0 0.4927796392355964 0.3391792556564217 0 0.5078078051430068 0.3545386219706833 0 0.5108912063184605 0.3665542912937488 0 0.5139741301802074 0.3785756925672444 0 0.5170543689386522 0.3906020498756326 0 0.5201347538285256 0.4026290614759349 0 0.5232066680823722 0.4145842383799628 0 0.5386942388617177 0.4297283288645023 0 0.5416493116283405 0.4416322456456528 0 0.5718074038950696 0.4722358832639569 0 0.5992161146797745 0.5358432879331407 0 0.6297686036856589 0.6115087638124783 0 0.632858378100203 0.623576547773661 0 0.6603028368800412 0.6873124527341858 0 0.6939851063971103 0.7752234289720538 0 0.7256856239450038 0.8506560311752278 0 0.7501111418865457 0.9024127573310198 0 0.5566774954973007 0.4569406578501483 0 0.3548148148147337 0 0 0.3743766019829305 0.05018506406561314 0 0.3985400738974395 0.1011416155292536 0 0.4381473909047544 0.2124469167515381 0 0.4623750068412745 0.2637707313727745 0 0.4958588131780651 0.3511960112418184 0 0.5263760513959882 0.4264034637631702 0 0.5447007826515111 0.4536350809124416 0 0.5597921776993844 0.4689387797478877 0 0.5748924209964394 0.4842886285705049 0 0.5779809410172623 0.4963331165484552 0 0.5810677831705685 0.5083818087040939 0 0.5841539348325981 0.5204303441933159 0 0.5872378793696256 0.532481882051572 0 0.6023025853808589 0.5479025764589114 0 0.6053929321084779 0.5599638040239872 0 0.6084808597926299 0.5720245981158488 0 0.611570743938488 0.5840701608950186 0 0.6146706446308268 0.5961186201832838 0 0.6177634261798544 0.6081761789319338 0 0.635946101278496 0.6356554454646363 0 0.639033838282895 0.6477389181947221 0 0.6421252564560391 0.6598079093608132 0 0.6452170045904688 0.6718766644240112 0 0.6482901132320423 0.6839554693720693 0 0.663398880638212 0.699386784478738 0 0.6664910242320288 0.7114629173212064 0 0.6695836416625208 0.7235409943362369 0 0.6726782136684781 0.7356202606861136 0 0.6757725069197309 0.7477000402641698 0 0.6788711785149631 0.759781181513724 0 0.6970824835608163 0.7873109647675505 0 0.6819665681582382 0.7718648678399213 0 0.7001788645834071 0.7993995749819499 0 0.7032749549993951 0.8114896202052984 0 0.7067463382815842 0.823414720765226 0 0.71022983575955 0.8353485830942866 0 0.7136593875585822 0.8472905404228733 0 0.7287835491629425 0.8627516531166035 0 0.7318827289599947 0.8748495801957398 0 0.7349827327085148 0.8869484823541374 0 0.7380831154407401 0.8990481090807414 0 0.7532123990863507 0.9145139738060688 0 0.7563113074207013 0.9266174609273583 0 0.7594113557692623 0.9387219050694462 0 0.7625134240028921 0.9508262321905061 0 0.7688187901537931 0.9685605586237542 0 0.7749976575888932 0.9784216893016611 0 0.7812462773462384 0.9892050250561504 0 0.7875000000000865 1 0 0.3487024672304909 0.00961453646855855 0 0.3605938600420899 0.02272001837871521 0 0.3608907111744808 0.03405162806172893 0 0.3624778104865815 0.04607150563299525 0 0.3773526941556729 0.06201962441997395 0 0.3804694543989093 0.07383723184031912 0 0.3835529706602607 0.08583487314334484 0 0.3866227433453091 0.0978205092671738 0 0.4016155191364808 0.113127841170954 0 0.4046906681744501 0.1251159060581648 0 0.4077700946688105 0.13710732092931 0 0.4108468151911804 0.14910995486269 0 0.4139202769653011 0.1611193897093202 0 0.4169928026755476 0.1731329823671298 0 0.4200724465532995 0.1851398022413657 0 0.4231478287672772 0.1971279316097311 0 0.4262234568039608 0.2091163362564203 0 0.4412188290414987 0.2244420673887522 0 0.4442935641467479 0.2364374523460244 0 0.4473686686752525 0.2484346001334344 0 0.4504458975482133 0.2604329581816194 0 0.4654584719106532 0.2757691033486708 0 0.4685363423895879 0.2877742692474585 0 0.4716069032098162 0.2997889643018738 0 0.4746793537823155 0.3118054949051018 0 0.4777536449731504 0.3238229908303186 0 0.4808329388980251 0.3358374439718746 0 0.4839112532228889 0.3478536318446571 0 0.4989390222270783 0.3632132758918448 0 0.5020207841763359 0.3752322173761081 0 0.5051004714446061 0.3872558541481355 0 0.5081796200180848 0.3992802261218146 0 0.5112320999388897 0.4112643150316156 0 0.5143921211779099 0.4231839939653855 0 0.5296557194702169 0.4383215510821241 0 0.5327423584231462 0.4502965317749544 0 0.5629081883940363 0.4809555255342866 0 0.5903242380607001 0.544535003368119 0 0.6208629919047068 0.6202238307115786 0 0.6239519385841149 0.6322932487098309 0 0.6513921146494607 0.6960279622515297 0 0.6850655161813526 0.783949473514012 0 0.7167574590080302 0.8593875632481202 0 0.7411878403573791 0.9111467708542668 0 0.7629571282735333 0.9603551012961494 0 0.5477965920554233 0.4656291564653747 0 0.3424074074073709 0 0 0.3530143564989355 0.01807327462199771 0 0.3654799234832247 0.05862188371378729 0 0.3896993062818803 0.1097986976622266 0 0.4292961769625472 0.2211073487201647 0 0.4535225816955165 0.2724333956366229 0 0.4869903125608531 0.3598706167499331 0 0.5176201330753553 0.4350364087028921 0 0.5358203763675202 0.4623261965618888 0 0.5509109479102359 0.4776405565868608 0 0.5660027013299125 0.4929865312904478 0 0.5690900657430625 0.5050310424712725 0 0.5721766924134102 0.5170787603300038 0 0.575262536772129 0.5291259777524956 0 0.5783477699557025 0.5411758710941275 0 0.5934099960544863 0.5565923505460912 0 0.5964994214192292 0.5686620184573127 0 0.5995871204941838 0.5807331360625037 0 0.6026724140501338 0.5927841665815506 0 0.6057651248767415 0.6048417745176136 0 0.6088592687284525 0.6169071687283578 0 0.6270390376262985 0.6443772826398536 0 0.6301285298777248 0.6564508091486149 0 0.6332165689976028 0.6685207123570465 0 0.6362840392987008 0.6805989002320216 0 0.6393762049622486 0.6926720494157018 0 0.6544843121796101 0.7081041309837888 0 0.6575765711223256 0.7201811661236184 0 0.6606689595774583 0.7322598393877544 0 0.6637640756326519 0.7443395378233437 0 0.6668589651162717 0.7564209167442596 0 0.6699542835319046 0.7685036316774811 0 0.6881619276925242 0.7960367310649695 0 0.6730499726444023 0.7805881261548202 0 0.6913508658951324 0.8080135108877031 0 0.6947450082441697 0.8201340209763979 0 0.6982372074088853 0.8321740080025644 0 0.7016073979250722 0.8440497248998683 0 0.7047297461944665 0.8560252182687982 0 0.7198564049460834 0.871484143447547 0 0.7229554934716271 0.8835830794096278 0 0.726054958312628 0.8956829768939919 0 0.7291816864837301 0.9077735212126253 0 0.7442874968706965 0.9232481278891184 0 0.7473793177227177 0.9353552758523259 0 0.7504800297077596 0.9474605105744565 0 0.7534251725940093 0.9593434902480453 0 0.76249832852572 0.978729179476383 0 0.7565277066789758 0.969448565689195 0 0.7687491893071284 0.989237239352708 0 0.7750000000001732 1 0 0.3391021550848177 0.009256432877833695 0 0.3414442426683789 0.01906117279318547 0 0.3506804956948795 0.02775324997686077 0 0.3496415636841249 0.04163658660886518 0 0.3537072233211103 0.05497438473466773 0 0.3685910003983565 0.07060011318198282 0 0.3716381991537708 0.08254518044253292 0 0.3747112512776865 0.0945126156692436 0 0.377780598531621 0.1064871692006053 0 0.3927741598113565 0.1217850566541891 0 0.3958482730520966 0.1337725290315715 0 0.3989261016790465 0.1457620160521834 0 0.4020001553113355 0.1577625970203685 0 0.4050745483521865 0.1697838807804342 0 0.4081525961912415 0.1818043104202778 0 0.4112283476808819 0.1937985058741727 0 0.4143031389360988 0.2057865220589106 0 0.4173752691940388 0.217774077223627 0 0.4323491826666227 0.233106257944145 0 0.4354207915694497 0.245103725956435 0 0.4385066987931385 0.2570988900233163 0 0.4415831846697041 0.2690983784992254 0 0.4566010203916974 0.2844348388444517 0 0.4596663892697175 0.296453387654697 0 0.4627366066892927 0.3084680323531488 0 0.4658080281220988 0.3204858046777694 0 0.4688871858220249 0.3324980780086002 0 0.4719652833713383 0.3445120108798457 0 0.4750435566040534 0.3565276448994155 0 0.490069705393153 0.371889285900331 0 0.4931486913610139 0.3839105050667289 0 0.4962275175729602 0.3959331621777643 0 0.499303164185414 0.4079524139026217 0 0.5023641418852488 0.4199564701428515 0 0.5055536326896054 0.4318590677718209 0 0.520800703597845 0.4469859285417289 0 0.5238614340565824 0.4589865608257727 0 0.5540240259807641 0.4896492571398187 0 0.5814399216794831 0.5532238091821876 0 0.6119492595412329 0.6289680647273875 0 0.6150438798198656 0.6410237107927966 0 0.6424801276755919 0.7047443590212996 0 0.6761460747931833 0.7926741034838277 0 0.7078300168073648 0.8681180536057727 0 0.7323028059929131 0.919870780061375 0 0.5389223693795319 0.4743305039238651 0 0.33 0 0 0.3567878979566066 0.06745278537159811 0 0.3808575374846052 0.1184494824340509 0 0.420435134095574 0.2297634412399586 0 0.4446686252608311 0.2810968489844967 0 0.4781209655397602 0.3685456279604342 0 0.5088258152583971 0.4437541968555936 0 0.5269394797621164 0.4710157539318578 0 0.5420223339522758 0.486340116709932 0 0.5571143143744153 0.5016804084783955 0 0.5601995899073722 0.5137280334683654 0 0.5632863539505204 0.5257752842998795 0 0.5663733178397758 0.5378228603989879 0 0.5694582404348726 0.5498777402476087 0 0.58452209069192 0.5652903087235894 0 0.5876026049449249 0.5773726416430847 0 0.5906888660136014 0.589436635186559 0 0.5937781434016032 0.6014947304990019 0 0.596869694856037 0.6135529676563956 0 0.5999592983825228 0.6256133953882632 0 0.618133511834985 0.6530941947124121 0 0.6212204284862988 0.6651648024573873 0 0.6242966726858565 0.6772335509752831 0 0.6273738327410318 0.6893125810148986 0 0.6304680620759793 0.701386503424134 0 0.6455671547600424 0.7168215967063403 0 0.6486602483382282 0.7288997385813382 0 0.65175491558357 0.7409792162080855 0 0.6548490407268692 0.7530596908222266 0 0.6579424773438229 0.765141989937495 0 0.6610362692221166 0.7772260011699992 0 0.6792414459789554 0.8047619010265632 0 0.6641313456181509 0.7893114085098359 0 0.6827278194712747 0.8167026150765226 0 0.6862284273840979 0.8288331252736345 0 0.6895850456746523 0.840626613534418 0 0.6926987886847442 0.8526791898595729 0 0.6958018732813314 0.8647597818267309 0 0.7109297391147439 0.8802148495983811 0 0.7140799320608291 0.8923013500667307 0 0.7172014062297328 0.9044111324339332 0 0.7203868531356575 0.9164593364996357 0 0.7354022300062155 0.9320038366331207 0 0.7384673440067453 0.944116257483382 0 0.7414800216849673 0.9561302012106123 0 0.7444238265181184 0.9677648648753023 0 0.7562492944176619 0.9891741982982465 0 0.7499986160515655 0.9783494311907631 0 0.7625000000002599 1 0 0.3297692325813696 0.01233909407916814 0 0.339161105984423 0.03187312562289841 0 0.3439379922864535 0.05252995615478026 0 0.3443959202561271 0.0651603154905039 0 0.3597649190971442 0.07927919821775183 0 0.3628022351590539 0.09120624272071642 0 0.3658707608161036 0.1031817192410884 0 0.3689472119963472 0.1151437172527331 0 0.3839332254296895 0.1304421003444665 0 0.3870045168777444 0.1424270434629489 0 0.3900786835499397 0.1544103779947416 0 0.3931565791176802 0.1664371886269708 0 0.3962325199692253 0.1784561118121835 0 0.3993101634910553 0.1904664249960344 0 0.402383272323211 0.2024548350735023 0 0.4054564462786525 0.2144425941179193 0 0.408519832915022 0.2264243174238156 0 0.423485839890669 0.2417652956077014 0 0.4265505495789329 0.2537836705861095 0 0.4296160558044531 0.2657706191398131 0 0.4327077301966397 0.2777706498574546 0 0.4477286411884865 0.2931161825206471 0 0.4507888217494246 0.3051380386606022 0 0.4538638851243169 0.3171497327191111 0 0.4569423848957191 0.3291593258201992 0 0.4600208346718178 0.3411708918715936 0 0.4630986025214827 0.3531844485185728 0 0.4661765518856246 0.3651989292736413 0 0.4811990380799603 0.3805658717516884 0 0.4842768925228612 0.3925874037496849 0 0.4873551024003091 0.4046094868365598 0 0.4904340747214549 0.4166336020874475 0 0.4935138291881476 0.4286585259071691 0 0.4967066309650305 0.4405712311735833 0 0.5118975153290581 0.4556426378513694 0 0.5149812245540584 0.4676762825145074 0 0.5451354490389069 0.4983459565166941 0 0.5725382847917874 0.561950234489381 0 0.6030493946355687 0.6376752645284246 0 0.6061401458308935 0.6497380802644293 0 0.633562395196366 0.7134623367530588 0 0.6672538090521001 0.8013007301325824 0 0.6989094926830278 0.8768291212624179 0 0.7234787158039475 0.9285860555024349 0 0.530031830981158 0.4830159362274458 0 0.3290772530757082 0.02466093080454055 0 0.3369934200862787 0.04454555644399597 0 0.3486136544532022 0.07697744190129391 0 0.3720209736971201 0.1271190678395145 0 0.4115658700288773 0.2384375762906963 0 0.4357912357062229 0.2897709360995165 0 0.4692524809764215 0.3772204464816864 0 0.5000705057244 0.4524373163344634 0 0.5180604275943557 0.4797062657061982 0 0.533138503759466 0.4950291268935281 0 0.5482237750463035 0.5103822710861747 0 0.551310481084047 0.5224242273825812 0 0.5543964582480744 0.534471515475115 0 0.557480180372559 0.5465250967027043 0 0.5605586271262312 0.5585980403928962 0 0.5756188890325546 0.5740200910093998 0 0.578693477045863 0.5860856368210705 0 0.5817809464521533 0.5981439209946462 0 0.5848793115273865 0.6101994894524161 0 0.5879688022732987 0.6222589318911624 0 0.5910572309648243 0.6343201291427999 0 0.6092261702801303 0.6618012064080876 0 0.6123027194409147 0.6738744700255556 0 0.6153777927654951 0.6859488998251253 0 0.6184675842856526 0.698018851432421 0 0.6215651862804126 0.710093392644928 0 0.6366525934617193 0.7255400398384668 0 0.6397464196090021 0.7376184306237132 0 0.6428400149294763 0.7496984185863225 0 0.6459333341449356 0.7617793744643637 0 0.6490248050908028 0.7738629762247715 0 0.652117181772234 0.7859485393625003 0 0.6705395394386944 0.8130260183927416 0 0.6552120613855675 0.7980349962789601 0 0.6741566169633226 0.8252035158017615 0 0.6775496725330097 0.8373078180295243 0 0.6806770874399575 0.8493014093321006 0 0.6837776066723961 0.8613946531596466 0 0.6868762912539327 0.87349217833425 0 0.7020823955837676 0.8889225161140186 0 0.705255599652476 0.9009935459504331 0 0.7084182607266256 0.9131005001545992 0 0.7116173257118928 0.9251647802699776 0 0.7265271679794718 0.940705339488603 0 0.7295134449420906 0.9528334813123067 0 0.7330616000379108 0.9643524123929295 0 0.7357801114253824 0.9768732251707919 0 0.7434667505525058 0.9889459930654161 0 0.7500000000003466 1 0 0.3279250292751364 0.0369482770220875 0 0.3347401126184949 0.05694515355907445 0 0.339132678087012 0.07613194186283637 0 0.3511418703429098 0.08813048956398063 0 0.3540057509990073 0.09984752609769706 0 0.3570402863962487 0.1118274157105327 0 0.3601131150523846 0.123797449090607 0 0.3750938916552145 0.1390994226445246 0 0.3781652325873305 0.1510786964606353 0 0.3812375095901351 0.1630572641638608 0 0.3843160333121001 0.1750982157781115 0 0.3873937722434799 0.1871336005099367 0 0.390468109420146 0.1991264733873335 0 0.3935412937443044 0.2111120877333547 0 0.3966138139121176 0.2230990169225849 0 0.3996606347796783 0.2350890725414969 0 0.4145997219667769 0.2504607277986628 0 0.4176733145610299 0.2624792842545199 0 0.4207590837719867 0.2744600983639096 0 0.4238363662303507 0.2864537369086848 0 0.4388573265965124 0.3017927689092368 0 0.4419262815108281 0.3138106462011961 0 0.4450022533777629 0.3258197415538424 0 0.448078993340823 0.3378298255332773 0 0.4511552167616346 0.3498420133406195 0 0.4542324922392272 0.3618555392702221 0 0.4573082499699184 0.3738689269637707 0 0.4723276285373786 0.3892424938912951 0 0.4754042445332232 0.4012646498594129 0 0.4784815699437565 0.4132877871836254 0 0.4815598850934766 0.4253117602759411 0 0.484683485034636 0.4372538740131849 0 0.4878151111159152 0.4491205270632145 0 0.503040896838435 0.4643545057481178 0 0.5061014262415939 0.4763654146070262 0 0.5362472492426462 0.5070402004207918 0 0.5636386241550843 0.5706678706108246 0 0.594147055527708 0.6463826350581168 0 0.5972372473940087 0.6584465969864663 0 0.6246532700100641 0.7221780908918056 0 0.6583078562875018 0.8101221172495972 0 0.6900847674367423 0.8855581085327049 0 0.7146359119975345 0.9373122600618971 0 0.5211442293453571 0.4917142264879906 0 0.3263141726762665 0.04918394769234897 0 0.3324463734731843 0.06920642341299979 0 0.3404340567369659 0.08604007608826354 0 0.3631857239957166 0.1357711503045152 0 0.4026940565255441 0.2471226031325425 0 0.426919845098558 0.298438039157822 0 0.4603804076345691 0.3858966756378575 0 0.4910742977165529 0.4610611484188473 0 0.5091828411368269 0.4883977091344262 0 0.5242499299964523 0.5037183249983144 0 0.5393355666304342 0.5190748002502203 0 0.5424211332070525 0.5311203257693984 0 0.5454977743155986 0.543188694620324 0 0.5485797906873067 0.5552475258181244 0 0.5516566423157772 0.5673197744887338 0 0.5667092708675591 0.5827280915377819 0 0.5697885667264537 0.5947857297094665 0 0.5728736735018214 0.6068503595633712 0 0.5759627145530017 0.6189093441729721 0 0.5790556527084911 0.6309680157124509 0 0.5821539972100418 0.6430271135348447 0 0.6003148773523753 0.670509398644625 0 0.6033803750753336 0.6825889618428254 0 0.6064754530848124 0.694649942680262 0 0.609575318832686 0.7067222774001772 0 0.6126686761640905 0.7187924993295052 0 0.6277391596634212 0.7342574646555826 0 0.6308317703743983 0.746336910036031 0 0.6339245859715452 0.7584173163356562 0 0.6370193539181475 0.7704975377423628 0 0.6401028424700106 0.782585377124141 0 0.6431970793734869 0.7946720130941484 0 0.6623549440763683 0.8218288106989686 0 0.6462839816270789 0.8067506204948375 0 0.6655595126028755 0.833870759102554 0 0.6686536414681357 0.8459382618409328 0 0.6717527834417284 0.8580313877138478 0 0.6748563897311911 0.8701182534650111 0 0.6780235548645221 0.8821098830082382 0 0.6932660659241539 0.8976392651873312 0 0.6964537023235671 0.9097568978931458 0 0.6995946773064278 0.9218173078804696 0 0.7027057738500281 0.9338906742967037 0 0.7176550593377407 0.9494047980558186 0 0.7212896300297388 0.9608074875438228 0 0.7252687991299757 0.9701828939161767 0 0.7312724814196457 0.9892791037326961 0 0.7375000000004333 1 0 0.3242469361995938 0.06135083019142081 0 0.330145321500284 0.08114027143393988 0 0.3424437603574685 0.0968754126792062 0 0.345365880004555 0.1084448389489044 0 0.3482100800789412 0.1204726931285853 0 0.3512811340363866 0.1324432945142711 0 0.3662555218490682 0.147748804771077 0 0.3693270901879636 0.1597257429891764 0 0.3723952279855205 0.1717018103321788 0 0.3754759406592449 0.1837551393796785 0 0.3785535467404739 0.1957834307480586 0 0.3816270146862706 0.2077829188329957 0 0.3846991058454284 0.2197666880657926 0 0.3877674590529224 0.2317464462880495 0 0.3908099428812724 0.2437560619739365 0 0.4057468654615835 0.259162372434489 0 0.4088202023577094 0.2711528823612001 0 0.4119008334817376 0.2831334176617855 0 0.4149806374153346 0.2951288945546708 0 0.4299923675767477 0.3104663037092922 0 0.4330649370910404 0.3224801738546181 0 0.4361403585886898 0.3344882595647181 0 0.4392241338573388 0.3464579811861538 0 0.4422977861399556 0.3584448371362588 0 0.4453724242118678 0.3704896312465931 0 0.4484425345144481 0.3825584144123491 0 0.4634550474530538 0.3979187924384837 0 0.4665314967013433 0.4099409179735337 0 0.4696072977633231 0.4219656085056807 0 0.4726852167410297 0.4339895175807031 0 0.4758500067631284 0.4458865307561141 0 0.4790133012683389 0.4577662256969692 0 0.4941431903476859 0.4730232718363017 0 0.497220074269919 0.4850543582696412 0 0.5273590127035682 0.5157324354647965 0 0.5547376407709863 0.5793744216240793 0 0.5852439493842192 0.6550901576016365 0 0.5883312734014994 0.6671526195058484 0 0.6157566397719494 0.7308802662526894 0 0.6494439884507153 0.8187711584729103 0 0.6812667712373526 0.8942405903483341 0 0.7057966859784466 0.9459980192998396 0 0.7232614897144309 0.9796680690491063 0 0.5122589100840679 0.5004055582223589 0 0.3217262110703176 0.07343190798513607 0 0.3291143264823755 0.09396084763726846 0 0.3543106052533843 0.144407508554846 0 0.3938320368885389 0.2558185194326243 0 0.4180558771686829 0.3071342515721659 0 0.4515079423880886 0.3945735663926182 0 0.4822023828976885 0.4697180942835937 0 0.5002978002907015 0.4970832777749011 0 0.5153697743449948 0.5124133173805905 0 0.5304470607635046 0.527770319738307 0 0.5335173437474952 0.5398351983681409 0 0.5365998996586928 0.5519050982231648 0 0.5396767498029931 0.5639758109935296 0 0.5427482455171467 0.5760310093617049 0 0.5577952682493927 0.5914381108685075 0 0.5608654343948136 0.6035000075233977 0 0.5639558977947038 0.6155608117346392 0 0.5670406986594259 0.6276200084225634 0 0.57016207026296 0.6396697751500997 0 0.5732499717713107 0.6517344394479658 0 0.5914086239843446 0.6792123966821417 0 0.5944933981510164 0.6912867013921387 0 0.5975859737580672 0.7033554517518676 0 0.6006890394230813 0.7154235265620797 0 0.6037789918971768 0.7275028382479669 0 0.6188432179690285 0.7429603402121254 0 0.6219214275529941 0.7550510177093155 0 0.6250184779840402 0.7671287039101796 0 0.6281120778475506 0.7792114783950657 0 0.6311843834276519 0.7913078360681993 0 0.6342751986831602 0.8033944581721413 0 0.6535337701665914 0.8304820459781573 0 0.6373620505570755 0.8154734613312665 0 0.6566411214392454 0.8425907142690302 0 0.6597317898689807 0.8546734058565759 0 0.6628280724891674 0.8667601391635943 0 0.6659953257745617 0.8787870542284467 0 0.6692854528596218 0.8908595733364035 0 0.6844531593110186 0.9063639322853512 0 0.6875691731625589 0.9184294150580619 0 0.6906727611312801 0.930526814536645 0 0.6937759727019499 0.942629709252633 0 0.7089148660394762 0.9580980312107483 0 0.7136968569400619 0.9707333413256845 0 0.7188863259466818 0.9898010745340133 0 0.7250000000005199 1 0 0.3187555227424169 0.08541028463369368 0 0.3341401190231298 0.1059052011853115 0 0.3370560059956121 0.1172697018182334 0 0.3393805131288615 0.1291170338400031 0 0.3424501907674129 0.1410850486767176 0 0.3574209827680431 0.1563922802853285 0 0.3604899219540236 0.168370340485254 0 0.3635571022881498 0.1803442759883619 0 0.36664106420259 0.1924472040858799 0 0.3697153792311118 0.2044552482925273 0 0.3727869951248391 0.2164355973095893 0 0.3758575900090433 0.2284173196020821 0 0.3789268923128786 0.2403986889153419 0 0.3819684971227241 0.2524077021862411 0 0.3969037672684753 0.2678207077427861 0 0.3999721190539305 0.279815630110805 0 0.4030476139732731 0.2918092918940963 0 0.4061232885394058 0.3038046301334704 0 0.4211299379948652 0.3191419425607148 0 0.4242048745393051 0.3311467955909482 0 0.4272916285126392 0.3430976383772253 0 0.4303780516383511 0.3550518245480021 0 0.4334713453991306 0.3670869102434603 0 0.4365276712546631 0.379213617588577 0 0.4395675659908409 0.3912329133741291 0 0.4545873889601054 0.4065720606548168 0 0.4576571157111705 0.4186184726520902 0 0.4607335604179288 0.4306423029238944 0 0.4638106738205143 0.4426666632393279 0 0.4670128052409429 0.4544754912982352 0 0.470211317678271 0.4663792332582565 0 0.4852600208901679 0.481707157909065 0 0.4883274344928858 0.49374461721567 0 0.5184549172285132 0.5244542753114022 0 0.545804828526776 0.5880869339248703 0 0.5763395235243999 0.6637982099283348 0 0.5794268518248618 0.6758611980082178 0 0.6068713846397356 0.7395821902669009 0 0.6404680125934691 0.827571878486463 0 0.6724366860387507 0.9029690082143113 0 0.6968794397855539 0.9547336255016801 0 0.7131023657542681 0.9815254945314282 0 0.5033876137780494 0.509115364310521 0 0.3153390259973944 0.09726920727041342 0 0.322458876103258 0.1065029717368958 0 0.3452700781036782 0.1530044727771669 0 0.3850074095954526 0.2644428571160166 0 0.4091974394484022 0.31580508459242 0 0.4426483977955644 0.403213602194217 0 0.4733005849482609 0.4783634041394001 0 0.491393528742902 0.5057822944760423 0 0.5064766221457573 0.5211436037038537 0 0.5215387581910056 0.5365071374114925 0 0.5246164420561544 0.5485612441348862 0 0.5277072054018406 0.5606127074570495 0 0.530770478431809 0.5726715707460373 0 0.5338348211045847 0.5847265260087195 0 0.5488658682097682 0.60015348089145 0 0.5519541048687846 0.6122115727949919 0 0.555042662439887 0.6242689301234612 0 0.5581319967917161 0.6363270919506422 0 0.5612551602855161 0.6483801704407962 0 0.5643451512881814 0.6604423906602376 0 0.5825145195486547 0.6879260039744777 0 0.5856147747860303 0.6999951935442059 0 0.5887119882219033 0.7120633512549956 0 0.5918086011847894 0.7241327590279931 0 0.5948928306903616 0.7362090455615393 0 0.6099622244225239 0.7516621608762618 0 0.6130513410022596 0.7637457405666126 0 0.6161420854783289 0.7758295289399324 0 0.619208098879625 0.7879208041513099 0 0.6222778112797787 0.800024187065507 0 0.6254273369909097 0.8120697074456921 0 0.6446592014075831 0.8392648568807289 0 0.6285311643057256 0.8241537966896049 0 0.6477129213836802 0.85131835899407 0 0.6508021989919284 0.8634015731579807 0 0.6539097589652113 0.875467290021871 0 0.6571545419310029 0.8875212020415143 0 0.6603664658083959 0.8995900806635595 0 0.6755364036896088 0.9150683760332772 0 0.6786397069494498 0.9271650722447853 0 0.6817425266367112 0.9392655894487529 0 0.6848456601173898 0.9513687976505197 0 0.6999717920831865 0.9670595336221434 0 0.7028522074501744 0.9790610262466026 0 0.7125000000006066 1 0 0.7063837688738901 0.9905703456612018 0 0.3274639983418129 0.1148949988831531 0 0.3274823605208906 0.1257939046905716 0 0.3309952989264644 0.137409568061685 0 0.3335600343862657 0.1489136593359106 0 0.348586103144606 0.1650388792321921 0 0.3516546055597747 0.1770144247535093 0 0.3547226097387757 0.1889876826443849 0 0.3578051891168669 0.2011112288754783 0 0.3608803887896836 0.2130918500296122 0 0.3639515136047916 0.2250625823726734 0 0.3670155475098543 0.2370665783169958 0 0.370082073334108 0.2490437161415294 0 0.3731223961147093 0.2610627198051391 0 0.3880544480890029 0.2764749364744527 0 0.3911225352568812 0.2884748655335203 0 0.3941961709734338 0.3004685347438769 0 0.3972684764271513 0.3124663762455142 0 0.4122716271653836 0.3278076100227615 0 0.41534883884864 0.3397934347378919 0 0.4184595515363887 0.3517028331877127 0 0.42157069207589 0.3636541177459588 0 0.4246814470740562 0.3756674331953724 0 0.4276817908788966 0.3877957194777014 0 0.4307174376002146 0.3997842998680872 0 0.4457243337114118 0.4151670122779577 0 0.4487857370330531 0.4272005868865493 0 0.4518695248979094 0.4392089653440462 0 0.4550018464029191 0.4511015870140376 0 0.4581896855124857 0.4630527078247063 0 0.4613411125376052 0.4750224618812322 0 0.4763732189233097 0.4903929536945271 0 0.4794294109456708 0.5024274370102929 0 0.5095539233232405 0.5331905254403007 0 0.5368860626821381 0.596801131151542 0 0.5674344947050629 0.6725070339381456 0 0.5705248192939412 0.6845732728447447 0 0.5980044812072782 0.7482832014619438 0 0.6317014438986621 0.8362544654487644 0 0.6635078940456764 0.9116999471944927 0 0.687948353668098 0.9634735054747093 0 0.4944883854330394 0.5178147196605921 0 0.3114814991161836 0.1089920901182049 0 0.3185620961171062 0.1180648663926701 0 0.3352512797152065 0.1621838526771682 0 0.3761633120892655 0.2730725570548566 0 0.4003421133352279 0.3244621757474848 0 0.4338116448429378 0.4117350243096168 0 0.4644171341419175 0.4870440483039267 0 0.4824956808861008 0.5144743803867247 0 0.4975887448644948 0.5298476562622794 0 0.5126428620271263 0.5452312614759194 0 0.5157330869262974 0.5572659776033696 0 0.5188104538903219 0.5693173750211278 0 0.5218745778642943 0.5813657342700167 0 0.5249283928180246 0.5934283621200255 0 0.5399677149357766 0.6088586734417551 0 0.5430560044856718 0.620915384346624 0 0.5461447931759039 0.6329729231876533 0 0.5492336545667081 0.6450307142594101 0 0.5523523254041964 0.6570847888916411 0 0.5554393916749003 0.6691514133002167 0 0.5736154955231298 0.6966398697663687 0 0.5767144403874322 0.7087069669019381 0 0.5798118424798697 0.720775784631008 0 0.5829047895642875 0.7328499540534678 0 0.5859985551999199 0.7449250491235203 0 0.6010901278038304 0.7603626369953755 0 0.6041737027718405 0.7724403949686114 0 0.6072431155937944 0.7844872474623554 0 0.610370343179206 0.7965136697781565 0 0.6136150826584039 0.8086276033844003 0 0.6168245274868451 0.8206405639228026 0 0.6357297269783579 0.8479953319473468 0 0.6200525018681574 0.8327857402235075 0 0.6387836482697097 0.8600662879361873 0 0.641885112130739 0.8721132851325689 0 0.6450854952774858 0.8841659875781995 0 0.6482847529007414 0.8962572264206063 0 0.6514787353896689 0.9083324519600063 0 0.6666079494052299 0.9237988222228128 0 0.6697094276713105 0.9359014161691623 0 0.672812425821673 0.9480043134082862 0 0.6760396993712777 0.9598602305765525 0 0.6908498100507493 0.976089627810572 0 0.6930268299490812 0.9892014876093056 0 0.7000000000006934 1 0 0.3214975241460613 0.1358333380195625 0 0.3233494825655865 0.145521874531063 0 0.3262867082736827 0.1560276676095086 0 0.3400768719915069 0.1740180128309076 0 0.3428747819238578 0.1857130421182926 0 0.3458924526185753 0.1976510394373242 0 0.3489653352492973 0.2097475580764516 0 0.3520589267520713 0.2216760302541031 0 0.3551096334432584 0.2336881187236581 0 0.3581707286207462 0.2457114191684013 0 0.3612374974376533 0.2576873873602686 0 0.3642778782342669 0.2696926125558876 0 0.3792040822487202 0.2850885279787159 0 0.3822753180656749 0.2970852580339018 0 0.3853476299607913 0.3090610373000011 0 0.388417135747067 0.3210719784733076 0 0.4034203629436204 0.3364415328804802 0 0.4065207856918477 0.3483687400746697 0 0.4096313379550043 0.3603118996908819 0 0.4127958550346876 0.3722594081740863 0 0.4158781868607522 0.3842475632460839 0 0.4188335198906231 0.3963241993914544 0 0.4218845640335863 0.40832431059069 0 0.4368641901210003 0.4236920915467088 0 0.4399439335163685 0.4357001808365054 0 0.4430345238001993 0.4477087255372889 0 0.4462395575284255 0.4596883412046383 0 0.4493878178303036 0.4716779545106685 0 0.4524475689216625 0.4837084423898042 0 0.467457405803452 0.4990869633937801 0 0.4705094926842417 0.5111265172541897 0 0.5006727916768112 0.5418876134469079 0 0.5279917371050015 0.6055034101661887 0 0.5585297966713693 0.6812168504290177 0 0.5616202581518842 0.6932837191081709 0 0.5890924411422434 0.7570016733085364 0 0.6234588398200154 0.8450058319673284 0 0.6545767290224085 0.9204355367634716 0 0.679425462698668 0.9719371113047157 0 0.4856124787812257 0.5265035004745326 0 0.3071883371916104 0.1205625376866856 0 0.3145893475091718 0.1289304509480578 0 0.3228746167341346 0.1650747917844284 0 0.3295915631835991 0.1721859186757381 0 0.3673021221447407 0.2816793015232468 0 0.3914918467041618 0.3330585705808826 0 0.4250113030752468 0.420312103519896 0 0.455483672025824 0.4957411112368116 0 0.473593115334249 0.5231695042426019 0 0.4886922060313847 0.5385450203322932 0 0.5037566901736683 0.553930312699902 0 0.506840826881173 0.565972493976593 0 0.5099231331218661 0.5780165446646887 0 0.5129818305957434 0.5900697407101726 0 0.5160360663471169 0.6021331862379347 0 0.531070395958858 0.6175611119328468 0 0.534157730859521 0.6296189331300047 0 0.5372466859988638 0.6416770096608353 0 0.540336352880644 0.6537361935129564 0 0.5434413528926777 0.6657964752000407 0 0.5465332290879147 0.6778609406822175 0 0.5647115026767207 0.7053513943630962 0 0.5678085890537117 0.7174193934883956 0 0.5709021381307666 0.7294913694340357 0 0.5739943795000813 0.7415661385758724 0 0.5770866903970153 0.753642234833344 0 0.5921869696720146 0.7690798873959621 0 0.5952737573059537 0.7811546051554089 0 0.5983622865700428 0.7931652971078 0 0.6017136645325842 0.8052632680962134 0 0.6049925069665611 0.817254371242367 0 0.608291296004394 0.8293026754495936 0 0.626734415350064 0.8567927592632014 0 0.6115077396933027 0.8413571078629511 0 0.6298548562477024 0.8687683550598579 0 0.6330587006410886 0.880838530258484 0 0.6362485201327931 0.8929033768363912 0 0.6394378663603476 0.9049967382556965 0 0.6425438415957641 0.9170716245502335 0 0.6576770899039536 0.9325372818006221 0 0.6607796093701971 0.9446398620295995 0 0.6639307975809147 0.9565700004870503 0 0.6679803054707442 0.9686725809768405 0 0.6812153997648231 0.9832878687680033 0 0.68750000000078 1 0 0.311071131208193 0.141510891866435 0 0.3160044066840932 0.1542570466923184 0 0.3309193269293745 0.1823302775624318 0 0.3339970053135151 0.1943088823404304 0 0.3370428570045024 0.2062813142686296 0 0.3400818754015457 0.2182618141305114 0 0.3431929167227564 0.2302348689412833 0 0.3462404350938087 0.2423147074398287 0 0.3493051846523898 0.2543317808032508 0 0.3523995770580229 0.2663356868997852 0 0.3554541162652168 0.27832173554238 0 0.3703797136423584 0.2936709701405634 0 0.3734436058969003 0.3056507639994263 0 0.3765293271505794 0.3176485798872666 0 0.3796015273734571 0.3296412070351363 0 0.3945888766520104 0.3449924069793118 0 0.3977097835313107 0.3569640927263267 0 0.400828806538867 0.3689350480775258 0 0.403941455510607 0.3809092163550152 0 0.4069862307615343 0.3929227204031713 0 0.4100767810155482 0.4049279597616413 0 0.413127981169068 0.4169449607374357 0 0.4281689523775632 0.4322931648372882 0 0.4312751158482556 0.4443006256391069 0 0.4343044127483869 0.4563329053390038 0 0.4374358843140117 0.4683349613841868 0 0.4405028532253025 0.4803561916433733 0 0.4435218446001457 0.4923933182586515 0 0.4585315060997484 0.5077897128629331 0 0.4616171856213099 0.5198236826293838 0 0.491775996891414 0.5505823136483966 0 0.5190960887576896 0.6142039162809656 0 0.5496244114292261 0.6899268339755857 0 0.5527151796251244 0.7019944569671047 0 0.5801796109341055 0.7657193156512325 0 0.6147094958549357 0.8534039256208917 0 0.6456448637941579 0.9291730928526627 0 0.6724032072246047 0.9794295958381714 0 0.6813073679269361 0.9930080947500077 0 0.4767227366426814 0.5352050583455576 0 0.302465544614508 0.1319643676188731 0 0.3184231737625758 0.1769942609775258 0 0.310491223728042 0.1649782148059425 0 0.3585524886262495 0.2903024266393386 0 0.3826606618080169 0.3416212301182193 0 0.4162413365465317 0.4289476722632172 0 0.4465703964332824 0.5044412902660302 0 0.4647106715515661 0.5318591536295814 0 0.4797863356808378 0.5472421128801798 0 0.4948617599613878 0.5626231769226915 0 0.49794864988706 0.5746672485316459 0 0.5010302646475492 0.5867090237773855 0 0.5040831713345435 0.5987595981753073 0 0.5071351774716986 0.6108340899749484 0 0.522171752012272 0.6262628263939419 0 0.5252591763734527 0.6383219223222074 0 0.5283483597431373 0.6503817683510024 0 0.5314424269268512 0.6624426462805184 0 0.5345363329523872 0.6745049044296852 0 0.5376286780958435 0.6865698196772865 0 0.5558074535444867 0.7140629782424291 0 0.5589001375803919 0.7261335978589181 0 0.5619919514394131 0.738206851906775 0 0.5650837565048207 0.7502814171377823 0 0.5681729567785094 0.7623589599017083 0 0.5832721349808112 0.7777996411298618 0 0.5863651233466958 0.7898797088181273 0 0.5896448841820503 0.8017987504600339 0 0.5930087971583913 0.8138643633521007 0 0.5964522105091437 0.8259143409853906 0 0.5995954674973959 0.8378818115896547 0 0.6178365718555812 0.865392924900183 0 0.602715322743284 0.8499469128880583 0 0.6210097318890659 0.8774373534622911 0 0.6242204810073818 0.8895240429803535 0 0.627403824609714 0.9016377355250083 0 0.6305118252296003 0.9137082596462537 0 0.6336127185739123 0.925809060076255 0 0.6487471655580164 0.9412752566662649 0 0.6518578263265082 0.9533497342711394 0 0.6552319774285601 0.9675699887573503 0 0.6625000000018193 0.9783496902686202 0 0.6702948582348206 0.9892929630987478 0 0.6750000000008667 1 0 0.3040799168331502 0.1535066673553657 0 0.2973197266139515 0.1431816334807129 0 0.3216936668334331 0.1904297016725075 0 0.3250923255784821 0.2028515202124922 0 0.3282009407150447 0.2148980007687499 0 0.3312834839893715 0.2268808039362818 0 0.3343309143865896 0.2388764980436774 0 0.3373661941903553 0.2509062291172204 0 0.3404715823352973 0.2629796060792758 0 0.3435659490377569 0.2749871706562235 0 0.3466211845381145 0.2869744634034024 0 0.361622899451738 0.3022850319817935 0 0.3646995428935967 0.3142690025956864 0 0.3677712372992935 0.3262571806160239 0 0.3708490739020812 0.3382467076055191 0 0.3857823291368843 0.3535990254988069 0 0.3889065652132507 0.3655774360367637 0 0.3920038467966326 0.3775733682422775 0 0.3950832557979203 0.3895691857344904 0 0.3981581224853981 0.4015827315222734 0 0.4011819745784891 0.4136057253846979 0 0.4042448132503287 0.4256205655811963 0 0.419317837521846 0.4409624309987257 0 0.4223964937880854 0.4529786140096186 0 0.4254857315000544 0.4649938336163708 0 0.4285590849563182 0.4770064407157187 0 0.4316067632084491 0.4890184360431119 0 0.4346428905711473 0.5010666480355863 0 0.4496453553758182 0.5164766684180846 0 0.4527325380813795 0.5285111861164676 0 0.4828808642177191 0.5592760622185372 0 0.5101979360696148 0.6229050759336391 0 0.5407189277689933 0.6986368760607347 0 0.5438088480595977 0.7107054869850633 0 0.5712643783985428 0.7744383216393982 0 0.6058190646607085 0.8620173249669383 0 0.6367148920683764 0.9379105904763816 0 0.467808449360383 0.543894942331419 0 0.3039213344894463 0.1761132322732143 0 0.2981274775969648 0.1647692320968332 0 0.3092642110474035 0.187683491295304 0 0.3496855141269931 0.2989579851028986 0 0.3738901453053914 0.3502504876421296 0 0.4073274938059469 0.4376323719580453 0 0.4376940460471768 0.5131258131771033 0 0.4558174092489407 0.540547726895962 0 0.4708989580670151 0.5559297447875517 0 0.485967531717292 0.5713106304610747 0 0.4890579050049076 0.5833612769922747 0 0.492138548322288 0.595403279197231 0 0.4951969526210031 0.6074511217133562 0 0.4982595083014002 0.6195165980039312 0 0.5132757140021749 0.6349668116117598 0 0.5163602242028712 0.6470266522673629 0 0.5194503834725621 0.6590873424446264 0 0.5225417796196994 0.6711491937447995 0 0.525633669219399 0.6832132118288796 0 0.5287236361333995 0.6952789082241744 0 0.5468991057861969 0.7227758631497363 0 0.549990800234917 0.734847659979737 0 0.5530825578010055 0.746921246599094 0 0.5561740933791717 0.7589963557292094 0 0.5592667902180428 0.7710711691208196 0 0.574356381594571 0.7865189615835922 0 0.5774503452096246 0.7986011561425204 0 0.5807716771489593 0.8105459793722075 0 0.5843877535691917 0.8224603053026159 0 0.5875722803483543 0.8345331666545653 0 0.5906948251527517 0.8465880848304367 0 0.6089905449452738 0.8740655136608139 0 0.5937979795357583 0.8586581828592564 0 0.6121629869994736 0.8861535211044291 0 0.6153723963578859 0.8982546122122367 0 0.6184777102104058 0.9103502474547824 0 0.6215810281004753 0.922446186362477 0 0.6246828598223556 0.9345462294514283 0 0.6398171588331572 0.9500134199199985 0 0.6429196508198427 0.9621171782369305 0 0.6529521297818315 0.9798537813982505 0 0.656250081356938 0.9891747294236464 0 0.6625000000009533 1 0 0.2917580800931702 0.1541986468823488 0 0.3133428591290849 0.1996724184362225 0 0.3163296289305973 0.211575319001447 0 0.3193996714002735 0.2235513473084008 0 0.3224597970217538 0.2355315683007446 0 0.3255101815307025 0.2475388256403411 0 0.3285810379001415 0.2596391785021973 0 0.3316649232034316 0.2716619514347863 0 0.3346204760321818 0.283661497959961 0 0.3376666316474604 0.2956475261051295 0 0.3527792221172162 0.3109369068336937 0 0.3558522749223443 0.3229237431789152 0 0.358925425270084 0.3349131399193634 0 0.3619986601315919 0.3469052079157464 0 0.3770007732642544 0.3622354476691348 0 0.3800760872530272 0.374234612169061 0 0.3831444817308419 0.3862240319018175 0 0.3861958590668135 0.3982133377065616 0 0.3892423344768934 0.4102459991817539 0 0.392180947829868 0.4222899940341441 0 0.3952806964974395 0.4343003335318849 0 0.4104050619944466 0.4496477267852158 0 0.4135282217516493 0.4616533801853012 0 0.416615353599762 0.4736704944995685 0 0.4196959074243098 0.4856910504293281 0 0.4227318732607485 0.4977004014163304 0 0.4257818739186762 0.5097589602108805 0 0.4407648528352459 0.5251632863617972 0 0.443850645326579 0.5371998718123596 0 0.4739919539117254 0.5679659061678703 0 0.5013262793016553 0.6315915959654899 0 0.5318236225277991 0.7073439821596212 0 0.5349080513067682 0.7194151544531093 0 0.5623544981187871 0.7831536513882275 0 0.5969461174348798 0.8707023148844271 0 0.6277849390927031 0.9466481764731145 0 0.6448685935312151 0.9745573917151182 0 0.4589131523047946 0.5525831181470642 0 0.2916691790739486 0.1762105552581534 0 0.2969550259134763 0.1867160549044355 0 0.2857883835164892 0.1649999995364608 0 0.3015918288565501 0.1971872483779364 0 0.3408351814658346 0.3076103757761022 0 0.3650726732977695 0.3588998024717469 0 0.3983583606537509 0.446311374283091 0 0.4288128240713641 0.5218133952848218 0 0.4469356596143607 0.5492371154122258 0 0.4620188412757875 0.5646144600443346 0 0.4770785920086876 0.5800099861304671 0 0.4801670663861777 0.5920571209845036 0 0.4832474719781734 0.6040994501693852 0 0.4863170121953354 0.6161470179320564 0 0.4893832817981065 0.6282176745820193 0 0.5043833603458133 0.6436693325309896 0 0.5074609888332108 0.6557324143943473 0 0.5105530122884978 0.6677925403462123 0 0.5136398235391024 0.6798565660111433 0 0.5167292936807656 0.6919212910208831 0 0.5198285845957454 0.7039822740326338 0 0.5379897849263791 0.7314887261737847 0 0.5410815349576135 0.7435616994814046 0 0.5441732239844703 0.7556355663588028 0 0.5472652749881817 0.7677097752570491 0 0.5503563871365873 0.7797901180798231 0 0.5654421994296231 0.7952390311543424 0 0.5685558084191127 0.8072449894182863 0 0.572081250304902 0.8191918232041173 0 0.575472712943666 0.8311372099684516 0 0.5786753249531155 0.8432263344170535 0 0.5817729965063092 0.8553169911644047 0 0.6001350587188652 0.882795386713752 0 0.5849066120992454 0.8673505392632079 0 0.6033177522803168 0.8948929031126776 0 0.6064382091222595 0.9069839088330458 0 0.6095496596563799 0.9190813233214216 0 0.6126513951101993 0.9311819982247214 0 0.6157534453907907 0.9432830921836036 0 0.6308864738027065 0.9587516006299313 0 0.6340471249647593 0.9703909001445675 0 0.6443771280296691 0.9877715558330307 0 0.6500000000010401 1 0 0.3046047179879628 0.2084268259388491 0 0.3075262680288163 0.2202477707334207 0 0.310562983743637 0.2321876262782217 0 0.3136279943778172 0.2443423429327808 0 0.3166936145382859 0.2562973634231165 0 0.3197622467308419 0.2683193330204138 0 0.3227485329046112 0.2803207118696011 0 0.3253693713724635 0.2923979382720326 0 0.3288194596839137 0.3043081866643392 0 0.343930815098662 0.31959017542267 0 0.3470036000080415 0.3315785248446989 0 0.3500741211304366 0.3435698319031572 0 0.3531470159076141 0.3555631873027815 0 0.3681472686570109 0.3708969208577233 0 0.3712126857674939 0.382886253456297 0 0.3742818829476847 0.394838261515713 0 0.3772972529657516 0.40680419944011 0 0.3802865140188748 0.4188398213607099 0 0.3832172040190936 0.4309380661311057 0 0.3862882861718083 0.4429658425025603 0 0.4014522850273635 0.4583317529990477 0 0.4046705329072836 0.4703248446580161 0 0.4077448539333507 0.482346524376094 0 0.4108159205706793 0.4943618285622338 0 0.4138480413523209 0.5063868124012705 0 0.4168813241095725 0.5184472398927895 0 0.4318832639795653 0.5338527424166808 0 0.4349695086563055 0.5458892459710011 0 0.4651016566379773 0.5766607607718184 0 0.4924464214476805 0.6402797279835631 0 0.5229636462056692 0.7160408426812035 0 0.5260386215523523 0.7281168253131304 0 0.5534449415414153 0.7918735141984384 0 0.5881094526334161 0.8794293541091809 0 0.6197521451138939 0.9554938851369569 0 0.6361589229773765 0.980267481921908 0 0.4500205315514503 0.5612746743791901 0 0.2794189860462747 0.1755705847711164 0 0.2838596616936662 0.1880552963601287 0 0.2913291558559995 0.195436534089851 0 0.2929340618955787 0.2054594997944286 0 0.3318523518150771 0.3163483164335814 0 0.3562202587679399 0.3675590802676404 0 0.3893963404255008 0.4549902179217922 0 0.4199342462391196 0.5305024130042478 0 0.4380531523348181 0.5579273744395975 0 0.4531255066509651 0.5733131103290871 0 0.4681882695047543 0.5887061575221312 0 0.4712753620554825 0.6007532752144844 0 0.4743619529933477 0.6128025432796419 0 0.477433844041752 0.6248461245385833 0 0.4805099764400596 0.6369022565105955 0 0.495500527868154 0.6523595929856749 0 0.4985590109122625 0.664437584581831 0 0.5016672430806337 0.6764922642804488 0 0.5047788663141504 0.6885352414941293 0 0.507872538775747 0.7005964487847836 0 0.5110103642792501 0.7126601588074331 0 0.5290795557488027 0.74020238534503 0 0.5321715941660936 0.7522762865658377 0 0.5352643788810284 0.7643513192395319 0 0.5383560197495663 0.7764265655051387 0 0.5414507982035313 0.7885060330092665 0 0.5565936879551652 0.8039055049983307 0 0.5599816807145606 0.8158742257716693 0 0.5633178690339218 0.8278882293914737 0 0.5666605279595817 0.8398912236456512 0 0.5697547390824073 0.851960709308048 0 0.5728541413774598 0.8640340332381319 0 0.5912834980198314 0.8915287134109846 0 0.5760444757983537 0.8760723515524349 0 0.5944078635792062 0.9036220677441268 0 0.5975156122599056 0.9157192739549584 0 0.6006201077182072 0.9278179094688446 0 0.6037227168071484 0.9399182835475338 0 0.6074340256004442 0.9537354350621021 0 0.6225630298370791 0.967491643285372 0 0.6262520244436989 0.9789321089466403 0 0.6375000000011268 1 0 0.6312497439175404 0.9896854529701828 0 0.2956351892820548 0.216925770432568 0 0.2986661036442876 0.2288565067686702 0 0.3017630175872905 0.2409019421630287 0 0.3048045806805173 0.2529930516543034 0 0.3078630494463768 0.2649938853347337 0 0.3109274506727955 0.2769716255090116 0 0.3133141185967527 0.2890986202647542 0 0.316491630127939 0.3010694757115797 0 0.3198687827360192 0.3130604813592609 0 0.3349915862497556 0.3283186358545088 0 0.3381480322941013 0.3402615018983964 0 0.341220886322916 0.3522286911284778 0 0.3442940899942274 0.3642215733282086 0 0.3592918806065539 0.3795547486583914 0 0.3623626076745594 0.3915174493078807 0 0.3653820728941699 0.4035197283135892 0 0.3684145662550709 0.4154864850566328 0 0.3714479648446586 0.4274775642400687 0 0.374389832209127 0.4395579476327131 0 0.377374853386017 0.4516402457890736 0 0.3925154967454225 0.4670049852677042 0 0.3957928856214873 0.4790008957273347 0 0.3988696692651539 0.4910233140793674 0 0.4019402865145121 0.5030387565319323 0 0.4049776658570462 0.5150628172907062 0 0.408011820439908 0.5271261203808087 0 0.4230040601100674 0.5425413141430961 0 0.4260856679427275 0.5545784832598072 0 0.456211837835779 0.5853565877644799 0 0.4835760722531401 0.6489712303171452 0 0.5140751643101691 0.7247679671950227 0 0.5170989443166768 0.7368644697148777 0 0.5447647416194413 0.8005624573852966 0 0.5792471259306471 0.8881497280532719 0 0.6138788996462605 0.9633391417930196 0 0.4411383130623124 0.5699672297325555 0 0.2726587958667652 0.1858956186586593 0 0.2825815703443962 0.2007141903775654 0 0.2833563167813801 0.213147002676202 0 0.3226682856562778 0.3252020435246072 0 0.347366625567596 0.3762185767874933 0 0.3804563852134892 0.4636563917155154 0 0.4110503015704397 0.5391906334803115 0 0.429169789144622 0.5666180575110085 0 0.4442362104696296 0.5820066312147496 0 0.4592989443102191 0.5974029023398406 0 0.4623849671723886 0.6094513500348382 0 0.4654715475176153 0.6215014093657864 0 0.4685588829550601 0.633552833639322 0 0.4716395226037023 0.6455965911973094 0 0.4866504765335972 0.6610257145829304 0 0.4897440764992192 0.6730519381050342 0 0.4929150645238071 0.6851290875649296 0 0.4960803372777586 0.6971488217416756 0 0.499153723949659 0.7092658640079359 0 0.5021578461360058 0.7214204497661596 0 0.5201688214061087 0.7489164476431527 0 0.5232604532969846 0.760991246685404 0 0.526352051765689 0.7730674763092252 0 0.5295002400165572 0.7851094456299702 0 0.532824761142687 0.7972186511997253 0 0.5480376687509009 0.8125672794301277 0 0.5513158338787375 0.8245469006480104 0 0.5546213746124523 0.8366030593002494 0 0.5577338387307978 0.8486096257940013 0 0.560836580461276 0.8606712288243111 0 0.5639728737611733 0.8726874860216598 0 0.582386690338398 0.9002581005358686 0 0.5671766489881811 0.8847829686291565 0 0.5854877244383139 0.9123561254672002 0 0.5885901090450675 0.9244543088951122 0 0.5916927046931482 0.9365537002421509 0 0.5950088684623002 0.9485355928035584 0 0.6045226975029843 0.9662098530156609 0 0.6132734604042266 0.9762568819040972 0 0.6188787875374631 0.9890227298419153 0 0.6250000000012135 1 0 0.2748961207935918 0.1951828406359321 0 0.2865939423809802 0.2253799342068794 0 0.289846527179095 0.2376241186387572 0 0.2929057410831074 0.2496653373770982 0 0.295963758786718 0.2616654756350508 0 0.2990274875875235 0.2736419211915026 0 0.3014004739476505 0.2857733415886054 0 0.3044981509576455 0.2977507646594709 0 0.3076607030308269 0.3097352820076405 0 0.3107153878169426 0.3217517806753618 0 0.326158200996424 0.3369866608338029 0 0.3292952296610155 0.3488981581683456 0 0.3323684480994784 0.3608839321227155 0 0.3354401015554327 0.3728806895682919 0 0.3504362885539157 0.3882158879657141 0 0.3535066736946684 0.4002096300263462 0 0.3564294538272847 0.4122623445348523 0 0.3595478013932072 0.4241506834824443 0 0.3625895415853695 0.4361312006612983 0 0.3655142284268981 0.4482319416181594 0 0.3685084591015403 0.4603155475841746 0 0.3835949011736887 0.475672826945756 0 0.3868353629232147 0.4876770894686103 0 0.3899945283750182 0.4997016768059153 0 0.3930656126291274 0.5117184503991018 0 0.3960933482538922 0.5237491852625277 0 0.3991340366093779 0.5358044333542703 0 0.4141194845652149 0.5512304156221134 0 0.4172022086618787 0.5632686804958402 0 0.4473220784122061 0.5940525267827119 0 0.4747225803332157 0.6576528896273026 0 0.5051815633710601 0.7335050568873319 0 0.5081526668176712 0.7456059257470226 0 0.536168144604667 0.8092724302734579 0 0.570356482650016 0.8968913520896831 0 0.5977465185590038 0.9587484104890502 0 0.4322548755209052 0.5786585392603532 0 0.2655172676938348 0.1959606607367931 0 0.2714709362505655 0.2070705915972573 0 0.27406715427881 0.2215133495701077 0 0.3137876423559137 0.3337089731235672 0 0.3385125890457923 0.384878845084657 0 0.3715872467428337 0.4723306656159376 0 0.4021539475221524 0.5478823236200863 0 0.4202855525138616 0.5753090103573227 0 0.4353446254735214 0.5907023534674132 0 0.4504076423927125 0.6060996228367199 0 0.4534930846127412 0.6181486639024942 0 0.4565788040575808 0.6301996084365317 0 0.4596749822128675 0.6422158223539445 0 0.4627912507161663 0.6542442525231885 0 0.4778005913355917 0.6696810518805949 0 0.4810278145228862 0.6817688604129026 0 0.4842492833059577 0.693833116108747 0 0.4874721307011574 0.705758197789522 0 0.4903291265280352 0.7180111071580424 0 0.4932438876854176 0.7301904466842616 0 0.5112577293912692 0.7576309557408751 0 0.5144009462538515 0.769620642409252 0 0.5176344162702484 0.78168972385197 0 0.5209100910311431 0.7937904026828733 0 0.5242569382176007 0.8059730402621634 0 0.5394019237328342 0.8212421575040025 0 0.5426028126618319 0.8332200834712934 0 0.5457177273124103 0.8452417484946519 0 0.5488174494611208 0.8573168332493795 0 0.5519746773774103 0.8693555792088978 0 0.5551875491493496 0.8814371994603724 0 0.5734611402443085 0.9089920238422851 0 0.5583311342220377 0.8935309056804637 0 0.5765619984320928 0.9210904967339607 0 0.5796633137906398 0.9331897449456463 0 0.5827647101157116 0.9452895680457668 0 0.5863625729726124 0.9585750341981996 0 0.5937518852086664 0.9675271251416246 0 0.6000130667619183 0.9783583961974194 0 0.606249567153085 0.9891748764461626 0 0.6125000000013001 1 0 0.2777412303265483 0.2340829546339937 0 0.2810083614677752 0.2463284895916008 0 0.2840650723841197 0.2583431677085171 0 0.2869991964585425 0.2703166381073314 0 0.2894955935561522 0.2824463991421897 0 0.2925673439521556 0.2944203374634929 0 0.2956591051792276 0.3064000792435927 0 0.2987117162662399 0.318380892352926 0 0.3017864777602047 0.3303649460136082 0 0.3172257100404112 0.3455968425668411 0 0.3203522209738947 0.3575693796914307 0 0.3235147156831429 0.3695414452596056 0 0.3265854861495909 0.3815398485481771 0 0.3415746879940132 0.3968818995943647 0 0.3446179016669172 0.4088926012195754 0 0.3476991066379259 0.420895917177823 0 0.3508134062444269 0.4328934390349651 0 0.35369830040114 0.4448275593342147 0 0.3566162085841378 0.4569331900890582 0 0.3596402299730836 0.468990386208081 0 0.3746854251737985 0.4843438333905947 0 0.3778920513768465 0.4963089119812175 0 0.3810846957584467 0.5083462419152227 0 0.3841838665171451 0.5203925878196353 0 0.3872215358965296 0.5324150512606531 0 0.390246872037568 0.5444882627542267 0 0.4052361171056725 0.5599188823267536 0 0.4083186699088651 0.5719576341092505 0 0.4384304835046027 0.6027480911187535 0 0.4659016072669602 0.6663149706327913 0 0.4961483893347119 0.7422561315122727 0 0.4992535575605275 0.7542787162105651 0 0.5274629033929557 0.8178367176005392 0 0.5614339645026986 0.9056285031262992 0 0.4233694621697049 0.5873519324789992 0 0.258004389624032 0.2057516340997823 0 0.2622086567131776 0.2175957452824904 0 0.2658330666699128 0.2306570956130606 0 0.3049519251207531 0.3423339039787037 0 0.3295851209756615 0.3935586918447653 0 0.3627077543114992 0.4809958631024217 0 0.3932862258333785 0.5565655522618177 0 0.4113994275026464 0.583999922533794 0 0.4264546427640798 0.5993963999489118 0 0.4415157104708186 0.6147957482551272 0 0.4446018337659408 0.6268405521582421 0 0.4476891630053173 0.6388770687674589 0 0.4508541104713033 0.6508006196329833 0 0.4540320935724401 0.6628900448091162 0 0.4690858693268083 0.6783353486817516 0 0.4722806106889099 0.6904259163584535 0 0.4754937100277056 0.7024427622720478 0 0.4785440081118515 0.7144611938395267 0 0.4811883584898373 0.7266827512816669 0 0.4841669941589471 0.7388292399513849 0 0.5023462596607858 0.7663450097226184 0 0.5056980074568804 0.7783081920683699 0 0.5089697964936206 0.7903179451518213 0 0.5122743940461453 0.8024336100015899 0 0.5154566392084423 0.8144406957287411 0 0.5306094604705285 0.8297814426287352 0 0.5337060074031927 0.8418669780940575 0 0.5368022316525681 0.8539526669360846 0 0.5399353846738411 0.8659724052373254 0 0.5431148247080928 0.8780649363340071 0 0.5462753813191191 0.890168302442685 0 0.5645336301002406 0.9177265035187718 0 0.5493974625809638 0.902265442201923 0 0.5676344735797285 0.9298253542622508 0 0.5707352913295132 0.9419251376521023 0 0.5736314227505959 0.9540882184439684 0 0.5848786202799978 0.9698155242996618 0 0.5879033988633862 0.9785831691671383 0 0.5938289164630289 0.9892206803255175 0 0.6000000000013869 1 0 0.2690983299827168 0.2429947401835564 0 0.2721719098622695 0.2549760922104461 0 0.2751738385171617 0.2669245693286826 0 0.2779533337431557 0.2788968796454663 0 0.2806385085519054 0.2911020807475563 0 0.2837271571127684 0.3030768490938803 0 0.2867949076581056 0.3150579920339077 0 0.2898648215095592 0.3270361297303435 0 0.2929402338061098 0.3390186373944304 0 0.3081370985518651 0.3543022673837129 0 0.3115398442572645 0.3662142567916747 0 0.3145159845598016 0.3782315991901813 0 0.3174736919375482 0.3902567708035259 0 0.3326434337617806 0.4055640988529594 0 0.3357818794000256 0.4175496538817781 0 0.3387957623211327 0.4295660871502527 0 0.3417792222398814 0.441573085031293 0 0.3446291591935169 0.4536410605426408 0 0.3476998750065981 0.4656508838306233 0 0.3507751410229179 0.4776707875746171 0 0.365850534986258 0.4929874041531966 0 0.3689972190375224 0.5049454311727474 0 0.3722017066951918 0.5170199135451252 0 0.3753176401623011 0.529083876471342 0 0.3783462121474462 0.5411052592626565 0 0.3813706975044491 0.5531792811336059 0 0.3963551035634434 0.5686058611121556 0 0.3994355988995968 0.5806466429912238 0 0.4295395749068707 0.6114430150600515 0 0.4571938857130523 0.6749876783636065 0 0.4872519385033236 0.7509215307706256 0 0.490355745551577 0.7629448830058541 0 0.5185951606404871 0.8264210009291533 0 0.5525037694836012 0.9143627448959931 0 0.5757039270403854 0.9665072520075825 0 0.4144819176502442 0.5960447034264382 0 0.2501306690957222 0.2152548451898965 0 0.2539881960149343 0.2269777280326661 0 0.2571371644034847 0.2396080536796922 0 0.2960182256014962 0.3510072051788037 0 0.320554346596488 0.4022559604748294 0 0.3538425910370921 0.4896763314304712 0 0.3844055714360849 0.565251895447562 0 0.4025155477216144 0.5926909242648655 0 0.4175644851864369 0.6080905848883458 0 0.4326241666935999 0.6234895472140694 0 0.4357235848011701 0.6355088139431595 0 0.438905920651316 0.6474868542715561 0 0.4421662365193922 0.6594830631112389 0 0.4453616810937279 0.6715429756672957 0 0.4603455116054322 0.6870728760505213 0 0.4634977221934984 0.6990651784171591 0 0.4665433924400074 0.711110653197101 0 0.469133430216124 0.7233823385834189 0 0.4721712840583352 0.7354574102440916 0 0.4752550764474118 0.747550644627306 0 0.4936045806889685 0.7747332754548254 0 0.4970202667338633 0.7868525052405838 0 0.5003228755047529 0.7989756675258437 0 0.5034853883561314 0.810978532335227 0 0.506582092622564 0.8230606941330969 0 0.521691618380693 0.8385054534905962 0 0.524787222742201 0.8505915522790106 0 0.5279203115196172 0.8626123674629812 0 0.5310962604886887 0.8747038915955154 0 0.5342466884064647 0.8868072969929033 0 0.5373616403915744 0.8989024860314159 0 0.5556056784512414 0.9264610557676241 0 0.5404717862534164 0.9109984476421666 0 0.5587065082404444 0.9385605267928117 0 0.5618073995070125 0.9506612113195518 0 0.5649109450366135 0.9627574883161137 0 0.5774633374997806 0.9788221716207384 0 0.5817235934243994 0.9894482542618264 0 0.5875000000014736 1 0 0.2602465035463777 0.2516631556074789 0 0.2633020095241116 0.2635448369885186 0 0.2661194306127029 0.2756076318824487 0 0.2688703874232195 0.2876297847783519 0 0.2718231033177798 0.2997334332768037 0 0.2748860153221477 0.3117328123262291 0 0.2779391352664647 0.3237136118201917 0 0.2810244994749015 0.3356848411818127 0 0.2840930103926329 0.3476738497106007 0 0.2991385142590275 0.3629828262359229 0 0.30253882779417 0.3749028389893456 0 0.3054643573107684 0.3869335460747717 0 0.3084262435561246 0.3989580314977142 0 0.3236419126418811 0.4142543510086238 0 0.3267843346234878 0.426238214548419 0 0.3296842289526514 0.43827737674078 0 0.3327326498225569 0.4502978237590187 0 0.335756191349228 0.4623187083145716 0 0.3388269814089145 0.474331464348651 0 0.3419073637063736 0.4863484815209387 0 0.3569781689807897 0.5016540538417278 0 0.3601932679120318 0.5136802591285329 0 0.36335975298684 0.5257369265141496 0 0.3664360904742092 0.5377615658501806 0 0.3694572479821914 0.5497974243650909 0 0.3724820555900262 0.5618672927102824 0 0.3874724533473422 0.5772931798136434 0 0.3905523913536693 0.5893323361136341 0 0.4206488712553222 0.6201362937427335 0 0.4484015195129032 0.6836556582215497 0 0.4783593668730568 0.7595500907054014 0 0.4815926967531569 0.7713588181826193 0 0.5096782608134369 0.8351441681674661 0 0.5435774233486265 0.9230967247151477 0 0.5672890420860588 0.9754926866996346 0 0.4055923598143404 0.6047381071475667 0 0.2419071182073476 0.2244570029217542 0 0.2451916404039454 0.2363674663959099 0 0.2482146863606836 0.2484713845705648 0 0.2871667884297785 0.3596609899002879 0 0.3115556767059319 0.4109438188413882 0 0.3449860563072629 0.4983654475157306 0 0.3755062253531761 0.5739436864839905 0 0.3936181297198559 0.6013858705158062 0 0.408674574901173 0.6167841633507275 0 0.4237505882211162 0.6321711717447507 0 0.4269122450232877 0.6441645823268187 0 0.4301130193298919 0.6561564835521607 0 0.4333761086433057 0.6681924931325115 0 0.4364642267992188 0.6802489463799559 0 0.4515293856373207 0.6956934055759334 0 0.4544842207464168 0.7077285183425187 0 0.4573798795592013 0.7199291039198352 0 0.4602055359301686 0.7321553463091641 0 0.463257908073026 0.7441873190728471 0 0.4663451654142433 0.7562441961093687 0 0.4850686675753196 0.7834291987958035 0 0.4883769835824126 0.7955396292920072 0 0.4914739762575925 0.8076194461561218 0 0.4945702043793258 0.8197005402275916 0 0.497665932697649 0.831783124098109 0 0.5127739861191655 0.8472278970762704 0 0.5159054004158193 0.8592520740307766 0 0.5190805518876183 0.8713433326175946 0 0.5222279064809265 0.8834463677955797 0 0.5253351539168603 0.8955400335644526 0 0.5284433698726232 0.9076353933443664 0 0.5466779563396199 0.9351954081264316 0 0.5315499747907079 0.9197322492530402 0 0.5497778483395006 0.9472957339969006 0 0.5528880472539123 0.9593614629342975 0 0.5562095650129484 0.9713007073839905 0 0.5684794501439864 0.9885065901511541 0 0.5750000000015603 1 0 0.2514096002681295 0.2604508941297162 0 0.254399432905622 0.2722847615496772 0 0.2570175815629468 0.2843649590039959 0 0.259865379916181 0.2964447116796319 0 0.2629558709875306 0.3084065657096536 0 0.2660208167608634 0.3203874844891484 0 0.2690881621718684 0.3323642248326305 0 0.2721711096006042 0.3443440195924966 0 0.2752466055057292 0.3563294771764222 0 0.2903292197294094 0.3716322741850236 0 0.2934140984469428 0.3836218706492377 0 0.2964172975700234 0.3956301653186258 0 0.2995202811303768 0.4076178783841689 0 0.3146986653411393 0.4229307073822106 0 0.3177148528019914 0.4349460181837262 0 0.3207208700843875 0.4469687993469577 0 0.3238004537303663 0.4589798255782663 0 0.3268803202523332 0.4709923496293084 0 0.329960580525927 0.4830073616318117 0 0.3330401866574689 0.4950234414250437 0 0.3480989439208997 0.5103788286570851 0 0.3513327555522072 0.5223766225086551 0 0.3544669078546654 0.5344037464963712 0 0.3575543920302747 0.5464404803669767 0 0.360579038148793 0.5584825361708108 0 0.3635884265546722 0.5705529918988619 0 0.3785822511594221 0.5859834472567633 0 0.3816429100819504 0.5980342547313326 0 0.4117596720184964 0.6288300125500019 0 0.439555604674587 0.692307162249779 0 0.4695279666203021 0.768228959345544 0 0.4731385843494443 0.7801316867911239 0 0.5007609335147761 0.843867290579396 0 0.5346503068490207 0.9318301863402128 0 0.5593773644002594 0.9822265720190666 0 0.3967008944016524 0.6134320408835209 0 0.2333452383417893 0.233345237241332 0 0.2362214882763206 0.2452223508026079 0 0.2391759543209492 0.2572882702855268 0 0.2783213260131742 0.3683172146662078 0 0.3026200451627692 0.4196193949642367 0 0.3361317786696684 0.5070072628802146 0 0.3666339003778036 0.5826198392081583 0 0.3847260372571817 0.6100801223249788 0 0.399784326668047 0.625478484006006 0 0.4148485005804039 0.640873918261109 0 0.4180354784510006 0.6528726761774726 0 0.4213467116220473 0.6648535727176347 0 0.4244734782810527 0.6768986515783669 0 0.427567127873276 0.6889535372281679 0 0.4426103700042084 0.7043303748359039 0 0.4455286583590928 0.7165289608679069 0 0.4484133852945293 0.7286739322486628 0 0.4513030505097322 0.7408753005918169 0 0.4543563881175972 0.7529087035160378 0 0.4574352302997209 0.7649689643100676 0 0.476373424847202 0.7921873224868243 0 0.4794632191926107 0.8042602999934206 0 0.4825592022186835 0.8163408330533755 0 0.4856545900500956 0.8284223966627942 0 0.4887543138216698 0.8404880751793633 0 0.5038960453088901 0.8558995439966091 0 0.5070702573192661 0.8679839839965531 0 0.5102171853047505 0.8800864732022724 0 0.5133158129975381 0.8921774613245174 0 0.5164167050846866 0.9042734579991072 0 0.5195220665447458 0.9163686757942182 0 0.5377501528993641 0.9439288953595025 0 0.5226238191238821 0.9284630519263952 0 0.5408681214159698 0.9559875496956549 0 0.5440740829747585 0.9679804807989671 0 0.5487424347070082 0.9798574256051942 0 0.5625000000016469 1 0 0.5560363506844805 0.992056637167569 0 0.242216988077243 0.2691879136800336 0 0.2451156880554823 0.2811166701920205 0 0.2479561721860607 0.2931458688881923 0 0.251034658377793 0.3050832828783866 0 0.2541052522304191 0.3170576696077222 0 0.2571766745035714 0.3290349215645985 0 0.2602481596839086 0.3410146264617594 0 0.2633262203745848 0.3529970981917542 0 0.2664014432778775 0.364984292023418 0 0.2813957634333638 0.3803079046691397 0 0.2844701805075451 0.3923008732958605 0 0.2875691556434763 0.4042809787874849 0 0.2906773730339502 0.4162802506081812 0 0.3057132091598977 0.4316219913538935 0 0.3087806682440201 0.4436308122017632 0 0.311859299306611 0.4556396248992123 0 0.3149384988432817 0.4676511672787849 0 0.3180163021363882 0.4796660991095124 0 0.3210936010943844 0.4916827186161628 0 0.3241662361997984 0.5036694585319704 0 0.3392150927259712 0.5190021719798624 0 0.3424170856045135 0.5309782863789004 0 0.3455852333640731 0.5430834400077196 0 0.3486854849090504 0.5551336744898845 0 0.3517027733537205 0.5671575003625586 0 0.3547358495742955 0.5792462424945539 0 0.3696655514182782 0.594685268968865 0 0.3727502254281883 0.6067286194068618 0 0.4028697809632198 0.6375267518651029 0 0.4306567699147743 0.7010134209189133 0 0.4606295245692525 0.7770246970711956 0 0.4642638362723005 0.7889279811977818 0 0.4918766128907792 0.8525328332461279 0 0.5257298513976121 0.9405595759952049 0 0.3878095978364414 0.6221261976726737 0 0.2244570040053631 0.2419071172019055 0 0.2270385378579542 0.2538434220194847 0 0.2298199425179038 0.2657731694133606 0 0.2694749543058073 0.3769737561724194 0 0.2937639970441103 0.4282865582210527 0 0.3272731829383839 0.5156615327765365 0 0.3577115581378375 0.5913077558659827 0 0.3758344660750018 0.618773750739678 0 0.3908933901579832 0.6341737309227995 0 0.4059649669965467 0.6495447129407188 0 0.4092003028672476 0.66155244810041 0 0.4124464629002497 0.6735411702100073 0 0.4155806231387879 0.6856007249881385 0 0.4186698409785056 0.6976577498894772 0 0.4337040126114749 0.7130317357164973 0 0.4365998222515207 0.7251618038913648 0 0.4394633651574605 0.7373930779118887 0 0.4423508014044238 0.749542529769252 0 0.4454404480681198 0.7616130736853385 0 0.4487132015720777 0.7736895358371638 0 0.4674607063549772 0.8009086754815563 0 0.4705489919309945 0.8129814345128518 0 0.4736442209310806 0.8250619455604375 0 0.4767393623540591 0.8371419135237079 0 0.4798653569692429 0.8492003644437969 0 0.4950440371474645 0.8646206228062894 0 0.4981963034017604 0.8767242885721385 0 0.5012950502077775 0.8888163490181906 0 0.5043953978730553 0.9009102805186124 0 0.5074958505109197 0.9130053307150569 0 0.5105974035935725 0.9250989485836124 0 0.52883428448597 0.9526510874765978 0 0.5137065918626669 0.9371928483857086 0 0.5319675528788083 0.9648337721561062 0 0.535275997739702 0.9781910066979526 0 0.5434762194535379 0.9899287996082833 0 0.5500000000017335 1 0 0.233049443262297 0.2778919967436084 0 0.2360545103387244 0.2898245212866156 0 0.2391334260288025 0.3017544202698124 0 0.2422008811554824 0.3137278660788872 0 0.2452686604387319 0.325704345721131 0 0.2483379363100372 0.3376837885118276 0 0.2514096197406365 0.3496658894467178 0 0.254481994598807 0.3616508199817721 0 0.2575559145970234 0.3736394785335438 0 0.2725492247407096 0.3889596047926339 0 0.2756355215124065 0.4009486559388118 0 0.2787344069611142 0.4129408449883085 0 0.2818286969309871 0.4249486584833796 0 0.2968419537370094 0.4402927769799811 0 0.2999198288798429 0.452300231208681 0 0.3029985681169093 0.4643095825853869 0 0.3060786915580457 0.476322518791855 0 0.3091511229395472 0.4883389845497953 0 0.3122160022905389 0.500348109712531 0 0.3153071119657762 0.5123284360753213 0 0.3304207339100841 0.527639548514385 0 0.3335853551961825 0.5397209848913269 0 0.3367018130440994 0.5517627715929707 0 0.3397965056584505 0.563808343428146 0 0.3428030840637749 0.5758466881587553 0 0.3457763832692164 0.5879458139435442 0 0.3607795012123123 0.603371738585105 0 0.3638603798333617 0.6154209172340626 0 0.3939774061960238 0.6462234708829115 0 0.4217508925656845 0.7097122555207928 0 0.4521757385754754 0.7857609726917449 0 0.4554331556485979 0.7976175218798024 0 0.4830283199768518 0.8612714287160361 0 0.5168136591644517 0.9492909312150024 0 0.3789178543383512 0.6308206936699795 0 0.2152548462463826 0.2501306681865424 0 0.2175462501884805 0.262069065960486 0 0.2198924814004989 0.2743583477910242 0 0.2606276323517143 0.3856270054749329 0 0.2849042669780451 0.436954465770374 0 0.3183981441590057 0.5243223186774655 0 0.3488063824495235 0.6000248438992172 0 0.3669428015611342 0.6274673802638768 0 0.3820025782546735 0.642863936530359 0 0.3970619261618696 0.6582746133862681 0 0.4003462710717718 0.6702279431703588 0 0.4035959812174495 0.6822505321606076 0 0.406682614040823 0.6943049838146298 0 0.4097693200046714 0.7063641454902001 0 0.424802991429913 0.7217349725179815 0 0.4277238203396848 0.7338019569473712 0 0.4307044608848649 0.7459980502067713 0 0.4337710595702817 0.7580936779965682 0 0.4369403358017583 0.7702401627448833 0 0.4402306429282654 0.7825065280889946 0 0.4585397938018946 0.809622234043289 0 0.4616348426337532 0.8217017329225689 0 0.464730148286473 0.833779318130797 0 0.4678397803115472 0.8458541747461163 0 0.4709663352793465 0.8579351104359588 0 0.4861744093186069 0.8733614081054423 0 0.4892729907235167 0.8854533099031372 0 0.4923718497050976 0.8975469030388218 0 0.4954712469165741 0.9096417339306849 0 0.4985715686004117 0.9217357926763912 0 0.5016814973032344 0.9338291891792136 0 0.5198846340063079 0.9613536934934382 0 0.5048010111158725 0.9459294480728662 0 0.522934109044262 0.9729026147552619 0 0.5312044259248478 0.9900586961350635 0 0.5375000000018204 1 0 0.2235093982010106 0.2864357776547938 0 0.2272328148306871 0.2984315407245848 0 0.2302980129622227 0.3103994194259642 0 0.2333632983625676 0.3223728750594609 0 0.236428225728083 0.3343514261623462 0 0.2394966507580949 0.3463327388121659 0 0.2425655893470993 0.3583172502739717 0 0.2456311899446218 0.3703013500064565 0 0.2487045750292563 0.3822914100344975 0 0.263708487643188 0.3976155324017288 0 0.2667983931011388 0.4096077662872903 0 0.2698954881092089 0.4216089867108305 0 0.2729685606910906 0.433616207639667 0 0.287981762872638 0.448961558932622 0 0.2910592295169329 0.4609700326145532 0 0.2941368363450697 0.4729798437957238 0 0.2972082275522355 0.4849969990497939 0 0.3002783188605758 0.4970153494354494 0 0.3033449941897634 0.5090234388237178 0 0.3064331387489414 0.521003061534648 0 0.3215391359128542 0.5363457146009583 0 0.3246470646990815 0.5483949676972719 0 0.3278195608242117 0.5604448342636039 0 0.3309111921849052 0.5724879747679665 0 0.3339300279375552 0.5845214302293006 0 0.3369804664360563 0.5966059129275602 0 0.3518883848160567 0.6120678625951447 0 0.3549821488022817 0.6241064579025064 0 0.3850921751678659 0.6548891194760553 0 0.4128499568305326 0.7184176081109586 0 0.4434367226613279 0.7941859890967939 0 0.4465320078499435 0.8062633847942227 0 0.4741096168322133 0.87000884335416 0 0.5079111887639075 0.9580329670648465 0 0.5249998407361942 0.9824626678945609 0 0.37002590671899 0.6395147552046297 0 0.2057516351208316 0.2580043888097723 0 0.2073765032535299 0.2701682111732393 0 0.2096562615653087 0.2840904442427341 0 0.2517820258125096 0.3942847802380774 0 0.2760437772585178 0.4456227293847824 0 0.3095312854693666 0.5330295558936968 0 0.3400522563385745 0.6086583283287897 0 0.3580628093096653 0.636155212758398 0 0.3731159897398879 0.6515382070740906 0 0.3882977148294615 0.6669262867410276 0 0.3915798407513231 0.6789405560260378 0 0.3946961495115443 0.6909621161539699 0 0.3977838485413477 0.7030127674723913 0 0.4008691983647322 0.7150715986799639 0 0.4158873862694653 0.7304379693870171 0 0.4189454298059401 0.742530887787726 0 0.4220905394702857 0.754629215335137 0 0.4252395180489011 0.7666867659471501 0 0.4282471446229044 0.7788513949140845 0 0.4314113008387117 0.7908959966175854 0 0.44962640168656 0.8183416291241729 0 0.4527209983243644 0.8304205207485631 0 0.4558258289113286 0.8424937251636005 0 0.4589359727966207 0.8545727390720605 0 0.4620604898809463 0.8666572000977508 0 0.4772374596434195 0.8820943811270754 0 0.4803486852950232 0.8941829236017151 0 0.4834471276697347 0.906277674564624 0 0.4865461412362749 0.9183730815984645 0 0.4896525634426683 0.9304649271838386 0 0.4927630825545086 0.9425663934812398 0 0.5107478372579084 0.9698626480906309 0 0.4958803566497262 0.9546534642704929 0 0.5142876030654632 0.9804349602817228 0 0.5250000000019071 1 0 0.51875133369704 0.9896091623879961 0 0.2153378447190853 0.295095507841581 0 0.2183981912777889 0.3070675581121002 0 0.2214594661180078 0.3190422563109397 0 0.2245215503275743 0.3310203849251571 0 0.2275886467120624 0.34299946245972 0 0.2306110557939998 0.3549795292050646 0 0.2336699668062819 0.3669628740426175 0 0.2367656956534595 0.3789396393563095 0 0.239858034855191 0.3909494532212344 0 0.254866568915057 0.4062802489046166 0 0.2579507579257247 0.418276706361055 0 0.2610321119685822 0.4302783545409828 0 0.2641070229012027 0.4422840509476532 0 0.2791211278675919 0.457630634689618 0 0.2821991709409742 0.4696406511408086 0 0.2852709587378329 0.4816516023215944 0 0.2883334368723419 0.4936736954043457 0 0.2914058637931583 0.5056914556232459 0 0.2944849481553244 0.5177117589065416 0 0.2975582148841875 0.5297169598951146 0 0.3126130973564084 0.545039320358898 0 0.3157867780939038 0.5570978769681143 0 0.3189609204685763 0.5691558652145343 0 0.32203394066467 0.5811774621850254 0 0.3250972523262756 0.5932200154763035 0 0.3282258592238219 0.6052689547600434 0 0.3431385535620629 0.6207024522759366 0 0.3462244166754923 0.6327464017617254 0 0.3763217389270008 0.6635779791610912 0 0.4039574556426755 0.7271339697881303 0 0.4345249057872158 0.8029050479539024 0 0.4376191672297376 0.814981983939414 0 0.4651906868941089 0.8787335316426966 0 0.4989839980430434 0.9667546928930337 0 0.3611487014076808 0.6481956237170057 0 0.195960661707354 0.2655172669775281 0 0.1970006024342291 0.2778793017016991 0 0.2062136034971734 0.2946002727942883 0 0.2429358194907508 0.402945859737715 0 0.2671837411778738 0.4542904118204792 0 0.3006459817548029 0.5417499602950967 0 0.3313126275365258 0.6173095228809251 0 0.3493062414944836 0.6447901546879493 0 0.3643307927385975 0.6601732351408566 0 0.3795235383329414 0.6755949575619611 0 0.3827003068828137 0.6876385499882496 0 0.3857953830345353 0.6996630140174618 0 0.3888636054422127 0.7117213243743745 0 0.3919476552608757 0.7237827080762452 0 0.4070526176199461 0.7391971080022939 0 0.4101474452410744 0.7512619268072431 0 0.4132387585096285 0.7633307767403006 0 0.4163311060219643 0.7754011035103976 0 0.4194246269513784 0.7874731440032254 0 0.4225184958110926 0.7995473435865545 0 0.4407136445178095 0.827058713521837 0 0.4438163234655682 0.839134408987393 0 0.4469237506597374 0.8512130785689409 0 0.4500302200085023 0.8632997183064637 0 0.4531285733400288 0.8753867924594615 0 0.4683268346621904 0.890819804839598 0 0.4714211832587807 0.9029138860783267 0 0.4745209199125986 0.9150092179911363 0 0.4776253753337934 0.9271015946389454 0 0.4807399031011577 0.939197631440136 0 0.4838495143248197 0.9512927524020487 0 0.5018872613367286 0.9783923923827352 0 0.4869705093831994 0.9633252921506219 0 0.506405236320646 0.9893802761791523 0 0.5125000000019937 1 0 0.197426116523236 0.2903080303613087 0 0.2067192484101114 0.3039511534592171 0 0.2095578026815771 0.3157063952127803 0 0.2126151939670092 0.3276901859292972 0 0.215682451723364 0.339665987845897 0 0.2187484011243649 0.3516440069406486 0 0.2216320156499456 0.3636255499863188 0 0.2248034124669436 0.3756160802704542 0 0.2279210130133753 0.3875991868159619 0 0.2310105543490024 0.3996089412547602 0 0.2460178873527872 0.4149412111628625 0 0.2490946584694652 0.4269418926092171 0 0.2521717113697795 0.4389456270316916 0 0.2552478486176527 0.4509505281748851 0 0.2702593999376531 0.4662996168715786 0 0.2733340551199905 0.4783101931358005 0 0.2764030549707076 0.4903201308108581 0 0.2794679274712692 0.5023429662602106 0 0.2825355460523401 0.514370254583301 0 0.2856165161713042 0.5263928350900836 0 0.2886994578382223 0.538415893868683 0 0.3037809369995896 0.5537645626926074 0 0.3069688283136032 0.5658043109738061 0 0.3100769634551232 0.5778438084300405 0 0.3131733987129777 0.5898845243533392 0 0.3162574924368513 0.6019215068242795 0 0.3193420321449319 0.6139602836408794 0 0.3343997866808926 0.6293499907998739 0 0.3374877016343979 0.6413952514990277 0 0.3675281326255151 0.6722095626540209 0 0.3950567445286533 0.7358417083460336 0 0.4256126301207184 0.8116233117480303 0 0.428707663906423 0.8236983214725542 0 0.4562675673643326 0.8874617818192904 0 0.490167236873202 0.9746715550151506 0 0.3523995005298988 0.6568209564422827 0 0.1858956196113006 0.2726587952172653 0 0.1865427838113606 0.285132155985041 0 0.1968993769643381 0.3014276566760871 0 0.2340834716791972 0.411603642002677 0 0.258321104377056 0.4629594987259826 0 0.2917881462469865 0.5504296390618779 0 0.3224269715913272 0.6260013913316894 0 0.3405759993725725 0.6534404140612783 0 0.3555558336346033 0.6688421321106353 0 0.3707134959815349 0.6842768108013401 0 0.37380952300294 0.6963063292059549 0 0.3768831799276646 0.708362710694137 0 0.379884238950267 0.7204430926073329 0 0.3830523137745459 0.7324891636574014 0 0.3981503589344034 0.7479063666162783 0 0.4012365063999308 0.7599749142711765 0 0.404326349021837 0.7720447907573054 0 0.407418205171751 0.7841171100484231 0 0.410509303696992 0.7961916762241237 0 0.4136057796666778 0.8082652232841171 0 0.4318064980493964 0.8357749909042563 0 0.4349128130483454 0.8478536274573836 0 0.4380173081859745 0.8599387351274751 0 0.4411152628975341 0.8720202115917 0 0.4442249952603666 0.8840992998084888 0 0.4593876365525796 0.8995483262517492 0 0.4624958954605584 0.9116453692211374 0 0.4655946133755893 0.9237398714654234 0 0.4687046091077003 0.9358334128445127 0 0.4718165657347227 0.9479229017170048 0 0.4749344151679352 0.9599757184599077 0 0.4927698672159157 0.987666407759682 0 0.4781316098908314 0.9717312341378093 0 0.5000000000020587 1 0 0.187111966972492 0.296222476651553 0 0.1981140855422076 0.3126168387345777 0 0.2007133113435805 0.3243551457148893 0 0.2037782884524394 0.3363338054204413 0 0.2068083234569877 0.3483206497379288 0 0.2097305547254336 0.3603428640876928 0 0.2128243415655403 0.3722882026986934 0 0.2160009737231464 0.3842791422267784 0 0.2190876167175388 0.3962725425396183 0 0.2221529486570699 0.4082613634794641 0 0.2371598645404102 0.4236037168188408 0 0.2402356176595073 0.4356057397398694 0 0.2433128696599814 0.4476111672673562 0 0.2463872816443127 0.4596167607205584 0 0.2613940365825991 0.4749695788622412 0 0.2644688282530757 0.4869817148489612 0 0.2675342728018049 0.4989960796595964 0 0.270595312221068 0.5110192753852997 0 0.2736642919942657 0.5230494103742489 0 0.2767508066984472 0.5350659845788006 0 0.2798466102525307 0.5470865972757799 0 0.2949420873472383 0.562457874766193 0 0.2980778128802365 0.5744871307377838 0 0.3012048855912323 0.5865360058970703 0 0.3042907998648091 0.5985724908995564 0 0.3073736338778043 0.6106106518847106 0 0.3104560968832691 0.62265133768973 0 0.3255124880010014 0.6380447958776693 0 0.3285986391422284 0.6500904685818265 0 0.358737561110975 0.6808925219077877 0 0.38612700355028 0.7445630329513971 0 0.4167007615054856 0.8203405681663615 0 0.4197979313797032 0.8324169606767307 0 0.4473466774767215 0.8961829359137481 0 0.4822601753694936 0.9801593107670213 0 0.3436337834152454 0.6654954089552435 0 0.1755705856782306 0.2794189854762971 0 0.1758013531169668 0.2917580796174789 0 0.1861095453722411 0.3080602835634913 0 0.2252153970994448 0.4202511256790379 0 0.249458144848467 0.4716264867736709 0 0.2829458696446046 0.5591134524733132 0 0.3135392726110673 0.6346941366883572 0 0.3316851616662349 0.6621384712736627 0 0.3467543789090991 0.6775406844495031 0 0.3618260581082374 0.6929475247017632 0 0.3649140169202543 0.7050027044775934 0 0.3678652993606857 0.7170931191982935 0 0.3709750232048528 0.729153819370054 0 0.3741559552613997 0.741218628311243 0 0.389212907720439 0.7566250397536711 0 0.3923116753747717 0.7686886882366295 0 0.3954075584265082 0.7807595497753008 0 0.3984951377182439 0.7928355854382424 0 0.4015924881200641 0.804907291943013 0 0.4046934939452562 0.8169815176506317 0 0.4228970020869098 0.8444957259047136 0 0.4260027648730035 0.8565783037750518 0 0.4290989090786895 0.868663952516647 0 0.4322024681536193 0.880738877389467 0 0.4353221960295524 0.8928241845057385 0 0.4504712170373906 0.9082816212506496 0 0.4535698654269151 0.920376472148818 0 0.4566728734704905 0.9324710208850809 0 0.4597783236304488 0.9445674569204862 0 0.4628858250414433 0.9566709748589961 0 0.4660890973667296 0.9684036471753439 0 0.479117975611338 0.9892743215441417 0 0.4702356519768904 0.9788514684084283 0 0.4875000000020284 1 0 0.1807651195565161 0.3004930869915126 0 0.1888095220361607 0.3210308625759651 0 0.1918425125542123 0.3330125304631544 0 0.1948381622126329 0.3450095401969002 0 0.1978649865362686 0.3569997916644245 0 0.2008893177597188 0.3689934891487825 0 0.203970288697838 0.3809737498389335 0 0.2071436752254843 0.3929395249455353 0 0.2102127468287556 0.4049274053532728 0 0.213278185907169 0.4169148316214585 0 0.2282934368424783 0.432257642241237 0 0.2313782031280819 0.4442710878667588 0 0.2344542664183184 0.456276054517141 0 0.2375252860017376 0.4682828006311514 0 0.2525271175889662 0.4836413170519345 0 0.2556038987445864 0.495655893545464 0 0.2586760467838665 0.5076626778916008 0 0.2617467073400369 0.5196851381691479 0 0.2648152030898625 0.5317213640667225 0 0.2679257378119726 0.5437434417699907 0 0.2710328691159973 0.5557629287930685 0 0.2860909299984092 0.5711481526577706 0 0.2892425712234246 0.5831886390266858 0 0.2923268407428505 0.5952235738434408 0 0.2954144538843651 0.6072423178830608 0 0.2985018924721804 0.6192758512834038 0 0.3015861703053174 0.6313301931938919 0 0.3166233578655349 0.6467389212692713 0 0.3197066944723486 0.6587861904908872 0 0.3498424001470677 0.6895939056582422 0 0.3771669631794414 0.7532864487883237 0 0.4077871931340427 0.8290594448550099 0 0.4108852195196627 0.8411382019948641 0 0.4384470790467561 0.9049177051871027 0 0.3347722337920816 0.6741887874694799 0 0.1650000004116476 0.2857883830111999 0 0.1740376127643644 0.305931508133527 0 0.1769345245766259 0.3177356474834381 0 0.2163504640150752 0.4289168081651422 0 0.2405898096040149 0.4802954949687243 0 0.2741383124345723 0.5678137729526015 0 0.3046592431064737 0.6433846600518409 0 0.3227911333636898 0.6708359444244649 0 0.3378595885126501 0.6862405226690946 0 0.3529295498155945 0.7016497681963797 0 0.3558722955652299 0.7137431374013543 0 0.3589662720391763 0.7258008461284225 0 0.3620715338237008 0.7378628831459541 0 0.3651647581785507 0.74992951817676 0 0.380296860600357 0.765328748800417 0 0.3833898700795585 0.777399086061907 0 0.386483689341936 0.7894752841241269 0 0.3895817500351906 0.8015485893294937 0 0.3926785689137198 0.8136226941408695 0 0.3957777672487071 0.8256990360498997 0 0.4139857955077537 0.8532192066612687 0 0.417082784535066 0.8653023761956213 0 0.4201805036905027 0.8773850245130435 0 0.4232963334551103 0.8894657366338814 0 0.4264179515929781 0.9015526286801842 0 0.4415462462549795 0.9170119523871394 0 0.4446463896759237 0.9291079456326499 0 0.4477493910392348 0.9412051652217246 0 0.450853728024264 0.9533050346014387 0 0.4539544683932949 0.9654064233439064 0 0.4573665529801861 0.977691523935885 0 0.4750000000019764 1 0 0.4674713721948201 0.9891631377937402 0 0.1646598256134487 0.2982707927826715 0 0.1799251130004329 0.3296718128045704 0 0.1829387277085512 0.3416562629847765 0 0.1859349495494465 0.3536733920736835 0 0.1889786517103705 0.365661580953381 0 0.1920479408863221 0.3776421877183945 0 0.1951264271765468 0.3896200391031366 0 0.1982569870254371 0.401601233911386 0 0.201344612416808 0.4135863868087667 0 0.2043944298380814 0.4255811689833953 0 0.2194363669524569 0.4409239788576505 0 0.2225212611202376 0.4529384594658943 0 0.2255964636634432 0.4649425814696932 0 0.2286669166026487 0.4769464012252507 0 0.2436590606322598 0.4923132725954339 0 0.2467483087638732 0.5043197777662521 0 0.2498312202529951 0.5163446827095826 0 0.2529139558273079 0.5283682076235739 0 0.2560031611570856 0.5404040412291254 0 0.2591060030390846 0.5524233878992146 0 0.2622385429266093 0.5644592063744048 0 0.2772697630873061 0.5798431140275305 0 0.2803631385609822 0.5918743196741086 0 0.2834444690685236 0.6039097140443488 0 0.2865536423789506 0.6158852234629713 0 0.2896506040763765 0.6279364014497009 0 0.2927156400252756 0.6400037701476029 0 0.3077334442517898 0.6554338582374569 0 0.3108124069871143 0.6674835030480328 0 0.340947442829777 0.6982926477136926 0 0.3682356530455089 0.7619912734603627 0 0.3988731085783326 0.8377781927134811 0 0.4019702864312339 0.8498596811579814 0 0.4295234436130821 0.9136478868321403 0 0.325878303646922 0.6828871929294859 0 0.1541986477213425 0.2917580796497491 0 0.163549319161518 0.3127522640287805 0 0.1680707860160749 0.3263380311356155 0 0.207485585539246 0.4375867969165433 0 0.231743993924709 0.48896364505996 0 0.2653057127298165 0.5764954960520717 0 0.2957677790467184 0.6520787048222124 0 0.3138965190861745 0.6795341342390119 0 0.3289633379749336 0.6949384834348288 0 0.3438788075673845 0.7103836706313696 0 0.3469711742772731 0.7224454664348428 0 0.3500613506066051 0.7345066609995144 0 0.3531505557025768 0.7465707606308525 0 0.3562466072223354 0.758636273593969 0 0.3713747091799398 0.7740467198968088 0 0.3744720615379776 0.7861167916887601 0 0.3775730054163129 0.7981877649652918 0 0.3806676107008669 0.8102629153654185 0 0.3837641361074261 0.8223392626913372 0 0.3868615777151312 0.834417857435837 0 0.405068000288444 0.8619413934127551 0 0.4081638422507411 0.8740266760015092 0 0.411267599602142 0.8861038617952917 0 0.414387281661867 0.8981898429195634 0 0.4175006007098264 0.9102833979289946 0 0.4326213785284395 0.9257423301365962 0 0.4357219136065013 0.9378401450047613 0 0.4388231178277808 0.9499393882859313 0 0.4419241567383832 0.9620396963278494 0 0.4451243273748606 0.9738382541334143 0 0.4559306586001571 0.9896734892348091 0 0.4625000000019244 1 0 0.1535066682257092 0.3040799164466825 0 0.1710736178425353 0.3383084096788254 0 0.1740188960263685 0.350334397868534 0 0.1770725122406593 0.3623273015950438 0 0.1801371005935619 0.3743102492888848 0 0.1832076499064857 0.3862912247345048 0 0.1862860285739172 0.3982785128636344 0 0.1893792125009685 0.4102650257582533 0 0.1924564763014798 0.4222568627207542 0 0.1955271092225203 0.4342544850625047 0 0.2105845390721676 0.4495986294784968 0 0.2136623166377698 0.4616055737227278 0 0.2167368831074828 0.4736117914229353 0 0.2198149455345032 0.4856239964929724 0 0.234824505279332 0.5009860856708994 0 0.2379097389761019 0.5130145211380899 0 0.2409954789010188 0.5250216020344194 0 0.2441087550504392 0.5370544689182333 0 0.2471813569594896 0.5490846286727324 0 0.2502733033253577 0.5611122777025828 0 0.2533560444600341 0.5731445573576328 0 0.2683990189708408 0.5885257211824086 0 0.2714819593721579 0.6005591150778922 0 0.2745972599385038 0.6125361334656809 0 0.2777346114713188 0.624554886988594 0 0.2807840155874003 0.6366147892143325 0 0.2838412272971074 0.6486859113190195 0 0.2988311840325493 0.6641311697424974 0 0.3019153873087558 0.6761809269418715 0 0.3319138128327855 0.7070210047337919 0 0.3593432699953684 0.7707005352271062 0 0.3899583031016458 0.8464981515361698 0 0.3930539224762039 0.8585805037601523 0 0.4205978684347976 0.9223785342852184 0 0.4492893579745698 0.9820733356493864 0 0.3169733719454823 0.6915764606315637 0 0.1431816342860958 0.2973197262260994 0 0.151342408183162 0.3140413129439774 0 0.1592478604223009 0.3349783009601088 0 0.1561840013587424 0.3230119549070852 0 0.1986393532336743 0.446255302913983 0 0.2229017001214243 0.4976421402848669 0 0.2564368462092104 0.5851770708416939 0 0.2868668496085586 0.6607758955015688 0 0.305000155695097 0.6882316495917675 0 0.3200135348048718 0.7035958044531879 0 0.3349976756312302 0.7190848151393375 0 0.338071523138043 0.73115049943854 0 0.3411577285972025 0.7432138131709853 0 0.3442473748741171 0.755279194474384 0 0.3473380315378904 0.7673463595943489 0 0.3624392788298415 0.7827688951444127 0 0.365571070960351 0.7948280514012748 0 0.3686628833004742 0.8069037388968221 0 0.3717561490658333 0.8189794461743367 0 0.374851879587603 0.8310578988017641 0 0.3779473542160806 0.8431374257404438 0 0.3961503080113751 0.8706628585952664 0 0.3992461770953775 0.8827478557939169 0 0.4023579812177378 0.8948303222233075 0 0.4054690935173617 0.9069184299239963 0 0.4085745514452088 0.9190135322733499 0 0.4236961162716878 0.93447498801318 0 0.4267952537050342 0.946573109647179 0 0.4298947022294964 0.9586732337795938 0 0.4331443196733218 0.9702362420676975 0 0.4377559720117229 0.9808134642970413 0 0.4500000000018723 1 0 0.4435120252844447 0.990212343175129 0 0.1423511935077425 0.3089101162530973 0 0.1622020239413894 0.3469772040097912 0 0.1651847708367656 0.3589748772441477 0 0.1682282759544389 0.3709791881614896 0 0.1712982622686467 0.3829616391695478 0 0.1743714219377525 0.3949457142183253 0 0.1774446796890039 0.4069324394745535 0 0.180519909631886 0.4189232725574679 0 0.1835911955639197 0.430918150303868 0 0.1866883493210245 0.4429193846430605 0 0.2017234450677997 0.4582648680772249 0 0.2048021490147528 0.4702737197512198 0 0.2078796739625579 0.4822854517638778 0 0.2109581202407805 0.4943002095715028 0 0.2259842292576239 0.5096631571807939 0 0.2290648308399427 0.521686420070462 0 0.2321507269547261 0.5337099199979001 0 0.2352338021924791 0.5457368044435404 0 0.2383160042440817 0.5577656606811552 0 0.2413976602108693 0.569796264070203 0 0.2444784580144875 0.5818279190707507 0 0.2595200062835648 0.5972097746168001 0 0.2626327493831732 0.6091865741805749 0 0.2657716207085389 0.6212012699494266 0 0.2688805215925667 0.6332317991729064 0 0.2719131399553966 0.6453066998535819 0 0.274945549818888 0.6573815593405496 0 0.2899360908351422 0.6728288010326902 0 0.2930196463645097 0.684879767055923 0 0.323069652299384 0.7157084333743176 0 0.3504291923955892 0.7794148639051535 0 0.3810427530245133 0.8552185857550421 0 0.384137721980669 0.8673000598231941 0 0.4116717883213473 0.9311093715832461 0 0.3080767541800958 0.7002746081905324 0 0.1319643683768501 0.302465544283806 0 0.1437874017891619 0.320737847909702 0 0.1472169210230908 0.3318449008037537 0 0.150384899938572 0.3436290502097509 0 0.1897771909241697 0.4549221480230773 0 0.2140369053716598 0.5063188836365337 0 0.2475590984111526 0.5938599605087099 0 0.277977165282026 0.6694713539696392 0 0.2961040661543736 0.6969306835718139 0 0.3111091549769576 0.7123262035522366 0 0.3260956037111251 0.7277907426264103 0 0.3291659524310465 0.739857372726332 0 0.3322540921772921 0.7519213298923725 0 0.3353420674262825 0.7639879525191097 0 0.338432617415955 0.7760564575910408 0 0.3535201361109621 0.7914843201257159 0 0.356657455218958 0.803546157529063 0 0.3597509706829018 0.8156201194186853 0 0.3628440739265387 0.8276970411691151 0 0.3659379864946082 0.8397763595995151 0 0.3690322981505932 0.8518573723279989 0 0.3872353393073979 0.8793816568784225 0 0.3903355071902532 0.8914666607647622 0 0.3934422282394252 0.9035552821423143 0 0.3965508056997888 0.9156488899444679 0 0.3996480862598161 0.9277436808978706 0 0.4147687472918918 0.9432069144333989 0 0.417866222852692 0.9553061716423775 0 0.4208812856218008 0.9674142605182287 0 0.4245286571308165 0.9788137158011039 0 0.4309371446323245 0.9897068949555177 0 0.4375000000018203 1 0 0.1309451904939043 0.3163325794372192 0 0.1533020985817945 0.3556381880973802 0 0.1563195383645243 0.3676457793257503 0 0.1593876188641605 0.3796271413704613 0 0.1624573975449962 0.3916116185107483 0 0.165528605397126 0.4035984218904221 0 0.1686017508334277 0.4155883130306703 0 0.1716752996880116 0.427578838710056 0 0.1747541474741738 0.4395831293894825 0 0.1778410995076893 0.4515830921654476 0 0.1928638708081757 0.4669316455565659 0 0.1959389879206643 0.4789423159202149 0 0.1990136146032402 0.4909564408568011 0 0.2020885047257361 0.5029747331309549 0 0.217116679893164 0.5183396559564414 0 0.2201966100183399 0.5303645169466904 0 0.2232769917047785 0.542390479229909 0 0.2263573240872258 0.5544188078049923 0 0.229438247208831 0.56644860174352 0 0.2325188311482772 0.5784794428066059 0 0.2355989664279617 0.5905110509021536 0 0.25066502284808 0.6058343103976057 0 0.2537984287704924 0.6178535727458724 0 0.2569212920928498 0.6298907724389293 0 0.2599939683318154 0.641921591216646 0 0.2630162903214533 0.6539813236289798 0 0.2660586264487861 0.6660681717705093 0 0.2810459891625646 0.6815260335631012 0 0.2841218442817959 0.6935798541664236 0 0.3141414806293114 0.7244143857205398 0 0.3415222703161425 0.7881260964290642 0 0.3721262961916971 0.8639385321567059 0 0.3752240874711383 0.8760204315184494 0 0.4027434848828715 0.9398409737945466 0 0.2991803947272726 0.7089738249202451 0 0.1205625383650242 0.3071883369253821 0 0.1351762632430097 0.3283232231483088 0 0.138411998992498 0.3403745230660772 0 0.1413926603202422 0.3523259958728159 0 0.1809267226475614 0.4635900935829493 0 0.2051647122529921 0.5149948622074356 0 0.2387003445903857 0.6024829919560241 0 0.2690790155024477 0.6781680656778608 0 0.2872077261927157 0.7056305776579972 0 0.3022180409392569 0.7210216669674688 0 0.317191234786701 0.7364971957617216 0 0.3202626270557203 0.748563346703808 0 0.3233513923316723 0.7606282833673755 0 0.326438969691543 0.7726965924324495 0 0.3295248891796819 0.784767705085079 0 0.344612951617134 0.8001952442478147 0 0.347743182189527 0.8122607044476112 0 0.3508385411576099 0.8243364457833279 0 0.3539307160526094 0.8364147189299427 0 0.3570231082392162 0.8484952798353326 0 0.3601160008391228 0.860577095821065 0 0.3783254725480971 0.8881031293177697 0 0.3814273861405615 0.9001929544136553 0 0.3845287178463013 0.9122844871444441 0 0.3876256444569889 0.9243774663122823 0 0.3907221195681125 0.9364725629132082 0 0.405838378566207 0.9519393301599528 0 0.4089361063658745 0.9640404412526635 0 0.4111695857941096 0.9774892603239651 0 0.4185521040012929 0.9888722584238507 0 0.4250000000017684 1 0 0.1176584056915207 0.319603675497876 0 0.1251449940738929 0.3269841773785125 0 0.1444070608389726 0.3643124018540941 0 0.1474769565971499 0.3762932893462936 0 0.1505434664654902 0.3882766995092995 0 0.153612317817245 0.4002634406335737 0 0.1566835243373703 0.4122529374761654 0 0.1597590274643932 0.4242456890099601 0 0.1628349945269685 0.4362438192154898 0 0.16591163356115 0.4482453191931664 0 0.1689915153860196 0.460248525393641 0 0.1840020703633489 0.4755949658976111 0 0.1870799013743465 0.4876052634481732 0 0.1901441066879257 0.4996281422095825 0 0.1932208192102878 0.5116481128962656 0 0.2082429218637619 0.5270187936349506 0 0.2113210758875587 0.5390439547459209 0 0.2144002992590882 0.5510719788588405 0 0.2174796179337015 0.5631008607143061 0 0.2205597582740484 0.575131294113177 0 0.2236397655757024 0.5871480650705514 0 0.2267394022722592 0.5991400910099406 0 0.241826676412935 0.6145080110518275 0 0.2449380688677311 0.6265430279082016 0 0.2480340875538745 0.6385803903222212 0 0.2511060902848333 0.6506109952186978 0 0.254135029909318 0.6626845804149155 0 0.2571631765790547 0.6747755443349643 0 0.2721421727094662 0.6902283594760708 0 0.2752263418415547 0.702280499727479 0 0.3052579977331707 0.7331154669090471 0 0.3326152627492477 0.7968383136877991 0 0.3632109712041978 0.8726597097820163 0 0.3663101267501004 0.8847437546466034 0 0.3938141676434067 0.9485726291073675 0 0.2902843009061808 0.7176742152681942 0 0.1089920907400804 0.31148149889858 0 0.1266989534377206 0.3373277445798188 0 0.1294399451472741 0.3489937627447125 0 0.1324959174125795 0.3609771191673237 0 0.1720662675778497 0.4722516577116282 0 0.1962966568008704 0.523669476054663 0 0.2298702903576914 0.6111595804710902 0 0.2601756681131812 0.6868728642835213 0 0.2783111562602485 0.7143309486000767 0 0.2933123577135577 0.7297282909577025 0 0.3082910233958445 0.7452015337727469 0 0.3113627715066188 0.7572681148968554 0 0.3144478261325772 0.7693323637596581 0 0.3175313238853028 0.7814052622885193 0 0.3206160012346546 0.7934796465619196 0 0.3357098317046561 0.8089103225889461 0 0.3388269135802184 0.8209776930838126 0 0.341920969798643 0.8330541430931246 0 0.3450140764220878 0.8451335884996523 0 0.3481064125795427 0.8572145768946666 0 0.3511992865193846 0.8692974381030343 0 0.3694094887674061 0.8968309310722646 0 0.3725071833857517 0.9089212669286836 0 0.3756039443443531 0.921012140236843 0 0.3787024126641401 0.9331054541944555 0 0.3818004753833951 0.9452012268032726 0 0.3969066378112696 0.9606727104655559 0 0.3992086088809944 0.9720244799451185 0 0.4060585963203713 0.989775753388112 0 0.4125000000017163 1 0 0.1055994419206815 0.3233950294739191 0 0.1144050854885389 0.3326543573744332 0 0.1355520891173352 0.3729594548003924 0 0.1386291981513795 0.3849423356727811 0 0.1416958869085384 0.3969275007889865 0 0.1447656871876 0.4089165513458307 0 0.1478371265027505 0.4209090180479514 0 0.1509104974908764 0.4329052354546165 0 0.1539837116469588 0.4449045329279011 0 0.1570575865569765 0.4569080279243867 0 0.1601304074311801 0.4689132909182374 0 0.1751485745636554 0.4842502089759295 0 0.1782340512897115 0.4962707075349171 0 0.1813110662429923 0.5082895511755222 0 0.1843879000165074 0.5203085497358592 0 0.1993760180657307 0.5356929319077482 0 0.2024491007792733 0.5477218586604113 0 0.2055272962869567 0.5597518145303124 0 0.2086106771585998 0.5717811231610278 0 0.2116799943789709 0.5838103826583065 0 0.2147744769434342 0.5958192881991181 0 0.2178844992278602 0.6078317651262309 0 0.2329813639422747 0.6231938053147702 0 0.2360665644339604 0.6352316155755896 0 0.2391465256580224 0.6472705889761242 0 0.2422185409527153 0.6593016379797512 0 0.2452330766590281 0.6713634504498203 0 0.2482631351374778 0.683480871556907 0 0.2632426830055264 0.6989285045271127 0 0.2663296913648172 0.7109794784734834 0 0.2963400158628865 0.7418210420650346 0 0.3237070462764318 0.8055511017306369 0 0.3542941319584417 0.8813818364719391 0 0.3573897762445061 0.8934681378405304 0 0.3848973632885632 0.957300295567691 0 0.4000768386432297 0.9818625332403915 0 0.2813870077345969 0.7263742335242203 0 0.0972692078154242 0.3153390258292808 0 0.1174879225451877 0.3456746151002439 0 0.120552696284504 0.3576468688204518 0 0.1236310527671494 0.3696242309114757 0 0.1632131926973379 0.4809121211460329 0 0.1874661330759106 0.5323305476339639 0 0.2210124412677802 0.6198496563408931 0 0.2512758690873569 0.6955891878015108 0 0.2694141536154515 0.7230315012569261 0 0.284420617798697 0.7384233450977942 0 0.2993899852820361 0.7539061983775222 0 0.3024600745838135 0.7659731331899193 0 0.3055391424345579 0.7780447598006941 0 0.3086211215216644 0.7901174542002374 0 0.3117066641019044 0.8021921146355556 0 0.3268063034027949 0.8176226288493635 0 0.3299063126025588 0.829696152238935 0 0.3330052418051958 0.8417711642118519 0 0.3360963046577595 0.8538525932884663 0 0.3391883238119631 0.8659349653600288 0 0.3422815859775145 0.8780189283629118 0 0.3604869726112436 0.9055575888875437 0 0.363582600275293 0.9176484427228173 0 0.3666800177583054 0.929739142425955 0 0.3697810776613532 0.9418348029750657 0 0.3728826024859389 0.9539335690479878 0 0.3875165631809763 0.9689017271074937 0 0.3898173539379183 0.9798958759990359 0 0.4000000000016644 1 0 0.3941300482827548 0.9901272965457257 0 0.09259792384803905 0.3274485860825716 0 0.1025212563068229 0.3330840000668614 0 0.1055927909216614 0.3428021170155047 0 0.126705493357076 0.3816065861861504 0 0.129778416130669 0.3935913653409256 0 0.1328475122776229 0.4055782056785266 0 0.1359166779645808 0.417570216565345 0 0.1389852482024321 0.4295653784031098 0 0.142054396694885 0.4415639782480375 0 0.1451250379901062 0.453566629144302 0 0.148196797497422 0.4655719088515869 0 0.1512715267493691 0.4775743458320473 0 0.1663181374926853 0.4929207672384863 0 0.169403512432841 0.5049327252694594 0 0.1724808180358172 0.5169510021017798 0 0.1755589080115277 0.5289702214031755 0 0.1905412341437738 0.5443514873838027 0 0.1936189256488623 0.5563811632004582 0 0.196693977444047 0.5684204707502123 0 0.1997333634137473 0.5804625750686411 0 0.202801498435927 0.5924923979191326 0 0.2059044672581466 0.6045031762782633 0 0.2090174204821569 0.6165167074318214 0 0.2240964199562786 0.6318831029172008 0 0.2271785365729299 0.6439213896930477 0 0.2302584780240323 0.655961053763483 0 0.2333295129618293 0.6679915639351234 0 0.2363454178850356 0.6800981346707848 0 0.2393634423485213 0.6921891503606736 0 0.2543481189775043 0.7076272919977935 0 0.2574321806435328 0.7196799635854673 0 0.287456677098868 0.750522218979038 0 0.3147976199366878 0.8142643021287493 0 0.345374912059105 0.8901048938179583 0 0.3484677049560597 0.9021936278929592 0 0.3759803877958429 0.9660348865423483 0 0.2724901012629468 0.7350753432929935 0 0.08541028510750481 0.3187555226154595 0 0.1086509813117842 0.3543135948673558 0 0.1117146895562052 0.3662890311182393 0 0.1147864814879115 0.378269947291342 0 0.154360832151677 0.4895810696305916 0 0.1786382622850866 0.5409923201152025 0 0.2121274096098423 0.6285372293547471 0 0.242383598875728 0.7042930462215714 0 0.2605169295632036 0.7317326309809229 0 0.275513004834895 0.7471309994317378 0 0.2904842326885015 0.7626125477777809 0 0.2935491980036408 0.7746829442747905 0 0.296625310480349 0.7867574010910411 0 0.2997089084778781 0.7988323535171953 0 0.3027969053893395 0.8109052056585787 0 0.3178945505379847 0.8263380034479262 0 0.320988794201131 0.8384135334571321 0 0.3240846744878664 0.8504918484026494 0 0.3271771849499605 0.8625726449796339 0 0.330270093429416 0.8746553717455525 0 0.333362958035656 0.8867398104275926 0 0.3515621080904479 0.9142844218836199 0 0.3546593564836863 0.9263762114521193 0 0.3577586131587039 0.9384706686546168 0 0.3608586558538174 0.9505679987951555 0 0.3639562262984921 0.9626675800011011 0 0.3787291099975638 0.9776545760583872 0 0.3818548293719844 0.9894948520374405 0 0.3875000000016123 1 0 0.08094311195476567 0.3269780553534091 0 0.09414737231062534 0.3397016253712873 0 0.09675303798480997 0.3509780988856559 0 0.1178587102819914 0.3902538638499212 0 0.1209294906915444 0.402240959403186 0 0.1239980789483116 0.4142311778628421 0 0.1270656880300826 0.4262233915994679 0 0.1301280013244625 0.4382222627524355 0 0.1331944816984326 0.4502248392431308 0 0.1362639767541786 0.4622296329300714 0 0.1393357077937883 0.4742365388580551 0 0.1424119875238631 0.4862407972936145 0 0.1574516545433099 0.5015891480558137 0 0.1605344332144027 0.5136066150056855 0 0.1636110449183758 0.5256258473181014 0 0.1666894689493444 0.5376467414858792 0 0.1817233326855189 0.5530137739886311 0 0.1847823255327447 0.5650416716508458 0 0.1878086425636189 0.5770914726975425 0 0.1908452027200567 0.5891474024136749 0 0.1939214743990416 0.6011761088065086 0 0.1970216875807704 0.6131895243372152 0 0.2001540179485418 0.625188893153579 0 0.2152103458601116 0.6405716502639449 0 0.2182909815991019 0.6526123768544843 0 0.2213708465801943 0.6646518983349426 0 0.2244411516981687 0.6766831734678932 0 0.2274450314062544 0.6887689175836067 0 0.2304676016992752 0.7009047443296614 0 0.2454525454388714 0.7163309062506336 0 0.2485330138295504 0.7283818817115525 0 0.2785338681191277 0.7592279168238271 0 0.305887967058415 0.8229781357133075 0 0.3364535309342537 0.8988271772482441 0 0.3395454232362295 0.9109177234181663 0 0.3672148065579915 0.9741940823715942 0 0.2635920055553046 0.7437758805583443 0 0.0734319083922034 0.3217262109774071 0 0.08245718050722457 0.3364843493984082 0 0.09981068587076802 0.3629536730056702 0 0.1028755722257878 0.3749335283280712 0 0.1059437622122692 0.3869163530077339 0 0.1454984939034965 0.4982492382175548 0 0.169770118844947 0.5496680700641042 0 0.2032432367988107 0.6372213531861646 0 0.2334802307267904 0.7129916735830882 0 0.2516192054559157 0.7404340899601982 0 0.2666194194530354 0.7558246835636789 0 0.2815731560171766 0.7713175438790164 0 0.2846266886432163 0.7833977283176354 0 0.2877065358700167 0.7954762867540001 0 0.2907969135039949 0.8075456587637591 0 0.2938866966424964 0.8196180408877961 0 0.3089803060263207 0.8350532683000709 0 0.3120736297771257 0.8471307195875865 0 0.3151668915360258 0.8592104348912255 0 0.3182595697914675 0.8712918950551587 0 0.321352032634932 0.8833741936260672 0 0.3244448418934099 0.8954595540376596 0 0.3426366938073563 0.9230108314061256 0 0.345732429797657 0.9351047681191735 0 0.348831320452409 0.9472016072205531 0 0.3519282460250148 0.9593003000226583 0 0.3556065722028783 0.9706638140572085 0 0.3684931112715717 0.9873228808206093 0 0.3750000000015603 1 0 0.07020174675253556 0.3332228853944787 0 0.08483021077290988 0.3477034582704266 0 0.08790812358192618 0.3596195970907661 0 0.109012911438147 0.3989023007518354 0 0.112080625169072 0.4108921416299384 0 0.1151467804638672 0.4228830290226102 0 0.1182047519314865 0.4348822006559912 0 0.121263693108919 0.4468806492960538 0 0.1243317843180446 0.4588858830878844 0 0.1274010605662058 0.4708943535076714 0 0.1304735943642614 0.4829029958653015 0 0.1335488122227936 0.494913360253926 0 0.1485884732651681 0.510261982050488 0 0.1516640273147018 0.5222803700116047 0 0.1547403235506103 0.5343012469830314 0 0.1578181560855192 0.5463227430316613 0 0.1728425494986019 0.5616853683505857 0 0.1758757766448071 0.5737283695243156 0 0.1789062012577114 0.5857806263696657 0 0.1819641824275877 0.5978308499547403 0 0.1850432529216462 0.6098612175965226 0 0.1881456695980692 0.6218719655213529 0 0.1912683140721444 0.6338771401302481 0 0.2063240668871012 0.6492606333902742 0 0.2093988149306691 0.6613048435262288 0 0.2124820603083662 0.673343464183912 0 0.2155518190638685 0.6853744732938218 0 0.2185578432244498 0.6974988544003977 0 0.2215630126543535 0.7095852467866581 0 0.2365492529508245 0.7250299406679052 0 0.2396363293681021 0.7370829797011554 0 0.269641105946665 0.7679282275559773 0 0.2969766409867798 0.8316922829397096 0 0.3275388859173732 0.9075446664192586 0 0.3306261354587951 0.9196394348389402 0 0.3590589853633979 0.9801469084350118 0 0.2546944512769141 0.7524776744844055 0 0.06135083051289236 0.3242469361387681 0 0.07324742132774141 0.3448031275325934 0 0.09097019681512204 0.371597081113115 0 0.09403318890178936 0.3835787353616767 0 0.09709713895695377 0.3955648909468488 0 0.1366354387047046 0.5069229586365988 0 0.1608972896578647 0.5583433294025641 0 0.1943425056807467 0.6459224735513951 0 0.2245630665287859 0.7216801624907094 0 0.2427212949752712 0.7491359166514482 0 0.25770272278067 0.7645333473450845 0 0.2726291829871071 0.7800230645734813 0 0.2757115059972353 0.7921128969863427 0 0.2787982300074233 0.8041865249163349 0 0.2818809530681544 0.8162602752366049 0 0.2849661720615653 0.82833496014662 0 0.3000678082369297 0.8437687107261689 0 0.3031584152463677 0.8558476492619469 0 0.306249657452989 0.8679288514552497 0 0.3093417480852173 0.880010664754119 0 0.312434260634994 0.8920936203597283 0 0.3155273832032509 0.9041778561450668 0 0.3337134162314177 0.9317378464767527 0 0.3368056883177798 0.9438342215462624 0 0.33990138063145 0.9559332642641 0 0.3429979177735549 0.9680336283657733 0 0.3484531327545343 0.9797373741464748 0 0.3625000000015083 1 0 0.3552646711958519 0.9896621348536108 0 0.05662185826500217 0.3353686972384283 0 0.06328921502737798 0.3432678759045938 0 0.07600645903369793 0.3562844600427626 0 0.07906704011101677 0.3682602996953227 0 0.1001634604201903 0.407554129692193 0 0.1032305788527337 0.419543657692545 0 0.1062910844091896 0.4315366970301558 0 0.1093462154698178 0.4435331159098267 0 0.1123999131025182 0.4555390693083385 0 0.1154665432230436 0.467551080289668 0 0.1185367669757961 0.479560079185875 0 0.1216099319860358 0.4915702236116141 0 0.1246903139439481 0.5035813851014721 0 0.1397177331558174 0.5189369457097557 0 0.142792343279381 0.530955806398415 0 0.1458691329238344 0.5429768544946217 0 0.1489459194592046 0.5549978553968608 0 0.1639429118912429 0.5703571292155758 0 0.1669720291249229 0.5824139488616786 0 0.1700050429799971 0.5944833593732234 0 0.1730845938174251 0.6065144425044861 0 0.1761625105563763 0.6185438029184084 0 0.1792565303003567 0.6305654537658982 0 0.1823356812801018 0.6426091753213058 0 0.1974183623960554 0.6579631719335659 0 0.2005065718131958 0.6699975164601935 0 0.2035932301915845 0.6820359054202562 0 0.2066632008077709 0.6940670231567194 0 0.2096576714122513 0.7061604316444999 0 0.2126516623345683 0.7182756142715933 0 0.2276570982064955 0.7337242803853821 0 0.2307383056945758 0.7457844210425527 0 0.2607033693976691 0.7766431550452926 0 0.2880537792818384 0.8404105764442683 0 0.3186188519670966 0.9162700975254149 0 0.3217091406532875 0.928366029582129 0 0.2457935047101148 0.7611767203962736 0 0.04918394794963005 0.3263141726374876 0 0.06459074222873507 0.3531659438648865 0 0.08212869327492196 0.3802384144641933 0 0.08518803016867946 0.3922239020080772 0 0.08824637018308809 0.4042157081690328 0 0.1277688057370042 0.5155948404863966 0 0.1520161202407093 0.5670025127024825 0 0.1854359659023672 0.6546261920066008 0 0.2157105460250313 0.7303296852216006 0 0.2338225921587397 0.7578374734249002 0 0.2488077516855218 0.7732281704829729 0 0.2637389851478783 0.7887464062757409 0 0.2668031373915723 0.8008254307737981 0 0.2698917499301278 0.8128957000119251 0 0.2729569450521147 0.824976434720738 0 0.2760420173380084 0.8370521506506036 0 0.2911464018511246 0.8524874688266937 0 0.2942410338173775 0.8645655389607896 0 0.297331801588652 0.8766474135153823 0 0.3004239065045175 0.8887306884685088 0 0.3035179305923578 0.9008159869001886 0 0.3066111867736205 0.9129021273873691 0 0.3247917678938358 0.9404625756142634 0 0.3278791029022189 0.9525647654255991 0 0.3309691625606044 0.9646645762658895 0 0.3345911312591932 0.9783653501683072 0 0.3427611780710743 0.9896689976728033 0 0.3500000000014564 1 0 0.04429600402661645 0.3375649506055398 0 0.05240490803401116 0.3483398150064503 0 0.06716395412850754 0.3649223814317727 0 0.07022434263510344 0.3769009619245223 0 0.09131336235105421 0.4162084296255695 0 0.09437920230170987 0.4281977869070258 0 0.09743531240585554 0.4401895137428821 0 0.100477926311944 0.4521889436803159 0 0.1035428584954811 0.4641996750659665 0 0.1065997528569091 0.476214387730523 0 0.1096707989357715 0.4882268529318399 0 0.1127447514537051 0.5002388622748581 0 0.1158206139509291 0.5122523002553075 0 0.1308435654708714 0.5276122179622273 0 0.1339208287419561 0.5396313367211623 0 0.136997998155815 0.5516491110734906 0 0.1400767023512235 0.5636639836444761 0 0.1550714145435949 0.5790457889851377 0 0.1581169439814532 0.5910845031690773 0 0.1611688428508914 0.6031355717000002 0 0.1642163520531986 0.6151881464784297 0 0.1672868109475338 0.6272282961028758 0 0.1703706110741656 0.6392596438740239 0 0.1734529621545037 0.6512937114929024 0 0.1885168706025956 0.6666625115475602 0 0.1916251195697844 0.6786858952731141 0 0.1947062133911973 0.6907305966503082 0 0.1977733160609078 0.7027586778960255 0 0.2007832959814317 0.7148426987314475 0 0.2038300330516744 0.7269120856691398 0 0.2187923499991742 0.7423863424887905 0 0.2218573467100133 0.7544644710816255 0 0.2518129955523557 0.7853464483168533 0 0.2791285629483152 0.8491292165038763 0 0.3097003797962525 0.9249904707797263 0 0.3127899680978994 0.9370895789173096 0 0.2368948296092153 0.769878751982125 0 0.03694827719540712 0.327925029255608 0 0.05543249582107437 0.3613780032711465 0 0.07328293966697907 0.3888828362535446 0 0.07633538678199164 0.4008709457843093 0 0.07939103974440165 0.4128688357723995 0 0.1188979781492477 0.5242678839245261 0 0.1431571145262663 0.5756777714513657 0 0.1765359396462944 0.663327664313156 0 0.2069012932865008 0.7389677189366353 0 0.224923919791336 0.7665398446702536 0 0.2398963907908589 0.7819415020551684 0 0.2548357243548477 0.7974578858533712 0 0.2578966737255401 0.8095324910254784 0 0.2609437141666192 0.8216180515243677 0 0.2640265678764437 0.8336951586784364 0 0.267121842083121 0.8457682545524815 0 0.2822315822777616 0.861202014413387 0 0.2853209973889897 0.8732845861457357 0 0.2884128424635329 0.8853670298029301 0 0.2915050990717351 0.8974518151807189 0 0.2945973813773405 0.9095388524433299 0 0.2976903415131116 0.9216278663895688 0 0.3158814626257829 0.9491880462202994 0 0.3189466046354941 0.9612472019416729 0 0.3219246418012573 0.9728184312939773 0 0.3307581332140058 0.9902491268684277 0 0.3375000000014043 1 0 0.03173184804960737 0.3391124097456674 0 0.03883629812126753 0.3486919779655068 0 0.04408889724367834 0.3590952458656838 0 0.05831765904576404 0.3735637467934328 0 0.06138335167203954 0.3855475173384896 0 0.08246053687689053 0.4248655438058025 0 0.08553079844254115 0.4368630936304245 0 0.0885802191072757 0.4488443322940651 0 0.0916452714192869 0.4608435181069316 0 0.09469735209742371 0.4728576624122854 0 0.0977460424596755 0.4848778764442375 0 0.1008042546013458 0.4968948324509496 0 0.1038783986261508 0.5089086150318163 0 0.1069529936809779 0.5209238819565221 0 0.1219739979093498 0.5362860029200214 0 0.1250503337684805 0.5483039664957874 0 0.1281303025876129 0.560321618958499 0 0.1312143703449252 0.5723416143213843 0 0.146216675385731 0.5877078993302342 0 0.14926483157592 0.5997438892709033 0 0.1523049784485422 0.6118035087437885 0 0.1553248253078731 0.6238820944932755 0 0.1584055122795567 0.6359140895199711 0 0.1614861694829408 0.6479471370411901 0 0.1645712292983098 0.6599806583129308 0 0.179629746953625 0.6753564288530317 0 0.1827297034581634 0.6873921541226617 0 0.1858168546507188 0.6994229928061513 0 0.1888863697393938 0.7114536986955768 0 0.1919406559260371 0.7235030510435096 0 0.1950172930470988 0.7355672390745229 0 0.2099478453411101 0.7510483148035434 0 0.2129423163198414 0.7631887904746381 0 0.2428957519373583 0.7940615701885746 0 0.2702117515394572 0.857843046026719 0 0.3007806634467436 0.9337171591635043 0 0.3038763941714946 0.9458131921439362 0 0.3250000000013524 0.982247494073139 0 0.2279957729575945 0.7785810286670536 0 0.02466093094002761 0.3290772530655548 0 0.04658650685375976 0.3703424651925398 0 0.06443298064502351 0.3975329312753633 0 0.06748407177015639 0.4095219925664401 0 0.07053378510494002 0.4215245883416129 0 0.110028275774781 0.5329407196419399 0 0.1342982461099399 0.5843664576666341 0 0.1676541236119886 0.6720160027005413 0 0.1980962788776391 0.747605927602274 0 0.2160242631766841 0.7752424035956627 0 0.2310038104377386 0.7906353319809122 0 0.2459173985373844 0.8061617109518675 0 0.2489478338992823 0.818253843898245 0 0.2520268125699021 0.8303340129830257 0 0.2551155292172152 0.8424075319603609 0 0.2582066235792861 0.8544824234948921 0 0.2733094075110306 0.8699221404967475 0 0.2764016295045217 0.8820034286015017 0 0.2794934261328468 0.8940868707562909 0 0.2825845767659255 0.9061725943896601 0 0.2856735078217963 0.9182622229021649 0 0.2887662635094853 0.9303530826477792 0 0.3069792106385192 0.9579120559569874 0 0.3098965409985972 0.969765609429402 0 0.3138722769672661 0.9804692103987391 0 0.3187076680193028 0.9899691865392093 0 0.3250000000013522 1 0 0.01910355599563414 0.3416049609949272 0 0.02699376760718262 0.350489030613143 0 0.03364212505264304 0.3577344705175522 0 0.03504080710797825 0.3674663138848341 0 0.04949896876939366 0.3822310262367742 0 0.0525339031995056 0.3941993757521292 0 0.07360388797432939 0.4335251355451617 0 0.07666929984612811 0.4455213100646589 0 0.07973905424449988 0.4575205947537286 0 0.08279246270812854 0.4695156284712723 0 0.08584988220081229 0.4815233280612636 0 0.08888604833072022 0.4935422847905023 0 0.09193688998364397 0.5055638870787238 0 0.0950103655238814 0.5175794010681251 0 0.09808340860274101 0.5295958090073734 0 0.1131040197953763 0.5449583396135503 0 0.1161820305896751 0.5569768523733845 0 0.1192624988475048 0.5689963500772252 0 0.122344967423767 0.5810196271864457 0 0.1373529870836994 0.5963872762470239 0 0.1404109811689086 0.608412778865012 0 0.143444037734462 0.620458571655111 0 0.1464641550212642 0.6325422873862306 0 0.1495285931976477 0.6445948557353671 0 0.1526074169882661 0.6566317274696717 0 0.1556888856897941 0.6686674437763029 0 0.170747945587842 0.684046439697701 0 0.1738380536318542 0.6960797337380141 0 0.1769274864126956 0.7081156960563613 0 0.1800108390273084 0.7201606549191009 0 0.1830880355161113 0.7322044138126369 0 0.1861780357114219 0.7442506133504982 0 0.201097486853492 0.7596766382372986 0 0.2040930330281122 0.7718231370839163 0 0.2339929668966972 0.802761291313003 0 0.261299181895744 0.8665597894571819 0 0.2918617097321412 0.9424471106977436 0 0.2949584251483691 0.9545431728099891 0 0.2190968658030299 0.7872841572547481 0 0.01233909414075427 0.3297692325790652 0 0.03758867116394034 0.3788913023080416 0 0.05557823077946881 0.4061749199572673 0 0.05862815474099772 0.4181773895413753 0 0.06168209769172565 0.4301811888475703 0 0.1011583095025327 0.5416134200951567 0 0.1254229086599664 0.5930448258959981 0 0.1587728190587436 0.6807001215365296 0 0.1891830355987707 0.7562996492451994 0 0.2071250052280345 0.7839455157922207 0 0.2220769233561565 0.799345782481226 0 0.2369797316926421 0.8148733698862118 0 0.2400305140265083 0.826964125440284 0 0.2431161259897095 0.839046037540233 0 0.2462047342043227 0.8511202603018642 0 0.2492938652967269 0.863196547006855 0 0.2643913024597097 0.8786399783359606 0 0.2674828407766202 0.8907219924713676 0 0.2705728735574829 0.9028057124561946 0 0.273658641709039 0.9148941329359263 0 0.2767487086137006 0.9269859460905773 0 0.2798396107541076 0.93907968741676 0 0.2980543475533263 0.9666426894582921 0 0.3015370206042455 0.9785427030112614 0 0.3061677903788417 0.9894718380454457 0 0.3125000000013003 1 0 0.009256432876112278 0.3391021550664352 0 0.01802511653078472 0.3539059740292884 0 0.02325085518310844 0.3629297842585931 0 0.02563606658352573 0.3755228766255705 0 0.04062692055884677 0.3908692206058422 0 0.04368098729019672 0.4028587701654214 0 0.06474612995746362 0.4421866178006698 0 0.06781807702920548 0.4541930811585569 0 0.07088486565683845 0.4661944697697641 0 0.07394843602084358 0.4781956664911023 0 0.07698081808433799 0.4901947242746205 0 0.08001525871912961 0.5022158811612691 0 0.08307069280835302 0.5142337313166752 0 0.08613980944142172 0.5262504820176399 0 0.08921228471753248 0.5382681259549914 0 0.1042343237826251 0.5536317783112965 0 0.1073125310958506 0.5656516088728665 0 0.110392758046888 0.5776732625192392 0 0.1134702651559185 0.5896970689484873 0 0.1285014521740693 0.605071244960075 0 0.1315234335796788 0.6171108297852903 0 0.1345364541551664 0.6291756071117519 0 0.1375642544216961 0.6412503426819293 0 0.140644901008084 0.6532831564855287 0 0.1437254063829748 0.6653176913868518 0 0.1468065665703391 0.6773514299218983 0 0.1618632268126775 0.6927341972354276 0 0.1649532911798848 0.7047666005653663 0 0.1680382658783355 0.7168082911101987 0 0.171121055968961 0.7288534830405391 0 0.1742045388991442 0.7408995730607449 0 0.1772728897910544 0.7529317561328549 0 0.1921700465541757 0.7684003099574532 0 0.1951411833597679 0.7805947554892126 0 0.2250841854189035 0.8114899823892268 0 0.2523834314270186 0.8752750799811089 0 0.2829345478796352 0.9511754132147054 0 0.2860770458726095 0.9631579417881687 0 0.2101926652151563 0.7959824464790325 0 0 0.33 0 0.009538839054963924 0.348965971938015 0 0.02930978715654541 0.387009800276388 0 0.04674777875872228 0.4148428737057901 0 0.049799549440144 0.4268392475391065 0 0.05281602300914968 0.4388370178213553 0 0.0922877972952334 0.5502867752909287 0 0.1165472643913441 0.60172290378342 0 0.149892385961166 0.6893852399812733 0 0.1802699163744232 0.7650005456642575 0 0.1982254437336231 0.7926484236104394 0 0.2131774348033373 0.8080791542212246 0 0.2280539149827837 0.8236219437747186 0 0.2311187672947854 0.8356824249089954 0 0.2341995941424087 0.8477598473201822 0 0.2372826347100022 0.8598358377882702 0 0.2403713913400587 0.8719131950534289 0 0.2554733084057692 0.8873569118465802 0 0.2585634201415171 0.8994397438474652 0 0.2616515947237889 0.911524590618273 0 0.2647368992864004 0.9236178408144539 0 0.2678214004225304 0.9357178583639669 0 0.270911752559874 0.9478067380608254 0 0.2894158062660362 0.9745700733209044 0 0.2921176422946507 0.9876987828367507 0 0.3000000000012483 1 0 0 0.3424074074074549 0 0.01074513000994136 0.3610185185186057 0 0.01272156387133658 0.373931647083109 0 0.01956484800004732 0.3835041831774079 0 0.03175741618619274 0.3995160234432785 0 0.03481607756000983 0.41151321357471 0 0.05588399774377369 0.4508501830555178 0 0.05895575818410246 0.4628583528077878 0 0.06202697591581961 0.4748671851374993 0 0.06506280872717939 0.4868666157959869 0 0.06809267858886729 0.4988719005195735 0 0.07112833671026568 0.5108910908103693 0 0.07419473297798852 0.522905028101371 0 0.07726670022129398 0.5349218608315811 0 0.08034109429889144 0.54694058674801 0 0.09536459140544014 0.5623063061866251 0 0.09844185715212911 0.5743273220374951 0 0.1015185144084721 0.5863498797747981 0 0.1045925215683851 0.598372199310242 0 0.1195894116009822 0.6137661253024933 0 0.1225746566716029 0.625843316110742 0 0.1256135638001263 0.6378941160490545 0 0.1286840310616284 0.6499322919293586 0 0.1317627705643273 0.6619682724494136 0 0.1348429521742193 0.6740029363509433 0 0.1379245236024942 0.6860368183293613 0 0.1529791426277177 0.7014172473937887 0 0.15606523889716 0.7134578881599183 0 0.1591488318710689 0.7255007486536772 0 0.1622307781755067 0.7375463784203908 0 0.1653126496116828 0.7495934552862114 0 0.1683834376773267 0.7616278207923213 0 0.1832241199263989 0.7771469359963226 0 0.1862735081469828 0.7892556593477618 0 0.2161627236035202 0.8201875638682157 0 0.2434625725144418 0.8839936369734009 0 0.2740060660223229 0.9599046476387516 0 0.2773820649132541 0.9713082433972607 0 0.2012925539851384 0.8046853733353825 0 0 0.3548148148148881 0 0.02021494109163923 0.3939179085512121 0 0.03799288631349092 0.4235053539245084 0 0.04100728153462985 0.4355271516748114 0 0.04388790671760186 0.4474859101603341 0 0.08341619062218583 0.5589602570290163 0 0.1076386456641694 0.6103951839005987 0 0.141008037095024 0.6980716254706349 0 0.171385968698813 0.7735968018613941 0 0.1893256851250005 0.8013520242814425 0 0.2042555572411492 0.8167837767742642 0 0.2191471262468647 0.832345489741964 0 0.2222035062724502 0.8443985102368348 0 0.2252717963831824 0.8564760131448961 0 0.2283610365500575 0.8685524339169763 0 0.2314513775437416 0.8806297717930212 0 0.2465541064409812 0.8960752185646419 0 0.2496443037383843 0.9081588740080938 0 0.2527273584096099 0.9202450407394719 0 0.2557996790611583 0.9323447983893829 0 0.258888724403585 0.9444747397403646 0 0.2619802320063556 0.9565355380264153 0 0.2813590072624409 0.9805124208762788 0 0.2875000000011962 1 0 0 0.3672222222223236 0 0.009941881297189648 0.3871386833507596 0 0.02180533029917211 0.4077551089106518 0 0.02667579914934154 0.4201825404032781 0 0.04695441177225102 0.4595007168560954 0 0.05005401558995552 0.4715107763735332 0 0.05311216186873067 0.4835259588401633 0 0.05614777826290616 0.4955324051349848 0 0.05918811459508908 0.5075458669465185 0 0.06224443122681236 0.5195570032961504 0 0.06532056147925153 0.5315752779773721 0 0.0683948643376443 0.5435940933554511 0 0.07146922243833481 0.5556136728342184 0 0.08649183722119415 0.5709811092431215 0 0.08956837035140633 0.5830030103520012 0 0.09264206740467029 0.5950239380916669 0 0.09570321548445888 0.6070386937747693 0 0.110659388674791 0.6224598015620912 0 0.1136541318424389 0.6345483594226562 0 0.1167240415203021 0.6465846880159178 0 0.1198012669258756 0.6586191735329076 0 0.1228802124945496 0.670653765975366 0 0.1259606108326147 0.6826883000894979 0 0.1290422039874569 0.6947232412914597 0 0.1440941642846538 0.7101079589351971 0 0.1471774815510643 0.72214914580207 0 0.1502591790136052 0.7341926696434361 0 0.1533401022427026 0.7462347131432151 0 0.1564204526738203 0.7582728848637929 0 0.1594834767112357 0.7702968403933639 0 0.1743953264239495 0.7857965361532653 0 0.1774210816812843 0.7979335441350153 0 0.2072562271283569 0.828947040285737 0 0.2345423662163861 0.8927116366070535 0 0.2656321719622797 0.9684929618287614 0 0.2790829353777096 0.9902258165705305 0 0.2689515838012387 0.9808824271803609 0 0.1923926935999392 0.8133891060380944 0 0 0.3796296296297976 0 0.01033570666203234 0.3993895974135091 0 0.02956050411170973 0.4323354225981789 0 0.03198681961568291 0.4441599580053857 0 0.03501414687160448 0.4560869047664744 0 0.07454351859554592 0.5676343392977921 0 0.09871052494464895 0.6191038149623123 0 0.1321249610573069 0.7067599758833524 0 0.1625335275989462 0.7823322195153306 0 0.1804435149098199 0.8100734921845982 0 0.1953673487644974 0.8255297286141072 0 0.2102295756171945 0.8410505539822901 0 0.2132644287544264 0.8531136797238381 0 0.2163494339515419 0.8651916204480928 0 0.2194395853718181 0.87726816527415 0 0.2225308626116601 0.8893474986188507 0 0.2376332648231496 0.9047945211215669 0 0.2407229221927897 0.9168777768234323 0 0.2437915541138596 0.9289720573770129 0 0.2468601496452975 0.9410682630093546 0 0.2499692178472234 0.9533828543390582 0 0.2531378418056451 0.9665658257502839 0 0.2750000000011442 1 0 0 0.3920370370372308 0 0.01005208728419306 0.4110444021865364 0 0.01745033236406407 0.4168530960568304 0 0.01912710481745996 0.428358634687371 0 0.03814196797597061 0.4681375719021646 0 0.0411328178228588 0.4801748726974887 0 0.04419014420131896 0.4921862117870622 0 0.04724076159625161 0.5041978769206048 0 0.05029979123626531 0.5162113110510835 0 0.05337436180861461 0.5282290185717831 0 0.05644893977305779 0.5402475849427848 0 0.05951883371705627 0.5522673063244832 0 0.06259608504195786 0.5642866091265111 0 0.07761846282074639 0.5796559706247338 0 0.08069470243269225 0.5916785134114125 0 0.08377156673813532 0.6037016822391179 0 0.0867930194954591 0.6157209383602549 0 0.101721985354886 0.6311696645742026 0 0.1047687685830287 0.6432327226581624 0 0.1078388580604532 0.6552719525959625 0 0.1109180390559582 0.6673044762509492 0 0.1139977777239552 0.6793388481175047 0 0.117077581067867 0.6913741930247352 0 0.1201584624647596 0.7034102599894234 0 0.135207342354787 0.7187987774972358 0 0.1382892828014105 0.7308395218530481 0 0.1413710731965401 0.7428775629217551 0 0.1444503784101191 0.7549102476338103 0 0.147541752697407 0.7669548931275038 0 0.1506357209211013 0.7789964221998414 0 0.1655337524912723 0.7945140560637675 0 0.1685320619089007 0.8066515945945687 0 0.198328566909709 0.8376325332475907 0 0.2256220133643423 0.9014291725708408 0 0.2594834206682826 0.9765114892789024 0 0.2686407902449678 0.9918342176552554 0 0.1834958915997724 0.8220963462297555 0 0 0.4044444444446639 0 0.02070371381884985 0.4401802481731996 0 0.02257830566463128 0.4523324622856282 0 0.02614966626548919 0.4644460676547886 0 0.06566897720429291 0.576308966084379 0 0.08974689499412938 0.6278386076019576 0 0.1232395561571602 0.7154479921161636 0 0.1537040048414023 0.7910252381539156 0 0.1715469228601398 0.8187811940475292 0 0.1864413218730589 0.8341896657461039 0 0.2013076572981453 0.8497451080351998 0 0.2043504370289044 0.8618217640369382 0 0.2074364564087618 0.8739043993777608 0 0.2105245717232393 0.8859828545332809 0 0.2136129174289595 0.8980639708421292 0 0.2287125175862484 0.9135135991843037 0 0.2317899912215786 0.9255965500575157 0 0.2348492241527239 0.9376999152429204 0 0.2379379640530555 0.9497908073885413 0 0.2410033716882596 0.9616501505768682 0 0.2497607394556721 0.9784010608802219 0 0.2576694320436543 0.9880628445253852 0 0.2625000000010923 1 0 0.01035222479167979 0.4230562747469074 0 0 0.4168518518521316 0 0.01016565785034871 0.4353782490790713 0 0.02968191954385756 0.4766838349287823 0 0.03221530821323814 0.4888350529293181 0 0.03528488027035219 0.5008498686105838 0 0.03835839831552732 0.512865932832452 0 0.04141927015982799 0.5248708915393372 0 0.04435572063978216 0.5369388407218058 0 0.04755302544908414 0.5489256595635286 0 0.0507464903281972 0.5608624951450815 0 0.05372125523308319 0.5729611872165199 0 0.06874484338407233 0.5883309555690095 0 0.07182076049290856 0.6003539043888798 0 0.07488620477554188 0.6123669096530545 0 0.07788345846463468 0.6244076538624256 0 0.09280948158083654 0.6398837970645277 0 0.09587734533788084 0.6519255083694405 0 0.09895760486465602 0.66395614418642 0 0.1020364946355327 0.6759886586588564 0 0.1051154060024736 0.6880232715506543 0 0.1081940926266971 0.7000593552159478 0 0.1112736034485533 0.7120968543802804 0 0.1263209183689044 0.7274872298870864 0 0.1294018967320239 0.7395270965544715 0 0.1324862804507152 0.7515611366931482 0 0.1355763177388071 0.7635955334073474 0 0.1386593527466546 0.7756425326538877 0 0.14175006217394 0.7876636911136915 0 0.1566260664366672 0.8032177497911173 0 0.1596210330742209 0.8153895313453847 0 0.1893692707770012 0.8463331028221062 0 0.2167021844689595 0.9101471079990594 0 0.2438898233093222 0.9710083305201884 0 0.1745931865600104 0.8307981266101715 0 0.01086455884544731 0.4476142719390788 0 0.01287239139192389 0.4617730354003825 0 0.0201728211721448 0.4726250204373728 0 0.0567956958370105 0.5849832274943807 0 0.0808733027101679 0.6365140363501046 0 0.1143540650350861 0.7241348677888882 0 0.1447288517033653 0.7997204414939223 0 0.1626307359190189 0.8274694047175465 0 0.1775466866827756 0.842834149994552 0 0.1923507794713349 0.8584581835432404 0 0.195434653662112 0.8705396118373271 0 0.1985490046811144 0.8826043842422708 0 0.2016200687503404 0.8947007537450716 0 0.204693466986559 0.9067808741681511 0 0.2197901478326134 0.9222298878236626 0 0.2228653440356314 0.934306343110098 0 0.2259470155696808 0.9464082036160446 0 0.2290108909436248 0.9584867536336502 0 0.2326896172819705 0.9694950246686342 0 0.2384469584705627 0.9793000257286431 0 0.2440010198317685 0.9893201440199972 0 0.2500000000010403 1 0 0 0.4292592592595735 0 0 0.4416666666670066 0 0.0199685219214514 0.485190398933951 0 0.02333878787560486 0.4975037058146076 0 0.02707738567758664 0.5093500095869909 0 0.02949897393087496 0.5214702112582974 0 0.03251773118300955 0.5333976018496172 0 0.03573672246145497 0.5452360002933796 0 0.03931454329613221 0.5571205189934078 0 0.04177519923186952 0.569613689646039 0 0.0448476237125949 0.5816355967156879 0 0.0598707876576493 0.5970053313847984 0 0.06294416005449027 0.6090279644298308 0 0.0659610830058871 0.6210496255652529 0 0.06897869866055847 0.6331264352931967 0 0.08392925785684494 0.6485725534982638 0 0.08699846012029935 0.6606081951249504 0 0.09007755375882445 0.6726385163103676 0 0.09315396620546412 0.6846733427002182 0 0.09623072868503148 0.6967091843906865 0 0.09930865641086567 0.7087462116429174 0 0.1023882814422201 0.7207833904881201 0 0.117434356283786 0.7361730160964213 0 0.1205162910504393 0.748210030387868 0 0.1236017255763617 0.7602463492536369 0 0.1266856943308716 0.7722888823264447 0 0.1297742079897858 0.7843121242311053 0 0.1327383942263525 0.7964316874009556 0 0.1476093019140177 0.8119804407078404 0 0.1506529625212467 0.8241139335683745 0 0.1804927897274564 0.8549849011697349 0 0.2077822851584125 0.9188641178496582 0 0.165704846761684 0.8395149832857767 0 0 0.454074074074455 0 0.01010172212966043 0.4748127539528162 0 0.04792464771134079 0.5936617138659188 0 0.07197595179647467 0.6452432740697276 0 0.1054681678145561 0.7328212512663874 0 0.1356634506502385 0.8085607155231221 0 0.1537279356591508 0.8361726391694184 0 0.1686632347822311 0.8515426869144918 0 0.1834737460301575 0.8671611146428471 0 0.1865674709497198 0.879223197876096 0 0.1897108065925129 0.8912754880840892 0 0.1927678441263658 0.9034273820120426 0 0.1958065473399073 0.9155328957922295 0 0.210868200518226 0.9309469879824068 0 0.2139500170571126 0.943030495530167 0 0.2170252070416511 0.9551023181343653 0 0.2201792658261261 0.9670500009392111 0 0.2255014234596399 0.9785121846394566 0 0.2316262002713804 0.9895337133359693 0 0.2375000000009883 1 0 0 0.4664814814819163 0 0.01120555589929378 0.4971246575024424 0 0.008255159990081121 0.4854625991150683 0 0.01836997012520208 0.5054261398958222 0 0.01929501815712406 0.5164982389916631 0 0.0209888232759642 0.5293703598114081 0 0.02309630286821745 0.5424885627342754 0 0.03014818889578755 0.5531289370648649 0 0.0295265271545726 0.5647597098972722 0 0.03301895788002672 0.5784096959138971 0 0.0359930373724419 0.5903310143437669 0 0.05099457327905849 0.6056812826769384 0 0.05406266682216371 0.6177009323825448 0 0.05707838570416535 0.6297478538259473 0 0.06008849731897129 0.6418167128184538 0 0.07504100559541041 0.6572605100108326 0 0.07811986932144765 0.6692891522321395 0 0.08119658005455012 0.6813200248553637 0 0.08426703409637241 0.6933604004353809 0 0.08734597756580834 0.7053951523925869 0 0.09042411559982973 0.7174322070315144 0 0.09350301782559897 0.7294694759649991 0 0.1085488228056439 0.7448586782170801 0 0.1116306261904232 0.7568966457880715 0 0.1147138292872575 0.7689363597208871 0 0.1177946777145245 0.7809804885983964 0 0.1208057769953725 0.7930773546875289 0 0.1237080158454126 0.8052557973563645 0 0.1386678384901213 0.8207227518969653 0 0.1417231694965689 0.8328356940012158 0 0.1716777407814176 0.8636925091149148 0 0.1988677230242215 0.927588715156862 0 0.1567906312883146 0.8482060993143983 0 0 0.4788888888893493 0 0.03904616840928968 0.6023338305799411 0 0.06309684715686414 0.6539248699394349 0 0.09658256840463686 0.7415072754259333 0 0.1266406735609038 0.8173441077342374 0 0.1448191898155179 0.8448801268944053 0 0.1598060040863384 0.8602497086838632 0 0.1747432858983783 0.8758002201402728 0 0.1778633481461574 0.8878432195405495 0 0.180946342795445 0.899958174216132 0 0.1839459828359449 0.9121579212349618 0 0.186890407756522 0.9242569206963714 0 0.2019544580576249 0.9396700506903486 0 0.2050203894759598 0.9517545390529776 0 0.2080436633774024 0.9638839160341414 0 0.2111549736380539 0.9771778131436777 0 0.2186759069018865 0.9894644994234598 0 0.2250000000009362 1 0 0 0.4912962962967825 0 0.009736575020622217 0.5105207178521542 0 0.009902801089446633 0.5232298826411428 0 0.01044785465207235 0.5352338267177372 0 0.02068253835408517 0.5554499764253931 0 0.02137448266640409 0.5754944759481524 0 0.02393107899997669 0.5872071712059687 0 0.02750669022109463 0.5989217306266048 0 0.04211914965062227 0.6143567370817831 0 0.04518287755584353 0.6263676997017208 0 0.04819649086156796 0.6384257171945156 0 0.05120654658333693 0.6505220940453921 0 0.06616359341173914 0.6659402996735351 0 0.06924152589582856 0.6779678288899254 0 0.07231252084479733 0.6900062968560803 0 0.07538577526382963 0.7020438574786884 0 0.07846251935335032 0.7140814575288803 0 0.08153959822028405 0.7261180501092067 0 0.08461803746617444 0.7381555751849429 0 0.09966312761709829 0.753544988789892 0 0.1027439849096762 0.7655845258823177 0 0.1058242505294182 0.7776262871031554 0 0.1088316235865266 0.7897625117937191 0 0.1117601250627279 0.8019177747897093 0 0.114690737993119 0.8140919402769995 0 0.1297174727977526 0.8295016198470023 0 0.1328160826591248 0.8415473761464733 0 0.1628873841639442 0.8724164231382805 0 0.189946482076243 0.9363109038333264 0 0.1479099626538807 0.8569336454483616 0 0 0.5037037037042373 0 0.0106952618661426 0.5472143826728058 0 0.01843788473637517 0.5653876261591838 0 0.03017046217154734 0.6110107797023332 0 0.05421063433624155 0.6625942857624643 0 0.0876973662356982 0.7501929831456179 0 0.1177095543310106 0.8261686843979876 0 0.1359288189637427 0.8535846815634677 0 0.1509570079437699 0.8689683528431235 0 0.1660250547583566 0.8845124364766741 0 0.1692264252035251 0.8964611618207619 0 0.1721636498681638 0.9085838726043872 0 0.1750636918044418 0.920830147266781 0 0.1779910709286956 0.9329895555802278 0 0.1930256721654151 0.9483886781429477 0 0.1960997456251702 0.9605191688135248 0 0.1991388751806685 0.9723580213113936 0 0.2060950206027676 0.9899143026595132 0 0.2125000000008843 1 0 0 0.5161111111116921 0 0 0.5285185185191252 0 0 0.5409259259265801 0 0.01019570734712097 0.5597745912001973 0 0.01127878476811945 0.5852611149977612 0 0.010410168159693 0.5714593773249044 0 0.01659939038059393 0.5970287968538877 0 0.02095527843415487 0.6066524588976544 0 0.03324383527101166 0.6230303039844025 0 0.03630772616412625 0.6350409941255217 0 0.03932904352410808 0.6470083976955946 0 0.04235483398032922 0.6591631619993694 0 0.05728677430729895 0.6746195392413368 0 0.06035949280722044 0.686649874287522 0 0.06342471695098285 0.698695795189602 0 0.06650222929102989 0.7107315357063447 0 0.06957742017932037 0.7227679424549405 0 0.07265546470935967 0.7348030545006639 0 0.07573372005759957 0.746839820430608 0 0.0907758963902426 0.7622325111879045 0 0.09385571196434714 0.774272332535762 0 0.09693444896797151 0.786312879079214 0 0.0997884035102391 0.7985848992864548 0 0.1027361924456978 0.8107341453371882 0 0.1057320041351129 0.8228229385781782 0 0.1208100764573385 0.8382121943612196 0 0.1239200986412888 0.8502465804647041 0 0.1540769325310452 0.8810744900797106 0 0.1810135283200531 0.9450234340607866 0 0.200436584950817 0.9817211116772849 0 0.1390148529762039 0.8656433986034081 0 0 0.5533333333340349 0 0.02010220307079489 0.6182449011460176 0 0.045332653390574 0.6712715331490086 0 0.07881081083047399 0.7588797210763603 0 0.1088166572676533 0.8348695663444896 0 0.1270261166035637 0.8622944947448429 0 0.1421083325636372 0.877701683095174 0 0.1572345119815171 0.8931293082786903 0 0.1603067443337954 0.9051196327076303 0 0.1632336923877638 0.9173659954279565 0 0.1661773832485033 0.9295085606836782 0 0.1691281155444581 0.941712828466758 0 0.1840975376631997 0.9571102866722209 0 0.1872723358883759 0.9696195716674687 0 0.1906262473857077 0.9812775162545592 0 0.1939860701619427 0.9912375737946503 0 0.2000000000008322 1 0 0 0.5657407407414687 0 0.007014306737326893 0.5967662205081263 0 0 0.5781481481489228 0 0.01039764632674357 0.6080560861594285 0 0.02448989845754734 0.6312748660302875 0 0.02773537731557692 0.6432887865581074 0 0.03067105924879579 0.6556585730164659 0 0.03337906679891893 0.6679240883272912 0 0.04840896269294075 0.6832968958926454 0 0.0514819824518286 0.6953189869230881 0 0.05455070028485261 0.7073797962359482 0 0.05761909000365032 0.7194174347116628 0 0.06069512135057197 0.7314506877818172 0 0.06377267652850829 0.7434841392629332 0 0.06684877189299551 0.7555226362009201 0 0.08188849517417221 0.7709196491171213 0 0.08496778871762156 0.7829592749633516 0 0.08794479841835469 0.7950390706534264 0 0.09066537000230751 0.8074348205971404 0 0.09375717453015367 0.8194852775983124 0 0.09684232685795013 0.8315292433720118 0 0.1119206968596061 0.8469017923771507 0 0.1150389065864364 0.8589364144047847 0 0.1452313181669729 0.8897512526725457 0 0.1721222697793198 0.9537851902780307 0 0.1301143537600904 0.8743508045666102 0 0 0.590555555556356 0 0.009240315921960007 0.6189676596186331 0 0.01294809306537377 0.6283064704719533 0 0.03645602968622723 0.6799494993340407 0 0.06992330734664395 0.7675663583507325 0 0.09993314929322368 0.8435626795521796 0 0.1181257139905958 0.8709978982961638 0 0.1332183272161145 0.8864023756443627 0 0.1483466101913609 0.901801829750668 0 0.1513761826047226 0.9138542565864016 0 0.1543629291766224 0.9260194608457313 0 0.1573192496979775 0.9382028410610302 0 0.1602677772724116 0.9504268704688144 0 0.1751632093193202 0.9661982592475049 0 0.1781513940446531 0.9786469236774784 0 0.1817288061968835 0.9904012896250942 0 0.1875000000007802 1 0 0 0.6029629629638107 0 0 0.6153703703712551 0 0.01654051199968606 0.6385723078417782 0 0.01924485185332633 0.650905040947711 0 0.02156261271282654 0.6637832401793174 0 0.02423403860868365 0.6762468188359507 0 0.03953236711409585 0.6919746407184271 0 0.04266537532439686 0.7039931437117026 0 0.0456664784732909 0.7160615306414774 0 0.04873679816469921 0.7280998821071925 0 0.05181379796467043 0.7401311167027449 0 0.05488936389131176 0.7521648047136036 0 0.05796278407417493 0.7642022380853041 0 0.0730016906697456 0.7796062347242931 0 0.07605901797040637 0.7916233201461323 0 0.07898137201027945 0.8037273354663281 0 0.0817775501815057 0.8161315542531511 0 0.08488996063536287 0.8282024750648886 0 0.08795309866241049 0.8402233714860464 0 0.1030312177712251 0.8556006088256636 0 0.1061346311435643 0.8676450392680827 0 0.1363247184906605 0.8984596193544521 0 0.1631971158818175 0.962576599154951 0 0.121214497110366 0.8830578220396006 0 0 0.6277777777786986 0 0.007636394457164436 0.635768328637933 0 0.02767446101211617 0.6882477839795379 0 0.06103676063961881 0.7762478737262726 0 0.09104570036530071 0.8522586989452728 0 0.1092246943666333 0.8797036894872259 0 0.1243092534147686 0.8951145266774989 0 0.1394193828773986 0.9105215737873592 0 0.1425184297013501 0.9226025202664069 0 0.1455602200231621 0.9346910885664819 0 0.1484190729227076 0.946858237334718 0 0.1513859331062867 0.9590490414427789 0 0.1661342880297559 0.9749661142731419 0 0.1681031194383308 0.9887789589793521 0 0.1750000000007281 1 0 0.009036066215009651 0.6463083793612536 0 0.01024424914297311 0.6585859769509717 0 0.01110164059416885 0.6711290657382635 0 0.01342018527536714 0.6850722984001711 0 0.0310581931788992 0.7005029972550902 0 0.0339137724232738 0.7126494433447399 0 0.03685935554540981 0.7247296506180165 0 0.03985658979391934 0.7367805751109058 0 0.04293304313128585 0.7488103816901993 0 0.04595675128826435 0.7608382675706362 0 0.04900319221677779 0.7728815194302951 0 0.06411238795414617 0.7882883395484953 0 0.06718148031324818 0.8003180335555142 0 0.07014435156726587 0.8122379320748125 0 0.07302513580450848 0.8246721222119332 0 0.0759988370615936 0.8368939104372976 0 0.07906318196720637 0.8489154541660124 0 0.09414144603985622 0.8643032883386164 0 0.09723495106202504 0.8763526840012609 0 0.1274234190773476 0.9071661575942782 0 0.1546315462306884 0.97117374626919 0 0.1123128428418199 0.8917636394594732 0 0 0.6401851851861535 0 0.02013859750407292 0.697167284995948 0 0.05214294726079645 0.7849276058486208 0 0.08215607137566079 0.8609579962858322 0 0.100323283409041 0.8884087599660864 0 0.1154049688449469 0.9038240886178547 0 0.1305191274346685 0.919243121636069 0 0.1336163307822216 0.9313233703525288 0 0.1366705291275756 0.9433648446880183 0 0.1398167399005681 0.9554899390253049 0 0.1436474288868706 0.9678841871915356 0 0.1566499906962767 0.9828519327258789 0 0.1625000000006761 1 0 0 0.6525925925936003 0 0 0.6650000000010197 0 0 0.6774074074084013 0 0.009848545095010314 0.6959633227264428 0 0.02240886441207342 0.7093904886637818 0 0.02548645111038758 0.7212330994696068 0 0.02837038412263715 0.7333112365928758 0 0.03127771392907052 0.7453833374223167 0 0.03410354683897358 0.7574758704161675 0 0.0367807700884529 0.7695058979414627 0 0.04013913994935929 0.7815672334094745 0 0.05522802664501425 0.7969747025569951 0 0.05828459584096658 0.8089903116055802 0 0.06120496225191388 0.821165288220815 0 0.064135153129409 0.8334015732206348 0 0.06709068128852327 0.8455662158575505 0 0.07017602242560021 0.8576094811363656 0 0.08524610452136146 0.8730047027055862 0 0.08833570627203279 0.88505487664201 0 0.1185115962114317 0.9158902648629577 0 0.1477135383631483 0.9787381021573569 0 0.15632176433465 0.9926157041468473 0 0.1034122572433372 0.900471040180524 0 0 0.6898148148157613 0 0.01098381475710704 0.7065363788175218 0 0.04327036867125317 0.7936170732734064 0 0.07326428260070432 0.869653699738863 0 0.09142283192316009 0.8971142345133616 0 0.1065055920967852 0.9125339209946712 0 0.1216204533988819 0.9279699194717664 0 0.1246981888881936 0.9400422463166836 0 0.1277914324070223 0.952126780116294 0 0.130343527512668 0.9661468277025863 0 0.1374167614606717 0.9779907810718835 0 0.1453753391948138 0.9890618700996182 0 0.1500000000006241 1 0 0 0.7022222222231429 0 0.0125628674179675 0.7203157343643991 0 0.01936867844484303 0.7292066944995466 0 0.0204070836274815 0.739992471864817 0 0.02210856466830327 0.752396383318804 0 0.02304667717296609 0.7661098430637857 0 0.02825008935096352 0.7781946086628559 0 0.03150197134059179 0.7904834281231414 0 0.04634156974335685 0.8056574943952773 0 0.04939839954821943 0.8176718753102398 0 0.0523075672244897 0.8298863723995451 0 0.05511921192001294 0.8422170311958259 0 0.05820440987676585 0.8542592578281838 0 0.06128801180810693 0.8663040905469415 0 0.07635206281251437 0.8817024816277251 0 0.07943751925265577 0.8937561158844983 0 0.1095994973550786 0.924604036402721 0 0.09451076851806778 0.9091779726090818 0 0 0.7146296296305246 0 0.0344059891014438 0.8023200981431124 0 0.06437246491041158 0.8783510279951396 0 0.08252265564100698 0.905815217983936 0 0.09759639969157163 0.9212477661991422 0 0.1127816858883616 0.9367302985465549 0 0.1159084253648644 0.9487117434468533 0 0.1186625608369057 0.9603303029369951 0 0.125163954027398 0.978738472899239 0 0.1315171752761906 0.9893233096237962 0 0.1375000000005722 1 0 0.01063489701494257 0.7335065408714848 0 0 0.7270370370379062 0 0.01068226358509248 0.7461506384838744 0 0.01052552339112552 0.7580555555562997 0 0.01846500708485248 0.7766666666673865 0 0.02034972560395897 0.7869860792991541 0 0.02252978610056638 0.7992342157498022 0 0.0374578890222532 0.8143405207965531 0 0.04052774355561552 0.8263674659918301 0 0.04345993294176748 0.838495000457925 0 0.04632940844391931 0.8507840237570683 0 0.04931729840003585 0.8629526157696674 0 0.05239959759585429 0.8749979863180292 0 0.06745713216862562 0.8903996375341735 0 0.07054139360993628 0.9024526930095749 0 0.1007360019009113 0.9333692746954136 0 0.1199058150692392 0.9704673306768525 0 0.08560304537434521 0.9178866389591758 0 0.01074513000987598 0.7704629629636878 0 0.02556467541232573 0.8109929533629689 0 0.05548120082517946 0.887045973485977 0 0.07362150053258884 0.9145073959778086 0 0.08869335347297719 0.9299687662798748 0 0.1039316327222738 0.9454565883977791 0 0.1071494529960635 0.9575889256820886 0 0.1101585715003323 0.9694313070497431 0 0.1187255508009514 0.989625669597852 0 0.1136156815287297 0.9793678382629583 0 0.1250000000005201 1 0 0 0.7394444444452662 0 0 0.7518518518526134 0 0 0.7642592592599863 0 0.01014495260677591 0.7826249061991072 0 0.01120654714000377 0.7947126503926316 0 0.01204650220310994 0.8087297480481455 0 0.02888022378295878 0.8229477482057552 0 0.0318315156527508 0.8351070319991587 0 0.03448996380167402 0.8473831317060694 0 0.03735051979225994 0.8596035946373132 0 0.04042947453775911 0.8716481151537678 0 0.04350959260789354 0.8836947513136335 0 0.05856398146325752 0.8990932655065725 0 0.061645572601483 0.9111445251704603 0 0.09183377500940587 0.9420925858781484 0 0.07669978112496423 0.9265926647389274 0 0 0.7766666666673896 0 0.01790150431267568 0.8209045307955376 0 0.04659049999680995 0.8957395079865156 0 0.06471483923527556 0.9232245656494393 0 0.07978660684140057 0.9386833200731119 0 0.09510483044306986 0.9542475148659634 0 0.09828102537852836 0.9663563869650469 0 0.1015075316564056 0.9783678607198136 0 0.1125000000004681 1 0 0.1062326661180515 0.9895763886342501 0 0 0.7890740740747344 0 0 0.8014814814820662 0 0.007659093437550587 0.8202820314773156 0 0.02227705449946761 0.830984261807166 0 0.02202689873909458 0.8434619980348581 0 0.02571825889567783 0.8561698928641415 0 0.0291121514119192 0.8681297844223429 0 0.03153574028324043 0.8803542437390169 0 0.03462026339727104 0.8923886889253163 0 0.04967094304776858 0.9077852275060025 0 0.0527354086806541 0.9198564730481509 0 0.08287600190713665 0.950757228385637 0 0.06778699465422133 0.9353065169119101 0 0 0.8138888888894696 0 0.01074513000985824 0.8325000000005205 0 0.03769968050463557 0.9044294179781912 0 0.0557997778177419 0.9319398180493798 0 0.07086319358062187 0.9473843621078984 0 0.08608659080243652 0.9629228484720872 0 0.0891606511236633 0.9752000347302393 0 0.09227222596843403 0.9885597147892659 0 0.100000000000416 1 0 0 0.8262962962968513 0 0.01770561571062424 0.8518102171591276 0 0.01875915539748156 0.863240358373123 0 0.02034439483750664 0.8758401373925895 0 0.0207691931534746 0.8886436952736487 0 0.02575998688591712 0.9009830937278511 0 0.04077539956673283 0.9164709885970233 0 0.04381270143027786 0.9285847740963132 0 0.07395582530201858 0.9594607581860612 0 0.058864550940679 0.9440254316324165 0 0 0.8387037037041897 0 0.01002328302844232 0.8458565171752916 0 0.02909798591088885 0.9129495667056544 0 0.04687406774245845 0.9406689181966926 0 0.06195314400170086 0.9560959990088715 0 0.07714121066020239 0.9715151676995752 0 0.07943590363479956 0.9832177419144665 0 0.08750000000036418 1 0 0.00966205371107683 0.857552073041483 0 0.01001245781808463 0.8699400453590538 0 0.01044219762696097 0.8817253423844795 0 0.01325956569204109 0.8995281940246468 0 0.01739343365240101 0.9095806845698687 0 0.03222038845295235 0.9251037474132453 0 0.03488720474403965 0.9373136954529492 0 0.06558908639933492 0.968033455766419 0 0.08125000000033816 0.992967963874489 0 0.04995765633593775 0.9527315027059547 0 0 0.8511111111115715 0 0.008703089016920403 0.8912364162511432 0 0.02123199815275999 0.9214480505532623 0 0.0379718063414232 0.9493690247252197 0 0.05307744544833749 0.9660859351440793 0 0.06813145603316532 0.9802582787896873 0 0.07009802327163879 0.9908281048876434 0 0.07500000000031215 1 0 0 0.8635185185189748 0 0 0.8759259259263067 0 0 0.8883333333336514 0 0.007873617356454012 0.9078283486315755 0 0 0.900740740741054 0 0.009421965220881234 0.917911784047635 0 0.02320504774824458 0.9339544180050137 0 0.02650796986162177 0.9458779258356391 0 0.05919253806203585 0.976064936116063 0 0.04108625169301738 0.9606406635099668 0 0.01073380926912327 0.93087616524377 0 0.03009778655120334 0.9575128649184437 0 0.0497920411485948 0.978218491690378 0 0.05750603581220406 0.9878510050303527 0 0.06250000000026001 1 0 0 0.9131481481483843 0 0 0.9255555555557314 0 0.01305921606844361 0.9443848520097853 0 0.02031374232405159 0.9538813000424333 0 0.04344597508876562 0.9706739678193999 0 0.03278331587450484 0.9681158626426247 0 0 0.9379629629631597 0 0.02147332676306314 0.9641383566169486 0 0.03777573718165236 0.9789435439754534 0 0.0439813887042579 0.9889692833136483 0 0.05000000000020799 1 0 0 0.9503703703705487 0 0.01105407148739446 0.9573445012354282 0 0.02354467416009922 0.9776776440488527 0 0.01123701724674287 0.9703286271462015 0 0.03136482680520059 0.989238428595329 0 0.03750000000015596 1 0 0 0.962777777777879 0 0.01070907755474483 0.9817635815427359 0 0 0.9751851851852422 0 0.01889585481454671 0.9898221880454791 0 0.02500000000010405 1 0 0.009092035120625565 0.9909330519583848 0 0 0.9875925925926616 0 0.01250000000005203 1 0 0 1 0 </DataArray>
      </Points>
      <Cells>
        <DataArray type="Int32" Name="connectivity" format="ascii">0 1 2 1 3 2 4 0 2 3 5 2 6 0 4 5 4 2 3 7 5 6 4 8 4 5 9 7 10 5 11 6 8 8 4 9 5 12 9 7 13 10 5 10 12 14 11 8 15 8 9 12 16 9 10 13 17 13 18 17 12 10 19 20 11 14 14 8 15 16 15 9 21 16 12 10 17 19 18 22 17 18 23 22 21 12 19 20 14 24 25 14 15 16 25 15 21 26 16 19 17 27 17 22 27 22 23 28 23 29 28 30 21 19 31 20 24 14 32 24 32 14 25 16 26 25 33 26 21 30 19 27 22 34 27 22 28 34 28 29 35 33 21 30 36 31 24 32 36 24 37 32 25 26 37 25 38 26 33 34 30 27 34 28 39 29 40 35 28 35 39 33 30 41 42 31 36 32 43 36 37 43 32 38 37 26 38 33 44 30 34 41 45 34 39 40 46 35 39 35 47 40 48 46 48 49 50 44 33 41 51 42 36 43 52 36 53 43 37 53 37 38 54 38 44 34 45 41 55 45 39 35 46 47 55 39 47 46 48 50 49 56 50 49 57 56 58 44 41 59 42 51 52 51 36 60 52 43 60 43 53 53 38 54 61 54 44 45 58 41 55 62 45 46 63 47 63 55 47 46 50 64 50 56 65 56 57 66 57 67 66 67 68 69 58 61 44 59 51 70 51 52 71 60 72 52 60 53 73 73 53 54 61 74 54 62 58 45 75 62 55 63 46 64 75 55 63 64 50 65 56 76 65 56 66 76 67 69 66 69 68 77 68 78 77 58 79 61 80 59 70 51 71 70 52 72 71 81 72 60 81 60 73 74 73 54 82 74 61 62 79 58 83 62 75 84 63 64 75 63 84 85 64 65 76 85 65 76 66 86 66 69 86 87 69 77 78 88 77 79 82 61 80 70 89 71 90 70 72 91 71 92 72 81 81 73 93 73 74 93 82 94 74 83 79 62 83 75 95 85 84 64 95 75 84 85 76 96 76 86 96 86 69 87 87 77 97 78 98 88 77 88 97 99 82 79 100 80 89 70 90 89 91 90 71 92 91 72 92 81 101 101 81 93 74 94 93 102 94 82 99 79 83 103 83 95 85 104 84 104 95 84 105 85 96 86 106 96 86 87 107 87 97 108 88 98 109 97 88 110 98 111 109 111 112 113 102 82 99 114 100 89 89 90 115 91 116 90 92 117 91 118 92 101 119 101 93 94 119 93 102 120 94 99 83 103 121 103 95 105 104 85 104 121 95 106 105 96 106 86 107 107 87 108 108 97 122 88 109 110 122 97 110 109 111 113 112 123 113 112 124 123 102 99 125 126 100 114 114 89 115 90 116 115 91 117 116 118 117 92 118 101 127 101 119 127 94 120 119 128 120 102 99 103 125 103 121 129 105 130 104 104 130 121 131 105 106 132 106 107 133 107 108 134 108 122 109 135 110 135 122 110 136 109 113 123 136 113 123 124 137 124 138 137 139 140 141 138 139 142 128 102 125 126 114 143 144 114 115 116 144 115 116 117 145 118 146 117 147 118 127 119 148 127 119 120 148 128 149 120 125 103 129 121 150 129 131 130 105 130 150 121 131 106 132 133 132 107 134 133 108 151 134 122 136 135 109 135 151 122 136 123 152 123 137 152 137 138 142 139 141 142 141 140 153 140 154 153 155 128 125 156 126 143 114 144 143 116 145 144 117 146 145 147 146 118 157 147 127 148 157 127 120 149 148 158 149 128 155 125 129 150 159 129 131 160 130 130 160 150 161 131 132 133 162 132 163 133 134 151 164 134 136 165 135 135 165 151 166 136 152 137 167 152 137 142 168 142 141 169 170 141 153 154 171 153 158 128 155 172 156 143 143 144 173 145 174 144 146 175 145 176 146 147 177 147 157 157 148 178 148 149 178 158 179 149 159 155 129 150 180 159 161 160 131 150 160 180 162 161 132 163 162 133 164 163 134 164 151 181 166 165 136 151 165 181 167 166 152 167 137 168 168 142 169 169 141 170 171 170 153 171 154 182 154 183 182 158 155 184 185 156 172 172 143 173 144 174 173 175 174 145 176 175 146 176 147 177 177 157 186 157 178 186 149 179 178 187 179 158 184 155 159 180 188 159 161 189 160 160 189 180 162 190 161 163 191 162 192 163 164 193 164 181 166 194 165 165 194 181 195 166 167 196 167 168 197 168 169 198 169 170 171 199 170 200 171 182 183 201 182 183 202 201 187 158 184 185 172 203 172 173 204 174 205 173 175 206 174 207 175 176 176 177 208 209 177 186 178 210 186 179 210 178 187 211 179 188 184 159 212 188 180 161 190 189 189 212 180 162 191 190 192 191 163 192 164 193 213 193 181 195 194 166 194 213 181 195 167 196 197 196 168 198 197 169 199 198 170 200 199 171 201 200 182 201 202 214 202 215 214 216 187 184 217 185 203 203 172 204 173 205 204 174 206 205 207 206 175 207 176 208 208 177 209 218 209 186 210 218 186 179 211 210 219 211 187 188 216 184 212 220 188 189 190 221 189 221 212 190 191 222 192 223 191 224 192 193 213 225 193 226 194 195 226 213 194 227 195 196 197 228 196 229 197 198 199 230 198 231 199 200 200 201 232 233 201 214 215 234 214 201 233 232 215 235 234 235 236 237 219 187 216 238 217 203 239 203 204 205 239 204 206 240 205 207 241 206 242 207 208 243 208 209 218 244 209 218 210 245 210 211 245 219 246 211 188 220 216 212 247 220 221 190 222 212 221 247 191 223 222 224 223 192 225 224 193 248 225 213 226 195 227 248 213 226 228 227 196 229 228 197 230 229 198 231 230 199 231 200 249 249 200 232 234 233 214 233 250 232 235 237 234 237 236 251 236 252 251 253 219 216 254 217 238 238 203 255 203 239 255 205 240 239 206 241 240 242 241 207 243 242 208 244 243 209 256 244 218 256 218 245 211 246 245 257 246 219 220 253 216 220 247 258 259 221 222 247 221 259 223 260 222 224 261 223 225 262 224 263 225 248 264 226 227 248 226 264 228 265 227 229 266 228 267 229 230 268 230 231 269 231 249 250 249 232 270 233 234 270 250 233 234 237 271 272 237 251 251 252 273 252 274 273 274 275 276 257 219 253 254 238 277 278 238 255 239 279 255 240 279 239 240 241 280 242 281 241 282 242 243 283 243 244 284 244 256 256 245 285 245 246 285 257 286 246 253 220 258 247 287 258 260 259 222 247 259 287 223 261 260 224 262 261 263 262 225 263 248 288 265 264 227 248 264 288 228 266 265 267 266 229 267 230 268 268 231 269 289 269 249 250 289 249 270 234 271 290 250 270 237 272 271 291 272 251 291 251 273 274 276 273 276 275 292 275 293 292 257 253 294 295 254 277 238 278 277 296 278 255 279 296 255 279 240 280 241 281 280 282 281 242 282 243 283 283 244 284 284 256 297 256 285 297 246 286 285 298 286 257 294 253 258 287 299 258 260 300 259 259 300 287 260 261 301 261 262 302 263 303 262 304 263 288 305 264 265 288 264 305 266 306 265 307 266 267 267 268 308 309 268 269 289 310 269 290 289 250 311 270 271 290 270 311 272 312 271 291 313 272 314 291 273 276 314 273 276 292 315 292 293 316 298 257 294 317 295 277 278 317 277 296 318 278 319 296 279 319 279 280 281 320 280 321 281 282 282 283 322 283 284 323 324 284 297 285 325 297 286 325 285 298 326 286 299 294 258 327 299 287 260 301 300 300 327 287 301 261 302 262 303 302 304 303 263 328 304 288 306 305 265 328 288 305 307 306 266 307 267 308 308 268 309 310 309 269 289 329 310 290 329 289 312 311 271 330 290 311 272 313 312 314 313 291 314 276 315 315 292 331 293 332 316 292 316 331 333 298 294 334 295 317 278 318 317 296 335 318 319 335 296 320 319 280 321 320 281 321 282 322 322 283 323 323 284 324 336 324 297 325 336 297 286 326 325 337 326 298 299 333 294 327 338 299 300 301 339 300 339 327 301 302 340 303 341 302 304 342 303 328 343 304 306 344 305 344 328 305 345 306 307 346 307 308 347 308 309 310 348 309 310 329 349 330 329 290 312 350 311 350 330 311 313 351 312 352 313 314 353 314 315 354 315 331 332 355 316 316 356 331 332 357 355 357 358 359 337 298 333 360 334 317 317 318 361 318 335 362 319 363 335 320 363 319 364 320 321 365 321 322 366 322 323 367 323 324 336 368 324 325 369 336 325 326 369 337 370 326 299 338 333 327 371 338 339 301 340 327 339 371 302 341 340 303 342 341 304 343 342 328 372 343 345 344 306 344 372 328 345 307 346 346 308 347 348 347 309 310 349 348 329 373 349 330 373 329 351 350 312 374 330 350 352 351 313 352 314 353 354 353 315 354 331 375 316 355 356 331 356 375 355 357 359 358 376 359 358 377 376 378 337 333 379 334 360 360 317 361 361 318 362 362 335 380 335 363 380 364 363 320 364 321 365 366 365 322 367 366 323 368 367 324 368 336 381 336 369 381 326 370 369 382 370 337 338 378 333 338 371 383 384 339 340 339 384 371 341 385 340 341 342 386 342 343 387 343 372 388 389 344 345 389 372 344 345 346 390 391 346 347 348 392 347 349 393 348 373 394 349 374 373 330 395 350 351 374 350 395 396 351 352 397 352 353 354 398 353 399 354 375 356 355 400 356 401 375 402 355 359 359 376 403 376 377 404 377 405 404 405 406 407 382 337 378 379 360 408 360 361 409 410 361 362 411 362 380 363 412 380 364 412 363 413 364 365 366 414 365 367 415 366 416 367 368 417 368 381 369 418 381 369 370 418 382 419 370 378 338 383 371 420 383 385 384 340 371 384 420 341 386 385 386 342 387 343 388 387 372 421 388 389 345 390 389 421 372 390 346 391 392 391 347 393 392 348 394 393 349 422 394 373 422 373 374 395 351 396 374 395 423 396 352 397 398 397 353 399 398 354 401 399 375 355 402 400 401 356 400 402 359 403 376 424 403 376 404 424 405 407 404 407 406 425 406 426 425 382 378 427 428 379 408 408 360 409 361 410 409 410 362 411 429 411 380 412 429 380 413 412 364 414 413 365 415 414 366 416 415 367 416 368 417 430 417 381 418 430 381 370 419 418 431 419 382 427 378 383 420 432 383 385 433 384 384 433 420 385 386 434 435 386 387 388 436 387 388 421 437 438 389 390 438 421 389 439 390 391 392 440 391 393 441 392 442 393 394 443 394 422 422 374 423 395 396 444 423 395 444 445 396 397 398 446 397 399 447 398 448 399 401 402 449 400 449 401 400 450 402 403 424 450 403 404 451 424 407 451 404 407 425 452 426 453 425 426 454 453 454 455 456 431 382 427 457 428 408 408 409 458 410 459 409 460 410 411 461 411 429 412 462 429 413 462 412 463 413 414 464 414 415 465 415 416 466 416 417 430 467 417 418 468 430 419 468 418 431 469 419 432 427 383 470 432 420 385 434 433 433 470 420 434 386 435 436 435 387 436 388 437 421 471 437 439 438 390 438 471 421 440 439 391 392 441 440 442 441 393 442 394 443 443 422 472 472 422 423 444 396 445 473 423 444 446 445 397 398 447 446 448 447 399 448 401 474 450 449 402 474 401 449 450 424 475 424 451 475 451 407 452 452 425 476 425 453 476 453 454 456 455 477 456 455 478 477 479 431 427 480 428 457 457 408 458 409 459 458 460 459 410 461 460 411 481 461 429 462 481 429 463 462 413 463 414 464 464 415 465 465 416 466 467 466 417 430 482 467 430 468 482 419 469 468 483 469 431 432 479 427 470 484 432 433 434 485 433 485 470 434 435 486 487 435 436 488 436 437 471 489 437 490 438 439 490 471 438 491 439 440 441 492 440 493 441 442 442 443 494 443 472 495 472 423 473 496 444 445 496 473 444 446 497 445 447 498 446 499 447 448 448 474 500 501 449 450 474 449 501 502 450 475 451 503 475 504 451 452 505 452 476 453 506 476 453 456 506 456 477 507 477 478 508 478 509 508 483 431 479 480 457 510 457 458 511 459 512 458 460 513 459 461 514 460 481 515 461 516 481 462 516 462 463 463 464 517 464 465 518 465 466 519 466 467 520 482 521 467 482 468 522 468 469 522 483 523 469 432 484 479 470 524 484 485 434 486 470 485 524 486 435 487 487 436 488 489 488 437 471 525 489 491 490 439 490 525 471 492 491 440 493 492 441 493 442 494 494 443 495 495 472 526 526 472 473 497 496 445 496 527 473 498 497 446 499 498 447 499 448 500 474 528 500 501 450 502 474 501 528 503 502 475 504 503 451 505 504 452 505 476 529 476 506 529 506 456 507 507 477 530 531 477 508 509 532 508 509 533 532 533 534 535 536 483 479 537 480 510 510 457 511 458 512 511 459 513 512 460 514 513 461 515 514 481 538 515 516 538 481 516 463 517 464 518 517 518 465 519 519 466 520 467 521 520 482 539 521 482 522 539 469 523 522 540 523 483 484 536 479 484 524 541 542 485 486 524 485 542 486 487 543 544 487 488 489 545 488 489 525 546 491 547 490 490 547 525 492 548 491 549 492 493 550 493 494 551 494 495 552 495 526 527 526 473 497 553 496 496 553 527 498 554 497 555 498 499 499 500 556 500 528 557 558 501 502 528 501 558 503 559 502 504 560 503 561 504 505 562 505 529 506 563 529 563 506 507 477 531 530 564 507 530 532 531 508 532 533 535 534 565 535 534 566 565 540 483 536 537 510 567 568 510 511 512 568 511 512 513 569 513 514 570 514 515 571 515 538 572 573 538 516 573 516 517 517 518 574 575 518 519 576 519 520 521 577 520 539 578 521 522 579 539 523 579 522 540 580 523 536 484 541 524 581 541 542 486 543 581 524 542 487 544 543 545 544 488 489 546 545 546 525 582 491 548 547 525 547 582 549 548 492 549 493 550 551 550 494 552 551 495 583 552 526 527 583 526 497 554 553 527 553 584 555 554 498 555 499 556 556 500 557 528 585 557 559 558 502 528 558 585 503 560 559 561 560 504 561 505 562 563 562 529 564 563 507 531 586 530 586 564 530 532 587 531 588 532 535 535 565 589 565 566 590 566 591 590 540 536 592 593 537 567 510 568 567 568 512 569 513 570 569 514 571 570 571 515 572 538 594 572 573 594 538 573 517 574 574 518 575 576 575 519 577 576 520 521 578 577 595 578 539 579 595 539 523 580 579 596 580 540 592 536 541 581 597 541 598 542 543 598 581 542 544 599 543 545 600 544 545 546 601 602 546 582 547 548 603 547 603 582 549 604 548 605 549 550 551 606 550 552 607 551 608 552 583 527 584 583 553 554 609 584 553 609 555 610 554 611 555 556 612 556 557 585 613 557 614 558 559 585 558 614 560 615 559 561 616 560 617 561 562 618 562 563 564 619 563 587 586 531 586 620 564 587 532 588 588 535 589 565 621 589 622 565 590 591 623 590 624 625 626 591 624 627 596 540 592 628 593 567 568 629 567 630 568 569 570 631 569 571 632 570 633 571 572 594 634 572 635 594 573 635 573 574 636 574 575 576 637 575 638 576 577 578 639 577 640 578 595 595 579 641 579 580 641 596 642 580 597 592 541 581 643 597 599 598 543 598 643 581 544 600 599 545 601 600 601 546 602 644 602 582 548 604 603 603 644 582 605 604 549 606 605 550 551 607 606 608 607 552 645 608 583 584 645 583 554 610 609 584 609 646 611 610 555 612 611 556 613 612 557 613 585 647 615 614 559 647 585 614 560 616 615 617 616 561 618 617 562 619 618 563 564 620 619 648 586 587 648 620 586 587 588 649 650 588 589 565 622 621 621 650 589 623 622 590 623 591 627 624 626 627 626 625 651 625 652 651 653 596 592 654 593 628 629 628 567 630 629 568 631 630 569 632 631 570 632 571 633 634 633 572 594 655 634 635 655 594 636 635 574 637 636 575 638 637 576 639 638 577 640 639 578 640 595 656 595 641 656 580 642 641 657 642 596 597 653 592 597 643 658 659 598 599 659 643 598 600 660 599 600 601 661 601 602 662 602 644 663 603 604 664 603 664 644 605 665 604 666 605 606 607 667 606 668 607 608 669 608 645 584 646 645 610 670 609 609 670 646 611 671 610 672 611 612 613 673 612 674 613 647 615 675 614 675 647 614 615 616 676 617 677 616 678 617 618 679 618 619 620 680 619 648 587 649 681 620 648 649 588 650 622 682 621 682 650 621 623 683 622 684 623 627 626 684 627 626 651 685 652 686 651 652 687 686 657 596 653 654 628 688 689 628 629 630 689 629 631 690 630 691 631 632 632 633 692 693 633 634 655 694 634 695 655 635 695 635 636 696 636 637 697 637 638 698 638 639 699 639 640 700 640 656 641 701 656 642 701 641 657 702 642 653 597 658 643 703 658 660 659 599 659 703 643 600 661 660 661 601 662 662 602 663 644 704 663 604 665 664 644 664 704 666 665 605 667 666 606 668 667 607 668 608 669 705 669 645 646 705 645 610 671 670 646 670 706 672 671 611 673 672 612 674 673 613 707 674 647 615 676 675 675 707 647 616 677 676 678 677 617 678 618 679 680 679 619 681 680 620 648 649 708 681 648 708 649 650 709 683 682 622 650 682 709 684 683 623 684 626 685 685 651 710 651 686 710 686 687 711 657 653 712 713 654 688 628 714 688 628 689 714 630 690 689 691 690 631 691 632 692 633 693 692 694 693 634 715 694 655 715 655 695 695 636 696 696 637 697 697 638 698 698 639 699 699 640 700 700 656 716 656 701 716 642 702 701 717 702 657 712 653 658 703 718 658 660 719 659 659 719 703 660 661 720 721 661 662 722 662 663 704 723 663 665 724 664 664 724 704 666 725 665 667 726 666 668 727 667 728 668 669 729 669 705 646 706 705 670 671 730 706 670 730 672 731 671 732 672 673 733 673 674 734 674 707 676 735 675 735 707 675 676 677 736 678 737 677 738 678 679 680 739 679 740 680 681 649 741 708 742 681 708 741 649 709 683 743 682 682 744 709 745 683 684 746 684 685 747 685 710 710 686 748 687 749 711 686 711 748 749 750 751 717 657 712 752 713 688 688 714 753 714 689 754 689 690 755 691 756 690 757 691 692 693 758 692 694 759 693 760 694 715 715 695 761 695 696 761 696 697 762 697 698 763 698 699 764 699 700 765 766 700 716 701 767 716 701 702 767 717 768 702 718 712 658 703 769 718 660 720 719 703 719 769 720 661 721 722 721 662 723 722 663 770 723 704 665 725 724 724 770 704 666 726 725 667 727 726 728 727 668 729 728 669 771 729 705 706 771 705 671 731 730 772 706 730 732 731 672 732 673 733 733 674 734 734 707 773 735 676 736 773 707 735 677 737 736 738 737 678 739 738 679 740 739 680 740 681 742 741 774 708 774 742 708 744 741 709 745 743 683 682 743 744 745 684 746 747 746 685 775 747 710 775 710 748 749 751 711 711 776 748 751 750 777 750 778 777 779 717 712 780 713 752 752 688 753 714 781 753 754 689 755 714 754 781 690 756 755 757 756 691 758 757 692 759 758 693 760 759 694 760 715 782 715 761 782 696 762 761 697 763 762 763 698 764 764 699 765 765 700 766 783 766 716 767 783 716 702 768 767 784 768 717 718 779 712 718 769 785 719 720 786 769 719 786 720 721 787 788 721 722 722 723 789 770 790 723 724 725 791 770 724 791 725 726 792 726 727 793 728 794 727 795 728 729 796 729 771 706 772 771 731 797 730 797 772 730 798 731 732 732 733 799 733 734 800 734 773 801 802 735 736 773 735 802 737 803 736 738 804 737 805 738 739 806 739 740 807 740 742 808 774 741 774 809 742 808 741 744 810 743 745 743 811 744 812 745 746 747 813 746 814 747 775 776 775 748 751 776 711 815 751 777 778 816 777 778 817 816 784 717 779 818 780 752 819 752 753 781 819 753 820 754 755 781 754 821 756 820 755 757 822 756 758 823 757 759 824 758 760 825 759 826 760 782 782 761 827 761 762 827 762 763 828 829 763 764 830 764 765 831 765 766 783 832 766 767 833 783 768 833 767 784 834 768 779 718 785 769 835 785 720 787 786 835 769 786 787 721 788 788 722 789 723 790 789 836 790 770 725 792 791 836 770 791 792 726 793 727 794 793 795 794 728 795 729 796 837 796 771 772 837 771 798 797 731 797 838 772 798 732 799 733 800 799 734 801 800 801 773 839 803 802 736 839 773 802 737 804 803 805 804 738 805 739 806 806 740 807 809 807 742 808 840 774 774 840 809 811 808 744 810 811 743 810 745 812 813 812 746 814 813 747 841 814 775 776 841 775 776 751 842 751 815 842 816 815 777 817 843 816 817 844 843 784 779 845 846 780 818 818 752 819 781 847 819 754 820 821 847 781 821 756 822 820 757 823 822 758 824 823 759 825 824 826 825 760 848 826 782 848 782 827 827 762 828 828 763 829 830 829 764 831 830 765 832 831 766 849 832 783 833 849 783 768 834 833 850 834 784 845 779 785 835 851 785 787 852 786 852 835 786 853 787 788 854 788 789 790 855 789 856 790 836 792 857 791 857 836 791 792 793 858 793 794 859 795 860 794 861 795 796 837 862 796 772 838 837 863 797 798 863 838 797 864 798 799 800 865 799 801 866 800 801 839 867 802 803 868 839 802 868 804 869 803 870 804 805 805 806 871 806 807 872 873 807 809 808 874 840 840 875 809 811 874 808 810 876 811 877 810 812 813 878 812 814 879 813 880 814 841 881 841 776 881 776 842 815 882 842 883 815 816 816 843 884 843 844 885 844 886 885 850 784 845 846 818 887 818 819 888 847 889 819 820 890 821 890 847 821 820 822 891 822 823 892 823 824 893 824 825 894 826 895 825 896 826 848 897 848 827 897 827 828 898 828 829 830 899 829 831 900 830 901 831 832 902 832 849 849 833 903 833 834 903 850 904 834 851 845 785 835 905 851 787 853 852 852 905 835 854 853 788 855 854 789 856 855 790 856 836 906 857 792 858 906 836 857 793 859 858 794 860 859 861 860 795 862 861 796 907 862 837 838 907 837 863 798 864 908 838 863 865 864 799 800 866 865 801 867 866 867 839 909 803 869 868 909 839 868 870 869 804 870 805 871 806 872 871 872 807 873 875 873 809 840 874 910 840 910 875 811 876 874 877 876 810 878 877 812 813 879 878 880 879 814 880 841 911 911 841 881 882 881 842 883 882 815 883 816 884 884 843 912 843 885 912 886 913 885 914 850 845 915 846 887 887 818 888 819 889 888 916 889 847 820 891 890 916 847 890 891 822 892 823 893 892 893 824 894 825 895 894 896 895 826 917 896 848 897 917 848 898 897 828 899 898 829 830 900 899 901 900 831 901 832 902 902 849 918 849 903 918 834 904 903 919 904 850 851 914 845 851 905 920 853 921 852 921 905 852 854 922 853 855 923 854 924 855 856 856 906 925 926 857 858 906 857 926 859 927 858 860 928 859 861 929 860 862 930 861 907 931 862 908 907 838 863 864 932 908 863 932 933 864 865 866 934 865 866 867 935 936 867 909 869 937 868 937 909 868 870 938 869 939 870 871 871 872 940 941 872 873 875 942 873 910 874 943 910 944 875 874 876 943 877 945 876 946 877 878 879 947 878 948 879 880 880 911 949 911 881 950 950 881 882 951 882 883 952 883 884 953 884 912 912 885 954 886 955 913 885 913 954 919 850 914 956 915 887 957 887 888 889 957 888 916 958 889 891 959 890 959 916 890 960 891 892 893 961 892 893 894 962 894 895 963 896 964 895 965 896 917 966 917 897 966 897 898 899 967 898 900 968 899 969 900 901 901 902 970 971 902 918 903 972 918 904 972 903 919 973 904 914 851 920 905 974 920 853 922 921 921 974 905 854 923 922 924 923 855 924 856 925 925 906 975 927 926 858 975 906 926 859 928 927 860 929 928 861 930 929 862 931 930 976 931 907 976 907 908 864 933 932 908 932 977 934 933 865 866 935 934 935 867 936 978 936 909 869 938 937 937 978 909 939 938 870 939 871 940 940 872 941 942 941 873 944 942 875 910 943 979 944 910 979 876 945 943 946 945 877 947 946 878 948 947 879 948 880 949 911 980 949 911 950 980 950 882 951 951 883 952 953 952 884 981 953 912 981 912 954 913 955 982 913 983 954 955 984 982 919 914 985 986 915 956 957 956 887 889 958 957 987 958 916 891 960 959 987 916 959 961 960 892 961 893 962 894 963 962 895 964 963 965 964 896 965 917 988 988 917 966 967 966 898 968 967 899 969 968 900 969 901 970 970 902 971 989 971 918 972 989 918 904 973 972 990 973 919 985 914 920 974 991 920 921 922 992 921 992 974 922 923 993 924 994 923 995 924 925 996 925 975 927 997 926 997 975 926 928 998 927 928 929 999 929 930 1000 930 931 1001 976 1002 931 976 908 977 932 933 1003 977 932 1003 934 1004 933 934 935 1005 935 936 1006 936 978 1007 937 938 1008 937 1008 978 939 1009 938 1010 939 940 1011 940 941 942 1012 941 1013 942 944 943 1014 979 1015 944 979 945 1014 943 1016 945 946 1017 946 947 1018 947 948 1019 948 949 980 1020 949 980 950 1021 1021 950 951 1022 951 952 953 1023 952 981 1024 953 983 981 954 913 982 1025 983 913 1025 984 1026 982 984 1027 1026 1028 1029 1030 1031 1028 1032 1027 1031 1033 990 919 985 986 956 1034 956 957 1035 958 1036 957 987 1037 958 960 1038 959 1038 987 959 1039 960 961 1040 961 962 963 1041 962 964 1042 963 1043 964 965 965 988 1044 988 966 1045 1045 966 967 1046 967 968 1047 968 969 1048 969 970 970 971 1049 989 1050 971 972 1051 989 972 973 1051 990 1052 973 991 985 920 974 1053 991 992 922 993 974 992 1053 923 994 993 995 994 924 996 995 925 1054 996 975 998 997 927 997 1054 975 928 999 998 999 929 1000 930 1001 1000 931 1002 1001 1055 1002 976 1055 976 977 933 1004 1003 1056 977 1003 934 1005 1004 1005 935 1006 1006 936 1007 978 1057 1007 938 1009 1008 1008 1057 978 1010 1009 939 1011 1010 940 1012 1011 941 1013 1012 942 1015 1013 944 1014 1058 979 1058 1015 979 1016 1014 945 1016 946 1017 1017 947 1018 1018 948 1019 1020 1019 949 1020 980 1059 980 1021 1059 1021 951 1022 1023 1022 952 1024 1023 953 1060 1024 981 1060 981 983 982 1061 1025 1062 983 1025 982 1026 1061 1026 1027 1033 1028 1030 1032 1030 1029 1063 1033 1031 1032 1029 1064 1063 1065 990 985 1066 986 1034 1034 956 1035 957 1036 1035 958 1037 1036 987 1067 1037 1039 1038 960 1038 1067 987 1039 961 1040 1041 1040 962 963 1042 1041 1043 1042 964 1043 965 1044 988 1068 1044 988 1045 1068 1045 967 1046 1046 968 1047 1047 969 1048 1048 970 1049 971 1050 1049 989 1069 1050 989 1051 1069 973 1052 1051 1070 1052 990 991 1065 985 991 1053 1071 1072 992 993 1053 992 1072 994 1073 993 995 1074 994 1075 995 996 1054 1076 996 998 1077 997 997 1077 1054 998 999 1078 1079 999 1000 1001 1080 1000 1002 1081 1001 1055 1082 1002 1056 1055 977 1004 1083 1003 1083 1056 1003 1004 1005 1084 1085 1005 1006 1086 1006 1007 1057 1087 1007 1009 1088 1008 1008 1088 1057 1089 1009 1010 1090 1010 1011 1091 1011 1012 1092 1012 1013 1093 1013 1015 1094 1058 1014 1095 1015 1058 1094 1014 1016 1016 1017 1096 1017 1018 1097 1018 1019 1098 1099 1019 1020 1100 1020 1059 1059 1021 1101 1101 1021 1022 1023 1102 1022 1024 1103 1023 1060 1104 1024 1060 983 1062 1061 1062 1025 1061 1026 1105 1105 1026 1033 1032 1030 1106 1030 1063 1107 1108 1033 1032 1063 1064 1109 1064 1110 1109 1110 1111 1112 1070 990 1065 1113 1066 1034 1034 1035 1114 1036 1115 1035 1036 1037 1116 1037 1067 1117 1118 1038 1039 1118 1067 1038 1119 1039 1040 1041 1120 1040 1041 1042 1121 1043 1122 1042 1123 1043 1044 1044 1068 1124 1045 1125 1068 1045 1046 1125 1046 1047 1126 1047 1048 1127 1128 1048 1049 1050 1129 1049 1069 1130 1050 1051 1131 1069 1052 1131 1051 1070 1132 1052 1065 991 1071 1053 1133 1071 1073 1072 993 1053 1072 1133 994 1074 1073 1075 1074 995 1076 1075 996 1134 1076 1054 998 1078 1077 1077 1134 1054 1078 999 1079 1080 1079 1000 1001 1081 1080 1002 1082 1081 1135 1082 1055 1135 1055 1056 1004 1084 1083 1056 1083 1136 1084 1005 1085 1085 1006 1086 1087 1086 1007 1137 1087 1057 1089 1088 1009 1088 1137 1057 1089 1010 1090 1090 1011 1091 1091 1012 1092 1092 1013 1093 1093 1015 1095 1138 1058 1094 1095 1058 1138 1094 1016 1096 1017 1097 1096 1018 1098 1097 1098 1019 1099 1099 1020 1100 1139 1100 1059 1139 1059 1101 1102 1101 1022 1023 1103 1102 1024 1104 1103 1140 1104 1060 1140 1060 1062 1062 1061 1141 1061 1105 1141 1105 1033 1108 1106 1030 1107 1108 1032 1106 1107 1063 1142 1063 1109 1142 1110 1112 1109 1112 1111 1143 1111 1144 1143 1070 1065 1145 1146 1066 1113 1113 1034 1114 1035 1115 1114 1036 1116 1115 1116 1037 1117 1067 1147 1117 1118 1039 1119 1118 1147 1067 1120 1119 1040 1120 1041 1121 1042 1122 1121 1123 1122 1043 1123 1044 1124 1124 1068 1148 1068 1125 1148 1125 1046 1126 1047 1127 1126 1127 1048 1128 1129 1128 1049 1050 1130 1129 1149 1130 1069 1131 1149 1069 1052 1132 1131 1150 1132 1070 1145 1065 1071 1133 1151 1071 1072 1073 1152 1133 1072 1152 1073 1074 1153 1075 1154 1074 1076 1155 1075 1134 1156 1076 1077 1078 1157 1077 1157 1134 1078 1079 1158 1079 1080 1159 1081 1160 1080 1081 1082 1161 1135 1162 1082 1135 1056 1136 1083 1084 1163 1136 1083 1163 1084 1085 1164 1165 1085 1086 1087 1166 1086 1137 1167 1087 1168 1088 1089 1168 1137 1088 1089 1090 1169 1090 1091 1170 1091 1092 1171 1092 1093 1172 1093 1095 1173 1138 1094 1174 1095 1138 1175 1094 1096 1174 1096 1097 1176 1097 1098 1177 1098 1099 1178 1179 1099 1100 1139 1180 1100 1181 1139 1101 1102 1181 1101 1102 1103 1182 1103 1104 1183 1140 1184 1104 1185 1140 1062 1185 1062 1141 1105 1186 1141 1105 1108 1186 1187 1106 1107 1188 1108 1106 1189 1107 1142 1109 1190 1142 1109 1112 1190 1112 1143 1191 1144 1192 1143 1150 1070 1145 1146 1113 1193 1194 1113 1114 1115 1194 1114 1115 1116 1195 1116 1117 1196 1147 1197 1117 1198 1118 1119 1198 1147 1118 1120 1199 1119 1200 1120 1121 1122 1201 1121 1202 1122 1123 1203 1123 1124 1204 1124 1148 1148 1125 1205 1125 1126 1205 1126 1127 1206 1207 1127 1128 1208 1128 1129 1130 1209 1129 1210 1130 1149 1149 1131 1211 1131 1132 1211 1150 1212 1132 1151 1145 1071 1133 1213 1151 1152 1073 1153 1213 1133 1152 1074 1154 1153 1075 1155 1154 1076 1156 1155 1134 1214 1156 1157 1078 1158 1134 1157 1214 1158 1079 1159 1080 1160 1159 1160 1081 1161 1082 1162 1161 1215 1162 1135 1215 1135 1136 1163 1084 1164 1216 1136 1163 1164 1085 1165 1166 1165 1086 1087 1167 1166 1217 1167 1137 1168 1089 1169 1217 1137 1168 1090 1170 1169 1091 1171 1170 1171 1092 1172 1172 1093 1173 1095 1175 1173 1218 1138 1174 1175 1138 1218 1174 1096 1176 1176 1097 1177 1177 1098 1178 1178 1099 1179 1180 1179 1100 1219 1180 1139 1219 1139 1181 1102 1182 1181 1182 1103 1183 1104 1184 1183 1220 1184 1140 1220 1140 1185 1185 1141 1221 1141 1186 1221 1186 1108 1222 1187 1188 1106 1189 1187 1107 1108 1188 1222 1190 1189 1142 1190 1112 1191 1191 1143 1223 1144 1224 1192 1143 1192 1223 1225 1150 1145 1226 1146 1193 1113 1227 1193 1227 1113 1194 1194 1115 1195 1116 1196 1195 1117 1197 1196 1147 1228 1197 1199 1198 1119 1198 1228 1147 1200 1199 1120 1201 1200 1121 1202 1201 1122 1202 1123 1203 1204 1203 1124 1229 1204 1148 1229 1148 1205 1126 1206 1205 1206 1127 1207 1208 1207 1128 1209 1208 1129 1210 1209 1130 1210 1149 1230 1149 1211 1230 1132 1212 1211 1231 1212 1150 1151 1225 1145 1151 1213 1232 1233 1152 1153 1233 1213 1152 1154 1234 1153 1154 1155 1235 1155 1156 1236 1156 1214 1237 1238 1157 1158 1214 1157 1238 1239 1158 1159 1160 1240 1159 1241 1160 1161 1162 1242 1161 1215 1243 1162 1216 1215 1136 1244 1163 1164 1244 1216 1163 1245 1164 1165 1166 1246 1165 1167 1247 1166 1248 1167 1217 1249 1168 1169 1217 1168 1249 1170 1250 1169 1170 1171 1251 1252 1171 1172 1253 1172 1173 1175 1254 1173 1255 1218 1174 1175 1218 1256 1255 1174 1176 1257 1176 1177 1258 1177 1178 1259 1178 1179 1180 1260 1179 1219 1261 1180 1262 1219 1181 1182 1262 1181 1263 1182 1183 1184 1264 1183 1220 1265 1184 1220 1185 1266 1266 1185 1221 1186 1267 1221 1267 1186 1222 1187 1268 1188 1269 1187 1189 1188 1270 1222 1189 1190 1271 1272 1190 1191 1273 1191 1223 1192 1224 1274 1192 1275 1223 1224 1276 1274 1231 1150 1225 1226 1193 1277 1227 1278 1193 1279 1227 1194 1279 1194 1195 1196 1280 1195 1196 1197 1281 1197 1228 1282 1199 1283 1198 1198 1283 1228 1200 1284 1199 1201 1285 1200 1202 1286 1201 1287 1202 1203 1204 1288 1203 1229 1289 1204 1290 1229 1205 1206 1290 1205 1291 1206 1207 1208 1292 1207 1209 1293 1208 1294 1209 1210 1295 1210 1230 1211 1296 1230 1212 1296 1211 1231 1297 1212 1225 1151 1232 1213 1298 1232 1234 1233 1153 1233 1298 1213 1154 1235 1234 1235 1155 1236 1156 1237 1236 1237 1214 1299 1239 1238 1158 1299 1214 1238 1240 1239 1159 1241 1240 1160 1242 1241 1161 1162 1243 1242 1215 1300 1243 1216 1300 1215 1245 1244 1164 1301 1216 1244 1246 1245 1165 1166 1247 1246 1248 1247 1167 1248 1217 1302 1250 1249 1169 1217 1249 1302 1250 1170 1251 1171 1252 1251 1253 1252 1172 1254 1253 1173 1175 1256 1254 1303 1218 1255 1256 1218 1303 1255 1176 1257 1258 1257 1177 1259 1258 1178 1260 1259 1179 1180 1261 1260 1304 1261 1219 1304 1219 1262 1263 1262 1182 1264 1263 1183 1184 1265 1264 1305 1265 1220 1305 1220 1266 1267 1266 1221 1270 1267 1222 1269 1268 1187 1188 1268 1270 1269 1189 1271 1190 1272 1271 1273 1272 1191 1273 1223 1306 1192 1274 1275 1223 1275 1306 1274 1276 1307 1276 1308 1307 1231 1225 1309 1310 1226 1277 1193 1278 1277 1227 1311 1278 1279 1311 1227 1280 1279 1195 1280 1196 1281 1197 1282 1281 1228 1312 1282 1199 1284 1283 1228 1283 1312 1200 1285 1284 1201 1286 1285 1287 1286 1202 1288 1287 1203 1204 1289 1288 1313 1289 1229 1313 1229 1290 1290 1206 1291 1292 1291 1207 1208 1293 1292 1294 1293 1209 1294 1210 1295 1314 1295 1230 1296 1314 1230 1212 1297 1296 1315 1297 1231 1309 1225 1232 1298 1316 1232 1234 1317 1233 1233 1317 1298 1234 1235 1318 1235 1236 1319 1237 1320 1236 1237 1299 1321 1239 1322 1238 1322 1299 1238 1323 1239 1240 1241 1324 1240 1242 1325 1241 1242 1243 1326 1243 1300 1327 1301 1300 1216 1245 1328 1244 1328 1301 1244 1329 1245 1246 1247 1330 1246 1331 1247 1248 1248 1302 1332 1333 1249 1250 1249 1333 1302 1334 1250 1251 1252 1335 1251 1253 1336 1252 1337 1253 1254 1256 1338 1254 1303 1255 1339 1256 1303 1340 1339 1255 1257 1258 1341 1257 1259 1342 1258 1343 1259 1260 1261 1344 1260 1345 1261 1304 1304 1262 1346 1346 1262 1263 1263 1264 1347 1265 1348 1264 1305 1349 1265 1350 1305 1266 1267 1350 1266 1351 1267 1270 1269 1352 1268 1268 1353 1270 1354 1269 1271 1272 1355 1271 1356 1272 1273 1357 1273 1306 1275 1274 1358 1275 1359 1306 1360 1274 1307 1308 1361 1307 1315 1231 1309 1362 1310 1277 1278 1362 1277 1278 1311 1363 1364 1311 1279 1364 1279 1280 1365 1280 1281 1282 1366 1281 1282 1312 1367 1283 1284 1368 1312 1283 1368 1284 1285 1369 1285 1286 1370 1287 1371 1286 1372 1287 1288 1289 1373 1288 1374 1289 1313 1313 1290 1375 1375 1290 1291 1292 1376 1291 1293 1377 1292 1378 1293 1294 1379 1294 1295 1314 1380 1295 1296 1381 1314 1296 1297 1381 1315 1382 1297 1316 1309 1232 1298 1383 1316 1234 1318 1317 1298 1317 1383 1318 1235 1319 1236 1320 1319 1237 1321 1320 1321 1299 1384 1323 1322 1239 1384 1299 1322 1324 1323 1240 1241 1325 1324 1242 1326 1325 1326 1243 1327 1300 1385 1327 1301 1385 1300 1329 1328 1245 1328 1386 1301 1330 1329 1246 1331 1330 1247 1331 1248 1332 1302 1387 1332 1334 1333 1250 1333 1387 1302 1335 1334 1251 1252 1336 1335 1337 1336 1253 1338 1337 1254 1256 1340 1338 1388 1303 1339 1340 1303 1388 1341 1339 1257 1258 1342 1341 1343 1342 1259 1344 1343 1260 1345 1344 1261 1345 1304 1389 1304 1346 1389 1346 1263 1347 1264 1348 1347 1265 1349 1348 1305 1390 1349 1350 1390 1305 1351 1350 1267 1353 1351 1270 1354 1352 1269 1268 1352 1353 1355 1354 1271 1356 1355 1272 1356 1273 1357 1359 1357 1306 1274 1360 1358 1359 1275 1358 1360 1307 1391 1308 1392 1361 1307 1361 1391 1393 1315 1309 1394 1310 1362 1362 1278 1363 1311 1395 1363 1364 1395 1311 1364 1280 1365 1366 1365 1281 1282 1367 1366 1312 1396 1367 1284 1369 1368 1396 1312 1368 1369 1285 1370 1286 1371 1370 1372 1371 1287 1373 1372 1288 1374 1373 1289 1374 1313 1397 1397 1313 1375 1376 1375 1291 1377 1376 1292 1378 1377 1293 1378 1294 1379 1380 1379 1295 1314 1398 1380 1314 1381 1398 1297 1382 1381 1399 1382 1315 1316 1393 1309 1316 1383 1400 1317 1318 1401 1317 1401 1383 1402 1318 1319 1320 1403 1319 1320 1321 1404 1321 1384 1405 1406 1322 1323 1384 1322 1406 1323 1324 1407 1324 1325 1408 1325 1326 1409 1410 1326 1327 1385 1411 1327 1301 1386 1385 1329 1412 1328 1328 1412 1386 1330 1413 1329 1331 1414 1330 1415 1331 1332 1332 1387 1416 1334 1417 1333 1333 1417 1387 1418 1334 1335 1336 1419 1335 1337 1420 1336 1338 1421 1337 1338 1340 1422 1423 1388 1339 1340 1388 1424 1341 1423 1339 1341 1342 1425 1343 1426 1342 1344 1427 1343 1345 1428 1344 1429 1345 1389 1389 1346 1430 1430 1346 1347 1348 1431 1347 1348 1349 1432 1349 1390 1433 1434 1390 1350 1434 1350 1351 1435 1351 1353 1436 1352 1354 1352 1437 1353 1438 1354 1355 1439 1355 1356 1440 1356 1357 1359 1441 1357 1360 1442 1358 1442 1359 1358 1443 1360 1391 1361 1392 1444 1361 1445 1391 1392 1446 1444 1447 1448 1449 1446 1447 1450 1399 1315 1393 1394 1362 1451 1362 1363 1452 1395 1453 1363 1454 1395 1364 1454 1364 1365 1366 1455 1365 1366 1367 1456 1367 1396 1457 1369 1458 1368 1458 1396 1368 1459 1369 1370 1370 1371 1460 1372 1461 1371 1462 1372 1373 1463 1373 1374 1464 1374 1397 1465 1397 1375 1376 1465 1375 1377 1466 1376 1467 1377 1378 1378 1379 1468 1379 1380 1469 1398 1470 1380 1398 1381 1471 1381 1382 1471 1399 1472 1382 1393 1316 1400 1383 1473 1400 1401 1318 1402 1401 1473 1383 1403 1402 1319 1403 1320 1404 1404 1321 1405 1384 1474 1405 1406 1323 1407 1384 1406 1474 1407 1324 1408 1325 1409 1408 1326 1410 1409 1411 1410 1327 1411 1385 1475 1385 1386 1475 1329 1413 1412 1386 1412 1476 1330 1414 1413 1415 1414 1331 1415 1332 1416 1416 1387 1477 1418 1417 1334 1387 1417 1477 1419 1418 1335 1336 1420 1419 1337 1421 1420 1338 1422 1421 1422 1340 1424 1388 1423 1478 1424 1388 1478 1341 1425 1423 1342 1426 1425 1343 1427 1426 1344 1428 1427 1429 1428 1345 1429 1389 1479 1389 1430 1479 1431 1430 1347 1348 1432 1431 1432 1349 1433 1390 1480 1433 1434 1480 1390 1434 1351 1435 1437 1435 1353 1436 1437 1352 1436 1354 1438 1438 1355 1439 1439 1356 1440 1441 1440 1357 1359 1481 1441 1443 1442 1360 1442 1481 1359 1445 1443 1391 1361 1444 1445 1446 1450 1444 1450 1447 1449 1448 1482 1449 1448 1483 1482 1399 1393 1484 1485 1394 1451 1362 1452 1451 1363 1453 1452 1395 1486 1453 1454 1486 1395 1455 1454 1365 1455 1366 1456 1367 1457 1456 1396 1487 1457 1458 1369 1459 1458 1487 1396 1459 1370 1460 1371 1461 1460 1462 1461 1372 1462 1373 1463 1463 1374 1464 1488 1464 1397 1465 1488 1397 1376 1466 1465 1467 1466 1377 1467 1378 1468 1468 1379 1469 1380 1470 1469 1398 1489 1470 1398 1471 1489 1382 1472 1471 1490 1472 1399 1484 1393 1400 1473 1491 1400 1401 1402 1492 1401 1492 1473 1493 1402 1403 1494 1403 1404 1495 1404 1405 1405 1474 1496 1497 1406 1407 1474 1406 1497 1498 1407 1408 1409 1499 1408 1410 1500 1409 1501 1410 1411 1502 1411 1475 1386 1476 1475 1412 1413 1503 1476 1412 1503 1413 1414 1504 1415 1505 1414 1506 1415 1416 1507 1416 1477 1418 1508 1417 1417 1508 1477 1419 1509 1418 1419 1420 1510 1420 1421 1511 1421 1422 1512 1513 1422 1424 1423 1514 1478 1515 1424 1478 1425 1514 1423 1426 1516 1425 1426 1427 1517 1427 1428 1518 1429 1519 1428 1520 1429 1479 1479 1430 1521 1521 1430 1431 1432 1522 1431 1523 1432 1433 1480 1524 1433 1525 1480 1434 1525 1434 1435 1437 1526 1435 1527 1437 1436 1436 1438 1528 1438 1439 1529 1439 1440 1530 1440 1441 1531 1481 1532 1441 1533 1442 1443 1533 1481 1442 1534 1443 1445 1444 1535 1445 1444 1450 1535 1450 1449 1536 1449 1482 1537 1482 1483 1538 1483 1539 1538 1539 1540 1541 1490 1399 1484 1485 1451 1542 1452 1543 1451 1453 1544 1452 1453 1486 1545 1454 1546 1486 1455 1546 1454 1547 1455 1456 1457 1548 1456 1457 1487 1549 1550 1458 1459 1550 1487 1458 1551 1459 1460 1461 1552 1460 1553 1461 1462 1462 1463 1554 1463 1464 1555 1556 1464 1488 1465 1557 1488 1466 1557 1465 1467 1558 1466 1559 1467 1468 1560 1468 1469 1470 1561 1469 1489 1562 1470 1471 1563 1489 1472 1563 1471 1490 1564 1472 1491 1484 1400 1473 1565 1491 1492 1402 1493 1473 1492 1565 1494 1493 1403 1495 1494 1404 1495 1405 1496 1474 1566 1496 1498 1497 1407 1474 1497 1566 1499 1498 1408 1500 1499 1409 1501 1500 1410 1501 1411 1502 1567 1502 1475 1476 1567 1475 1503 1413 1504 1476 1503 1568 1414 1505 1504 1506 1505 1415 1507 1506 1416 1569 1507 1477 1418 1509 1508 1508 1569 1477 1419 1510 1509 1510 1420 1511 1421 1512 1511 1512 1422 1513 1513 1424 1515 1514 1570 1478 1570 1515 1478 1425 1516 1514 1426 1517 1516 1517 1427 1518 1428 1519 1518 1520 1519 1429 1571 1520 1479 1571 1479 1521 1522 1521 1431 1523 1522 1432 1524 1523 1433 1480 1572 1524 1525 1572 1480 1526 1525 1435 1527 1526 1437 1527 1436 1528 1438 1529 1528 1529 1439 1530 1530 1440 1531 1441 1532 1531 1573 1532 1481 1533 1443 1534 1573 1481 1533 1574 1534 1445 1535 1574 1445 1535 1450 1536 1536 1449 1537 1537 1482 1575 1482 1538 1575 1539 1541 1538 1540 1576 1541 1540 1577 1576 1578 1490 1484 1579 1485 1542 1451 1543 1542 1544 1543 1452 1453 1545 1544 1545 1486 1580 1486 1546 1580 1547 1546 1455 1548 1547 1456 1548 1457 1549 1487 1581 1549 1550 1459 1551 1550 1581 1487 1552 1551 1460 1553 1552 1461 1553 1462 1554 1463 1555 1554 1555 1464 1556 1582 1556 1488 1557 1582 1488 1466 1558 1557 1559 1558 1467 1560 1559 1468 1561 1560 1469 1470 1562 1561 1583 1562 1489 1563 1583 1489 1472 1564 1563 1584 1564 1490 1491 1578 1484 1491 1565 1585 1492 1493 1586 1565 1492 1586 1494 1587 1493 1588 1494 1495 1589 1495 1496 1566 1590 1496 1591 1497 1498 1566 1497 1591 1592 1498 1499 1500 1593 1499 1594 1500 1501 1595 1501 1502 1567 1596 1502 1476 1568 1567 1597 1503 1504 1568 1503 1597 1505 1598 1504 1506 1599 1505 1600 1506 1507 1507 1569 1601 1508 1509 1602 1508 1602 1569 1509 1510 1603 1510 1511 1604 1512 1605 1511 1512 1513 1606 1607 1513 1515 1608 1570 1514 1570 1609 1515 1516 1608 1514 1516 1517 1610 1611 1517 1518 1519 1612 1518 1520 1613 1519 1614 1520 1571 1571 1521 1615 1521 1522 1615 1523 1616 1522 1524 1617 1523 1524 1572 1618 1525 1619 1572 1526 1619 1525 1620 1526 1527 1527 1528 1621 1528 1529 1622 1623 1529 1530 1624 1530 1531 1532 1625 1531 1573 1626 1532 1627 1533 1534 1573 1533 1627 1574 1628 1534 1629 1574 1535 1629 1535 1536 1630 1536 1537 1631 1537 1575 1538 1632 1575 1541 1632 1538 1541 1576 1633 1576 1577 1634 1577 1635 1634 1584 1490 1578 1636 1579 1542 1542 1543 1637 1544 1638 1543 1544 1545 1639 1640 1545 1580 1546 1641 1580 1547 1641 1546 1642 1547 1548 1643 1548 1549 1581 1644 1549 1645 1550 1551 1645 1581 1550 1552 1646 1551 1647 1552 1553 1553 1554 1648 1554 1555 1649 1555 1556 1650 1651 1556 1582 1557 1652 1582 1557 1558 1652 1559 1653 1558 1654 1559 1560 1655 1560 1561 1562 1656 1561 1657 1562 1583 1583 1563 1658 1563 1564 1658 1584 1659 1564 1491 1585 1578 1585 1565 1660 1493 1587 1586 1660 1565 1586 1588 1587 1494 1588 1495 1589 1590 1589 1496 1566 1661 1590 1591 1498 1592 1566 1591 1661 1593 1592 1499 1594 1593 1500 1594 1501 1595 1596 1595 1502 1596 1567 1662 1567 1568 1662 1598 1597 1504 1568 1597 1663 1505 1599 1598 1600 1599 1506 1600 1507 1601 1569 1664 1601 1602 1509 1603 1569 1602 1664 1510 1604 1603 1511 1605 1604 1512 1606 1605 1606 1513 1607 1609 1607 1515 1608 1665 1570 1570 1665 1609 1516 1610 1608 1610 1517 1611 1612 1611 1518 1519 1613 1612 1614 1613 1520 1614 1571 1666 1666 1571 1615 1522 1616 1615 1523 1617 1616 1524 1618 1617 1618 1572 1667 1572 1619 1667 1620 1619 1526 1620 1527 1621 1528 1622 1621 1622 1529 1623 1624 1623 1530 1625 1624 1531 1532 1626 1625 1668 1626 1573 1628 1627 1534 1668 1573 1627 1574 1669 1628 1629 1669 1574 1630 1629 1536 1631 1630 1537 1632 1631 1575 1632 1541 1633 1633 1576 1670 1576 1634 1670 1635 1671 1634 1635 1672 1671 1673 1584 1578 1674 1579 1636 1636 1542 1637 1543 1638 1637 1544 1639 1638 1639 1545 1640 1675 1640 1580 1641 1675 1580 1642 1641 1547 1642 1548 1643 1644 1643 1549 1581 1676 1644 1646 1645 1551 1645 1676 1581 1647 1646 1552 1647 1553 1648 1554 1649 1648 1649 1555 1650 1650 1556 1651 1677 1651 1582 1652 1677 1582 1558 1653 1652 1654 1653 1559 1654 1560 1655 1656 1655 1561 1657 1656 1562 1657 1583 1678 1678 1583 1658 1564 1659 1658 1679 1659 1584 1585 1673 1578 1585 1660 1680 1587 1681 1586 1681 1660 1586 1588 1682 1587 1683 1588 1589 1590 1684 1589 1590 1661 1685 1591 1592 1686 1661 1591 1686 1593 1687 1592 1594 1688 1593 1689 1594 1595 1596 1690 1595 1691 1596 1662 1568 1663 1662 1597 1598 1692 1663 1597 1692 1598 1599 1693 1600 1694 1599 1695 1600 1601 1601 1664 1696 1602 1603 1697 1664 1602 1697 1603 1604 1698 1604 1605 1699 1605 1606 1700 1606 1607 1701 1702 1607 1609 1608 1703 1665 1665 1704 1609 1608 1610 1703 1705 1610 1611 1706 1611 1612 1613 1707 1612 1708 1613 1614 1709 1614 1666 1710 1666 1615 1616 1710 1615 1617 1711 1616 1617 1618 1712 1713 1618 1667 1619 1714 1667 1620 1714 1619 1715 1620 1621 1621 1622 1716 1717 1622 1623 1624 1718 1623 1719 1624 1625 1626 1720 1625 1668 1721 1626 1628 1722 1627 1722 1668 1627 1628 1669 1723 1629 1724 1669 1630 1724 1629 1725 1630 1631 1632 1726 1631 1727 1632 1633 1728 1633 1670 1634 1729 1670 1634 1671 1730 1671 1672 1731 1672 1732 1731 1679 1584 1673 1674 1636 1733 1636 1637 1734 1638 1735 1637 1638 1639 1736 1639 1640 1737 1640 1675 1738 1739 1675 1641 1739 1641 1642 1642 1643 1740 1741 1643 1644 1676 1742 1644 1646 1743 1645 1645 1743 1676 1647 1744 1646 1745 1647 1648 1648 1649 1746 1747 1649 1650 1748 1650 1651 1677 1749 1651 1750 1677 1652 1653 1750 1652 1751 1653 1654 1752 1654 1655 1656 1753 1655 1657 1754 1656 1755 1657 1678 1756 1678 1658 1659 1756 1658 1679 1757 1659 1673 1585 1680 1660 1758 1680 1587 1682 1681 1758 1660 1681 1683 1682 1588 1684 1683 1589 1684 1590 1685 1661 1759 1685 1592 1687 1686 1759 1661 1686 1593 1688 1687 1689 1688 1594 1690 1689 1595 1691 1690 1596 1760 1691 1662 1663 1760 1662 1692 1598 1693 1663 1692 1761 1599 1694 1693 1695 1694 1600 1695 1601 1696 1696 1664 1762 1697 1603 1698 1762 1664 1697 1698 1604 1699 1699 1605 1700 1700 1606 1701 1701 1607 1702 1704 1702 1609 1665 1703 1763 1704 1665 1763 1703 1610 1705 1706 1705 1611 1707 1706 1612 1708 1707 1613 1708 1614 1709 1764 1709 1666 1710 1764 1666 1711 1710 1616 1617 1712 1711 1712 1618 1713 1765 1713 1667 1714 1765 1667 1715 1714 1620 1715 1621 1716 1716 1622 1717 1718 1717 1623 1719 1718 1624 1720 1719 1625 1626 1721 1720 1668 1766 1721 1722 1628 1723 1722 1766 1668 1669 1767 1723 1669 1724 1767 1725 1724 1630 1726 1725 1631 1727 1726 1632 1728 1727 1633 1729 1728 1670 1729 1634 1730 1671 1731 1730 1731 1732 1768 1732 1769 1768 1679 1673 1770 1771 1674 1733 1733 1636 1734 1637 1735 1734 1735 1638 1736 1736 1639 1737 1640 1738 1737 1675 1772 1738 1739 1772 1675 1739 1642 1740 1740 1643 1741 1742 1741 1644 1676 1773 1742 1646 1744 1743 1676 1743 1773 1745 1744 1647 1745 1648 1746 1746 1649 1747 1748 1747 1650 1749 1748 1651 1677 1774 1749 1750 1774 1677 1751 1750 1653 1751 1654 1752 1753 1752 1655 1656 1754 1753 1755 1754 1657 1775 1755 1678 1756 1775 1678 1659 1757 1756 1776 1757 1679 1770 1673 1680 1758 1777 1680 1682 1778 1681 1778 1758 1681 1683 1779 1682 1684 1780 1683 1781 1684 1685 1759 1782 1685 1686 1687 1783 1759 1686 1783 1687 1688 1784 1689 1785 1688 1786 1689 1690 1787 1690 1691 1788 1691 1760 1760 1663 1761 1692 1693 1789 1692 1789 1761 1693 1694 1790 1695 1791 1694 1792 1695 1696 1793 1696 1762 1794 1697 1698 1794 1762 1697 1795 1698 1699 1796 1699 1700 1797 1700 1701 1798 1701 1702 1704 1799 1702 1703 1800 1763 1801 1704 1763 1703 1705 1800 1705 1706 1802 1707 1803 1706 1804 1707 1708 1708 1709 1805 1709 1764 1806 1710 1807 1764 1711 1807 1710 1711 1712 1808 1712 1713 1809 1713 1765 1810 1714 1811 1765 1715 1811 1714 1812 1715 1716 1813 1716 1717 1718 1814 1717 1719 1815 1718 1720 1816 1719 1720 1721 1817 1721 1766 1818 1819 1722 1723 1819 1766 1722 1767 1820 1723 1724 1821 1767 1725 1821 1724 1726 1822 1725 1727 1823 1726 1824 1727 1728 1825 1728 1729 1826 1729 1730 1731 1827 1730 1828 1731 1768 1769 1829 1768 1776 1679 1770 1830 1771 1733 1831 1733 1734 1735 1831 1734 1832 1735 1736 1833 1736 1737 1738 1834 1737 1772 1835 1738 1836 1772 1739 1836 1739 1740 1837 1740 1741 1742 1838 1741 1742 1773 1839 1743 1744 1840 1773 1743 1840 1745 1841 1744 1842 1745 1746 1843 1746 1747 1748 1844 1747 1845 1748 1749 1774 1846 1749 1847 1774 1750 1847 1750 1751 1751 1752 1848 1849 1752 1753 1754 1850 1753 1755 1851 1754 1852 1755 1775 1775 1756 1853 1756 1757 1853 1776 1854 1757 1777 1770 1680 1758 1855 1777 1682 1779 1778 1778 1855 1758 1683 1780 1779 1781 1780 1684 1782 1781 1685 1856 1782 1759 1783 1687 1784 1856 1759 1783 1688 1785 1784 1786 1785 1689 1786 1690 1787 1787 1691 1788 1788 1760 1857 1857 1760 1761 1789 1693 1790 1789 1858 1761 1694 1791 1790 1792 1791 1695 1793 1792 1696 1859 1793 1762 1795 1794 1698 1794 1859 1762 1796 1795 1699 1797 1796 1700 1798 1797 1701 1799 1798 1702 1801 1799 1704 1800 1860 1763 1860 1801 1763 1800 1705 1802 1706 1803 1802 1804 1803 1707 1804 1708 1805 1805 1709 1806 1764 1861 1806 1807 1861 1764 1711 1808 1807 1808 1712 1809 1713 1810 1809 1765 1862 1810 1811 1862 1765 1812 1811 1715 1813 1812 1716 1814 1813 1717 1718 1815 1814 1719 1816 1815 1720 1817 1816 1817 1721 1818 1766 1863 1818 1820 1819 1723 1819 1863 1766 1820 1767 1864 1767 1821 1864 1725 1822 1821 1726 1823 1822 1824 1823 1727 1824 1728 1825 1825 1729 1865 1729 1826 1865 1827 1826 1730 1828 1827 1731 1829 1828 1768 1866 1776 1770 1867 1771 1830 1831 1830 1733 1832 1831 1735 1833 1832 1736 1834 1833 1737 1738 1835 1834 1772 1868 1835 1836 1868 1772 1837 1836 1740 1838 1837 1741 1742 1839 1838 1839 1773 1869 1744 1841 1840 1869 1773 1840 1842 1841 1745 1843 1842 1746 1844 1843 1747 1845 1844 1748 1846 1845 1749 1870 1846 1774 1870 1774 1847 1847 1751 1848 1848 1752 1849 1850 1849 1753 1754 1851 1850 1852 1851 1755 1852 1775 1871 1775 1853 1871 1757 1854 1853 1872 1854 1776 1777 1866 1770 1777 1855 1873 1778 1779 1874 1778 1874 1855 1779 1780 1875 1781 1876 1780 1782 1877 1781 1856 1878 1782 1879 1783 1784 1879 1856 1783 1785 1880 1784 1881 1785 1786 1786 1787 1882 1787 1788 1883 1884 1788 1857 1858 1857 1761 1789 1790 1885 1789 1885 1858 1791 1886 1790 1792 1887 1791 1793 1888 1792 1859 1889 1793 1890 1794 1795 1890 1859 1794 1796 1891 1795 1892 1796 1797 1798 1893 1797 1894 1798 1799 1801 1895 1799 1860 1800 1896 1897 1801 1860 1800 1802 1896 1803 1898 1802 1899 1803 1804 1900 1804 1805 1901 1805 1806 1861 1902 1806 1807 1903 1861 1808 1903 1807 1904 1808 1809 1810 1905 1809 1862 1906 1810 1811 1907 1862 1812 1907 1811 1908 1812 1813 1909 1813 1814 1815 1910 1814 1815 1816 1911 1816 1817 1912 1913 1817 1818 1863 1914 1818 1820 1915 1819 1819 1915 1863 1916 1820 1864 1821 1917 1864 1821 1822 1917 1822 1823 1918 1824 1919 1823 1920 1824 1825 1921 1825 1865 1826 1922 1865 1827 1923 1826 1924 1827 1828 1829 1925 1828 1872 1776 1866 1926 1867 1830 1830 1831 1927 1832 1928 1831 1929 1832 1833 1930 1833 1834 1835 1931 1834 1835 1868 1932 1933 1868 1836 1933 1836 1837 1934 1837 1838 1839 1935 1838 1839 1869 1936 1840 1841 1937 1869 1840 1937 1842 1938 1841 1939 1842 1843 1940 1843 1844 1941 1844 1845 1942 1845 1846 1943 1846 1870 1870 1847 1944 1847 1848 1944 1945 1848 1849 1850 1946 1849 1851 1947 1850 1948 1851 1852 1949 1852 1871 1853 1950 1871 1854 1950 1853 1872 1951 1854 1866 1777 1873 1855 1952 1873 1874 1779 1875 1855 1874 1952 1780 1876 1875 1781 1877 1876 1782 1878 1877 1856 1953 1878 1880 1879 1784 1879 1953 1856 1881 1880 1785 1881 1786 1882 1787 1883 1882 1883 1788 1884 1884 1857 1954 1857 1858 1954 1790 1886 1885 1885 1955 1858 1791 1887 1886 1792 1888 1887 1793 1889 1888 1859 1956 1889 1891 1890 1795 1890 1956 1859 1892 1891 1796 1893 1892 1797 1894 1893 1798 1895 1894 1799 1897 1895 1801 1957 1860 1896 1957 1897 1860 1802 1898 1896 1899 1898 1803 1899 1804 1900 1900 1805 1901 1902 1901 1806 1902 1861 1958 1861 1903 1958 1904 1903 1808 1905 1904 1809 1906 1905 1810 1906 1862 1959 1862 1907 1959 1908 1907 1812 1908 1813 1909 1910 1909 1814 1815 1911 1910 1911 1816 1912 1817 1913 1912 1914 1913 1818 1914 1863 1960 1916 1915 1820 1863 1915 1960 1961 1916 1864 1917 1961 1864 1917 1822 1918 1823 1919 1918 1920 1919 1824 1921 1920 1825 1922 1921 1865 1826 1923 1922 1924 1923 1827 1925 1924 1828 1872 1866 1962 1963 1867 1926 1926 1830 1927 1831 1928 1927 1929 1928 1832 1929 1833 1930 1931 1930 1834 1931 1835 1932 1868 1964 1932 1933 1964 1868 1933 1837 1934 1935 1934 1838 1935 1839 1936 1869 1965 1936 1841 1938 1937 1965 1869 1937 1939 1938 1842 1939 1843 1940 1940 1844 1941 1941 1845 1942 1942 1846 1943 1943 1870 1966 1966 1870 1944 1944 1848 1945 1946 1945 1849 1947 1946 1850 1948 1947 1851 1948 1852 1949 1967 1949 1871 1950 1967 1871 1854 1951 1950 1968 1951 1872 1962 1866 1873 1952 1969 1873 1970 1874 1875 1952 1874 1970 1876 1971 1875 1876 1877 1972 1877 1878 1973 1878 1953 1974 1880 1975 1879 1879 1975 1953 1976 1880 1881 1881 1882 1977 1882 1883 1978 1883 1884 1979 1980 1884 1954 1858 1955 1954 1886 1981 1885 1981 1955 1885 1886 1887 1982 1887 1888 1983 1888 1889 1984 1889 1956 1985 1891 1986 1890 1890 1986 1956 1892 1987 1891 1893 1988 1892 1894 1989 1893 1895 1990 1894 1897 1991 1895 1992 1957 1896 1957 1993 1897 1898 1992 1896 1994 1898 1899 1899 1900 1995 1996 1900 1901 1902 1997 1901 1998 1902 1958 1903 1999 1958 1904 1999 1903 2000 1904 1905 2001 1905 1906 1906 1959 2002 1907 2003 1959 1908 2003 1907 2004 1908 1909 1910 2005 1909 1911 2006 1910 2007 1911 1912 1913 2008 1912 2009 1913 1914 1914 1960 2010 1916 2011 1915 1915 2011 1960 2012 1916 1961 1961 1917 2013 1917 1918 2013 1919 2014 1918 1920 2015 1919 2016 1920 1921 2017 1921 1922 1923 2018 1922 1924 2019 1923 1925 2020 1924 1968 1872 1962 1963 1926 2021 1926 1927 2022 1928 2023 1927 1929 2024 1928 2025 1929 1930 2026 1930 1931 2027 1931 1932 1964 2028 1932 2029 1964 1933 2029 1933 1934 1935 2030 1934 2031 1935 1936 1965 2032 1936 1938 2033 1937 2033 1965 1937 2034 1938 1939 1939 1940 2035 1940 1941 2036 1941 1942 2037 1942 1943 2038 1943 1966 2039 2040 1966 1944 2040 1944 1945 1946 2041 1945 1947 2042 1946 1948 2043 1947 2044 1948 1949 1967 2045 1949 1950 2046 1967 1950 1951 2046 1968 2047 1951 1969 1962 1873 1952 2048 1969 1971 1970 1875 1952 1970 2048 1876 1972 1971 1972 1877 1973 1878 1974 1973 1974 1953 2049 1976 1975 1880 1953 1975 2049 1976 1881 1977 1882 1978 1977 1978 1883 1979 1979 1884 1980 2050 1980 1954 1955 2050 1954 1886 1982 1981 1981 2051 1955 1982 1887 1983 1983 1888 1984 1889 1985 1984 1985 1956 2052 1891 1987 1986 1956 1986 2052 1892 1988 1987 1893 1989 1988 1894 1990 1989 1895 1991 1990 1897 1993 1991 1992 2053 1957 1957 2053 1993 1994 1992 1898 1994 1899 1995 1995 1900 1996 1997 1996 1901 1998 1997 1902 2054 1998 1958 1999 2054 1958 2000 1999 1904 2000 1905 2001 2001 1906 2002 1959 2055 2002 2003 2055 1959 2004 2003 1908 2005 2004 1909 1910 2006 2005 2007 2006 1911 2008 2007 1912 2009 2008 1913 2009 1914 2010 1960 2056 2010 2012 2011 1916 2011 2056 1960 2012 1961 2057 2057 1961 2013 1918 2014 2013 1919 2015 2014 2016 2015 1920 2016 1921 2017 2018 2017 1922 2019 2018 1923 1924 2020 2019 2058 1968 1962 2059 1963 2021 2021 1926 2022 1927 2023 2022 1928 2024 2023 2025 2024 1929 2026 2025 1930 2027 2026 1931 2028 2027 1932 1964 2060 2028 2029 2060 1964 2030 2029 1934 2031 2030 1935 2032 2031 1936 1965 2061 2032 2034 2033 1938 2033 2061 1965 2034 1939 2035 1940 2036 2035 2036 1941 2037 1942 2038 2037 1943 2039 2038 2039 1966 2062 2062 1966 2040 2041 2040 1945 1946 2042 2041 1947 2043 2042 2044 2043 1948 2045 2044 1949 1967 2063 2045 1967 2046 2063 1951 2047 2046 2064 2047 1968 1969 2058 1962 1969 2048 2065 1971 2066 1970 1970 2066 2048 1971 1972 2067 2068 1972 1973 1973 1974 2069 1974 2049 2070 1976 2071 1975 1975 2071 2049 2072 1976 1977 1977 1978 2073 2074 1978 1979 2075 1979 1980 2050 2076 1980 1955 2051 2050 1981 1982 2077 1981 2077 2051 2078 1982 1983 2079 1983 1984 1985 2080 1984 2081 1985 2052 1986 1987 2082 1986 2082 2052 1987 1988 2083 1988 1989 2084 1989 1990 2085 1990 1991 2086 1991 1993 2087 1992 2088 2053 1993 2053 2089 1994 2088 1992 2090 1994 1995 2091 1995 1996 1997 2092 1996 1998 2093 1997 2054 2094 1998 2095 2054 1999 2095 1999 2000 2000 2001 2096 2097 2001 2002 2055 2098 2002 2003 2099 2055 2004 2099 2003 2100 2004 2005 2006 2101 2005 2102 2006 2007 2103 2007 2008 2104 2008 2009 2105 2009 2010 2056 2106 2010 2012 2107 2011 2011 2107 2056 2108 2012 2057 2109 2057 2013 2014 2109 2013 2014 2015 2110 2016 2111 2015 2112 2016 2017 2018 2113 2017 2114 2018 2019 2020 2115 2019 2064 1968 2058 2059 2021 2116 2117 2021 2022 2023 2118 2022 2023 2024 2119 2025 2120 2024 2121 2025 2026 2122 2026 2027 2123 2027 2028 2060 2124 2028 2125 2060 2029 2125 2029 2030 2031 2126 2030 2127 2031 2032 2061 2128 2032 2129 2033 2034 2129 2061 2033 2130 2034 2035 2035 2036 2131 2036 2037 2132 2037 2038 2133 2039 2134 2038 2039 2062 2135 2062 2040 2136 2136 2040 2041 2042 2137 2041 2043 2138 2042 2139 2043 2044 2140 2044 2045 2063 2141 2045 2063 2046 2142 2046 2047 2142 2064 2143 2047 1969 2065 2058 2065 2048 2144 1971 2067 2066 2048 2066 2144 2067 1972 2068 2068 1973 2069 1974 2070 2069 2070 2049 2145 2072 2071 1976 2049 2071 2145 2072 1977 2073 2073 1978 2074 2075 2074 1979 2076 2075 1980 2050 2146 2076 2051 2146 2050 2077 1982 2078 2051 2077 2147 2079 2078 1983 2080 2079 1984 1985 2081 2080 2081 2052 2148 2082 1987 2083 2052 2082 2148 1988 2084 2083 2084 1989 2085 1990 2086 2085 2086 1991 2087 1993 2089 2087 2053 2088 2149 2089 2053 2149 2090 2088 1994 2091 2090 1995 2092 2091 1996 1997 2093 2092 1998 2094 2093 2054 2150 2094 2095 2150 2054 2095 2000 2096 2096 2001 2097 2098 2097 2002 2151 2098 2055 2099 2151 2055 2100 2099 2004 2101 2100 2005 2102 2101 2006 2102 2007 2103 2103 2008 2104 2104 2009 2105 2106 2105 2010 2056 2152 2106 2108 2107 2012 2056 2107 2152 2153 2108 2057 2109 2153 2057 2014 2110 2109 2015 2111 2110 2112 2111 2016 2113 2112 2017 2114 2113 2018 2115 2114 2019 2154 2064 2058 2155 2059 2116 2021 2117 2116 2118 2117 2022 2118 2023 2119 2024 2120 2119 2121 2120 2025 2121 2026 2122 2122 2027 2123 2124 2123 2028 2060 2156 2124 2125 2156 2060 2126 2125 2030 2127 2126 2031 2128 2127 2032 2157 2128 2061 2129 2034 2130 2157 2061 2129 2130 2035 2131 2131 2036 2132 2037 2133 2132 2038 2134 2133 2039 2135 2134 2135 2062 2158 2158 2062 2136 2137 2136 2041 2042 2138 2137 2139 2138 2043 2139 2044 2140 2141 2140 2045 2063 2159 2141 2159 2063 2142 2047 2143 2142 2160 2143 2064 2065 2154 2058 2065 2144 2161 2066 2067 2162 2144 2066 2162 2067 2068 2163 2164 2068 2069 2070 2165 2069 2166 2070 2145 2072 2167 2071 2071 2167 2145 2168 2072 2073 2169 2073 2074 2075 2170 2074 2171 2075 2076 2146 2172 2076 2051 2147 2146 2077 2078 2173 2147 2077 2173 2174 2078 2079 2175 2079 2080 2081 2176 2080 2177 2081 2148 2082 2083 2178 2148 2082 2178 2084 2179 2083 2084 2085 2180 2086 2181 2085 2182 2086 2087 2087 2089 2183 2088 2184 2149 2089 2149 2185 2090 2184 2088 2186 2090 2091 2187 2091 2092 2093 2188 2092 2093 2094 2189 2094 2150 2190 2191 2150 2095 2191 2095 2096 2192 2096 2097 2098 2193 2097 2151 2194 2098 2099 2195 2151 2100 2195 2099 2101 2196 2100 2197 2101 2102 2102 2103 2198 2103 2104 2199 2200 2104 2105 2106 2201 2105 2152 2202 2106 2108 2203 2107 2107 2203 2152 2204 2108 2153 2153 2109 2205 2109 2110 2205 2111 2206 2110 2207 2111 2112 2112 2113 2208 2114 2209 2113 2115 2210 2114 2160 2064 2154 2211 2155 2116 2117 2212 2116 2213 2117 2118 2214 2118 2119 2120 2214 2119 2215 2120 2121 2121 2122 2216 2217 2122 2123 2124 2218 2123 2124 2156 2219 2125 2220 2156 2126 2220 2125 2127 2221 2126 2128 2222 2127 2157 2223 2128 2129 2130 2224 2157 2129 2224 2225 2130 2131 2226 2131 2132 2133 2227 2132 2133 2134 2228 2134 2135 2229 2135 2158 2230 2231 2158 2136 2137 2231 2136 2138 2232 2137 2233 2138 2139 2234 2139 2140 2141 2235 2140 2141 2159 2236 2237 2159 2142 2143 2237 2142 2160 2238 2143 2154 2065 2161 2144 2239 2161 2067 2163 2162 2239 2144 2162 2163 2068 2164 2165 2164 2069 2166 2165 2070 2240 2166 2145 2168 2167 2072 2167 2240 2145 2169 2168 2073 2170 2169 2074 2171 2170 2075 2172 2171 2076 2146 2241 2172 2146 2147 2241 2078 2174 2173 2242 2147 2173 2175 2174 2079 2176 2175 2080 2177 2176 2081 2243 2177 2148 2083 2179 2178 2243 2148 2178 2084 2180 2179 2085 2181 2180 2086 2182 2181 2182 2087 2183 2089 2185 2183 2184 2244 2149 2149 2244 2185 2186 2184 2090 2186 2091 2187 2188 2187 2092 2093 2189 2188 2189 2094 2190 2150 2245 2190 2191 2245 2150 2192 2191 2096 2193 2192 2097 2098 2194 2193 2151 2246 2194 2151 2195 2246 2100 2196 2195 2197 2196 2101 2197 2102 2198 2103 2199 2198 2199 2104 2200 2201 2200 2105 2106 2202 2201 2247 2202 2152 2204 2203 2108 2203 2247 2152 2204 2153 2248 2248 2153 2205 2110 2206 2205 2207 2206 2111 2207 2112 2208 2113 2249 2208 2114 2210 2209 2209 2249 2113 2160 2154 2250 2251 2155 2211 2212 2211 2116 2213 2212 2117 2214 2213 2118 2215 2214 2120 2215 2121 2216 2216 2122 2217 2218 2217 2123 2124 2219 2218 2219 2156 2252 2156 2220 2252 2126 2221 2220 2127 2222 2221 2128 2223 2222 2253 2223 2157 2224 2130 2225 2253 2157 2224 2226 2225 2131 2227 2226 2132 2227 2133 2228 2134 2229 2228 2135 2230 2229 2230 2158 2254 2254 2158 2231 2232 2231 2137 2233 2232 2138 2233 2139 2234 2235 2234 2140 2235 2141 2236 2159 2255 2236 2237 2255 2159 2143 2238 2237 2256 2238 2160 2250 2154 2161 2239 2257 2161 2163 2258 2162 2258 2239 2162 2163 2164 2259 2260 2164 2165 2165 2166 2261 2240 2262 2166 2168 2263 2167 2167 2263 2240 2169 2264 2168 2170 2265 2169 2171 2266 2170 2172 2267 2171 2172 2241 2268 2241 2147 2242 2173 2174 2269 2242 2173 2269 2175 2270 2174 2271 2175 2176 2272 2176 2177 2273 2177 2243 2178 2179 2274 2243 2178 2274 2179 2180 2275 2180 2181 2276 2182 2277 2181 2278 2182 2183 2185 2279 2183 2184 2280 2244 2244 2281 2185 2186 2280 2184 2282 2186 2187 2188 2283 2187 2188 2189 2284 2189 2190 2285 2245 2286 2190 2191 2287 2245 2192 2287 2191 2288 2192 2193 2194 2289 2193 2194 2246 2290 2246 2195 2291 2195 2196 2291 2197 2292 2196 2293 2197 2198 2198 2199 2294 2199 2200 2295 2296 2200 2201 2202 2297 2201 2247 2298 2202 2299 2203 2204 2299 2247 2203 2204 2248 2300 2301 2248 2205 2206 2301 2205 2207 2302 2206 2303 2207 2208 2249 2303 2208 2210 2304 2209 2209 2305 2249 2256 2160 2250 2251 2211 2306 2307 2211 2212 2308 2212 2213 2213 2214 2309 2215 2310 2214 2311 2215 2216 2312 2216 2217 2218 2313 2217 2218 2219 2314 2315 2219 2252 2220 2316 2252 2220 2221 2316 2221 2222 2317 2222 2223 2318 2253 2319 2223 2320 2224 2225 2320 2253 2224 2226 2321 2225 2227 2322 2226 2323 2227 2228 2229 2324 2228 2230 2325 2229 2230 2254 2326 2254 2231 2327 2327 2231 2232 2328 2232 2233 2329 2233 2234 2235 2330 2234 2331 2235 2236 2255 2332 2236 2237 2333 2255 2237 2238 2333 2256 2334 2238 2257 2250 2161 2239 2335 2257 2163 2259 2258 2258 2335 2239 2259 2164 2260 2260 2165 2261 2166 2262 2261 2240 2336 2262 2168 2264 2263 2240 2263 2336 2169 2265 2264 2170 2266 2265 2171 2267 2266 2172 2268 2267 2268 2241 2337 2241 2242 2337 2174 2270 2269 2338 2242 2269 2271 2270 2175 2271 2176 2272 2272 2177 2273 2273 2243 2339 2179 2275 2274 2339 2243 2274 2275 2180 2276 2181 2277 2276 2278 2277 2182 2279 2278 2183 2281 2279 2185 2244 2280 2340 2281 2244 2340 2282 2280 2186 2283 2282 2187 2283 2188 2284 2284 2189 2285 2190 2286 2285 2245 2341 2286 2245 2287 2341 2288 2287 2192 2289 2288 2193 2194 2290 2289 2290 2246 2342 2342 2246 2291 2196 2292 2291 2293 2292 2197 2293 2198 2294 2294 2199 2295 2295 2200 2296 2297 2296 2201 2202 2298 2297 2247 2343 2298 2299 2204 2300 2299 2343 2247 2300 2248 2344 2248 2301 2344 2206 2302 2301 2303 2302 2207 2303 2249 2345 2304 2305 2209 2249 2305 2345 2346 2256 2250 2347 2251 2306 2306 2211 2307 2307 2212 2308 2308 2213 2309 2214 2310 2309 2311 2310 2215 2311 2216 2312 2313 2312 2217 2218 2314 2313 2219 2315 2314 2348 2315 2252 2316 2348 2252 2316 2221 2317 2317 2222 2318 2223 2319 2318 2349 2319 2253 2321 2320 2225 2349 2253 2320 2226 2322 2321 2323 2322 2227 2324 2323 2228 2325 2324 2229 2230 2326 2325 2326 2254 2350 2254 2327 2350 2327 2232 2328 2328 2233 2329 2330 2329 2234 2331 2330 2235 2332 2331 2236 2332 2255 2351 2255 2333 2351 2238 2334 2333 2352 2334 2256 2257 2346 2250 2257 2335 2353 2258 2259 2354 2258 2354 2335 2259 2260 2355 2356 2260 2261 2262 2357 2261 2262 2336 2358 2263 2264 2359 2336 2263 2359 2264 2265 2360 2265 2266 2361 2266 2267 2362 2267 2268 2363 2364 2268 2337 2242 2338 2337 2270 2365 2269 2365 2338 2269 2366 2270 2271 2271 2272 2367 2272 2273 2368 2369 2273 2339 2275 2370 2274 2370 2339 2274 2371 2275 2276 2277 2372 2276 2278 2373 2277 2374 2278 2279 2375 2279 2281 2280 2376 2340 2281 2340 2377 2282 2376 2280 2378 2282 2283 2379 2283 2284 2284 2285 2380 2286 2381 2285 2341 2382 2286 2287 2383 2341 2288 2383 2287 2289 2384 2288 2289 2290 2385 2290 2342 2386 2342 2291 2387 2291 2292 2387 2293 2388 2292 2389 2293 2294 2390 2294 2295 2391 2295 2296 2297 2392 2296 2297 2298 2393 2298 2343 2394 2395 2299 2300 2395 2343 2299 2396 2300 2344 2301 2397 2344 2302 2397 2301 2398 2302 2303 2399 2303 2345 2304 2400 2305 2305 2401 2345 2352 2256 2346 2402 2347 2306 2306 2307 2403 2307 2308 2404 2308 2309 2405 2310 2406 2309 2311 2407 2310 2408 2311 2312 2409 2312 2313 2314 2410 2313 2315 2411 2314 2412 2315 2348 2316 2413 2348 2413 2316 2317 2414 2317 2318 2319 2415 2318 2349 2416 2319 2417 2320 2321 2349 2320 2417 2322 2418 2321 2323 2419 2322 2420 2323 2324 2324 2325 2421 2325 2326 2422 2423 2326 2350 2350 2327 2424 2327 2328 2424 2328 2329 2425 2426 2329 2330 2427 2330 2331 2428 2331 2332 2429 2332 2351 2333 2430 2351 2333 2334 2430 2352 2431 2334 2346 2257 2353 2335 2432 2353 2354 2259 2355 2335 2354 2432 2260 2356 2355 2357 2356 2261 2262 2358 2357 2358 2336 2433 2264 2360 2359 2336 2359 2433 2265 2361 2360 2361 2266 2362 2267 2363 2362 2363 2268 2364 2364 2337 2434 2337 2338 2434 2366 2365 2270 2365 2435 2338 2366 2271 2367 2367 2272 2368 2368 2273 2369 2436 2369 2339 2275 2371 2370 2436 2339 2370 2372 2371 2276 2277 2373 2372 2374 2373 2278 2374 2279 2375 2375 2281 2377 2376 2437 2340 2340 2437 2377 2378 2376 2282 2378 2283 2379 2379 2284 2380 2285 2381 2380 2286 2382 2381 2341 2438 2382 2383 2438 2341 2288 2384 2383 2289 2385 2384 2385 2290 2386 2342 2439 2386 2439 2342 2387 2292 2388 2387 2389 2388 2293 2390 2389 2294 2391 2390 2295 2392 2391 2296 2297 2393 2392 2393 2298 2394 2343 2440 2394 2396 2395 2300 2395 2440 2343 2441 2396 2344 2397 2441 2344 2398 2397 2302 2398 2303 2399 2401 2399 2345 2400 2401 2305 2352 2346 2442 2443 2347 2402 2402 2306 2403 2307 2404 2403 2404 2308 2405 2309 2406 2405 2310 2407 2406 2408 2407 2311 2409 2408 2312 2410 2409 2313 2411 2410 2314 2412 2411 2315 2444 2412 2348 2413 2444 2348 2414 2413 2317 2415 2414 2318 2319 2416 2415 2445 2416 2349 2418 2417 2321 2445 2349 2417 2322 2419 2418 2420 2419 2323 2420 2324 2421 2325 2422 2421 2422 2326 2423 2446 2423 2350 2446 2350 2424 2328 2425 2424 2425 2329 2426 2426 2330 2427 2427 2331 2428 2428 2332 2429 2447 2429 2351 2430 2447 2351 2334 2431 2430 2448 2431 2352 2442 2346 2353 2432 2449 2353 2450 2354 2355 2432 2354 2450 2355 2356 2451 2357 2452 2356 2357 2358 2453 2454 2358 2433 2360 2455 2359 2359 2455 2433 2360 2361 2456 2457 2361 2362 2362 2363 2458 2363 2364 2459 2460 2364 2434 2338 2435 2434 2461 2365 2366 2461 2435 2365 2462 2366 2367 2463 2367 2368 2464 2368 2369 2436 2465 2369 2371 2466 2370 2466 2436 2370 2467 2371 2372 2373 2468 2372 2469 2373 2374 2374 2375 2470 2471 2375 2377 2376 2472 2437 2437 2473 2377 2378 2472 2376 2474 2378 2379 2475 2379 2380 2380 2381 2476 2381 2382 2477 2382 2438 2478 2383 2479 2438 2383 2384 2479 2384 2385 2480 2481 2385 2386 2439 2482 2386 2483 2439 2387 2388 2483 2387 2389 2484 2388 2485 2389 2390 2486 2390 2391 2487 2391 2392 2393 2488 2392 2393 2394 2489 2440 2490 2394 2491 2395 2396 2491 2440 2395 2492 2396 2441 2493 2441 2397 2493 2397 2398 2494 2398 2399 2401 2495 2399 2400 2496 2401 2448 2352 2442 2443 2402 2497 2402 2403 2498 2403 2404 2499 2500 2404 2405 2406 2500 2405 2406 2407 2501 2408 2502 2407 2503 2408 2409 2504 2409 2410 2505 2410 2411 2506 2411 2412 2507 2412 2444 2508 2444 2413 2508 2413 2414 2509 2414 2415 2416 2510 2415 2445 2511 2416 2512 2417 2418 2512 2445 2417 2419 2513 2418 2420 2514 2419 2515 2420 2421 2421 2422 2516 2422 2423 2517 2446 2518 2423 2519 2446 2424 2425 2519 2424 2425 2426 2520 2426 2427 2521 2427 2428 2522 2523 2428 2429 2447 2524 2429 2525 2447 2430 2431 2525 2430 2448 2526 2431 2449 2442 2353 2432 2527 2449 2450 2355 2451 2527 2432 2450 2356 2452 2451 2357 2453 2452 2453 2358 2454 2454 2433 2528 2360 2456 2455 2433 2455 2528 2361 2457 2456 2457 2362 2458 2363 2459 2458 2459 2364 2460 2529 2460 2434 2435 2529 2434 2461 2366 2462 2461 2530 2435 2463 2462 2367 2464 2463 2368 2465 2464 2369 2436 2531 2465 2467 2466 2371 2466 2531 2436 2468 2467 2372 2469 2468 2373 2469 2374 2470 2470 2375 2471 2473 2471 2377 2437 2472 2532 2437 2532 2473 2474 2472 2378 2475 2474 2379 2475 2380 2476 2381 2477 2476 2477 2382 2478 2438 2533 2478 2479 2533 2438 2384 2480 2479 2480 2385 2481 2482 2481 2386 2534 2482 2439 2534 2439 2483 2388 2484 2483 2485 2484 2389 2485 2390 2486 2486 2391 2487 2488 2487 2392 2488 2393 2489 2394 2490 2489 2535 2490 2440 2491 2396 2492 2535 2440 2491 2492 2441 2536 2536 2441 2493 2493 2398 2494 2495 2494 2399 2401 2496 2495 2537 2448 2442 2538 2443 2497 2497 2402 2498 2403 2539 2498 2404 2500 2499 2539 2403 2499 2406 2501 2500 2407 2502 2501 2503 2502 2408 2503 2409 2504 2504 2410 2505 2505 2411 2506 2506 2412 2507 2507 2444 2540 2540 2444 2508 2508 2414 2509 2510 2509 2415 2416 2511 2510 2541 2511 2445 2513 2512 2418 2541 2445 2512 2419 2514 2513 2515 2514 2420 2515 2421 2516 2516 2422 2517 2423 2518 2517 2446 2542 2518 2519 2542 2446 2425 2520 2519 2520 2426 2521 2427 2522 2521 2522 2428 2523 2524 2523 2429 2447 2543 2524 2525 2543 2447 2431 2526 2525 2544 2526 2448 2449 2537 2442 2449 2527 2545 2546 2450 2451 2546 2527 2450 2452 2547 2451 2452 2453 2548 2453 2454 2549 2550 2454 2528 2456 2551 2455 2455 2551 2528 2457 2552 2456 2553 2457 2458 2459 2554 2458 2555 2459 2460 2460 2529 2556 2435 2530 2529 2557 2461 2462 2557 2530 2461 2463 2558 2462 2559 2463 2464 2560 2464 2465 2531 2561 2465 2562 2466 2467 2562 2531 2466 2563 2467 2468 2564 2468 2469 2565 2469 2470 2566 2470 2471 2473 2567 2471 2472 2568 2532 2532 2569 2473 2474 2568 2472 2570 2474 2475 2571 2475 2476 2477 2572 2476 2573 2477 2478 2533 2574 2478 2575 2533 2479 2480 2575 2479 2480 2481 2576 2577 2481 2482 2534 2578 2482 2579 2534 2483 2484 2579 2483 2580 2484 2485 2485 2486 2581 2582 2486 2487 2488 2583 2487 2584 2488 2489 2489 2490 2585 2535 2586 2490 2491 2492 2587 2535 2491 2587 2492 2536 2588 2536 2493 2589 2493 2494 2589 2590 2494 2495 2496 2591 2495 2544 2448 2537 2592 2538 2497 2497 2498 2593 2539 2594 2498 2500 2595 2499 2595 2539 2499 2501 2596 2500 2502 2597 2501 2598 2502 2503 2503 2504 2599 2504 2505 2600 2505 2506 2601 2506 2507 2602 2507 2540 2603 2540 2508 2604 2604 2508 2509 2510 2605 2509 2510 2511 2606 2541 2607 2511 2608 2512 2513 2541 2512 2608 2514 2609 2513 2515 2610 2514 2611 2515 2516 2612 2516 2517 2518 2613 2517 2518 2542 2614 2519 2615 2542 2519 2520 2615 2616 2520 2521 2521 2522 2617 2522 2523 2618 2619 2523 2524 2543 2620 2524 2525 2621 2543 2525 2526 2621 2544 2622 2526 2537 2449 2545 2527 2623 2545 2547 2546 2451 2546 2623 2527 2452 2548 2547 2548 2453 2549 2454 2550 2549 2624 2550 2528 2552 2551 2456 2551 2624 2528 2553 2552 2457 2554 2553 2458 2459 2555 2554 2555 2460 2556 2556 2529 2625 2529 2530 2625 2558 2557 2462 2557 2626 2530 2559 2558 2463 2559 2464 2560 2561 2560 2465 2627 2561 2531 2562 2467 2563 2627 2531 2562 2563 2468 2564 2564 2469 2565 2566 2565 2470 2567 2566 2471 2473 2569 2567 2568 2628 2532 2532 2628 2569 2570 2568 2474 2570 2475 2571 2572 2571 2476 2477 2573 2572 2574 2573 2478 2533 2629 2574 2575 2629 2533 2480 2576 2575 2576 2481 2577 2578 2577 2482 2534 2630 2578 2579 2630 2534 2580 2579 2484 2580 2485 2581 2581 2486 2582 2583 2582 2487 2584 2583 2488 2584 2489 2585 2490 2586 2585 2631 2586 2535 2492 2588 2587 2631 2535 2587 2588 2536 2632 2632 2536 2589 2494 2590 2589 2591 2590 2495 2544 2537 2633 2634 2538 2592 2592 2497 2593 2498 2594 2593 2635 2594 2539 2596 2595 2500 2595 2635 2539 2501 2597 2596 2598 2597 2502 2598 2503 2599 2599 2504 2600 2505 2601 2600 2601 2506 2602 2507 2603 2602 2603 2540 2636 2636 2540 2604 2605 2604 2509 2510 2606 2605 2511 2607 2606 2637 2607 2541 2609 2608 2513 2637 2541 2608 2514 2610 2609 2611 2610 2515 2612 2611 2516 2613 2612 2517 2613 2518 2614 2542 2638 2614 2542 2615 2638 2615 2520 2616 2616 2521 2617 2617 2522 2618 2618 2523 2619 2620 2619 2524 2543 2639 2620 2543 2621 2639 2526 2622 2621 2640 2622 2544 2633 2537 2545 2623 2641 2545 2547 2642 2546 2546 2642 2623 2547 2548 2643 2644 2548 2549 2550 2645 2549 2646 2550 2624 2552 2647 2551 2551 2647 2624 2648 2552 2553 2553 2554 2649 2555 2650 2554 2651 2555 2556 2652 2556 2625 2530 2626 2625 2558 2653 2557 2557 2653 2626 2559 2654 2558 2655 2559 2560 2561 2656 2560 2657 2561 2627 2562 2563 2658 2627 2562 2658 2563 2564 2659 2564 2565 2660 2661 2565 2566 2662 2566 2567 2569 2663 2567 2568 2664 2628 2569 2628 2665 2570 2664 2568 2666 2570 2571 2667 2571 2572 2573 2668 2572 2669 2573 2574 2629 2670 2574 2629 2575 2671 2575 2576 2671 2672 2576 2577 2577 2578 2673 2578 2630 2674 2579 2675 2630 2580 2675 2579 2676 2580 2581 2677 2581 2582 2583 2678 2582 2679 2583 2584 2680 2584 2585 2586 2681 2585 2682 2586 2631 2587 2588 2683 2631 2587 2683 2588 2632 2684 2632 2589 2685 2590 2686 2589 2591 2687 2590 2640 2544 2633 2634 2592 2688 2592 2593 2689 2594 2690 2593 2635 2691 2594 2692 2595 2596 2692 2635 2595 2597 2693 2596 2598 2694 2597 2695 2598 2599 2696 2599 2600 2601 2697 2600 2601 2602 2698 2603 2699 2602 2603 2636 2700 2701 2636 2604 2701 2604 2605 2606 2702 2605 2607 2703 2606 2704 2607 2637 2609 2705 2608 2705 2637 2608 2610 2706 2609 2611 2707 2610 2612 2708 2611 2709 2612 2613 2710 2613 2614 2638 2711 2614 2638 2615 2712 2615 2616 2712 2713 2616 2617 2714 2617 2618 2715 2618 2619 2620 2716 2619 2639 2717 2620 2621 2718 2639 2622 2718 2621 2640 2719 2622 2641 2633 2545 2623 2720 2641 2547 2643 2642 2623 2642 2720 2643 2548 2644 2645 2644 2549 2646 2645 2550 2721 2646 2624 2648 2647 2552 2647 2721 2624 2648 2553 2649 2554 2650 2649 2651 2650 2555 2651 2556 2652 2722 2652 2625 2626 2722 2625 2558 2654 2653 2626 2653 2723 2655 2654 2559 2656 2655 2560 2657 2656 2561 2657 2627 2724 2563 2659 2658 2627 2658 2724 2564 2660 2659 2660 2565 2661 2661 2566 2662 2663 2662 2567 2569 2665 2663 2628 2664 2725 2665 2628 2725 2666 2664 2570 2667 2666 2571 2668 2667 2572 2669 2668 2573 2670 2669 2574 2726 2670 2629 2726 2629 2671 2576 2672 2671 2672 2577 2673 2578 2674 2673 2674 2630 2727 2630 2675 2727 2676 2675 2580 2677 2676 2581 2678 2677 2582 2679 2678 2583 2679 2584 2680 2681 2680 2585 2682 2681 2586 2682 2631 2728 2588 2684 2683 2728 2631 2683 2684 2632 2685 2589 2686 2685 2590 2687 2686 2729 2640 2633 2730 2634 2688 2688 2592 2689 2593 2690 2689 2594 2691 2690 2635 2731 2691 2693 2692 2596 2692 2731 2635 2597 2694 2693 2695 2694 2598 2696 2695 2599 2697 2696 2600 2697 2601 2698 2602 2699 2698 2603 2700 2699 2700 2636 2732 2732 2636 2701 2702 2701 2605 2606 2703 2702 2704 2703 2607 2704 2637 2733 2609 2706 2705 2733 2637 2705 2610 2707 2706 2611 2708 2707 2709 2708 2612 2710 2709 2613 2711 2710 2614 2638 2734 2711 2638 2712 2734 2712 2616 2713 2714 2713 2617 2715 2714 2618 2716 2715 2619 2620 2717 2716 2735 2717 2639 2718 2735 2639 2622 2719 2718 2736 2719 2640 2641 2729 2633 2641 2720 2737 2642 2643 2738 2720 2642 2738 2643 2644 2739 2740 2644 2645 2646 2741 2645 2721 2742 2646 2743 2647 2648 2743 2721 2647 2744 2648 2649 2650 2745 2649 2651 2746 2650 2747 2651 2652 2722 2748 2652 2626 2723 2722 2653 2654 2749 2723 2653 2749 2655 2750 2654 2656 2751 2655 2657 2752 2656 2753 2657 2724 2658 2659 2754 2724 2658 2754 2660 2755 2659 2660 2661 2756 2757 2661 2662 2663 2758 2662 2663 2665 2759 2664 2760 2725 2665 2725 2761 2666 2760 2664 2762 2666 2667 2763 2667 2668 2764 2668 2669 2765 2669 2670 2766 2670 2726 2767 2726 2671 2672 2767 2671 2768 2672 2673 2674 2769 2673 2674 2727 2770 2675 2771 2727 2676 2771 2675 2772 2676 2677 2773 2677 2678 2774 2678 2679 2775 2679 2680 2681 2776 2680 2682 2777 2681 2778 2682 2728 2683 2684 2779 2728 2683 2779 2780 2684 2685 2686 2781 2685 2687 2782 2686 2736 2640 2729 2783 2730 2688 2784 2688 2689 2690 2784 2689 2690 2691 2785 2691 2731 2786 2787 2692 2693 2787 2731 2692 2694 2788 2693 2695 2789 2694 2696 2790 2695 2791 2696 2697 2697 2698 2792 2698 2699 2793 2699 2700 2794 2700 2732 2795 2732 2701 2796 2796 2701 2702 2703 2797 2702 2704 2798 2703 2799 2704 2733 2706 2800 2705 2800 2733 2705 2706 2707 2801 2707 2708 2802 2709 2803 2708 2804 2709 2710 2710 2711 2805 2711 2734 2806 2734 2712 2807 2807 2712 2713 2714 2808 2713 2715 2809 2714 2810 2715 2716 2717 2811 2716 2812 2717 2735 2735 2718 2813 2718 2719 2813 2736 2814 2719 2729 2641 2737 2720 2815 2737 2643 2739 2738 2815 2720 2738 2739 2644 2740 2741 2740 2645 2646 2742 2741 2721 2816 2742 2743 2648 2744 2743 2816 2721 2745 2744 2649 2650 2746 2745 2747 2746 2651 2748 2747 2652 2748 2722 2817 2722 2723 2817 2654 2750 2749 2818 2723 2749 2655 2751 2750 2656 2752 2751 2753 2752 2657 2819 2753 2724 2659 2755 2754 2819 2724 2754 2660 2756 2755 2756 2661 2757 2758 2757 2662 2758 2663 2759 2665 2761 2759 2760 2820 2725 2725 2820 2761 2762 2760 2666 2762 2667 2763 2763 2668 2764 2764 2669 2765 2765 2670 2766 2766 2726 2821 2821 2726 2767 2768 2767 2672 2769 2768 2673 2769 2674 2770 2727 2822 2770 2771 2822 2727 2772 2771 2676 2772 2677 2773 2773 2678 2774 2774 2679 2775 2776 2775 2680 2681 2777 2776 2778 2777 2682 2778 2728 2823 2779 2684 2824 2728 2779 2823 2684 2780 2824 2781 2780 2685 2782 2781 2686 2736 2729 2825 2826 2730 2783 2783 2688 2827 2688 2784 2827 2690 2785 2784 2691 2786 2785 2731 2828 2786 2788 2787 2693 2787 2828 2731 2694 2789 2788 2695 2790 2789 2791 2790 2696 2791 2697 2792 2698 2793 2792 2793 2699 2794 2700 2795 2794 2795 2732 2829 2829 2732 2796 2797 2796 2702 2703 2798 2797 2799 2798 2704 2830 2799 2733 2800 2706 2801 2830 2733 2800 2801 2707 2802 2708 2803 2802 2804 2803 2709 2804 2710 2805 2805 2711 2806 2806 2734 2831 2831 2734 2807 2808 2807 2713 2714 2809 2808 2810 2809 2715 2811 2810 2716 2812 2811 2717 2812 2735 2832 2735 2813 2832 2719 2814 2813 2833 2814 2736 2825 2729 2737 2815 2834 2737 2739 2835 2738 2835 2815 2738 2739 2740 2836 2740 2741 2837 2741 2742 2838 2742 2816 2839 2840 2743 2744 2840 2816 2743 2745 2841 2744 2746 2842 2745 2843 2746 2747 2844 2747 2748 2845 2748 2817 2723 2818 2817 2750 2846 2749 2846 2818 2749 2750 2751 2847 2751 2752 2848 2753 2849 2752 2850 2753 2819 2755 2851 2754 2851 2819 2754 2756 2852 2755 2756 2757 2853 2854 2757 2758 2758 2759 2855 2761 2856 2759 2857 2820 2760 2820 2858 2761 2857 2760 2762 2762 2763 2859 2763 2764 2860 2764 2765 2861 2765 2766 2862 2766 2821 2863 2821 2767 2864 2864 2767 2768 2865 2768 2769 2866 2769 2770 2822 2867 2770 2868 2822 2771 2868 2771 2772 2772 2773 2869 2773 2774 2870 2871 2774 2775 2775 2776 2872 2777 2873 2776 2874 2777 2778 2875 2778 2823 2876 2779 2824 2779 2876 2823 2780 2877 2824 2781 2878 2780 2782 2879 2781 2833 2736 2825 2826 2783 2880 2881 2783 2827 2784 2882 2827 2785 2882 2784 2786 2883 2785 2786 2828 2884 2788 2885 2787 2787 2885 2828 2788 2789 2886 2789 2790 2887 2791 2888 2790 2889 2791 2792 2792 2793 2890 2891 2793 2794 2795 2892 2794 2893 2795 2829 2894 2829 2796 2797 2894 2796 2798 2895 2797 2896 2798 2799 2897 2799 2830 2898 2800 2801 2898 2830 2800 2899 2801 2802 2803 2900 2802 2804 2901 2803 2902 2804 2805 2903 2805 2806 2904 2806 2831 2905 2831 2807 2808 2905 2807 2809 2906 2808 2907 2809 2810 2908 2810 2811 2909 2811 2812 2910 2812 2832 2813 2911 2832 2814 2911 2813 2833 2912 2814 2834 2825 2737 2815 2913 2834 2739 2836 2835 2835 2913 2815 2836 2740 2837 2741 2838 2837 2838 2742 2839 2816 2914 2839 2841 2840 2744 2840 2914 2816 2745 2842 2841 2843 2842 2746 2843 2747 2844 2844 2748 2845 2915 2845 2817 2818 2915 2817 2750 2847 2846 2846 2916 2818 2847 2751 2848 2752 2849 2848 2850 2849 2753 2850 2819 2917 2755 2852 2851 2819 2851 2917 2756 2853 2852 2853 2757 2854 2854 2758 2855 2759 2856 2855 2858 2856 2761 2918 2820 2857 2918 2858 2820 2857 2762 2859 2763 2860 2859 2764 2861 2860 2861 2765 2862 2766 2863 2862 2821 2919 2863 2821 2864 2919 2864 2768 2865 2865 2769 2866 2867 2866 2770 2822 2920 2867 2868 2920 2822 2868 2772 2869 2773 2870 2869 2870 2774 2871 2871 2775 2872 2776 2873 2872 2874 2873 2777 2874 2778 2875 2876 2875 2823 2877 2876 2824 2878 2877 2780 2781 2879 2878 2921 2833 2825 2922 2826 2880 2880 2783 2881 2882 2881 2827 2883 2882 2785 2883 2786 2884 2828 2923 2884 2788 2886 2885 2828 2885 2923 2886 2789 2887 2790 2888 2887 2889 2888 2791 2889 2792 2890 2890 2793 2891 2892 2891 2794 2892 2795 2893 2924 2893 2829 2894 2924 2829 2895 2894 2797 2896 2895 2798 2896 2799 2897 2897 2830 2925 2899 2898 2801 2925 2830 2898 2900 2899 2802 2803 2901 2900 2902 2901 2804 2903 2902 2805 2904 2903 2806 2926 2904 2831 2905 2926 2831 2906 2905 2808 2907 2906 2809 2907 2810 2908 2908 2811 2909 2909 2812 2910 2927 2910 2832 2911 2927 2832 2814 2912 2911 2928 2912 2833 2834 2921 2825 2834 2913 2929 2835 2836 2930 2835 2930 2913 2931 2836 2837 2838 2932 2837 2933 2838 2839 2914 2934 2839 2935 2840 2841 2935 2914 2840 2842 2936 2841 2937 2842 2843 2843 2844 2938 2844 2845 2939 2845 2915 2940 2818 2916 2915 2846 2847 2941 2846 2941 2916 2847 2848 2942 2848 2849 2943 2850 2944 2849 2945 2850 2917 2851 2852 2946 2917 2851 2946 2852 2853 2947 2853 2854 2948 2949 2854 2855 2856 2950 2855 2858 2951 2856 2918 2857 2952 2953 2858 2918 2952 2857 2859 2859 2860 2954 2860 2861 2955 2956 2861 2862 2863 2957 2862 2863 2919 2958 2919 2864 2959 2864 2865 2959 2865 2866 2960 2866 2867 2961 2920 2962 2867 2963 2920 2868 2963 2868 2869 2869 2870 2964 2870 2871 2965 2966 2871 2872 2873 2967 2872 2968 2873 2874 2969 2874 2875 2876 2970 2875 2971 2876 2877 2972 2877 2878 2879 2973 2878 2928 2833 2921 2922 2880 2974 2975 2880 2881 2881 2882 2976 2883 2977 2882 2978 2883 2884 2923 2979 2884 2885 2886 2980 2885 2980 2923 2981 2886 2887 2888 2982 2887 2889 2983 2888 2984 2889 2890 2985 2890 2891 2892 2986 2891 2987 2892 2893 2924 2988 2893 2894 2989 2924 2895 2989 2894 2990 2895 2896 2896 2897 2991 2897 2925 2992 2993 2898 2899 2925 2898 2993 2994 2899 2900 2901 2995 2900 2902 2996 2901 2997 2902 2903 2998 2903 2904 2926 2999 2904 2905 3000 2926 2906 3000 2905 3001 2906 2907 2907 2908 3002 2908 2909 3003 2909 2910 3004 3005 2910 2927 2911 3006 2927 2911 2912 3006 2928 3007 2912 2921 2834 2929 2913 3008 2929 2930 2836 2931 2913 2930 3008 2932 2931 2837 2838 2933 2932 2934 2933 2839 2914 3009 2934 2936 2935 2841 2935 3009 2914 2937 2936 2842 2937 2843 2938 2844 2939 2938 2939 2845 2940 2915 3010 2940 2916 3010 2915 2941 2847 2942 2916 2941 3011 2942 2848 2943 2849 2944 2943 2945 2944 2850 3012 2945 2917 2852 2947 2946 3012 2917 2946 2947 2853 2948 2948 2854 2949 2950 2949 2855 2856 2951 2950 2953 2951 2858 2918 2952 3013 2953 2918 3013 2952 2859 2954 2954 2860 2955 2955 2861 2956 2957 2956 2862 2957 2863 2958 2958 2919 3014 3014 2919 2959 2959 2865 2960 2866 2961 2960 2867 2962 2961 3015 2962 2920 3015 2920 2963 2963 2869 2964 2964 2870 2965 2965 2871 2966 2967 2966 2872 2968 2967 2873 2968 2874 2969 2969 2875 3016 2971 2970 2876 2875 2970 3016 2971 2877 2972 2973 2972 2878 2928 2921 3017 3018 2922 2974 2974 2880 2975 2975 2881 2976 2882 2977 2976 2978 2977 2883 2979 2978 2884 3019 2979 2923 2980 2886 2981 2980 3019 2923 2982 2981 2887 2888 2983 2982 2984 2983 2889 2985 2984 2890 2986 2985 2891 2987 2986 2892 2988 2987 2893 3020 2988 2924 2989 3020 2924 2990 2989 2895 2990 2896 2991 2897 2992 2991 2925 3021 2992 2993 2899 2994 2925 2993 3021 2995 2994 2900 2901 2996 2995 2997 2996 2902 2997 2903 2998 2999 2998 2904 2926 3022 2999 3000 3022 2926 3001 3000 2906 3001 2907 3002 2908 3003 3002 3003 2909 3004 3004 2910 3005 3023 3005 2927 3006 3023 2927 2912 3007 3006 3024 3007 2928 3017 2921 2929 3008 3025 2929 2930 2931 3026 3008 2930 3026 3027 2931 2932 2932 2933 3028 2934 3029 2933 2934 3009 3030 2936 3031 2935 2935 3031 3009 2937 3032 2936 3033 2937 2938 2938 2939 3034 3035 2939 2940 3010 3036 2940 2916 3011 3010 3037 2941 2942 3011 2941 3037 3038 2942 2943 2944 3039 2943 2945 3040 2944 3041 2945 3012 2946 2947 3042 3012 2946 3042 2947 2948 3043 3044 2948 2949 2950 3045 2949 2951 3046 2950 3047 2951 2953 3013 2952 3048 3049 2953 3013 3048 2952 2954 3050 2954 2955 3051 2955 2956 2957 3052 2956 3053 2957 2958 3054 2958 3014 3055 3014 2959 3055 2959 2960 2961 3056 2960 2962 3057 2961 3015 3058 2962 3015 2963 3059 3059 2963 2964 3060 2964 2965 3061 2965 2966 2967 3062 2966 3063 2967 2968 2968 2969 3064 3065 2969 3016 3066 2970 2971 2970 3067 3016 3068 2971 2972 2973 3069 2972 3024 2928 3017 3070 3018 2974 3071 2974 2975 3072 2975 2976 2977 3072 2976 2978 3073 2977 3074 2978 2979 3075 2979 3019 2980 2981 3076 2980 3076 3019 2981 2982 3077 2982 2983 3078 2984 3079 2983 2985 3080 2984 2986 3081 2985 2987 3082 2986 2988 3083 2987 3020 3084 2988 3085 3020 2989 3085 2989 2990 2990 2991 3086 2991 2992 3087 3021 3088 2992 3089 2993 2994 3021 2993 3089 2995 3090 2994 2995 2996 3091 2997 3092 2996 3093 2997 2998 2999 3094 2998 3022 3095 2999 3096 3022 3000 3096 3000 3001 3001 3002 3097 3002 3003 3098 3099 3003 3004 3100 3004 3005 3023 3101 3005 3006 3102 3023 3007 3102 3006 3024 3103 3007 3025 3017 2929 3008 3104 3025 2931 3027 3026 3104 3008 3026 3027 2932 3028 2933 3029 3028 2934 3030 3029 3030 3009 3105 2936 3032 3031 3009 3031 3105 3033 3032 2937 3033 2938 3034 3034 2939 3035 3036 3035 2940 3010 3106 3036 3010 3011 3106 3038 3037 2942 3011 3037 3107 3039 3038 2943 2944 3040 3039 3041 3040 2945 3041 3012 3108 3042 2947 3043 3108 3012 3042 3043 2948 3044 3045 3044 2949 3046 3045 2950 3047 3046 2951 3047 2953 3049 3109 3013 3048 3049 3013 3109 3050 3048 2954 3051 3050 2955 3052 3051 2956 3053 3052 2957 3053 2958 3054 3110 3054 3014 3055 3110 3014 3056 3055 2960 3057 3056 2961 2962 3058 3057 3111 3058 3015 3111 3015 3059 3060 3059 2964 3061 3060 2965 3062 3061 2966 3063 3062 2967 3063 2968 3064 3064 2969 3065 3067 3065 3016 3066 3067 2970 3068 3066 2971 3069 3068 2972 3112 3024 3017 3113 3018 3070 3070 2974 3071 3071 2975 3114 2975 3072 3114 2977 3073 3072 3074 3073 2978 3074 2979 3075 3115 3075 3019 2981 3077 3076 3076 3115 3019 2982 3078 3077 2983 3079 3078 2984 3080 3079 2985 3081 3080 2986 3082 3081 2987 3083 3082 2988 3084 3083 3020 3116 3084 3085 3116 3020 3085 2990 3086 2991 3087 3086 2992 3088 3087 3021 3117 3088 3090 3089 2994 3021 3089 3117 2995 3091 3090 2996 3092 3091 3093 3092 2997 3094 3093 2998 3095 3094 2999 3118 3095 3022 3118 3022 3096 3096 3001 3097 3097 3002 3098 3098 3003 3099 3100 3099 3004 3101 3100 3005 3023 3119 3101 3102 3119 3023 3007 3103 3102 3120 3103 3024 3025 3112 3017 3025 3104 3121 3027 3122 3026 3122 3104 3026 3123 3027 3028 3029 3124 3028 3029 3030 3125 3126 3030 3105 3031 3032 3127 3031 3127 3105 3033 3128 3032 3129 3033 3034 3130 3034 3035 3036 3131 3035 3106 3132 3036 3011 3107 3106 3133 3037 3038 3107 3037 3133 3134 3038 3039 3039 3040 3135 3041 3136 3040 3137 3041 3108 3138 3042 3043 3138 3108 3042 3139 3043 3044 3045 3140 3044 3046 3141 3045 3142 3046 3047 3047 3049 3143 3144 3109 3048 3145 3049 3109 3050 3144 3048 3146 3050 3051 3052 3147 3051 3053 3148 3052 3149 3053 3054 3110 3150 3054 3151 3110 3055 3056 3151 3055 3152 3056 3057 3058 3153 3057 3154 3058 3111 3155 3111 3059 3060 3155 3059 3156 3060 3061 3062 3157 3061 3158 3062 3063 3159 3063 3064 3160 3064 3065 3067 3161 3065 3162 3067 3066 3066 3068 3163 3069 3164 3068 3120 3024 3112 3113 3070 3165 3070 3071 3166 3167 3071 3114 3072 3168 3114 3072 3073 3168 3074 3169 3073 3170 3074 3075 3115 3171 3075 3077 3172 3076 3172 3115 3076 3077 3078 3173 3079 3174 3078 3079 3080 3175 3080 3081 3176 3081 3082 3177 3082 3083 3178 3083 3084 3179 3084 3116 3180 3181 3116 3085 3181 3085 3086 3087 3182 3086 3087 3088 3183 3088 3117 3184 3185 3089 3090 3117 3089 3185 3091 3186 3090 3092 3187 3091 3188 3092 3093 3189 3093 3094 3190 3094 3095 3191 3095 3118 3118 3096 3192 3192 3096 3097 3193 3097 3098 3194 3098 3099 3100 3195 3099 3196 3100 3101 3119 3197 3101 3119 3102 3198 3102 3103 3198 3120 3199 3103 3112 3025 3121 3104 3200 3121 3123 3122 3027 3122 3200 3104 3124 3123 3028 3029 3125 3124 3125 3030 3126 3201 3126 3105 3032 3128 3127 3127 3201 3105 3129 3128 3033 3130 3129 3034 3131 3130 3035 3036 3132 3131 3202 3132 3106 3107 3202 3106 3133 3038 3134 3107 3133 3203 3134 3039 3135 3040 3136 3135 3137 3136 3041 3204 3137 3108 3139 3138 3043 3138 3204 3108 3140 3139 3044 3045 3141 3140 3142 3141 3046 3142 3047 3143 3143 3049 3145 3144 3205 3109 3205 3145 3109 3146 3144 3050 3147 3146 3051 3052 3148 3147 3149 3148 3053 3150 3149 3054 3110 3206 3150 3151 3206 3110 3152 3151 3056 3153 3152 3057 3154 3153 3058 3154 3111 3207 3207 3111 3155 3156 3155 3060 3157 3156 3061 3158 3157 3062 3158 3063 3159 3159 3064 3160 3161 3160 3065 3162 3161 3067 3162 3066 3163 3068 3164 3163 3120 3112 3208 3209 3113 3165 3165 3070 3166 3071 3167 3166 3210 3167 3114 3168 3210 3114 3073 3169 3168 3170 3169 3074 3171 3170 3075 3211 3171 3115 3077 3173 3172 3211 3115 3172 3078 3174 3173 3079 3175 3174 3175 3080 3176 3176 3081 3177 3082 3178 3177 3178 3083 3179 3084 3180 3179 3116 3212 3180 3181 3212 3116 3182 3181 3086 3182 3087 3183 3183 3088 3184 3184 3117 3213 3186 3185 3090 3213 3117 3185 3187 3186 3091 3188 3187 3092 3188 3093 3189 3189 3094 3190 3190 3095 3191 3191 3118 3214 3118 3192 3214 3192 3097 3193 3194 3193 3098 3195 3194 3099 3196 3195 3100 3197 3196 3101 3215 3197 3119 3215 3119 3198 3103 3199 3198 3216 3199 3120 3208 3112 3121 3200 3217 3121 3123 3218 3122 3122 3218 3200 3124 3219 3123 3124 3125 3220 3125 3126 3221 3126 3201 3222 3127 3128 3223 3127 3223 3201 3129 3224 3128 3225 3129 3130 3226 3130 3131 3132 3227 3131 3202 3228 3132 3107 3203 3202 3133 3134 3229 3203 3133 3229 3134 3135 3230 3136 3231 3135 3232 3136 3137 3233 3137 3204 3139 3234 3138 3234 3204 3138 3235 3139 3140 3141 3236 3140 3237 3141 3142 3142 3143 3238 3239 3143 3145 3144 3240 3205 3205 3241 3145 3146 3240 3144 3242 3146 3147 3148 3243 3147 3244 3148 3149 3149 3150 3245 3206 3246 3150 3151 3247 3206 3152 3247 3151 3153 3248 3152 3249 3153 3154 3154 3207 3250 3207 3155 3251 3251 3155 3156 3252 3156 3157 3253 3157 3158 3158 3159 3254 3255 3159 3160 3161 3256 3160 3257 3161 3162 3258 3162 3163 3164 3259 3163 3216 3120 3208 3260 3209 3165 3165 3166 3261 3167 3262 3166 3263 3167 3210 3168 3264 3210 3169 3264 3168 3170 3265 3169 3171 3266 3170 3211 3267 3171 3173 3268 3172 3268 3211 3172 3174 3269 3173 3174 3175 3270 3175 3176 3271 3272 3176 3177 3178 3273 3177 3274 3178 3179 3179 3180 3275 3212 3276 3180 3277 3212 3181 3277 3181 3182 3278 3182 3183 3279 3183 3184 3280 3184 3213 3186 3281 3185 3281 3213 3185 3187 3282 3186 3283 3187 3188 3188 3189 3284 3189 3190 3285 3190 3191 3286 3287 3191 3214 3214 3192 3288 3288 3192 3193 3194 3289 3193 3195 3290 3194 3291 3195 3196 3292 3196 3197 3293 3197 3215 3294 3215 3198 3199 3294 3198 3216 3295 3199 3217 3208 3121 3200 3296 3217 3123 3219 3218 3200 3218 3296 3124 3220 3219 3220 3125 3221 3221 3126 3222 3201 3297 3222 3128 3224 3223 3223 3297 3201 3225 3224 3129 3225 3130 3226 3227 3226 3131 3132 3228 3227 3202 3298 3228 3202 3203 3298 3229 3134 3230 3299 3203 3229 3135 3231 3230 3232 3231 3136 3232 3137 3233 3233 3204 3300 3235 3234 3139 3300 3204 3234 3236 3235 3140 3237 3236 3141 3237 3142 3238 3238 3143 3239 3241 3239 3145 3205 3240 3301 3205 3301 3241 3242 3240 3146 3243 3242 3147 3244 3243 3148 3244 3149 3245 3150 3246 3245 3206 3302 3246 3206 3247 3302 3152 3248 3247 3249 3248 3153 3249 3154 3250 3250 3207 3303 3207 3251 3303 3251 3156 3252 3252 3157 3253 3253 3158 3254 3159 3255 3254 3256 3255 3160 3257 3256 3161 3258 3257 3162 3259 3258 3163 3304 3216 3208 3305 3209 3260 3260 3165 3261 3166 3262 3261 3263 3262 3167 3306 3263 3210 3264 3306 3210 3169 3265 3264 3170 3266 3265 3171 3267 3266 3211 3307 3267 3269 3268 3173 3268 3307 3211 3174 3270 3269 3270 3175 3271 3176 3272 3271 3273 3272 3177 3178 3274 3273 3274 3179 3275 3180 3276 3275 3212 3308 3276 3277 3308 3212 3277 3182 3278 3279 3278 3183 3280 3279 3184 3309 3280 3213 3186 3282 3281 3281 3309 3213 3283 3282 3187 3283 3188 3284 3189 3285 3284 3190 3286 3285 3286 3191 3287 3287 3214 3310 3310 3214 3288 3289 3288 3193 3194 3290 3289 3291 3290 3195 3291 3196 3292 3292 3197 3293 3293 3215 3311 3215 3294 3311 3199 3295 3294 3312 3295 3216 3217 3304 3208 3217 3296 3313 3218 3219 3314 3296 3218 3314 3219 3220 3315 3316 3220 3221 3317 3221 3222 3222 3297 3318 3224 3319 3223 3223 3319 3297 3225 3320 3224 3321 3225 3226 3227 3322 3226 3227 3228 3323 3228 3298 3324 3298 3203 3299 3325 3229 3230 3325 3299 3229 3231 3326 3230 3327 3231 3232 3232 3233 3328 3233 3300 3329 3330 3234 3235 3300 3234 3330 3331 3235 3236 3332 3236 3237 3333 3237 3238 3334 3238 3239 3241 3335 3239 3240 3336 3301 3241 3301 3337 3242 3336 3240 3338 3242 3243 3339 3243 3244 3340 3244 3245 3246 3341 3245 3246 3302 3342 3302 3247 3343 3247 3248 3343 3249 3344 3248 3345 3249 3250 3346 3250 3303 3303 3251 3347 3251 3252 3347 3252 3253 3348 3349 3253 3254 3255 3350 3254 3256 3351 3255 3352 3256 3257 3257 3258 3353 3259 3354 3258 3312 3216 3304 3305 3260 3355 3356 3260 3261 3262 3356 3261 3263 3357 3262 3358 3263 3306 3264 3359 3306 3264 3265 3359 3265 3266 3360 3266 3267 3361 3267 3307 3362 3269 3363 3268 3268 3363 3307 3269 3270 3364 3365 3270 3271 3272 3366 3271 3367 3272 3273 3274 3368 3273 3369 3274 3275 3276 3370 3275 3276 3308 3371 3372 3308 3277 3372 3277 3278 3279 3373 3278 3280 3374 3279 3375 3280 3309 3282 3376 3281 3281 3376 3309 3377 3282 3283 3378 3283 3284 3285 3379 3284 3286 3380 3285 3286 3287 3381 3382 3287 3310 3383 3310 3288 3289 3383 3288 3290 3384 3289 3385 3290 3291 3291 3292 3386 3292 3293 3387 3388 3293 3311 3294 3389 3311 3295 3389 3294 3312 3390 3295 3217 3313 3304 3313 3296 3391 3219 3315 3314 3391 3296 3314 3315 3220 3316 3317 3316 3221 3317 3222 3318 3318 3297 3392 3224 3320 3319 3297 3319 3392 3321 3320 3225 3322 3321 3226 3322 3227 3323 3228 3324 3323 3324 3298 3393 3298 3299 3393 3326 3325 3230 3299 3325 3394 3327 3326 3231 3327 3232 3328 3233 3329 3328 3300 3395 3329 3330 3235 3331 3300 3330 3395 3331 3236 3332 3332 3237 3333 3333 3238 3334 3335 3334 3239 3335 3241 3337 3336 3396 3301 3301 3396 3337 3338 3336 3242 3338 3243 3339 3339 3244 3340 3341 3340 3245 3246 3342 3341 3342 3302 3397 3397 3302 3343 3248 3344 3343 3345 3344 3249 3346 3345 3250 3398 3346 3303 3398 3303 3347 3252 3348 3347 3348 3253 3349 3350 3349 3254 3350 3255 3399 3352 3351 3256 3255 3351 3399 3352 3257 3353 3258 3354 3353 3400 3312 3304 3401 3305 3355 3355 3260 3402 3260 3356 3402 3262 3357 3356 3358 3357 3263 3403 3358 3306 3359 3403 3306 3265 3360 3359 3360 3266 3361 3267 3362 3361 3362 3307 3404 3269 3364 3363 3307 3363 3404 3364 3270 3365 3366 3365 3271 3367 3366 3272 3368 3367 3273 3369 3368 3274 3370 3369 3275 3370 3276 3371 3308 3405 3371 3372 3405 3308 3373 3372 3278 3374 3373 3279 3375 3374 3280 3406 3375 3309 3377 3376 3282 3376 3406 3309 3377 3283 3378 3379 3378 3284 3285 3380 3379 3286 3381 3380 3381 3287 3382 3407 3382 3310 3383 3407 3310 3289 3384 3383 3385 3384 3290 3385 3291 3386 3386 3292 3387 3387 3293 3388 3408 3388 3311 3389 3408 3311 3295 3390 3389 3409 3390 3312 3313 3400 3304 3313 3391 3410 3315 3411 3314 3411 3391 3314 3315 3316 3412 3413 3316 3317 3414 3317 3318 3415 3318 3392 3319 3320 3416 3392 3319 3416 3321 3417 3320 3418 3321 3322 3419 3322 3323 3324 3420 3323 3421 3324 3393 3393 3299 3394 3326 3422 3325 3325 3422 3394 3423 3326 3327 3424 3327 3328 3329 3425 3328 3395 3426 3329 3330 3331 3427 3395 3330 3427 3331 3332 3428 3332 3333 3429 3430 3333 3334 3335 3431 3334 3432 3335 3337 3433 3396 3336 3396 3434 3337 3433 3336 3338 3338 3339 3435 3339 3340 3436 3340 3341 3437 3342 3438 3341 3439 3342 3397 3440 3397 3343 3344 3440 3343 3441 3344 3345 3442 3345 3346 3443 3346 3398 3398 3347 3444 3347 3348 3444 3348 3349 3445 3446 3349 3350 3447 3350 3399 3352 3448 3351 3351 3449 3399 3450 3352 3353 3354 3451 3353 3409 3312 3400 3401 3355 3452 3453 3355 3402 3356 3454 3402 3357 3454 3356 3358 3455 3357 3403 3456 3358 3457 3403 3359 3360 3457 3359 3458 3360 3361 3361 3362 3459 3362 3404 3460 3363 3364 3461 3404 3363 3461 3364 3365 3462 3463 3365 3366 3367 3464 3366 3368 3465 3367 3369 3466 3368 3467 3369 3370 3468 3370 3371 3405 3469 3371 3470 3405 3372 3470 3372 3373 3471 3373 3374 3472 3374 3375 3473 3375 3406 3474 3376 3377 3474 3406 3376 3377 3378 3475 3476 3378 3379 3380 3477 3379 3380 3381 3478 3381 3382 3479 3480 3382 3407 3481 3407 3383 3384 3481 3383 3482 3384 3385 3385 3386 3483 3484 3386 3387 3485 3387 3388 3408 3486 3388 3389 3487 3408 3389 3390 3487 3409 3488 3390 3400 3313 3410 3391 3489 3410 3315 3412 3411 3391 3411 3489 3412 3316 3413 3413 3317 3414 3415 3414 3318 3490 3415 3392 3320 3417 3416 3490 3392 3416 3418 3417 3321 3418 3322 3419 3420 3419 3323 3324 3421 3420 3421 3393 3491 3393 3394 3491 3423 3422 3326 3422 3492 3394 3423 3327 3424 3425 3424 3328 3426 3425 3329 3426 3395 3493 3331 3428 3427 3493 3395 3427 3332 3429 3428 3429 3333 3430 3431 3430 3334 3432 3431 3335 3434 3432 3337 3494 3396 3433 3494 3434 3396 3433 3338 3435 3339 3436 3435 3436 3340 3437 3341 3438 3437 3342 3439 3438 3495 3439 3397 3440 3495 3397 3441 3440 3344 3441 3345 3442 3442 3346 3443 3443 3398 3496 3496 3398 3444 3348 3445 3444 3445 3349 3446 3447 3446 3350 3449 3447 3399 3450 3448 3352 3351 3448 3449 3451 3450 3353 3409 3400 3497 3498 3401 3452 3355 3453 3452 3454 3453 3402 3455 3454 3357 3358 3456 3455 3499 3456 3403 3499 3403 3457 3360 3458 3457 3458 3361 3459 3362 3460 3459 3404 3500 3460 3364 3462 3461 3404 3461 3500 3462 3365 3463 3464 3463 3366 3465 3464 3367 3368 3466 3465 3467 3466 3369 3468 3467 3370 3469 3468 3371 3501 3469 3405 3501 3405 3470 3470 3373 3471 3471 3374 3472 3472 3375 3473 3473 3406 3502 3474 3377 3475 3502 3406 3474 3378 3476 3475 3477 3476 3379 3477 3380 3478 3381 3479 3478 3479 3382 3480 3480 3407 3503 3503 3407 3481 3482 3481 3384 3482 3385 3483 3483 3386 3484 3485 3484 3387 3486 3485 3388 3486 3408 3504 3408 3487 3504 3390 3488 3487 3505 3488 3409 3497 3400 3410 3489 3506 3410 3412 3507 3411 3411 3507 3489 3412 3413 3508 3509 3413 3414 3415 3510 3414 3511 3415 3490 3417 3512 3416 3512 3490 3416 3418 3513 3417 3514 3418 3419 3420 3515 3419 3421 3516 3420 3517 3421 3491 3394 3492 3491 3518 3422 3423 3518 3492 3422 3423 3424 3519 3520 3424 3425 3426 3521 3425 3522 3426 3493 3428 3523 3427 3523 3493 3427 3429 3524 3428 3429 3430 3525 3526 3430 3431 3527 3431 3432 3528 3432 3434 3494 3433 3529 3530 3434 3494 3529 3433 3435 3435 3436 3531 3532 3436 3437 3438 3533 3437 3438 3439 3534 3495 3535 3439 3536 3495 3440 3536 3440 3441 3441 3442 3537 3442 3443 3538 3443 3496 3539 3540 3496 3444 3445 3540 3444 3445 3446 3541 3542 3446 3447 3543 3447 3449 3544 3448 3450 3448 3545 3449 3451 3546 3450 3505 3409 3497 3547 3498 3452 3453 3547 3452 3548 3453 3454 3548 3454 3455 3455 3456 3549 3499 3550 3456 3551 3499 3457 3458 3551 3457 3552 3458 3459 3460 3553 3459 3460 3500 3554 3461 3462 3555 3500 3461 3555 3462 3463 3556 3557 3463 3464 3558 3464 3465 3466 3559 3465 3467 3560 3466 3468 3561 3467 3469 3562 3468 3563 3469 3501 3501 3470 3564 3470 3471 3564 3471 3472 3565 3472 3473 3566 3473 3502 3567 3568 3474 3475 3502 3474 3568 3476 3569 3475 3477 3570 3476 3571 3477 3478 3479 3572 3478 3479 3480 3573 3480 3503 3574 3503 3481 3575 3575 3481 3482 3576 3482 3483 3577 3483 3484 3485 3578 3484 3579 3485 3486 3580 3486 3504 3487 3581 3504 3488 3581 3487 3505 3582 3488 3506 3497 3410 3489 3583 3506 3412 3508 3507 3489 3507 3583 3508 3413 3509 3510 3509 3414 3511 3510 3415 3584 3511 3490 3417 3513 3512 3584 3490 3512 3514 3513 3418 3515 3514 3419 3516 3515 3420 3517 3516 3421 3585 3517 3491 3492 3585 3491 3518 3423 3519 3586 3492 3518 3424 3520 3519 3521 3520 3425 3522 3521 3426 3587 3522 3493 3524 3523 3428 3523 3587 3493 3429 3525 3524 3525 3430 3526 3526 3431 3527 3527 3432 3528 3528 3434 3530 3494 3529 3588 3530 3494 3588 3529 3435 3531 3531 3436 3532 3533 3532 3437 3533 3438 3534 3439 3535 3534 3589 3535 3495 3589 3495 3536 3536 3441 3537 3442 3538 3537 3538 3443 3539 3539 3496 3590 3496 3540 3590 3445 3541 3540 3541 3446 3542 3542 3447 3543 3545 3543 3449 3544 3545 3448 3546 3544 3450 3591 3505 3497 3592 3547 3453 3592 3453 3548 3593 3548 3455 3456 3550 3549 3593 3455 3549 3499 3594 3550 3551 3594 3499 3552 3551 3458 3553 3552 3459 3553 3460 3554 3500 3595 3554 3462 3556 3555 3595 3500 3555 3556 3463 3557 3557 3464 3558 3559 3558 3465 3466 3560 3559 3467 3561 3560 3468 3562 3561 3563 3562 3469 3563 3501 3596 3501 3564 3596 3471 3565 3564 3565 3472 3566 3473 3567 3566 3567 3502 3597 3569 3568 3475 3502 3568 3597 3476 3570 3569 3571 3570 3477 3572 3571 3478 3479 3573 3572 3573 3480 3574 3503 3598 3574 3503 3575 3598 3575 3482 3576 3577 3576 3483 3578 3577 3484 3579 3578 3485 3579 3486 3580 3599 3580 3504 3581 3599 3504 3488 3582 3581 3600 3582 3505 3506 3591 3497 3506 3583 3601 3507 3508 3602 3583 3507 3602 3508 3509 3603 3604 3509 3510 3605 3510 3511 3511 3584 3606 3513 3607 3512 3607 3584 3512 3608 3513 3514 3609 3514 3515 3610 3515 3516 3611 3516 3517 3612 3517 3585 3586 3585 3492 3518 3519 3613 3586 3518 3613 3519 3520 3614 3521 3615 3520 3522 3616 3521 3587 3617 3522 3618 3523 3524 3618 3587 3523 3525 3619 3524 3525 3526 3620 3526 3527 3621 3527 3528 3622 3528 3530 3623 3588 3529 3624 3625 3530 3588 3624 3529 3531 3626 3531 3532 3533 3627 3532 3628 3533 3534 3535 3629 3534 3630 3535 3589 3589 3536 3631 3631 3536 3537 3537 3538 3632 3633 3538 3539 3634 3539 3590 3540 3635 3590 3540 3541 3635 3541 3542 3636 3637 3542 3543 3545 3638 3543 3544 3639 3545 3546 3640 3544 3600 3505 3591 3641 3592 3548 3593 3641 3548 3550 3642 3549 3642 3593 3549 3550 3594 3643 3551 3644 3594 3552 3644 3551 3553 3645 3552 3646 3553 3554 3595 3647 3554 3556 3648 3555 3648 3595 3555 3556 3557 3649 3557 3558 3650 3558 3559 3651 3559 3560 3652 3560 3561 3653 3561 3562 3654 3563 3655 3562 3656 3563 3596 3564 3657 3596 3565 3657 3564 3658 3565 3566 3566 3567 3659 3567 3597 3660 3568 3569 3661 3568 3661 3597 3569 3570 3662 3571 3663 3570 3572 3664 3571 3572 3573 3665 3666 3573 3574 3598 3667 3574 3575 3668 3598 3575 3576 3668 3669 3576 3577 3670 3577 3578 3671 3578 3579 3579 3580 3672 3580 3599 3673 3581 3674 3599 3581 3582 3674 3600 3675 3582 3591 3506 3601 3583 3676 3601 3508 3603 3602 3676 3583 3602 3603 3509 3604 3604 3510 3605 3605 3511 3606 3584 3677 3606 3608 3607 3513 3607 3677 3584 3608 3514 3609 3609 3515 3610 3610 3516 3611 3611 3517 3612 3612 3585 3678 3678 3585 3586 3613 3519 3614 3679 3586 3613 3520 3615 3614 3521 3616 3615 3522 3617 3616 3587 3680 3617 3619 3618 3524 3618 3680 3587 3525 3620 3619 3620 3526 3621 3527 3622 3621 3528 3623 3622 3623 3530 3625 3681 3588 3624 3681 3625 3588 3626 3624 3531 3627 3626 3532 3628 3627 3533 3629 3628 3534 3630 3629 3535 3630 3589 3682 3589 3631 3682 3631 3537 3632 3632 3538 3633 3634 3633 3539 3683 3634 3590 3635 3683 3590 3541 3636 3635 3636 3542 3637 3638 3637 3543 3639 3638 3545 3544 3640 3639 3600 3591 3684 3685 3641 3593 3550 3686 3642 3685 3593 3642 3594 3687 3643 3686 3550 3643 3594 3644 3687 3552 3645 3644 3646 3645 3553 3647 3646 3554 3595 3688 3647 3556 3649 3648 3648 3688 3595 3649 3557 3650 3558 3651 3650 3559 3652 3651 3652 3560 3653 3653 3561 3654 3562 3655 3654 3656 3655 3563 3689 3656 3596 3657 3689 3596 3565 3658 3657 3658 3566 3659 3567 3660 3659 3597 3690 3660 3569 3662 3661 3597 3661 3690 3570 3663 3662 3571 3664 3663 3572 3665 3664 3665 3573 3666 3667 3666 3574 3691 3667 3598 3668 3691 3598 3668 3576 3669 3669 3577 3670 3670 3578 3671 3671 3579 3672 3672 3580 3673 3599 3692 3673 3674 3692 3599 3582 3675 3674 3693 3675 3600 3684 3591 3601 3676 3694 3601 3603 3695 3602 3695 3676 3602 3603 3604 3696 3604 3605 3697 3698 3605 3606 3677 3699 3606 3700 3607 3608 3700 3677 3607 3608 3609 3701 3609 3610 3702 3610 3611 3703 3611 3612 3704 3612 3678 3705 3678 3586 3679 3706 3613 3614 3706 3679 3613 3615 3707 3614 3615 3616 3708 3616 3617 3709 3617 3680 3710 3619 3711 3618 3618 3711 3680 3619 3620 3712 3713 3620 3621 3621 3622 3714 3623 3715 3622 3623 3625 3716 3717 3681 3624 3718 3625 3681 3626 3717 3624 3627 3719 3626 3628 3720 3627 3629 3721 3628 3722 3629 3630 3723 3630 3682 3682 3631 3724 3724 3631 3632 3725 3632 3633 3634 3726 3633 3727 3634 3683 3683 3635 3728 3635 3636 3728 3636 3637 3729 3637 3638 3730 3731 3638 3639 3640 3732 3639 3693 3600 3684 3686 3733 3642 3733 3685 3642 3687 3734 3643 3734 3686 3643 3644 3735 3687 3644 3645 3735 3646 3736 3645 3647 3737 3646 3647 3688 3738 3648 3649 3739 3648 3739 3688 3740 3649 3650 3651 3741 3650 3651 3652 3742 3652 3653 3743 3744 3653 3654 3655 3745 3654 3746 3655 3656 3656 3689 3747 3657 3748 3689 3658 3748 3657 3749 3658 3659 3660 3750 3659 3660 3690 3751 3661 3662 3752 3690 3661 3752 3663 3753 3662 3663 3664 3754 3664 3665 3755 3665 3666 3756 3757 3666 3667 3691 3758 3667 3668 3759 3691 3668 3669 3759 3669 3670 3760 3670 3671 3761 3762 3671 3672 3763 3672 3673 3692 3764 3673 3674 3765 3692 3674 3675 3765 3693 3766 3675 3694 3684 3601 3676 3767 3694 3603 3696 3695 3695 3767 3676 3696 3604 3697 3605 3698 3697 3699 3698 3606 3768 3699 3677 3700 3608 3701 3768 3677 3700 3609 3702 3701 3610 3703 3702 3703 3611 3704 3612 3705 3704 3678 3769 3705 3678 3679 3769 3707 3706 3614 3770 3679 3706 3615 3708 3707 3708 3616 3709 3617 3710 3709 3680 3771 3710 3619 3712 3711 3680 3711 3771 3712 3620 3713 3713 3621 3714 3622 3715 3714 3623 3716 3715 3716 3625 3718 3772 3681 3717 3718 3681 3772 3626 3719 3717 3627 3720 3719 3628 3721 3720 3722 3721 3629 3722 3630 3723 3773 3723 3682 3773 3682 3724 3725 3724 3632 3726 3725 3633 3727 3726 3634 3727 3683 3774 3774 3683 3728 3728 3636 3729 3729 3637 3730 3638 3775 3730 3731 3775 3638 3732 3731 3639 3776 3693 3684 3777 3733 3686 3778 3734 3687 3734 3777 3686 3735 3778 3687 3645 3736 3735 3646 3737 3736 3647 3738 3737 3738 3688 3779 3739 3649 3740 3688 3739 3779 3741 3740 3650 3741 3651 3742 3742 3652 3743 3653 3744 3743 3745 3744 3654 3746 3745 3655 3746 3656 3747 3689 3780 3747 3748 3780 3689 3749 3748 3658 3750 3749 3659 3750 3660 3751 3690 3781 3751 3662 3753 3752 3781 3690 3752 3663 3754 3753 3754 3664 3755 3665 3756 3755 3756 3666 3757 3758 3757 3667 3691 3782 3758 3691 3759 3782 3759 3669 3760 3670 3761 3760 3761 3671 3762 3763 3762 3672 3764 3763 3673 3692 3783 3764 3692 3765 3783 3675 3766 3765 3784 3766 3693 3694 3776 3684 3694 3767 3785 3695 3696 3786 3695 3786 3767 3787 3696 3697 3697 3698 3788 3699 3789 3698 3790 3699 3768 3700 3701 3791 3768 3700 3791 3702 3792 3701 3703 3793 3702 3703 3704 3794 3705 3795 3704 3769 3796 3705 3769 3679 3770 3706 3707 3797 3770 3706 3797 3707 3708 3798 3799 3708 3709 3710 3800 3709 3710 3771 3801 3711 3712 3802 3771 3711 3802 3712 3713 3803 3804 3713 3714 3715 3805 3714 3715 3716 3806 3716 3718 3807 3808 3772 3717 3809 3718 3772 3719 3808 3717 3719 3720 3810 3720 3721 3811 3722 3812 3721 3813 3722 3723 3773 3814 3723 3815 3773 3724 3725 3815 3724 3726 3816 3725 3727 3817 3726 3818 3727 3774 3819 3774 3728 3819 3728 3729 3820 3729 3730 3775 3820 3730 3731 3821 3775 3732 3822 3731 3784 3693 3776 3823 3734 3778 3823 3777 3734 3778 3735 3824 3735 3736 3824 3736 3737 3825 3737 3738 3826 3827 3738 3779 3739 3740 3828 3739 3828 3779 3829 3740 3741 3741 3742 3830 3831 3742 3743 3744 3832 3743 3745 3833 3744 3746 3834 3745 3835 3746 3747 3747 3780 3836 3748 3837 3780 3749 3837 3748 3750 3838 3749 3839 3750 3751 3781 3840 3751 3753 3841 3752 3841 3781 3752 3753 3754 3842 3754 3755 3843 3755 3756 3844 3756 3757 3845 3757 3758 3846 3758 3782 3847 3782 3759 3848 3759 3760 3848 3761 3849 3760 3761 3762 3850 3851 3762 3763 3763 3764 3852 3783 3853 3764 3765 3854 3783 3766 3854 3765 3855 3766 3784 3694 3785 3776 3767 3856 3785 3786 3696 3787 3786 3856 3767 3787 3697 3788 3698 3789 3788 3790 3789 3699 3790 3768 3857 3701 3792 3791 3857 3768 3791 3793 3792 3702 3793 3703 3794 3704 3795 3794 3705 3796 3795 3769 3858 3796 3769 3770 3858 3797 3707 3798 3859 3770 3797 3798 3708 3799 3800 3799 3709 3800 3710 3801 3801 3771 3860 3712 3803 3802 3771 3802 3860 3803 3713 3804 3805 3804 3714 3715 3806 3805 3716 3807 3806 3807 3718 3809 3808 3861 3772 3861 3809 3772 3719 3810 3808 3810 3720 3811 3721 3812 3811 3813 3812 3722 3814 3813 3723 3773 3862 3814 3815 3862 3773 3725 3816 3815 3726 3817 3816 3818 3817 3727 3863 3818 3774 3819 3863 3774 3820 3819 3729 3820 3775 3864 3822 3821 3731 3775 3821 3864 3865 3784 3776 3866 3823 3778 3867 3778 3824 3736 3825 3824 3737 3826 3825 3826 3738 3827 3868 3827 3779 3828 3740 3829 3828 3868 3779 3829 3741 3830 3742 3831 3830 3832 3831 3743 3744 3833 3832 3745 3834 3833 3835 3834 3746 3835 3747 3836 3836 3780 3869 3780 3837 3869 3749 3838 3837 3839 3838 3750 3840 3839 3751 3781 3870 3840 3753 3842 3841 3841 3870 3781 3842 3754 3843 3843 3755 3844 3844 3756 3845 3757 3846 3845 3758 3847 3846 3847 3782 3871 3871 3782 3848 3760 3849 3848 3761 3850 3849 3850 3762 3851 3851 3763 3852 3764 3853 3852 3872 3853 3783 3854 3872 3783 3855 3854 3766 3855 3784 3873 3785 3865 3776 3856 3874 3785 3786 3787 3875 3856 3786 3875 3787 3788 3876 3789 3877 3788 3878 3789 3790 3790 3857 3879 3792 3880 3791 3880 3857 3791 3793 3881 3792 3882 3793 3794 3795 3883 3794 3795 3796 3884 3858 3885 3796 3858 3770 3859 3886 3797 3798 3886 3859 3797 3887 3798 3799 3800 3888 3799 3889 3800 3801 3890 3801 3860 3802 3803 3891 3860 3802 3891 3803 3804 3892 3804 3805 3893 3806 3894 3805 3807 3895 3806 3807 3809 3896 3861 3808 3897 3898 3809 3861 3808 3810 3897 3899 3810 3811 3812 3900 3811 3901 3812 3813 3813 3814 3902 3862 3903 3814 3815 3904 3862 3815 3816 3904 3816 3817 3905 3818 3906 3817 3907 3818 3863 3908 3863 3819 3908 3819 3820 3909 3820 3864 3822 3910 3821 3821 3911 3864 3873 3784 3865 3867 3866 3778 3867 3824 3912 3824 3825 3912 3826 3913 3825 3826 3827 3914 3915 3827 3868 3828 3829 3916 3828 3916 3868 3917 3829 3830 3831 3918 3830 3832 3919 3831 3832 3833 3920 3833 3834 3921 3835 3922 3834 3923 3835 3836 3924 3836 3869 3837 3925 3869 3837 3838 3925 3839 3926 3838 3840 3927 3839 3840 3870 3928 3841 3842 3929 3841 3929 3870 3930 3842 3843 3931 3843 3844 3932 3844 3845 3846 3933 3845 3846 3847 3934 3847 3871 3935 3936 3871 3848 3849 3936 3848 3849 3850 3937 3850 3851 3938 3939 3851 3852 3853 3940 3852 3872 3941 3853 3942 3872 3854 3942 3854 3855 3855 3873 3943 3874 3865 3785 3944 3874 3856 3787 3876 3875 3944 3856 3875 3788 3877 3876 3878 3877 3789 3878 3790 3879 3857 3945 3879 3792 3881 3880 3945 3857 3880 3882 3881 3793 3883 3882 3794 3883 3795 3884 3796 3885 3884 3858 3946 3885 3858 3859 3946 3887 3886 3798 3947 3859 3886 3888 3887 3799 3889 3888 3800 3890 3889 3801 3948 3890 3860 3891 3803 3892 3948 3860 3891 3804 3893 3892 3805 3894 3893 3806 3895 3894 3807 3896 3895 3896 3809 3898 3949 3861 3897 3898 3861 3949 3810 3899 3897 3900 3899 3811 3901 3900 3812 3901 3813 3902 3814 3903 3902 3862 3950 3903 3862 3904 3950 3904 3816 3905 3817 3906 3905 3907 3906 3818 3907 3863 3951 3951 3863 3908 3908 3820 3909 3911 3909 3864 3821 3910 3911 3873 3865 3952 3953 3866 3867 3954 3867 3912 3825 3913 3912 3826 3914 3913 3914 3827 3915 3955 3915 3868 3916 3829 3917 3916 3955 3868 3918 3917 3830 3919 3918 3831 3832 3920 3919 3920 3833 3921 3834 3922 3921 3923 3922 3835 3924 3923 3836 3956 3924 3869 3925 3956 3869 3838 3926 3925 3839 3927 3926 3840 3928 3927 3928 3870 3957 3929 3842 3930 3870 3929 3957 3930 3843 3931 3932 3931 3844 3933 3932 3845 3933 3846 3934 3847 3935 3934 3935 3871 3958 3871 3936 3958 3849 3937 3936 3937 3850 3938 3938 3851 3939 3940 3939 3852 3853 3941 3940 3959 3941 3872 3959 3872 3942 3942 3855 3943 3873 3960 3943 3952 3865 3874 3961 3874 3944 3876 3962 3875 3962 3944 3875 3877 3963 3876 3964 3877 3878 3878 3879 3965 3945 3966 3879 3881 3967 3880 3967 3945 3880 3882 3968 3881 3969 3882 3883 3883 3884 3970 3885 3971 3884 3885 3946 3972 3946 3859 3947 3973 3886 3887 3947 3886 3973 3888 3974 3887 3889 3975 3888 3976 3889 3890 3948 3977 3890 3978 3891 3892 3978 3948 3891 3893 3979 3892 3893 3894 3980 3894 3895 3981 3895 3896 3982 3896 3898 3983 3984 3949 3897 3898 3949 3985 3899 3984 3897 3900 3986 3899 3987 3900 3901 3988 3901 3902 3903 3989 3902 3903 3950 3990 3904 3991 3950 3991 3904 3905 3906 3992 3905 3993 3906 3907 3907 3951 3994 3951 3908 3995 3995 3908 3909 3996 3909 3911 3910 3997 3911 3873 3952 3960 3953 3867 3954 3913 3954 3912 3913 3914 3998 3914 3915 3999 3915 3955 4000 3916 3917 4001 3916 4001 3955 4002 3917 3918 3918 3919 4003 3919 3920 4004 3920 3921 4005 3922 4006 3921 3923 4007 3922 4008 3923 3924 3924 3956 4009 3925 4010 3956 3926 4010 3925 3926 3927 4011 3927 3928 4012 3928 3957 4013 3929 3930 4014 3929 4014 3957 4015 3930 3931 3932 4016 3931 3933 4017 3932 4018 3933 3934 3934 3935 4019 4020 3935 3958 3958 3936 4021 3936 3937 4021 3937 3938 4022 4023 3938 3939 3940 4024 3939 3941 4025 3940 4026 3941 3959 3959 3942 4027 3942 3943 4027 3960 4028 3943 3952 3874 3961 3961 3944 4029 3963 3962 3876 4029 3944 3962 3964 3963 3877 3964 3878 3965 3879 3966 3965 3945 4030 3966 3881 3968 3967 3967 4030 3945 3969 3968 3882 3969 3883 3970 3884 3971 3970 3885 3972 3971 3946 4031 3972 3946 3947 4031 3974 3973 3887 4032 3947 3973 3888 3975 3974 3976 3975 3889 3977 3976 3890 4033 3977 3948 3979 3978 3892 4033 3948 3978 3979 3893 3980 3980 3894 3981 3895 3982 3981 3982 3896 3983 3983 3898 3985 3949 3984 4034 3949 4034 3985 3899 3986 3984 3987 3986 3900 3987 3901 3988 3989 3988 3902 3903 3990 3989 3990 3950 4035 3950 3991 4035 3992 3991 3905 3993 3992 3906 3993 3907 3994 3951 4036 3994 3951 3995 4036 3996 3995 3909 3997 3996 3911 3952 4037 3960 4038 3953 3954 3913 4039 3954 3914 3999 3998 4039 3913 3998 3999 3915 4000 3955 4040 4000 4001 3917 4002 3955 4001 4041 4002 3918 4003 3919 4004 4003 4004 3920 4005 3921 4006 4005 3922 4007 4006 4008 4007 3923 4008 3924 4009 4009 3956 4042 3956 4010 4042 3926 4011 4010 4011 3927 4012 3928 4013 4012 4013 3957 4043 4014 3930 4015 3957 4014 4043 4016 4015 3931 3932 4017 4016 4018 4017 3933 4018 3934 4019 4019 3935 4020 4044 4020 3958 4044 3958 4021 4021 3937 4022 4022 3938 4023 4024 4023 3939 4025 4024 3940 4026 4025 3941 4026 3959 4045 4045 3959 4027 3943 4028 4027 4046 4028 3960 3952 3961 4037 3961 4029 4047 4048 3962 3963 4029 3962 4048 4049 3963 3964 4050 3964 3965 3965 3966 4051 3966 4030 4052 3967 3968 4053 3967 4053 4030 3969 4054 3968 4055 3969 3970 3971 4056 3970 3971 3972 4057 4031 4058 3972 4031 3947 4032 3974 4059 3973 4059 4032 3973 3974 3975 4060 3976 4061 3975 4062 3976 3977 4063 3977 4033 3979 4064 3978 4064 4033 3978 4065 3979 3980 4066 3980 3981 3981 3982 4067 4068 3982 3983 4069 3983 3985 3984 4070 4034 4034 4071 3985 3986 4070 3984 4072 3986 3987 3987 3988 4073 3988 3989 4074 3990 4075 3989 4076 3990 4035 3991 4077 4035 3992 4077 3991 4078 3992 3993 4079 3993 3994 3994 4036 4080 4036 3995 4081 3995 3996 4081 3997 4082 3996 4037 4046 3960 4039 4038 3954 3999 4083 3998 4083 4039 3998 4084 3999 4000 4040 3955 4041 4040 4084 4000 4001 4002 4085 4001 4085 4041 4086 4002 4003 4004 4087 4003 4088 4004 4005 4006 4089 4005 4006 4007 4090 4008 4091 4007 4092 4008 4009 4093 4009 4042 4042 4010 4094 4010 4011 4094 4011 4012 4095 4012 4013 4096 4013 4043 4097 4014 4015 4098 4043 4014 4098 4015 4016 4099 4017 4100 4016 4018 4101 4017 4102 4018 4019 4103 4019 4020 4044 4104 4020 4105 4044 4021 4105 4021 4022 4106 4022 4023 4024 4107 4023 4025 4108 4024 4109 4025 4026 4026 4045 4110 4111 4045 4027 4028 4111 4027 4046 4112 4028 4037 3961 4047 4029 4113 4047 4048 3963 4049 4029 4048 4113 4049 3964 4050 4050 3965 4051 4051 3966 4052 4030 4114 4052 3968 4054 4053 4030 4053 4114 4055 4054 3969 4056 4055 3970 4056 3971 4057 3972 4058 4057 4031 4115 4058 4031 4032 4115 3974 4060 4059 4116 4032 4059 3975 4061 4060 4062 4061 3976 4062 3977 4063 4063 4033 4117 4065 4064 3979 4117 4033 4064 4066 4065 3980 4066 3981 4067 4067 3982 4068 4069 4068 3983 4071 4069 3985 4070 4118 4034 4118 4071 4034 4072 4070 3986 4072 3987 4073 4073 3988 4074 3989 4075 4074 3990 4076 4075 4119 4076 4035 4077 4119 4035 4078 4077 3992 4078 3993 4079 4079 3994 4080 4080 4036 4120 4036 4081 4120 4081 3996 4121 3996 4082 4121 4046 4037 4122 4123 4038 4039 4084 4083 3999 4123 4039 4083 4124 4040 4041 4040 4125 4084 4085 4002 4086 4085 4124 4041 4087 4086 4003 4087 4004 4088 4089 4088 4005 4089 4006 4090 4007 4091 4090 4092 4091 4008 4093 4092 4009 4126 4093 4042 4126 4042 4094 4094 4011 4095 4095 4012 4096 4096 4013 4097 4097 4043 4127 4098 4015 4099 4127 4043 4098 4016 4100 4099 4017 4101 4100 4102 4101 4018 4103 4102 4019 4104 4103 4020 4128 4104 4044 4128 4044 4105 4106 4105 4022 4107 4106 4023 4024 4108 4107 4109 4108 4025 4109 4026 4110 4045 4129 4110 4129 4045 4111 4028 4112 4111 4130 4112 4046 4122 4037 4047 4047 4113 4131 4048 4049 4132 4113 4048 4132 4049 4050 4133 4134 4050 4051 4135 4051 4052 4114 4136 4052 4054 4137 4053 4053 4137 4114 4055 4138 4054 4139 4055 4056 4056 4057 4140 4058 4141 4057 4115 4142 4058 4115 4032 4116 4060 4143 4059 4143 4116 4059 4061 4144 4060 4145 4061 4062 4062 4063 4146 4063 4117 4147 4148 4064 4065 4117 4064 4148 4149 4065 4066 4150 4066 4067 4151 4067 4068 4069 4152 4068 4071 4153 4069 4154 4118 4070 4118 4155 4071 4154 4070 4072 4156 4072 4073 4157 4073 4074 4075 4158 4074 4076 4159 4075 4119 4160 4076 4161 4119 4077 4161 4077 4078 4078 4079 4162 4163 4079 4080 4164 4080 4120 4081 4165 4120 4165 4081 4121 4082 4166 4121 4130 4046 4122 4083 4084 4167 4168 4123 4083 4124 4125 4040 4084 4125 4167 4085 4086 4169 4085 4169 4124 4170 4086 4087 4171 4087 4088 4089 4172 4088 4173 4089 4090 4090 4091 4174 4092 4175 4091 4176 4092 4093 4126 4177 4093 4178 4126 4094 4178 4094 4095 4179 4095 4096 4180 4096 4097 4181 4097 4127 4182 4098 4099 4182 4127 4098 4100 4183 4099 4101 4184 4100 4185 4101 4102 4186 4102 4103 4187 4103 4104 4188 4104 4128 4189 4128 4105 4106 4189 4105 4190 4106 4107 4108 4191 4107 4192 4108 4109 4109 4110 4193 4129 4194 4110 4195 4129 4111 4112 4195 4111 4130 4196 4112 4122 4047 4131 4113 4197 4131 4049 4133 4132 4197 4113 4132 4133 4050 4134 4135 4134 4051 4136 4135 4052 4114 4198 4136 4054 4138 4137 4114 4137 4198 4139 4138 4055 4139 4056 4140 4057 4141 4140 4142 4141 4058 4115 4199 4142 4115 4116 4199 4144 4143 4060 4200 4116 4143 4145 4144 4061 4145 4062 4146 4063 4147 4146 4147 4117 4201 4148 4065 4149 4117 4148 4201 4149 4066 4150 4151 4150 4067 4152 4151 4068 4069 4153 4152 4071 4155 4153 4202 4118 4154 4202 4155 4118 4154 4072 4156 4157 4156 4073 4158 4157 4074 4075 4159 4158 4076 4160 4159 4119 4203 4160 4161 4203 4119 4161 4078 4162 4162 4079 4163 4164 4163 4080 4165 4164 4120 4166 4165 4121 4204 4130 4122 4168 4083 4167 4205 4125 4124 4125 4206 4167 4169 4086 4170 4169 4207 4124 4170 4087 4171 4172 4171 4088 4173 4172 4089 4173 4090 4174 4091 4175 4174 4176 4175 4092 4177 4176 4093 4208 4177 4126 4208 4126 4178 4179 4178 4095 4180 4179 4096 4181 4180 4097 4209 4181 4127 4183 4182 4099 4182 4209 4127 4184 4183 4100 4185 4184 4101 4185 4102 4186 4186 4103 4187 4187 4104 4188 4188 4128 4210 4210 4128 4189 4190 4189 4106 4191 4190 4107 4192 4191 4108 4192 4109 4193 4110 4194 4193 4129 4211 4194 4195 4211 4129 4112 4196 4195 4212 4196 4130 4204 4122 4131 4197 4213 4131 4133 4214 4132 4214 4197 4132 4133 4134 4215 4216 4134 4135 4135 4136 4217 4136 4198 4218 4137 4138 4219 4198 4137 4219 4139 4220 4138 4221 4139 4140 4141 4222 4140 4142 4223 4141 4142 4199 4224 4199 4116 4200 4225 4143 4144 4200 4143 4225 4226 4144 4145 4145 4146 4227 4146 4147 4228 4147 4201 4229 4148 4149 4230 4148 4230 4201 4231 4149 4150 4232 4150 4151 4152 4233 4151 4152 4153 4234 4155 4235 4153 4202 4154 4236 4237 4155 4202 4236 4154 4156 4157 4238 4156 4158 4239 4157 4158 4159 4240 4159 4160 4241 4203 4242 4160 4243 4203 4161 4243 4161 4162 4244 4162 4163 4163 4164 4245 4165 4246 4164 4166 4247 4165 4212 4130 4204 4248 4168 4167 4205 4206 4125 4207 4205 4124 4206 4248 4167 4169 4170 4249 4169 4249 4207 4250 4170 4171 4172 4251 4171 4252 4172 4173 4173 4174 4253 4175 4254 4174 4255 4175 4176 4256 4176 4177 4257 4177 4208 4258 4208 4178 4179 4258 4178 4259 4179 4180 4181 4260 4180 4261 4181 4209 4183 4262 4182 4182 4262 4209 4263 4183 4184 4264 4184 4185 4185 4186 4265 4186 4187 4266 4187 4188 4267 4188 4210 4268 4210 4189 4269 4269 4189 4190 4270 4190 4191 4271 4191 4192 4272 4192 4193 4193 4194 4273 4194 4211 4274 4195 4275 4211 4195 4196 4275 4212 4276 4196 4213 4204 4131 4197 4277 4213 4133 4215 4214 4214 4277 4197 4215 4134 4216 4216 4135 4217 4217 4136 4218 4198 4278 4218 4138 4220 4219 4198 4219 4278 4221 4220 4139 4222 4221 4140 4141 4223 4222 4142 4224 4223 4224 4199 4279 4199 4200 4279 4225 4144 4226 4200 4225 4280 4226 4145 4227 4227 4146 4228 4228 4147 4229 4201 4281 4229 4230 4149 4231 4230 4281 4201 4232 4231 4150 4233 4232 4151 4152 4234 4233 4153 4235 4234 4237 4235 4155 4202 4236 4282 4237 4202 4282 4238 4236 4156 4157 4239 4238 4158 4240 4239 4240 4159 4241 4160 4242 4241 4283 4242 4203 4283 4203 4243 4244 4243 4162 4284 4244 4163 4164 4246 4245 4284 4163 4245 4165 4247 4246 4212 4204 4285 4286 4206 4205 4205 4207 4287 4288 4248 4206 4249 4170 4250 4207 4249 4289 4251 4250 4171 4252 4251 4172 4252 4173 4253 4174 4254 4253 4255 4254 4175 4255 4176 4256 4256 4177 4257 4257 4208 4290 4290 4208 4258 4259 4258 4179 4260 4259 4180 4261 4260 4181 4291 4261 4209 4263 4262 4183 4262 4291 4209 4263 4184 4264 4264 4185 4265 4186 4266 4265 4266 4187 4267 4188 4268 4267 4268 4210 4292 4210 4269 4292 4269 4190 4270 4270 4191 4271 4271 4192 4272 4272 4193 4273 4273 4194 4274 4211 4293 4274 4275 4293 4211 4196 4276 4275 4294 4276 4212 4285 4204 4213 4277 4295 4213 4215 4296 4214 4296 4277 4214 4215 4216 4297 4298 4216 4217 4299 4217 4218 4218 4278 4300 4220 4301 4219 4219 4301 4278 4221 4302 4220 4303 4221 4222 4223 4304 4222 4223 4224 4305 4224 4279 4306 4200 4280 4279 4225 4226 4307 4225 4307 4280 4308 4226 4227 4309 4227 4228 4310 4228 4229 4229 4281 4311 4230 4231 4312 4230 4312 4281 4313 4231 4232 4232 4233 4314 4234 4315 4233 4235 4316 4234 4317 4235 4237 4282 4236 4318 4319 4237 4282 4236 4238 4318 4239 4320 4238 4239 4240 4321 4322 4240 4241 4242 4323 4241 4324 4242 4283 4283 4243 4325 4325 4243 4244 4326 4244 4284 4246 4327 4245 4327 4284 4245 4247 4328 4246 4294 4212 4285 4288 4206 4286 4286 4205 4287 4287 4207 4289 4249 4250 4329 4249 4329 4289 4330 4250 4251 4331 4251 4252 4332 4252 4253 4254 4333 4253 4334 4254 4255 4255 4256 4335 4256 4257 4336 4257 4290 4337 4290 4258 4338 4338 4258 4259 4339 4259 4260 4340 4260 4261 4341 4261 4291 4342 4262 4263 4342 4291 4262 4263 4264 4343 4264 4265 4344 4266 4345 4265 4266 4267 4346 4268 4347 4267 4348 4268 4292 4269 4349 4292 4269 4270 4349 4270 4271 4350 4271 4272 4351 4352 4272 4273 4353 4273 4274 4293 4354 4274 4355 4293 4275 4276 4355 4275 4294 4356 4276 4295 4285 4213 4277 4357 4295 4215 4297 4296 4296 4357 4277 4297 4216 4298 4299 4298 4217 4299 4218 4300 4300 4278 4358 4220 4302 4301 4278 4301 4358 4303 4302 4221 4304 4303 4222 4223 4305 4304 4305 4224 4306 4279 4359 4306 4280 4359 4279 4307 4226 4308 4307 4360 4280 4309 4308 4227 4310 4309 4228 4310 4229 4311 4311 4281 4361 4312 4231 4313 4281 4312 4361 4313 4232 4314 4233 4315 4314 4316 4315 4234 4317 4316 4235 4317 4237 4319 4362 4282 4318 4362 4319 4282 4238 4320 4318 4320 4239 4321 4240 4322 4321 4323 4322 4241 4324 4323 4242 4324 4283 4363 4283 4325 4363 4325 4244 4326 4326 4284 4364 4328 4327 4246 4284 4327 4364 4365 4294 4285 4366 4288 4286 4367 4286 4287 4287 4289 4368 4329 4250 4330 4329 4369 4289 4330 4251 4331 4332 4331 4252 4333 4332 4253 4334 4333 4254 4334 4255 4335 4256 4336 4335 4257 4337 4336 4337 4290 4370 4290 4338 4370 4338 4259 4339 4339 4260 4340 4340 4261 4341 4341 4291 4371 4342 4263 4343 4371 4291 4342 4343 4264 4344 4265 4345 4344 4266 4346 4345 4267 4347 4346 4268 4348 4347 4372 4348 4292 4349 4372 4292 4349 4270 4350 4271 4351 4350 4351 4272 4352 4353 4352 4273 4354 4353 4274 4293 4373 4354 4355 4373 4293 4276 4356 4355 4374 4356 4294 4295 4365 4285 4295 4357 4375 4296 4297 4376 4296 4376 4357 4297 4298 4377 4378 4298 4299 4379 4299 4300 4380 4300 4358 4301 4302 4381 4301 4381 4358 4303 4382 4302 4304 4383 4303 4304 4305 4384 4385 4305 4306 4306 4359 4386 4280 4360 4359 4307 4308 4387 4307 4387 4360 4388 4308 4309 4310 4389 4309 4390 4310 4311 4391 4311 4361 4312 4313 4392 4312 4392 4361 4393 4313 4314 4315 4394 4314 4316 4395 4315 4396 4316 4317 4397 4317 4319 4398 4362 4318 4319 4362 4399 4320 4398 4318 4400 4320 4321 4321 4322 4401 4323 4402 4322 4403 4323 4324 4404 4324 4363 4325 4405 4363 4325 4326 4405 4406 4326 4364 4328 4407 4327 4327 4408 4364 4374 4294 4365 4367 4366 4286 4367 4287 4368 4289 4369 4368 4329 4330 4409 4329 4409 4369 4330 4331 4410 4331 4332 4411 4333 4412 4332 4413 4333 4334 4414 4334 4335 4336 4415 4335 4337 4416 4336 4417 4337 4370 4338 4418 4370 4338 4339 4418 4339 4340 4419 4340 4341 4420 4341 4371 4421 4342 4343 4422 4371 4342 4422 4423 4343 4344 4344 4345 4424 4345 4346 4425 4346 4347 4426 4348 4427 4347 4372 4428 4348 4372 4349 4429 4429 4349 4350 4351 4430 4350 4351 4352 4431 4432 4352 4353 4353 4354 4433 4354 4373 4434 4355 4435 4373 4355 4356 4435 4374 4436 4356 4365 4295 4375 4357 4437 4375 4297 4377 4376 4376 4437 4357 4377 4298 4378 4378 4299 4379 4380 4379 4300 4380 4358 4438 4302 4382 4381 4358 4381 4438 4303 4383 4382 4304 4384 4383 4384 4305 4385 4385 4306 4386 4386 4359 4439 4359 4360 4439 4387 4308 4388 4360 4387 4440 4389 4388 4309 4390 4389 4310 4391 4390 4311 4391 4361 4441 4392 4313 4393 4361 4392 4441 4394 4393 4314 4315 4395 4394 4396 4395 4316 4396 4317 4397 4397 4319 4399 4398 4442 4362 4362 4442 4399 4400 4398 4320 4400 4321 4401 4322 4402 4401 4403 4402 4323 4403 4324 4404 4404 4363 4443 4363 4405 4443 4405 4326 4406 4408 4406 4364 4407 4408 4327 4374 4365 4444 4445 4366 4367 4446 4367 4368 4369 4446 4368 4409 4330 4410 4369 4409 4447 4331 4411 4410 4332 4412 4411 4413 4412 4333 4413 4334 4414 4415 4414 4335 4416 4415 4336 4416 4337 4417 4448 4417 4370 4418 4448 4370 4418 4339 4419 4340 4420 4419 4341 4421 4420 4421 4371 4449 4422 4343 4423 4449 4371 4422 4423 4344 4424 4345 4425 4424 4425 4346 4426 4347 4427 4426 4428 4427 4348 4450 4428 4372 4450 4372 4429 4430 4429 4350 4351 4431 4430 4431 4352 4432 4432 4353 4433 4433 4354 4434 4373 4451 4434 4435 4451 4373 4356 4436 4435 4452 4436 4374 4365 4375 4444 4437 4453 4375 4377 4454 4376 4454 4437 4376 4377 4378 4455 4456 4378 4379 4380 4457 4379 4458 4380 4438 4381 4382 4459 4438 4381 4459 4382 4383 4460 4383 4384 4461 4384 4385 4462 4385 4386 4463 4464 4386 4439 4360 4440 4439 4387 4388 4465 4387 4465 4440 4466 4388 4389 4467 4389 4390 4468 4390 4391 4469 4391 4441 4392 4393 4470 4441 4392 4470 4393 4394 4471 4395 4472 4394 4473 4395 4396 4396 4397 4474 4475 4397 4399 4476 4442 4398 4442 4477 4399 4476 4398 4400 4478 4400 4401 4402 4479 4401 4480 4402 4403 4403 4404 4481 4482 4404 4443 4405 4483 4443 4483 4405 4406 4408 4484 4406 4407 4485 4408 4452 4374 4444 4445 4367 4486 4367 4446 4486 4369 4447 4446 4487 4409 4410 4447 4409 4487 4411 4488 4410 4412 4489 4411 4490 4412 4413 4491 4413 4414 4415 4492 4414 4416 4493 4415 4494 4416 4417 4495 4417 4448 4448 4418 4496 4418 4419 4496 4420 4497 4419 4421 4498 4420 4421 4449 4499 4500 4422 4423 4449 4422 4500 4501 4423 4424 4425 4502 4424 4503 4425 4426 4427 4504 4426 4428 4505 4427 4450 4506 4428 4507 4450 4429 4430 4507 4429 4430 4431 4508 4431 4432 4509 4510 4432 4433 4511 4433 4434 4451 4512 4434 4513 4451 4435 4436 4513 4435 4452 4514 4436 4375 4453 4444 4437 4515 4453 4377 4455 4454 4454 4515 4437 4455 4378 4456 4457 4456 4379 4458 4457 4380 4516 4458 4438 4382 4460 4459 4516 4438 4459 4383 4461 4460 4461 4384 4462 4462 4385 4463 4386 4464 4463 4517 4464 4439 4440 4517 4439 4465 4388 4466 4465 4518 4440 4466 4389 4467 4467 4390 4468 4468 4391 4469 4469 4441 4519 4393 4471 4470 4519 4441 4470 4394 4472 4471 4473 4472 4395 4473 4396 4474 4474 4397 4475 4477 4475 4399 4476 4520 4442 4442 4520 4477 4476 4400 4478 4479 4478 4401 4480 4479 4402 4480 4403 4481 4481 4404 4521 4404 4482 4521 4483 4482 4443 4484 4483 4406 4408 4485 4484 4522 4452 4444 4523 4445 4486 4446 4524 4486 4446 4447 4524 4488 4487 4410 4525 4447 4487 4489 4488 4411 4490 4489 4412 4490 4413 4491 4492 4491 4414 4415 4493 4492 4494 4493 4416 4495 4494 4417 4495 4448 4526 4526 4448 4496 4419 4497 4496 4498 4497 4420 4421 4499 4498 4499 4449 4527 4501 4500 4423 4527 4449 4500 4502 4501 4424 4425 4503 4502 4504 4503 4426 4427 4505 4504 4428 4506 4505 4528 4506 4450 4528 4450 4507 4507 4430 4508 4431 4509 4508 4509 4432 4510 4511 4510 4433 4512 4511 4434 4451 4529 4512 4513 4529 4451 4436 4514 4513 4452 4530 4514 4453 4522 4444 4453 4515 4531 4455 4532 4454 4532 4515 4454 4455 4456 4533 4534 4456 4457 4535 4457 4458 4536 4458 4516 4460 4537 4459 4537 4516 4459 4460 4461 4538 4539 4461 4462 4540 4462 4463 4464 4541 4463 4542 4464 4517 4440 4518 4517 4465 4466 4543 4465 4543 4518 4466 4467 4544 4467 4468 4545 4468 4469 4546 4547 4469 4519 4471 4548 4470 4548 4519 4470 4472 4549 4471 4550 4472 4473 4551 4473 4474 4552 4474 4475 4477 4553 4475 4554 4520 4476 4520 4555 4477 4554 4476 4478 4479 4556 4478 4557 4479 4480 4558 4480 4481 4559 4481 4521 4482 4560 4521 4483 4561 4482 4562 4483 4484 4485 4563 4484 4522 4530 4452 4524 4523 4486 4447 4525 4524 4487 4488 4564 4525 4487 4564 4489 4565 4488 4566 4489 4490 4490 4491 4567 4568 4491 4492 4493 4569 4492 4494 4570 4493 4495 4571 4494 4572 4495 4526 4573 4526 4496 4497 4573 4496 4498 4574 4497 4499 4575 4498 4499 4527 4576 4501 4577 4500 4577 4527 4500 4578 4501 4502 4503 4579 4502 4580 4503 4504 4504 4505 4581 4505 4506 4582 4528 4583 4506 4528 4507 4584 4507 4508 4584 4509 4585 4508 4509 4510 4586 4587 4510 4511 4511 4512 4588 4529 4589 4512 4513 4590 4529 4513 4514 4590 4514 4530 4591 4522 4453 4531 4515 4592 4531 4455 4533 4532 4532 4592 4515 4533 4456 4534 4534 4457 4535 4535 4458 4536 4536 4516 4593 4537 4460 4538 4593 4516 4537 4538 4461 4539 4540 4539 4462 4541 4540 4463 4542 4541 4464 4594 4542 4517 4518 4594 4517 4543 4466 4544 4518 4543 4595 4467 4545 4544 4545 4468 4546 4469 4547 4546 4596 4547 4519 4549 4548 4471 4548 4596 4519 4550 4549 4472 4550 4473 4551 4551 4474 4552 4553 4552 4475 4555 4553 4477 4554 4597 4520 4520 4597 4555 4556 4554 4478 4557 4556 4479 4557 4480 4558 4558 4481 4559 4560 4559 4521 4482 4561 4560 4562 4561 4483 4563 4562 4484 4598 4530 4522 4599 4523 4524 4525 4600 4524 4488 4565 4564 4601 4525 4564 4566 4565 4489 4566 4490 4567 4491 4568 4567 4569 4568 4492 4493 4570 4569 4494 4571 4570 4572 4571 4495 4602 4572 4526 4573 4602 4526 4497 4574 4573 4498 4575 4574 4499 4576 4575 4576 4527 4603 4578 4577 4501 4603 4527 4577 4579 4578 4502 4580 4579 4503 4580 4504 4581 4505 4582 4581 4506 4583 4582 4604 4583 4528 4604 4528 4584 4508 4585 4584 4509 4586 4585 4586 4510 4587 4587 4511 4588 4512 4589 4588 4529 4605 4589 4529 4590 4605 4590 4514 4591 4530 4606 4591 4598 4522 4531 4592 4607 4531 4532 4533 4608 4532 4608 4592 4533 4534 4609 4534 4535 4610 4535 4536 4611 4536 4593 4612 4613 4537 4538 4593 4537 4613 4614 4538 4539 4540 4615 4539 4616 4540 4541 4541 4542 4617 4594 4618 4542 4518 4595 4594 4619 4543 4544 4595 4543 4619 4544 4545 4620 4621 4545 4546 4547 4622 4546 4596 4623 4547 4549 4624 4548 4548 4624 4596 4625 4549 4550 4550 4551 4626 4627 4551 4552 4553 4628 4552 4555 4629 4553 4554 4630 4597 4555 4597 4631 4556 4630 4554 4632 4556 4557 4557 4558 4633 4634 4558 4559 4559 4560 4635 4560 4561 4636 4562 4637 4561 4563 4638 4562 4598 4606 4530 4600 4599 4524 4601 4600 4525 4565 4639 4564 4639 4601 4564 4640 4565 4566 4641 4566 4567 4568 4642 4567 4569 4643 4568 4569 4570 4644 4570 4571 4645 4572 4646 4571 4602 4647 4572 4602 4573 4648 4573 4574 4648 4574 4575 4649 4575 4576 4650 4576 4603 4651 4652 4577 4578 4603 4577 4652 4653 4578 4579 4654 4579 4580 4655 4580 4581 4582 4656 4581 4582 4583 4657 4604 4658 4583 4604 4584 4659 4584 4585 4659 4585 4586 4660 4586 4587 4661 4662 4587 4588 4588 4589 4663 4589 4605 4664 4605 4590 4665 4665 4590 4591 4591 4606 4666 4607 4598 4531 4592 4667 4607 4608 4533 4609 4592 4608 4667 4534 4610 4609 4610 4535 4611 4611 4536 4612 4612 4593 4668 4614 4613 4538 4593 4613 4668 4615 4614 4539 4616 4615 4540 4616 4541 4617 4542 4618 4617 4594 4669 4618 4594 4595 4669 4619 4544 4620 4595 4619 4670 4620 4545 4621 4622 4621 4546 4623 4622 4547 4671 4623 4596 4625 4624 4549 4624 4671 4596 4625 4550 4626 4626 4551 4627 4628 4627 4552 4629 4628 4553 4555 4631 4629 4597 4630 4672 4631 4597 4672 4632 4630 4556 4632 4557 4633 4633 4558 4634 4673 4634 4559 4560 4636 4635 4673 4559 4635 4561 4637 4636 4562 4638 4637 4598 4674 4606 4675 4599 4600 4600 4601 4676 4640 4639 4565 4639 4677 4601 4640 4566 4641 4642 4641 4567 4568 4643 4642 4569 4644 4643 4644 4570 4645 4571 4646 4645 4572 4647 4646 4678 4647 4602 4678 4602 4648 4574 4649 4648 4649 4575 4650 4576 4651 4650 4651 4603 4679 4652 4578 4653 4603 4652 4679 4653 4579 4654 4654 4580 4655 4656 4655 4581 4582 4657 4656 4583 4658 4657 4680 4658 4604 4680 4604 4659 4585 4660 4659 4586 4661 4660 4661 4587 4662 4662 4588 4663 4663 4589 4664 4605 4681 4664 4605 4665 4681 4665 4591 4666 4666 4606 4682 4607 4674 4598 4607 4667 4683 4684 4608 4609 4667 4608 4684 4609 4610 4685 4686 4610 4611 4687 4611 4612 4688 4612 4668 4613 4614 4689 4668 4613 4689 4615 4690 4614 4691 4615 4616 4692 4616 4617 4618 4693 4617 4618 4669 4694 4669 4595 4670 4695 4619 4620 4670 4619 4695 4696 4620 4621 4622 4697 4621 4698 4622 4623 4671 4699 4623 4700 4624 4625 4700 4671 4624 4701 4625 4626 4702 4626 4627 4628 4703 4627 4704 4628 4629 4629 4631 4705 4630 4706 4672 4707 4631 4672 4632 4706 4630 4708 4632 4633 4709 4633 4634 4673 4710 4634 4636 4711 4635 4711 4673 4635 4637 4712 4636 4638 4713 4637 4606 4674 4682 4675 4600 4676 4601 4677 4676 4714 4639 4640 4714 4677 4639 4640 4641 4715 4641 4642 4716 4643 4717 4642 4643 4644 4718 4719 4644 4645 4645 4646 4720 4646 4647 4721 4678 4722 4647 4723 4678 4648 4649 4723 4648 4649 4650 4724 4650 4651 4725 4726 4651 4679 4652 4653 4727 4652 4727 4679 4653 4654 4728 4654 4655 4729 4730 4655 4656 4657 4731 4656 4658 4732 4657 4733 4658 4680 4734 4680 4659 4660 4734 4659 4661 4735 4660 4661 4662 4736 4737 4662 4663 4738 4663 4664 4681 4739 4664 4681 4665 4740 4740 4665 4666 4741 4666 4682 4607 4683 4674 4683 4667 4742 4684 4609 4685 4667 4684 4742 4685 4610 4686 4687 4686 4611 4688 4687 4612 4743 4688 4668 4614 4690 4689 4743 4668 4689 4691 4690 4615 4692 4691 4616 4693 4692 4617 4618 4694 4693 4694 4669 4744 4744 4669 4670 4696 4695 4620 4745 4670 4695 4697 4696 4621 4698 4697 4622 4699 4698 4623 4746 4699 4671 4700 4625 4701 4746 4671 4700 4701 4626 4702 4703 4702 4627 4704 4703 4628 4704 4629 4705 4631 4707 4705 4706 4747 4672 4747 4707 4672 4708 4706 4632 4709 4708 4633 4710 4709 4634 4748 4710 4673 4636 4712 4711 4748 4673 4711 4713 4712 4637 4674 4749 4682 4750 4675 4676 4677 4751 4676 4714 4640 4715 4752 4677 4714 4715 4641 4716 4642 4717 4716 4717 4643 4718 4718 4644 4719 4719 4645 4720 4646 4721 4720 4647 4722 4721 4753 4722 4678 4753 4678 4723 4723 4649 4724 4724 4650 4725 4651 4726 4725 4754 4726 4679 4727 4653 4728 4727 4754 4679 4654 4729 4728 4655 4730 4729 4731 4730 4656 4657 4732 4731 4733 4732 4658 4733 4680 4755 4755 4680 4734 4735 4734 4660 4661 4736 4735 4736 4662 4737 4738 4737 4663 4739 4738 4664 4681 4756 4739 4681 4740 4756 4741 4740 4666 4757 4741 4682 4674 4683 4749 4758 4683 4742 4759 4684 4685 4742 4684 4759 4760 4685 4686 4687 4761 4686 4688 4762 4687 4763 4688 4743 4690 4764 4689 4764 4743 4689 4765 4690 4691 4691 4692 4766 4693 4767 4692 4693 4694 4768 4694 4744 4769 4744 4670 4745 4696 4770 4695 4770 4745 4695 4771 4696 4697 4698 4772 4697 4699 4773 4698 4774 4699 4746 4700 4701 4775 4746 4700 4775 4776 4701 4702 4703 4777 4702 4778 4703 4704 4779 4704 4705 4707 4780 4705 4781 4747 4706 4747 4782 4707 4781 4706 4708 4783 4708 4709 4784 4709 4710 4785 4710 4748 4712 4786 4711 4786 4748 4711 4713 4787 4712 4749 4757 4682 4751 4750 4676 4752 4751 4677 4788 4714 4715 4752 4714 4788 4789 4715 4716 4717 4790 4716 4791 4717 4718 4718 4719 4792 4793 4719 4720 4721 4794 4720 4721 4722 4795 4753 4796 4722 4753 4723 4797 4723 4724 4797 4798 4724 4725 4726 4799 4725 4754 4800 4726 4801 4727 4728 4754 4727 4801 4729 4802 4728 4730 4803 4729 4804 4730 4731 4732 4805 4731 4806 4732 4733 4733 4755 4807 4755 4734 4808 4808 4734 4735 4736 4809 4735 4736 4737 4810 4811 4737 4738 4738 4739 4812 4739 4756 4813 4756 4740 4814 4814 4740 4741 4757 4815 4741 4749 4683 4758 4758 4742 4816 4760 4759 4685 4816 4742 4759 4761 4760 4686 4687 4762 4761 4763 4762 4688 4817 4763 4743 4765 4764 4690 4764 4817 4743 4765 4691 4766 4692 4767 4766 4693 4768 4767 4768 4694 4769 4769 4744 4818 4818 4744 4745 4771 4770 4696 4770 4819 4745 4772 4771 4697 4698 4773 4772 4774 4773 4699 4774 4746 4820 4775 4701 4776 4820 4746 4775 4777 4776 4702 4778 4777 4703 4778 4704 4779 4780 4779 4705 4782 4780 4707 4821 4747 4781 4821 4782 4747 4781 4708 4783 4783 4709 4784 4784 4710 4785 4785 4748 4822 4712 4787 4786 4822 4748 4786 4749 4823 4757 4824 4750 4751 4825 4751 4752 4789 4788 4715 4752 4788 4826 4790 4789 4716 4791 4790 4717 4791 4718 4792 4719 4793 4792 4794 4793 4720 4794 4721 4795 4722 4796 4795 4827 4796 4753 4827 4753 4797 4724 4798 4797 4799 4798 4725 4726 4800 4799 4828 4800 4754 4802 4801 4728 4828 4754 4801 4803 4802 4729 4804 4803 4730 4805 4804 4731 4806 4805 4732 4806 4733 4807 4807 4755 4829 4755 4808 4829 4809 4808 4735 4736 4810 4809 4810 4737 4811 4811 4738 4812 4739 4813 4812 4813 4756 4830 4756 4814 4830 4815 4814 4741 4815 4757 4831 4749 4758 4823 4832 4758 4816 4760 4833 4759 4833 4816 4759 4834 4760 4761 4762 4835 4761 4763 4836 4762 4837 4763 4817 4838 4764 4765 4838 4817 4764 4765 4766 4839 4766 4767 4840 4767 4768 4841 4842 4768 4769 4843 4769 4818 4819 4818 4745 4771 4844 4770 4770 4844 4819 4772 4845 4771 4773 4846 4772 4847 4773 4774 4774 4820 4848 4849 4775 4776 4820 4775 4849 4777 4850 4776 4851 4777 4778 4778 4779 4852 4779 4780 4853 4782 4854 4780 4821 4781 4855 4856 4782 4821 4781 4783 4855 4783 4784 4857 4784 4785 4858 4785 4822 4859 4787 4860 4786 4822 4786 4861 4757 4823 4831 4824 4751 4825 4825 4752 4826 4862 4788 4789 4826 4788 4862 4789 4790 4863 4791 4864 4790 4865 4791 4792 4793 4866 4792 4867 4793 4794 4794 4795 4868 4796 4869 4795 4827 4870 4796 4871 4827 4797 4798 4871 4797 4872 4798 4799 4799 4800 4873 4828 4874 4800 4802 4875 4801 4875 4828 4801 4803 4876 4802 4877 4803 4804 4878 4804 4805 4879 4805 4806 4880 4806 4807 4881 4807 4829 4829 4808 4882 4808 4809 4882 4809 4810 4883 4810 4811 4884 4885 4811 4812 4812 4813 4886 4813 4830 4887 4814 4888 4830 4888 4814 4815 4889 4815 4831 4823 4758 4832 4890 4832 4816 4834 4833 4760 4833 4890 4816 4835 4834 4761 4762 4836 4835 4837 4836 4763 4837 4817 4891 4838 4765 4839 4891 4817 4838 4839 4766 4840 4767 4841 4840 4841 4768 4842 4843 4842 4769 4892 4843 4818 4819 4892 4818 4771 4845 4844 4819 4844 4893 4846 4845 4772 4847 4846 4773 4847 4774 4848 4848 4820 4894 4850 4849 4776 4894 4820 4849 4851 4850 4777 4851 4778 4852 4852 4779 4853 4780 4854 4853 4856 4854 4782 4895 4821 4855 4856 4821 4895 4783 4857 4855 4857 4784 4858 4858 4785 4859 4859 4822 4861 4786 4860 4861 4823 4896 4831 4897 4824 4825 4898 4825 4826 4862 4789 4863 4826 4862 4899 4790 4864 4863 4865 4864 4791 4866 4865 4792 4867 4866 4793 4867 4794 4868 4795 4869 4868 4796 4870 4869 4900 4870 4827 4900 4827 4871 4872 4871 4798 4872 4799 4873 4800 4874 4873 4901 4874 4828 4802 4876 4875 4901 4828 4875 4877 4876 4803 4877 4804 4878 4878 4805 4879 4879 4806 4880 4881 4880 4807 4881 4829 4902 4829 4882 4902 4809 4883 4882 4810 4884 4883 4884 4811 4885 4885 4812 4886 4886 4813 4887 4830 4903 4887 4830 4888 4903 4889 4888 4815 4904 4889 4831 4823 4832 4896 4905 4832 4890 4906 4833 4834 4906 4890 4833 4834 4835 4907 4836 4908 4835 4909 4836 4837 4837 4891 4910 4911 4838 4839 4891 4838 4911 4912 4839 4840 4841 4913 4840 4841 4842 4914 4915 4842 4843 4916 4843 4892 4892 4819 4893 4844 4845 4917 4844 4917 4893 4846 4918 4845 4919 4846 4847 4920 4847 4848 4921 4848 4894 4850 4922 4849 4922 4894 4849 4851 4923 4850 4924 4851 4852 4925 4852 4853 4854 4926 4853 4927 4854 4856 4895 4855 4928 4856 4895 4929 4855 4857 4928 4930 4857 4858 4931 4858 4859 4932 4859 4861 4860 4933 4861 4896 4904 4831 4898 4897 4825 4898 4826 4899 4934 4862 4863 4862 4934 4899 4864 4935 4863 4865 4936 4864 4866 4937 4865 4867 4938 4866 4939 4867 4868 4869 4940 4868 4870 4941 4869 4942 4870 4900 4900 4871 4943 4943 4871 4872 4944 4872 4873 4874 4945 4873 4901 4946 4874 4876 4947 4875 4947 4901 4875 4948 4876 4877 4877 4878 4949 4878 4879 4950 4879 4880 4951 4952 4880 4881 4953 4881 4902 4882 4954 4902 4883 4954 4882 4884 4955 4883 4884 4885 4956 4957 4885 4886 4958 4886 4887 4903 4959 4887 4888 4960 4903 4889 4960 4888 4904 4961 4889 4896 4832 4905 4905 4890 4962 4906 4834 4907 4962 4890 4906 4835 4908 4907 4909 4908 4836 4909 4837 4910 4891 4963 4910 4912 4911 4839 4891 4911 4963 4913 4912 4840 4841 4914 4913 4914 4842 4915 4915 4843 4916 4916 4892 4964 4892 4893 4964 4845 4918 4917 4917 4965 4893 4919 4918 4846 4919 4847 4920 4920 4848 4921 4966 4921 4894 4850 4923 4922 4922 4966 4894 4924 4923 4851 4925 4924 4852 4926 4925 4853 4927 4926 4854 4927 4856 4929 4967 4895 4928 4929 4895 4967 4928 4857 4930 4931 4930 4858 4932 4931 4859 4933 4932 4861 4896 4968 4904 4969 4897 4898 4970 4898 4899 4935 4934 4863 4934 4971 4899 4864 4936 4935 4865 4937 4936 4866 4938 4937 4939 4938 4867 4940 4939 4868 4941 4940 4869 4942 4941 4870 4942 4900 4972 4900 4943 4972 4943 4872 4944 4945 4944 4873 4874 4946 4945 4901 4973 4946 4948 4947 4876 4947 4973 4901 4948 4877 4949 4949 4878 4950 4879 4951 4950 4951 4880 4952 4952 4881 4953 4974 4953 4902 4954 4974 4902 4955 4954 4883 4884 4956 4955 4956 4885 4957 4958 4957 4886 4959 4958 4887 4903 4975 4959 4960 4975 4903 4889 4961 4960 4904 4976 4961 4896 4905 4968 4905 4962 4977 4978 4906 4907 4962 4906 4978 4908 4979 4907 4909 4980 4908 4981 4909 4910 4910 4963 4982 4983 4911 4912 4963 4911 4983 4912 4913 4984 4913 4914 4985 4914 4915 4986 4915 4916 4987 4988 4916 4964 4893 4965 4964 4918 4989 4917 4917 4989 4965 4990 4918 4919 4919 4920 4991 4992 4920 4921 4966 4993 4921 4922 4923 4994 4922 4994 4966 4924 4995 4923 4996 4924 4925 4926 4997 4925 4998 4926 4927 4999 4927 4929 5000 4967 4928 5001 4929 4967 5000 4928 4930 4931 5002 4930 4932 5003 4931 4933 5004 4932 4904 4968 4976 4969 4898 4970 4971 4970 4899 4935 5005 4934 4934 5005 4971 4935 4936 5006 4936 4937 5007 4937 4938 5008 4939 5009 4938 4940 5010 4939 4941 5011 4940 4942 5012 4941 5013 4942 4972 4972 4943 5014 5014 4943 4944 4945 5015 4944 4945 4946 5016 4946 4973 5017 5018 4947 4948 5018 4973 4947 5019 4948 4949 5020 4949 4950 4950 4951 5021 4951 4952 5022 5023 4952 4953 4974 5024 4953 4954 5025 4974 4955 5025 4954 4955 4956 5026 4956 4957 5027 5028 4957 4958 4958 4959 5029 4959 4975 5030 4960 5031 4975 4960 4961 5031 4961 4976 5032 4968 4905 4977 4962 5033 4977 4979 4978 4907 4962 4978 5033 4908 4980 4979 4981 4980 4909 4981 4910 4982 4982 4963 5034 4983 4912 4984 4963 4983 5034 4984 4913 4985 4985 4914 4986 4986 4915 4987 4987 4916 4988 5035 4988 4964 4965 5035 4964 4990 4989 4918 4989 5036 4965 4990 4919 4991 4991 4920 4992 4993 4992 4921 4993 4966 5037 4923 4995 4994 4966 4994 5037 4996 4995 4924 4997 4996 4925 4998 4997 4926 4998 4927 4999 5001 4999 4929 5000 5038 4967 5038 5001 4967 5002 5000 4930 5002 4931 5039 4932 5004 5003 4931 5003 5039 4976 4968 5040 5041 4969 4970 4971 5042 4970 4935 5006 5005 4971 5005 5043 5006 4936 5007 4937 5008 5007 4938 5009 5008 4939 5010 5009 4940 5011 5010 4941 5012 5011 5013 5012 4942 5044 5013 4972 5044 4972 5014 5015 5014 4944 4945 5016 5015 5016 4946 5017 4973 5045 5017 5018 4948 5019 5018 5045 4973 5020 5019 4949 5020 4950 5021 4951 5022 5021 5022 4952 5023 5024 5023 4953 5024 4974 5046 4974 5025 5046 4955 5026 5025 4956 5027 5026 5027 4957 5028 5028 4958 5029 5029 4959 5030 5030 4975 5047 4975 5031 5047 5031 4961 5032 4976 5048 5032 5040 4968 4977 4977 5033 5049 5050 4978 4979 5033 4978 5050 4980 5051 4979 4981 5052 4980 5053 4981 4982 5054 4982 5034 5055 4983 4984 5034 4983 5055 5056 4984 4985 5057 4985 4986 5058 4986 4987 5059 4987 4988 5035 5060 4988 5036 5035 4965 5061 4989 4990 5061 5036 4989 5062 4990 4991 5063 4991 4992 4993 5064 4992 5065 4993 5037 4995 5066 4994 4994 5066 5037 4996 5067 4995 4997 5068 4996 5069 4997 4998 4998 4999 5070 4999 5001 5071 5072 5038 5000 5038 5073 5001 5072 5000 5002 5074 5002 5039 5004 5075 5003 5003 5076 5039 4976 5040 5048 5042 5041 4970 5042 4971 5043 5005 5006 5077 5005 5077 5043 5078 5006 5007 5008 5079 5007 5009 5080 5008 5009 5010 5081 5010 5011 5082 5011 5012 5083 5013 5084 5012 5085 5013 5044 5086 5044 5014 5015 5086 5014 5015 5016 5087 5088 5016 5017 5045 5089 5017 5090 5018 5019 5090 5045 5018 5020 5091 5019 5092 5020 5021 5022 5093 5021 5022 5023 5094 5095 5023 5024 5096 5024 5046 5025 5097 5046 5026 5097 5025 5027 5098 5026 5027 5028 5099 5100 5028 5029 5101 5029 5030 5102 5030 5047 5047 5031 5103 5031 5032 5103 5032 5048 5104 5040 4977 5049 5049 5033 5105 5051 5050 4979 5033 5050 5105 4980 5052 5051 5053 5052 4981 5054 5053 4982 5106 5054 5034 5056 5055 4984 5106 5034 5055 5057 5056 4985 5058 5057 4986 5059 5058 4987 5060 5059 4988 5035 5107 5060 5036 5107 5035 5061 4990 5062 5108 5036 5061 5062 4991 5063 5064 5063 4992 5065 5064 4993 5109 5065 5037 4995 5067 5066 5066 5109 5037 4996 5068 5067 5069 5068 4997 5069 4998 5070 5070 4999 5071 5001 5073 5071 5110 5038 5072 5110 5073 5038 5072 5002 5074 5076 5074 5039 5075 5076 5003 5048 5040 5111 5112 5041 5042 5113 5042 5043 5077 5006 5078 5043 5077 5114 5079 5078 5007 5080 5079 5008 5009 5081 5080 5081 5010 5082 5011 5083 5082 5012 5084 5083 5085 5084 5013 5085 5044 5115 5044 5086 5115 5015 5087 5086 5016 5088 5087 5089 5088 5017 5116 5089 5045 5091 5090 5019 5116 5045 5090 5092 5091 5020 5093 5092 5021 5022 5094 5093 5094 5023 5095 5095 5024 5096 5117 5096 5046 5097 5117 5046 5098 5097 5026 5027 5099 5098 5099 5028 5100 5101 5100 5029 5102 5101 5030 5118 5102 5047 5118 5047 5103 5103 5032 5104 5104 5048 5119 5111 5040 5049 5120 5049 5105 5050 5051 5121 5105 5050 5121 5052 5122 5051 5123 5052 5053 5124 5053 5054 5125 5054 5106 5056 5126 5055 5126 5106 5055 5127 5056 5057 5058 5128 5057 5129 5058 5059 5060 5130 5059 5107 5131 5060 5108 5107 5036 5061 5062 5132 5108 5061 5132 5133 5062 5063 5064 5134 5063 5135 5064 5065 5136 5065 5109 5066 5067 5137 5109 5066 5137 5067 5068 5138 5069 5139 5068 5140 5069 5070 5141 5070 5071 5073 5142 5071 5110 5072 5143 5144 5073 5110 5143 5072 5074 5076 5145 5074 5075 5146 5076 5048 5111 5119 5113 5112 5042 5113 5043 5147 5077 5078 5148 5077 5148 5114 5147 5043 5114 5149 5078 5079 5080 5150 5079 5080 5081 5151 5152 5081 5082 5082 5083 5153 5084 5154 5083 5085 5155 5084 5156 5085 5115 5086 5157 5115 5087 5157 5086 5087 5088 5158 5089 5159 5088 5160 5089 5116 5161 5090 5091 5116 5090 5161 5162 5091 5092 5092 5093 5163 5094 5164 5093 5094 5095 5165 5166 5095 5096 5117 5167 5096 5168 5117 5097 5098 5168 5097 5098 5099 5169 5099 5100 5170 5171 5100 5101 5102 5172 5101 5173 5102 5118 5174 5118 5103 5174 5103 5104 5175 5104 5119 5111 5049 5120 5176 5120 5105 5051 5122 5121 5176 5105 5121 5123 5122 5052 5123 5053 5124 5124 5054 5125 5125 5106 5177 5127 5126 5056 5177 5106 5126 5128 5127 5057 5129 5128 5058 5130 5129 5059 5131 5130 5060 5178 5131 5107 5178 5107 5108 5132 5062 5133 5108 5132 5179 5134 5133 5063 5135 5134 5064 5135 5065 5136 5136 5109 5180 5067 5138 5137 5109 5137 5180 5068 5139 5138 5140 5139 5069 5141 5140 5070 5142 5141 5071 5144 5142 5073 5110 5143 5181 5144 5110 5181 5145 5143 5074 5076 5146 5145 5119 5111 5182 5183 5112 5113 5113 5147 5184 5078 5149 5148 5148 5185 5114 5185 5147 5114 5150 5149 5079 5080 5151 5150 5151 5081 5152 5152 5082 5153 5083 5154 5153 5084 5155 5154 5156 5155 5085 5186 5156 5115 5157 5186 5115 5157 5087 5158 5088 5159 5158 5160 5159 5089 5160 5116 5187 5161 5091 5162 5116 5161 5187 5162 5092 5163 5093 5164 5163 5094 5165 5164 5165 5095 5166 5167 5166 5096 5188 5167 5117 5188 5117 5168 5168 5098 5169 5099 5170 5169 5170 5100 5171 5172 5171 5101 5173 5172 5102 5189 5173 5118 5174 5189 5118 5175 5174 5104 5190 5175 5119 5182 5111 5120 5176 5191 5120 5122 5192 5121 5192 5176 5121 5193 5122 5123 5123 5124 5194 5124 5125 5195 5125 5177 5196 5197 5126 5127 5177 5126 5197 5198 5127 5128 5199 5128 5129 5200 5129 5130 5201 5130 5131 5202 5131 5178 5178 5108 5179 5203 5132 5133 5179 5132 5203 5134 5204 5133 5205 5134 5135 5135 5136 5206 5207 5136 5180 5138 5208 5137 5137 5208 5180 5139 5209 5138 5210 5139 5140 5140 5141 5211 5142 5212 5141 5144 5213 5142 5143 5214 5181 5215 5144 5181 5214 5143 5145 5146 5216 5145 5190 5119 5182 5183 5113 5184 5184 5147 5217 5148 5149 5218 5148 5218 5185 5217 5147 5185 5150 5219 5149 5150 5151 5220 5151 5152 5221 5222 5152 5153 5154 5223 5153 5155 5224 5154 5156 5225 5155 5186 5226 5156 5227 5186 5157 5227 5157 5158 5159 5228 5158 5229 5159 5160 5230 5160 5187 5161 5162 5231 5161 5231 5187 5232 5162 5163 5163 5164 5233 5165 5234 5164 5165 5166 5235 5236 5166 5167 5237 5167 5188 5188 5168 5238 5168 5169 5238 5169 5170 5239 5170 5171 5240 5241 5171 5172 5242 5172 5173 5243 5173 5189 5244 5189 5174 5244 5174 5175 5190 5245 5175 5191 5182 5120 5176 5246 5191 5193 5192 5122 5192 5246 5176 5193 5123 5194 5124 5195 5194 5125 5196 5195 5196 5177 5247 5197 5127 5198 5177 5197 5247 5198 5128 5199 5199 5129 5200 5200 5130 5201 5201 5131 5202 5202 5178 5248 5248 5178 5179 5204 5203 5133 5249 5179 5203 5205 5204 5134 5205 5135 5206 5206 5136 5207 5250 5207 5180 5209 5208 5138 5208 5250 5180 5210 5209 5139 5210 5140 5211 5141 5212 5211 5142 5213 5212 5215 5213 5144 5181 5214 5251 5215 5181 5251 5216 5214 5145 5252 5190 5182 5253 5183 5184 5254 5184 5217 5149 5219 5218 5218 5255 5185 5255 5217 5185 5150 5220 5219 5220 5151 5221 5152 5222 5221 5223 5222 5153 5224 5223 5154 5155 5225 5224 5156 5226 5225 5186 5256 5226 5227 5256 5186 5228 5227 5158 5229 5228 5159 5229 5160 5230 5230 5187 5257 5231 5162 5232 5187 5231 5257 5232 5163 5233 5164 5234 5233 5165 5235 5234 5235 5166 5236 5236 5167 5237 5237 5188 5258 5258 5188 5238 5169 5239 5238 5170 5240 5239 5240 5171 5241 5241 5172 5242 5242 5173 5243 5243 5189 5259 5259 5189 5244 5245 5244 5175 5260 5245 5190 5191 5252 5182 5246 5261 5191 5262 5192 5193 5262 5246 5192 5263 5193 5194 5195 5264 5194 5196 5265 5195 5266 5196 5247 5197 5198 5267 5197 5267 5247 5198 5199 5268 5199 5200 5269 5200 5201 5270 5201 5202 5271 5202 5248 5272 5249 5248 5179 5204 5273 5203 5273 5249 5203 5205 5274 5204 5275 5205 5206 5276 5206 5207 5250 5277 5207 5209 5278 5208 5208 5278 5250 5279 5209 5210 5280 5210 5211 5212 5281 5211 5213 5282 5212 5283 5213 5215 5214 5284 5251 5285 5215 5251 5216 5286 5214 5260 5190 5252 5254 5253 5184 5254 5217 5287 5219 5288 5218 5288 5255 5218 5217 5255 5287 5219 5220 5289 5290 5220 5221 5222 5291 5221 5223 5292 5222 5224 5293 5223 5224 5225 5294 5225 5226 5295 5226 5256 5296 5227 5297 5256 5228 5297 5227 5298 5228 5229 5229 5230 5299 5230 5257 5300 5231 5232 5301 5231 5301 5257 5302 5232 5233 5233 5234 5303 5234 5235 5304 5235 5236 5305 5236 5237 5306 5237 5258 5307 5308 5258 5238 5239 5308 5238 5240 5309 5239 5240 5241 5310 5241 5242 5311 5242 5243 5312 5243 5259 5313 5259 5244 5314 5314 5244 5245 5315 5245 5260 5191 5261 5252 5316 5261 5246 5262 5193 5263 5316 5246 5262 5264 5263 5194 5265 5264 5195 5265 5196 5266 5266 5247 5317 5267 5198 5268 5247 5267 5317 5199 5269 5268 5269 5200 5270 5270 5201 5271 5202 5272 5271 5272 5248 5318 5318 5248 5249 5204 5274 5273 5249 5273 5319 5275 5274 5205 5276 5275 5206 5277 5276 5207 5320 5277 5250 5279 5278 5209 5278 5320 5250 5279 5210 5280 5281 5280 5211 5212 5282 5281 5283 5282 5213 5283 5215 5285 5214 5286 5284 5284 5285 5251 5321 5260 5252 5322 5253 5254 5323 5254 5287 5219 5289 5288 5288 5324 5255 5255 5323 5287 5289 5220 5290 5291 5290 5221 5222 5292 5291 5293 5292 5223 5293 5224 5294 5225 5295 5294 5295 5226 5296 5256 5325 5296 5256 5297 5325 5298 5297 5228 5298 5229 5299 5299 5230 5300 5257 5326 5300 5301 5232 5302 5301 5326 5257 5302 5233 5303 5234 5304 5303 5235 5305 5304 5305 5236 5306 5306 5237 5307 5258 5327 5307 5258 5308 5327 5309 5308 5239 5240 5310 5309 5310 5241 5311 5242 5312 5311 5312 5243 5313 5259 5328 5313 5259 5314 5328 5314 5245 5315 5315 5260 5329 5261 5321 5252 5330 5261 5316 5331 5262 5263 5316 5262 5331 5263 5264 5332 5265 5333 5264 5334 5265 5266 5335 5266 5317 5336 5267 5268 5267 5336 5317 5269 5337 5268 5338 5269 5270 5270 5271 5339 5272 5340 5271 5272 5318 5341 5318 5249 5319 5274 5342 5273 5273 5342 5319 5275 5343 5274 5344 5275 5276 5276 5277 5345 5320 5346 5277 5347 5278 5279 5347 5320 5278 5279 5280 5348 5280 5281 5349 5282 5350 5281 5351 5282 5283 5352 5283 5285 5286 5353 5284 5284 5354 5285 5329 5260 5321 5322 5254 5355 5355 5254 5323 5288 5289 5356 5288 5356 5324 5255 5324 5323 5289 5290 5357 5290 5291 5358 5292 5359 5291 5360 5292 5293 5293 5294 5361 5295 5362 5294 5363 5295 5296 5325 5364 5296 5297 5365 5325 5298 5365 5297 5366 5298 5299 5367 5299 5300 5300 5326 5368 5301 5302 5369 5301 5369 5326 5370 5302 5303 5303 5304 5371 5304 5305 5372 5373 5305 5306 5374 5306 5307 5327 5375 5307 5308 5376 5327 5309 5376 5308 5309 5310 5377 5378 5310 5311 5311 5312 5379 5312 5313 5380 5313 5328 5381 5328 5314 5382 5314 5315 5382 5315 5329 5383 5330 5321 5261 5330 5316 5384 5331 5263 5332 5316 5331 5384 5264 5333 5332 5334 5333 5265 5335 5334 5266 5385 5335 5317 5337 5336 5268 5336 5385 5317 5269 5338 5337 5338 5270 5339 5271 5340 5339 5272 5341 5340 5341 5318 5386 5386 5318 5319 5274 5343 5342 5342 5387 5319 5344 5343 5275 5344 5276 5345 5277 5346 5345 5388 5346 5320 5347 5279 5348 5388 5320 5347 5348 5280 5349 5281 5350 5349 5351 5350 5282 5351 5283 5352 5354 5352 5285 5353 5354 5284 5329 5321 5389 5390 5322 5355 5391 5355 5323 5356 5289 5357 5324 5356 5392 5324 5391 5323 5290 5358 5357 5291 5359 5358 5360 5359 5292 5360 5293 5361 5294 5362 5361 5362 5295 5363 5364 5363 5296 5393 5364 5325 5365 5393 5325 5366 5365 5298 5367 5366 5299 5367 5300 5368 5368 5326 5394 5369 5302 5370 5326 5369 5394 5370 5303 5371 5371 5304 5372 5305 5373 5372 5374 5373 5306 5375 5374 5307 5395 5375 5327 5376 5395 5327 5309 5377 5376 5377 5310 5378 5378 5311 5379 5379 5312 5380 5313 5381 5380 5328 5396 5381 5396 5328 5382 5315 5383 5382 5329 5397 5383 5389 5321 5330 5330 5384 5398 5399 5331 5332 5331 5399 5384 5333 5400 5332 5334 5401 5333 5402 5334 5335 5403 5335 5385 5337 5404 5336 5336 5404 5385 5338 5405 5337 5406 5338 5339 5340 5407 5339 5340 5341 5408 5341 5386 5409 5387 5386 5319 5343 5410 5342 5342 5410 5387 5411 5343 5344 5412 5344 5345 5346 5413 5345 5388 5414 5346 5415 5347 5348 5388 5347 5415 5416 5348 5349 5350 5417 5349 5418 5350 5351 5351 5352 5419 5352 5354 5420 5353 5421 5354 5329 5389 5397 5390 5355 5422 5355 5391 5422 5356 5357 5423 5392 5356 5423 5324 5392 5391 5358 5424 5357 5359 5425 5358 5426 5359 5360 5427 5360 5361 5362 5428 5361 5429 5362 5363 5364 5430 5363 5393 5431 5364 5365 5432 5393 5366 5432 5365 5433 5366 5367 5434 5367 5368 5435 5368 5394 5369 5370 5436 5394 5369 5436 5437 5370 5371 5438 5371 5372 5373 5439 5372 5374 5440 5373 5375 5441 5374 5395 5442 5375 5376 5443 5395 5376 5377 5443 5377 5378 5444 5445 5378 5379 5446 5379 5380 5381 5447 5380 5396 5448 5381 5449 5396 5382 5383 5449 5382 5397 5450 5383 5389 5330 5398 5384 5451 5398 5400 5399 5332 5399 5451 5384 5333 5401 5400 5402 5401 5334 5402 5335 5403 5452 5403 5385 5337 5405 5404 5404 5452 5385 5406 5405 5338 5407 5406 5339 5407 5340 5408 5341 5409 5408 5409 5386 5453 5453 5386 5387 5411 5410 5343 5410 5454 5387 5411 5344 5412 5413 5412 5345 5346 5414 5413 5455 5414 5388 5416 5415 5348 5455 5388 5415 5417 5416 5349 5418 5417 5350 5418 5351 5419 5419 5352 5456 5354 5421 5420 5352 5420 5456 5397 5389 5457 5458 5390 5422 5422 5391 5459 5357 5424 5423 5460 5392 5423 5391 5392 5461 5425 5424 5358 5426 5425 5359 5426 5360 5427 5428 5427 5361 5429 5428 5362 5430 5429 5363 5431 5430 5364 5431 5393 5462 5393 5432 5462 5433 5432 5366 5433 5367 5434 5435 5434 5368 5463 5435 5394 5370 5437 5436 5463 5394 5436 5438 5437 5371 5439 5438 5372 5440 5439 5373 5441 5440 5374 5375 5442 5441 5395 5464 5442 5395 5443 5464 5443 5377 5444 5444 5378 5445 5446 5445 5379 5447 5446 5380 5448 5447 5381 5396 5465 5448 5449 5465 5396 5450 5449 5383 5397 5466 5450 5457 5389 5398 5398 5451 5467 5400 5468 5399 5399 5468 5451 5400 5401 5469 5402 5470 5401 5471 5402 5403 5452 5472 5403 5404 5405 5473 5452 5404 5473 5406 5474 5405 5407 5475 5406 5476 5407 5408 5408 5409 5477 5409 5453 5478 5454 5453 5387 5479 5410 5411 5479 5454 5410 5480 5411 5412 5412 5413 5481 5413 5414 5482 5455 5483 5414 5416 5484 5415 5484 5455 5415 5417 5485 5416 5486 5417 5418 5487 5418 5419 5488 5419 5456 5421 5489 5420 5420 5490 5456 5397 5457 5466 5491 5458 5422 5391 5461 5459 5491 5422 5459 5423 5424 5492 5461 5392 5460 5460 5423 5492 5425 5493 5424 5494 5425 5426 5495 5426 5427 5428 5496 5427 5497 5428 5429 5498 5429 5430 5499 5430 5431 5431 5462 5500 5432 5501 5462 5433 5501 5432 5502 5433 5434 5435 5503 5434 5463 5504 5435 5437 5505 5436 5505 5463 5436 5438 5506 5437 5439 5507 5438 5440 5508 5439 5509 5440 5441 5442 5510 5441 5442 5464 5511 5464 5443 5512 5512 5443 5444 5513 5444 5445 5446 5514 5445 5515 5446 5447 5447 5448 5516 5448 5465 5517 5449 5518 5465 5450 5518 5449 5450 5466 5519 5457 5398 5467 5467 5451 5520 5400 5469 5468 5451 5468 5520 5401 5470 5469 5471 5470 5402 5472 5471 5403 5521 5472 5452 5405 5474 5473 5521 5452 5473 5406 5475 5474 5476 5475 5407 5476 5408 5477 5409 5478 5477 5478 5453 5522 5522 5453 5454 5479 5411 5480 5523 5454 5479 5480 5412 5481 5413 5482 5481 5414 5483 5482 5524 5483 5455 5485 5484 5416 5524 5455 5484 5486 5485 5417 5486 5418 5487 5487 5419 5488 5490 5488 5456 5489 5490 5420 5466 5457 5525 5526 5458 5491 5461 5527 5459 5527 5491 5459 5424 5493 5492 5461 5460 5528 5529 5460 5492 5494 5493 5425 5494 5426 5495 5496 5495 5427 5497 5496 5428 5497 5429 5498 5498 5430 5499 5499 5431 5500 5462 5530 5500 5462 5501 5530 5502 5501 5433 5503 5502 5434 5504 5503 5435 5531 5504 5463 5506 5505 5437 5531 5463 5505 5507 5506 5438 5439 5508 5507 5509 5508 5440 5510 5509 5441 5442 5511 5510 5511 5464 5532 5464 5512 5532 5512 5444 5513 5514 5513 5445 5515 5514 5446 5515 5447 5516 5516 5448 5517 5465 5533 5517 5465 5518 5533 5450 5519 5518 5466 5534 5519 5525 5457 5467 5535 5467 5520 5469 5536 5468 5468 5536 5520 5470 5537 5469 5471 5538 5470 5472 5539 5471 5521 5540 5472 5474 5541 5473 5541 5521 5473 5474 5475 5542 5476 5543 5475 5544 5476 5477 5478 5545 5477 5478 5522 5546 5522 5454 5523 5479 5480 5547 5523 5479 5547 5548 5480 5481 5482 5549 5481 5483 5550 5482 5551 5483 5524 5552 5484 5485 5524 5484 5552 5553 5485 5486 5486 5487 5554 5555 5487 5488 5490 5556 5488 5489 5557 5490 5466 5525 5534 5526 5491 5558 5461 5528 5527 5558 5491 5527 5493 5559 5492 5528 5460 5529 5559 5529 5492 5494 5560 5493 5561 5494 5495 5496 5562 5495 5563 5496 5497 5497 5498 5564 5498 5499 5565 5566 5499 5500 5530 5567 5500 5501 5568 5530 5502 5568 5501 5503 5569 5502 5504 5570 5503 5531 5571 5504 5506 5572 5505 5572 5531 5505 5573 5506 5507 5508 5574 5507 5575 5508 5509 5510 5576 5509 5510 5511 5577 5578 5511 5532 5532 5512 5579 5579 5512 5513 5514 5580 5513 5515 5581 5514 5582 5515 5516 5583 5516 5517 5533 5584 5517 5533 5518 5585 5518 5519 5585 5534 5586 5519 5535 5525 5467 5587 5535 5520 5537 5536 5469 5536 5587 5520 5470 5538 5537 5471 5539 5538 5472 5540 5539 5588 5540 5521 5541 5474 5542 5588 5521 5541 5475 5543 5542 5544 5543 5476 5545 5544 5477 5478 5546 5545 5546 5522 5589 5522 5523 5589 5547 5480 5548 5590 5523 5547 5549 5548 5481 5482 5550 5549 5551 5550 5483 5551 5524 5591 5552 5485 5553 5524 5552 5591 5553 5486 5554 5554 5487 5555 5556 5555 5488 5490 5557 5556 5534 5525 5592 5593 5526 5558 5528 5594 5527 5594 5558 5527 5493 5560 5559 5528 5529 5595 5596 5529 5559 5561 5560 5494 5562 5561 5495 5563 5562 5496 5563 5497 5564 5564 5498 5565 5565 5499 5566 5567 5566 5500 5597 5567 5530 5568 5597 5530 5502 5569 5568 5503 5570 5569 5504 5571 5570 5531 5598 5571 5573 5572 5506 5572 5598 5531 5574 5573 5507 5575 5574 5508 5576 5575 5509 5510 5577 5576 5577 5511 5578 5578 5532 5599 5599 5532 5579 5580 5579 5513 5514 5581 5580 5582 5581 5515 5583 5582 5516 5584 5583 5517 5533 5600 5584 5600 5533 5585 5519 5586 5585 5534 5601 5586 5592 5525 5535 5535 5587 5602 5537 5603 5536 5536 5603 5587 5537 5538 5604 5538 5539 5605 5539 5540 5606 5588 5607 5540 5541 5542 5608 5588 5541 5608 5543 5609 5542 5544 5610 5543 5545 5611 5544 5545 5546 5612 5613 5546 5589 5589 5523 5590 5614 5547 5548 5614 5590 5547 5549 5615 5548 5550 5616 5549 5617 5550 5551 5618 5551 5591 5552 5553 5619 5552 5619 5591 5620 5553 5554 5621 5554 5555 5556 5622 5555 5557 5623 5556 5534 5592 5601 5624 5593 5558 5528 5595 5594 5558 5594 5625 5560 5626 5559 5595 5529 5596 5626 5596 5559 5561 5627 5560 5562 5628 5561 5629 5562 5563 5630 5563 5564 5631 5564 5565 5632 5565 5566 5567 5633 5566 5597 5634 5567 5568 5635 5597 5568 5569 5635 5569 5570 5636 5570 5571 5637 5571 5598 5638 5573 5639 5572 5572 5639 5598 5574 5640 5573 5575 5641 5574 5576 5642 5575 5576 5577 5643 5577 5578 5644 5645 5578 5599 5646 5599 5579 5580 5646 5579 5580 5581 5647 5582 5648 5581 5649 5582 5583 5583 5584 5650 5584 5600 5651 5652 5600 5585 5586 5652 5585 5586 5601 5653 5592 5535 5602 5602 5587 5654 5537 5604 5603 5587 5603 5654 5604 5538 5605 5605 5539 5606 5540 5607 5606 5655 5607 5588 5542 5609 5608 5655 5588 5608 5543 5610 5609 5544 5611 5610 5545 5612 5611 5612 5546 5613 5613 5589 5656 5656 5589 5590 5615 5614 5548 5614 5657 5590 5616 5615 5549 5617 5616 5550 5617 5551 5618 5618 5591 5658 5619 5553 5620 5591 5619 5658 5621 5620 5554 5622 5621 5555 5623 5622 5556 5601 5592 5659 5660 5593 5624 5624 5558 5625 5595 5661 5594 5594 5661 5625 5560 5627 5626 5662 5595 5596 5596 5626 5663 5561 5628 5627 5629 5628 5562 5629 5563 5630 5631 5630 5564 5632 5631 5565 5633 5632 5566 5567 5634 5633 5597 5664 5634 5597 5635 5664 5635 5569 5636 5570 5637 5636 5637 5571 5638 5598 5665 5638 5573 5640 5639 5598 5639 5665 5574 5641 5640 5575 5642 5641 5576 5643 5642 5643 5577 5644 5644 5578 5645 5666 5645 5599 5646 5666 5599 5646 5580 5647 5581 5648 5647 5649 5648 5582 5649 5583 5650 5650 5584 5651 5600 5667 5651 5652 5667 5600 5652 5586 5653 5601 5668 5653 5659 5592 5602 5669 5602 5654 5603 5604 5670 5603 5670 5654 5671 5604 5605 5672 5605 5606 5607 5673 5606 5655 5674 5607 5609 5675 5608 5675 5655 5608 5609 5610 5676 5610 5611 5677 5611 5612 5678 5612 5613 5679 5680 5613 5656 5657 5656 5590 5615 5681 5614 5681 5657 5614 5616 5682 5615 5683 5616 5617 5617 5618 5684 5618 5658 5685 5619 5620 5686 5619 5686 5658 5687 5620 5621 5621 5622 5688 5623 5689 5622 5601 5659 5668 5660 5624 5690 5691 5624 5625 5662 5661 5595 5661 5691 5625 5626 5627 5692 5662 5596 5663 5626 5692 5663 5627 5628 5693 5629 5694 5628 5695 5629 5630 5631 5696 5630 5697 5631 5632 5633 5698 5632 5634 5699 5633 5634 5664 5700 5664 5635 5701 5635 5636 5701 5636 5637 5702 5637 5638 5703 5638 5665 5704 5639 5640 5705 5665 5639 5705 5640 5641 5706 5641 5642 5707 5642 5643 5708 5709 5643 5644 5710 5644 5645 5666 5711 5645 5712 5666 5646 5712 5646 5647 5648 5713 5647 5649 5714 5648 5715 5649 5650 5716 5650 5651 5667 5717 5651 5718 5667 5652 5718 5652 5653 5668 5719 5653 5669 5659 5602 5720 5669 5654 5670 5604 5671 5670 5720 5654 5672 5671 5605 5673 5672 5606 5607 5674 5673 5721 5674 5655 5609 5676 5675 5721 5655 5675 5610 5677 5676 5677 5611 5678 5612 5679 5678 5679 5613 5680 5722 5680 5656 5657 5722 5656 5615 5682 5681 5723 5657 5681 5683 5682 5616 5683 5617 5684 5684 5618 5685 5685 5658 5724 5686 5620 5687 5658 5686 5724 5687 5621 5725 5622 5689 5688 5621 5688 5725 5668 5659 5726 5727 5660 5690 5690 5624 5691 5662 5728 5661 5661 5728 5691 5692 5627 5693 5729 5662 5663 5692 5730 5663 5628 5694 5693 5695 5694 5629 5696 5695 5630 5697 5696 5631 5698 5697 5632 5699 5698 5633 5634 5700 5699 5700 5664 5731 5731 5664 5701 5701 5636 5702 5702 5637 5703 5703 5638 5704 5704 5665 5732 5640 5706 5705 5665 5705 5732 5706 5641 5707 5642 5708 5707 5708 5643 5709 5709 5644 5710 5711 5710 5645 5666 5733 5711 5712 5733 5666 5713 5712 5647 5648 5714 5713 5715 5714 5649 5716 5715 5650 5717 5716 5651 5667 5734 5717 5718 5734 5667 5719 5718 5653 5668 5735 5719 5726 5659 5669 5669 5720 5736 5670 5671 5737 5670 5737 5720 5738 5671 5672 5672 5673 5739 5673 5674 5740 5721 5741 5674 5676 5742 5675 5742 5721 5675 5676 5677 5743 5677 5678 5744 5679 5745 5678 5679 5680 5746 5747 5680 5722 5723 5722 5657 5682 5748 5681 5748 5723 5681 5749 5682 5683 5750 5683 5684 5751 5684 5685 5752 5685 5724 5686 5687 5753 5724 5686 5753 5754 5687 5725 5689 5755 5688 5688 5756 5725 5668 5726 5735 5757 5727 5690 5690 5691 5758 5729 5728 5662 5728 5759 5691 5760 5692 5693 5730 5729 5663 5730 5692 5760 5694 5761 5693 5695 5762 5694 5696 5763 5695 5697 5764 5696 5698 5765 5697 5699 5766 5698 5699 5700 5767 5700 5731 5768 5769 5731 5701 5769 5701 5702 5770 5702 5703 5771 5703 5704 5772 5704 5732 5705 5706 5773 5732 5705 5773 5706 5707 5774 5707 5708 5775 5708 5709 5776 5777 5709 5710 5711 5778 5710 5711 5733 5779 5780 5733 5712 5713 5780 5712 5713 5714 5781 5715 5782 5714 5783 5715 5716 5716 5717 5784 5717 5734 5785 5718 5786 5734 5719 5786 5718 5719 5735 5787 5726 5669 5736 5736 5720 5788 5737 5671 5738 5720 5737 5788 5738 5672 5739 5673 5740 5739 5674 5741 5740 5789 5741 5721 5742 5676 5743 5789 5721 5742 5677 5744 5743 5678 5745 5744 5679 5746 5745 5746 5680 5747 5747 5722 5790 5790 5722 5723 5749 5748 5682 5791 5723 5748 5749 5683 5750 5751 5750 5684 5752 5751 5685 5792 5752 5724 5753 5687 5754 5792 5724 5753 5756 5754 5725 5755 5756 5688 5735 5726 5793 5794 5727 5757 5757 5690 5758 5691 5759 5758 5729 5795 5728 5728 5795 5759 5761 5760 5693 5796 5729 5730 5730 5760 5797 5694 5762 5761 5695 5763 5762 5696 5764 5763 5697 5765 5764 5698 5766 5765 5699 5767 5766 5767 5700 5768 5768 5731 5798 5731 5769 5798 5770 5769 5702 5771 5770 5703 5772 5771 5704 5799 5772 5732 5773 5706 5774 5799 5732 5773 5707 5775 5774 5708 5776 5775 5776 5709 5777 5778 5777 5710 5778 5711 5779 5733 5800 5779 5780 5800 5733 5713 5781 5780 5714 5782 5781 5783 5782 5715 5783 5716 5784 5784 5717 5785 5734 5801 5785 5734 5786 5801 5719 5787 5786 5735 5802 5787 5793 5726 5736 5803 5736 5788 5737 5738 5804 5737 5804 5788 5805 5738 5739 5740 5806 5739 5740 5741 5807 5789 5808 5741 5742 5743 5809 5789 5742 5809 5744 5810 5743 5744 5745 5811 5746 5812 5745 5746 5747 5813 5747 5790 5814 5790 5723 5791 5815 5748 5749 5791 5748 5815 5816 5749 5750 5751 5817 5750 5752 5818 5751 5819 5752 5792 5820 5753 5754 5820 5792 5753 5756 5821 5754 5755 5822 5756 5735 5793 5802 5794 5757 5823 5824 5757 5758 5759 5824 5758 5796 5795 5729 5759 5795 5825 5761 5826 5760 5796 5730 5797 5760 5826 5797 5762 5827 5761 5762 5763 5828 5763 5764 5829 5764 5765 5830 5765 5766 5831 5766 5767 5832 5833 5767 5768 5834 5768 5798 5769 5835 5798 5770 5835 5769 5771 5836 5770 5837 5771 5772 5772 5799 5838 5839 5773 5774 5839 5799 5773 5775 5840 5774 5776 5841 5775 5776 5777 5842 5843 5777 5778 5844 5778 5779 5800 5845 5779 5846 5800 5780 5781 5846 5780 5782 5847 5781 5783 5848 5782 5849 5783 5784 5850 5784 5785 5801 5851 5785 5801 5786 5852 5786 5787 5852 5802 5853 5787 5803 5793 5736 5854 5803 5788 5804 5738 5805 5804 5854 5788 5806 5805 5739 5806 5740 5807 5741 5808 5807 5855 5808 5789 5743 5810 5809 5855 5789 5809 5810 5744 5811 5745 5812 5811 5746 5813 5812 5813 5747 5814 5790 5856 5814 5790 5791 5856 5815 5749 5816 5791 5815 5857 5817 5816 5750 5751 5818 5817 5819 5818 5752 5819 5792 5858 5821 5820 5754 5858 5792 5820 5756 5822 5821 5802 5793 5859 5860 5794 5823 5757 5861 5823 5861 5757 5824 5759 5825 5824 5796 5862 5795 5795 5862 5825 5827 5826 5761 5863 5796 5797 5826 5864 5797 5762 5828 5827 5828 5763 5829 5764 5830 5829 5830 5765 5831 5766 5832 5831 5832 5767 5833 5833 5768 5834 5865 5834 5798 5835 5865 5798 5770 5836 5835 5837 5836 5771 5837 5772 5838 5799 5866 5838 5840 5839 5774 5839 5866 5799 5841 5840 5775 5776 5842 5841 5842 5777 5843 5843 5778 5844 5845 5844 5779 5800 5867 5845 5846 5867 5800 5781 5847 5846 5782 5848 5847 5849 5848 5783 5850 5849 5784 5851 5850 5785 5801 5868 5851 5868 5801 5852 5787 5853 5852 5802 5869 5853 5859 5793 5803 5803 5854 5870 5804 5805 5871 5804 5871 5854 5806 5872 5805 5873 5806 5807 5808 5874 5807 5855 5875 5808 5810 5876 5809 5876 5855 5809 5877 5810 5811 5812 5878 5811 5812 5813 5879 5880 5813 5814 5814 5856 5881 5856 5791 5857 5815 5816 5882 5815 5882 5857 5883 5816 5817 5818 5884 5817 5885 5818 5819 5819 5858 5886 5887 5820 5821 5858 5820 5887 5822 5888 5821 5802 5859 5869 5889 5860 5823 5861 5889 5823 5890 5861 5824 5825 5890 5824 5863 5862 5796 5862 5891 5825 5827 5892 5826 5864 5863 5797 5892 5864 5826 5827 5828 5893 5894 5828 5829 5830 5895 5829 5830 5831 5896 5832 5897 5831 5832 5833 5898 5899 5833 5834 5865 5900 5834 5835 5901 5865 5835 5836 5901 5837 5902 5836 5903 5837 5838 5866 5904 5838 5905 5839 5840 5905 5866 5839 5840 5841 5906 5841 5842 5907 5842 5843 5908 5909 5843 5844 5845 5910 5844 5845 5867 5911 5846 5912 5867 5846 5847 5912 5847 5848 5913 5849 5914 5848 5915 5849 5850 5850 5851 5916 5851 5868 5917 5918 5868 5852 5853 5918 5852 5853 5869 5919 5859 5803 5870 5870 5854 5920 5805 5872 5871 5854 5871 5920 5873 5872 5806 5874 5873 5807 5808 5875 5874 5855 5921 5875 5877 5876 5810 5876 5921 5855 5878 5877 5811 5812 5879 5878 5879 5813 5880 5880 5814 5881 5881 5856 5922 5856 5857 5922 5882 5816 5883 5882 5923 5857 5884 5883 5817 5885 5884 5818 5885 5819 5886 5886 5858 5924 5888 5887 5821 5858 5887 5924 5869 5859 5925 5926 5860 5889 5861 5927 5889 5890 5927 5861 5891 5890 5825 5863 5928 5862 5862 5928 5891 5827 5893 5892 5864 5929 5863 5892 5930 5864 5893 5828 5894 5895 5894 5829 5830 5896 5895 5831 5897 5896 5832 5898 5897 5898 5833 5899 5900 5899 5834 5900 5865 5931 5865 5901 5931 5836 5902 5901 5903 5902 5837 5904 5903 5838 5932 5904 5866 5905 5840 5906 5932 5866 5905 5841 5907 5906 5842 5908 5907 5908 5843 5909 5910 5909 5844 5845 5911 5910 5867 5933 5911 5867 5912 5933 5912 5847 5913 5848 5914 5913 5915 5914 5849 5915 5850 5916 5916 5851 5917 5868 5934 5917 5918 5934 5868 5918 5853 5919 5869 5935 5919 5925 5859 5870 5936 5870 5920 5871 5872 5937 5871 5937 5920 5873 5938 5872 5874 5939 5873 5874 5875 5940 5875 5921 5941 5877 5942 5876 5876 5942 5921 5878 5943 5877 5878 5879 5944 5945 5879 5880 5946 5880 5881 5947 5881 5922 5857 5923 5922 5882 5883 5948 5882 5948 5923 5949 5883 5884 5950 5884 5885 5951 5885 5886 5952 5886 5924 5888 5953 5887 5887 5954 5924 5869 5925 5935 5955 5926 5889 5889 5927 5956 5890 5957 5927 5891 5957 5890 5863 5929 5928 5891 5928 5958 5892 5893 5959 5864 5930 5929 5892 5959 5930 5893 5894 5960 5894 5895 5961 5896 5962 5895 5896 5897 5963 5897 5898 5964 5898 5899 5965 5966 5899 5900 5967 5900 5931 5901 5968 5931 5901 5902 5968 5903 5969 5902 5970 5903 5904 5971 5904 5932 5972 5905 5906 5932 5905 5972 5907 5973 5906 5908 5974 5907 5908 5909 5975 5976 5909 5910 5911 5977 5910 5911 5933 5978 5933 5912 5979 5979 5912 5913 5914 5980 5913 5915 5981 5914 5982 5915 5916 5983 5916 5917 5934 5984 5917 5985 5934 5918 5985 5918 5919 5935 5986 5919 5936 5925 5870 5987 5936 5920 5872 5938 5937 5937 5987 5920 5873 5939 5938 5874 5940 5939 5940 5875 5941 5921 5988 5941 5877 5943 5942 5921 5942 5988 5878 5944 5943 5944 5879 5945 5945 5880 5946 5947 5946 5881 5947 5922 5989 5922 5923 5989 5948 5883 5949 5923 5948 5990 5949 5884 5950 5950 5885 5951 5952 5951 5886 5954 5952 5924 5953 5954 5887 5935 5925 5991 5992 5926 5955 5955 5889 5956 5927 5993 5956 5927 5957 5993 5891 5958 5957 5928 5929 5994 5958 5928 5994 5959 5893 5960 5929 5930 5995 5930 5959 5996 5960 5894 5961 5895 5962 5961 5896 5963 5962 5963 5897 5964 5898 5965 5964 5965 5899 5966 5966 5900 5967 5997 5967 5931 5968 5997 5931 5902 5969 5968 5970 5969 5903 5970 5904 5971 5971 5932 5998 5973 5972 5906 5932 5972 5998 5907 5974 5973 5908 5975 5974 5975 5909 5976 5977 5976 5910 5977 5911 5978 5933 5999 5978 5999 5933 5979 5980 5979 5913 5914 5981 5980 5982 5981 5915 5983 5982 5916 5984 5983 5917 5934 6000 5984 5985 6000 5934 5986 5985 5919 5935 6001 5986 5991 5925 5936 5936 5987 6002 5938 6003 5937 5937 6003 5987 5938 5939 6004 5939 5940 6005 6006 5940 5941 5988 6007 5941 5942 5943 6008 5988 5942 6008 5943 5944 6009 5944 5945 6010 6011 5945 5946 5947 6012 5946 6013 5947 5989 5989 5923 5990 5948 5949 6014 5948 6014 5990 5949 5950 6015 5950 5951 6016 6017 5951 5952 5952 5954 6018 5953 6019 5954 5935 5991 6001 5992 5955 6020 6021 5955 5956 5993 6021 5956 5957 6022 5993 5957 5958 6022 5929 5995 5994 6023 5958 5994 6024 5959 5960 5930 5996 5995 5996 5959 6024 6025 5960 5961 5961 5962 6026 5962 5963 6027 6028 5963 5964 5965 6029 5964 5965 5966 6030 6031 5966 5967 5997 6032 5967 5968 6033 5997 5969 6033 5968 6034 5969 5970 5970 5971 6035 6036 5971 5998 5972 5973 6037 5998 5972 6037 5973 5974 6038 5975 6039 5974 5975 5976 6040 6041 5976 5977 6042 5977 5978 5999 6043 5978 5999 5979 6044 5979 5980 6044 5980 5981 6045 5982 6046 5981 6047 5982 5983 5983 5984 6048 5984 6000 6049 5985 6050 6000 5986 6050 5985 5986 6001 6051 5991 5936 6002 6002 5987 6052 5938 6004 6003 5987 6003 6052 6004 5939 6005 5940 6006 6005 6007 6006 5941 6007 5988 6053 5943 6009 6008 5988 6008 6053 5944 6010 6009 6010 5945 6011 6012 6011 5946 6013 6012 5947 6054 6013 5989 6054 5989 5990 6014 5949 6015 5990 6014 6055 5950 6016 6015 6016 5951 6017 6017 5952 6018 5954 6019 6018 6001 5991 6056 6057 5992 6020 6020 5955 6021 6058 6021 5993 6022 6058 5993 6022 5958 6023 5994 5995 6059 6023 5994 6059 6025 6024 5960 5996 6060 5995 5996 6024 6061 6025 5961 6026 5962 6027 6026 6027 5963 6028 6029 6028 5964 5965 6030 6029 6030 5966 6031 6032 6031 5967 6062 6032 5997 6033 6062 5997 6034 6033 5969 6034 5970 6035 6035 5971 6036 6063 6036 5998 6037 5973 6038 6063 5998 6037 5974 6039 6038 5975 6040 6039 6040 5976 6041 6041 5977 6042 6043 6042 5978 6064 6043 5999 6064 5999 6044 5980 6045 6044 5981 6046 6045 6047 6046 5982 6047 5983 6048 6048 5984 6049 6049 6000 6065 6000 6050 6065 5986 6051 6050 6001 6066 6051 6056 5991 6002 6067 6002 6052 6003 6004 6068 6003 6068 6052 6069 6004 6005 6006 6070 6005 6071 6006 6007 6007 6053 6072 6009 6073 6008 6008 6073 6053 6010 6074 6009 6010 6011 6075 6076 6011 6012 6077 6012 6013 6078 6013 6054 6054 5990 6055 6014 6015 6079 6055 6014 6079 6015 6016 6080 6016 6017 6081 6082 6017 6018 6019 6083 6018 6001 6056 6066 6084 6057 6020 6085 6020 6021 6021 6058 6086 6022 6087 6058 6022 6023 6087 5995 6060 6059 6088 6023 6059 6089 6024 6025 5996 6061 6060 6061 6024 6089 6090 6025 6026 6026 6027 6091 6027 6028 6092 6028 6029 6093 6029 6030 6094 6030 6031 6095 6096 6031 6032 6097 6032 6062 6098 6062 6033 6098 6033 6034 6099 6034 6035 6100 6035 6036 6063 6101 6036 6102 6037 6038 6102 6063 6037 6038 6039 6103 6039 6040 6104 6040 6041 6105 6106 6041 6042 6043 6107 6042 6064 6108 6043 6109 6064 6044 6045 6109 6044 6045 6046 6110 6047 6111 6046 6112 6047 6048 6113 6048 6049 6114 6049 6065 6065 6050 6115 6050 6051 6115 6066 6116 6051 6067 6056 6002 6117 6067 6052 6068 6004 6069 6068 6117 6052 6070 6069 6005 6071 6070 6006 6071 6007 6072 6053 6118 6072 6009 6074 6073 6073 6118 6053 6010 6075 6074 6075 6011 6076 6076 6012 6077 6077 6013 6078 6078 6054 6119 6119 6054 6055 6079 6015 6080 6120 6055 6079 6080 6016 6081 6081 6017 6121 6017 6082 6121 6083 6082 6018 6066 6056 6122 6123 6057 6084 6084 6020 6085 6085 6021 6086 6058 6124 6086 6058 6087 6124 6087 6023 6088 6059 6060 6125 6088 6059 6125 6090 6089 6025 6060 6061 6126 6061 6089 6127 6090 6026 6091 6091 6027 6092 6028 6093 6092 6029 6094 6093 6030 6095 6094 6095 6031 6096 6096 6032 6097 6097 6062 6128 6128 6062 6098 6098 6034 6099 6099 6035 6100 6101 6100 6036 6129 6101 6063 6102 6038 6103 6129 6063 6102 6103 6039 6104 6040 6105 6104 6105 6041 6106 6107 6106 6042 6043 6108 6107 6130 6108 6064 6130 6064 6109 6109 6045 6110 6046 6111 6110 6112 6111 6047 6113 6112 6048 6114 6113 6049 6131 6114 6065 6131 6065 6115 6051 6116 6115 6066 6132 6116 6122 6056 6067 6067 6117 6133 6068 6069 6134 6068 6134 6117 6135 6069 6070 6071 6136 6070 6137 6071 6072 6118 6138 6072 6073 6074 6139 6118 6073 6139 6075 6140 6074 6075 6076 6141 6076 6077 6142 6077 6078 6143 6144 6078 6119 6120 6119 6055 6145 6079 6080 6145 6120 6079 6146 6080 6081 6147 6081 6121 6082 6148 6121 6083 6149 6082 6066 6122 6132 6123 6084 6150 6084 6085 6151 6085 6086 6152 6124 6153 6086 6124 6087 6154 6154 6087 6088 6060 6126 6125 6155 6088 6125 6156 6089 6090 6061 6127 6126 6127 6089 6156 6157 6090 6091 6158 6091 6092 6092 6093 6159 6093 6094 6160 6095 6161 6094 6095 6096 6162 6096 6097 6163 6097 6128 6164 6128 6098 6165 6098 6099 6165 6166 6099 6100 6101 6167 6100 6129 6168 6101 6169 6102 6103 6129 6102 6169 6170 6103 6104 6105 6171 6104 6105 6106 6172 6173 6106 6107 6108 6174 6107 6175 6108 6130 6130 6109 6176 6176 6109 6110 6111 6177 6110 6112 6178 6111 6179 6112 6113 6180 6113 6114 6131 6181 6114 6182 6131 6115 6116 6182 6115 6116 6132 6183 6122 6067 6133 6133 6117 6184 6069 6135 6134 6117 6134 6184 6136 6135 6070 6137 6136 6071 6138 6137 6072 6185 6138 6118 6074 6140 6139 6185 6118 6139 6075 6141 6140 6141 6076 6142 6077 6143 6142 6143 6078 6144 6186 6144 6119 6120 6186 6119 6146 6145 6080 6187 6120 6145 6146 6081 6147 6148 6147 6121 6149 6148 6082 6132 6122 6188 6189 6123 6150 6084 6151 6150 6151 6085 6152 6086 6153 6152 6124 6190 6153 6124 6154 6190 6155 6154 6088 6125 6126 6191 6155 6125 6191 6156 6090 6157 6127 6192 6126 6127 6156 6193 6158 6157 6091 6158 6092 6159 6159 6093 6160 6094 6161 6160 6095 6162 6161 6162 6096 6163 6097 6164 6163 6164 6128 6194 6194 6128 6165 6165 6099 6166 6167 6166 6100 6101 6168 6167 6195 6168 6129 6170 6169 6103 6195 6129 6169 6171 6170 6104 6105 6172 6171 6172 6106 6173 6174 6173 6107 6175 6174 6108 6175 6130 6196 6196 6130 6176 6177 6176 6110 6111 6178 6177 6179 6178 6112 6179 6113 6180 6181 6180 6114 6197 6181 6131 6197 6131 6182 6116 6183 6182 6132 6198 6183 6188 6122 6133 6199 6133 6184 6134 6135 6200 6134 6200 6184 6136 6201 6135 6137 6202 6136 6138 6203 6137 6185 6204 6138 6140 6205 6139 6205 6185 6139 6140 6141 6206 6207 6141 6142 6143 6208 6142 6143 6144 6209 6210 6144 6186 6187 6186 6120 6211 6145 6146 6187 6145 6211 6212 6146 6147 6148 6213 6147 6149 6214 6148 6132 6188 6198 6189 6150 6215 6150 6151 6216 6217 6151 6152 6153 6217 6152 6153 6190 6218 6190 6154 6219 6219 6154 6155 6126 6192 6191 6220 6155 6191 6221 6156 6157 6127 6193 6192 6193 6156 6221 6158 6222 6157 6223 6158 6159 6224 6159 6160 6160 6161 6225 6161 6162 6226 6227 6162 6163 6164 6228 6163 6164 6194 6229 6230 6194 6165 6230 6165 6166 6167 6231 6166 6168 6232 6167 6233 6168 6195 6170 6234 6169 6234 6195 6169 6235 6170 6171 6172 6236 6171 6172 6173 6237 6238 6173 6174 6239 6174 6175 6175 6196 6240 6241 6196 6176 6177 6241 6176 6178 6242 6177 6179 6243 6178 6244 6179 6180 6181 6245 6180 6246 6181 6197 6247 6197 6182 6183 6247 6182 6198 6248 6183 6199 6188 6133 6249 6199 6184 6135 6201 6200 6200 6249 6184 6136 6202 6201 6137 6203 6202 6138 6204 6203 6185 6250 6204 6140 6206 6205 6205 6250 6185 6206 6141 6207 6208 6207 6142 6143 6209 6208 6209 6144 6210 6210 6186 6251 6251 6186 6187 6211 6146 6212 6187 6211 6252 6213 6212 6147 6148 6214 6213 6198 6188 6253 6254 6189 6215 6150 6255 6215 6151 6217 6216 6255 6150 6216 6153 6218 6217 6218 6190 6256 6190 6219 6256 6219 6155 6220 6191 6192 6257 6220 6191 6257 6222 6221 6157 6192 6193 6258 6193 6221 6259 6223 6222 6158 6224 6223 6159 6224 6160 6225 6161 6226 6225 6226 6162 6227 6228 6227 6163 6164 6229 6228 6229 6194 6260 6260 6194 6230 6231 6230 6166 6167 6232 6231 6233 6232 6168 6233 6195 6261 6235 6234 6170 6261 6195 6234 6236 6235 6171 6172 6237 6236 6237 6173 6238 6238 6174 6239 6239 6175 6240 6240 6196 6262 6262 6196 6241 6177 6242 6241 6178 6243 6242 6244 6243 6179 6245 6244 6180 6246 6245 6181 6246 6197 6263 6197 6247 6263 6248 6247 6183 6198 6264 6248 6253 6188 6199 6199 6249 6265 6201 6266 6200 6200 6266 6249 6201 6202 6267 6202 6203 6268 6203 6204 6269 6204 6250 6270 6205 6206 6271 6205 6271 6250 6272 6206 6207 6207 6208 6273 6208 6209 6274 6209 6210 6275 6210 6251 6276 6251 6187 6252 6211 6212 6277 6252 6211 6277 6278 6212 6213 6214 6279 6213 6198 6253 6264 6280 6254 6215 6255 6280 6215 6217 6281 6216 6281 6255 6216 6218 6282 6217 6218 6256 6283 6219 6284 6256 6219 6220 6284 6257 6192 6258 6285 6220 6257 6286 6221 6222 6193 6259 6258 6259 6221 6286 6287 6222 6223 6288 6223 6224 6289 6224 6225 6226 6290 6225 6291 6226 6227 6292 6227 6228 6229 6293 6228 6229 6260 6294 6295 6260 6230 6231 6295 6230 6232 6296 6231 6297 6232 6233 6233 6261 6298 6299 6234 6235 6261 6234 6299 6236 6300 6235 6236 6237 6301 6237 6238 6302 6238 6239 6303 6304 6239 6240 6305 6240 6262 6306 6262 6241 6242 6306 6241 6242 6243 6307 6244 6308 6243 6309 6244 6245 6310 6245 6246 6311 6246 6263 6247 6312 6263 6248 6312 6247 6248 6264 6313 6253 6199 6265 6249 6314 6265 6201 6267 6266 6249 6266 6314 6267 6202 6268 6203 6269 6268 6269 6204 6270 6270 6250 6315 6271 6206 6272 6250 6271 6315 6272 6207 6273 6273 6208 6274 6209 6275 6274 6210 6276 6275 6276 6251 6316 6316 6251 6252 6212 6278 6277 6317 6252 6277 6279 6278 6213 6264 6253 6318 6319 6280 6255 6282 6281 6217 6281 6319 6255 6282 6218 6283 6256 6320 6283 6284 6320 6256 6284 6220 6285 6321 6257 6258 6321 6285 6257 6286 6222 6287 6258 6259 6322 6259 6286 6323 6287 6223 6288 6288 6224 6289 6290 6289 6225 6226 6291 6290 6291 6227 6292 6293 6292 6228 6229 6294 6293 6294 6260 6324 6324 6260 6295 6296 6295 6231 6297 6296 6232 6297 6233 6298 6298 6261 6325 6300 6299 6235 6261 6299 6325 6236 6301 6300 6301 6237 6302 6238 6303 6302 6303 6239 6304 6304 6240 6305 6326 6305 6262 6306 6326 6262 6242 6307 6306 6243 6308 6307 6309 6308 6244 6309 6245 6310 6310 6246 6311 6327 6311 6263 6312 6327 6263 6248 6313 6312 6264 6328 6313 6318 6253 6265 6314 6329 6265 6266 6267 6330 6266 6330 6314 6331 6267 6268 6269 6332 6268 6269 6270 6333 6334 6270 6315 6271 6272 6335 6271 6335 6315 6336 6272 6273 6337 6273 6274 6275 6338 6274 6276 6339 6275 6276 6316 6340 6317 6316 6252 6277 6278 6341 6317 6277 6341 6279 6342 6278 6264 6318 6328 6343 6281 6282 6343 6319 6281 6344 6282 6283 6320 6344 6283 6284 6345 6320 6284 6285 6345 6321 6258 6322 6346 6285 6321 6286 6287 6347 6259 6323 6322 6286 6347 6323 6287 6288 6348 6288 6289 6349 6289 6290 6350 6291 6351 6290 6352 6291 6292 6293 6353 6292 6293 6294 6354 6294 6324 6355 6324 6295 6356 6356 6295 6296 6357 6296 6297 6358 6297 6298 6359 6298 6325 6300 6360 6299 6299 6360 6325 6300 6301 6361 6362 6301 6302 6303 6363 6302 6303 6304 6364 6365 6304 6305 6326 6366 6305 6306 6367 6326 6307 6367 6306 6308 6368 6307 6369 6308 6309 6309 6310 6370 6310 6311 6371 6372 6311 6327 6327 6312 6373 6312 6313 6373 6328 6374 6313 6329 6318 6265 6375 6329 6314 6330 6267 6331 6330 6375 6314 6332 6331 6268 6332 6269 6333 6270 6334 6333 6334 6315 6376 6335 6272 6336 6315 6335 6376 6337 6336 6273 6338 6337 6274 6275 6339 6338 6276 6340 6339 6340 6316 6377 6377 6316 6317 6278 6378 6341 6379 6317 6341 6342 6378 6278 6328 6318 6380 6381 6343 6282 6344 6381 6282 6344 6320 6382 6320 6345 6382 6345 6285 6346 6383 6321 6322 6346 6321 6383 6347 6287 6348 6322 6323 6384 6347 6385 6323 6288 6349 6348 6349 6289 6350 6290 6351 6350 6352 6351 6291 6353 6352 6292 6293 6354 6353 6354 6294 6355 6324 6386 6355 6324 6356 6386 6356 6296 6357 6357 6297 6358 6359 6358 6298 6359 6325 6387 6300 6361 6360 6325 6360 6387 6361 6301 6362 6363 6362 6302 6303 6364 6363 6364 6304 6365 6366 6365 6305 6366 6326 6388 6326 6367 6388 6368 6367 6307 6369 6368 6308 6369 6309 6370 6310 6371 6370 6371 6311 6372 6389 6372 6327 6389 6327 6373 6313 6374 6373 6328 6390 6374 6380 6318 6329 6329 6375 6391 6330 6331 6392 6330 6392 6375 6393 6331 6332 6394 6332 6333 6334 6395 6333 6396 6334 6376 6335 6336 6397 6335 6397 6376 6398 6336 6337 6337 6338 6399 6339 6400 6338 6340 6401 6339 6340 6377 6402 6377 6317 6379 6378 6379 6341 6342 6403 6378 6328 6380 6390 6404 6381 6344 6404 6344 6382 6345 6405 6382 6345 6346 6406 6383 6322 6384 6346 6383 6407 6408 6347 6348 6323 6385 6384 6347 6408 6385 6349 6409 6348 6410 6349 6350 6351 6411 6350 6352 6412 6351 6353 6413 6352 6353 6354 6414 6354 6355 6415 6386 6416 6355 6356 6417 6386 6356 6357 6417 6418 6357 6358 6359 6419 6358 6420 6359 6387 6360 6361 6421 6360 6421 6387 6361 6362 6422 6362 6363 6423 6364 6424 6363 6364 6365 6425 6426 6365 6366 6427 6366 6388 6367 6428 6388 6368 6428 6367 6429 6368 6369 6369 6370 6430 6370 6371 6431 6432 6371 6372 6389 6433 6372 6434 6389 6373 6374 6434 6373 6374 6390 6435 6380 6329 6391 6391 6375 6436 6331 6393 6392 6375 6392 6436 6394 6393 6332 6395 6394 6333 6396 6395 6334 6437 6396 6376 6397 6336 6398 6397 6437 6376 6398 6337 6399 6338 6400 6399 6401 6400 6339 6340 6402 6401 6402 6377 6438 6377 6379 6438 6379 6378 6439 6378 6403 6439 6390 6380 6440 6441 6404 6382 6405 6345 6406 6405 6441 6382 6346 6407 6406 6383 6384 6442 6383 6442 6407 6409 6408 6348 6385 6443 6384 6408 6444 6385 6410 6409 6349 6411 6410 6350 6351 6412 6411 6352 6413 6412 6353 6414 6413 6414 6354 6415 6355 6416 6415 6445 6416 6386 6417 6445 6386 6417 6357 6418 6419 6418 6358 6420 6419 6359 6446 6420 6387 6421 6361 6422 6421 6446 6387 6362 6423 6422 6363 6424 6423 6364 6425 6424 6425 6365 6426 6426 6366 6427 6447 6427 6388 6428 6447 6388 6429 6428 6368 6429 6369 6430 6430 6370 6431 6431 6371 6432 6433 6432 6372 6448 6433 6389 6448 6389 6434 6434 6374 6435 6390 6449 6435 6440 6380 6391 6450 6391 6436 6392 6393 6451 6392 6451 6436 6394 6452 6393 6395 6453 6394 6396 6454 6395 6437 6455 6396 6397 6398 6456 6397 6456 6437 6457 6398 6399 6400 6458 6399 6401 6459 6400 6401 6402 6460 6461 6402 6438 6379 6462 6438 6462 6379 6439 6403 6463 6439 6390 6440 6449 6464 6405 6406 6465 6441 6405 6407 6464 6406 6384 6443 6442 6442 6466 6407 6409 6467 6408 6385 6444 6443 6408 6467 6444 6410 6468 6409 6411 6469 6410 6411 6412 6470 6412 6413 6471 6413 6414 6472 6473 6414 6415 6415 6416 6474 6445 6475 6416 6417 6476 6445 6417 6418 6476 6477 6418 6419 6478 6419 6420 6420 6446 6479 6421 6422 6480 6421 6480 6446 6423 6481 6422 6424 6482 6423 6424 6425 6483 6425 6426 6484 6426 6427 6485 6486 6427 6447 6487 6447 6428 6487 6428 6429 6488 6429 6430 6489 6430 6431 6490 6431 6432 6433 6491 6432 6492 6433 6448 6493 6448 6434 6493 6434 6435 6449 6494 6435 6450 6440 6391 6495 6450 6436 6393 6452 6451 6451 6495 6436 6394 6453 6452 6395 6454 6453 6396 6455 6454 6437 6496 6455 6456 6398 6457 6437 6456 6496 6458 6457 6399 6400 6459 6458 6401 6460 6459 6460 6402 6497 6402 6461 6497 6462 6461 6438 6463 6462 6439 6449 6440 6498 6464 6465 6405 6466 6464 6407 6443 6499 6442 6499 6466 6442 6409 6468 6467 6443 6444 6500 6444 6467 6501 6410 6469 6468 6411 6470 6469 6470 6412 6471 6413 6472 6471 6472 6414 6473 6473 6415 6474 6416 6475 6474 6445 6502 6475 6445 6476 6502 6476 6418 6477 6477 6419 6478 6478 6420 6479 6446 6503 6479 6422 6481 6480 6446 6480 6503 6482 6481 6423 6424 6483 6482 6483 6425 6484 6426 6485 6484 6485 6427 6486 6486 6447 6504 6504 6447 6487 6487 6429 6488 6488 6430 6489 6490 6489 6431 6491 6490 6432 6492 6491 6433 6492 6448 6505 6505 6448 6493 6494 6493 6435 6449 6506 6494 6498 6440 6450 6450 6495 6507 6452 6508 6451 6508 6495 6451 6452 6453 6509 6453 6454 6510 6454 6455 6511 6455 6496 6512 6456 6457 6513 6496 6456 6513 6457 6458 6514 6458 6459 6515 6459 6460 6516 6517 6460 6497 6461 6518 6497 6462 6519 6461 6463 6520 6462 6449 6498 6506 6521 6465 6464 6521 6464 6466 6499 6443 6500 6499 6522 6466 6467 6468 6523 6500 6444 6501 6467 6523 6501 6468 6469 6524 6469 6470 6525 6526 6470 6471 6472 6527 6471 6472 6473 6528 6529 6473 6474 6475 6530 6474 6475 6502 6531 6502 6476 6532 6476 6477 6532 6477 6478 6533 6534 6478 6479 6503 6535 6479 6480 6481 6536 6503 6480 6536 6482 6537 6481 6482 6483 6538 6483 6484 6539 6485 6540 6484 6485 6486 6541 6486 6504 6542 6504 6487 6543 6487 6488 6543 6544 6488 6489 6490 6545 6489 6491 6546 6490 6547 6491 6492 6492 6505 6548 6505 6493 6549 6493 6494 6549 6494 6506 6550 6498 6450 6507 6495 6551 6507 6452 6509 6508 6508 6551 6495 6509 6453 6510 6454 6511 6510 6455 6512 6511 6512 6496 6552 6513 6457 6514 6552 6496 6513 6514 6458 6515 6459 6516 6515 6516 6460 6517 6518 6517 6497 6461 6519 6518 6520 6519 6462 6506 6498 6553 6522 6521 6466 6554 6499 6500 6554 6522 6499 6523 6468 6524 6555 6500 6501 6523 6555 6501 6469 6525 6524 6525 6470 6526 6527 6526 6471 6472 6528 6527 6528 6473 6529 6530 6529 6474 6475 6531 6530 6531 6502 6556 6502 6532 6556 6477 6533 6532 6533 6478 6534 6535 6534 6479 6503 6557 6535 6481 6537 6536 6557 6503 6536 6482 6538 6537 6538 6483 6539 6484 6540 6539 6485 6541 6540 6486 6542 6541 6542 6504 6558 6558 6504 6543 6543 6488 6544 6545 6544 6489 6490 6546 6545 6547 6546 6491 6547 6492 6548 6505 6559 6548 6505 6549 6559 6494 6550 6549 6506 6560 6550 6553 6498 6507 6507 6551 6561 6508 6509 6562 6508 6562 6551 6563 6509 6510 6511 6564 6510 6512 6565 6511 6512 6552 6566 6567 6513 6514 6552 6513 6567 6568 6514 6515 6515 6516 6569 6516 6517 6570 6571 6517 6518 6519 6572 6518 6520 6573 6519 6506 6553 6560 6574 6554 6500 6575 6523 6524 6555 6574 6500 6555 6523 6576 6524 6525 6577 6525 6526 6578 6526 6527 6579 6528 6580 6527 6528 6529 6581 6530 6582 6529 6530 6531 6583 6584 6531 6556 6532 6585 6556 6533 6585 6532 6533 6534 6586 6534 6535 6587 6535 6557 6588 6537 6589 6536 6589 6557 6536 6537 6538 6590 6591 6538 6539 6540 6592 6539 6541 6593 6540 6542 6594 6541 6542 6558 6595 6558 6543 6596 6596 6543 6544 6545 6597 6544 6546 6598 6545 6599 6546 6547 6600 6547 6548 6559 6601 6548 6559 6549 6602 6549 6550 6602 6560 6603 6550 6553 6507 6561 6561 6551 6604 6562 6509 6563 6551 6562 6604 6564 6563 6510 6511 6565 6564 6512 6566 6565 6566 6552 6605 6568 6567 6514 6605 6552 6567 6568 6515 6569 6516 6570 6569 6570 6517 6571 6572 6571 6518 6519 6573 6572 6560 6553 6606 6523 6575 6576 6575 6524 6577 6607 6574 6555 6607 6555 6576 6525 6578 6577 6578 6526 6579 6527 6580 6579 6580 6528 6581 6529 6582 6581 6530 6583 6582 6583 6531 6584 6608 6584 6556 6585 6608 6556 6533 6586 6585 6586 6534 6587 6535 6588 6587 6557 6609 6588 6537 6590 6589 6589 6609 6557 6590 6538 6591 6592 6591 6539 6540 6593 6592 6541 6594 6593 6542 6595 6594 6595 6558 6610 6610 6558 6596 6597 6596 6544 6545 6598 6597 6599 6598 6546 6599 6547 6600 6601 6600 6548 6559 6611 6601 6611 6559 6602 6550 6603 6602 6560 6612 6603 6606 6553 6561 6613 6561 6604 6562 6563 6614 6562 6614 6604 6563 6564 6615 6564 6565 6616 6565 6566 6617 6566 6605 6618 6568 6619 6567 6619 6605 6567 6620 6568 6569 6570 6621 6569 6570 6571 6622 6571 6572 6623 6573 6624 6572 6560 6606 6612 6575 6625 6576 6626 6575 6577 6625 6607 6576 6578 6626 6577 6578 6579 6627 6580 6628 6579 6629 6580 6581 6582 6629 6581 6582 6583 6630 6583 6584 6631 6584 6608 6632 6585 6633 6608 6585 6586 6633 6634 6586 6587 6588 6635 6587 6609 6636 6588 6589 6590 6637 6589 6637 6609 6590 6591 6638 6591 6592 6639 6592 6593 6640 6593 6594 6641 6595 6642 6594 6595 6610 6643 6644 6610 6596 6597 6644 6596 6598 6645 6597 6646 6598 6599 6599 6600 6647 6600 6601 6648 6601 6611 6649 6650 6611 6602 6603 6650 6602 6603 6612 6651 6613 6606 6561 6652 6613 6604 6614 6563 6615 6614 6652 6604 6615 6564 6616 6565 6617 6616 6566 6618 6617 6618 6605 6653 6620 6619 6568 6653 6605 6619 6621 6620 6569 6570 6622 6621 6622 6571 6623 6572 6624 6623 6612 6606 6654 6655 6625 6575 6655 6575 6626 6626 6578 6627 6579 6628 6627 6656 6628 6580 6656 6580 6629 6629 6582 6657 6583 6631 6630 6582 6630 6657 6631 6584 6632 6608 6658 6632 6608 6633 6658 6633 6586 6634 6635 6634 6587 6636 6635 6588 6609 6659 6636 6637 6590 6638 6609 6637 6659 6638 6591 6639 6592 6640 6639 6640 6593 6641 6594 6642 6641 6595 6643 6642 6643 6610 6660 6660 6610 6644 6645 6644 6597 6646 6645 6598 6646 6599 6647 6647 6600 6648 6601 6649 6648 6611 6661 6649 6650 6661 6611 6650 6603 6651 6612 6662 6651 6654 6606 6613 6663 6613 6652 6664 6614 6615 6652 6614 6664 6665 6615 6616 6617 6666 6616 6618 6667 6617 6618 6653 6668 6669 6619 6620 6653 6619 6669 6620 6621 6670 6621 6622 6671 6672 6622 6623 6624 6673 6623 6612 6654 6662 6674 6655 6626 6674 6626 6627 6628 6675 6627 6676 6628 6656 6656 6629 6677 6677 6629 6657 6631 6678 6630 6630 6679 6657 6631 6632 6680 6632 6658 6681 6633 6682 6658 6633 6634 6682 6683 6634 6635 6635 6636 6684 6636 6659 6685 6686 6637 6638 6659 6637 6686 6687 6638 6639 6640 6688 6639 6689 6640 6641 6642 6690 6641 6642 6643 6691 6643 6660 6692 6660 6644 6693 6693 6644 6645 6694 6645 6646 6646 6647 6695 6696 6647 6648 6649 6697 6648 6661 6698 6649 6699 6661 6650 6699 6650 6651 6662 6700 6651 6654 6613 6663 6701 6663 6652 6665 6664 6615 6701 6652 6664 6666 6665 6616 6667 6666 6617 6618 6668 6667 6653 6702 6668 6669 6620 6670 6653 6669 6702 6670 6621 6671 6671 6622 6703 6622 6672 6703 6673 6672 6623 6662 6654 6704 6675 6674 6627 6676 6675 6628 6705 6676 6656 6705 6656 6677 6679 6677 6657 6631 6680 6678 6678 6679 6630 6680 6632 6681 6658 6706 6681 6682 6706 6658 6682 6634 6683 6683 6635 6684 6636 6685 6684 6659 6707 6685 6687 6686 6638 6659 6686 6707 6688 6687 6639 6640 6689 6688 6690 6689 6641 6642 6691 6690 6691 6643 6692 6660 6708 6692 6660 6693 6708 6693 6645 6694 6694 6646 6695 6695 6647 6696 6697 6696 6648 6698 6697 6649 6709 6698 6661 6709 6661 6699 6700 6699 6651 6662 6710 6700 6704 6654 6663 6701 6711 6663 6665 6712 6664 6712 6701 6664 6713 6665 6666 6666 6667 6714 6667 6668 6715 6702 6716 6668 6717 6669 6670 6702 6669 6717 6718 6670 6671 6719 6671 6703 6672 6720 6703 6673 6721 6672 6662 6704 6710 6722 6705 6677 6679 6722 6677 6678 6680 6723 6724 6679 6678 6725 6680 6681 6706 6725 6681 6682 6726 6706 6682 6683 6726 6727 6683 6684 6685 6728 6684 6707 6729 6685 6730 6686 6687 6707 6686 6730 6687 6688 6731 6688 6689 6732 6690 6733 6689 6690 6691 6734 6691 6692 6735 6692 6708 6736 6693 6737 6708 6693 6694 6737 6738 6694 6695 6739 6695 6696 6697 6740 6696 6698 6741 6697 6742 6698 6709 6709 6699 6743 6699 6700 6743 6710 6744 6700 6711 6704 6663 6701 6745 6711 6713 6712 6665 6712 6745 6701 6713 6666 6714 6714 6667 6715 6668 6716 6715 6702 6746 6716 6718 6717 6670 6702 6717 6746 6719 6718 6671 6720 6719 6703 6672 6721 6720 6710 6704 6747 6724 6722 6679 6680 6725 6723 6748 6678 6723 6748 6724 6678 6725 6706 6749 6706 6726 6750 6726 6683 6727 6728 6727 6684 6729 6728 6685 6707 6751 6729 6730 6687 6731 6707 6730 6751 6731 6688 6732 6689 6733 6732 6690 6734 6733 6734 6691 6735 6692 6736 6735 6708 6752 6736 6737 6752 6708 6737 6694 6738 6739 6738 6695 6740 6739 6696 6697 6741 6740 6742 6741 6698 6742 6709 6753 6753 6709 6743 6700 6744 6743 6710 6754 6744 6747 6704 6711 6745 6755 6711 6713 6756 6712 6712 6756 6745 6757 6713 6714 6758 6714 6715 6715 6716 6759 6716 6746 6760 6761 6717 6718 6746 6717 6761 6762 6718 6719 6763 6719 6720 6721 6764 6720 6710 6747 6754 6725 6765 6723 6765 6748 6723 6766 6725 6749 6706 6750 6749 6750 6726 6767 6726 6727 6767 6727 6728 6768 6729 6769 6728 6729 6751 6770 6771 6730 6731 6751 6730 6771 6772 6731 6732 6733 6773 6732 6733 6734 6774 6775 6734 6735 6736 6776 6735 6752 6777 6736 6737 6778 6752 6737 6738 6778 6779 6738 6739 6739 6740 6780 6741 6781 6740 6742 6782 6741 6783 6742 6753 6784 6753 6743 6744 6784 6743 6744 6754 6785 6755 6747 6711 6755 6745 6786 6757 6756 6713 6745 6756 6786 6758 6757 6714 6758 6715 6759 6716 6760 6759 6746 6787 6760 6761 6718 6762 6746 6761 6787 6762 6719 6763 6764 6763 6720 6754 6747 6788 6766 6765 6725 6789 6766 6749 6750 6789 6749 6750 6767 6790 6727 6768 6767 6728 6769 6768 6729 6770 6769 6751 6791 6770 6772 6771 6731 6751 6771 6791 6773 6772 6732 6733 6774 6773 6774 6734 6775 6776 6775 6735 6777 6776 6736 6752 6792 6777 6778 6792 6752 6778 6738 6779 6779 6739 6780 6740 6781 6780 6741 6782 6781 6783 6782 6742 6793 6783 6753 6784 6793 6753 6744 6785 6784 6754 6794 6785 6788 6747 6755 6795 6755 6786 6757 6796 6756 6756 6796 6786 6758 6797 6757 6798 6758 6759 6760 6799 6759 6787 6800 6760 6801 6761 6762 6787 6761 6801 6802 6762 6763 6764 6803 6763 6754 6788 6794 6789 6750 6790 6767 6804 6790 6768 6804 6767 6769 6805 6768 6770 6806 6769 6770 6791 6807 6808 6771 6772 6791 6771 6808 6772 6773 6809 6773 6774 6810 6774 6775 6811 6812 6775 6776 6776 6777 6813 6777 6792 6814 6778 6815 6792 6778 6779 6815 6816 6779 6780 6781 6817 6780 6781 6782 6818 6783 6819 6782 6820 6783 6793 6793 6784 6821 6784 6785 6821 6794 6822 6785 6788 6755 6795 6823 6795 6786 6757 6797 6796 6796 6823 6786 6798 6797 6758 6799 6798 6759 6800 6799 6760 6787 6824 6800 6802 6801 6762 6787 6801 6824 6803 6802 6763 6794 6788 6825 6826 6789 6790 6804 6826 6790 6805 6804 6768 6769 6806 6805 6806 6770 6807 6807 6791 6827 6808 6772 6809 6791 6808 6827 6773 6810 6809 6774 6811 6810 6811 6775 6812 6812 6776 6813 6813 6777 6814 6792 6828 6814 6792 6815 6828 6815 6779 6816 6817 6816 6780 6781 6818 6817 6782 6819 6818 6820 6819 6783 6820 6793 6829 6829 6793 6821 6785 6822 6821 6794 6830 6822 6825 6788 6795 6823 6831 6795 6796 6797 6832 6796 6832 6823 6798 6833 6797 6834 6798 6799 6799 6800 6835 6800 6824 6836 6801 6802 6837 6824 6801 6837 6803 6838 6802 6794 6825 6830 6839 6826 6804 6839 6804 6805 6806 6840 6805 6841 6806 6807 6842 6807 6827 6808 6809 6843 6808 6843 6827 6810 6844 6809 6811 6845 6810 6811 6812 6846 6847 6812 6813 6848 6813 6814 6828 6849 6814 6815 6850 6828 6815 6816 6850 6851 6816 6817 6818 6852 6817 6819 6853 6818 6820 6854 6819 6855 6820 6829 6856 6829 6821 6822 6856 6821 6830 6857 6822 6831 6825 6795 6823 6858 6831 6797 6833 6832 6823 6832 6858 6834 6833 6798 6834 6799 6835 6800 6836 6835 6836 6824 6859 6837 6802 6860 6824 6837 6859 6802 6838 6860 6830 6825 6861 6840 6839 6805 6841 6840 6806 6862 6841 6807 6842 6862 6807 6863 6842 6827 6809 6844 6843 6843 6863 6827 6810 6845 6844 6811 6846 6845 6846 6812 6847 6848 6847 6813 6849 6848 6814 6864 6849 6828 6850 6864 6828 6850 6816 6851 6852 6851 6817 6853 6852 6818 6819 6854 6853 6855 6854 6820 6865 6855 6829 6856 6865 6829 6822 6857 6856 6830 6866 6857 6861 6825 6831 6858 6867 6831 6833 6868 6832 6832 6868 6858 6869 6833 6834 6870 6834 6835 6835 6836 6871 6872 6836 6859 6873 6837 6860 6837 6873 6859 6838 6874 6860 6830 6861 6866 6875 6862 6842 6875 6842 6863 6843 6844 6876 6843 6876 6863 6844 6845 6877 6845 6846 6878 6846 6847 6879 6880 6847 6848 6881 6848 6849 6849 6864 6882 6850 6883 6864 6850 6851 6883 6884 6851 6852 6852 6853 6885 6854 6886 6853 6855 6887 6854 6865 6888 6855 6889 6865 6856 6857 6889 6856 6857 6866 6890 6867 6861 6831 6891 6867 6858 6869 6868 6833 6868 6891 6858 6869 6834 6870 6870 6835 6871 6836 6872 6871 6873 6872 6859 6874 6873 6860 6866 6861 6892 6893 6875 6863 6876 6844 6877 6876 6893 6863 6845 6878 6877 6846 6879 6878 6879 6847 6880 6880 6848 6881 6881 6849 6882 6864 6894 6882 6864 6883 6894 6883 6851 6884 6884 6852 6885 6853 6886 6885 6854 6887 6886 6855 6888 6887 6865 6895 6888 6889 6895 6865 6857 6890 6889 6890 6866 6896 6892 6861 6867 6897 6867 6891 6898 6868 6869 6898 6891 6868 6869 6870 6899 6900 6870 6871 6872 6901 6871 6873 6902 6872 6874 6903 6873 6866 6892 6896 6904 6876 6877 6905 6893 6876 6878 6904 6877 6879 6906 6878 6879 6880 6907 6880 6881 6908 6881 6882 6909 6882 6894 6910 6883 6911 6894 6883 6884 6911 6912 6884 6885 6886 6913 6885 6886 6887 6914 6887 6888 6915 6888 6895 6916 6889 6917 6895 6889 6890 6917 6890 6896 6918 6892 6867 6897 6897 6891 6919 6898 6869 6899 6919 6891 6898 6870 6900 6899 6900 6871 6920 6902 6901 6872 6871 6901 6920 6873 6903 6902 6892 6921 6896 6904 6905 6876 6906 6904 6878 6906 6879 6907 6880 6922 6907 6922 6880 6908 6881 6909 6908 6882 6910 6909 6894 6923 6910 6911 6923 6894 6911 6884 6912 6913 6912 6885 6886 6914 6913 6887 6915 6914 6915 6888 6916 6895 6924 6916 6895 6917 6924 6917 6890 6918 6918 6896 6925 6892 6897 6921 6897 6919 6926 6927 6898 6899 6919 6898 6927 6900 6928 6899 6929 6900 6920 6902 6930 6901 6901 6931 6920 6903 6932 6902 6896 6921 6925 6933 6905 6904 6933 6904 6906 6934 6906 6907 6922 6935 6907 6936 6922 6908 6909 6936 6908 6910 6937 6909 6923 6938 6910 6911 6939 6923 6911 6912 6939 6940 6912 6913 6914 6941 6913 6915 6942 6914 6915 6916 6943 6916 6924 6944 6924 6917 6945 6945 6917 6918 6946 6918 6925 6897 6926 6921 6926 6919 6947 6928 6927 6899 6947 6919 6927 6929 6928 6900 6931 6929 6920 6932 6930 6902 6901 6930 6931 6921 6948 6925 6934 6933 6906 6935 6934 6907 6949 6935 6922 6949 6922 6936 6937 6936 6909 6938 6937 6910 6923 6950 6938 6923 6939 6950 6939 6912 6940 6941 6940 6913 6942 6941 6914 6915 6943 6942 6943 6916 6944 6924 6951 6944 6924 6945 6951 6946 6945 6918 6946 6925 6952 6926 6948 6921 6926 6947 6953 6928 6954 6927 6954 6947 6927 6929 6955 6928 6956 6929 6931 6932 6957 6930 6930 6958 6931 6925 6948 6952 6959 6949 6936 6937 6959 6936 6960 6937 6938 6938 6950 6961 6950 6939 6962 6939 6940 6962 6940 6941 6963 6942 6964 6941 6942 6943 6965 6966 6943 6944 6951 6967 6944 6951 6945 6968 6968 6945 6946 6969 6946 6952 6926 6953 6948 6953 6947 6970 6955 6954 6928 6970 6947 6954 6956 6955 6929 6958 6956 6931 6930 6957 6958 6948 6971 6952 6960 6959 6937 6972 6960 6938 6950 6973 6961 6972 6938 6961 6973 6950 6962 6940 6963 6962 6941 6964 6963 6942 6965 6964 6943 6966 6965 6967 6966 6944 6951 6974 6967 6951 6968 6974 6968 6946 6969 6975 6969 6952 6948 6953 6971 6953 6970 6976 6954 6955 6977 6970 6954 6977 6956 6978 6955 6979 6956 6958 6957 6980 6958 6971 6975 6952 6973 6981 6961 6981 6972 6961 6963 6973 6962 6963 6964 6982 6964 6965 6983 6965 6966 6984 6967 6985 6966 6967 6974 6986 6974 6968 6987 6968 6969 6987 6988 6969 6975 6953 6976 6971 6976 6970 6989 6955 6978 6977 6989 6970 6977 6979 6978 6956 6980 6979 6958 6971 6990 6975 6991 6981 6973 6973 6963 6992 6964 6983 6982 6992 6963 6982 6965 6984 6983 6966 6985 6984 6967 6986 6985 6986 6974 6993 6993 6974 6987 6969 6988 6987 6994 6988 6975 6976 6990 6971 6976 6989 6995 6978 6996 6977 6996 6989 6977 6979 6997 6978 6980 6998 6979 6990 6994 6975 6991 6973 6992 6983 6999 6982 6999 6992 6982 6984 7000 6983 6985 7001 6984 6985 6986 7002 6986 6993 7003 7004 6993 6987 6988 7004 6987 6994 7005 6988 6976 6995 6990 6995 6989 7006 6997 6996 6978 7006 6989 6996 6997 6979 7007 6979 6998 7007 6990 7008 6994 7009 6991 6992 7000 6999 6983 6999 7009 6992 7001 7000 6984 7001 6985 7010 7002 6986 7003 6985 7002 7010 7003 6993 7011 6993 7004 7011 6988 7005 7004 6994 7012 7005 6990 6995 7008 6995 7006 7013 7014 6996 6997 7006 6996 7014 7015 6997 7007 6998 7016 7007 6994 7008 7012 7017 6999 7000 7017 7009 6999 7001 7018 7000 7019 7001 7010 7002 7003 7020 7002 7021 7010 7022 7003 7011 7004 7023 7011 7005 7023 7004 7005 7012 7024 7008 6995 7013 7013 7006 7025 7014 6997 7015 7006 7014 7025 7016 7015 7007 7012 7008 7026 7018 7017 7000 7019 7018 7001 7021 7019 7010 7021 7002 7020 7003 7022 7020 7027 7022 7011 7023 7027 7011 7005 7024 7023 7024 7012 7028 7026 7008 7013 7029 7013 7025 7030 7014 7015 7014 7030 7025 7016 7031 7015 7012 7026 7028 7032 7021 7020 7022 7032 7020 7033 7022 7027 7023 7034 7027 7023 7024 7034 7024 7028 7035 7026 7013 7036 7013 7029 7036 7030 7029 7025 7031 7030 7015 7028 7026 7037 7033 7032 7022 7038 7033 7027 7034 7038 7027 7034 7024 7035 7028 7039 7035 7037 7026 7036 7029 7040 7036 7030 7041 7029 7031 7042 7030 7039 7028 7037 7043 7038 7034 7044 7034 7035 7039 7044 7035 7040 7037 7036 7029 7041 7040 7030 7042 7041 7045 7039 7037 7044 7043 7034 7046 7044 7039 7040 7045 7037 7041 7047 7040 7042 7048 7041 7045 7046 7039 7049 7043 7044 7049 7044 7046 7040 7047 7045 7048 7047 7041 7045 7050 7046 7051 7049 7046 7045 7047 7052 7048 7053 7047 7050 7045 7052 7050 7051 7046 7047 7053 7052 7050 7052 7054 7055 7051 7050 7053 7056 7052 7055 7050 7054 7052 7056 7054 7057 7055 7054 7056 7057 7054 </DataArray>
        <DataArray type="Int32" Name="offsets" format="ascii">3 6 9 12 15 18 21 24 27 30 33 36 39 42 45 48 51 54 57 60 63 66 69 72 75 78 81 84 87 90 93 96 99 102 105 108 111 114 117 120 123 126 129 132 135 138 141 144 147 150 153 156 159 162 165 168 171 174 177 180 183 186 189 192 195 198 201 204 207 210 213 216 219 222 225 228 231 234 237 240 243 246 249 252 255 258 261 264 267 270 273 276 279 282 285 288 291 294 297 300 303 306 309 312 315 318 321 324 327 330 333 336 339 342 345 348 351 354 357 360 363 366 369 372 375 378 381 384 387 390 393 396 399 402 405 408 411 414 417 420 423 426 429 432 435 438 441 444 447 450 453 456 459 462 465 468 471 474 477 480 483 486 489 492 495 498 501 504 507 510 513 516 519 522 525 528 531 534 537 540 543 546 549 552 555 558 561 564 567 570 573 576 579 582 585 588 591 594 597 600 603 606 609 612 615 618 621 624 627 630 633 636 639 642 645 648 651 654 657 660 663 666 669 672 675 678 681 684 687 690 693 696 699 702 705 708 711 714 717 720 723 726 729 732 735 738 741 744 747 750 753 756 759 762 765 768 771 774 777 780 783 786 789 792 795 798 801 804 807 810 813 816 819 822 825 828 831 834 837 840 843 846 849 852 855 858 861 864 867 870 873 876 879 882 885 888 891 894 897 900 903 906 909 912 915 918 921 924 927 930 933 936 939 942 945 948 951 954 957 960 963 966 969 972 975 978 981 984 987 990 993 996 999 1002 1005 1008 1011 1014 1017 1020 1023 1026 1029 1032 1035 1038 1041 1044 1047 1050 1053 1056 1059 1062 1065 1068 1071 1074 1077 1080 1083 1086 1089 1092 1095 1098 1101 1104 1107 1110 1113 1116 1119 1122 1125 1128 1131 1134 1137 1140 1143 1146 1149 1152 1155 1158 1161 1164 1167 1170 1173 1176 1179 1182 1185 1188 1191 1194 1197 1200 1203 1206 1209 1212 1215 1218 1221 1224 1227 1230 1233 1236 1239 1242 1245 1248 1251 1254 1257 1260 1263 1266 1269 1272 1275 1278 1281 1284 1287 1290 1293 1296 1299 1302 1305 1308 1311 1314 1317 1320 1323 1326 1329 1332 1335 1338 1341 1344 1347 1350 1353 1356 1359 1362 1365 1368 1371 1374 1377 1380 1383 1386 1389 1392 1395 1398 1401 1404 1407 1410 1413 1416 1419 1422 1425 1428 1431 1434 1437 1440 1443 1446 1449 1452 1455 1458 1461 1464 1467 1470 1473 1476 1479 1482 1485 1488 1491 1494 1497 1500 1503 1506 1509 1512 1515 1518 1521 1524 1527 1530 1533 1536 1539 1542 1545 1548 1551 1554 1557 1560 1563 1566 1569 1572 1575 1578 1581 1584 1587 1590 1593 1596 1599 1602 1605 1608 1611 1614 1617 1620 1623 1626 1629 1632 1635 1638 1641 1644 1647 1650 1653 1656 1659 1662 1665 1668 1671 1674 1677 1680 1683 1686 1689 1692 1695 1698 1701 1704 1707 1710 1713 1716 1719 1722 1725 1728 1731 1734 1737 1740 1743 1746 1749 1752 1755 1758 1761 1764 1767 1770 1773 1776 1779 1782 1785 1788 1791 1794 1797 1800 1803 1806 1809 1812 1815 1818 1821 1824 1827 1830 1833 1836 1839 1842 1845 1848 1851 1854 1857 1860 1863 1866 1869 1872 1875 1878 1881 1884 1887 1890 1893 1896 1899 1902 1905 1908 1911 1914 1917 1920 1923 1926 1929 1932 1935 1938 1941 1944 1947 1950 1953 1956 1959 1962 1965 1968 1971 1974 1977 1980 1983 1986 1989 1992 1995 1998 2001 2004 2007 2010 2013 2016 2019 2022 2025 2028 2031 2034 2037 2040 2043 2046 2049 2052 2055 2058 2061 2064 2067 2070 2073 2076 2079 2082 2085 2088 2091 2094 2097 2100 2103 2106 2109 2112 2115 2118 2121 2124 2127 2130 2133 2136 2139 2142 2145 2148 2151 2154 2157 2160 2163 2166 2169 2172 2175 2178 2181 2184 2187 2190 2193 2196 2199 2202 2205 2208 2211 2214 2217 2220 2223 2226 2229 2232 2235 2238 2241 2244 2247 2250 2253 2256 2259 2262 2265 2268 2271 2274 2277 2280 2283 2286 2289 2292 2295 2298 2301 2304 2307 2310 2313 2316 2319 2322 2325 2328 2331 2334 2337 2340 2343 2346 2349 2352 2355 2358 2361 2364 2367 2370 2373 2376 2379 2382 2385 2388 2391 2394 2397 2400 2403 2406 2409 2412 2415 2418 2421 2424 2427 2430 2433 2436 2439 2442 2445 2448 2451 2454 2457 2460 2463 2466 2469 2472 2475 2478 2481 2484 2487 2490 2493 2496 2499 2502 2505 2508 2511 2514 2517 2520 2523 2526 2529 2532 2535 2538 2541 2544 2547 2550 2553 2556 2559 2562 2565 2568 2571 2574 2577 2580 2583 2586 2589 2592 2595 2598 2601 2604 2607 2610 2613 2616 2619 2622 2625 2628 2631 2634 2637 2640 2643 2646 2649 2652 2655 2658 2661 2664 2667 2670 2673 2676 2679 2682 2685 2688 2691 2694 2697 2700 2703 2706 2709 2712 2715 2718 2721 2724 2727 2730 2733 2736 2739 2742 2745 2748 2751 2754 2757 2760 2763 2766 2769 2772 2775 2778 2781 2784 2787 2790 2793 2796 2799 2802 2805 2808 2811 2814 2817 2820 2823 2826 2829 2832 2835 2838 2841 2844 2847 2850 2853 2856 2859 2862 2865 2868 2871 2874 2877 2880 2883 2886 2889 2892 2895 2898 2901 2904 2907 2910 2913 2916 2919 2922 2925 2928 2931 2934 2937 2940 2943 2946 2949 2952 2955 2958 2961 2964 2967 2970 2973 2976 2979 2982 2985 2988 2991 2994 2997 3000 3003 3006 3009 3012 3015 3018 3021 3024 3027 3030 3033 3036 3039 3042 3045 3048 3051 3054 3057 3060 3063 3066 3069 3072 3075 3078 3081 3084 3087 3090 3093 3096 3099 3102 3105 3108 3111 3114 3117 3120 3123 3126 3129 3132 3135 3138 3141 3144 3147 3150 3153 3156 3159 3162 3165 3168 3171 3174 3177 3180 3183 3186 3189 3192 3195 3198 3201 3204 3207 3210 3213 3216 3219 3222 3225 3228 3231 3234 3237 3240 3243 3246 3249 3252 3255 3258 3261 3264 3267 3270 3273 3276 3279 3282 3285 3288 3291 3294 3297 3300 3303 3306 3309 3312 3315 3318 3321 3324 3327 3330 3333 3336 3339 3342 3345 3348 3351 3354 3357 3360 3363 3366 3369 3372 3375 3378 3381 3384 3387 3390 3393 3396 3399 3402 3405 3408 3411 3414 3417 3420 3423 3426 3429 3432 3435 3438 3441 3444 3447 3450 3453 3456 3459 3462 3465 3468 3471 3474 3477 3480 3483 3486 3489 3492 3495 3498 3501 3504 3507 3510 3513 3516 3519 3522 3525 3528 3531 3534 3537 3540 3543 3546 3549 3552 3555 3558 3561 3564 3567 3570 3573 3576 3579 3582 3585 3588 3591 3594 3597 3600 3603 3606 3609 3612 3615 3618 3621 3624 3627 3630 3633 3636 3639 3642 3645 3648 3651 3654 3657 3660 3663 3666 3669 3672 3675 3678 3681 3684 3687 3690 3693 3696 3699 3702 3705 3708 3711 3714 3717 3720 3723 3726 3729 3732 3735 3738 3741 3744 3747 3750 3753 3756 3759 3762 3765 3768 3771 3774 3777 3780 3783 3786 3789 3792 3795 3798 3801 3804 3807 3810 3813 3816 3819 3822 3825 3828 3831 3834 3837 3840 3843 3846 3849 3852 3855 3858 3861 3864 3867 3870 3873 3876 3879 3882 3885 3888 3891 3894 3897 3900 3903 3906 3909 3912 3915 3918 3921 3924 3927 3930 3933 3936 3939 3942 3945 3948 3951 3954 3957 3960 3963 3966 3969 3972 3975 3978 3981 3984 3987 3990 3993 3996 3999 4002 4005 4008 4011 4014 4017 4020 4023 4026 4029 4032 4035 4038 4041 4044 4047 4050 4053 4056 4059 4062 4065 4068 4071 4074 4077 4080 4083 4086 4089 4092 4095 4098 4101 4104 4107 4110 4113 4116 4119 4122 4125 4128 4131 4134 4137 4140 4143 4146 4149 4152 4155 4158 4161 4164 4167 4170 4173 4176 4179 4182 4185 4188 4191 4194 4197 4200 4203 4206 4209 4212 4215 4218 4221 4224 4227 4230 4233 4236 4239 4242 4245 4248 4251 4254 4257 4260 4263 4266 4269 4272 4275 4278 4281 4284 4287 4290 4293 4296 4299 4302 4305 4308 4311 4314 4317 4320 4323 4326 4329 4332 4335 4338 4341 4344 4347 4350 4353 4356 4359 4362 4365 4368 4371 4374 4377 4380 4383 4386 4389 4392 4395 4398 4401 4404 4407 4410 4413 4416 4419 4422 4425 4428 4431 4434 4437 4440 4443 4446 4449 4452 4455 4458 4461 4464 4467 4470 4473 4476 4479 4482 4485 4488 4491 4494 4497 4500 4503 4506 4509 4512 4515 4518 4521 4524 4527 4530 4533 4536 4539 4542 4545 4548 4551 4554 4557 4560 4563 4566 4569 4572 4575 4578 4581 4584 4587 4590 4593 4596 4599 4602 4605 4608 4611 4614 4617 4620 4623 4626 4629 4632 4635 4638 4641 4644 4647 4650 4653 4656 4659 4662 4665 4668 4671 4674 4677 4680 4683 4686 4689 4692 4695 4698 4701 4704 4707 4710 4713 4716 4719 4722 4725 4728 4731 4734 4737 4740 4743 4746 4749 4752 4755 4758 4761 4764 4767 4770 4773 4776 4779 4782 4785 4788 4791 4794 4797 4800 4803 4806 4809 4812 4815 4818 4821 4824 4827 4830 4833 4836 4839 4842 4845 4848 4851 4854 4857 4860 4863 4866 4869 4872 4875 4878 4881 4884 4887 4890 4893 4896 4899 4902 4905 4908 4911 4914 4917 4920 4923 4926 4929 4932 4935 4938 4941 4944 4947 4950 4953 4956 4959 4962 4965 4968 4971 4974 4977 4980 4983 4986 4989 4992 4995 4998 5001 5004 5007 5010 5013 5016 5019 5022 5025 5028 5031 5034 5037 5040 5043 5046 5049 5052 5055 5058 5061 5064 5067 5070 5073 5076 5079 5082 5085 5088 5091 5094 5097 5100 5103 5106 5109 5112 5115 5118 5121 5124 5127 5130 5133 5136 5139 5142 5145 5148 5151 5154 5157 5160 5163 5166 5169 5172 5175 5178 5181 5184 5187 5190 5193 5196 5199 5202 5205 5208 5211 5214 5217 5220 5223 5226 5229 5232 5235 5238 5241 5244 5247 5250 5253 5256 5259 5262 5265 5268 5271 5274 5277 5280 5283 5286 5289 5292 5295 5298 5301 5304 5307 5310 5313 5316 5319 5322 5325 5328 5331 5334 5337 5340 5343 5346 5349 5352 5355 5358 5361 5364 5367 5370 5373 5376 5379 5382 5385 5388 5391 5394 5397 5400 5403 5406 5409 5412 5415 5418 5421 5424 5427 5430 5433 5436 5439 5442 5445 5448 5451 5454 5457 5460 5463 5466 5469 5472 5475 5478 5481 5484 5487 5490 5493 5496 5499 5502 5505 5508 5511 5514 5517 5520 5523 5526 5529 5532 5535 5538 5541 5544 5547 5550 5553 5556 5559 5562 5565 5568 5571 5574 5577 5580 5583 5586 5589 5592 5595 5598 5601 5604 5607 5610 5613 5616 5619 5622 5625 5628 5631 5634 5637 5640 5643 5646 5649 5652 5655 5658 5661 5664 5667 5670 5673 5676 5679 5682 5685 5688 5691 5694 5697 5700 5703 5706 5709 5712 5715 5718 5721 5724 5727 5730 5733 5736 5739 5742 5745 5748 5751 5754 5757 5760 5763 5766 5769 5772 5775 5778 5781 5784 5787 5790 5793 5796 5799 5802 5805 5808 5811 5814 5817 5820 5823 5826 5829 5832 5835 5838 5841 5844 5847 5850 5853 5856 5859 5862 5865 5868 5871 5874 5877 5880 5883 5886 5889 5892 5895 5898 5901 5904 5907 5910 5913 5916 5919 5922 5925 5928 5931 5934 5937 5940 5943 5946 5949 5952 5955 5958 5961 5964 5967 5970 5973 5976 5979 5982 5985 5988 5991 5994 5997 6000 6003 6006 6009 6012 6015 6018 6021 6024 6027 6030 6033 6036 6039 6042 6045 6048 6051 6054 6057 6060 6063 6066 6069 6072 6075 6078 6081 6084 6087 6090 6093 6096 6099 6102 6105 6108 6111 6114 6117 6120 6123 6126 6129 6132 6135 6138 6141 6144 6147 6150 6153 6156 6159 6162 6165 6168 6171 6174 6177 6180 6183 6186 6189 6192 6195 6198 6201 6204 6207 6210 6213 6216 6219 6222 6225 6228 6231 6234 6237 6240 6243 6246 6249 6252 6255 6258 6261 6264 6267 6270 6273 6276 6279 6282 6285 6288 6291 6294 6297 6300 6303 6306 6309 6312 6315 6318 6321 6324 6327 6330 6333 6336 6339 6342 6345 6348 6351 6354 6357 6360 6363 6366 6369 6372 6375 6378 6381 6384 6387 6390 6393 6396 6399 6402 6405 6408 6411 6414 6417 6420 6423 6426 6429 6432 6435 6438 6441 6444 6447 6450 6453 6456 6459 6462 6465 6468 6471 6474 6477 6480 6483 6486 6489 6492 6495 6498 6501 6504 6507 6510 6513 6516 6519 6522 6525 6528 6531 6534 6537 6540 6543 6546 6549 6552 6555 6558 6561 6564 6567 6570 6573 6576 6579 6582 6585 6588 6591 6594 6597 6600 6603 6606 6609 6612 6615 6618 6621 6624 6627 6630 6633 6636 6639 6642 6645 6648 6651 6654 6657 6660 6663 6666 6669 6672 6675 6678 6681 6684 6687 6690 6693 6696 6699 6702 6705 6708 6711 6714 6717 6720 6723 6726 6729 6732 6735 6738 6741 6744 6747 6750 6753 6756 6759 6762 6765 6768 6771 6774 6777 6780 6783 6786 6789 6792 6795 6798 6801 6804 6807 6810 6813 6816 6819 6822 6825 6828 6831 6834 6837 6840 6843 6846 6849 6852 6855 6858 6861 6864 6867 6870 6873 6876 6879 6882 6885 6888 6891 6894 6897 6900 6903 6906 6909 6912 6915 6918 6921 6924 6927 6930 6933 6936 6939 6942 6945 6948 6951 6954 6957 6960 6963 6966 6969 6972 6975 6978 6981 6984 6987 6990 6993 6996 6999 7002 7005 7008 7011 7014 7017 7020 7023 7026 7029 7032 7035 7038 7041 7044 7047 7050 7053 7056 7059 7062 7065 7068 7071 7074 7077 7080 7083 7086 7089 7092 7095 7098 7101 7104 7107 7110 7113 7116 7119 7122 7125 7128 7131 7134 7137 7140 7143 7146 7149 7152 7155 7158 7161 7164 7167 7170 7173 7176 7179 7182 7185 7188 7191 7194 7197 7200 7203 7206 7209 7212 7215 7218 7221 7224 7227 7230 7233 7236 7239 7242 7245 7248 7251 7254 7257 7260 7263 7266 7269 7272 7275 7278 7281 7284 7287 7290 7293 7296 7299 7302 7305 7308 7311 7314 7317 7320 7323 7326 7329 7332 7335 7338 7341 7344 7347 7350 7353 7356 7359 7362 7365 7368 7371 7374 7377 7380 7383 7386 7389 7392 7395 7398 7401 7404 7407 7410 7413 7416 7419 7422 7425 7428 7431 7434 7437 7440 7443 7446 7449 7452 7455 7458 7461 7464 7467 7470 7473 7476 7479 7482 7485 7488 7491 7494 7497 7500 7503 7506 7509 7512 7515 7518 7521 7524 7527 7530 7533 7536 7539 7542 7545 7548 7551 7554 7557 7560 7563 7566 7569 7572 7575 7578 7581 7584 7587 7590 7593 7596 7599 7602 7605 7608 7611 7614 7617 7620 7623 7626 7629 7632 7635 7638 7641 7644 7647 7650 7653 7656 7659 7662 7665 7668 7671 7674 7677 7680 7683 7686 7689 7692 7695 7698 7701 7704 7707 7710 7713 7716 7719 7722 7725 7728 7731 7734 7737 7740 7743 7746 7749 7752 7755 7758 7761 7764 7767 7770 7773 7776 7779 7782 7785 7788 7791 7794 7797 7800 7803 7806 7809 7812 7815 7818 7821 7824 7827 7830 7833 7836 7839 7842 7845 7848 7851 7854 7857 7860 7863 7866 7869 7872 7875 7878 7881 7884 7887 7890 7893 7896 7899 7902 7905 7908 7911 7914 7917 7920 7923 7926 7929 7932 7935 7938 7941 7944 7947 7950 7953 7956 7959 7962 7965 7968 7971 7974 7977 7980 7983 7986 7989 7992 7995 7998 8001 8004 8007 8010 8013 8016 8019 8022 8025 8028 8031 8034 8037 8040 8043 8046 8049 8052 8055 8058 8061 8064 8067 8070 8073 8076 8079 8082 8085 8088 8091 8094 8097 8100 8103 8106 8109 8112 8115 8118 8121 8124 8127 8130 8133 8136 8139 8142 8145 8148 8151 8154 8157 8160 8163 8166 8169 8172 8175 8178 8181 8184 8187 8190 8193 8196 8199 8202 8205 8208 8211 8214 8217 8220 8223 8226 8229 8232 8235 8238 8241 8244 8247 8250 8253 8256 8259 8262 8265 8268 8271 8274 8277 8280 8283 8286 8289 8292 8295 8298 8301 8304 8307 8310 8313 8316 8319 8322 8325 8328 8331 8334 8337 8340 8343 8346 8349 8352 8355 8358 8361 8364 8367 8370 8373 8376 8379 8382 8385 8388 8391 8394 8397 8400 8403 8406 8409 8412 8415 8418 8421 8424 8427 8430 8433 8436 8439 8442 8445 8448 8451 8454 8457 8460 8463 8466 8469 8472 8475 8478 8481 8484 8487 8490 8493 8496 8499 8502 8505 8508 8511 8514 8517 8520 8523 8526 8529 8532 8535 8538 8541 8544 8547 8550 8553 8556 8559 8562 8565 8568 8571 8574 8577 8580 8583 8586 8589 8592 8595 8598 8601 8604 8607 8610 8613 8616 8619 8622 8625 8628 8631 8634 8637 8640 8643 8646 8649 8652 8655 8658 8661 8664 8667 8670 8673 8676 8679 8682 8685 8688 8691 8694 8697 8700 8703 8706 8709 8712 8715 8718 8721 8724 8727 8730 8733 8736 8739 8742 8745 8748 8751 8754 8757 8760 8763 8766 8769 8772 8775 8778 8781 8784 8787 8790 8793 8796 8799 8802 8805 8808 8811 8814 8817 8820 8823 8826 8829 8832 8835 8838 8841 8844 8847 8850 8853 8856 8859 8862 8865 8868 8871 8874 8877 8880 8883 8886 8889 8892 8895 8898 8901 8904 8907 8910 8913 8916 8919 8922 8925 8928 8931 8934 8937 8940 8943 8946 8949 8952 8955 8958 8961 8964 8967 8970 8973 8976 8979 8982 8985 8988 8991 8994 8997 9000 9003 9006 9009 9012 9015 9018 9021 9024 9027 9030 9033 9036 9039 9042 9045 9048 9051 9054 9057 9060 9063 9066 9069 9072 9075 9078 9081 9084 9087 9090 9093 9096 9099 9102 9105 9108 9111 9114 9117 9120 9123 9126 9129 9132 9135 9138 9141 9144 9147 9150 9153 9156 9159 9162 9165 9168 9171 9174 9177 9180 9183 9186 9189 9192 9195 9198 9201 9204 9207 9210 9213 9216 9219 9222 9225 9228 9231 9234 9237 9240 9243 9246 9249 9252 9255 9258 9261 9264 9267 9270 9273 9276 9279 9282 9285 9288 9291 9294 9297 9300 9303 9306 9309 9312 9315 9318 9321 9324 9327 9330 9333 9336 9339 9342 9345 9348 9351 9354 9357 9360 9363 9366 9369 9372 9375 9378 9381 9384 9387 9390 9393 9396 9399 9402 9405 9408 9411 9414 9417 9420 9423 9426 9429 9432 9435 9438 9441 9444 9447 9450 9453 9456 9459 9462 9465 9468 9471 9474 9477 9480 9483 9486 9489 9492 9495 9498 9501 9504 9507 9510 9513 9516 9519 9522 9525 9528 9531 9534 9537 9540 9543 9546 9549 9552 9555 9558 9561 9564 9567 9570 9573 9576 9579 9582 9585 9588 9591 9594 9597 9600 9603 9606 9609 9612 9615 9618 9621 9624 9627 9630 9633 9636 9639 9642 9645 9648 9651 9654 9657 9660 9663 9666 9669 9672 9675 9678 9681 9684 9687 9690 9693 9696 9699 9702 9705 9708 9711 9714 9717 9720 9723 9726 9729 9732 9735 9738 9741 9744 9747 9750 9753 9756 9759 9762 9765 9768 9771 9774 9777 9780 9783 9786 9789 9792 9795 9798 9801 9804 9807 9810 9813 9816 9819 9822 9825 9828 9831 9834 9837 9840 9843 9846 9849 9852 9855 9858 9861 9864 9867 9870 9873 9876 9879 9882 9885 9888 9891 9894 9897 9900 9903 9906 9909 9912 9915 9918 9921 9924 9927 9930 9933 9936 9939 9942 9945 9948 9951 9954 9957 9960 9963 9966 9969 9972 9975 9978 9981 9984 9987 9990 9993 9996 9999 10002 10005 10008 10011 10014 10017 10020 10023 10026 10029 10032 10035 10038 10041 10044 10047 10050 10053 10056 10059 10062 10065 10068 10071 10074 10077 10080 10083 10086 10089 10092 10095 10098 10101 10104 10107 10110 10113 10116 10119 10122 10125 10128 10131 10134 10137 10140 10143 10146 10149 10152 10155 10158 10161 10164 10167 10170 10173 10176 10179 10182 10185 10188 10191 10194 10197 10200 10203 10206 10209 10212 10215 10218 10221 10224 10227 10230 10233 10236 10239 10242 10245 10248 10251 10254 10257 10260 10263 10266 10269 10272 10275 10278 10281 10284 10287 10290 10293 10296 10299 10302 10305 10308 10311 10314 10317 10320 10323 10326 10329 10332 10335 10338 10341 10344 10347 10350 10353 10356 10359 10362 10365 10368 10371 10374 10377 10380 10383 10386 10389 10392 10395 10398 10401 10404 10407 10410 10413 10416 10419 10422 10425 10428 10431 10434 10437 10440 10443 10446 10449 10452 10455 10458 10461 10464 10467 10470 10473 10476 10479 10482 10485 10488 10491 10494 10497 10500 10503 10506 10509 10512 10515 10518 10521 10524 10527 10530 10533 10536 10539 10542 10545 10548 10551 10554 10557 10560 10563 10566 10569 10572 10575 10578 10581 10584 10587 10590 10593 10596 10599 10602 10605 10608 10611 10614 10617 10620 10623 10626 10629 10632 10635 10638 10641 10644 10647 10650 10653 10656 10659 10662 10665 10668 10671 10674 10677 10680 10683 10686 10689 10692 10695 10698 10701 10704 10707 10710 10713 10716 10719 10722 10725 10728 10731 10734 10737 10740 10743 10746 10749 10752 10755 10758 10761 10764 10767 10770 10773 10776 10779 10782 10785 10788 10791 10794 10797 10800 10803 10806 10809 10812 10815 10818 10821 10824 10827 10830 10833 10836 10839 10842 10845 10848 10851 10854 10857 10860 10863 10866 10869 10872 10875 10878 10881 10884 10887 10890 10893 10896 10899 10902 10905 10908 10911 10914 10917 10920 10923 10926 10929 10932 10935 10938 10941 10944 10947 10950 10953 10956 10959 10962 10965 10968 10971 10974 10977 10980 10983 10986 10989 10992 10995 10998 11001 11004 11007 11010 11013 11016 11019 11022 11025 11028 11031 11034 11037 11040 11043 11046 11049 11052 11055 11058 11061 11064 11067 11070 11073 11076 11079 11082 11085 11088 11091 11094 11097 11100 11103 11106 11109 11112 11115 11118 11121 11124 11127 11130 11133 11136 11139 11142 11145 11148 11151 11154 11157 11160 11163 11166 11169 11172 11175 11178 11181 11184 11187 11190 11193 11196 11199 11202 11205 11208 11211 11214 11217 11220 11223 11226 11229 11232 11235 11238 11241 11244 11247 11250 11253 11256 11259 11262 11265 11268 11271 11274 11277 11280 11283 11286 11289 11292 11295 11298 11301 11304 11307 11310 11313 11316 11319 11322 11325 11328 11331 11334 11337 11340 11343 11346 11349 11352 11355 11358 11361 11364 11367 11370 11373 11376 11379 11382 11385 11388 11391 11394 11397 11400 11403 11406 11409 11412 11415 11418 11421 11424 11427 11430 11433 11436 11439 11442 11445 11448 11451 11454 11457 11460 11463 11466 11469 11472 11475 11478 11481 11484 11487 11490 11493 11496 11499 11502 11505 11508 11511 11514 11517 11520 11523 11526 11529 11532 11535 11538 11541 11544 11547 11550 11553 11556 11559 11562 11565 11568 11571 11574 11577 11580 11583 11586 11589 11592 11595 11598 11601 11604 11607 11610 11613 11616 11619 11622 11625 11628 11631 11634 11637 11640 11643 11646 11649 11652 11655 11658 11661 11664 11667 11670 11673 11676 11679 11682 11685 11688 11691 11694 11697 11700 11703 11706 11709 11712 11715 11718 11721 11724 11727 11730 11733 11736 11739 11742 11745 11748 11751 11754 11757 11760 11763 11766 11769 11772 11775 11778 11781 11784 11787 11790 11793 11796 11799 11802 11805 11808 11811 11814 11817 11820 11823 11826 11829 11832 11835 11838 11841 11844 11847 11850 11853 11856 11859 11862 11865 11868 11871 11874 11877 11880 11883 11886 11889 11892 11895 11898 11901 11904 11907 11910 11913 11916 11919 11922 11925 11928 11931 11934 11937 11940 11943 11946 11949 11952 11955 11958 11961 11964 11967 11970 11973 11976 11979 11982 11985 11988 11991 11994 11997 12000 12003 12006 12009 12012 12015 12018 12021 12024 12027 12030 12033 12036 12039 12042 12045 12048 12051 12054 12057 12060 12063 12066 12069 12072 12075 12078 12081 12084 12087 12090 12093 12096 12099 12102 12105 12108 12111 12114 12117 12120 12123 12126 12129 12132 12135 12138 12141 12144 12147 12150 12153 12156 12159 12162 12165 12168 12171 12174 12177 12180 12183 12186 12189 12192 12195 12198 12201 12204 12207 12210 12213 12216 12219 12222 12225 12228 12231 12234 12237 12240 12243 12246 12249 12252 12255 12258 12261 12264 12267 12270 12273 12276 12279 12282 12285 12288 12291 12294 12297 12300 12303 12306 12309 12312 12315 12318 12321 12324 12327 12330 12333 12336 12339 12342 12345 12348 12351 12354 12357 12360 12363 12366 12369 12372 12375 12378 12381 12384 12387 12390 12393 12396 12399 12402 12405 12408 12411 12414 12417 12420 12423 12426 12429 12432 12435 12438 12441 12444 12447 12450 12453 12456 12459 12462 12465 12468 12471 12474 12477 12480 12483 12486 12489 12492 12495 12498 12501 12504 12507 12510 12513 12516 12519 12522 12525 12528 12531 12534 12537 12540 12543 12546 12549 12552 12555 12558 12561 12564 12567 12570 12573 12576 12579 12582 12585 12588 12591 12594 12597 12600 12603 12606 12609 12612 12615 12618 12621 12624 12627 12630 12633 12636 12639 12642 12645 12648 12651 12654 12657 12660 12663 12666 12669 12672 12675 12678 12681 12684 12687 12690 12693 12696 12699 12702 12705 12708 12711 12714 12717 12720 12723 12726 12729 12732 12735 12738 12741 12744 12747 12750 12753 12756 12759 12762 12765 12768 12771 12774 12777 12780 12783 12786 12789 12792 12795 12798 12801 12804 12807 12810 12813 12816 12819 12822 12825 12828 12831 12834 12837 12840 12843 12846 12849 12852 12855 12858 12861 12864 12867 12870 12873 12876 12879 12882 12885 12888 12891 12894 12897 12900 12903 12906 12909 12912 12915 12918 12921 12924 12927 12930 12933 12936 12939 12942 12945 12948 12951 12954 12957 12960 12963 12966 12969 12972 12975 12978 12981 12984 12987 12990 12993 12996 12999 13002 13005 13008 13011 13014 13017 13020 13023 13026 13029 13032 13035 13038 13041 13044 13047 13050 13053 13056 13059 13062 13065 13068 13071 13074 13077 13080 13083 13086 13089 13092 13095 13098 13101 13104 13107 13110 13113 13116 13119 13122 13125 13128 13131 13134 13137 13140 13143 13146 13149 13152 13155 13158 13161 13164 13167 13170 13173 13176 13179 13182 13185 13188 13191 13194 13197 13200 13203 13206 13209 13212 13215 13218 13221 13224 13227 13230 13233 13236 13239 13242 13245 13248 13251 13254 13257 13260 13263 13266 13269 13272 13275 13278 13281 13284 13287 13290 13293 13296 13299 13302 13305 13308 13311 13314 13317 13320 13323 13326 13329 13332 13335 13338 13341 13344 13347 13350 13353 13356 13359 13362 13365 13368 13371 13374 13377 13380 13383 13386 13389 13392 13395 13398 13401 13404 13407 13410 13413 13416 13419 13422 13425 13428 13431 13434 13437 13440 13443 13446 13449 13452 13455 13458 13461 13464 13467 13470 13473 13476 13479 13482 13485 13488 13491 13494 13497 13500 13503 13506 13509 13512 13515 13518 13521 13524 13527 13530 13533 13536 13539 13542 13545 13548 13551 13554 13557 13560 13563 13566 13569 13572 13575 13578 13581 13584 13587 13590 13593 13596 13599 13602 13605 13608 13611 13614 13617 13620 13623 13626 13629 13632 13635 13638 13641 13644 13647 13650 13653 13656 13659 13662 13665 13668 13671 13674 13677 13680 13683 13686 13689 13692 13695 13698 13701 13704 13707 13710 13713 13716 13719 13722 13725 13728 13731 13734 13737 13740 13743 13746 13749 13752 13755 13758 13761 13764 13767 13770 13773 13776 13779 13782 13785 13788 13791 13794 13797 13800 13803 13806 13809 13812 13815 13818 13821 13824 13827 13830 13833 13836 13839 13842 13845 13848 13851 13854 13857 13860 13863 13866 13869 13872 13875 13878 13881 13884 13887 13890 13893 13896 13899 13902 13905 13908 13911 13914 13917 13920 13923 13926 13929 13932 13935 13938 13941 13944 13947 13950 13953 13956 13959 13962 13965 13968 13971 13974 13977 13980 13983 13986 13989 13992 13995 13998 14001 14004 14007 14010 14013 14016 14019 14022 14025 14028 14031 14034 14037 14040 14043 14046 14049 14052 14055 14058 14061 14064 14067 14070 14073 14076 14079 14082 14085 14088 14091 14094 14097 14100 14103 14106 14109 14112 14115 14118 14121 14124 14127 14130 14133 14136 14139 14142 14145 14148 14151 14154 14157 14160 14163 14166 14169 14172 14175 14178 14181 14184 14187 14190 14193 14196 14199 14202 14205 14208 14211 14214 14217 14220 14223 14226 14229 14232 14235 14238 14241 14244 14247 14250 14253 14256 14259 14262 14265 14268 14271 14274 14277 14280 14283 14286 14289 14292 14295 14298 14301 14304 14307 14310 14313 14316 14319 14322 14325 14328 14331 14334 14337 14340 14343 14346 14349 14352 14355 14358 14361 14364 14367 14370 14373 14376 14379 14382 14385 14388 14391 14394 14397 14400 14403 14406 14409 14412 14415 14418 14421 14424 14427 14430 14433 14436 14439 14442 14445 14448 14451 14454 14457 14460 14463 14466 14469 14472 14475 14478 14481 14484 14487 14490 14493 14496 14499 14502 14505 14508 14511 14514 14517 14520 14523 14526 14529 14532 14535 14538 14541 14544 14547 14550 14553 14556 14559 14562 14565 14568 14571 14574 14577 14580 14583 14586 14589 14592 14595 14598 14601 14604 14607 14610 14613 14616 14619 14622 14625 14628 14631 14634 14637 14640 14643 14646 14649 14652 14655 14658 14661 14664 14667 14670 14673 14676 14679 14682 14685 14688 14691 14694 14697 14700 14703 14706 14709 14712 14715 14718 14721 14724 14727 14730 14733 14736 14739 14742 14745 14748 14751 14754 14757 14760 14763 14766 14769 14772 14775 14778 14781 14784 14787 14790 14793 14796 14799 14802 14805 14808 14811 14814 14817 14820 14823 14826 14829 14832 14835 14838 14841 14844 14847 14850 14853 14856 14859 14862 14865 14868 14871 14874 14877 14880 14883 14886 14889 14892 14895 14898 14901 14904 14907 14910 14913 14916 14919 14922 14925 14928 14931 14934 14937 14940 14943 14946 14949 14952 14955 14958 14961 14964 14967 14970 14973 14976 14979 14982 14985 14988 14991 14994 14997 15000 15003 15006 15009 15012 15015 15018 15021 15024 15027 15030 15033 15036 15039 15042 15045 15048 15051 15054 15057 15060 15063 15066 15069 15072 15075 15078 15081 15084 15087 15090 15093 15096 15099 15102 15105 15108 15111 15114 15117 15120 15123 15126 15129 15132 15135 15138 15141 15144 15147 15150 15153 15156 15159 15162 15165 15168 15171 15174 15177 15180 15183 15186 15189 15192 15195 15198 15201 15204 15207 15210 15213 15216 15219 15222 15225 15228 15231 15234 15237 15240 15243 15246 15249 15252 15255 15258 15261 15264 15267 15270 15273 15276 15279 15282 15285 15288 15291 15294 15297 15300 15303 15306 15309 15312 15315 15318 15321 15324 15327 15330 15333 15336 15339 15342 15345 15348 15351 15354 15357 15360 15363 15366 15369 15372 15375 15378 15381 15384 15387 15390 15393 15396 15399 15402 15405 15408 15411 15414 15417 15420 15423 15426 15429 15432 15435 15438 15441 15444 15447 15450 15453 15456 15459 15462 15465 15468 15471 15474 15477 15480 15483 15486 15489 15492 15495 15498 15501 15504 15507 15510 15513 15516 15519 15522 15525 15528 15531 15534 15537 15540 15543 15546 15549 15552 15555 15558 15561 15564 15567 15570 15573 15576 15579 15582 15585 15588 15591 15594 15597 15600 15603 15606 15609 15612 15615 15618 15621 15624 15627 15630 15633 15636 15639 15642 15645 15648 15651 15654 15657 15660 15663 15666 15669 15672 15675 15678 15681 15684 15687 15690 15693 15696 15699 15702 15705 15708 15711 15714 15717 15720 15723 15726 15729 15732 15735 15738 15741 15744 15747 15750 15753 15756 15759 15762 15765 15768 15771 15774 15777 15780 15783 15786 15789 15792 15795 15798 15801 15804 15807 15810 15813 15816 15819 15822 15825 15828 15831 15834 15837 15840 15843 15846 15849 15852 15855 15858 15861 15864 15867 15870 15873 15876 15879 15882 15885 15888 15891 15894 15897 15900 15903 15906 15909 15912 15915 15918 15921 15924 15927 15930 15933 15936 15939 15942 15945 15948 15951 15954 15957 15960 15963 15966 15969 15972 15975 15978 15981 15984 15987 15990 15993 15996 15999 16002 16005 16008 16011 16014 16017 16020 16023 16026 16029 16032 16035 16038 16041 16044 16047 16050 16053 16056 16059 16062 16065 16068 16071 16074 16077 16080 16083 16086 16089 16092 16095 16098 16101 16104 16107 16110 16113 16116 16119 16122 16125 16128 16131 16134 16137 16140 16143 16146 16149 16152 16155 16158 16161 16164 16167 16170 16173 16176 16179 16182 16185 16188 16191 16194 16197 16200 16203 16206 16209 16212 16215 16218 16221 16224 16227 16230 16233 16236 16239 16242 16245 16248 16251 16254 16257 16260 16263 16266 16269 16272 16275 16278 16281 16284 16287 16290 16293 16296 16299 16302 16305 16308 16311 16314 16317 16320 16323 16326 16329 16332 16335 16338 16341 16344 16347 16350 16353 16356 16359 16362 16365 16368 16371 16374 16377 16380 16383 16386 16389 16392 16395 16398 16401 16404 16407 16410 16413 16416 16419 16422 16425 16428 16431 16434 16437 16440 16443 16446 16449 16452 16455 16458 16461 16464 16467 16470 16473 16476 16479 16482 16485 16488 16491 16494 16497 16500 16503 16506 16509 16512 16515 16518 16521 16524 16527 16530 16533 16536 16539 16542 16545 16548 16551 16554 16557 16560 16563 16566 16569 16572 16575 16578 16581 16584 16587 16590 16593 16596 16599 16602 16605 16608 16611 16614 16617 16620 16623 16626 16629 16632 16635 16638 16641 16644 16647 16650 16653 16656 16659 16662 16665 16668 16671 16674 16677 16680 16683 16686 16689 16692 16695 16698 16701 16704 16707 16710 16713 16716 16719 16722 16725 16728 16731 16734 16737 16740 16743 16746 16749 16752 16755 16758 16761 16764 16767 16770 16773 16776 16779 16782 16785 16788 16791 16794 16797 16800 16803 16806 16809 16812 16815 16818 16821 16824 16827 16830 16833 16836 16839 16842 16845 16848 16851 16854 16857 16860 16863 16866 16869 16872 16875 16878 16881 16884 16887 16890 16893 16896 16899 16902 16905 16908 16911 16914 16917 16920 16923 16926 16929 16932 16935 16938 16941 16944 16947 16950 16953 16956 16959 16962 16965 16968 16971 16974 16977 16980 16983 16986 16989 16992 16995 16998 17001 17004 17007 17010 17013 17016 17019 17022 17025 17028 17031 17034 17037 17040 17043 17046 17049 17052 17055 17058 17061 17064 17067 17070 17073 17076 17079 17082 17085 17088 17091 17094 17097 17100 17103 17106 17109 17112 17115 17118 17121 17124 17127 17130 17133 17136 17139 17142 17145 17148 17151 17154 17157 17160 17163 17166 17169 17172 17175 17178 17181 17184 17187 17190 17193 17196 17199 17202 17205 17208 17211 17214 17217 17220 17223 17226 17229 17232 17235 17238 17241 17244 17247 17250 17253 17256 17259 17262 17265 17268 17271 17274 17277 17280 17283 17286 17289 17292 17295 17298 17301 17304 17307 17310 17313 17316 17319 17322 17325 17328 17331 17334 17337 17340 17343 17346 17349 17352 17355 17358 17361 17364 17367 17370 17373 17376 17379 17382 17385 17388 17391 17394 17397 17400 17403 17406 17409 17412 17415 17418 17421 17424 17427 17430 17433 17436 17439 17442 17445 17448 17451 17454 17457 17460 17463 17466 17469 17472 17475 17478 17481 17484 17487 17490 17493 17496 17499 17502 17505 17508 17511 17514 17517 17520 17523 17526 17529 17532 17535 17538 17541 17544 17547 17550 17553 17556 17559 17562 17565 17568 17571 17574 17577 17580 17583 17586 17589 17592 17595 17598 17601 17604 17607 17610 17613 17616 17619 17622 17625 17628 17631 17634 17637 17640 17643 17646 17649 17652 17655 17658 17661 17664 17667 17670 17673 17676 17679 17682 17685 17688 17691 17694 17697 17700 17703 17706 17709 17712 17715 17718 17721 17724 17727 17730 17733 17736 17739 17742 17745 17748 17751 17754 17757 17760 17763 17766 17769 17772 17775 17778 17781 17784 17787 17790 17793 17796 17799 17802 17805 17808 17811 17814 17817 17820 17823 17826 17829 17832 17835 17838 17841 17844 17847 17850 17853 17856 17859 17862 17865 17868 17871 17874 17877 17880 17883 17886 17889 17892 17895 17898 17901 17904 17907 17910 17913 17916 17919 17922 17925 17928 17931 17934 17937 17940 17943 17946 17949 17952 17955 17958 17961 17964 17967 17970 17973 17976 17979 17982 17985 17988 17991 17994 17997 18000 18003 18006 18009 18012 18015 18018 18021 18024 18027 18030 18033 18036 18039 18042 18045 18048 18051 18054 18057 18060 18063 18066 18069 18072 18075 18078 18081 18084 18087 18090 18093 18096 18099 18102 18105 18108 18111 18114 18117 18120 18123 18126 18129 18132 18135 18138 18141 18144 18147 18150 18153 18156 18159 18162 18165 18168 18171 18174 18177 18180 18183 18186 18189 18192 18195 18198 18201 18204 18207 18210 18213 18216 18219 18222 18225 18228 18231 18234 18237 18240 18243 18246 18249 18252 18255 18258 18261 18264 18267 18270 18273 18276 18279 18282 18285 18288 18291 18294 18297 18300 18303 18306 18309 18312 18315 18318 18321 18324 18327 18330 18333 18336 18339 18342 18345 18348 18351 18354 18357 18360 18363 18366 18369 18372 18375 18378 18381 18384 18387 18390 18393 18396 18399 18402 18405 18408 18411 18414 18417 18420 18423 18426 18429 18432 18435 18438 18441 18444 18447 18450 18453 18456 18459 18462 18465 18468 18471 18474 18477 18480 18483 18486 18489 18492 18495 18498 18501 18504 18507 18510 18513 18516 18519 18522 18525 18528 18531 18534 18537 18540 18543 18546 18549 18552 18555 18558 18561 18564 18567 18570 18573 18576 18579 18582 18585 18588 18591 18594 18597 18600 18603 18606 18609 18612 18615 18618 18621 18624 18627 18630 18633 18636 18639 18642 18645 18648 18651 18654 18657 18660 18663 18666 18669 18672 18675 18678 18681 18684 18687 18690 18693 18696 18699 18702 18705 18708 18711 18714 18717 18720 18723 18726 18729 18732 18735 18738 18741 18744 18747 18750 18753 18756 18759 18762 18765 18768 18771 18774 18777 18780 18783 18786 18789 18792 18795 18798 18801 18804 18807 18810 18813 18816 18819 18822 18825 18828 18831 18834 18837 18840 18843 18846 18849 18852 18855 18858 18861 18864 18867 18870 18873 18876 18879 18882 18885 18888 18891 18894 18897 18900 18903 18906 18909 18912 18915 18918 18921 18924 18927 18930 18933 18936 18939 18942 18945 18948 18951 18954 18957 18960 18963 18966 18969 18972 18975 18978 18981 18984 18987 18990 18993 18996 18999 19002 19005 19008 19011 19014 19017 19020 19023 19026 19029 19032 19035 19038 19041 19044 19047 19050 19053 19056 19059 19062 19065 19068 19071 19074 19077 19080 19083 19086 19089 19092 19095 19098 19101 19104 19107 19110 19113 19116 19119 19122 19125 19128 19131 19134 19137 19140 19143 19146 19149 19152 19155 19158 19161 19164 19167 19170 19173 19176 19179 19182 19185 19188 19191 19194 19197 19200 19203 19206 19209 19212 19215 19218 19221 19224 19227 19230 19233 19236 19239 19242 19245 19248 19251 19254 19257 19260 19263 19266 19269 19272 19275 19278 19281 19284 19287 19290 19293 19296 19299 19302 19305 19308 19311 19314 19317 19320 19323 19326 19329 19332 19335 19338 19341 19344 19347 19350 19353 19356 19359 19362 19365 19368 19371 19374 19377 19380 19383 19386 19389 19392 19395 19398 19401 19404 19407 19410 19413 19416 19419 19422 19425 19428 19431 19434 19437 19440 19443 19446 19449 19452 19455 19458 19461 19464 19467 19470 19473 19476 19479 19482 19485 19488 19491 19494 19497 19500 19503 19506 19509 19512 19515 19518 19521 19524 19527 19530 19533 19536 19539 19542 19545 19548 19551 19554 19557 19560 19563 19566 19569 19572 19575 19578 19581 19584 19587 19590 19593 19596 19599 19602 19605 19608 19611 19614 19617 19620 19623 19626 19629 19632 19635 19638 19641 19644 19647 19650 19653 19656 19659 19662 19665 19668 19671 19674 19677 19680 19683 19686 19689 19692 19695 19698 19701 19704 19707 19710 19713 19716 19719 19722 19725 19728 19731 19734 19737 19740 19743 19746 19749 19752 19755 19758 19761 19764 19767 19770 19773 19776 19779 19782 19785 19788 19791 19794 19797 19800 19803 19806 19809 19812 19815 19818 19821 19824 19827 19830 19833 19836 19839 19842 19845 19848 19851 19854 19857 19860 19863 19866 19869 19872 19875 19878 19881 19884 19887 19890 19893 19896 19899 19902 19905 19908 19911 19914 19917 19920 19923 19926 19929 19932 19935 19938 19941 19944 19947 19950 19953 19956 19959 19962 19965 19968 19971 19974 19977 19980 19983 19986 19989 19992 19995 19998 20001 20004 20007 20010 20013 20016 20019 20022 20025 20028 20031 20034 20037 20040 20043 20046 20049 20052 20055 20058 20061 20064 20067 20070 20073 20076 20079 20082 20085 20088 20091 20094 20097 20100 20103 20106 20109 20112 20115 20118 20121 20124 20127 20130 20133 20136 20139 20142 20145 20148 20151 20154 20157 20160 20163 20166 20169 20172 20175 20178 20181 20184 20187 20190 20193 20196 20199 20202 20205 20208 20211 20214 20217 20220 20223 20226 20229 20232 20235 20238 20241 20244 20247 20250 20253 20256 20259 20262 20265 20268 20271 20274 20277 20280 20283 20286 20289 20292 20295 20298 20301 20304 20307 20310 20313 20316 20319 20322 20325 20328 20331 20334 20337 20340 20343 20346 20349 20352 20355 20358 20361 20364 20367 20370 20373 20376 20379 20382 20385 20388 20391 20394 20397 20400 20403 20406 20409 20412 20415 20418 20421 20424 20427 20430 20433 20436 20439 20442 20445 20448 20451 20454 20457 20460 20463 20466 20469 20472 20475 20478 20481 20484 20487 20490 20493 20496 20499 20502 20505 20508 20511 20514 20517 20520 20523 20526 20529 20532 20535 20538 20541 20544 20547 20550 20553 20556 20559 20562 20565 20568 20571 20574 20577 20580 20583 20586 20589 20592 20595 20598 20601 20604 20607 20610 20613 20616 20619 20622 20625 20628 20631 20634 20637 20640 20643 20646 20649 20652 20655 20658 20661 20664 20667 20670 20673 20676 20679 20682 20685 20688 20691 20694 20697 20700 20703 20706 20709 20712 20715 20718 20721 20724 20727 20730 20733 20736 20739 20742 20745 20748 20751 20754 20757 20760 20763 20766 20769 20772 20775 20778 20781 20784 20787 20790 20793 20796 20799 20802 20805 20808 20811 20814 20817 20820 20823 20826 20829 20832 20835 20838 20841 20844 20847 20850 20853 20856 20859 20862 20865 20868 20871 20874 20877 20880 20883 20886 20889 20892 20895 20898 20901 20904 20907 20910 20913 20916 20919 20922 20925 20928 20931 20934 20937 20940 20943 20946 20949 20952 20955 20958 20961 20964 20967 20970 20973 20976 20979 20982 20985 20988 20991 20994 20997 21000 21003 21006 21009 21012 21015 21018 21021 21024 21027 21030 21033 21036 21039 21042 21045 21048 21051 21054 21057 21060 21063 21066 21069 21072 21075 21078 21081 21084 21087 21090 21093 21096 21099 21102 21105 21108 21111 21114 21117 21120 21123 21126 21129 21132 21135 21138 21141 21144 21147 21150 21153 21156 21159 21162 21165 21168 21171 21174 21177 21180 21183 21186 21189 21192 21195 21198 21201 21204 21207 21210 21213 21216 21219 21222 21225 21228 21231 21234 21237 21240 21243 21246 21249 21252 21255 21258 21261 21264 21267 21270 21273 21276 21279 21282 21285 21288 21291 21294 21297 21300 21303 21306 21309 21312 21315 21318 21321 21324 21327 21330 21333 21336 21339 21342 21345 21348 21351 21354 21357 21360 21363 21366 21369 21372 21375 21378 21381 21384 21387 21390 21393 21396 21399 21402 21405 21408 21411 21414 21417 21420 21423 21426 21429 21432 21435 21438 21441 21444 21447 21450 21453 21456 21459 21462 21465 21468 21471 21474 21477 21480 21483 21486 21489 21492 21495 21498 21501 21504 21507 21510 21513 21516 21519 21522 21525 21528 21531 21534 21537 21540 21543 21546 21549 21552 21555 21558 21561 21564 21567 21570 21573 21576 21579 21582 21585 21588 21591 21594 21597 21600 21603 21606 21609 21612 21615 21618 21621 21624 21627 21630 21633 21636 21639 21642 21645 21648 21651 21654 21657 21660 21663 21666 21669 21672 21675 21678 21681 21684 21687 21690 21693 21696 21699 21702 21705 21708 21711 21714 21717 21720 21723 21726 21729 21732 21735 21738 21741 21744 21747 21750 21753 21756 21759 21762 21765 21768 21771 21774 21777 21780 21783 21786 21789 21792 21795 21798 21801 21804 21807 21810 21813 21816 21819 21822 21825 21828 21831 21834 21837 21840 21843 21846 21849 21852 21855 21858 21861 21864 21867 21870 21873 21876 21879 21882 21885 21888 21891 21894 21897 21900 21903 21906 21909 21912 21915 21918 21921 21924 21927 21930 21933 21936 21939 21942 21945 21948 21951 21954 21957 21960 21963 21966 21969 21972 21975 21978 21981 21984 21987 21990 21993 21996 21999 22002 22005 22008 22011 22014 22017 22020 22023 22026 22029 22032 22035 22038 22041 22044 22047 22050 22053 22056 22059 22062 22065 22068 22071 22074 22077 22080 22083 22086 22089 22092 22095 22098 22101 22104 22107 22110 22113 22116 22119 22122 22125 22128 22131 22134 22137 22140 22143 22146 22149 22152 22155 22158 22161 22164 22167 22170 22173 22176 22179 22182 22185 22188 22191 22194 22197 22200 22203 22206 22209 22212 22215 22218 22221 22224 22227 22230 22233 22236 22239 22242 22245 22248 22251 22254 22257 22260 22263 22266 22269 22272 22275 22278 22281 22284 22287 22290 22293 22296 22299 22302 22305 22308 22311 22314 22317 22320 22323 22326 22329 22332 22335 22338 22341 22344 22347 22350 22353 22356 22359 22362 22365 22368 22371 22374 22377 22380 22383 22386 22389 22392 22395 22398 22401 22404 22407 22410 22413 22416 22419 22422 22425 22428 22431 22434 22437 22440 22443 22446 22449 22452 22455 22458 22461 22464 22467 22470 22473 22476 22479 22482 22485 22488 22491 22494 22497 22500 22503 22506 22509 22512 22515 22518 22521 22524 22527 22530 22533 22536 22539 22542 22545 22548 22551 22554 22557 22560 22563 22566 22569 22572 22575 22578 22581 22584 22587 22590 22593 22596 22599 22602 22605 22608 22611 22614 22617 22620 22623 22626 22629 22632 22635 22638 22641 22644 22647 22650 22653 22656 22659 22662 22665 22668 22671 22674 22677 22680 22683 22686 22689 22692 22695 22698 22701 22704 22707 22710 22713 22716 22719 22722 22725 22728 22731 22734 22737 22740 22743 22746 22749 22752 22755 22758 22761 22764 22767 22770 22773 22776 22779 22782 22785 22788 22791 22794 22797 22800 22803 22806 22809 22812 22815 22818 22821 22824 22827 22830 22833 22836 22839 22842 22845 22848 22851 22854 22857 22860 22863 22866 22869 22872 22875 22878 22881 22884 22887 22890 22893 22896 22899 22902 22905 22908 22911 22914 22917 22920 22923 22926 22929 22932 22935 22938 22941 22944 22947 22950 22953 22956 22959 22962 22965 22968 22971 22974 22977 22980 22983 22986 22989 22992 22995 22998 23001 23004 23007 23010 23013 23016 23019 23022 23025 23028 23031 23034 23037 23040 23043 23046 23049 23052 23055 23058 23061 23064 23067 23070 23073 23076 23079 23082 23085 23088 23091 23094 23097 23100 23103 23106 23109 23112 23115 23118 23121 23124 23127 23130 23133 23136 23139 23142 23145 23148 23151 23154 23157 23160 23163 23166 23169 23172 23175 23178 23181 23184 23187 23190 23193 23196 23199 23202 23205 23208 23211 23214 23217 23220 23223 23226 23229 23232 23235 23238 23241 23244 23247 23250 23253 23256 23259 23262 23265 23268 23271 23274 23277 23280 23283 23286 23289 23292 23295 23298 23301 23304 23307 23310 23313 23316 23319 23322 23325 23328 23331 23334 23337 23340 23343 23346 23349 23352 23355 23358 23361 23364 23367 23370 23373 23376 23379 23382 23385 23388 23391 23394 23397 23400 23403 23406 23409 23412 23415 23418 23421 23424 23427 23430 23433 23436 23439 23442 23445 23448 23451 23454 23457 23460 23463 23466 23469 23472 23475 23478 23481 23484 23487 23490 23493 23496 23499 23502 23505 23508 23511 23514 23517 23520 23523 23526 23529 23532 23535 23538 23541 23544 23547 23550 23553 23556 23559 23562 23565 23568 23571 23574 23577 23580 23583 23586 23589 23592 23595 23598 23601 23604 23607 23610 23613 23616 23619 23622 23625 23628 23631 23634 23637 23640 23643 23646 23649 23652 23655 23658 23661 23664 23667 23670 23673 23676 23679 23682 23685 23688 23691 23694 23697 23700 23703 23706 23709 23712 23715 23718 23721 23724 23727 23730 23733 23736 23739 23742 23745 23748 23751 23754 23757 23760 23763 23766 23769 23772 23775 23778 23781 23784 23787 23790 23793 23796 23799 23802 23805 23808 23811 23814 23817 23820 23823 23826 23829 23832 23835 23838 23841 23844 23847 23850 23853 23856 23859 23862 23865 23868 23871 23874 23877 23880 23883 23886 23889 23892 23895 23898 23901 23904 23907 23910 23913 23916 23919 23922 23925 23928 23931 23934 23937 23940 23943 23946 23949 23952 23955 23958 23961 23964 23967 23970 23973 23976 23979 23982 23985 23988 23991 23994 23997 24000 24003 24006 24009 24012 24015 24018 24021 24024 24027 24030 24033 24036 24039 24042 24045 24048 24051 24054 24057 24060 24063 24066 24069 24072 24075 24078 24081 24084 24087 24090 24093 24096 24099 24102 24105 24108 24111 24114 24117 24120 24123 24126 24129 24132 24135 24138 24141 24144 24147 24150 24153 24156 24159 24162 24165 24168 24171 24174 24177 24180 24183 24186 24189 24192 24195 24198 24201 24204 24207 24210 24213 24216 24219 24222 24225 24228 24231 24234 24237 24240 24243 24246 24249 24252 24255 24258 24261 24264 24267 24270 24273 24276 24279 24282 24285 24288 24291 24294 24297 24300 24303 24306 24309 24312 24315 24318 24321 24324 24327 24330 24333 24336 24339 24342 24345 24348 24351 24354 24357 24360 24363 24366 24369 24372 24375 24378 24381 24384 24387 24390 24393 24396 24399 24402 24405 24408 24411 24414 24417 24420 24423 24426 24429 24432 24435 24438 24441 24444 24447 24450 24453 24456 24459 24462 24465 24468 24471 24474 24477 24480 24483 24486 24489 24492 24495 24498 24501 24504 24507 24510 24513 24516 24519 24522 24525 24528 24531 24534 24537 24540 24543 24546 24549 24552 24555 24558 24561 24564 24567 24570 24573 24576 24579 24582 24585 24588 24591 24594 24597 24600 24603 24606 24609 24612 24615 24618 24621 24624 24627 24630 24633 24636 24639 24642 24645 24648 24651 24654 24657 24660 24663 24666 24669 24672 24675 24678 24681 24684 24687 24690 24693 24696 24699 24702 24705 24708 24711 24714 24717 24720 24723 24726 24729 24732 24735 24738 24741 24744 24747 24750 24753 24756 24759 24762 24765 24768 24771 24774 24777 24780 24783 24786 24789 24792 24795 24798 24801 24804 24807 24810 24813 24816 24819 24822 24825 24828 24831 24834 24837 24840 24843 24846 24849 24852 24855 24858 24861 24864 24867 24870 24873 24876 24879 24882 24885 24888 24891 24894 24897 24900 24903 24906 24909 24912 24915 24918 24921 24924 24927 24930 24933 24936 24939 24942 24945 24948 24951 24954 24957 24960 24963 24966 24969 24972 24975 24978 24981 24984 24987 24990 24993 24996 24999 25002 25005 25008 25011 25014 25017 25020 25023 25026 25029 25032 25035 25038 25041 25044 25047 25050 25053 25056 25059 25062 25065 25068 25071 25074 25077 25080 25083 25086 25089 25092 25095 25098 25101 25104 25107 25110 25113 25116 25119 25122 25125 25128 25131 25134 25137 25140 25143 25146 25149 25152 25155 25158 25161 25164 25167 25170 25173 25176 25179 25182 25185 25188 25191 25194 25197 25200 25203 25206 25209 25212 25215 25218 25221 25224 25227 25230 25233 25236 25239 25242 25245 25248 25251 25254 25257 25260 25263 25266 25269 25272 25275 25278 25281 25284 25287 25290 25293 25296 25299 25302 25305 25308 25311 25314 25317 25320 25323 25326 25329 25332 25335 25338 25341 25344 25347 25350 25353 25356 25359 25362 25365 25368 25371 25374 25377 25380 25383 25386 25389 25392 25395 25398 25401 25404 25407 25410 25413 25416 25419 25422 25425 25428 25431 25434 25437 25440 25443 25446 25449 25452 25455 25458 25461 25464 25467 25470 25473 25476 25479 25482 25485 25488 25491 25494 25497 25500 25503 25506 25509 25512 25515 25518 25521 25524 25527 25530 25533 25536 25539 25542 25545 25548 25551 25554 25557 25560 25563 25566 25569 25572 25575 25578 25581 25584 25587 25590 25593 25596 25599 25602 25605 25608 25611 25614 25617 25620 25623 25626 25629 25632 25635 25638 25641 25644 25647 25650 25653 25656 25659 25662 25665 25668 25671 25674 25677 25680 25683 25686 25689 25692 25695 25698 25701 25704 25707 25710 25713 25716 25719 25722 25725 25728 25731 25734 25737 25740 25743 25746 25749 25752 25755 25758 25761 25764 25767 25770 25773 25776 25779 25782 25785 25788 25791 25794 25797 25800 25803 25806 25809 25812 25815 25818 25821 25824 25827 25830 25833 25836 25839 25842 25845 25848 25851 25854 25857 25860 25863 25866 25869 25872 25875 25878 25881 25884 25887 25890 25893 25896 25899 25902 25905 25908 25911 25914 25917 25920 25923 25926 25929 25932 25935 25938 25941 25944 25947 25950 25953 25956 25959 25962 25965 25968 25971 25974 25977 25980 25983 25986 25989 25992 25995 25998 26001 26004 26007 26010 26013 26016 26019 26022 26025 26028 26031 26034 26037 26040 26043 26046 26049 26052 26055 26058 26061 26064 26067 26070 26073 26076 26079 26082 26085 26088 26091 26094 26097 26100 26103 26106 26109 26112 26115 26118 26121 26124 26127 26130 26133 26136 26139 26142 26145 26148 26151 26154 26157 26160 26163 26166 26169 26172 26175 26178 26181 26184 26187 26190 26193 26196 26199 26202 26205 26208 26211 26214 26217 26220 26223 26226 26229 26232 26235 26238 26241 26244 26247 26250 26253 26256 26259 26262 26265 26268 26271 26274 26277 26280 26283 26286 26289 26292 26295 26298 26301 26304 26307 26310 26313 26316 26319 26322 26325 26328 26331 26334 26337 26340 26343 26346 26349 26352 26355 26358 26361 26364 26367 26370 26373 26376 26379 26382 26385 26388 26391 26394 26397 26400 26403 26406 26409 26412 26415 26418 26421 26424 26427 26430 26433 26436 26439 26442 26445 26448 26451 26454 26457 26460 26463 26466 26469 26472 26475 26478 26481 26484 26487 26490 26493 26496 26499 26502 26505 26508 26511 26514 26517 26520 26523 26526 26529 26532 26535 26538 26541 26544 26547 26550 26553 26556 26559 26562 26565 26568 26571 26574 26577 26580 26583 26586 26589 26592 26595 26598 26601 26604 26607 26610 26613 26616 26619 26622 26625 26628 26631 26634 26637 26640 26643 26646 26649 26652 26655 26658 26661 26664 26667 26670 26673 26676 26679 26682 26685 26688 26691 26694 26697 26700 26703 26706 26709 26712 26715 26718 26721 26724 26727 26730 26733 26736 26739 26742 26745 26748 26751 26754 26757 26760 26763 26766 26769 26772 26775 26778 26781 26784 26787 26790 26793 26796 26799 26802 26805 26808 26811 26814 26817 26820 26823 26826 26829 26832 26835 26838 26841 26844 26847 26850 26853 26856 26859 26862 26865 26868 26871 26874 26877 26880 26883 26886 26889 26892 26895 26898 26901 26904 26907 26910 26913 26916 26919 26922 26925 26928 26931 26934 26937 26940 26943 26946 26949 26952 26955 26958 26961 26964 26967 26970 26973 26976 26979 26982 26985 26988 26991 26994 26997 27000 27003 27006 27009 27012 27015 27018 27021 27024 27027 27030 27033 27036 27039 27042 27045 27048 27051 27054 27057 27060 27063 27066 27069 27072 27075 27078 27081 27084 27087 27090 27093 27096 27099 27102 27105 27108 27111 27114 27117 27120 27123 27126 27129 27132 27135 27138 27141 27144 27147 27150 27153 27156 27159 27162 27165 27168 27171 27174 27177 27180 27183 27186 27189 27192 27195 27198 27201 27204 27207 27210 27213 27216 27219 27222 27225 27228 27231 27234 27237 27240 27243 27246 27249 27252 27255 27258 27261 27264 27267 27270 27273 27276 27279 27282 27285 27288 27291 27294 27297 27300 27303 27306 27309 27312 27315 27318 27321 27324 27327 27330 27333 27336 27339 27342 27345 27348 27351 27354 27357 27360 27363 27366 27369 27372 27375 27378 27381 27384 27387 27390 27393 27396 27399 27402 27405 27408 27411 27414 27417 27420 27423 27426 27429 27432 27435 27438 27441 27444 27447 27450 27453 27456 27459 27462 27465 27468 27471 27474 27477 27480 27483 27486 27489 27492 27495 27498 27501 27504 27507 27510 27513 27516 27519 27522 27525 27528 27531 27534 27537 27540 27543 27546 27549 27552 27555 27558 27561 27564 27567 27570 27573 27576 27579 27582 27585 27588 27591 27594 27597 27600 27603 27606 27609 27612 27615 27618 27621 27624 27627 27630 27633 27636 27639 27642 27645 27648 27651 27654 27657 27660 27663 27666 27669 27672 27675 27678 27681 27684 27687 27690 27693 27696 27699 27702 27705 27708 27711 27714 27717 27720 27723 27726 27729 27732 27735 27738 27741 27744 27747 27750 27753 27756 27759 27762 27765 27768 27771 27774 27777 27780 27783 27786 27789 27792 27795 27798 27801 27804 27807 27810 27813 27816 27819 27822 27825 27828 27831 27834 27837 27840 27843 27846 27849 27852 27855 27858 27861 27864 27867 27870 27873 27876 27879 27882 27885 27888 27891 27894 27897 27900 27903 27906 27909 27912 27915 27918 27921 27924 27927 27930 27933 27936 27939 27942 27945 27948 27951 27954 27957 27960 27963 27966 27969 27972 27975 27978 27981 27984 27987 27990 27993 27996 27999 28002 28005 28008 28011 28014 28017 28020 28023 28026 28029 28032 28035 28038 28041 28044 28047 28050 28053 28056 28059 28062 28065 28068 28071 28074 28077 28080 28083 28086 28089 28092 28095 28098 28101 28104 28107 28110 28113 28116 28119 28122 28125 28128 28131 28134 28137 28140 28143 28146 28149 28152 28155 28158 28161 28164 28167 28170 28173 28176 28179 28182 28185 28188 28191 28194 28197 28200 28203 28206 28209 28212 28215 28218 28221 28224 28227 28230 28233 28236 28239 28242 28245 28248 28251 28254 28257 28260 28263 28266 28269 28272 28275 28278 28281 28284 28287 28290 28293 28296 28299 28302 28305 28308 28311 28314 28317 28320 28323 28326 28329 28332 28335 28338 28341 28344 28347 28350 28353 28356 28359 28362 28365 28368 28371 28374 28377 28380 28383 28386 28389 28392 28395 28398 28401 28404 28407 28410 28413 28416 28419 28422 28425 28428 28431 28434 28437 28440 28443 28446 28449 28452 28455 28458 28461 28464 28467 28470 28473 28476 28479 28482 28485 28488 28491 28494 28497 28500 28503 28506 28509 28512 28515 28518 28521 28524 28527 28530 28533 28536 28539 28542 28545 28548 28551 28554 28557 28560 28563 28566 28569 28572 28575 28578 28581 28584 28587 28590 28593 28596 28599 28602 28605 28608 28611 28614 28617 28620 28623 28626 28629 28632 28635 28638 28641 28644 28647 28650 28653 28656 28659 28662 28665 28668 28671 28674 28677 28680 28683 28686 28689 28692 28695 28698 28701 28704 28707 28710 28713 28716 28719 28722 28725 28728 28731 28734 28737 28740 28743 28746 28749 28752 28755 28758 28761 28764 28767 28770 28773 28776 28779 28782 28785 28788 28791 28794 28797 28800 28803 28806 28809 28812 28815 28818 28821 28824 28827 28830 28833 28836 28839 28842 28845 28848 28851 28854 28857 28860 28863 28866 28869 28872 28875 28878 28881 28884 28887 28890 28893 28896 28899 28902 28905 28908 28911 28914 28917 28920 28923 28926 28929 28932 28935 28938 28941 28944 28947 28950 28953 28956 28959 28962 28965 28968 28971 28974 28977 28980 28983 28986 28989 28992 28995 28998 29001 29004 29007 29010 29013 29016 29019 29022 29025 29028 29031 29034 29037 29040 29043 29046 29049 29052 29055 29058 29061 29064 29067 29070 29073 29076 29079 29082 29085 29088 29091 29094 29097 29100 29103 29106 29109 29112 29115 29118 29121 29124 29127 29130 29133 29136 29139 29142 29145 29148 29151 29154 29157 29160 29163 29166 29169 29172 29175 29178 29181 29184 29187 29190 29193 29196 29199 29202 29205 29208 29211 29214 29217 29220 29223 29226 29229 29232 29235 29238 29241 29244 29247 29250 29253 29256 29259 29262 29265 29268 29271 29274 29277 29280 29283 29286 29289 29292 29295 29298 29301 29304 29307 29310 29313 29316 29319 29322 29325 29328 29331 29334 29337 29340 29343 29346 29349 29352 29355 29358 29361 29364 29367 29370 29373 29376 29379 29382 29385 29388 29391 29394 29397 29400 29403 29406 29409 29412 29415 29418 29421 29424 29427 29430 29433 29436 29439 29442 29445 29448 29451 29454 29457 29460 29463 29466 29469 29472 29475 29478 29481 29484 29487 29490 29493 29496 29499 29502 29505 29508 29511 29514 29517 29520 29523 29526 29529 29532 29535 29538 29541 29544 29547 29550 29553 29556 29559 29562 29565 29568 29571 29574 29577 29580 29583 29586 29589 29592 29595 29598 29601 29604 29607 29610 29613 29616 29619 29622 29625 29628 29631 29634 29637 29640 29643 29646 29649 29652 29655 29658 29661 29664 29667 29670 29673 29676 29679 29682 29685 29688 29691 29694 29697 29700 29703 29706 29709 29712 29715 29718 29721 29724 29727 29730 29733 29736 29739 29742 29745 29748 29751 29754 29757 29760 29763 29766 29769 29772 29775 29778 29781 29784 29787 29790 29793 29796 29799 29802 29805 29808 29811 29814 29817 29820 29823 29826 29829 29832 29835 29838 29841 29844 29847 29850 29853 29856 29859 29862 29865 29868 29871 29874 29877 29880 29883 29886 29889 29892 29895 29898 29901 29904 29907 29910 29913 29916 29919 29922 29925 29928 29931 29934 29937 29940 29943 29946 29949 29952 29955 29958 29961 29964 29967 29970 29973 29976 29979 29982 29985 29988 29991 29994 29997 30000 30003 30006 30009 30012 30015 30018 30021 30024 30027 30030 30033 30036 30039 30042 30045 30048 30051 30054 30057 30060 30063 30066 30069 30072 30075 30078 30081 30084 30087 30090 30093 30096 30099 30102 30105 30108 30111 30114 30117 30120 30123 30126 30129 30132 30135 30138 30141 30144 30147 30150 30153 30156 30159 30162 30165 30168 30171 30174 30177 30180 30183 30186 30189 30192 30195 30198 30201 30204 30207 30210 30213 30216 30219 30222 30225 30228 30231 30234 30237 30240 30243 30246 30249 30252 30255 30258 30261 30264 30267 30270 30273 30276 30279 30282 30285 30288 30291 30294 30297 30300 30303 30306 30309 30312 30315 30318 30321 30324 30327 30330 30333 30336 30339 30342 30345 30348 30351 30354 30357 30360 30363 30366 30369 30372 30375 30378 30381 30384 30387 30390 30393 30396 30399 30402 30405 30408 30411 30414 30417 30420 30423 30426 30429 30432 30435 30438 30441 30444 30447 30450 30453 30456 30459 30462 30465 30468 30471 30474 30477 30480 30483 30486 30489 30492 30495 30498 30501 30504 30507 30510 30513 30516 30519 30522 30525 30528 30531 30534 30537 30540 30543 30546 30549 30552 30555 30558 30561 30564 30567 30570 30573 30576 30579 30582 30585 30588 30591 30594 30597 30600 30603 30606 30609 30612 30615 30618 30621 30624 30627 30630 30633 30636 30639 30642 30645 30648 30651 30654 30657 30660 30663 30666 30669 30672 30675 30678 30681 30684 30687 30690 30693 30696 30699 30702 30705 30708 30711 30714 30717 30720 30723 30726 30729 30732 30735 30738 30741 30744 30747 30750 30753 30756 30759 30762 30765 30768 30771 30774 30777 30780 30783 30786 30789 30792 30795 30798 30801 30804 30807 30810 30813 30816 30819 30822 30825 30828 30831 30834 30837 30840 30843 30846 30849 30852 30855 30858 30861 30864 30867 30870 30873 30876 30879 30882 30885 30888 30891 30894 30897 30900 30903 30906 30909 30912 30915 30918 30921 30924 30927 30930 30933 30936 30939 30942 30945 30948 30951 30954 30957 30960 30963 30966 30969 30972 30975 30978 30981 30984 30987 30990 30993 30996 30999 31002 31005 31008 31011 31014 31017 31020 31023 31026 31029 31032 31035 31038 31041 31044 31047 31050 31053 31056 31059 31062 31065 31068 31071 31074 31077 31080 31083 31086 31089 31092 31095 31098 31101 31104 31107 31110 31113 31116 31119 31122 31125 31128 31131 31134 31137 31140 31143 31146 31149 31152 31155 31158 31161 31164 31167 31170 31173 31176 31179 31182 31185 31188 31191 31194 31197 31200 31203 31206 31209 31212 31215 31218 31221 31224 31227 31230 31233 31236 31239 31242 31245 31248 31251 31254 31257 31260 31263 31266 31269 31272 31275 31278 31281 31284 31287 31290 31293 31296 31299 31302 31305 31308 31311 31314 31317 31320 31323 31326 31329 31332 31335 31338 31341 31344 31347 31350 31353 31356 31359 31362 31365 31368 31371 31374 31377 31380 31383 31386 31389 31392 31395 31398 31401 31404 31407 31410 31413 31416 31419 31422 31425 31428 31431 31434 31437 31440 31443 31446 31449 31452 31455 31458 31461 31464 31467 31470 31473 31476 31479 31482 31485 31488 31491 31494 31497 31500 31503 31506 31509 31512 31515 31518 31521 31524 31527 31530 31533 31536 31539 31542 31545 31548 31551 31554 31557 31560 31563 31566 31569 31572 31575 31578 31581 31584 31587 31590 31593 31596 31599 31602 31605 31608 31611 31614 31617 31620 31623 31626 31629 31632 31635 31638 31641 31644 31647 31650 31653 31656 31659 31662 31665 31668 31671 31674 31677 31680 31683 31686 31689 31692 31695 31698 31701 31704 31707 31710 31713 31716 31719 31722 31725 31728 31731 31734 31737 31740 31743 31746 31749 31752 31755 31758 31761 31764 31767 31770 31773 31776 31779 31782 31785 31788 31791 31794 31797 31800 31803 31806 31809 31812 31815 31818 31821 31824 31827 31830 31833 31836 31839 31842 31845 31848 31851 31854 31857 31860 31863 31866 31869 31872 31875 31878 31881 31884 31887 31890 31893 31896 31899 31902 31905 31908 31911 31914 31917 31920 31923 31926 31929 31932 31935 31938 31941 31944 31947 31950 31953 31956 31959 31962 31965 31968 31971 31974 31977 31980 31983 31986 31989 31992 31995 31998 32001 32004 32007 32010 32013 32016 32019 32022 32025 32028 32031 32034 32037 32040 32043 32046 32049 32052 32055 32058 32061 32064 32067 32070 32073 32076 32079 32082 32085 32088 32091 32094 32097 32100 32103 32106 32109 32112 32115 32118 32121 32124 32127 32130 32133 32136 32139 32142 32145 32148 32151 32154 32157 32160 32163 32166 32169 32172 32175 32178 32181 32184 32187 32190 32193 32196 32199 32202 32205 32208 32211 32214 32217 32220 32223 32226 32229 32232 32235 32238 32241 32244 32247 32250 32253 32256 32259 32262 32265 32268 32271 32274 32277 32280 32283 32286 32289 32292 32295 32298 32301 32304 32307 32310 32313 32316 32319 32322 32325 32328 32331 32334 32337 32340 32343 32346 32349 32352 32355 32358 32361 32364 32367 32370 32373 32376 32379 32382 32385 32388 32391 32394 32397 32400 32403 32406 32409 32412 32415 32418 32421 32424 32427 32430 32433 32436 32439 32442 32445 32448 32451 32454 32457 32460 32463 32466 32469 32472 32475 32478 32481 32484 32487 32490 32493 32496 32499 32502 32505 32508 32511 32514 32517 32520 32523 32526 32529 32532 32535 32538 32541 32544 32547 32550 32553 32556 32559 32562 32565 32568 32571 32574 32577 32580 32583 32586 32589 32592 32595 32598 32601 32604 32607 32610 32613 32616 32619 32622 32625 32628 32631 32634 32637 32640 32643 32646 32649 32652 32655 32658 32661 32664 32667 32670 32673 32676 32679 32682 32685 32688 32691 32694 32697 32700 32703 32706 32709 32712 32715 32718 32721 32724 32727 32730 32733 32736 32739 32742 32745 32748 32751 32754 32757 32760 32763 32766 32769 32772 32775 32778 32781 32784 32787 32790 32793 32796 32799 32802 32805 32808 32811 32814 32817 32820 32823 32826 32829 32832 32835 32838 32841 32844 32847 32850 32853 32856 32859 32862 32865 32868 32871 32874 32877 32880 32883 32886 32889 32892 32895 32898 32901 32904 32907 32910 32913 32916 32919 32922 32925 32928 32931 32934 32937 32940 32943 32946 32949 32952 32955 32958 32961 32964 32967 32970 32973 32976 32979 32982 32985 32988 32991 32994 32997 33000 33003 33006 33009 33012 33015 33018 33021 33024 33027 33030 33033 33036 33039 33042 33045 33048 33051 33054 33057 33060 33063 33066 33069 33072 33075 33078 33081 33084 33087 33090 33093 33096 33099 33102 33105 33108 33111 33114 33117 33120 33123 33126 33129 33132 33135 33138 33141 33144 33147 33150 33153 33156 33159 33162 33165 33168 33171 33174 33177 33180 33183 33186 33189 33192 33195 33198 33201 33204 33207 33210 33213 33216 33219 33222 33225 33228 33231 33234 33237 33240 33243 33246 33249 33252 33255 33258 33261 33264 33267 33270 33273 33276 33279 33282 33285 33288 33291 33294 33297 33300 33303 33306 33309 33312 33315 33318 33321 33324 33327 33330 33333 33336 33339 33342 33345 33348 33351 33354 33357 33360 33363 33366 33369 33372 33375 33378 33381 33384 33387 33390 33393 33396 33399 33402 33405 33408 33411 33414 33417 33420 33423 33426 33429 33432 33435 33438 33441 33444 33447 33450 33453 33456 33459 33462 33465 33468 33471 33474 33477 33480 33483 33486 33489 33492 33495 33498 33501 33504 33507 33510 33513 33516 33519 33522 33525 33528 33531 33534 33537 33540 33543 33546 33549 33552 33555 33558 33561 33564 33567 33570 33573 33576 33579 33582 33585 33588 33591 33594 33597 33600 33603 33606 33609 33612 33615 33618 33621 33624 33627 33630 33633 33636 33639 33642 33645 33648 33651 33654 33657 33660 33663 33666 33669 33672 33675 33678 33681 33684 33687 33690 33693 33696 33699 33702 33705 33708 33711 33714 33717 33720 33723 33726 33729 33732 33735 33738 33741 33744 33747 33750 33753 33756 33759 33762 33765 33768 33771 33774 33777 33780 33783 33786 33789 33792 33795 33798 33801 33804 33807 33810 33813 33816 33819 33822 33825 33828 33831 33834 33837 33840 33843 33846 33849 33852 33855 33858 33861 33864 33867 33870 33873 33876 33879 33882 33885 33888 33891 33894 33897 33900 33903 33906 33909 33912 33915 33918 33921 33924 33927 33930 33933 33936 33939 33942 33945 33948 33951 33954 33957 33960 33963 33966 33969 33972 33975 33978 33981 33984 33987 33990 33993 33996 33999 34002 34005 34008 34011 34014 34017 34020 34023 34026 34029 34032 34035 34038 34041 34044 34047 34050 34053 34056 34059 34062 34065 34068 34071 34074 34077 34080 34083 34086 34089 34092 34095 34098 34101 34104 34107 34110 34113 34116 34119 34122 34125 34128 34131 34134 34137 34140 34143 34146 34149 34152 34155 34158 34161 34164 34167 34170 34173 34176 34179 34182 34185 34188 34191 34194 34197 34200 34203 34206 34209 34212 34215 34218 34221 34224 34227 34230 34233 34236 34239 34242 34245 34248 34251 34254 34257 34260 34263 34266 34269 34272 34275 34278 34281 34284 34287 34290 34293 34296 34299 34302 34305 34308 34311 34314 34317 34320 34323 34326 34329 34332 34335 34338 34341 34344 34347 34350 34353 34356 34359 34362 34365 34368 34371 34374 34377 34380 34383 34386 34389 34392 34395 34398 34401 34404 34407 34410 34413 34416 34419 34422 34425 34428 34431 34434 34437 34440 34443 34446 34449 34452 34455 34458 34461 34464 34467 34470 34473 34476 34479 34482 34485 34488 34491 34494 34497 34500 34503 34506 34509 34512 34515 34518 34521 34524 34527 34530 34533 34536 34539 34542 34545 34548 34551 34554 34557 34560 34563 34566 34569 34572 34575 34578 34581 34584 34587 34590 34593 34596 34599 34602 34605 34608 34611 34614 34617 34620 34623 34626 34629 34632 34635 34638 34641 34644 34647 34650 34653 34656 34659 34662 34665 34668 34671 34674 34677 34680 34683 34686 34689 34692 34695 34698 34701 34704 34707 34710 34713 34716 34719 34722 34725 34728 34731 34734 34737 34740 34743 34746 34749 34752 34755 34758 34761 34764 34767 34770 34773 34776 34779 34782 34785 34788 34791 34794 34797 34800 34803 34806 34809 34812 34815 34818 34821 34824 34827 34830 34833 34836 34839 34842 34845 34848 34851 34854 34857 34860 34863 34866 34869 34872 34875 34878 34881 34884 34887 34890 34893 34896 34899 34902 34905 34908 34911 34914 34917 34920 34923 34926 34929 34932 34935 34938 34941 34944 34947 34950 34953 34956 34959 34962 34965 34968 34971 34974 34977 34980 34983 34986 34989 34992 34995 34998 35001 35004 35007 35010 35013 35016 35019 35022 35025 35028 35031 35034 35037 35040 35043 35046 35049 35052 35055 35058 35061 35064 35067 35070 35073 35076 35079 35082 35085 35088 35091 35094 35097 35100 35103 35106 35109 35112 35115 35118 35121 35124 35127 35130 35133 35136 35139 35142 35145 35148 35151 35154 35157 35160 35163 35166 35169 35172 35175 35178 35181 35184 35187 35190 35193 35196 35199 35202 35205 35208 35211 35214 35217 35220 35223 35226 35229 35232 35235 35238 35241 35244 35247 35250 35253 35256 35259 35262 35265 35268 35271 35274 35277 35280 35283 35286 35289 35292 35295 35298 35301 35304 35307 35310 35313 35316 35319 35322 35325 35328 35331 35334 35337 35340 35343 35346 35349 35352 35355 35358 35361 35364 35367 35370 35373 35376 35379 35382 35385 35388 35391 35394 35397 35400 35403 35406 35409 35412 35415 35418 35421 35424 35427 35430 35433 35436 35439 35442 35445 35448 35451 35454 35457 35460 35463 35466 35469 35472 35475 35478 35481 35484 35487 35490 35493 35496 35499 35502 35505 35508 35511 35514 35517 35520 35523 35526 35529 35532 35535 35538 35541 35544 35547 35550 35553 35556 35559 35562 35565 35568 35571 35574 35577 35580 35583 35586 35589 35592 35595 35598 35601 35604 35607 35610 35613 35616 35619 35622 35625 35628 35631 35634 35637 35640 35643 35646 35649 35652 35655 35658 35661 35664 35667 35670 35673 35676 35679 35682 35685 35688 35691 35694 35697 35700 35703 35706 35709 35712 35715 35718 35721 35724 35727 35730 35733 35736 35739 35742 35745 35748 35751 35754 35757 35760 35763 35766 35769 35772 35775 35778 35781 35784 35787 35790 35793 35796 35799 35802 35805 35808 35811 35814 35817 35820 35823 35826 35829 35832 35835 35838 35841 35844 35847 35850 35853 35856 35859 35862 35865 35868 35871 35874 35877 35880 35883 35886 35889 35892 35895 35898 35901 35904 35907 35910 35913 35916 35919 35922 35925 35928 35931 35934 35937 35940 35943 35946 35949 35952 35955 35958 35961 35964 35967 35970 35973 35976 35979 35982 35985 35988 35991 35994 35997 36000 36003 36006 36009 36012 36015 36018 36021 36024 36027 36030 36033 36036 36039 36042 36045 36048 36051 36054 36057 36060 36063 36066 36069 36072 36075 36078 36081 36084 36087 36090 36093 36096 36099 36102 36105 36108 36111 36114 36117 36120 36123 36126 36129 36132 36135 36138 36141 36144 36147 36150 36153 36156 36159 36162 36165 36168 36171 36174 36177 36180 36183 36186 36189 36192 36195 36198 36201 36204 36207 36210 36213 36216 36219 36222 36225 36228 36231 36234 36237 36240 36243 36246 36249 36252 36255 36258 36261 36264 36267 36270 36273 36276 36279 36282 36285 36288 36291 36294 36297 36300 36303 36306 36309 36312 36315 36318 36321 36324 36327 36330 36333 36336 36339 36342 36345 36348 36351 36354 36357 36360 36363 36366 36369 36372 36375 36378 36381 36384 36387 36390 36393 36396 36399 36402 36405 36408 36411 36414 36417 36420 36423 36426 36429 36432 36435 36438 36441 36444 36447 36450 36453 36456 36459 36462 36465 36468 36471 36474 36477 36480 36483 36486 36489 36492 36495 36498 36501 36504 36507 36510 36513 36516 36519 36522 36525 36528 36531 36534 36537 36540 36543 36546 36549 36552 36555 36558 36561 36564 36567 36570 36573 36576 36579 36582 36585 36588 36591 36594 36597 36600 36603 36606 36609 36612 36615 36618 36621 36624 36627 36630 36633 36636 36639 36642 36645 36648 36651 36654 36657 36660 36663 36666 36669 36672 36675 36678 36681 36684 36687 36690 36693 36696 36699 36702 36705 36708 36711 36714 36717 36720 36723 36726 36729 36732 36735 36738 36741 36744 36747 36750 36753 36756 36759 36762 36765 36768 36771 36774 36777 36780 36783 36786 36789 36792 36795 36798 36801 36804 36807 36810 36813 36816 36819 36822 36825 36828 36831 36834 36837 36840 36843 36846 36849 36852 36855 36858 36861 36864 36867 36870 36873 36876 36879 36882 36885 36888 36891 36894 36897 36900 36903 36906 36909 36912 36915 36918 36921 36924 36927 36930 36933 36936 36939 36942 36945 36948 36951 36954 36957 36960 36963 36966 36969 36972 36975 36978 36981 36984 36987 36990 36993 36996 36999 37002 37005 37008 37011 37014 37017 37020 37023 37026 37029 37032 37035 37038 37041 37044 37047 37050 37053 37056 37059 37062 37065 37068 37071 37074 37077 37080 37083 37086 37089 37092 37095 37098 37101 37104 37107 37110 37113 37116 37119 37122 37125 37128 37131 37134 37137 37140 37143 37146 37149 37152 37155 37158 37161 37164 37167 37170 37173 37176 37179 37182 37185 37188 37191 37194 37197 37200 37203 37206 37209 37212 37215 37218 37221 37224 37227 37230 37233 37236 37239 37242 37245 37248 37251 37254 37257 37260 37263 37266 37269 37272 37275 37278 37281 37284 37287 37290 37293 37296 37299 37302 37305 37308 37311 37314 37317 37320 37323 37326 37329 37332 37335 37338 37341 37344 37347 37350 37353 37356 37359 37362 37365 37368 37371 37374 37377 37380 37383 37386 37389 37392 37395 37398 37401 37404 37407 37410 37413 37416 37419 37422 37425 37428 37431 37434 37437 37440 37443 37446 37449 37452 37455 37458 37461 37464 37467 37470 37473 37476 37479 37482 37485 37488 37491 37494 37497 37500 37503 37506 37509 37512 37515 37518 37521 37524 37527 37530 37533 37536 37539 37542 37545 37548 37551 37554 37557 37560 37563 37566 37569 37572 37575 37578 37581 37584 37587 37590 37593 37596 37599 37602 37605 37608 37611 37614 37617 37620 37623 37626 37629 37632 37635 37638 37641 37644 37647 37650 37653 37656 37659 37662 37665 37668 37671 37674 37677 37680 37683 37686 37689 37692 37695 37698 37701 37704 37707 37710 37713 37716 37719 37722 37725 37728 37731 37734 37737 37740 37743 37746 37749 37752 37755 37758 37761 37764 37767 37770 37773 37776 37779 37782 37785 37788 37791 37794 37797 37800 37803 37806 37809 37812 37815 37818 37821 37824 37827 37830 37833 37836 37839 37842 37845 37848 37851 37854 37857 37860 37863 37866 37869 37872 37875 37878 37881 37884 37887 37890 37893 37896 37899 37902 37905 37908 37911 37914 37917 37920 37923 37926 37929 37932 37935 37938 37941 37944 37947 37950 37953 37956 37959 37962 37965 37968 37971 37974 37977 37980 37983 37986 37989 37992 37995 37998 38001 38004 38007 38010 38013 38016 38019 38022 38025 38028 38031 38034 38037 38040 38043 38046 38049 38052 38055 38058 38061 38064 38067 38070 38073 38076 38079 38082 38085 38088 38091 38094 38097 38100 38103 38106 38109 38112 38115 38118 38121 38124 38127 38130 38133 38136 38139 38142 38145 38148 38151 38154 38157 38160 38163 38166 38169 38172 38175 38178 38181 38184 38187 38190 38193 38196 38199 38202 38205 38208 38211 38214 38217 38220 38223 38226 38229 38232 38235 38238 38241 38244 38247 38250 38253 38256 38259 38262 38265 38268 38271 38274 38277 38280 38283 38286 38289 38292 38295 38298 38301 38304 38307 38310 38313 38316 38319 38322 38325 38328 38331 38334 38337 38340 38343 38346 38349 38352 38355 38358 38361 38364 38367 38370 38373 38376 38379 38382 38385 38388 38391 38394 38397 38400 38403 38406 38409 38412 38415 38418 38421 38424 38427 38430 38433 38436 38439 38442 38445 38448 38451 38454 38457 38460 38463 38466 38469 38472 38475 38478 38481 38484 38487 38490 38493 38496 38499 38502 38505 38508 38511 38514 38517 38520 38523 38526 38529 38532 38535 38538 38541 38544 38547 38550 38553 38556 38559 38562 38565 38568 38571 38574 38577 38580 38583 38586 38589 38592 38595 38598 38601 38604 38607 38610 38613 38616 38619 38622 38625 38628 38631 38634 38637 38640 38643 38646 38649 38652 38655 38658 38661 38664 38667 38670 38673 38676 38679 38682 38685 38688 38691 38694 38697 38700 38703 38706 38709 38712 38715 38718 38721 38724 38727 38730 38733 38736 38739 38742 38745 38748 38751 38754 38757 38760 38763 38766 38769 38772 38775 38778 38781 38784 38787 38790 38793 38796 38799 38802 38805 38808 38811 38814 38817 38820 38823 38826 38829 38832 38835 38838 38841 38844 38847 38850 38853 38856 38859 38862 38865 38868 38871 38874 38877 38880 38883 38886 38889 38892 38895 38898 38901 38904 38907 38910 38913 38916 38919 38922 38925 38928 38931 38934 38937 38940 38943 38946 38949 38952 38955 38958 38961 38964 38967 38970 38973 38976 38979 38982 38985 38988 38991 38994 38997 39000 39003 39006 39009 39012 39015 39018 39021 39024 39027 39030 39033 39036 39039 39042 39045 39048 39051 39054 39057 39060 39063 39066 39069 39072 39075 39078 39081 39084 39087 39090 39093 39096 39099 39102 39105 39108 39111 39114 39117 39120 39123 39126 39129 39132 39135 39138 39141 39144 39147 39150 39153 39156 39159 39162 39165 39168 39171 39174 39177 39180 39183 39186 39189 39192 39195 39198 39201 39204 39207 39210 39213 39216 39219 39222 39225 39228 39231 39234 39237 39240 39243 39246 39249 39252 39255 39258 39261 39264 39267 39270 39273 39276 39279 39282 39285 39288 39291 39294 39297 39300 39303 39306 39309 39312 39315 39318 39321 39324 39327 39330 39333 39336 39339 39342 39345 39348 39351 39354 39357 39360 39363 39366 39369 39372 39375 39378 39381 39384 39387 39390 39393 39396 39399 39402 39405 39408 39411 39414 39417 39420 39423 39426 39429 39432 39435 39438 39441 39444 39447 39450 39453 39456 39459 39462 39465 39468 39471 39474 39477 39480 39483 39486 39489 39492 39495 39498 39501 39504 39507 39510 39513 39516 39519 39522 39525 39528 39531 39534 39537 39540 39543 39546 39549 39552 39555 39558 39561 39564 39567 39570 39573 39576 39579 39582 39585 39588 39591 39594 39597 39600 39603 39606 39609 39612 39615 39618 39621 39624 39627 39630 39633 39636 39639 39642 39645 39648 39651 39654 39657 39660 39663 39666 39669 39672 39675 39678 39681 39684 39687 39690 39693 39696 39699 39702 39705 39708 39711 39714 39717 39720 39723 39726 39729 39732 39735 39738 39741 39744 39747 39750 39753 39756 39759 39762 39765 39768 39771 39774 39777 39780 39783 39786 39789 39792 39795 39798 39801 39804 39807 39810 39813 39816 39819 39822 39825 39828 39831 39834 39837 39840 39843 39846 39849 39852 39855 39858 39861 39864 39867 39870 39873 39876 39879 39882 39885 39888 39891 39894 39897 39900 39903 39906 39909 39912 39915 39918 39921 39924 39927 39930 39933 39936 39939 39942 39945 39948 39951 39954 39957 39960 39963 39966 39969 39972 39975 39978 39981 39984 39987 39990 39993 39996 39999 40002 40005 40008 40011 40014 40017 40020 40023 40026 40029 40032 40035 40038 40041 40044 40047 40050 40053 40056 40059 40062 40065 40068 40071 40074 40077 40080 40083 40086 40089 40092 40095 40098 40101 40104 40107 40110 40113 40116 40119 40122 40125 40128 40131 40134 40137 40140 40143 40146 40149 40152 40155 40158 40161 40164 40167 40170 40173 40176 40179 40182 40185 40188 40191 40194 40197 40200 40203 40206 40209 40212 40215 40218 40221 40224 40227 40230 40233 40236 40239 40242 40245 40248 40251 40254 40257 40260 40263 40266 40269 40272 40275 40278 40281 40284 40287 40290 40293 40296 40299 40302 40305 40308 40311 40314 40317 40320 40323 40326 40329 40332 40335 40338 40341 40344 40347 40350 40353 40356 40359 40362 40365 40368 40371 40374 40377 40380 40383 40386 40389 40392 40395 40398 40401 40404 40407 40410 40413 40416 40419 40422 40425 40428 40431 40434 40437 40440 40443 40446 40449 40452 40455 40458 40461 40464 40467 40470 40473 40476 40479 40482 40485 40488 40491 40494 40497 40500 40503 40506 40509 40512 40515 40518 40521 40524 40527 40530 40533 40536 40539 40542 40545 40548 40551 40554 40557 40560 40563 40566 40569 40572 40575 40578 40581 40584 40587 40590 40593 40596 40599 40602 40605 40608 40611 40614 40617 40620 40623 40626 40629 40632 40635 40638 40641 40644 40647 40650 40653 40656 40659 40662 40665 40668 40671 40674 40677 40680 40683 40686 40689 40692 40695 40698 40701 40704 40707 40710 40713 40716 40719 40722 40725 40728 40731 40734 40737 40740 40743 40746 40749 40752 40755 40758 40761 40764 40767 40770 40773 40776 40779 40782 40785 40788 40791 40794 40797 40800 40803 40806 40809 40812 40815 40818 40821 40824 40827 40830 40833 40836 40839 40842 40845 40848 40851 40854 40857 40860 40863 40866 40869 40872 40875 40878 40881 40884 40887 40890 40893 40896 40899 40902 40905 40908 40911 40914 40917 40920 40923 40926 40929 40932 40935 40938 40941 40944 40947 40950 40953 40956 40959 40962 40965 40968 40971 40974 40977 40980 40983 40986 40989 40992 40995 40998 41001 41004 41007 41010 41013 41016 41019 41022 41025 41028 41031 41034 41037 41040 41043 41046 41049 41052 41055 41058 41061 41064 41067 41070 41073 41076 41079 41082 41085 41088 41091 41094 41097 41100 41103 41106 41109 41112 41115 41118 41121 41124 41127 41130 41133 41136 41139 41142 41145 41148 41151 41154 41157 41160 41163 41166 41169 41172 41175 41178 41181 41184 41187 41190 41193 41196 41199 41202 41205 41208 41211 41214 41217 41220 41223 41226 41229 41232 41235 41238 41241 41244 41247 41250 41253 41256 41259 41262 41265 41268 41271 41274 41277 41280 41283 41286 41289 41292 41295 41298 41301 41304 41307 41310 41313 41316 41319 41322 41325 41328 41331 41334 41337 41340 41343 41346 41349 41352 41355 41358 41361 41364 41367 41370 41373 41376 41379 41382 41385 41388 41391 41394 41397 41400 41403 41406 41409 41412 </DataArray>
        <DataArray type="Int8" Name="types" format="ascii">69 69 69 69 69 69 69 69 69 69 69 69 69 69 69 69 69 69 69 69 69 69 69 69 69 69 69 69 69 69 69 69 69 69 69 69 69 69 69 69 69 69 69 69 69 69 69 69 69 69 69 69 69 69 69 69 69 69 69 69 69 69 69 69 69 69 69 69 69 69 69 69 69 69 69 69 69 69 69 69 69 69 69 69 69 69 69 69 69 69 69 69 69 69 69 69 69 69 69 69 69 69 69 69 69 69 69 69 69 69 69 69 69 69 69 69 69 69 69 69 69 69 69 69 69 69 69 69 69 69 69 69 69 69 69 69 69 69 69 69 69 69 69 69 69 69 69 69 69 69 69 69 69 69 69 69 69 69 69 69 69 69 69 69 69 69 69 69 69 69 69 69 69 69 69 69 69 69 69 69 69 69 69 69 69 69 69 69 69 69 69 69 69 69 69 69 69 69 69 69 69 69 69 69 69 69 69 69 69 69 69 69 69 69 69 69 69 69 69 69 69 69 69 69 69 69 69 69 69 69 69 69 69 69 69 69 69 69 69 69 69 69 69 69 69 69 69 69 69 69 69 69 69 69 69 69 69 69 69 69 69 69 69 69 69 69 69 69 69 69 69 69 69 69 69 69 69 69 69 69 69 69 69 69 69 69 69 69 69 69 69 69 69 69 69 69 69 69 69 69 69 69 69 69 69 69 69 69 69 69 69 69 69 69 69 69 69 69 69 69 69 69 69 69 69 69 69 69 69 69 69 69 69 69 69 69 69 69 69 69 69 69 69 69 69 69 69 69 69 69 69 69 69 69 69 69 69 69 69 69 69 69 69 69 69 69 69 69 69 69 69 69 69 69 69 69 69 69 69 69 69 69 69 69 69 69 69 69 69 69 69 69 69 69 69 69 69 69 69 69 69 69 69 69 69 69 69 69 69 69 69 69 69 69 69 69 69 69 69 69 69 69 69 69 69 69 69 69 69 69 69 69 69 69 69 69 69 69 69 69 69 69 69 69 69 69 69 69 69 69 69 69 69 69 69 69 69 69 69 69 69 69 69 69 69 69 69 69 69 69 69 69 69 69 69 69 69 69 69 69 69 69 69 69 69 69 69 69 69 69 69 69 69 69 69 69 69 69 69 69 69 69 69 69 69 69 69 69 69 69 69 69 69 69 69 69 69 69 69 69 69 69 69 69 69 69 69 69 69 69 69 69 69 69 69 69 69 69 69 69 69 69 69 69 69 69 69 69 69 69 69 69 69 69 69 69 69 69 69 69 69 69 69 69 69 69 69 69 69 69 69 69 69 69 69 69 69 69 69 69 69 69 69 69 69 69 69 69 69 69 69 69 69 69 69 69 69 69 69 69 69 69 69 69 69 69 69 69 69 69 69 69 69 69 69 69 69 69 69 69 69 69 69 69 69 69 69 69 69 69 69 69 69 69 69 69 69 69 69 69 69 69 69 69 69 69 69 69 69 69 69 69 69 69 69 69 69 69 69 69 69 69 69 69 69 69 69 69 69 69 69 69 69 69 69 69 69 69 69 69 69 69 69 69 69 69 69 69 69 69 69 69 69 69 69 69 69 69 69 69 69 69 69 69 69 69 69 69 69 69 69 69 69 69 69 69 69 69 69 69 69 69 69 69 69 69 69 69 69 69 69 69 69 69 69 69 69 69 69 69 69 69 69 69 69 69 69 69 69 69 69 69 69 69 69 69 69 69 69 69 69 69 69 69 69 69 69 69 69 69 69 69 69 69 69 69 69 69 69 69 69 69 69 69 69 69 69 69 69 69 69 69 69 69 69 69 69 69 69 69 69 69 69 69 69 69 69 69 69 69 69 69 69 69 69 69 69 69 69 69 69 69 69 69 69 69 69 69 69 69 69 69 69 69 69 69 69 69 69 69 69 69 69 69 69 69 69 69 69 69 69 69 69 69 69 69 69 69 69 69 69 69 69 69 69 69 69 69 69 69 69 69 69 69 69 69 69 69 69 69 69 69 69 69 69 69 69 69 69 69 69 69 69 69 69 69 69 69 69 69 69 69 69 69 69 69 69 69 69 69 69 69 69 69 69 69 69 69 69 69 69 69 69 69 69 69 69 69 69 69 69 69 69 69 69 69 69 69 69 69 69 69 69 69 69 69 69 69 69 69 69 69 69 69 69 69 69 69 69 69 69 69 69 69 69 69 69 69 69 69 69 69 69 69 69 69 69 69 69 69 69 69 69 69 69 69 69 69 69 69 69 69 69 69 69 69 69 69 69 69 69 69 69 69 69 69 69 69 69 69 69 69 69 69 69 69 69 69 69 69 69 69 69 69 69 69 69 69 69 69 69 69 69 69 69 69 69 69 69 69 69 69 69 69 69 69 69 69 69 69 69 69 69 69 69 69 69 69 69 69 69 69 69 69 69 69 69 69 69 69 69 69 69 69 69 69 69 69 69 69 69 69 69 69 69 69 69 69 69 69 69 69 69 69 69 69 69 69 69 69 69 69 69 69 69 69 69 69 69 69 69 69 69 69 69 69 69 69 69 69 69 69 69 69 69 69 69 69 69 69 69 69 69 69 69 69 69 69 69 69 69 69 69 69 69 69 69 69 69 69 69 69 69 69 69 69 69 69 69 69 69 69 69 69 69 69 69 69 69 69 69 69 69 69 69 69 69 69 69 69 69 69 69 69 69 69 69 69 69 69 69 69 69 69 69 69 69 69 69 69 69 69 69 69 69 69 69 69 69 69 69 69 69 69 69 69 69 69 69 69 69 69 69 69 69 69 69 69 69 69 69 69 69 69 69 69 69 69 69 69 69 69 69 69 69 69 69 69 69 69 69 69 69 69 69 69 69 69 69 69 69 69 69 69 69 69 69 69 69 69 69 69 69 69 69 69 69 69 69 69 69 69 69 69 69 69 69 69 69 69 69 69 69 69 69 69 69 69 69 69 69 69 69 69 69 69 69 69 69 69 69 69 69 69 69 69 69 69 69 69 69 69 69 69 69 69 69 69 69 69 69 69 69 69 69 69 69 69 69 69 69 69 69 69 69 69 69 69 69 69 69 69 69 69 69 69 69 69 69 69 69 69 69 69 69 69 69 69 69 69 69 69 69 69 69 69 69 69 69 69 69 69 69 69 69 69 69 69 69 69 69 69 69 69 69 69 69 69 69 69 69 69 69 69 69 69 69 69 69 69 69 69 69 69 69 69 69 69 69 69 69 69 69 69 69 69 69 69 69 69 69 69 69 69 69 69 69 69 69 69 69 69 69 69 69 69 69 69 69 69 69 69 69 69 69 69 69 69 69 69 69 69 69 69 69 69 69 69 69 69 69 69 69 69 69 69 69 69 69 69 69 69 69 69 69 69 69 69 69 69 69 69 69 69 69 69 69 69 69 69 69 69 69 69 69 69 69 69 69 69 69 69 69 69 69 69 69 69 69 69 69 69 69 69 69 69 69 69 69 69 69 69 69 69 69 69 69 69 69 69 69 69 69 69 69 69 69 69 69 69 69 69 69 69 69 69 69 69 69 69 69 69 69 69 69 69 69 69 69 69 69 69 69 69 69 69 69 69 69 69 69 69 69 69 69 69 69 69 69 69 69 69 69 69 69 69 69 69 69 69 69 69 69 69 69 69 69 69 69 69 69 69 69 69 69 69 69 69 69 69 69 69 69 69 69 69 69 69 69 69 69 69 69 69 69 69 69 69 69 69 69 69 69 69 69 69 69 69 69 69 69 69 69 69 69 69 69 69 69 69 69 69 69 69 69 69 69 69 69 69 69 69 69 69 69 69 69 69 69 69 69 69 69 69 69 69 69 69 69 69 69 69 69 69 69 69 69 69 69 69 69 69 69 69 69 69 69 69 69 69 69 69 69 69 69 69 69 69 69 69 69 69 69 69 69 69 69 69 69 69 69 69 69 69 69 69 69 69 69 69 69 69 69 69 69 69 69 69 69 69 69 69 69 69 69 69 69 69 69 69 69 69 69 69 69 69 69 69 69 69 69 69 69 69 69 69 69 69 69 69 69 69 69 69 69 69 69 69 69 69 69 69 69 69 69 69 69 69 69 69 69 69 69 69 69 69 69 69 69 69 69 69 69 69 69 69 69 69 69 69 69 69 69 69 69 69 69 69 69 69 69 69 69 69 69 69 69 69 69 69 69 69 69 69 69 69 69 69 69 69 69 69 69 69 69 69 69 69 69 69 69 69 69 69 69 69 69 69 69 69 69 69 69 69 69 69 69 69 69 69 69 69 69 69 69 69 69 69 69 69 69 69 69 69 69 69 69 69 69 69 69 69 69 69 69 69 69 69 69 69 69 69 69 69 69 69 69 69 69 69 69 69 69 69 69 69 69 69 69 69 69 69 69 69 69 69 69 69 69 69 69 69 69 69 69 69 69 69 69 69 69 69 69 69 69 69 69 69 69 69 69 69 69 69 69 69 69 69 69 69 69 69 69 69 69 69 69 69 69 69 69 69 69 69 69 69 69 69 69 69 69 69 69 69 69 69 69 69 69 69 69 69 69 69 69 69 69 69 69 69 69 69 69 69 69 69 69 69 69 69 69 69 69 69 69 69 69 69 69 69 69 69 69 69 69 69 69 69 69 69 69 69 69 69 69 69 69 69 69 69 69 69 69 69 69 69 69 69 69 69 69 69 69 69 69 69 69 69 69 69 69 69 69 69 69 69 69 69 69 69 69 69 69 69 69 69 69 69 69 69 69 69 69 69 69 69 69 69 69 69 69 69 69 69 69 69 69 69 69 69 69 69 69 69 69 69 69 69 69 69 69 69 69 69 69 69 69 69 69 69 69 69 69 69 69 69 69 69 69 69 69 69 69 69 69 69 69 69 69 69 69 69 69 69 69 69 69 69 69 69 69 69 69 69 69 69 69 69 69 69 69 69 69 69 69 69 69 69 69 69 69 69 69 69 69 69 69 69 69 69 69 69 69 69 69 69 69 69 69 69 69 69 69 69 69 69 69 69 69 69 69 69 69 69 69 69 69 69 69 69 69 69 69 69 69 69 69 69 69 69 69 69 69 69 69 69 69 69 69 69 69 69 69 69 69 69 69 69 69 69 69 69 69 69 69 69 69 69 69 69 69 69 69 69 69 69 69 69 69 69 69 69 69 69 69 69 69 69 69 69 69 69 69 69 69 69 69 69 69 69 69 69 69 69 69 69 69 69 69 69 69 69 69 69 69 69 69 69 69 69 69 69 69 69 69 69 69 69 69 69 69 69 69 69 69 69 69 69 69 69 69 69 69 69 69 69 69 69 69 69 69 69 69 69 69 69 69 69 69 69 69 69 69 69 69 69 69 69 69 69 69 69 69 69 69 69 69 69 69 69 69 69 69 69 69 69 69 69 69 69 69 69 69 69 69 69 69 69 69 69 69 69 69 69 69 69 69 69 69 69 69 69 69 69 69 69 69 69 69 69 69 69 69 69 69 69 69 69 69 69 69 69 69 69 69 69 69 69 69 69 69 69 69 69 69 69 69 69 69 69 69 69 69 69 69 69 69 69 69 69 69 69 69 69 69 69 69 69 69 69 69 69 69 69 69 69 69 69 69 69 69 69 69 69 69 69 69 69 69 69 69 69 69 69 69 69 69 69 69 69 69 69 69 69 69 69 69 69 69 69 69 69 69 69 69 69 69 69 69 69 69 69 69 69 69 69 69 69 69 69 69 69 69 69 69 69 69 69 69 69 69 69 69 69 69 69 69 69 69 69 69 69 69 69 69 69 69 69 69 69 69 69 69 69 69 69 69 69 69 69 69 69 69 69 69 69 69 69 69 69 69 69 69 69 69 69 69 69 69 69 69 69 69 69 69 69 69 69 69 69 69 69 69 69 69 69 69 69 69 69 69 69 69 69 69 69 69 69 69 69 69 69 69 69 69 69 69 69 69 69 69 69 69 69 69 69 69 69 69 69 69 69 69 69 69 69 69 69 69 69 69 69 69 69 69 69 69 69 69 69 69 69 69 69 69 69 69 69 69 69 69 69 69 69 69 69 69 69 69 69 69 69 69 69 69 69 69 69 69 69 69 69 69 69 69 69 69 69 69 69 69 69 69 69 69 69 69 69 69 69 69 69 69 69 69 69 69 69 69 69 69 69 69 69 69 69 69 69 69 69 69 69 69 69 69 69 69 69 69 69 69 69 69 69 69 69 69 69 69 69 69 69 69 69 69 69 69 69 69 69 69 69 69 69 69 69 69 69 69 69 69 69 69 69 69 69 69 69 69 69 69 69 69 69 69 69 69 69 69 69 69 69 69 69 69 69 69 69 69 69 69 69 69 69 69 69 69 69 69 69 69 69 69 69 69 69 69 69 69 69 69 69 69 69 69 69 69 69 69 69 69 69 69 69 69 69 69 69 69 69 69 69 69 69 69 69 69 69 69 69 69 69 69 69 69 69 69 69 69 69 69 69 69 69 69 69 69 69 69 69 69 69 69 69 69 69 69 69 69 69 69 69 69 69 69 69 69 69 69 69 69 69 69 69 69 69 69 69 69 69 69 69 69 69 69 69 69 69 69 69 69 69 69 69 69 69 69 69 69 69 69 69 69 69 69 69 69 69 69 69 69 69 69 69 69 69 69 69 69 69 69 69 69 69 69 69 69 69 69 69 69 69 69 69 69 69 69 69 69 69 69 69 69 69 69 69 69 69 69 69 69 69 69 69 69 69 69 69 69 69 69 69 69 69 69 69 69 69 69 69 69 69 69 69 69 69 69 69 69 69 69 69 69 69 69 69 69 69 69 69 69 69 69 69 69 69 69 69 69 69 69 69 69 69 69 69 69 69 69 69 69 69 69 69 69 69 69 69 69 69 69 69 69 69 69 69 69 69 69 69 69 69 69 69 69 69 69 69 69 69 69 69 69 69 69 69 69 69 69 69 69 69 69 69 69 69 69 69 69 69 69 69 69 69 69 69 69 69 69 69 69 69 69 69 69 69 69 69 69 69 69 69 69 69 69 69 69 69 69 69 69 69 69 69 69 69 69 69 69 69 69 69 69 69 69 69 69 69 69 69 69 69 69 69 69 69 69 69 69 69 69 69 69 69 69 69 69 69 69 69 69 69 69 69 69 69 69 69 69 69 69 69 69 69 69 69 69 69 69 69 69 69 69 69 69 69 69 69 69 69 69 69 69 69 69 69 69 69 69 69 69 69 69 69 69 69 69 69 69 69 69 69 69 69 69 69 69 69 69 69 69 69 69 69 69 69 69 69 69 69 69 69 69 69 69 69 69 69 69 69 69 69 69 69 69 69 69 69 69 69 69 69 69 69 69 69 69 69 69 69 69 69 69 69 69 69 69 69 69 69 69 69 69 69 69 69 69 69 69 69 69 69 69 69 69 69 69 69 69 69 69 69 69 69 69 69 69 69 69 69 69 69 69 69 69 69 69 69 69 69 69 69 69 69 69 69 69 69 69 69 69 69 69 69 69 69 69 69 69 69 69 69 69 69 69 69 69 69 69 69 69 69 69 69 69 69 69 69 69 69 69 69 69 69 69 69 69 69 69 69 69 69 69 69 69 69 69 69 69 69 69 69 69 69 69 69 69 69 69 69 69 69 69 69 69 69 69 69 69 69 69 69 69 69 69 69 69 69 69 69 69 69 69 69 69 69 69 69 69 69 69 69 69 69 69 69 69 69 69 69 69 69 69 69 69 69 69 69 69 69 69 69 69 69 69 69 69 69 69 69 69 69 69 69 69 69 69 69 69 69 69 69 69 69 69 69 69 69 69 69 69 69 69 69 69 69 69 69 69 69 69 69 69 69 69 69 69 69 69 69 69 69 69 69 69 69 69 69 69 69 69 69 69 69 69 69 69 69 69 69 69 69 69 69 69 69 69 69 69 69 69 69 69 69 69 69 69 69 69 69 69 69 69 69 69 69 69 69 69 69 69 69 69 69 69 69 69 69 69 69 69 69 69 69 69 69 69 69 69 69 69 69 69 69 69 69 69 69 69 69 69 69 69 69 69 69 69 69 69 69 69 69 69 69 69 69 69 69 69 69 69 69 69 69 69 69 69 69 69 69 69 69 69 69 69 69 69 69 69 69 69 69 69 69 69 69 69 69 69 69 69 69 69 69 69 69 69 69 69 69 69 69 69 69 69 69 69 69 69 69 69 69 69 69 69 69 69 69 69 69 69 69 69 69 69 69 69 69 69 69 69 69 69 69 69 69 69 69 69 69 69 69 69 69 69 69 69 69 69 69 69 69 69 69 69 69 69 69 69 69 69 69 69 69 69 69 69 69 69 69 69 69 69 69 69 69 69 69 69 69 69 69 69 69 69 69 69 69 69 69 69 69 69 69 69 69 69 69 69 69 69 69 69 69 69 69 69 69 69 69 69 69 69 69 69 69 69 69 69 69 69 69 69 69 69 69 69 69 69 69 69 69 69 69 69 69 69 69 69 69 69 69 69 69 69 69 69 69 69 69 69 69 69 69 69 69 69 69 69 69 69 69 69 69 69 69 69 69 69 69 69 69 69 69 69 69 69 69 69 69 69 69 69 69 69 69 69 69 69 69 69 69 69 69 69 69 69 69 69 69 69 69 69 69 69 69 69 69 69 69 69 69 69 69 69 69 69 69 69 69 69 69 69 69 69 69 69 69 69 69 69 69 69 69 69 69 69 69 69 69 69 69 69 69 69 69 69 69 69 69 69 69 69 69 69 69 69 69 69 69 69 69 69 69 69 69 69 69 69 69 69 69 69 69 69 69 69 69 69 69 69 69 69 69 69 69 69 69 69 69 69 69 69 69 69 69 69 69 69 69 69 69 69 69 69 69 69 69 69 69 69 69 69 69 69 69 69 69 69 69 69 69 69 69 69 69 69 69 69 69 69 69 69 69 69 69 69 69 69 69 69 69 69 69 69 69 69 69 69 69 69 69 69 69 69 69 69 69 69 69 69 69 69 69 69 69 69 69 69 69 69 69 69 69 69 69 69 69 69 69 69 69 69 69 69 69 69 69 69 69 69 69 69 69 69 69 69 69 69 69 69 69 69 69 69 69 69 69 69 69 69 69 69 69 69 69 69 69 69 69 69 69 69 69 69 69 69 69 69 69 69 69 69 69 69 69 69 69 69 69 69 69 69 69 69 69 69 69 69 69 69 69 69 69 69 69 69 69 69 69 69 69 69 69 69 69 69 69 69 69 69 69 69 69 69 69 69 69 69 69 69 69 69 69 69 69 69 69 69 69 69 69 69 69 69 69 69 69 69 69 69 69 69 69 69 69 69 69 69 69 69 69 69 69 69 69 69 69 69 69 69 69 69 69 69 69 69 69 69 69 69 69 69 69 69 69 69 69 69 69 69 69 69 69 69 69 69 69 69 69 69 69 69 69 69 69 69 69 69 69 69 69 69 69 69 69 69 69 69 69 69 69 69 69 69 69 69 69 69 69 69 69 69 69 69 69 69 69 69 69 69 69 69 69 69 69 69 69 69 69 69 69 69 69 69 69 69 69 69 69 69 69 69 69 69 69 69 69 69 69 69 69 69 69 69 69 69 69 69 69 69 69 69 69 69 69 69 69 69 69 69 69 69 69 69 69 69 69 69 69 69 69 69 69 69 69 69 69 69 69 69 69 69 69 69 69 69 69 69 69 69 69 69 69 69 69 69 69 69 69 69 69 69 69 69 69 69 69 69 69 69 69 69 69 69 69 69 69 69 69 69 69 69 69 69 69 69 69 69 69 69 69 69 69 69 69 69 69 69 69 69 69 69 69 69 69 69 69 69 69 69 69 69 69 69 69 69 69 69 69 69 69 69 69 69 69 69 69 69 69 69 69 69 69 69 69 69 69 69 69 69 69 69 69 69 69 69 69 69 69 69 69 69 69 69 69 69 69 69 69 69 69 69 69 69 69 69 69 69 69 69 69 69 69 69 69 69 69 69 69 69 69 69 69 69 69 69 69 69 69 69 69 69 69 69 69 69 69 69 69 69 69 69 69 69 69 69 69 69 69 69 69 69 69 69 69 69 69 69 69 69 69 69 69 69 69 69 69 69 69 69 69 69 69 69 69 69 69 69 69 69 69 69 69 69 69 69 69 69 69 69 69 69 69 69 69 69 69 69 69 69 69 69 69 69 69 69 69 69 69 69 69 69 69 69 69 69 69 69 69 69 69 69 69 69 69 69 69 69 69 69 69 69 69 69 69 69 69 69 69 69 69 69 69 69 69 69 69 69 69 69 69 69 69 69 69 69 69 69 69 69 69 69 69 69 69 69 69 69 69 69 69 69 69 69 69 69 69 69 69 69 69 69 69 69 69 69 69 69 69 69 69 69 69 69 69 69 69 69 69 69 69 69 69 69 69 69 69 69 69 69 69 69 69 69 69 69 69 69 69 69 69 69 69 69 69 69 69 69 69 69 69 69 69 69 69 69 69 69 69 69 69 69 69 69 69 69 69 69 69 69 69 69 69 69 69 69 69 69 69 69 69 69 69 69 69 69 69 69 69 69 69 69 69 69 69 69 69 69 69 69 69 69 69 69 69 69 69 69 69 69 69 69 69 69 69 69 69 69 69 69 69 69 69 69 69 69 69 69 69 69 69 69 69 69 69 69 69 69 69 69 69 69 69 69 69 69 69 69 69 69 69 69 69 69 69 69 69 69 69 69 69 69 69 69 69 69 69 69 69 69 69 69 69 69 69 69 69 69 69 69 69 69 69 69 69 69 69 69 69 69 69 69 69 69 69 69 69 69 69 69 69 69 69 69 69 69 69 69 69 69 69 69 69 69 69 69 69 69 69 69 69 69 69 69 69 69 69 69 69 69 69 69 69 69 69 69 69 69 69 69 69 69 69 69 69 69 69 69 69 69 69 69 69 69 69 69 69 69 69 69 69 69 69 69 69 69 69 69 69 69 69 69 69 69 69 69 69 69 69 69 69 69 69 69 69 69 69 69 69 69 69 69 69 69 69 69 69 69 69 69 69 69 69 69 69 69 69 69 69 69 69 69 69 69 69 69 69 69 69 69 69 69 69 69 69 69 69 69 69 69 69 69 69 69 69 69 69 69 69 69 69 69 69 69 69 69 69 69 69 69 69 69 69 69 69 69 69 69 69 69 69 69 69 69 69 69 69 69 69 69 69 69 69 69 69 69 69 69 69 69 69 69 69 69 69 69 69 69 69 69 69 69 69 69 69 69 69 69 69 69 69 69 69 69 69 69 69 69 69 69 69 69 69 69 69 69 69 69 69 69 69 69 69 69 69 69 69 69 69 69 69 69 69 69 69 69 69 69 69 69 69 69 69 69 69 69 69 69 69 69 69 69 69 69 69 69 69 69 69 69 69 69 69 69 69 69 69 69 69 69 69 69 69 69 69 69 69 69 69 69 69 69 69 69 69 69 69 69 69 69 69 69 69 69 69 69 69 69 69 69 69 69 69 69 69 69 69 69 69 69 69 69 69 69 69 69 69 69 69 69 69 69 69 69 69 69 69 69 69 69 69 69 69 69 69 69 69 69 69 69 69 69 69 69 69 69 69 69 69 69 69 69 69 69 69 69 69 69 69 69 69 69 69 69 69 69 69 69 69 69 69 69 69 69 69 69 69 69 69 69 69 69 69 69 69 69 69 69 69 69 69 69 69 69 69 69 69 69 69 69 69 69 69 69 69 69 69 69 69 69 69 69 69 69 69 69 69 69 69 69 69 69 69 69 69 69 69 69 69 69 69 69 69 69 69 69 69 69 69 69 69 69 69 69 69 69 69 69 69 69 69 69 69 69 69 69 69 69 69 69 69 69 69 69 69 69 69 69 69 69 69 69 69 69 69 69 69 69 69 69 69 69 69 69 69 69 69 69 69 69 69 69 69 69 69 69 69 69 69 69 69 69 69 69 69 69 69 69 69 69 69 69 69 69 69 69 69 69 69 69 69 69 69 69 69 69 69 69 69 69 69 69 69 69 69 69 69 69 69 69 69 69 69 69 69 69 69 69 69 69 69 69 69 69 69 69 69 69 69 69 69 69 69 69 69 69 69 69 69 69 69 69 69 69 69 69 69 69 69 69 69 69 69 69 69 69 69 69 69 69 69 69 69 69 69 69 69 69 69 69 69 69 69 69 69 69 69 69 69 69 69 69 69 69 69 69 69 69 69 69 69 69 69 69 69 69 69 69 69 69 69 69 69 69 69 69 69 69 69 69 69 69 69 69 69 69 69 69 69 69 69 69 69 69 69 69 69 69 69 69 69 69 69 69 69 69 69 69 69 69 69 69 69 69 69 69 69 69 69 69 69 69 69 69 69 69 69 69 69 69 69 69 69 69 69 69 69 69 69 69 69 69 69 69 69 69 69 69 69 69 69 69 69 69 69 69 69 69 69 69 69 69 69 69 69 69 69 69 69 69 69 69 69 69 69 69 69 69 69 69 69 69 69 69 69 69 69 69 69 69 69 69 69 69 69 69 69 69 69 69 69 69 69 69 69 69 69 69 69 69 69 69 69 69 69 69 69 69 69 69 69 69 69 69 69 69 69 69 69 69 69 69 69 69 69 69 69 69 69 69 69 69 69 69 69 69 69 69 69 69 69 69 69 69 69 69 69 69 69 69 69 69 69 69 69 69 69 69 69 69 69 69 69 69 69 69 69 69 69 69 69 69 69 69 69 69 69 69 69 69 69 69 69 69 69 69 69 69 69 69 69 69 69 69 69 69 69 69 69 69 69 69 69 69 69 69 69 69 69 69 69 69 69 69 69 69 69 69 69 69 69 69 69 69 69 69 69 69 69 69 69 69 69 69 69 69 69 69 69 69 69 69 69 69 69 69 69 69 69 69 69 69 69 69 69 69 69 69 69 69 69 69 69 69 69 69 69 69 69 69 69 69 69 69 69 69 69 69 69 69 69 69 69 69 69 69 69 69 69 69 69 69 69 69 69 69 69 69 69 69 69 69 69 69 69 69 69 69 69 69 69 69 69 69 69 69 69 69 69 69 69 69 69 69 69 69 69 69 69 69 69 69 69 69 69 69 69 69 69 69 69 69 69 69 69 69 69 69 69 69 69 69 69 69 69 69 69 69 69 69 69 69 69 69 69 69 69 69 69 69 69 69 69 69 69 69 69 69 69 69 69 69 69 69 69 69 69 69 69 69 69 69 69 69 69 69 69 69 69 69 69 69 69 69 69 69 69 69 69 69 69 69 69 69 69 69 69 69 69 69 69 69 69 69 69 69 69 69 69 69 69 69 69 69 69 69 69 69 69 69 69 69 69 69 69 69 69 69 69 69 69 69 69 69 69 69 69 69 69 69 69 69 69 69 69 69 69 69 69 69 69 69 69 69 69 69 69 69 69 69 69 69 69 69 69 69 69 69 69 69 69 69 69 69 69 69 69 69 69 69 69 69 69 69 69 69 69 69 69 69 69 69 69 69 69 69 69 69 69 69 69 69 69 69 69 69 69 69 69 69 69 69 69 69 69 69 69 69 69 69 69 69 69 69 69 69 69 69 69 69 69 69 69 69 69 69 69 69 69 69 69 69 69 69 69 69 69 69 69 69 69 69 69 69 69 69 69 69 69 69 69 69 69 69 69 69 69 69 69 69 69 69 69 69 69 69 69 69 69 69 69 69 69 69 69 69 69 69 69 69 69 69 69 69 69 69 69 69 69 69 69 69 69 69 69 69 69 69 69 69 69 69 69 69 69 69 69 69 69 69 69 69 69 69 69 69 69 69 69 69 69 69 69 69 69 69 69 69 69 69 69 69 69 69 69 69 69 69 69 69 69 69 69 69 69 69 69 69 69 69 69 69 69 69 69 69 69 69 69 69 69 69 69 69 69 69 69 69 69 69 69 69 69 69 69 69 69 69 69 69 69 69 69 69 69 69 69 69 69 69 69 69 69 69 69 69 69 69 69 69 69 69 69 69 69 69 69 69 69 69 69 69 69 69 69 69 69 69 69 69 69 69 69 69 69 69 69 69 69 69 69 69 69 69 69 69 69 69 69 69 69 69 69 69 69 69 69 69 69 69 69 69 69 69 69 69 69 69 69 69 69 69 69 69 69 69 69 69 69 69 69 69 69 69 69 69 69 69 69 69 69 69 69 69 69 69 69 69 69 69 69 69 69 69 69 69 69 69 69 69 69 69 69 69 69 69 69 69 69 69 69 69 69 69 69 69 69 69 69 69 69 69 69 69 69 69 69 69 69 69 69 69 69 69 69 69 69 69 69 69 69 69 69 69 69 69 69 69 69 69 69 69 69 69 69 69 69 69 69 69 69 69 69 69 69 69 69 69 69 69 69 69 69 69 69 69 69 69 69 69 69 69 69 69 69 69 69 69 69 69 69 69 69 69 69 69 69 69 69 69 69 69 69 69 69 69 69 69 69 69 69 69 69 69 69 69 69 69 69 69 69 69 69 69 69 69 69 69 69 69 69 69 69 69 69 69 69 69 69 69 69 69 69 69 69 69 69 69 69 69 69 69 69 69 69 69 69 69 69 69 69 69 69 69 69 69 69 69 69 69 69 69 69 69 69 69 69 69 69 69 69 69 69 69 69 69 69 69 69 69 69 69 69 69 69 69 69 69 69 69 69 69 69 69 69 69 69 69 69 69 69 69 69 69 69 69 69 69 69 69 69 69 69 69 69 69 69 69 69 69 69 69 69 69 69 69 69 69 69 69 69 69 69 69 69 69 69 69 69 69 69 69 69 69 69 69 69 69 69 69 69 69 69 69 69 69 69 69 69 69 69 69 69 69 69 69 69 69 69 69 69 69 69 69 69 69 69 69 69 69 69 69 69 69 69 69 69 69 69 69 69 69 69 69 69 69 69 69 69 69 69 69 69 69 69 69 69 69 69 69 69 69 69 69 69 69 69 69 69 69 69 69 69 69 69 69 69 69 69 69 69 69 69 69 69 69 69 69 69 69 69 69 69 69 69 69 69 69 69 69 69 69 69 69 69 69 69 69 69 69 69 69 69 69 69 69 69 69 69 69 69 69 69 69 69 69 69 69 69 69 69 69 69 69 69 69 69 69 69 69 69 69 69 69 69 69 69 69 69 69 69 69 69 69 69 69 69 69 69 69 69 69 69 69 69 69 69 69 69 69 69 69 69 69 69 69 69 69 69 69 69 69 69 69 69 69 69 69 69 69 69 69 69 69 69 69 69 69 69 69 69 69 69 69 69 69 69 69 69 69 69 69 69 69 69 69 69 69 69 69 69 69 69 69 69 69 69 69 69 69 69 69 69 69 69 69 69 69 69 69 69 69 69 69 69 69 69 69 69 69 69 69 69 69 69 69 69 69 69 69 69 69 69 69 69 69 69 69 69 69 69 69 69 69 69 69 69 69 69 69 69 69 69 69 69 69 69 69 69 69 69 69 69 69 69 69 69 69 69 69 69 69 69 69 69 69 69 69 69 69 69 69 69 69 69 69 69 69 69 69 69 69 69 69 69 69 69 69 69 69 69 69 69 69 69 69 69 69 69 69 69 69 69 69 69 69 69 69 69 69 69 69 69 69 69 69 69 69 69 69 69 69 69 69 69 69 69 69 69 69 69 69 69 69 69 69 69 69 69 69 69 69 69 69 69 69 69 69 69 69 69 69 69 69 69 69 69 69 69 69 69 69 69 69 69 69 69 69 69 69 69 69 69 69 69 69 69 69 69 69 69 69 69 69 69 69 69 69 69 69 69 69 69 69 69 69 69 69 69 69 69 69 69 69 69 69 69 69 69 69 69 69 69 69 69 69 69 69 69 69 69 69 69 69 69 69 69 69 69 69 69 69 69 69 69 69 69 69 69 69 69 69 69 69 69 69 69 69 69 69 69 69 69 69 69 69 69 69 69 69 69 69 69 69 69 69 69 69 69 69 69 69 69 69 69 69 69 69 69 69 69 69 69 69 69 69 69 69 69 69 69 69 69 69 69 69 69 69 69 69 69 69 69 69 69 69 69 69 69 69 69 69 69 69 69 69 69 69 69 69 69 69 69 69 69 69 69 69 69 69 69 69 69 69 69 69 69 69 69 69 69 69 69 69 69 69 69 69 69 69 69 69 69 69 69 69 69 69 69 69 69 69 69 69 69 69 69 69 69 69 69 69 69 69 69 69 69 69 69 69 69 69 69 69 69 69 69 69 69 69 69 69 69 69 69 69 69 69 69 69 69 69 69 69 69 69 69 69 69 69 69 69 69 69 69 69 69 69 69 69 69 69 69 69 69 69 69 69 69 69 69 69 69 69 69 69 69 69 69 69 69 69 69 69 69 69 69 69 69 69 69 69 69 69 69 69 69 69 69 69 69 69 69 69 69 69 69 69 69 69 69 69 69 69 69 69 69 69 69 69 69 69 69 69 69 69 69 69 69 69 69 69 69 69 69 69 69 69 69 69 69 69 69 69 69 69 69 69 69 69 69 69 69 69 69 69 69 69 69 69 69 69 69 69 69 69 69 69 69 69 69 69 69 69 69 69 69 69 69 69 69 69 69 69 69 69 69 69 69 69 69 69 69 69 69 69 69 69 69 69 69 69 69 69 69 69 69 69 69 69 69 69 69 69 69 69 69 69 69 69 69 69 69 69 69 69 69 69 69 69 69 69 69 69 69 69 69 69 69 69 69 69 69 69 69 69 69 69 69 69 69 69 69 69 69 69 69 69 69 69 69 69 69 69 69 69 69 69 69 69 69 69 69 69 69 69 69 69 69 69 69 69 69 69 69 69 69 69 69 69 69 69 69 69 69 69 69 69 69 69 69 69 69 69 69 69 69 69 69 69 69 69 69 69 69 69 69 69 69 69 69 69 69 69 69 69 69 69 69 69 69 69 69 69 69 69 69 69 69 69 69 69 69 69 69 69 69 69 69 69 69 69 69 69 69 69 69 69 69 69 69 69 69 69 69 69 69 69 69 69 69 69 69 69 69 69 69 69 69 69 69 69 69 69 69 69 69 69 69 69 69 69 69 69 69 69 69 69 69 69 69 69 69 69 69 69 69 69 69 69 69 69 69 69 69 69 69 69 69 69 69 69 69 69 69 69 69 69 69 69 69 69 69 69 69 69 69 69 69 69 69 69 69 69 69 69 69 69 69 69 69 69 69 69 69 69 69 69 69 69 69 69 69 69 69 69 69 69 69 69 69 69 69 69 69 69 69 69 69 69 69 69 69 69 69 69 69 69 69 69 69 69 69 69 69 69 69 69 69 69 69 69 69 69 69 69 69 69 69 69 69 69 69 69 69 69 69 69 69 69 69 69 69 69 69 69 69 69 69 69 69 69 69 69 69 69 69 69 69 69 69 69 69 69 69 69 69 69 69 69 69 69 69 69 69 69 69 69 69 69 69 69 69 69 69 69 69 69 69 69 69 69 69 69 69 69 69 69 69 69 69 69 69 69 69 69 69 69 69 69 69 69 69 69 69 69 69 69 69 69 69 69 69 69 69 69 69 69 69 69 69 69 69 69 69 69 69 69 69 69 69 69 69 69 69 69 69 69 69 69 69 69 69 69 69 69 69 69 69 69 69 69 69 69 69 69 69 69 69 69 69 69 69 69 69 69 69 69 69 69 69 69 69 69 69 69 69 69 69 69 69 69 69 69 69 69 69 69 69 69 69 69 69 69 69 69 69 69 69 69 69 69 69 69 69 69 69 69 69 69 69 69 69 69 69 69 69 69 69 69 69 69 69 69 69 69 69 69 69 69 69 69 69 69 69 69 69 69 69 69 69 69 69 69 69 69 69 69 69 69 69 69 69 69 69 69 69 69 69 69 69 69 69 69 69 69 69 69 69 69 69 69 69 69 69 69 69 69 69 69 69 69 69 69 69 69 69 69 69 69 69 69 69 69 69 69 69 69 69 69 69 69 69 69 69 69 69 69 69 69 69 69 69 69 69 69 69 69 69 69 69 69 69 69 69 69 69 69 69 69 69 69 69 69 69 69 69 69 69 69 69 69 69 69 69 69 69 69 69 69 69 69 69 69 69 69 69 69 69 69 69 69 69 69 69 69 69 69 69 69 69 69 69 69 69 69 69 69 69 69 69 69 69 69 69 69 69 69 69 69 69 69 69 69 69 69 69 69 69 69 69 69 69 69 69 69 69 69 69 69 69 69 69 69 69 69 69 69 69 69 69 69 69 69 69 69 69 69 69 69 69 69 69 69 69 69 69 69 69 69 69 69 69 69 69 69 69 69 69 69 69 69 69 69 69 69 69 69 69 69 69 69 69 69 69 69 69 69 69 69 69 69 69 69 69 69 69 69 69 69 69 69 69 69 69 69 69 69 69 69 69 69 69 69 69 69 69 69 69 69 69 69 69 69 69 69 69 69 69 69 69 69 69 69 69 69 69 69 69 69 69 69 69 69 69 69 69 69 69 69 69 69 69 69 69 69 69 69 69 69 69 69 69 69 69 69 69 69 69 69 69 69 69 69 69 69 69 69 69 69 69 69 69 69 69 69 69 69 69 69 69 69 69 69 69 69 69 69 69 69 69 69 69 69 69 69 69 69 69 69 69 69 69 69 69 69 69 69 69 69 69 69 69 69 69 69 69 69 69 69 69 69 69 69 69 69 69 69 69 69 69 69 69 69 69 69 69 69 69 69 69 69 69 69 69 69 69 69 69 69 69 69 69 69 69 69 69 69 69 69 69 69 69 69 69 69 69 69 69 69 69 69 69 69 69 69 69 69 69 69 69 69 69 69 69 69 69 69 69 69 69 69 69 69 69 69 69 69 69 69 69 69 69 69 69 69 69 69 69 69 69 69 69 69 69 69 69 69 69 69 69 69 69 69 69 69 69 69 69 69 69 69 69 69 69 69 69 69 69 69 69 69 69 69 69 69 69 69 69 69 69 69 69 69 69 69 69 69 69 69 69 69 69 69 69 69 69 69 69 69 69 69 69 69 69 69 69 69 69 69 69 69 69 69 69 69 69 69 69 69 69 69 69 69 69 69 69 69 69 69 69 69 69 69 69 69 69 69 69 69 69 69 69 69 69 69 69 69 69 69 69 69 69 69 69 69 69 69 69 69 69 69 69 69 69 69 69 69 69 69 69 69 69 69 69 69 69 69 69 69 69 69 69 69 69 69 69 69 69 69 69 69 69 69 69 69 69 69 69 69 69 69 69 69 69 69 69 69 69 69 69 69 69 69 69 69 69 69 69 69 69 69 69 69 69 69 69 69 69 69 69 69 69 69 69 69 69 69 69 69 69 69 69 69 69 69 69 69 69 69 69 69 69 69 69 69 69 69 69 69 69 69 69 69 69 69 69 69 69 69 69 69 69 69 69 69 69 69 69 69 69 69 69 69 69 69 69 69 69 69 69 69 69 69 69 69 69 69 69 69 69 69 69 69 69 69 69 69 69 69 69 69 69 69 69 69 69 69 69 69 69 69 69 69 69 69 69 69 69 69 69 69 69 69 69 69 69 69 69 69 69 69 69 69 69 69 69 69 69 69 69 69 69 69 69 69 69 69 69 69 69 69 69 69 69 69 69 69 69 69 69 69 69 69 69 69 69 69 69 69 69 69 69 69 69 69 69 69 69 69 69 69 69 69 69 69 69 69 69 69 69 69 69 69 69 69 69 69 69 69 69 69 69 69 69 69 69 69 69 69 69 69 69 69 69 69 69 69 69 69 69 69 69 69 69 69 69 69 69 69 69 69 69 69 69 69 69 69 69 69 69 69 69 69 69 69 69 69 69 69 69 69 69 69 69 69 69 69 69 69 69 69 69 69 69 69 69 69 69 69 69 69 69 69 69 69 69 69 69 69 69 69 69 69 69 69 69 69 69 69 69 69 69 69 69 69 69 69 69 69 69 69 69 69 69 69 69 69 69 69 69 69 69 69 69 69 69 69 69 69 69 69 69 69 69 69 69 69 69 69 69 69 69 69 69 69 69 69 69 69 69 69 69 69 69 69 69 69 69 69 69 69 69 69 69 69 69 69 69 69 69 69 69 69 69 69 69 69 69 69 69 69 69 69 69 69 69 69 69 69 69 69 69 69 69 69 69 69 69 69 69 69 69 69 69 69 69 69 69 69 69 69 69 69 69 69 69 69 69 69 69 69 69 69 69 69 69 69 69 69 69 69 69 69 69 69 69 69 69 69 69 69 69 69 69 69 69 69 69 69 69 69 69 69 69 69 69 69 69 69 69 69 69 69 69 69 69 69 69 69 69 69 69 69 69 69 69 69 69 69 69 69 69 69 69 69 69 69 69 69 69 69 69 69 69 69 69 69 69 69 69 69 69 69 69 69 69 69 69 69 69 69 69 69 69 69 69 69 69 69 69 69 69 69 69 69 69 69 69 69 69 69 69 69 69 69 69 69 69 69 69 69 69 69 69 69 69 69 69 69 69 69 69 69 69 69 69 69 69 69 69 69 69 69 69 69 69 69 69 69 69 69 69 69 69 69 69 69 69 69 69 69 69 69 69 69 69 69 69 69 69 69 69 69 69 69 69 69 69 69 69 69 69 69 69 69 69 69 69 69 69 69 69 69 69 69 69 69 69 69 69 69 69 69 69 69 69 69 69 69 69 69 69 69 69 69 69 69 69 69 69 69 69 69 69 69 69 69 69 69 69 69 69 69 69 69 69 69 69 69 69 69 69 69 69 69 69 69 69 69 69 69 69 69 69 69 69 69 69 69 69 69 69 69 69 69 69 69 69 69 69 69 69 69 69 69 69 69 69 69 69 69 69 69 69 69 69 69 69 69 69 69 69 69 69 69 69 69 69 69 69 69 69 69 69 69 69 69 69 69 69 69 69 69 69 69 69 69 69 69 69 69 69 69 69 69 69 69 69 69 69 69 69 69 69 69 69 69 69 69 69 69 69 69 69 69 69 69 69 69 69 69 69 69 69 69 69 69 69 69 69 69 69 69 69 69 69 69 69 69 69 69 69 69 69 69 69 69 69 69 69 69 69 69 69 69 69 69 69 69 69 69 69 69 69 69 69 69 69 69 69 69 69 69 69 69 69 69 69 69 69 69 69 69 69 69 69 69 69 69 69 69 69 69 69 69 69 69 69 69 69 69 69 69 69 69 69 69 69 69 69 69 69 69 69 69 69 69 69 69 69 69 69 69 69 69 69 69 69 69 69 69 69 69 69 69 69 69 69 69 69 69 69 69 69 69 69 69 69 69 69 69 69 69 69 69 69 69 69 69 69 69 69 69 69 69 69 69 69 69 69 69 69 69 69 69 69 69 69 69 69 69 69 69 69 69 69 69 69 69 69 69 69 69 69 69 69 69 69 69 69 69 69 69 69 69 69 69 69 69 69 69 69 69 69 69 69 69 69 69 69 69 69 69 69 69 69 69 69 69 69 69 69 69 69 69 69 69 69 69 69 69 69 69 69 69 69 69 69 69 69 69 69 69 69 69 69 69 69 69 69 69 69 69 69 69 69 69 69 69 69 69 69 69 69 69 69 69 69 69 69 69 69 69 69 69 69 69 69 69 69 69 69 69 69 69 69 69 69 69 69 69 69 69 69 69 69 69 69 69 69 69 69 69 69 69 69 69 69 69 69 69 69 69 69 69 69 69 69 69 69 69 69 69 69 69 69 69 69 69 69 69 69 69 69 69 69 69 69 69 69 69 69 69 69 69 69 69 69 69 69 69 69 69 69 69 69 69 69 69 69 69 69 69 69 69 69 69 69 69 69 69 69 69 69 69 69 69 69 69 69 69 69 69 69 69 69 69 69 69 69 69 69 69 69 69 69 69 69 69 69 69 69 69 69 69 69 69 69 69 69 69 69 69 69 69 69 69 69 69 69 69 69 69 69 69 69 69 69 69 69 69 69 69 69 69 69 69 69 69 69 69 69 69 69 69 69 69 69 69 69 69 69 69 69 69 69 69 69 69 69 69 69 69 69 69 69 69 69 69 69 69 69 69 69 69 69 69 69 69 69 69 69 69 69 69 69 69 69 69 69 69 69 69 69 69 69 69 69 69 69 69 69 69 69 69 69 69 69 69 69 69 69 69 69 69 69 69 69 69 69 69 69 69 69 69 69 69 69 69 69 69 69 69 69 69 69 69 69 69 69 69 69 69 69 69 69 69 69 69 69 69 69 69 69 69 69 69 69 69 69 69 69 69 69 69 69 69 69 69 69 69 69 69 69 69 69 69 69 69 69 69 69 69 69 69 69 69 69 69 69 69 69 69 69 69 69 69 69 69 69 69 69 69 69 69 69 69 69 69 69 69 69 69 69 69 69 69 69 69 69 69 69 69 69 69 69 69 69 69 69 69 69 69 69 69 69 69 69 69 69 69 69 69 69 69 69 69 69 69 69 69 69 69 69 69 69 69 69 69 69 69 69 69 69 69 69 69 69 69 69 69 69 69 69 69 69 69 69 69 69 69 69 69 69 69 69 69 69 69 69 69 69 69 69 69 69 69 69 69 69 69 69 69 69 69 69 69 69 69 69 69 69 69 69 69 69 69 69 69 69 69 69 69 69 69 69 69 69 69 69 69 69 69 69 69 69 69 69 69 69 69 69 69 69 69 69 69 69 69 69 69 69 69 69 69 69 69 69 69 69 69 69 69 69 69 69 69 69 69 69 69 69 69 69 69 69 69 69 69 69 69 69 69 69 69 69 69 69 69 69 69 69 69 69 69 69 69 69 69 69 69 69 69 69 69 69 69 69 69 69 69 69 69 69 69 69 69 69 69 69 69 69 69 69 69 69 69 69 69 69 69 69 69 69 69 69 69 69 69 69 69 69 69 69 69 69 69 69 69 69 69 69 69 69 69 69 69 69 69 69 69 69 69 69 69 69 69 69 69 69 69 69 69 69 69 69 69 69 69 69 69 69 69 69 69 69 69 69 69 69 69 69 69 69 69 69 69 69 69 69 69 69 69 69 69 69 69 69 69 69 69 69 69 69 69 69 69 69 69 69 69 69 69 69 69 69 69 69 69 69 69 69 69 69 69 69 69 69 69 69 69 69 69 69 69 69 69 69 69 69 69 69 69 69 69 69 69 69 69 69 69 69 69 69 69 69 69 69 69 69 69 69 69 69 69 69 69 69 69 69 69 69 69 69 69 69 69 69 69 69 69 69 69 69 69 69 69 69 69 69 69 69 69 69 69 69 69 69 69 69 69 69 69 69 69 69 69 69 69 69 69 69 69 69 69 69 69 69 69 69 69 69 69 69 69 69 69 69 69 69 69 69 69 69 69 69 69 69 69 69 69 69 69 69 69 69 69 69 69 69 69 69 69 69 69 69 69 69 69 69 69 69 69 69 69 69 69 69 69 69 69 69 69 69 69 69 69 69 69 69 69 69 69 69 69 69 69 69 69 69 69 69 69 69 69 69 69 69 69 69 69 69 69 69 69 69 69 69 69 69 69 69 69 69 69 69 69 69 69 69 69 69 69 69 69 69 69 69 69 69 69 69 69 69 69 69 69 69 69 69 69 69 69 69 69 69 69 69 69 69 69 69 69 69 69 69 69 69 69 69 69 69 69 69 69 69 69 69 69 69 69 69 69 69 69 69 69 69 69 69 69 69 69 69 69 69 69 69 69 69 69 69 69 69 69 69 69 69 69 69 69 69 69 69 69 69 69 69 69 69 69 69 69 69 69 69 69 69 69 69 69 69 69 69 69 69 69 69 69 69 69 69 69 69 69 69 69 69 69 69 69 69 69 69 69 69 69 69 69 69 69 69 69 69 69 69 69 69 69 69 69 69 69 69 69 69 69 69 69 69 69 69 69 69 69 69 69 69 69 69 69 69 69 69 69 69 69 69 69 69 69 69 69 69 69 69 69 69 69 69 69 69 69 69 69 69 69 69 69 69 69 69 69 69 69 69 69 69 69 69 69 69 69 69 69 69 69 69 69 69 69 69 69 69 69 69 69 69 69 69 69 69 69 69 69 69 69 69 69 69 69 69 69 69 69 69 69 69 69 69 69 69 69 69 69 69 69 69 69 69 69 69 69 69 69 69 69 69 69 69 69 69 69 69 69 69 69 69 69 69 69 69 69 69 69 69 69 69 69 69 69 69 69 69 69 69 69 69 69 69 69 69 69 69 69 69 69 69 69 69 69 69 69 69 69 69 69 69 69 69 69 69 69 69 69 69 69 69 69 69 69 69 69 69 69 69 69 69 69 69 69 69 69 69 69 69 69 69 69 69 69 69 69 69 69 69 69 69 69 69 69 69 69 69 69 69 69 69 69 69 69 69 69 69 69 69 69 69 69 69 69 69 69 69 69 69 69 69 69 69 69 69 69 69 69 69 69 69 69 69 69 69 69 69 69 69 69 69 69 69 69 69 69 69 69 69 69 69 69 69 69 69 69 69 69 69 69 69 69 69 69 69 69 69 69 69 69 69 69 69 69 69 69 69 69 69 69 69 69 69 69 69 69 69 69 69 69 69 69 69 69 69 69 69 69 69 69 69 69 69 69 69 69 69 69 69 69 69 69 69 69 69 69 69 69 69 69 69 69 69 69 69 69 69 69 69 69 69 69 69 69 69 69 69 69 69 69 69 69 69 69 69 69 69 69 69 69 69 69 69 69 69 69 69 69 69 69 69 69 69 69 69 69 69 69 69 69 69 69 69 69 69 69 69 69 69 69 69 69 69 69 69 69 69 69 69 69 69 69 69 69 69 69 69 69 69 69 69 69 69 69 69 69 69 69 69 69 69 69 69 69 69 69 69 69 69 69 69 69 69 69 69 69 69 69 69 69 69 69 69 69 69 69 69 69 69 69 69 69 69 69 69 69 69 69 69 69 69 69 69 69 69 69 69 69 69 69 69 69 69 69 69 69 69 69 69 69 69 69 69 69 69 69 69 69 69 69 69 69 69 69 69 69 69 69 69 69 69 69 69 69 69 69 69 69 69 69 69 69 69 69 69 69 69 69 69 69 69 69 69 69 69 69 69 69 69 69 69 69 69 69 69 69 69 69 69 69 69 69 69 69 69 69 69 69 69 69 69 69 69 69 69 69 69 69 69 69 69 69 69 69 69 69 69 69 69 69 69 69 69 69 69 69 69 69 69 69 69 69 69 69 69 69 69 69 69 69 69 69 69 69 69 69 69 69 69 69 69 69 69 69 69 69 69 69 69 69 69 69 69 69 69 69 69 69 69 69 69 69 69 69 69 69 69 69 69 69 69 69 69 69 69 69 69 69 69 69 69 69 69 69 69 69 69 69 69 69 69 69 69 69 69 69 69 69 69 69 69 69 69 69 69 69 69 69 69 69 69 69 69 69 69 69 69 69 69 69 69 69 69 69 69 69 69 69 69 69 69 69 69 69 69 69 69 69 69 69 69 69 69 69 69 69 69 69 69 69 69 69 69 69 69 69 69 69 69 69 69 69 69 69 69 69 69 69 69 69 69 69 69 69 69 69 69 69 69 69 69 69 69 69 69 69 69 69 69 69 69 69 69 69 69 69 69 69 69 69 69 69 69 69 69 69 69 69 69 69 69 69 69 69 69 69 69 69 69 69 69 69 69 69 69 69 69 69 69 69 69 69 69 69 69 69 69 69 69 69 69 69 69 69 69 69 69 69 69 69 69 69 69 69 69 69 69 69 69 69 69 69 69 69 69 69 69 69 69 69 69 69 69 69 69 69 69 69 69 69 69 69 69 69 69 69 69 69 69 69 69 69 69 69 69 69 69 69 69 69 69 69 69 69 69 69 69 69 69 69 69 69 69 69 69 69 69 69 69 69 69 69 69 69 69 69 69 69 69 69 69 69 69 69 69 69 69 69 69 69 69 69 69 69 69 69 69 69 69 69 69 69 69 69 69 69 69 69 69 69 69 69 69 69 69 69 69 69 69 69 69 69 69 69 69 69 69 69 69 69 69 69 69 69 69 69 69 69 69 69 69 69 69 69 69 69 69 69 69 69 69 69 69 69 69 69 69 69 69 69 69 69 69 69 69 69 69 69 69 69 69 69 69 69 69 69 69 69 69 69 69 69 69 69 69 69 69 69 69 69 69 69 69 69 69 69 69 69 69 69 69 69 69 69 69 69 69 69 69 69 69 69 69 69 69 69 69 69 69 69 69 69 69 69 69 69 69 69 69 69 69 69 69 69 69 69 69 69 69 69 69 69 69 69 69 69 69 69 69 69 69 69 69 69 69 69 69 69 69 69 69 69 69 69 69 69 69 69 69 69 69 69 69 69 69 69 69 69 69 69 69 69 69 69 69 69 69 69 69 69 69 69 69 69 69 69 69 69 69 69 69 69 69 69 69 69 69 69 69 69 69 69 69 69 69 69 69 69 69 69 69 69 69 69 69 69 69 69 69 69 69 69 69 69 69 69 69 69 69 69 69 69 69 69 69 69 69 69 69 69 69 69 69 69 69 69 69 69 69 69 69 69 69 69 69 69 69 69 69 69 69 69 69 69 69 69 69 69 69 69 69 69 69 69 69 69 69 69 69 69 69 69 69 69 69 69 69 69 69 69 69 69 69 69 69 69 69 69 69 69 69 69 69 69 69 69 69 69 69 69 69 69 69 69 69 69 69 69 69 69 69 69 69 69 69 69 69 69 69 69 69 69 69 69 69 69 69 69 69 69 69 69 69 69 69 69 69 69 69 69 69 69 69 69 69 69 69 69 69 69 69 69 69 69 69 69 69 69 69 69 69 69 69 69 69 69 69 69 69 69 69 69 69 69 69 69 69 69 69 69 69 69 69 69 69 69 69 69 69 69 69 69 69 69 69 69 69 69 69 69 69 69 69 69 69 69 69 69 69 69 69 69 69 69 69 69 69 69 69 69 69 69 69 69 69 69 69 69 69 69 69 69 69 69 69 69 69 69 69 69 69 69 69 69 69 69 69 69 69 69 69 69 69 69 69 69 69 69 69 69 69 69 69 69 69 69 69 69 69 69 69 69 69 69 69 69 69 69 69 69 69 69 69 69 69 69 69 69 69 69 69 69 69 69 69 69 69 69 69 69 69 69 69 69 69 69 69 69 69 69 69 69 69 69 69 69 69 69 69 69 69 69 69 69 69 69 69 69 69 69 69 69 69 69 69 69 69 69 69 69 69 69 69 69 69 69 69 69 69 69 69 69 69 69 69 69 69 69 69 69 69 69 69 69 69 69 69 69 69 69 69 69 69 69 69 69 69 69 69 69 69 69 69 69 69 69 69 69 69 69 69 69 69 69 69 69 69 69 69 69 69 69 69 69 69 69 69 69 69 69 69 69 69 69 69 69 69 69 69 69 69 69 69 69 69 69 69 69 69 69 69 69 69 69 69 69 69 69 69 69 69 69 69 69 69 69 69 69 69 69 69 69 69 69 69 69 69 69 69 69 69 69 69 69 69 69 69 69 69 69 69 69 69 69 69 69 69 69 69 69 69 69 69 69 69 69 69 69 69 69 69 69 69 69 69 69 69 69 69 69 69 69 69 69 69 69 69 69 69 69 69 69 69 69 69 69 69 69 69 69 69 69 69 69 69 69 69 69 69 69 69 69 69 69 69 69 69 69 69 69 69 69 69 69 69 69 69 69 69 69 69 69 69 69 69 69 69 69 69 69 69 69 69 69 69 69 69 69 69 69 69 69 69 69 69 69 69 69 69 69 69 69 69 69 69 69 69 69 69 69 69 69 69 69 69 69 69 69 69 69 69 69 69 69 69 69 69 69 69 69 69 69 69 69 69 69 69 69 69 69 69 69 69 69 69 69 69 69 69 69 69 69 69 69 69 69 69 69 69 69 69 69 69 69 69 69 69 69 69 69 69 69 69 69 69 69 69 69 69 69 69 69 69 69 69 69 69 69 69 69 69 69 69 69 69 69 69 69 69 69 69 69 69 69 69 69 69 69 69 69 69 69 69 69 69 69 69 69 69 69 69 69 69 69 69 69 69 69 69 69 69 69 69 69 69 69 69 69 69 69 69 69 69 69 69 69 69 69 69 69 69 69 69 69 69 69 69 69 69 69 69 69 69 69 69 69 69 69 69 69 69 69 69 69 69 69 69 69 69 69 69 69 69 69 69 69 69 69 69 69 69 69 69 69 69 69 69 69 69 69 69 69 69 69 69 69 69 69 69 69 69 69 69 69 69 69 69 69 69 69 69 69 69 69 69 69 69 69 69 69 69 69 69 69 69 69 69 69 69 69 69 69 69 69 69 69 69 69 69 69 69 69 69 69 69 69 69 69 69 69 69 69 69 69 69 69 69 69 69 69 69 69 69 69 69 69 69 69 69 69 69 69 69 69 69 69 69 69 69 69 69 69 69 69 69 69 69 69 69 69 69 69 69 69 69 69 69 69 69 69 69 69 69 69 69 69 69 69 69 69 69 69 69 69 69 69 69 69 69 69 69 69 69 69 69 69 69 69 69 69 69 69 69 69 69 69 69 69 69 69 69 69 69 69 69 69 69 69 69 69 69 69 69 69 69 69 69 69 69 69 69 69 69 69 69 69 69 69 69 69 69 69 69 69 69 69 69 69 69 69 69 69 69 69 69 69 69 69 69 69 69 69 69 69 69 69 69 69 69 69 69 69 69 69 69 69 69 69 69 69 69 69 69 69 69 69 69 69 69 69 69 69 69 69 69 69 69 69 69 69 69 69 69 69 69 69 69 69 69 69 69 69 69 69 69 69 69 69 69 69 69 69 69 69 69 69 69 69 69 69 69 69 69 69 69 69 69 69 69 69 69 69 69 69 69 69 69 69 69 69 69 69 69 69 69 69 69 69 69 69 69 69 69 69 69 69 69 69 69 69 69 69 69 69 69 69 69 69 69 69 69 69 69 69 69 69 69 69 69 69 69 69 69 69 69 69 69 69 69 69 69 69 69 69 69 69 69 69 69 69 69 69 69 69 69 69 69 69 69 69 69 69 69 69 69 69 69 69 69 69 69 69 69 69 69 69 69 69 69 69 69 69 69 69 69 69 69 69 69 69 69 69 69 69 69 69 69 69 69 69 69 69 69 69 69 69 69 69 69 69 69 69 69 69 69 69 69 69 69 69 69 69 69 69 69 69 69 69 69 69 69 69 69 69 69 69 69 69 69 69 69 69 69 69 69 69 69 69 69 69 69 69 69 69 69 69 69 69 69 69 69 69 69 69 69 69 69 69 69 69 69 69 69 69 69 69 69 69 69 69 69 69 69 69 69 69 69 69 69 69 69 69 69 69 69 69 69 69 69 69 69 69 69 69 69 69 69 69 69 69 69 69 69 69 69 69 69 69 69 69 69 69 69 69 69 69 69 69 69 69 69 69 69 69 69 69 69 69 69 69 69 69 69 69 69 69 69 69 69 69 69 69 69 69 69 69 69 69 69 69 69 69 69 69 69 69 69 69 69 69 69 69 69 69 69 69 69 69 69 69 69 69 69 69 69 69 69 69 69 69 69 69 69 69 69 69 69 69 69 69 69 69 69 69 69 69 69 69 69 69 69 69 69 69 69 69 69 69 69 69 69 69 69 69 69 69 69 69 69 69 69 69 69 69 69 69 69 69 69 69 69 69 69 69 69 69 69 69 69 69 69 69 69 69 69 69 69 69 69 69 69 69 69 69 69 69 69 69 69 69 69 69 69 69 69 69 69 69 69 69 69 69 69 69 69 69 69 69 69 69 69 69 69 69 69 69 69 69 69 69 69 69 69 69 69 69 69 69 69 69 69 69 69 69 69 69 69 69 69 69 69 69 69 69 69 69 69 69 69 69 69 69 69 69 69 69 69 69 69 69 69 69 69 69 69 69 69 69 69 69 69 69 69 69 69 69 69 69 69 69 69 69 69 69 69 69 69 69 69 69 69 69 69 69 69 69 69 69 69 69 69 69 69 69 69 69 69 69 69 69 69 69 69 69 69 69 69 69 69 69 69 69 69 69 69 69 69 69 69 69 69 69 69 69 69 69 69 69 69 69 69 69 69 69 69 69 69 69 69 69 69 69 69 69 69 69 69 69 69 69 69 69 69 69 69 69 69 69 69 69 69 69 69 69 69 69 69 69 69 69 69 69 69 69 69 69 69 69 69 69 69 69 69 69 69 69 69 69 69 69 69 69 69 69 69 69 69 69 69 69 69 69 69 69 69 69 69 69 69 69 69 69 69 69 69 69 69 69 69 69 69 69 69 69 69 69 69 69 69 69 69 69 69 69 69 69 69 69 69 69 69 69 69 69 69 69 69 69 69 69 69 69 69 69 69 69 69 69 69 69 69 69 69 69 69 69 69 69 69 69 69 69 69 69 69 69 69 69 69 69 69 69 69 69 69 69 69 69 69 69 69 69 69 69 69 69 69 69 69 69 69 69 69 69 69 69 69 69 69 69 69 69 69 69 69 69 69 69 69 69 69 69 69 69 69 69 69 69 69 69 69 69 69 69 69 69 69 69 69 69 69 69 69 69 69 69 69 69 69 69 69 69 69 69 69 69 69 69 69 69 69 69 69 69 69 69 69 69 69 69 69 69 69 69 69 69 69 69 69 69 69 69 69 69 69 69 69 69 69 69 69 69 69 69 69 69 69 69 69 69 69 69 69 69 69 69 69 69 69 69 69 69 69 69 69 69 69 69 69 69 69 69 69 69 69 69 69 69 69 69 69 69 69 69 69 69 69 69 69 69 69 69 69 69 69 69 69 69 69 69 69 69 69 69 69 69 69 69 69 69 69 69 69 69 69 69 69 69 69 69 69 69 69 69 69 69 69 69 69 69 69 69 69 69 69 69 69 69 69 69 69 69 69 69 69 69 69 69 69 69 69 69 69 69 69 69 69 69 69 69 69 69 69 69 69 69 69 69 69 69 69 69 69 69 69 69 69 69 69 69 69 69 69 69 69 69 69 69 69 69 69 69 69 69 69 69 69 69 69 69 69 69 69 69 69 69 69 69 69 69 69 69 69 69 69 69 69 69 69 69 69 69 69 69 69 69 69 69 69 69 69 69 69 69 69 69 69 69 69 69 69 69 69 69 69 69 69 69 69 69 69 69 69 69 69 69 69 69 69 69 69 69 69 69 69 69 69 69 69 69 69 69 69 69 69 69 69 69 69 69 69 69 69 69 69 69 69 69 69 69 69 69 69 69 69 69 69 69 69 69 69 69 69 69 69 69 69 69 69 69 69 69 69 69 69 69 69 69 69 69 69 69 69 69 69 69 69 69 69 69 69 69 69 69 69 69 69 69 69 69 69 69 69 69 69 </DataArray>
      </Cells>
      <CellData Tensors="stress">
        <DataArray type="UInt8" Name="vtkGhostType" format="ascii" RangeMin="0" RangeMax="1">0 0 0 0 0 0 0 0 0 0 0 0 0 0 0 0 0 0 0 0 0 0 0 0 0 0 0 0 0 0 0 0 0 0 0 0 0 0 0 0 0 0 0 0 0 0 0 0 0 0 0 0 0 0 0 0 0 0 0 0 0 0 0 0 0 0 0 0 0 0 0 0 0 0 0 0 0 0 0 0 0 0 0 0 0 0 0 0 0 0 0 0 0 0 0 0 0 0 0 0 0 0 0 0 0 0 0 0 0 0 0 0 0 0 0 0 0 0 0 0 0 0 0 0 0 0 0 0 0 0 0 0 0 0 0 0 0 0 0 0 0 0 0 0 0 0 0 0 0 0 0 0 0 0 0 0 0 0 0 0 0 0 0 0 0 0 0 0 0 0 0 0 0 0 0 0 0 0 0 0 0 0 0 0 0 0 0 0 0 0 0 0 0 0 0 0 0 0 0 0 0 0 0 0 0 0 0 0 0 0 0 0 0 0 0 0 0 0 0 0 0 0 0 0 0 0 0 0 0 0 0 0 0 0 0 0 0 0 0 0 0 0 0 0 0 0 0 0 0 0 0 0 0 0 0 0 0 0 0 0 0 0 0 0 0 0 0 0 0 0 0 0 0 0 0 0 0 0 0 0 0 0 0 0 0 0 0 0 0 0 0 0 0 0 0 0 0 0 0 0 0 0 0 0 0 0 0 0 0 0 0 0 0 0 0 0 0 0 0 0 0 0 0 0 0 0 0 0 0 0 0 0 0 0 0 0 0 0 0 0 0 0 0 0 0 0 0 0 0 0 0 0 0 0 0 0 0 0 0 0 0 0 0 0 0 0 0 0 0 0 0 0 0 0 0 0 0 0 0 0 0 0 0 0 0 0 0 0 0 0 0 0 0 0 0 0 0 0 0 0 0 0 0 0 0 0 0 0 0 0 0 0 0 0 0 0 0 0 0 0 0 0 0 0 0 0 0 0 0 0 0 0 0 0 0 0 0 0 0 0 0 0 0 0 0 0 0 0 0 0 0 0 0 0 0 0 0 0 0 0 0 0 0 0 0 0 0 0 0 0 0 0 0 0 0 0 0 0 0 0 0 0 0 0 0 0 0 0 0 0 0 0 0 0 0 0 0 0 0 0 0 0 0 0 0 0 0 0 0 0 0 0 0 0 0 0 0 0 0 0 0 0 0 0 0 0 0 0 0 0 0 0 0 0 0 0 0 0 0 0 0 0 0 0 0 0 0 0 0 0 0 0 0 0 0 0 0 0 0 0 0 0 0 0 0 0 0 0 0 0 0 0 0 0 0 0 0 0 0 0 0 0 0 0 0 0 0 0 0 0 0 0 0 0 0 0 0 0 0 0 0 0 0 0 0 0 0 0 0 0 0 0 0 0 0 0 0 0 0 0 0 0 0 0 0 0 0 0 0 0 0 0 0 0 0 0 0 0 0 0 0 0 0 0 0 0 0 0 0 0 0 0 0 0 0 0 0 0 0 0 0 0 0 0 0 0 0 0 0 0 0 0 0 0 0 0 0 0 0 0 0 0 0 0 0 0 0 0 0 0 0 0 0 0 0 0 0 0 0 0 0 0 0 0 0 0 0 0 0 0 0 0 0 0 0 0 0 0 0 0 0 0 0 0 0 0 0 0 0 0 0 0 0 0 0 0 0 0 0 0 0 0 0 0 0 0 0 0 0 0 0 0 0 0 0 0 0 0 0 0 0 0 0 0 0 0 0 0 0 0 0 0 0 0 0 0 0 0 0 0 0 0 0 0 0 0 0 0 0 0 0 0 0 0 0 0 0 0 0 0 0 0 0 0 0 0 0 0 0 0 0 0 0 0 0 0 0 0 0 0 0 0 0 0 0 0 0 0 0 0 0 0 0 0 0 0 0 0 0 0 0 0 0 0 0 0 0 0 0 0 0 0 0 0 0 0 0 0 0 0 0 0 0 0 0 0 0 0 0 0 0 0 0 0 0 0 0 0 0 0 0 0 0 0 0 0 0 0 0 0 0 0 0 0 0 0 0 0 0 0 0 0 0 0 0 0 0 0 0 0 0 0 0 0 0 0 0 0 0 0 0 0 0 0 0 0 0 0 0 0 0 0 0 0 0 0 0 0 0 0 0 0 0 0 0 0 0 0 0 0 0 0 0 0 0 0 0 0 0 0 0 0 0 0 0 0 0 0 0 0 0 0 0 0 0 0 0 0 0 0 0 0 0 0 0 0 0 0 0 0 0 0 0 0 0 0 0 0 0 0 0 0 0 0 0 0 0 0 0 0 0 0 0 0 0 0 0 0 0 0 0 0 0 0 0 0 0 0 0 0 0 0 0 0 0 0 0 0 0 0 0 0 0 0 0 0 0 0 0 0 0 0 0 0 0 0 0 0 0 0 0 0 0 0 0 0 0 0 0 0 0 0 0 0 0 0 0 0 0 0 0 0 0 0 0 0 0 0 0 0 0 0 0 0 0 0 0 0 0 0 0 0 0 0 0 0 0 0 0 0 0 0 0 0 0 0 0 0 0 0 0 0 0 0 0 0 0 0 0 0 0 0 0 0 0 0 0 0 0 0 0 0 0 0 0 0 0 0 0 0 0 0 0 0 0 0 0 0 0 0 0 0 0 0 0 0 0 0 0 0 0 0 0 0 0 0 0 0 0 0 0 0 0 0 0 0 0 0 0 0 0 0 0 0 0 0 0 0 0 0 0 0 0 0 0 0 0 0 0 0 0 0 0 0 0 0 0 0 0 0 0 0 0 0 0 0 0 0 0 0 0 0 0 0 0 0 0 0 0 0 0 0 0 0 0 0 0 0 0 0 0 0 0 0 0 0 0 0 0 0 0 0 0 0 0 0 0 0 0 0 0 0 0 0 0 0 0 0 0 0 0 0 0 0 0 0 0 0 0 0 0 0 0 0 0 0 0 0 0 0 0 0 0 0 0 0 0 0 0 0 0 0 0 0 0 0 0 0 0 0 0 0 0 0 0 0 0 0 0 0 0 0 0 0 0 0 0 0 0 0 0 0 0 0 0 0 0 0 0 0 0 0 0 0 0 0 0 0 0 0 0 0 0 0 0 0 0 0 0 0 0 0 0 0 0 0 0 0 0 0 0 0 0 0 0 0 0 0 0 0 0 0 0 0 0 0 0 0 0 0 0 0 0 0 0 0 0 0 0 0 0 0 0 0 0 0 0 0 0 0 0 0 0 0 0 0 0 0 0 0 0 0 0 0 0 0 0 0 0 0 0 0 0 0 0 0 0 0 0 0 0 0 0 0 0 0 0 0 0 0 0 0 0 0 0 0 0 0 0 0 0 0 0 0 0 0 0 0 0 0 0 0 0 0 0 0 0 0 0 0 0 0 0 0 0 0 0 0 0 0 0 0 0 0 0 0 0 0 0 0 0 0 0 0 0 0 0 0 0 0 0 0 0 0 0 0 0 0 0 0 0 0 0 0 0 0 0 0 0 0 0 0 0 0 0 0 0 0 0 0 0 0 0 0 0 0 0 0 0 0 0 0 0 0 0 0 0 0 0 0 0 0 0 0 0 0 0 0 0 0 0 0 0 0 0 0 0 0 0 0 0 0 0 0 0 0 0 0 0 0 0 0 0 0 0 0 0 0 0 0 0 0 0 0 0 0 0 0 0 0 0 0 0 0 0 0 0 0 0 0 0 0 0 0 0 0 0 0 0 0 0 0 0 0 0 0 0 0 0 0 0 0 0 0 0 0 0 0 0 0 0 0 0 0 0 0 0 0 0 0 0 0 0 0 0 0 0 0 0 0 0 0 0 0 0 0 0 0 0 0 0 0 0 0 0 0 0 0 0 0 0 0 0 0 0 0 0 0 0 0 0 0 0 0 0 0 0 0 0 0 0 0 0 0 0 0 0 0 0 0 0 0 0 0 0 0 0 0 0 0 0 0 0 0 0 0 0 0 0 0 0 0 0 0 0 0 0 0 0 0 0 0 0 0 0 0 0 0 0 0 0 0 0 0 0 0 0 0 0 0 0 0 0 0 0 0 0 0 0 0 0 0 0 0 0 0 0 0 0 0 0 0 0 0 0 0 0 0 0 0 0 0 0 0 0 0 0 0 0 0 0 0 0 0 0 0 0 0 0 0 0 0 0 0 0 0 0 0 0 0 0 0 0 0 0 0 0 0 0 0 0 0 0 0 0 0 0 0 0 0 0 0 0 0 0 0 0 0 0 0 0 0 0 0 0 0 0 0 0 0 0 0 0 0 0 0 0 0 0 0 0 0 0 0 0 0 0 0 0 0 0 0 0 0 0 0 0 0 0 0 0 0 0 0 0 0 0 0 0 0 0 0 0 0 0 0 0 0 0 0 0 0 0 0 0 0 0 0 0 0 0 0 0 0 0 0 0 0 0 0 0 0 0 0 0 0 0 0 0 0 0 0 0 0 0 0 0 0 0 0 0 0 0 0 0 0 0 0 0 0 0 0 0 0 0 0 0 0 0 0 0 0 0 0 0 0 0 0 0 0 0 0 0 0 0 0 0 0 0 0 0 0 0 0 0 0 0 0 0 0 0 0 0 0 0 0 0 0 0 0 0 0 0 0 0 0 0 0 0 0 0 0 0 0 0 0 0 0 0 0 0 0 0 0 0 0 0 0 0 0 0 0 0 0 0 0 0 0 0 0 0 0 0 0 0 0 0 0 0 0 0 0 0 0 0 0 0 0 0 0 0 0 0 0 0 0 0 0 0 0 0 0 0 0 0 0 0 0 0 0 0 0 0 0 0 0 0 0 0 0 0 0 0 0 0 0 0 0 0 0 0 0 0 0 0 0 0 0 0 0 0 0 0 0 0 0 0 0 0 0 0 0 0 0 0 0 0 0 0 0 0 0 0 0 0 0 0 0 0 0 0 0 0 0 0 0 0 0 0 0 0 0 0 0 0 0 0 0 0 0 0 0 0 0 0 0 0 0 0 0 0 0 0 0 0 0 0 0 0 0 0 0 0 0 0 0 0 0 0 0 0 0 0 0 0 0 0 0 0 0 0 0 0 0 0 0 0 0 0 0 0 0 0 0 0 0 0 0 0 0 0 0 0 0 0 0 0 0 0 0 0 0 0 0 0 0 0 0 0 0 0 0 0 0 0 0 0 0 0 0 0 0 0 0 0 0 0 0 0 0 0 0 0 0 0 0 0 0 0 0 0 0 0 0 0 0 0 0 0 0 0 0 0 0 0 0 0 0 0 0 0 0 0 0 0 0 0 0 0 0 0 0 0 0 0 0 0 0 0 0 0 0 0 0 0 0 0 0 0 0 0 0 0 0 0 0 0 0 0 0 0 0 0 0 0 0 0 0 0 0 0 0 0 0 0 0 0 0 0 0 0 0 0 0 0 0 0 0 0 0 0 0 0 0 0 0 0 0 0 0 0 0 0 0 0 0 0 0 0 0 0 0 0 0 0 0 0 0 0 0 0 0 0 0 0 0 0 0 0 0 0 0 0 0 0 0 0 0 0 0 0 0 0 0 0 0 0 0 0 0 0 0 0 0 0 0 0 0 0 0 0 0 0 0 0 0 0 0 0 0 0 0 0 0 0 0 0 0 0 0 0 0 0 0 0 0 0 0 0 0 0 0 0 0 0 0 0 0 0 0 0 0 0 0 0 0 0 0 0 0 0 0 0 0 0 0 0 0 0 0 0 0 0 0 0 0 0 0 0 0 0 0 0 0 0 0 0 0 0 0 0 0 0 0 0 0 0 0 0 0 0 0 0 0 0 0 0 0 0 0 0 0 0 0 0 0 0 0 0 0 0 0 0 0 0 0 0 0 0 0 0 0 0 0 0 0 0 0 0 0 0 0 0 0 0 0 0 0 0 0 0 0 0 0 0 0 0 0 0 0 0 0 0 0 0 0 0 0 0 0 0 0 0 0 0 0 0 0 0 0 0 0 0 0 0 0 0 0 0 0 0 0 0 0 0 0 0 0 0 0 0 0 0 0 0 0 0 0 0 0 0 0 0 0 0 0 0 0 0 0 0 0 0 0 0 0 0 0 0 0 0 0 0 0 0 0 0 0 0 0 0 0 0 0 0 0 0 0 0 0 0 0 0 0 0 0 0 0 0 0 0 0 0 0 0 0 0 0 0 0 0 0 0 0 0 0 0 0 0 0 0 0 0 0 0 0 0 0 0 0 0 0 0 0 0 0 0 0 0 0 0 0 0 0 0 0 0 0 0 0 0 0 0 0 0 0 0 0 0 0 0 0 0 0 0 0 0 0 0 0 0 0 0 0 0 0 0 0 0 0 0 0 0 0 0 0 0 0 0 0 0 0 0 0 0 0 0 0 0 0 0 0 0 0 0 0 0 0 0 0 0 0 0 0 0 0 0 0 0 0 0 0 0 0 0 0 0 0 0 0 0 0 0 0 0 0 0 0 0 0 0 0 0 0 0 0 0 0 0 0 0 0 0 0 0 0 0 0 0 0 0 0 0 0 0 0 0 0 0 0 0 0 0 0 0 0 0 0 0 0 0 0 0 0 0 0 0 0 0 0 0 0 0 0 0 0 0 0 0 0 0 0 0 0 0 0 0 0 0 0 0 0 0 0 0 0 0 0 0 0 0 0 0 0 0 0 0 0 0 0 0 0 0 0 0 0 0 0 0 0 0 0 0 0 0 0 0 0 0 0 0 0 0 0 0 0 0 0 0 0 0 0 0 0 0 0 0 0 0 0 0 0 0 0 0 0 0 0 0 0 0 0 0 0 0 0 0 0 0 0 0 0 0 0 0 0 0 0 0 0 0 0 0 0 0 0 0 0 0 0 0 0 0 0 0 0 0 0 0 0 0 0 0 0 0 0 0 0 0 0 0 0 0 0 0 0 0 0 0 0 0 0 0 0 0 0 0 0 0 0 0 0 0 0 0 0 0 0 0 0 0 0 0 0 0 0 0 0 0 0 0 0 0 0 0 0 0 0 0 0 0 0 0 0 0 0 0 0 0 0 0 0 0 0 0 0 0 0 0 0 0 0 0 0 0 0 0 0 0 0 0 0 0 0 0 0 0 0 0 0 0 0 0 0 0 0 0 0 0 0 0 0 0 0 0 0 0 0 0 0 0 0 0 0 0 0 0 0 0 0 0 0 0 0 0 0 0 0 0 0 0 0 0 0 0 0 0 0 0 0 0 0 0 0 0 0 0 0 0 0 0 0 0 0 0 0 0 0 0 0 0 0 0 0 0 0 0 0 0 0 0 0 0 0 0 0 0 0 0 0 0 0 0 0 0 0 0 0 0 0 0 0 0 0 0 0 0 0 0 0 0 0 0 0 0 0 0 0 0 0 0 0 0 0 0 0 0 0 0 0 0 0 0 0 0 0 0 0 0 0 0 0 0 0 0 0 0 0 0 0 0 0 0 0 0 0 0 0 0 0 0 0 0 0 0 0 0 0 0 0 0 0 0 0 0 0 0 0 0 0 0 0 0 0 0 0 0 0 0 0 0 0 0 0 0 0 0 0 0 0 0 0 0 0 0 0 0 0 0 0 0 0 0 0 0 0 0 0 0 0 0 0 0 0 0 0 0 0 0 0 0 0 0 0 0 0 0 0 0 0 0 0 0 0 0 0 0 0 0 0 0 0 0 0 0 0 0 0 0 0 0 0 0 0 0 0 0 0 0 0 0 0 0 0 0 0 0 0 0 0 0 0 0 0 0 0 0 0 0 0 0 0 0 0 0 0 0 0 0 0 0 0 0 0 0 0 0 0 0 0 0 0 0 0 0 0 0 0 0 0 0 0 0 0 0 0 0 0 0 0 0 0 0 0 0 0 0 0 0 0 0 0 0 0 0 0 0 0 0 0 0 0 0 0 0 0 0 0 0 0 0 0 0 0 0 0 0 0 0 0 0 0 0 0 0 0 0 0 0 0 0 0 0 0 0 0 0 0 0 0 0 0 0 0 0 0 0 0 0 0 0 0 0 0 0 0 0 0 0 0 0 0 0 0 0 0 0 0 0 0 0 0 0 0 0 0 0 0 0 0 0 0 0 0 0 0 0 0 0 0 0 0 0 0 0 0 0 0 0 0 0 0 0 0 0 0 0 0 0 0 0 0 0 0 0 0 0 0 0 0 0 0 0 0 0 0 0 0 0 0 0 0 0 0 0 0 0 0 0 0 0 0 0 0 0 0 0 0 0 0 0 0 0 0 0 0 0 0 0 0 0 0 0 0 0 0 0 0 0 0 0 0 0 0 0 0 0 0 0 0 0 0 0 0 0 0 0 0 0 0 0 0 0 0 0 0 0 0 0 0 0 0 0 0 0 0 0 0 0 0 0 0 0 0 0 0 0 0 0 0 0 0 0 0 0 0 0 0 0 0 0 0 0 0 0 0 0 0 0 0 0 0 0 0 0 0 0 0 0 0 0 0 0 0 0 0 0 0 0 0 0 0 0 0 0 0 0 0 0 0 0 0 0 0 0 0 0 0 0 0 0 0 0 0 0 0 0 0 0 0 0 0 0 0 0 0 0 0 0 0 0 0 0 0 0 0 0 0 0 0 0 0 0 0 0 0 0 0 0 0 0 0 0 0 0 0 0 0 0 0 0 0 0 0 0 0 0 0 0 0 0 0 0 0 0 0 0 0 0 0 0 0 0 0 0 0 0 0 0 0 0 0 0 0 0 0 0 0 0 0 0 0 0 0 0 0 0 0 0 0 0 0 0 0 0 0 0 0 0 0 0 0 0 0 0 0 0 0 0 0 0 0 0 0 0 0 0 0 0 0 0 0 0 0 0 0 0 0 0 0 0 0 0 0 0 0 0 0 0 0 0 0 0 0 0 0 0 0 0 0 0 0 0 0 0 0 0 0 0 0 0 0 0 0 0 0 0 0 0 0 0 0 0 0 0 0 0 0 0 0 0 0 0 0 0 0 0 0 0 0 0 0 0 0 0 0 0 0 0 0 0 0 0 0 0 0 0 0 0 0 0 0 0 0 0 0 0 0 0 0 0 0 0 0 0 0 0 0 0 0 0 0 0 0 0 0 0 0 0 0 0 0 0 0 0 0 0 0 0 0 0 0 0 0 0 0 0 0 0 0 0 0 0 0 0 0 0 0 0 0 0 0 0 0 0 0 0 0 0 0 0 0 0 0 0 0 0 0 0 0 0 0 0 0 0 0 0 0 0 0 0 0 0 0 0 0 0 0 0 0 0 0 0 0 0 0 0 0 0 0 0 0 0 0 0 0 0 0 0 0 0 0 0 0 0 0 0 0 0 0 0 0 0 0 0 0 0 0 0 0 0 0 0 0 0 0 0 0 0 0 0 0 0 0 0 0 0 0 0 0 0 0 0 0 0 0 0 0 0 0 0 0 0 0 0 0 0 0 0 0 0 0 0 0 0 0 0 0 0 0 0 0 0 0 0 0 0 0 0 0 0 0 0 0 0 0 0 0 0 0 0 0 0 0 0 0 0 0 0 0 0 0 0 0 0 0 0 0 0 0 0 0 0 0 0 0 0 0 0 0 0 0 0 0 0 0 0 0 0 0 0 0 0 0 0 0 0 0 0 0 0 0 0 0 0 0 0 0 0 0 0 0 0 0 0 0 0 0 0 0 0 0 0 0 0 0 0 0 0 0 0 0 0 0 0 0 0 0 0 0 0 0 0 0 0 0 0 0 0 0 0 0 0 0 0 0 0 0 0 0 0 0 0 0 0 0 0 0 0 0 0 0 0 0 0 0 0 0 0 0 0 0 0 0 0 0 0 0 0 0 0 0 0 0 0 0 0 0 0 0 0 0 0 0 0 0 0 0 0 0 0 0 0 0 0 0 0 0 0 0 0 0 0 0 0 0 0 0 0 0 0 0 0 0 0 0 0 0 0 0 0 0 0 0 0 0 0 0 0 0 0 0 0 0 0 0 0 0 0 0 0 0 0 0 0 0 0 0 0 0 0 0 0 0 0 0 0 0 0 0 0 0 0 0 0 0 0 0 0 0 0 0 0 0 0 0 0 0 0 0 0 0 0 0 0 0 0 0 0 0 0 0 0 0 0 0 0 0 0 0 0 0 0 0 0 0 0 0 0 0 0 0 0 0 0 0 0 0 0 0 0 0 0 0 0 0 0 0 0 0 0 0 0 0 0 0 0 0 0 0 0 0 0 0 0 0 0 0 0 0 0 0 0 0 0 0 0 0 0 0 0 0 0 0 0 0 0 0 0 0 0 0 0 0 0 0 0 0 0 0 0 0 0 0 0 0 0 0 0 0 0 0 0 0 0 0 0 0 0 0 0 0 0 0 0 0 0 0 0 0 0 0 0 0 0 0 0 0 0 0 0 0 0 0 0 0 0 0 0 0 0 0 0 0 0 0 0 0 0 0 0 0 0 0 0 0 0 0 0 0 0 0 0 0 0 0 0 0 0 0 0 0 0 0 0 0 0 0 0 0 0 0 0 0 0 0 0 0 0 0 0 0 0 0 0 0 0 0 0 0 0 0 0 0 0 0 0 0 0 0 0 0 0 0 0 0 0 0 0 0 0 0 0 0 0 0 0 0 0 0 0 0 0 0 0 0 0 0 0 0 0 0 0 0 0 0 0 0 0 0 0 0 0 0 0 0 0 0 0 0 0 0 0 0 0 0 0 0 0 0 0 0 0 0 0 0 0 0 0 0 0 0 0 0 0 0 0 0 0 0 0 0 0 0 0 0 0 0 0 0 0 0 0 0 0 0 0 0 0 0 0 0 0 0 0 0 0 0 0 0 0 0 0 0 0 0 0 0 0 0 0 0 0 0 0 0 0 0 0 0 0 0 0 0 0 0 0 0 0 0 0 0 0 0 0 0 0 0 0 0 0 0 0 0 0 0 0 0 0 0 0 0 0 0 0 0 0 0 0 0 0 0 0 0 0 0 0 0 0 0 0 0 0 0 0 0 0 0 0 0 0 0 0 0 0 0 0 0 0 0 0 0 0 0 0 0 0 0 0 0 0 0 0 0 0 0 0 0 0 0 0 0 0 0 0 0 0 0 0 0 0 0 0 0 0 0 0 0 0 0 0 0 0 0 0 0 0 0 0 0 0 0 0 0 0 0 0 0 0 0 0 0 0 0 0 0 0 0 0 0 0 0 0 0 0 0 0 0 0 0 0 0 0 0 0 0 0 0 0 0 0 0 0 0 0 0 0 0 0 0 0 0 0 0 0 0 0 0 0 0 0 0 0 0 0 0 0 0 0 0 0 0 0 0 0 0 0 0 0 0 0 0 0 0 0 0 0 0 0 0 0 0 0 0 0 0 0 0 0 0 0 0 0 0 0 0 0 0 0 0 0 0 0 0 0 0 0 0 0 0 0 0 0 0 0 0 0 0 0 0 0 0 0 0 0 0 0 0 0 0 0 0 0 0 0 0 0 0 0 0 0 0 0 0 0 0 0 0 0 0 0 0 0 0 0 0 0 0 0 0 0 0 0 0 0 0 0 0 0 0 0 0 0 0 0 0 0 0 0 0 0 0 0 0 0 0 0 0 0 0 0 0 0 0 0 0 0 0 0 0 0 0 0 0 0 0 0 0 0 0 0 0 0 0 0 0 0 0 0 0 0 0 0 0 0 0 0 0 0 0 0 0 0 0 0 0 0 0 0 0 0 0 0 0 0 0 0 0 0 0 0 0 0 0 0 0 0 0 0 0 0 0 0 0 0 0 0 0 0 0 0 0 0 0 0 0 0 0 0 0 0 0 0 0 0 0 0 0 0 0 0 0 0 0 0 0 0 0 0 0 0 0 0 0 0 0 0 0 0 0 0 0 0 0 0 0 0 0 0 0 0 0 0 0 0 0 0 0 0 0 0 0 0 0 0 0 0 0 0 0 0 0 0 0 0 0 0 0 0 0 0 0 0 0 0 0 0 0 0 0 0 0 0 0 0 0 0 0 0 0 0 0 0 0 0 0 0 0 0 0 0 0 0 0 0 0 0 0 0 0 0 0 0 0 0 0 0 0 0 0 0 0 0 0 0 0 0 0 0 0 0 0 0 0 0 0 0 0 0 0 0 0 0 0 0 0 0 0 0 0 0 0 0 0 0 0 0 0 0 0 0 0 0 0 0 0 0 0 0 0 0 0 0 0 0 0 0 0 0 0 0 0 0 0 0 0 0 0 0 0 0 0 0 0 0 0 0 0 0 0 0 0 0 0 0 0 0 0 0 0 0 0 0 0 0 0 0 0 0 0 0 0 0 0 0 0 0 0 0 0 0 0 0 0 0 0 0 0 0 0 0 0 0 0 0 0 0 0 0 0 0 0 0 0 0 0 0 0 0 0 0 0 0 0 0 0 0 0 0 0 0 0 0 0 0 0 0 0 0 0 0 0 0 0 0 0 0 0 0 0 0 0 0 0 0 0 0 0 0 0 0 0 0 0 0 0 0 0 0 0 0 0 0 0 0 0 0 0 0 0 0 0 0 0 0 0 0 0 0 0 0 0 0 0 0 0 0 0 0 0 0 0 0 0 0 0 0 0 0 0 0 0 0 0 0 0 0 0 0 0 0 0 0 0 0 0 0 0 0 0 0 0 0 0 0 0 0 0 0 0 0 0 0 0 0 0 0 0 0 0 0 0 0 0 0 0 0 0 0 0 0 0 0 0 0 0 0 0 0 0 0 0 0 0 0 0 0 0 0 0 0 0 0 0 0 0 0 0 0 0 0 0 0 0 0 0 0 0 0 0 0 0 0 0 0 0 0 0 0 0 0 0 0 0 0 0 0 0 0 0 0 0 0 0 0 0 0 0 0 0 0 0 0 0 0 0 0 0 0 0 0 0 0 0 0 0 0 0 0 0 0 0 0 0 0 0 0 0 0 0 0 0 0 0 0 0 0 0 0 0 0 0 0 0 0 0 0 0 0 0 0 0 0 0 0 0 0 0 0 0 0 0 0 0 0 0 0 0 0 0 0 0 0 0 0 0 0 0 0 0 0 0 0 0 0 0 0 0 0 0 0 0 0 0 0 0 0 0 0 0 0 0 0 0 0 0 0 0 0 0 0 0 0 0 0 0 0 0 0 0 0 0 0 0 0 0 0 0 0 0 0 0 0 0 0 0 0 0 0 0 0 0 0 0 0 0 0 0 0 0 0 0 0 0 0 0 0 0 0 0 0 0 0 0 0 0 0 0 0 0 0 0 0 0 0 0 0 0 0 0 0 0 0 0 0 0 0 0 0 0 0 0 0 0 0 0 0 0 0 0 0 0 0 0 0 0 0 0 0 0 0 0 0 0 0 0 0 0 0 0 0 0 0 0 0 0 0 0 0 0 0 0 0 0 0 0 0 0 0 0 0 0 0 0 0 0 0 0 0 0 0 0 0 0 0 0 0 0 0 0 0 0 0 0 0 0 0 0 0 0 0 0 0 0 0 0 0 0 0 0 0 0 0 0 0 0 0 0 0 0 0 0 0 0 0 0 0 0 0 0 0 0 0 0 0 0 0 0 0 0 0 0 0 0 0 0 0 0 0 0 0 0 0 0 0 0 0 0 0 0 0 0 0 0 0 0 0 0 0 0 0 0 0 0 0 0 0 0 0 0 0 0 0 0 0 0 0 0 0 0 0 0 0 0 0 0 0 0 0 0 0 0 0 0 0 0 0 0 0 0 0 0 0 0 0 0 0 0 0 0 0 0 0 0 0 0 0 0 0 0 0 0 0 0 0 0 0 0 0 0 0 0 0 0 0 0 0 0 0 0 0 0 0 0 0 0 0 0 0 0 0 0 0 0 0 0 0 0 0 0 0 0 0 0 0 0 0 0 0 0 0 0 0 0 0 0 0 0 0 0 0 0 0 0 0 0 0 0 0 0 0 0 0 0 0 0 0 0 0 0 0 0 0 0 0 0 0 0 0 0 0 0 0 0 0 0 0 0 0 0 0 0 0 0 0 0 0 0 0 0 0 0 0 0 0 0 0 0 0 0 0 0 0 0 0 0 0 0 0 0 0 0 0 0 0 0 0 0 0 0 0 0 0 0 0 0 0 0 0 0 0 0 0 0 0 0 0 0 0 0 0 0 0 0 0 0 0 0 0 0 0 0 0 0 0 0 0 0 0 0 0 0 0 0 0 0 0 0 0 0 0 0 0 0 0 0 0 0 0 0 0 0 0 0 0 0 0 0 0 0 0 0 0 0 0 0 0 0 0 0 0 0 0 0 0 0 0 0 0 0 0 0 0 0 0 0 0 0 0 0 0 0 0 0 0 0 0 0 0 0 0 0 0 0 0 0 0 0 0 0 0 0 0 0 0 0 0 0 0 0 0 0 0 0 0 0 0 0 0 0 0 0 0 0 0 0 0 0 0 0 0 0 0 0 0 0 0 0 0 0 0 0 0 0 0 0 0 0 0 0 0 0 0 0 0 0 0 0 0 0 0 0 0 0 0 0 0 0 0 0 0 0 0 0 0 0 0 0 0 0 0 0 0 0 0 0 0 0 0 0 0 0 0 0 0 0 0 0 0 0 0 0 0 0 0 0 0 0 0 0 0 0 0 0 0 0 0 0 0 0 0 0 0 0 0 0 0 0 0 0 0 0 0 0 0 0 0 0 0 0 0 0 0 0 0 0 0 0 0 0 0 0 0 0 0 0 0 0 0 0 0 0 0 0 0 0 0 0 0 0 0 0 0 0 0 0 0 0 0 0 0 0 0 0 0 0 0 0 0 0 0 0 0 0 0 0 0 0 0 0 0 0 0 0 0 0 0 0 0 0 0 0 0 0 0 0 0 0 0 0 0 0 0 0 0 0 0 0 0 0 0 0 0 0 0 0 0 0 0 0 0 0 0 0 0 0 0 0 0 0 0 0 0 0 0 0 0 0 0 0 0 0 0 0 0 0 0 0 0 0 0 0 0 0 0 0 0 0 0 0 0 0 0 0 0 0 0 0 0 0 0 0 0 0 0 0 0 0 0 0 0 0 0 0 0 0 0 0 0 0 0 0 0 0 0 0 0 0 0 0 0 0 0 0 0 0 0 0 0 0 0 0 0 0 0 0 0 0 0 0 0 0 0 0 0 0 0 0 0 0 0 0 0 0 0 0 0 0 0 0 0 0 0 0 0 0 0 0 0 0 0 0 0 0 0 0 0 0 0 0 0 0 0 0 0 0 0 0 0 0 0 0 0 0 0 0 0 0 0 0 0 0 0 0 0 0 0 0 0 0 0 0 0 0 0 0 0 0 0 0 0 0 0 0 0 0 0 0 0 0 0 0 0 0 0 0 0 0 0 0 0 0 0 0 0 0 0 0 0 0 0 0 0 0 0 0 0 0 0 0 0 0 0 0 0 0 0 0 0 0 0 0 0 0 0 0 0 0 0 0 0 0 0 0 0 0 0 0 0 0 0 0 0 0 0 0 0 0 0 0 0 0 0 0 0 0 0 0 0 0 0 0 0 0 0 0 0 0 0 0 0 0 0 0 0 0 0 0 0 0 0 0 0 0 0 0 0 0 0 0 0 0 0 0 0 0 0 0 0 0 0 0 0 0 0 0 0 0 0 0 0 0 0 0 0 0 0 0 0 0 0 0 0 0 0 0 0 0 0 0 0 0 0 0 0 0 0 0 0 0 0 0 0 0 0 0 0 0 0 0 0 0 0 0 0 0 0 0 0 0 0 0 0 0 0 0 0 0 0 0 0 0 0 0 0 0 0 0 0 0 0 0 0 0 0 0 0 0 0 0 0 0 0 0 0 0 0 0 0 0 0 0 0 0 0 0 0 0 0 0 0 0 0 0 0 0 0 0 0 0 0 0 0 0 0 0 0 0 0 0 0 0 0 0 0 0 0 0 0 0 0 0 0 0 0 0 0 0 0 0 0 0 0 0 0 0 0 0 0 0 0 0 0 0 0 0 0 0 0 0 0 0 0 0 0 0 0 0 0 0 0 0 0 0 0 0 0 0 0 0 0 0 0 0 0 0 0 0 0 0 0 0 0 0 0 0 0 0 0 0 0 0 0 0 0 0 0 0 0 0 0 0 0 0 0 0 0 0 0 0 0 0 0 0 0 0 0 0 0 0 0 0 0 0 0 0 0 0 0 0 0 0 0 0 0 0 0 0 0 0 0 0 0 0 0 0 0 0 0 0 0 0 0 0 0 0 0 0 0 0 0 0 0 0 0 0 0 0 0 0 0 0 0 0 0 0 0 0 0 0 0 0 0 0 0 0 0 0 0 0 0 0 0 0 0 0 0 0 0 0 0 0 0 0 0 0 0 0 0 0 0 0 0 0 0 0 0 0 0 0 0 0 0 0 0 0 0 0 0 0 0 0 0 0 0 0 0 0 0 0 0 0 0 0 0 0 0 0 0 0 0 0 0 0 0 0 0 0 0 0 0 0 0 0 0 0 0 0 0 0 0 0 0 0 0 0 0 0 0 0 0 0 0 0 0 0 0 0 0 0 0 0 0 0 0 0 0 0 0 0 0 0 0 0 0 0 0 0 0 0 0 0 0 0 0 0 0 0 0 0 0 0 0 0 0 0 0 0 0 0 0 0 0 0 0 0 0 0 0 0 0 0 0 0 0 0 0 0 0 0 0 0 0 0 0 0 0 0 0 0 0 0 0 0 0 0 0 0 0 0 0 0 0 0 0 0 0 0 0 0 0 0 0 0 0 0 0 0 0 0 0 0 0 0 0 0 0 0 0 0 0 0 0 0 0 0 0 0 0 0 0 0 0 0 0 0 0 0 0 0 0 0 0 0 0 0 0 0 0 0 0 0 0 0 0 0 0 0 0 0 0 0 0 0 0 0 0 0 0 0 0 0 0 0 0 0 0 0 0 0 0 0 0 0 0 0 0 0 0 0 0 0 0 0 0 0 0 0 0 0 0 0 0 0 0 0 0 0 0 0 0 0 0 0 0 0 0 0 0 0 0 0 0 0 0 0 0 0 0 0 0 0 0 0 0 0 0 0 0 0 0 0 0 0 0 0 0 0 0 0 0 0 0 0 0 0 0 0 0 0 0 0 0 0 0 0 0 0 0 0 0 0 0 0 0 0 0 0 0 0 0 0 0 0 0 0 0 0 0 0 0 0 0 0 0 0 0 0 0 0 0 0 0 0 0 0 0 0 0 0 0 0 0 0 0 0 0 0 0 0 0 0 0 0 0 0 0 0 0 0 0 0 0 0 0 0 0 0 0 0 0 0 0 0 0 0 0 0 0 0 0 0 0 0 0 0 0 0 0 0 0 0 0 0 0 0 0 0 0 0 0 0 0 0 0 0 0 0 0 0 0 0 0 0 0 0 0 0 0 0 0 0 0 0 0 0 0 0 0 0 0 0 0 0 0 0 0 0 0 0 0 0 0 0 0 0 0 0 0 0 0 0 0 0 0 0 0 0 0 0 0 0 0 0 0 0 0 0 0 0 0 0 0 0 0 0 0 0 0 0 0 0 0 0 0 0 0 0 0 0 0 0 0 0 0 0 0 0 0 0 0 0 0 0 0 0 0 0 0 0 0 0 0 0 0 0 0 0 0 0 0 0 0 0 0 0 0 0 0 0 0 0 0 0 0 0 0 0 0 0 0 0 0 0 0 0 0 0 0 0 0 0 0 0 0 0 0 0 0 0 0 0 0 0 0 0 0 0 0 0 0 0 0 0 0 0 0 0 0 0 0 0 0 0 0 0 0 0 0 0 0 0 0 0 0 0 0 0 0 0 0 0 0 0 0 0 0 0 0 0 0 0 0 0 0 0 0 0 0 0 0 0 0 0 0 0 0 0 0 0 0 0 0 0 0 0 0 0 0 0 0 0 0 0 0 0 0 0 0 0 0 0 0 0 0 0 0 0 0 0 0 0 0 0 0 0 0 0 0 0 0 0 0 0 0 0 0 0 0 0 0 0 0 0 0 0 0 0 0 0 0 0 0 0 0 0 0 0 0 0 0 0 0 0 0 0 0 0 0 0 0 0 0 0 0 0 0 0 0 0 0 0 0 0 0 0 0 0 0 0 0 0 0 0 0 0 0 0 0 0 0 0 0 0 0 0 0 0 0 0 0 0 0 0 0 0 0 0 0 0 0 0 0 0 0 0 0 0 0 0 0 0 0 0 0 0 0 0 0 0 0 0 0 0 0 0 0 0 0 0 0 0 0 0 0 0 0 0 0 0 0 0 0 0 0 0 0 0 0 0 0 0 0 0 0 0 0 0 0 0 0 0 0 0 0 0 0 0 0 0 0 0 0 0 0 0 0 0 0 0 0 0 0 0 0 0 0 0 0 0 0 0 0 0 0 0 0 0 0 0 0 0 0 0 0 0 0 0 0 0 0 0 0 0 0 0 0 0 0 0 0 0 0 0 0 0 0 0 0 0 0 0 0 0 0 0 0 0 0 0 0 0 0 0 0 0 0 0 0 0 0 0 0 0 0 0 0 0 0 0 0 0 0 0 0 0 0 0 0 0 0 0 0 0 0 0 0 0 0 0 0 0 0 0 0 0 0 0 0 0 0 0 0 0 0 0 0 0 0 0 0 0 0 0 0 0 0 0 0 0 0 0 0 0 0 0 0 0 0 0 0 0 0 0 0 0 0 0 0 0 0 0 0 0 0 0 0 0 0 0 0 0 0 0 0 0 0 0 0 0 0 0 0 0 0 0 0 0 0 0 0 0 0 0 0 0 0 0 0 0 0 0 0 0 0 0 0 0 0 0 0 0 0 0 0 0 0 0 0 0 0 0 0 0 0 0 0 0 0 0 0 0 0 0 0 0 0 0 0 0 0 0 0 0 0 0 0 0 0 0 0 0 0 0 0 0 0 0 0 0 0 0 0 0 0 0 0 0 0 0 0 0 0 0 0 0 0 0 0 0 0 0 0 0 0 0 0 0 0 0 0 0 0 0 0 0 0 0 0 0 0 0 0 0 0 0 0 0 0 0 0 0 0 0 0 0 0 0 0 0 0 0 0 0 0 0 0 0 0 0 0 0 0 0 0 0 0 0 0 0 0 0 0 0 0 0 0 0 0 0 0 0 0 0 0 0 0 0 0 0 0 0 0 0 0 0 0 0 0 0 0 0 0 0 0 0 0 0 0 0 0 0 0 0 0 0 0 0 0 0 0 0 0 0 0 0 0 0 0 0 0 0 0 0 0 0 0 0 0 0 0 0 0 0 0 0 0 0 0 0 0 0 0 0 0 0 0 0 0 0 0 0 0 0 0 0 0 0 0 0 0 0 0 0 0 0 0 0 0 0 0 0 0 0 0 0 0 0 0 0 0 0 0 0 0 0 0 0 0 0 0 0 0 0 0 0 0 0 0 0 0 0 0 0 0 0 0 0 0 0 0 0 0 0 0 0 0 0 0 0 0 0 0 0 0 0 0 0 0 0 0 0 0 0 0 0 0 0 0 0 0 0 0 0 0 0 0 0 0 0 0 0 0 0 0 0 0 0 0 0 0 0 0 0 0 0 0 0 0 0 0 0 0 0 0 0 0 0 0 0 0 0 0 0 0 0 0 0 0 0 0 0 0 0 0 0 0 0 0 0 0 0 0 0 0 0 0 0 0 0 0 0 0 0 0 0 0 0 0 0 0 0 0 0 0 0 0 0 0 0 0 0 0 0 0 0 0 0 0 0 0 0 0 0 0 0 0 0 0 0 0 0 0 0 0 0 0 0 0 0 0 0 0 0 0 0 0 0 0 0 0 0 0 0 0 0 0 0 0 0 0 0 0 0 0 0 0 0 0 0 0 0 0 0 0 0 0 0 0 0 0 0 0 0 0 0 0 0 0 0 0 0 0 0 0 0 0 0 0 0 0 0 0 0 0 0 0 0 0 0 0 0 0 0 0 0 0 0 0 0 0 0 0 0 0 0 0 0 0 0 0 0 0 0 0 0 0 0 0 0 0 0 0 0 0 0 0 0 0 0 0 0 0 0 0 0 0 0 0 0 0 0 0 0 0 0 0 0 0 0 0 0 0 0 0 0 0 0 0 0 0 0 0 0 0 0 0 0 0 0 0 0 0 0 0 0 0 0 0 0 0 0 0 0 0 0 0 0 0 0 0 0 0 0 0 0 0 0 0 0 0 0 0 0 0 0 0 0 0 0 0 0 0 0 0 0 0 0 0 0 0 0 0 0 0 0 0 0 0 0 0 0 0 0 0 0 0 0 0 0 0 0 0 0 0 0 0 0 0 0 0 0 0 0 0 0 0 0 0 0 0 0 0 0 0 0 0 0 0 0 0 0 0 0 0 0 0 0 0 0 0 0 0 0 0 0 0 0 0 0 0 0 0 0 0 0 0 0 0 0 0 0 0 0 0 0 0 0 0 0 0 0 0 0 0 0 0 0 0 0 0 0 0 0 0 0 0 0 0 0 0 0 0 0 0 0 0 0 0 0 0 0 0 0 0 0 0 0 0 0 0 0 0 0 0 0 0 0 0 0 0 0 0 0 0 0 0 0 0 0 0 0 0 0 0 0 0 0 0 0 0 0 0 0 0 0 0 0 0 0 0 0 0 0 0 0 0 0 0 0 0 0 0 0 0 0 0 0 0 0 0 0 0 0 0 0 0 0 0 0 0 0 0 0 0 0 0 0 0 0 0 0 0 0 0 0 0 0 0 0 0 0 0 0 0 0 0 0 0 0 0 0 0 0 0 0 0 0 0 0 0 0 0 0 0 0 0 0 0 0 0 0 0 0 0 0 0 0 0 0 0 0 0 0 0 0 0 0 0 0 0 0 0 0 0 0 0 0 0 0 0 0 0 0 0 0 0 0 0 0 0 0 0 0 0 0 0 0 0 0 0 0 0 0 0 0 0 0 0 0 0 0 0 0 0 0 0 0 0 0 0 0 0 0 0 0 0 0 0 0 0 0 0 0 0 0 0 0 0 0 0 0 0 0 0 0 0 0 0 0 0 0 0 0 0 0 0 0 0 0 0 0 0 0 0 0 0 0 0 0 0 0 0 0 0 0 0 0 0 0 0 0 0 0 0 0 0 0 0 0 0 0 0 0 0 0 0 0 0 0 0 0 0 0 0 0 0 0 0 0 0 0 0 0 0 0 0 0 0 0 0 0 0 0 0 0 0 0 0 0 0 0 0 0 0 0 0 0 0 0 0 0 0 0 0 0 0 0 0 0 0 0 0 0 0 0 0 0 0 0 0 0 0 0 0 0 0 0 0 0 0 0 0 0 0 0 0 0 0 0 0 0 0 0 0 0 0 0 0 0 0 0 0 0 0 0 0 0 0 0 0 0 0 0 0 0 0 0 0 0 0 0 0 0 0 0 0 0 0 0 0 0 0 0 0 0 0 0 0 0 0 0 0 0 0 0 0 0 0 0 0 0 0 0 0 0 0 0 0 0 0 0 0 0 0 0 0 0 0 0 0 0 0 0 0 0 0 0 0 0 0 0 0 0 0 0 0 0 0 0 0 0 0 0 0 0 0 0 0 0 0 0 0 0 0 0 0 0 0 0 0 0 0 0 0 0 0 0 0 0 0 0 0 0 0 0 0 0 0 0 0 0 0 0 0 0 0 0 0 0 0 0 0 0 0 0 0 0 0 0 0 0 0 0 0 0 0 0 0 0 0 0 0 0 0 0 0 0 0 0 0 0 0 0 0 0 0 0 0 0 0 0 0 0 0 0 0 0 0 0 0 0 0 0 0 0 0 0 0 0 0 0 0 0 0 0 0 0 0 0 0 0 0 0 0 0 0 0 0 0 0 0 0 0 0 0 0 0 0 0 0 0 0 0 0 0 0 0 0 0 0 0 0 0 0 0 0 0 0 0 0 0 0 0 0 0 0 0 0 0 0 0 0 0 0 0 0 0 0 0 0 0 0 0 0 0 0 0 0 0 0 0 0 0 0 0 0 0 0 0 0 0 0 0 0 0 0 0 0 0 0 0 0 0 0 0 0 0 0 0 0 0 0 0 0 0 0 0 0 0 0 0 0 0 0 0 0 0 0 0 0 0 0 0 0 0 0 0 0 0 0 0 0 0 0 0 0 0 0 0 0 0 0 0 0 0 0 0 0 0 0 0 0 0 0 0 0 0 0 0 0 0 0 0 0 0 0 0 0 0 0 0 0 0 0 0 0 0 0 0 0 0 0 0 0 0 0 0 0 0 0 0 0 0 0 0 0 0 0 0 0 0 0 0 0 0 0 0 0 0 0 0 0 0 0 0 0 0 0 0 0 0 0 0 0 0 0 0 0 0 0 0 0 0 0 0 0 0 0 0 0 0 0 0 0 0 0 0 0 0 0 0 0 0 0 0 0 0 0 0 0 0 0 0 0 0 0 0 0 0 0 0 0 0 0 0 0 0 0 0 0 0 0 0 0 0 0 0 0 0 0 0 0 0 0 0 0 0 0 0 0 0 0 0 0 0 0 0 0 0 0 0 0 0 0 0 0 0 0 0 0 0 0 0 0 0 0 0 0 0 0 0 0 0 0 0 0 0 0 0 0 0 0 0 0 0 0 0 0 0 0 0 0 0 0 0 0 0 0 0 0 0 0 0 0 0 0 0 0 0 0 0 0 0 0 0 0 0 0 0 0 0 0 0 0 0 0 0 0 0 0 0 0 0 0 0 0 0 0 0 0 0 0 0 0 0 0 0 0 0 0 0 0 0 0 0 0 0 0 0 0 0 0 0 0 0 0 0 0 0 0 0 0 0 0 0 0 0 0 0 0 0 0 0 0 0 0 0 0 0 0 0 0 0 0 0 0 0 0 0 0 0 0 0 0 0 0 0 0 0 0 0 0 0 0 0 0 0 0 0 0 0 0 0 0 0 0 0 0 0 0 0 0 0 0 0 0 0 0 0 0 0 0 0 0 0 0 0 0 0 0 0 0 0 0 0 0 0 0 0 0 0 0 0 0 0 0 0 0 0 0 0 0 0 0 0 0 0 0 0 0 0 0 0 0 0 0 0 0 0 0 0 0 0 0 0 0 0 0 0 0 0 0 0 0 0 0 0 0 0 0 0 0 0 0 0 0 0 0 0 0 0 0 0 0 0 0 0 0 0 0 0 0 0 0 0 0 0 0 0 0 0 0 0 0 0 0 0 0 0 0 0 0 0 0 0 0 0 0 0 0 0 0 0 0 0 0 0 0 0 0 0 0 0 0 0 0 0 0 0 0 0 0 0 0 0 0 0 0 0 0 0 0 0 0 0 0 0 0 0 0 0 0 0 0 0 0 0 0 0 0 0 0 0 0 0 0 0 0 0 0 0 0 0 0 0 0 0 0 0 0 0 0 0 0 0 0 0 0 0 0 0 0 0 0 0 0 0 0 0 0 0 0 0 0 0 0 0 0 0 0 0 0 0 0 0 0 0 0 0 0 0 0 0 0 0 0 0 0 0 0 0 0 0 0 0 0 0 0 0 0 0 0 0 0 0 0 0 0 0 0 0 0 0 0 0 0 0 0 0 0 0 0 0 0 0 0 0 0 0 0 0 0 0 0 0 0 0 0 0 0 0 0 0 0 0 0 0 0 0 0 0 0 0 0 0 0 0 0 0 0 0 0 0 0 0 0 0 0 0 0 0 0 0 0 0 0 0 0 0 0 0 0 0 0 0 0 0 0 0 0 0 0 0 0 0 0 0 0 0 0 0 0 0 0 0 0 0 0 0 0 0 0 0 0 0 0 0 0 0 0 0 0 0 0 0 0 0 0 0 0 0 0 0 0 0 0 0 0 0 0 0 0 0 0 0 0 0 0 0 0 0 0 0 0 0 0 0 0 0 0 0 0 0 0 0 0 0 0 0 0 0 0 0 0 0 0 0 0 0 0 0 0 0 0 0 0 0 0 0 0 0 0 0 0 0 0 0 0 0 0 0 0 0 0 0 0 0 0 0 0 0 0 0 0 0 0 0 0 0 0 0 0 0 0 0 0 0 0 0 0 0 0 0 0 0 0 0 0 0 0 0 0 0 0 0 0 0 0 0 0 0 0 0 0 0 0 0 0 0 0 0 0 0 0 0 0 0 0 0 0 0 0 0 0 0 0 0 0 0 0 0 0 0 0 0 0 0 0 0 0 0 0 0 0 0 0 0 0 0 0 0 0 0 0 0 0 0 0 0 0 0 0 0 0 0 0 0 0 0 0 0 0 0 0 0 0 0 0 0 0 0 0 0 0 0 0 0 0 0 0 0 0 0 0 0 0 0 0 0 0 0 0 0 0 0 0 0 0 0 0 0 0 0 0 0 0 0 0 0 0 0 0 0 0 0 0 0 0 0 0 0 0 0 0 0 0 0 0 0 0 0 0 0 0 0 0 0 0 0 0 0 0 0 0 0 0 0 0 0 0 0 0 0 0 0 0 0 0 0 0 0 0 0 0 0 0 0 0 0 0 0 0 0 0 0 0 0 0 0 0 0 0 0 0 0 0 0 0 0 0 0 0 0 0 0 0 0 0 0 0 0 0 0 0 0 0 0 0 0 0 0 0 0 0 0 0 0 0 0 0 0 0 0 0 0 0 0 0 0 0 0 0 0 0 0 0 0 0 0 0 0 0 0 0 0 0 0 0 0 0 0 0 0 0 0 0 0 0 0 0 0 0 0 0 0 0 0 0 0 0 0 0 0 0 0 0 0 0 0 0 0 0 0 0 0 0 0 0 0 0 0 0 0 0 0 0 0 0 0 0 0 0 0 0 0 0 0 0 0 0 0 0 0 0 0 0 0 0 0 0 0 0 0 0 0 0 0 0 0 0 0 0 0 0 0 0 0 0 0 0 0 0 0 0 0 0 0 0 0 0 0 0 0 0 0 0 0 0 0 0 0 0 0 0 0 0 0 0 0 0 0 0 0 0 0 0 0 0 0 0 0 0 0 0 0 0 0 0 0 0 0 0 0 0 0 0 0 0 0 0 0 0 0 0 0 0 0 0 0 0 0 0 0 0 0 0 0 0 0 0 0 0 0 0 0 0 0 0 0 0 0 0 0 0 0 0 0 0 0 0 0 0 0 0 0 0 0 0 0 0 0 0 0 0 0 0 0 0 0 0 0 0 0 0 0 0 0 0 0 0 0 0 0 0 0 0 0 0 0 0 0 0 0 0 0 0 0 0 0 0 0 0 0 0 0 0 0 0 0 0 0 0 0 0 0 0 0 0 0 0 0 0 0 0 0 0 0 0 0 0 0 0 0 0 0 0 0 0 0 0 0 0 0 0 0 0 0 0 0 0 0 0 0 0 0 0 0 0 0 0 0 0 0 0 0 0 0 0 0 0 0 0 0 0 0 0 0 0 0 0 0 0 0 0 0 0 0 0 0 0 0 0 0 0 0 0 0 0 0 0 0 0 0 0 0 0 0 0 0 0 0 0 0 0 0 0 0 0 0 0 0 0 0 0 0 0 0 0 0 0 0 0 0 0 0 0 0 0 0 0 0 0 0 0 0 0 0 0 0 0 0 0 0 0 0 0 0 0 0 0 0 0 0 0 0 0 0 0 0 0 0 0 0 0 0 0 0 0 0 0 0 0 0 0 0 0 0 0 0 0 0 0 0 0 0 0 0 0 0 0 0 0 0 0 0 0 0 0 0 0 0 0 0 0 0 0 0 0 0 0 0 0 0 0 0 0 0 0 0 0 0 0 0 0 0 0 0 0 0 0 0 0 0 0 0 0 0 0 0 0 0 0 0 0 0 0 0 0 0 0 0 0 0 0 0 0 0 0 0 0 0 0 0 0 0 0 0 0 0 0 0 0 0 0 0 0 0 0 0 0 0 0 0 0 0 0 0 0 0 0 0 0 0 0 0 0 0 0 0 0 0 0 0 0 0 0 0 0 0 0 0 0 0 0 0 0 0 0 0 0 0 0 0 0 0 0 0 0 0 0 0 0 0 0 0 0 0 0 0 0 0 0 0 0 0 0 0 0 0 0 0 0 0 0 0 0 0 0 0 0 0 0 0 0 0 0 0 0 0 0 0 0 0 0 0 0 0 0 0 0 0 0 0 0 0 0 0 0 0 0 0 0 0 0 0 0 0 0 0 0 0 0 0 0 0 0 0 0 0 0 0 0 0 0 0 0 0 0 0 0 0 0 0 0 0 0 0 0 0 0 0 0 0 0 0 0 0 0 0 0 0 0 0 0 0 0 0 0 0 0 0 0 0 0 0 0 0 0 0 0 0 0 0 0 0 0 0 0 0 0 0 0 0 0 0 0 0 0 0 0 0 0 0 0 0 0 0 0 0 0 0 0 0 0 0 0 0 0 0 0 0 0 0 0 0 0 0 0 0 0 0 0 0 0 0 0 0 0 0 0 0 0 0 0 0 0 0 0 0 0 0 0 0 0 0 0 0 0 0 0 0 0 0 0 0 0 0 0 0 0 0 0 0 0 0 0 0 0 0 0 0 0 0 0 0 0 0 0 0 0 0 0 0 0 0 0 0 0 0 0 0 0 0 0 0 0 0 0 0 0 0 0 0 0 0 0 0 0 0 0 0 0 0 0 0 0 0 0 0 0 0 0 0 0 0 0 0 0 0 0 0 0 0 0 0 0 0 0 0 0 0 0 0 0 0 0 0 0 0 0 0 0 0 0 0 0 0 0 0 0 0 0 0 0 0 0 0 0 0 0 0 0 0 0 0 0 0 0 0 0 0 0 0 0 0 0 0 0 0 0 0 0 0 0 0 0 0 0 0 0 0 0 0 0 0 0 0 0 0 0 0 0 0 0 0 0 0 0 0 0 0 0 0 0 0 0 0 0 0 0 0 0 0 0 0 0 0 0 0 0 0 0 0 0 0 0 0 0 0 0 0 0 0 0 0 0 0 0 0 0 0 0 0 0 0 0 0 0 0 0 0 0 0 0 0 0 0 0 0 0 0 0 0 0 0 0 0 0 0 0 0 0 0 0 0 0 0 0 0 0 0 0 0 0 0 0 0 0 0 0 0 0 0 0 0 0 0 0 0 0 0 0 0 0 0 0 0 0 0 0 0 0 0 0 0 0 0 0 0 0 0 0 0 0 0 0 0 0 0 0 0 0 0 0 0 0 0 0 0 0 0 0 0 0 0 0 0 0 0 0 0 0 0 0 0 0 0 0 0 0 0 0 0 0 0 0 0 0 0 0 0 0 0 0 0 0 0 0 0 0 0 0 0 0 0 0 0 0 0 0 0 0 0 0 0 0 0 0 0 0 0 0 0 0 0 0 0 0 0 0 0 0 0 0 0 0 0 0 0 0 0 0 0 0 0 0 0 0 0 0 0 0 0 0 0 0 0 0 0 0 0 0 0 0 0 0 0 0 0 0 0 0 0 0 0 0 0 0 0 0 0 0 0 0 0 0 0 0 0 0 0 0 0 0 0 0 0 0 0 0 0 0 0 0 0 0 0 0 0 0 0 0 0 0 0 0 0 0 0 0 0 0 0 0 0 0 0 0 0 0 0 0 0 0 0 0 0 0 0 0 0 0 0 0 0 0 0 0 0 0 0 0 0 0 0 0 0 0 0 0 0 0 0 0 0 0 0 0 0 0 0 0 0 0 0 0 0 0 0 0 0 0 0 0 0 0 0 0 0 0 0 0 0 0 0 0 0 0 0 0 0 0 0 0 0 0 0 0 0 0 0 0 0 0 0 0 0 0 0 0 0 0 0 0 0 0 0 0 0 0 0 0 0 0 0 0 0 0 0 0 0 0 0 0 0 0 0 0 0 0 0 0 0 0 0 0 0 0 0 0 0 0 0 0 0 0 0 0 0 0 0 0 0 0 0 0 0 0 0 0 0 0 0 0 0 0 0 0 0 0 0 0 0 0 0 0 0 0 0 0 0 0 0 0 0 0 0 0 0 0 0 0 0 0 0 0 0 0 0 0 0 0 0 0 0 0 0 0 0 0 0 0 0 0 0 0 0 0 0 0 0 0 0 0 0 0 0 0 0 0 0 0 0 0 0 0 0 0 0 0 0 0 0 0 0 0 0 0 0 0 0 0 0 0 0 0 0 0 0 0 0 0 0 0 0 0 0 0 0 0 0 0 0 0 0 0 0 0 0 0 0 0 0 0 0 0 0 0 0 0 0 0 0 0 0 0 0 0 0 0 0 0 0 0 0 0 0 0 0 0 0 0 0 0 0 0 0 0 0 0 0 0 0 0 0 0 0 0 0 0 0 0 0 0 0 0 0 0 0 0 0 0 0 0 0 0 0 0 0 0 0 0 0 0 0 0 0 0 0 0 0 0 0 0 0 0 0 0 0 0 0 0 0 0 0 0 0 0 0 0 0 0 0 0 0 0 0 0 0 0 0 0 0 0 0 0 0 0 0 0 0 0 0 0 0 0 0 0 0 0 0 0 0 0 0 0 0 0 0 0 0 0 0 0 0 0 0 0 0 0 0 0 0 0 0 0 0 0 0 0 0 0 0 0 0 0 0 0 0 0 0 0 0 0 0 0 0 0 0 0 0 0 0 0 0 0 0 0 0 0 0 0 0 0 0 0 0 0 0 0 0 0 0 0 0 0 0 0 0 0 0 0 0 0 0 0 0 0 0 0 0 0 0 0 0 0 0 0 0 0 0 0 0 0 0 0 0 0 0 0 0 0 0 0 0 0 0 0 0 0 0 0 0 0 0 0 0 0 0 0 0 0 0 0 0 0 0 0 0 0 0 0 0 0 0 0 0 0 0 0 0 0 0 0 0 0 0 0 0 0 0 0 0 0 0 0 0 0 0 0 0 0 0 0 0 0 0 0 0 0 0 0 0 0 0 0 0 0 0 0 0 0 0 0 0 0 0 0 0 0 0 0 0 0 0 0 0 0 0 0 0 0 0 0 0 0 0 0 0 0 0 0 0 0 0 0 0 0 0 0 0 0 0 0 0 0 0 0 0 0 0 0 0 0 0 0 0 0 0 0 0 0 0 0 0 0 0 0 0 0 0 0 0 0 0 0 0 0 0 0 0 0 0 0 0 0 0 0 0 0 0 0 0 0 0 0 0 0 0 0 0 0 0 0 0 0 0 0 0 0 0 0 0 0 0 0 0 0 0 0 0 0 0 0 0 0 0 0 0 0 0 0 0 0 0 0 0 0 0 0 0 0 0 0 0 0 0 0 0 0 0 0 0 0 0 0 0 0 0 0 0 0 0 0 0 0 0 0 0 0 0 0 0 0 0 0 0 0 0 0 0 0 0 0 0 0 0 0 0 0 0 0 0 0 0 0 0 0 0 0 0 0 0 0 0 0 0 0 0 0 0 0 0 0 0 0 0 0 0 0 0 0 0 0 0 0 0 0 0 0 0 0 0 0 0 0 0 0 0 0 0 0 0 0 0 0 0 0 0 0 0 0 0 0 0 0 0 0 0 0 0 0 0 0 0 0 0 0 0 0 0 0 0 0 0 0 0 0 0 0 0 0 0 0 0 0 0 0 0 0 0 0 0 0 0 0 0 0 0 0 0 0 0 0 0 0 0 0 0 0 0 0 0 0 0 0 0 0 0 0 0 0 0 0 0 0 0 0 0 0 0 0 0 0 0 0 0 0 0 0 0 0 0 0 0 0 0 0 0 0 0 0 0 0 0 0 0 0 0 0 0 0 0 0 0 0 0 0 0 0 0 0 0 0 0 0 0 0 0 0 0 0 0 0 0 0 0 0 0 0 0 0 0 0 0 0 0 0 0 0 0 0 0 0 0 0 0 0 0 0 0 0 0 0 0 0 0 0 0 0 0 0 0 0 0 0 0 0 0 0 0 0 0 0 0 0 0 0 0 0 0 0 0 0 0 0 0 0 0 0 0 0 0 0 0 0 0 0 0 0 0 0 0 0 0 0 0 0 0 0 0 0 0 0 0 0 0 0 0 0 0 0 0 0 0 0 0 0 0 0 0 0 0 0 0 0 0 0 0 0 0 0 0 0 0 0 0 0 0 0 0 0 0 0 0 0 0 0 0 0 0 0 0 0 0 0 0 0 0 0 0 0 0 0 0 0 0 0 0 0 0 0 0 0 0 0 0 0 0 0 0 0 0 0 0 0 0 0 0 0 0 0 0 0 0 0 0 0 0 0 0 0 0 0 0 0 0 0 0 0 0 0 0 0 0 0 0 0 0 0 0 0 0 0 0 0 0 0 0 0 0 0 0 0 0 0 0 0 0 0 0 0 0 0 0 0 0 0 0 0 0 0 0 0 0 0 0 0 0 0 0 0 0 0 0 0 0 0 0 0 0 0 0 0 0 0 0 0 0 0 0 0 0 0 0 0 0 0 0 0 0 0 0 0 0 0 0 0 0 0 0 0 0 0 0 0 0 0 0 0 0 0 0 0 0 0 0 0 0 0 0 0 0 0 0 0 0 0 0 0 0 0 0 0 0 0 0 0 0 0 0 0 0 0 0 0 0 0 0 0 0 0 0 0 0 0 0 0 0 0 0 0 0 0 0 0 0 0 0 0 0 0 0 0 0 0 0 0 0 0 0 0 0 0 0 0 0 0 0 0 0 0 0 0 0 0 0 0 0 0 0 0 0 0 0 0 0 0 0 0 0 0 0 0 0 0 0 0 0 0 0 0 0 0 0 0 0 0 0 0 0 0 0 0 0 0 0 0 0 0 0 0 0 0 0 0 0 0 0 0 0 0 0 0 0 0 0 0 0 0 0 0 0 0 0 0 0 0 0 0 0 0 0 0 0 0 0 0 0 0 0 0 0 0 0 0 0 0 0 0 0 0 0 0 0 0 0 0 0 0 0 0 0 0 0 0 0 0 0 0 0 0 0 0 0 0 0 0 0 0 0 0 0 0 0 0 0 0 0 0 0 0 0 0 0 0 0 0 0 0 0 0 0 0 0 0 0 0 0 0 0 0 0 0 0 0 0 0 0 0 0 0 0 0 0 0 0 0 0 0 0 0 0 0 0 0 0 0 0 0 0 0 0 0 0 0 0 0 0 0 0 0 0 0 0 0 0 0 0 0 0 0 0 0 0 0 0 0 0 0 0 0 0 0 0 0 0 0 0 0 0 0 0 0 0 0 0 0 0 0 0 0 0 0 0 0 0 0 0 0 0 0 0 0 0 0 0 0 0 0 0 0 0 0 0 0 0 0 0 0 0 0 0 0 0 0 0 0 0 0 0 0 0 0 0 0 0 0 0 0 0 0 0 0 0 0 0 0 0 0 0 0 0 </DataArray>
        <DataArray type="Int64" IdType="1" Name="vtkOriginalCellIds" format="ascii" RangeMin="0" RangeMax="13803">0 1 2 3 4 5 6 7 8 9 10 11 12 13 14 15 16 17 18 19 20 21 22 23 24 25 26 27 28 29 30 31 32 33 34 35 36 37 38 39 40 41 42 43 44 45 46 47 48 49 50 51 52 53 54 55 56 57 58 59 60 61 62 63 64 65 66 67 68 69 70 71 72 73 74 75 76 77 78 79 80 81 82 83 84 85 86 87 88 89 90 91 92 93 94 95 96 97 98 99 100 101 102 103 104 105 106 107 108 109 110 111 112 113 114 115 116 117 118 119 120 121 122 123 124 125 126 127 128 129 130 131 132 133 134 135 136 137 138 139 140 141 142 143 144 145 146 147 148 149 150 151 152 153 154 155 156 157 158 159 160 161 162 163 164 165 166 167 168 169 170 171 172 173 174 175 176 177 178 179 180 181 182 183 184 185 186 187 188 189 190 191 192 193 194 195 196 197 198 199 200 201 202 203 204 205 206 207 208 209 210 211 212 213 214 215 216 217 218 219 220 221 222 223 224 225 226 227 228 229 230 231 232 233 234 235 236 237 238 239 240 241 242 243 244 245 246 247 248 249 250 251 252 253 254 255 256 257 258 259 260 261 262 263 264 265 266 267 268 269 270 271 272 273 274 275 276 277 278 279 280 281 282 283 284 285 286 287 288 289 290 291 292 293 294 295 296 297 298 299 300 301 302 303 304 305 306 307 308 309 310 311 312 313 314 315 316 317 318 319 320 321 322 323 324 325 326 327 328 329 330 331 332 333 334 335 336 337 338 339 340 341 342 343 344 345 346 347 348 349 350 351 352 353 354 355 356 357 358 359 360 361 362 363 364 365 366 367 368 369 370 371 372 373 374 375 376 377 378 379 380 381 382 383 384 385 386 387 388 389 390 391 392 393 394 395 396 397 398 399 400 401 402 403 404 405 406 407 408 409 410 411 412 413 414 415 416 417 418 419 420 421 422 423 424 425 426 427 428 429 430 431 432 433 434 435 436 437 438 439 440 441 442 443 444 445 446 447 448 449 450 451 452 453 454 455 456 457 458 459 460 461 462 463 464 465 466 467 468 469 470 471 472 473 474 475 476 477 478 479 480 481 482 483 484 485 486 487 488 489 490 491 492 493 494 495 496 497 498 499 500 501 502 503 504 505 506 507 508 509 510 511 512 513 514 515 516 517 518 519 520 521 522 523 524 525 526 527 528 529 530 531 532 533 534 535 536 537 538 539 540 541 542 543 544 545 546 547 548 549 550 551 552 553 554 555 556 557 558 559 560 561 562 563 564 565 566 567 568 569 570 571 572 573 574 575 576 577 578 579 580 581 582 583 584 585 586 587 588 589 590 591 592 593 594 595 596 597 598 599 600 601 602 603 604 605 606 607 608 609 610 611 612 613 614 615 616 617 618 619 620 621 622 623 624 625 626 627 628 629 630 631 632 633 634 635 636 637 638 639 640 641 642 643 644 645 646 647 648 649 650 651 652 653 654 655 656 657 658 659 660 661 662 663 664 665 666 667 668 669 670 671 672 673 674 675 676 677 678 679 680 681 682 683 684 685 686 687 688 689 690 691 692 693 694 695 696 697 698 699 700 701 702 703 704 705 706 707 708 709 710 711 712 713 714 715 716 717 718 719 720 721 722 723 724 725 726 727 728 729 730 731 732 733 734 735 736 737 738 739 740 741 742 743 744 745 746 747 748 749 750 751 752 753 754 755 756 757 758 759 760 761 762 763 764 765 766 767 768 769 770 771 772 773 774 775 776 777 778 779 780 781 782 783 784 785 786 787 788 789 790 791 792 793 794 795 796 797 798 799 800 801 802 803 804 805 806 807 808 809 810 811 812 813 814 815 816 817 818 819 820 821 822 823 824 825 826 827 828 829 830 831 832 833 834 835 836 837 838 839 840 841 842 843 844 845 846 847 848 849 850 851 852 853 854 855 856 857 858 859 860 861 862 863 864 865 866 867 868 869 870 871 872 873 874 875 876 877 878 879 880 881 882 883 884 885 886 887 888 889 890 891 892 893 894 895 896 897 898 899 900 901 902 903 904 905 906 907 908 909 910 911 912 913 914 915 916 917 918 919 920 921 922 923 924 925 926 927 928 929 930 931 932 933 934 935 936 937 938 939 940 941 942 943 944 945 946 947 948 949 950 951 952 953 954 955 956 957 958 959 960 961 962 963 964 965 966 967 968 969 970 971 972 973 974 975 976 977 978 979 980 981 982 983 984 985 986 987 988 989 990 991 992 993 994 995 996 997 998 999 1000 1001 1002 1003 1004 1005 1006 1007 1008 1009 1010 1011 1012 1013 1014 1015 1016 1017 1018 1019 1020 1021 1022 1023 1024 1025 1026 1027 1028 1029 1030 1031 1032 1033 1034 1035 1036 1037 1038 1039 1040 1041 1042 1043 1044 1045 1046 1047 1048 1049 1050 1051 1052 1053 1054 1055 1056 1057 1058 1059 1060 1061 1062 1063 1064 1065 1066 1067 1068 1069 1070 1071 1072 1073 1074 1075 1076 1077 1078 1079 1080 1081 1082 1083 1084 1085 1086 1087 1088 1089 1090 1091 1092 1093 1094 1095 1096 1097 1098 1099 1100 1101 1102 1103 1104 1105 1106 1107 1108 1109 1110 1111 1112 1113 1114 1115 1116 1117 1118 1119 1120 1121 1122 1123 1124 1125 1126 1127 1128 1129 1130 1131 1132 1133 1134 1135 1136 1137 1138 1139 1140 1141 1142 1143 1144 1145 1146 1147 1148 1149 1150 1151 1152 1153 1154 1155 1156 1157 1158 1159 1160 1161 1162 1163 1164 1165 1166 1167 1168 1169 1170 1171 1172 1173 1174 1175 1176 1177 1178 1179 1180 1181 1182 1183 1184 1185 1186 1187 1188 1189 1190 1191 1192 1193 1194 1195 1196 1197 1198 1199 1200 1201 1202 1203 1204 1205 1206 1207 1208 1209 1210 1211 1212 1213 1214 1215 1216 1217 1218 1219 1220 1221 1222 1223 1224 1225 1226 1227 1228 1229 1230 1231 1232 1233 1234 1235 1236 1237 1238 1239 1240 1241 1242 1243 1244 1245 1246 1247 1248 1249 1250 1251 1252 1253 1254 1255 1256 1257 1258 1259 1260 1261 1262 1263 1264 1265 1266 1267 1268 1269 1270 1271 1272 1273 1274 1275 1276 1277 1278 1279 1280 1281 1282 1283 1284 1285 1286 1287 1288 1289 1290 1291 1292 1293 1294 1295 1296 1297 1298 1299 1300 1301 1302 1303 1304 1305 1306 1307 1308 1309 1310 1311 1312 1313 1314 1315 1316 1317 1318 1319 1320 1321 1322 1323 1324 1325 1326 1327 1328 1329 1330 1331 1332 1333 1334 1335 1336 1337 1338 1339 1340 1341 1342 1343 1344 1345 1346 1347 1348 1349 1350 1351 1352 1353 1354 1355 1356 1357 1358 1359 1360 1361 1362 1363 1364 1365 1366 1367 1368 1369 1370 1371 1372 1373 1374 1375 1376 1377 1378 1379 1380 1381 1382 1383 1384 1385 1386 1387 1388 1389 1390 1391 1392 1393 1394 1395 1396 1397 1398 1399 1400 1401 1402 1403 1404 1405 1406 1407 1408 1409 1410 1411 1412 1413 1414 1415 1416 1417 1418 1419 1420 1421 1422 1423 1424 1425 1426 1427 1428 1429 1430 1431 1432 1433 1434 1435 1436 1437 1438 1439 1440 1441 1442 1443 1444 1445 1446 1447 1448 1449 1450 1451 1452 1453 1454 1455 1456 1457 1458 1459 1460 1461 1462 1463 1464 1465 1466 1467 1468 1469 1470 1471 1472 1473 1474 1475 1476 1477 1478 1479 1480 1481 1482 1483 1484 1485 1486 1487 1488 1489 1490 1491 1492 1493 1494 1495 1496 1497 1498 1499 1500 1501 1502 1503 1504 1505 1506 1507 1508 1509 1510 1511 1512 1513 1514 1515 1516 1517 1518 1519 1520 1521 1522 1523 1524 1525 1526 1527 1528 1529 1530 1531 1532 1533 1534 1535 1536 1537 1538 1539 1540 1541 1542 1543 1544 1545 1546 1547 1548 1549 1550 1551 1552 1553 1554 1555 1556 1557 1558 1559 1560 1561 1562 1563 1564 1565 1566 1567 1568 1569 1570 1571 1572 1573 1574 1575 1576 1577 1578 1579 1580 1581 1582 1583 1584 1585 1586 1587 1588 1589 1590 1591 1592 1593 1594 1595 1596 1597 1598 1599 1600 1601 1602 1603 1604 1605 1606 1607 1608 1609 1610 1611 1612 1613 1614 1615 1616 1617 1618 1619 1620 1621 1622 1623 1624 1625 1626 1627 1628 1629 1630 1631 1632 1633 1634 1635 1636 1637 1638 1639 1640 1641 1642 1643 1644 1645 1646 1647 1648 1649 1650 1651 1652 1653 1654 1655 1656 1657 1658 1659 1660 1661 1662 1663 1664 1665 1666 1667 1668 1669 1670 1671 1672 1673 1674 1675 1676 1677 1678 1679 1680 1681 1682 1683 1684 1685 1686 1687 1688 1689 1690 1691 1692 1693 1694 1695 1696 1697 1698 1699 1700 1701 1702 1703 1704 1705 1706 1707 1708 1709 1710 1711 1712 1713 1714 1715 1716 1717 1718 1719 1720 1721 1722 1723 1724 1725 1726 1727 1728 1729 1730 1731 1732 1733 1734 1735 1736 1737 1738 1739 1740 1741 1742 1743 1744 1745 1746 1747 1748 1749 1750 1751 1752 1753 1754 1755 1756 1757 1758 1759 1760 1761 1762 1763 1764 1765 1766 1767 1768 1769 1770 1771 1772 1773 1774 1775 1776 1777 1778 1779 1780 1781 1782 1783 1784 1785 1786 1787 1788 1789 1790 1791 1792 1793 1794 1795 1796 1797 1798 1799 1800 1801 1802 1803 1804 1805 1806 1807 1808 1809 1810 1811 1812 1813 1814 1815 1816 1817 1818 1819 1820 1821 1822 1823 1824 1825 1826 1827 1828 1829 1830 1831 1832 1833 1834 1835 1836 1837 1838 1839 1840 1841 1842 1843 1844 1845 1846 1847 1848 1849 1850 1851 1852 1853 1854 1855 1856 1857 1858 1859 1860 1861 1862 1863 1864 1865 1866 1867 1868 1869 1870 1871 1872 1873 1874 1875 1876 1877 1878 1879 1880 1881 1882 1883 1884 1885 1886 1887 1888 1889 1890 1891 1892 1893 1894 1895 1896 1897 1898 1899 1900 1901 1902 1903 1904 1905 1906 1907 1908 1909 1910 1911 1912 1913 1914 1915 1916 1917 1918 1919 1920 1921 1922 1923 1924 1925 1926 1927 1928 1929 1930 1931 1932 1933 1934 1935 1936 1937 1938 1939 1940 1941 1942 1943 1944 1945 1946 1947 1948 1949 1950 1951 1952 1953 1954 1955 1956 1957 1958 1959 1960 1961 1962 1963 1964 1965 1966 1967 1968 1969 1970 1971 1972 1973 1974 1975 1976 1977 1978 1979 1980 1981 1982 1983 1984 1985 1986 1987 1988 1989 1990 1991 1992 1993 1994 1995 1996 1997 1998 1999 2000 2001 2002 2003 2004 2005 2006 2007 2008 2009 2010 2011 2012 2013 2014 2015 2016 2017 2018 2019 2020 2021 2022 2023 2024 2025 2026 2027 2028 2029 2030 2031 2032 2033 2034 2035 2036 2037 2038 2039 2040 2041 2042 2043 2044 2045 2046 2047 2048 2049 2050 2051 2052 2053 2054 2055 2056 2057 2058 2059 2060 2061 2062 2063 2064 2065 2066 2067 2068 2069 2070 2071 2072 2073 2074 2075 2076 2077 2078 2079 2080 2081 2082 2083 2084 2085 2086 2087 2088 2089 2090 2091 2092 2093 2094 2095 2096 2097 2098 2099 2100 2101 2102 2103 2104 2105 2106 2107 2108 2109 2110 2111 2112 2113 2114 2115 2116 2117 2118 2119 2120 2121 2122 2123 2124 2125 2126 2127 2128 2129 2130 2131 2132 2133 2134 2135 2136 2137 2138 2139 2140 2141 2142 2143 2144 2145 2146 2147 2148 2149 2150 2151 2152 2153 2154 2155 2156 2157 2158 2159 2160 2161 2162 2163 2164 2165 2166 2167 2168 2169 2170 2171 2172 2173 2174 2175 2176 2177 2178 2179 2180 2181 2182 2183 2184 2185 2186 2187 2188 2189 2190 2191 2192 2193 2194 2195 2196 2197 2198 2199 2200 2201 2202 2203 2204 2205 2206 2207 2208 2209 2210 2211 2212 2213 2214 2215 2216 2217 2218 2219 2220 2221 2222 2223 2224 2225 2226 2227 2228 2229 2230 2231 2232 2233 2234 2235 2236 2237 2238 2239 2240 2241 2242 2243 2244 2245 2246 2247 2248 2249 2250 2251 2252 2253 2254 2255 2256 2257 2258 2259 2260 2261 2262 2263 2264 2265 2266 2267 2268 2269 2270 2271 2272 2273 2274 2275 2276 2277 2278 2279 2280 2281 2282 2283 2284 2285 2286 2287 2288 2289 2290 2291 2292 2293 2294 2295 2296 2297 2298 2299 2300 2301 2302 2303 2304 2305 2306 2307 2308 2309 2310 2311 2312 2313 2314 2315 2316 2317 2318 2319 2320 2321 2322 2323 2324 2325 2326 2327 2328 2329 2330 2331 2332 2333 2334 2335 2336 2337 2338 2339 2340 2341 2342 2343 2344 2345 2346 2347 2348 2349 2350 2351 2352 2353 2354 2355 2356 2357 2358 2359 2360 2361 2362 2363 2364 2365 2366 2367 2368 2369 2370 2371 2372 2373 2374 2375 2376 2377 2378 2379 2380 2381 2382 2383 2384 2385 2386 2387 2388 2389 2390 2391 2392 2393 2394 2395 2396 2397 2398 2399 2400 2401 2402 2403 2404 2405 2406 2407 2408 2409 2410 2411 2412 2413 2414 2415 2416 2417 2418 2419 2420 2421 2422 2423 2424 2425 2426 2427 2428 2429 2430 2431 2432 2433 2434 2435 2436 2437 2438 2439 2440 2441 2442 2443 2444 2445 2446 2447 2448 2449 2450 2451 2452 2453 2454 2455 2456 2457 2458 2459 2460 2461 2462 2463 2464 2465 2466 2467 2468 2469 2470 2471 2472 2473 2474 2475 2476 2477 2478 2479 2480 2481 2482 2483 2484 2485 2486 2487 2488 2489 2490 2491 2492 2493 2494 2495 2496 2497 2498 2499 2500 2501 2502 2503 2504 2505 2506 2507 2508 2509 2510 2511 2512 2513 2514 2515 2516 2517 2518 2519 2520 2521 2522 2523 2524 2525 2526 2527 2528 2529 2530 2531 2532 2533 2534 2535 2536 2537 2538 2539 2540 2541 2542 2543 2544 2545 2546 2547 2548 2549 2550 2551 2552 2553 2554 2555 2556 2557 2558 2559 2560 2561 2562 2563 2564 2565 2566 2567 2568 2569 2570 2571 2572 2573 2574 2575 2576 2577 2578 2579 2580 2581 2582 2583 2584 2585 2586 2587 2588 2589 2590 2591 2592 2593 2594 2595 2596 2597 2598 2599 2600 2601 2602 2603 2604 2605 2606 2607 2608 2609 2610 2611 2612 2613 2614 2615 2616 2617 2618 2619 2620 2621 2622 2623 2624 2625 2626 2627 2628 2629 2630 2631 2632 2633 2634 2635 2636 2637 2638 2639 2640 2641 2642 2643 2644 2645 2646 2647 2648 2649 2650 2651 2652 2653 2654 2655 2656 2657 2658 2659 2660 2661 2662 2663 2664 2665 2666 2667 2668 2669 2670 2671 2672 2673 2674 2675 2676 2677 2678 2679 2680 2681 2682 2683 2684 2685 2686 2687 2688 2689 2690 2691 2692 2693 2694 2695 2696 2697 2698 2699 2700 2701 2702 2703 2704 2705 2706 2707 2708 2709 2710 2711 2712 2713 2714 2715 2716 2717 2718 2719 2720 2721 2722 2723 2724 2725 2726 2727 2728 2729 2730 2731 2732 2733 2734 2735 2736 2737 2738 2739 2740 2741 2742 2743 2744 2745 2746 2747 2748 2749 2750 2751 2752 2753 2754 2755 2756 2757 2758 2759 2760 2761 2762 2763 2764 2765 2766 2767 2768 2769 2770 2771 2772 2773 2774 2775 2776 2777 2778 2779 2780 2781 2782 2783 2784 2785 2786 2787 2788 2789 2790 2791 2792 2793 2794 2795 2796 2797 2798 2799 2800 2801 2802 2803 2804 2805 2806 2807 2808 2809 2810 2811 2812 2813 2814 2815 2816 2817 2818 2819 2820 2821 2822 2823 2824 2825 2826 2827 2828 2829 2830 2831 2832 2833 2834 2835 2836 2837 2838 2839 2840 2841 2842 2843 2844 2845 2846 2847 2848 2849 2850 2851 2852 2853 2854 2855 2856 2857 2858 2859 2860 2861 2862 2863 2864 2865 2866 2867 2868 2869 2870 2871 2872 2873 2874 2875 2876 2877 2878 2879 2880 2881 2882 2883 2884 2885 2886 2887 2888 2889 2890 2891 2892 2893 2894 2895 2896 2897 2898 2899 2900 2901 2902 2903 2904 2905 2906 2907 2908 2909 2910 2911 2912 2913 2914 2915 2916 2917 2918 2919 2920 2921 2922 2923 2924 2925 2926 2927 2928 2929 2930 2931 2932 2933 2934 2935 2936 2937 2938 2939 2940 2941 2942 2943 2944 2945 2946 2947 2948 2949 2950 2951 2952 2953 2954 2955 2956 2957 2958 2959 2960 2961 2962 2963 2964 2965 2966 2967 2968 2969 2970 2971 2972 2973 2974 2975 2976 2977 2978 2979 2980 2981 2982 2983 2984 2985 2986 2987 2988 2989 2990 2991 2992 2993 2994 2995 2996 2997 2998 2999 3000 3001 3002 3003 3004 3005 3006 3007 3008 3009 3010 3011 3012 3013 3014 3015 3016 3017 3018 3019 3020 3021 3022 3023 3024 3025 3026 3027 3028 3029 3030 3031 3032 3033 3034 3035 3036 3037 3038 3039 3040 3041 3042 3043 3044 3045 3046 3047 3048 3049 3050 3051 3052 3053 3054 3055 3056 3057 3058 3059 3060 3061 3062 3063 3064 3065 3066 3067 3068 3069 3070 3071 3072 3073 3074 3075 3076 3077 3078 3079 3080 3081 3082 3083 3084 3085 3086 3087 3088 3089 3090 3091 3092 3093 3094 3095 3096 3097 3098 3099 3100 3101 3102 3103 3104 3105 3106 3107 3108 3109 3110 3111 3112 3113 3114 3115 3116 3117 3118 3119 3120 3121 3122 3123 3124 3125 3126 3127 3128 3129 3130 3131 3132 3133 3134 3135 3136 3137 3138 3139 3140 3141 3142 3143 3144 3145 3146 3147 3148 3149 3150 3151 3152 3153 3154 3155 3156 3157 3158 3159 3160 3161 3162 3163 3164 3165 3166 3167 3168 3169 3170 3171 3172 3173 3174 3175 3176 3177 3178 3179 3180 3181 3182 3183 3184 3185 3186 3187 3188 3189 3190 3191 3192 3193 3194 3195 3196 3197 3198 3199 3200 3201 3202 3203 3204 3205 3206 3207 3208 3209 3210 3211 3212 3213 3214 3215 3216 3217 3218 3219 3220 3221 3222 3223 3224 3225 3226 3227 3228 3229 3230 3231 3232 3233 3234 3235 3236 3237 3238 3239 3240 3241 3242 3243 3244 3245 3246 3247 3248 3249 3250 3251 3252 3253 3254 3255 3256 3257 3258 3259 3260 3261 3262 3263 3264 3265 3266 3267 3268 3269 3270 3271 3272 3273 3274 3275 3276 3277 3278 3279 3280 3281 3282 3283 3284 3285 3286 3287 3288 3289 3290 3291 3292 3293 3294 3295 3296 3297 3298 3299 3300 3301 3302 3303 3304 3305 3306 3307 3308 3309 3310 3311 3312 3313 3314 3315 3316 3317 3318 3319 3320 3321 3322 3323 3324 3325 3326 3327 3328 3329 3330 3331 3332 3333 3334 3335 3336 3337 3338 3339 3340 3341 3342 3343 3344 3345 3346 3347 3348 3349 3350 3351 3352 3353 3354 3355 3356 3357 3358 3359 3360 3361 3362 3363 3364 3365 3366 3367 3368 3369 3370 3371 3372 3373 3374 3375 3376 3377 3378 3379 3380 3381 3382 3383 3384 3385 3386 3387 3388 3389 3390 3391 3392 3393 3394 3395 3396 3397 3398 3399 3400 3401 3402 3403 3404 3405 3406 3407 3408 3409 3410 3411 3412 3413 3414 3415 3416 3417 3418 3419 3420 3421 3422 3423 3424 3425 3426 3427 3428 3429 3430 3431 3432 3433 3434 3435 3436 3437 3438 3439 3440 3441 3442 3443 3444 3445 3446 3447 3448 3449 3450 3451 3452 3453 3454 3455 3456 3457 3458 3459 3460 3461 3462 3463 3464 3465 3466 3467 3468 3469 3470 3471 3472 3473 3474 3475 3476 3477 3478 3479 3480 3481 3482 3483 3484 3485 3486 3487 3488 3489 3490 3491 3492 3493 3494 3495 3496 3497 3498 3499 3500 3501 3502 3503 3504 3505 3506 3507 3508 3509 3510 3511 3512 3513 3514 3515 3516 3517 3518 3519 3520 3521 3522 3523 3524 3525 3526 3527 3528 3529 3530 3531 3532 3533 3534 3535 3536 3537 3538 3539 3540 3541 3542 3543 3544 3545 3546 3547 3548 3549 3550 3551 3552 3553 3554 3555 3556 3557 3558 3559 3560 3561 3562 3563 3564 3565 3566 3567 3568 3569 3570 3571 3572 3573 3574 3575 3576 3577 3578 3579 3580 3581 3582 3583 3584 3585 3586 3587 3588 3589 3590 3591 3592 3593 3594 3595 3596 3597 3598 3599 3600 3601 3602 3603 3604 3605 3606 3607 3608 3609 3610 3611 3612 3613 3614 3615 3616 3617 3618 3619 3620 3621 3622 3623 3624 3625 3626 3627 3628 3629 3630 3631 3632 3633 3634 3635 3636 3637 3638 3639 3640 3641 3642 3643 3644 3645 3646 3647 3648 3649 3650 3651 3652 3653 3654 3655 3656 3657 3658 3659 3660 3661 3662 3663 3664 3665 3666 3667 3668 3669 3670 3671 3672 3673 3674 3675 3676 3677 3678 3679 3680 3681 3682 3683 3684 3685 3686 3687 3688 3689 3690 3691 3692 3693 3694 3695 3696 3697 3698 3699 3700 3701 3702 3703 3704 3705 3706 3707 3708 3709 3710 3711 3712 3713 3714 3715 3716 3717 3718 3719 3720 3721 3722 3723 3724 3725 3726 3727 3728 3729 3730 3731 3732 3733 3734 3735 3736 3737 3738 3739 3740 3741 3742 3743 3744 3745 3746 3747 3748 3749 3750 3751 3752 3753 3754 3755 3756 3757 3758 3759 3760 3761 3762 3763 3764 3765 3766 3767 3768 3769 3770 3771 3772 3773 3774 3775 3776 3777 3778 3779 3780 3781 3782 3783 3784 3785 3786 3787 3788 3789 3790 3791 3792 3793 3794 3795 3796 3797 3798 3799 3800 3801 3802 3803 3804 3805 3806 3807 3808 3809 3810 3811 3812 3813 3814 3815 3816 3817 3818 3819 3820 3821 3822 3823 3824 3825 3826 3827 3828 3829 3830 3831 3832 3833 3834 3835 3836 3837 3838 3839 3840 3841 3842 3843 3844 3845 3846 3847 3848 3849 3850 3851 3852 3853 3854 3855 3856 3857 3858 3859 3860 3861 3862 3863 3864 3865 3866 3867 3868 3869 3870 3871 3872 3873 3874 3875 3876 3877 3878 3879 3880 3881 3882 3883 3884 3885 3886 3887 3888 3889 3890 3891 3892 3893 3894 3895 3896 3897 3898 3899 3900 3901 3902 3903 3904 3905 3906 3907 3908 3909 3910 3911 3912 3913 3914 3915 3916 3917 3918 3919 3920 3921 3922 3923 3924 3925 3926 3927 3928 3929 3930 3931 3932 3933 3934 3935 3936 3937 3938 3939 3940 3941 3942 3943 3944 3945 3946 3947 3948 3949 3950 3951 3952 3953 3954 3955 3956 3957 3958 3959 3960 3961 3962 3963 3964 3965 3966 3967 3968 3969 3970 3971 3972 3973 3974 3975 3976 3977 3978 3979 3980 3981 3982 3983 3984 3985 3986 3987 3988 3989 3990 3991 3992 3993 3994 3995 3996 3997 3998 3999 4000 4001 4002 4003 4004 4005 4006 4007 4008 4009 4010 4011 4012 4013 4014 4015 4016 4017 4018 4019 4020 4021 4022 4023 4024 4025 4026 4027 4028 4029 4030 4031 4032 4033 4034 4035 4036 4037 4038 4039 4040 4041 4042 4043 4044 4045 4046 4047 4048 4049 4050 4051 4052 4053 4054 4055 4056 4057 4058 4059 4060 4061 4062 4063 4064 4065 4066 4067 4068 4069 4070 4071 4072 4073 4074 4075 4076 4077 4078 4079 4080 4081 4082 4083 4084 4085 4086 4087 4088 4089 4090 4091 4092 4093 4094 4095 4096 4097 4098 4099 4100 4101 4102 4103 4104 4105 4106 4107 4108 4109 4110 4111 4112 4113 4114 4115 4116 4117 4118 4119 4120 4121 4122 4123 4124 4125 4126 4127 4128 4129 4130 4131 4132 4133 4134 4135 4136 4137 4138 4139 4140 4141 4142 4143 4144 4145 4146 4147 4148 4149 4150 4151 4152 4153 4154 4155 4156 4157 4158 4159 4160 4161 4162 4163 4164 4165 4166 4167 4168 4169 4170 4171 4172 4173 4174 4175 4176 4177 4178 4179 4180 4181 4182 4183 4184 4185 4186 4187 4188 4189 4190 4191 4192 4193 4194 4195 4196 4197 4198 4199 4200 4201 4202 4203 4204 4205 4206 4207 4208 4209 4210 4211 4212 4213 4214 4215 4216 4217 4218 4219 4220 4221 4222 4223 4224 4225 4226 4227 4228 4229 4230 4231 4232 4233 4234 4235 4236 4237 4238 4239 4240 4241 4242 4243 4244 4245 4246 4247 4248 4249 4250 4251 4252 4253 4254 4255 4256 4257 4258 4259 4260 4261 4262 4263 4264 4265 4266 4267 4268 4269 4270 4271 4272 4273 4274 4275 4276 4277 4278 4279 4280 4281 4282 4283 4284 4285 4286 4287 4288 4289 4290 4291 4292 4293 4294 4295 4296 4297 4298 4299 4300 4301 4302 4303 4304 4305 4306 4307 4308 4309 4310 4311 4312 4313 4314 4315 4316 4317 4318 4319 4320 4321 4322 4323 4324 4325 4326 4327 4328 4329 4330 4331 4332 4333 4334 4335 4336 4337 4338 4339 4340 4341 4342 4343 4344 4345 4346 4347 4348 4349 4350 4351 4352 4353 4354 4355 4356 4357 4358 4359 4360 4361 4362 4363 4364 4365 4366 4367 4368 4369 4370 4371 4372 4373 4374 4375 4376 4377 4378 4379 4380 4381 4382 4383 4384 4385 4386 4387 4388 4389 4390 4391 4392 4393 4394 4395 4396 4397 4398 4399 4400 4401 4402 4403 4404 4405 4406 4407 4408 4409 4410 4411 4412 4413 4414 4415 4416 4417 4418 4419 4420 4421 4422 4423 4424 4425 4426 4427 4428 4429 4430 4431 4432 4433 4434 4435 4436 4437 4438 4439 4440 4441 4442 4443 4444 4445 4446 4447 4448 4449 4450 4451 4452 4453 4454 4455 4456 4457 4458 4459 4460 4461 4462 4463 4464 4465 4466 4467 4468 4469 4470 4471 4472 4473 4474 4475 4476 4477 4478 4479 4480 4481 4482 4483 4484 4485 4486 4487 4488 4489 4490 4491 4492 4493 4494 4495 4496 4497 4498 4499 4500 4501 4502 4503 4504 4505 4506 4507 4508 4509 4510 4511 4512 4513 4514 4515 4516 4517 4518 4519 4520 4521 4522 4523 4524 4525 4526 4527 4528 4529 4530 4531 4532 4533 4534 4535 4536 4537 4538 4539 4540 4541 4542 4543 4544 4545 4546 4547 4548 4549 4550 4551 4552 4553 4554 4555 4556 4557 4558 4559 4560 4561 4562 4563 4564 4565 4566 4567 4568 4569 4570 4571 4572 4573 4574 4575 4576 4577 4578 4579 4580 4581 4582 4583 4584 4585 4586 4587 4588 4589 4590 4591 4592 4593 4594 4595 4596 4597 4598 4599 4600 4601 4602 4603 4604 4605 4606 4607 4608 4609 4610 4611 4612 4613 4614 4615 4616 4617 4618 4619 4620 4621 4622 4623 4624 4625 4626 4627 4628 4629 4630 4631 4632 4633 4634 4635 4636 4637 4638 4639 4640 4641 4642 4643 4644 4645 4646 4647 4648 4649 4650 4651 4652 4653 4654 4655 4656 4657 4658 4659 4660 4661 4662 4663 4664 4665 4666 4667 4668 4669 4670 4671 4672 4673 4674 4675 4676 4677 4678 4679 4680 4681 4682 4683 4684 4685 4686 4687 4688 4689 4690 4691 4692 4693 4694 4695 4696 4697 4698 4699 4700 4701 4702 4703 4704 4705 4706 4707 4708 4709 4710 4711 4712 4713 4714 4715 4716 4717 4718 4719 4720 4721 4722 4723 4724 4725 4726 4727 4728 4729 4730 4731 4732 4733 4734 4735 4736 4737 4738 4739 4740 4741 4742 4743 4744 4745 4746 4747 4748 4749 4750 4751 4752 4753 4754 4755 4756 4757 4758 4759 4760 4761 4762 4763 4764 4765 4766 4767 4768 4769 4770 4771 4772 4773 4774 4775 4776 4777 4778 4779 4780 4781 4782 4783 4784 4785 4786 4787 4788 4789 4790 4791 4792 4793 4794 4795 4796 4797 4798 4799 4800 4801 4802 4803 4804 4805 4806 4807 4808 4809 4810 4811 4812 4813 4814 4815 4816 4817 4818 4819 4820 4821 4822 4823 4824 4825 4826 4827 4828 4829 4830 4831 4832 4833 4834 4835 4836 4837 4838 4839 4840 4841 4842 4843 4844 4845 4846 4847 4848 4849 4850 4851 4852 4853 4854 4855 4856 4857 4858 4859 4860 4861 4862 4863 4864 4865 4866 4867 4868 4869 4870 4871 4872 4873 4874 4875 4876 4877 4878 4879 4880 4881 4882 4883 4884 4885 4886 4887 4888 4889 4890 4891 4892 4893 4894 4895 4896 4897 4898 4899 4900 4901 4902 4903 4904 4905 4906 4907 4908 4909 4910 4911 4912 4913 4914 4915 4916 4917 4918 4919 4920 4921 4922 4923 4924 4925 4926 4927 4928 4929 4930 4931 4932 4933 4934 4935 4936 4937 4938 4939 4940 4941 4942 4943 4944 4945 4946 4947 4948 4949 4950 4951 4952 4953 4954 4955 4956 4957 4958 4959 4960 4961 4962 4963 4964 4965 4966 4967 4968 4969 4970 4971 4972 4973 4974 4975 4976 4977 4978 4979 4980 4981 4982 4983 4984 4985 4986 4987 4988 4989 4990 4991 4992 4993 4994 4995 4996 4997 4998 4999 5000 5001 5002 5003 5004 5005 5006 5007 5008 5009 5010 5011 5012 5013 5014 5015 5016 5017 5018 5019 5020 5021 5022 5023 5024 5025 5026 5027 5028 5029 5030 5031 5032 5033 5034 5035 5036 5037 5038 5039 5040 5041 5042 5043 5044 5045 5046 5047 5048 5049 5050 5051 5052 5053 5054 5055 5056 5057 5058 5059 5060 5061 5062 5063 5064 5065 5066 5067 5068 5069 5070 5071 5072 5073 5074 5075 5076 5077 5078 5079 5080 5081 5082 5083 5084 5085 5086 5087 5088 5089 5090 5091 5092 5093 5094 5095 5096 5097 5098 5099 5100 5101 5102 5103 5104 5105 5106 5107 5108 5109 5110 5111 5112 5113 5114 5115 5116 5117 5118 5119 5120 5121 5122 5123 5124 5125 5126 5127 5128 5129 5130 5131 5132 5133 5134 5135 5136 5137 5138 5139 5140 5141 5142 5143 5144 5145 5146 5147 5148 5149 5150 5151 5152 5153 5154 5155 5156 5157 5158 5159 5160 5161 5162 5163 5164 5165 5166 5167 5168 5169 5170 5171 5172 5173 5174 5175 5176 5177 5178 5179 5180 5181 5182 5183 5184 5185 5186 5187 5188 5189 5190 5191 5192 5193 5194 5195 5196 5197 5198 5199 5200 5201 5202 5203 5204 5205 5206 5207 5208 5209 5210 5211 5212 5213 5214 5215 5216 5217 5218 5219 5220 5221 5222 5223 5224 5225 5226 5227 5228 5229 5230 5231 5232 5233 5234 5235 5236 5237 5238 5239 5240 5241 5242 5243 5244 5245 5246 5247 5248 5249 5250 5251 5252 5253 5254 5255 5256 5257 5258 5259 5260 5261 5262 5263 5264 5265 5266 5267 5268 5269 5270 5271 5272 5273 5274 5275 5276 5277 5278 5279 5280 5281 5282 5283 5284 5285 5286 5287 5288 5289 5290 5291 5292 5293 5294 5295 5296 5297 5298 5299 5300 5301 5302 5303 5304 5305 5306 5307 5308 5309 5310 5311 5312 5313 5314 5315 5316 5317 5318 5319 5320 5321 5322 5323 5324 5325 5326 5327 5328 5329 5330 5331 5332 5333 5334 5335 5336 5337 5338 5339 5340 5341 5342 5343 5344 5345 5346 5347 5348 5349 5350 5351 5352 5353 5354 5355 5356 5357 5358 5359 5360 5361 5362 5363 5364 5365 5366 5367 5368 5369 5370 5371 5372 5373 5374 5375 5376 5377 5378 5379 5380 5381 5382 5383 5384 5385 5386 5387 5388 5389 5390 5391 5392 5393 5394 5395 5396 5397 5398 5399 5400 5401 5402 5403 5404 5405 5406 5407 5408 5409 5410 5411 5412 5413 5414 5415 5416 5417 5418 5419 5420 5421 5422 5423 5424 5425 5426 5427 5428 5429 5430 5431 5432 5433 5434 5435 5436 5437 5438 5439 5440 5441 5442 5443 5444 5445 5446 5447 5448 5449 5450 5451 5452 5453 5454 5455 5456 5457 5458 5459 5460 5461 5462 5463 5464 5465 5466 5467 5468 5469 5470 5471 5472 5473 5474 5475 5476 5477 5478 5479 5480 5481 5482 5483 5484 5485 5486 5487 5488 5489 5490 5491 5492 5493 5494 5495 5496 5497 5498 5499 5500 5501 5502 5503 5504 5505 5506 5507 5508 5509 5510 5511 5512 5513 5514 5515 5516 5517 5518 5519 5520 5521 5522 5523 5524 5525 5526 5527 5528 5529 5530 5531 5532 5533 5534 5535 5536 5537 5538 5539 5540 5541 5542 5543 5544 5545 5546 5547 5548 5549 5550 5551 5552 5553 5554 5555 5556 5557 5558 5559 5560 5561 5562 5563 5564 5565 5566 5567 5568 5569 5570 5571 5572 5573 5574 5575 5576 5577 5578 5579 5580 5581 5582 5583 5584 5585 5586 5587 5588 5589 5590 5591 5592 5593 5594 5595 5596 5597 5598 5599 5600 5601 5602 5603 5604 5605 5606 5607 5608 5609 5610 5611 5612 5613 5614 5615 5616 5617 5618 5619 5620 5621 5622 5623 5624 5625 5626 5627 5628 5629 5630 5631 5632 5633 5634 5635 5636 5637 5638 5639 5640 5641 5642 5643 5644 5645 5646 5647 5648 5649 5650 5651 5652 5653 5654 5655 5656 5657 5658 5659 5660 5661 5662 5663 5664 5665 5666 5667 5668 5669 5670 5671 5672 5673 5674 5675 5676 5677 5678 5679 5680 5681 5682 5683 5684 5685 5686 5687 5688 5689 5690 5691 5692 5693 5694 5695 5696 5697 5698 5699 5700 5701 5702 5703 5704 5705 5706 5707 5708 5709 5710 5711 5712 5713 5714 5715 5716 5717 5718 5719 5720 5721 5722 5723 5724 5725 5726 5727 5728 5729 5730 5731 5732 5733 5734 5735 5736 5737 5738 5739 5740 5741 5742 5743 5744 5745 5746 5747 5748 5749 5750 5751 5752 5753 5754 5755 5756 5757 5758 5759 5760 5761 5762 5763 5764 5765 5766 5767 5768 5769 5770 5771 5772 5773 5774 5775 5776 5777 5778 5779 5780 5781 5782 5783 5784 5785 5786 5787 5788 5789 5790 5791 5792 5793 5794 5795 5796 5797 5798 5799 5800 5801 5802 5803 5804 5805 5806 5807 5808 5809 5810 5811 5812 5813 5814 5815 5816 5817 5818 5819 5820 5821 5822 5823 5824 5825 5826 5827 5828 5829 5830 5831 5832 5833 5834 5835 5836 5837 5838 5839 5840 5841 5842 5843 5844 5845 5846 5847 5848 5849 5850 5851 5852 5853 5854 5855 5856 5857 5858 5859 5860 5861 5862 5863 5864 5865 5866 5867 5868 5869 5870 5871 5872 5873 5874 5875 5876 5877 5878 5879 5880 5881 5882 5883 5884 5885 5886 5887 5888 5889 5890 5891 5892 5893 5894 5895 5896 5897 5898 5899 5900 5901 5902 5903 5904 5905 5906 5907 5908 5909 5910 5911 5912 5913 5914 5915 5916 5917 5918 5919 5920 5921 5922 5923 5924 5925 5926 5927 5928 5929 5930 5931 5932 5933 5934 5935 5936 5937 5938 5939 5940 5941 5942 5943 5944 5945 5946 5947 5948 5949 5950 5951 5952 5953 5954 5955 5956 5957 5958 5959 5960 5961 5962 5963 5964 5965 5966 5967 5968 5969 5970 5971 5972 5973 5974 5975 5976 5977 5978 5979 5980 5981 5982 5983 5984 5985 5986 5987 5988 5989 5990 5991 5992 5993 5994 5995 5996 5997 5998 5999 6000 6001 6002 6003 6004 6005 6006 6007 6008 6009 6010 6011 6012 6013 6014 6015 6016 6017 6018 6019 6020 6021 6022 6023 6024 6025 6026 6027 6028 6029 6030 6031 6032 6033 6034 6035 6036 6037 6038 6039 6040 6041 6042 6043 6044 6045 6046 6047 6048 6049 6050 6051 6052 6053 6054 6055 6056 6057 6058 6059 6060 6061 6062 6063 6064 6065 6066 6067 6068 6069 6070 6071 6072 6073 6074 6075 6076 6077 6078 6079 6080 6081 6082 6083 6084 6085 6086 6087 6088 6089 6090 6091 6092 6093 6094 6095 6096 6097 6098 6099 6100 6101 6102 6103 6104 6105 6106 6107 6108 6109 6110 6111 6112 6113 6114 6115 6116 6117 6118 6119 6120 6121 6122 6123 6124 6125 6126 6127 6128 6129 6130 6131 6132 6133 6134 6135 6136 6137 6138 6139 6140 6141 6142 6143 6144 6145 6146 6147 6148 6149 6150 6151 6152 6153 6154 6155 6156 6157 6158 6159 6160 6161 6162 6163 6164 6165 6166 6167 6168 6169 6170 6171 6172 6173 6174 6175 6176 6177 6178 6179 6180 6181 6182 6183 6184 6185 6186 6187 6188 6189 6190 6191 6192 6193 6194 6195 6196 6197 6198 6199 6200 6201 6202 6203 6204 6205 6206 6207 6208 6209 6210 6211 6212 6213 6214 6215 6216 6217 6218 6219 6220 6221 6222 6223 6224 6225 6226 6227 6228 6229 6230 6231 6232 6233 6234 6235 6236 6237 6238 6239 6240 6241 6242 6243 6244 6245 6246 6247 6248 6249 6250 6251 6252 6253 6254 6255 6256 6257 6258 6259 6260 6261 6262 6263 6264 6265 6266 6267 6268 6269 6270 6271 6272 6273 6274 6275 6276 6277 6278 6279 6280 6281 6282 6283 6284 6285 6286 6287 6288 6289 6290 6291 6292 6293 6294 6295 6296 6297 6298 6299 6300 6301 6302 6303 6304 6305 6306 6307 6308 6309 6310 6311 6312 6313 6314 6315 6316 6317 6318 6319 6320 6321 6322 6323 6324 6325 6326 6327 6328 6329 6330 6331 6332 6333 6334 6335 6336 6337 6338 6339 6340 6341 6342 6343 6344 6345 6346 6347 6348 6349 6350 6351 6352 6353 6354 6355 6356 6357 6358 6359 6360 6361 6362 6363 6364 6365 6366 6367 6368 6369 6370 6371 6372 6373 6374 6375 6376 6377 6378 6379 6380 6381 6382 6383 6384 6385 6386 6387 6388 6389 6390 6391 6392 6393 6394 6395 6396 6397 6398 6399 6400 6401 6402 6403 6404 6405 6406 6407 6408 6409 6410 6411 6412 6413 6414 6415 6416 6417 6418 6419 6420 6421 6422 6423 6424 6425 6426 6427 6428 6429 6430 6431 6432 6433 6434 6435 6436 6437 6438 6439 6440 6441 6442 6443 6444 6445 6446 6447 6448 6449 6450 6451 6452 6453 6454 6455 6456 6457 6458 6459 6460 6461 6462 6463 6464 6465 6466 6467 6468 6469 6470 6471 6472 6473 6474 6475 6476 6477 6478 6479 6480 6481 6482 6483 6484 6485 6486 6487 6488 6489 6490 6491 6492 6493 6494 6495 6496 6497 6498 6499 6500 6501 6502 6503 6504 6505 6506 6507 6508 6509 6510 6511 6512 6513 6514 6515 6516 6517 6518 6519 6520 6521 6522 6523 6524 6525 6526 6527 6528 6529 6530 6531 6532 6533 6534 6535 6536 6537 6538 6539 6540 6541 6542 6543 6544 6545 6546 6547 6548 6549 6550 6551 6552 6553 6554 6555 6556 6557 6558 6559 6560 6561 6562 6563 6564 6565 6566 6567 6568 6569 6570 6571 6572 6573 6574 6575 6576 6577 6578 6579 6580 6581 6582 6583 6584 6585 6586 6587 6588 6589 6590 6591 6592 6593 6594 6595 6596 6597 6598 6599 6600 6601 6602 6603 6604 6605 6606 6607 6608 6609 6610 6611 6612 6613 6614 6615 6616 6617 6618 6619 6620 6621 6622 6623 6624 6625 6626 6627 6628 6629 6630 6631 6632 6633 6634 6635 6636 6637 6638 6639 6640 6641 6642 6643 6644 6645 6646 6647 6648 6649 6650 6651 6652 6653 6654 6655 6656 6657 6658 6659 6660 6661 6662 6663 6664 6665 6666 6667 6668 6669 6670 6671 6672 6673 6674 6675 6676 6677 6678 6679 6680 6681 6682 6683 6684 6685 6686 6687 6688 6689 6690 6691 6692 6693 6694 6695 6696 6697 6698 6699 6700 6701 6702 6703 6704 6705 6706 6707 6708 6709 6710 6711 6712 6713 6714 6715 6716 6717 6718 6719 6720 6721 6722 6723 6724 6725 6726 6727 6728 6729 6730 6731 6732 6733 6734 6735 6736 6737 6738 6739 6740 6741 6742 6743 6744 6745 6746 6747 6748 6749 6750 6751 6752 6753 6754 6755 6756 6757 6758 6759 6760 6761 6762 6763 6764 6765 6766 6767 6768 6769 6770 6771 6772 6773 6774 6775 6776 6777 6778 6779 6780 6781 6782 6783 6784 6785 6786 6787 6788 6789 6790 6791 6792 6793 6794 6795 6796 6797 6798 6799 6800 6801 6802 6803 6804 6805 6806 6807 6808 6809 6810 6811 6812 6813 6814 6815 6816 6817 6818 6819 6820 6821 6822 6823 6824 6825 6826 6827 6828 6829 6830 6831 6832 6833 6834 6835 6836 6837 6838 6839 6840 6841 6842 6843 6844 6845 6846 6847 6848 6849 6850 6851 6852 6853 6854 6855 6856 6857 6858 6859 6860 6861 6862 6863 6864 6865 6866 6867 6868 6869 6870 6871 6872 6873 6874 6875 6876 6877 6878 6879 6880 6881 6882 6883 6884 6885 6886 6887 6888 6889 6890 6891 6892 6893 6894 6895 6896 6897 6898 6899 6900 6901 6902 6903 6904 6905 6906 6907 6908 6909 6910 6911 6912 6913 6914 6915 6916 6917 6918 6919 6920 6921 6922 6923 6924 6925 6926 6927 6928 6929 6930 6931 6932 6933 6934 6935 6936 6937 6938 6939 6940 6941 6942 6943 6944 6945 6946 6947 6948 6949 6950 6951 6952 6953 6954 6955 6956 6957 6958 6959 6960 6961 6962 6963 6964 6965 6966 6967 6968 6969 6970 6971 6972 6973 6974 6975 6976 6977 6978 6979 6980 6981 6982 6983 6984 6985 6986 6987 6988 6989 6990 6991 6992 6993 6994 6995 6996 6997 6998 6999 7000 7001 7002 7003 7004 7005 7006 7007 7008 7009 7010 7011 7012 7013 7014 7015 7016 7017 7018 7019 7020 7021 7022 7023 7024 7025 7026 7027 7028 7029 7030 7031 7032 7033 7034 7035 7036 7037 7038 7039 7040 7041 7042 7043 7044 7045 7046 7047 7048 7049 7050 7051 7052 7053 7054 7055 7056 7057 7058 7059 7060 7061 7062 7063 7064 7065 7066 7067 7068 7069 7070 7071 7072 7073 7074 7075 7076 7077 7078 7079 7080 7081 7082 7083 7084 7085 7086 7087 7088 7089 7090 7091 7092 7093 7094 7095 7096 7097 7098 7099 7100 7101 7102 7103 7104 7105 7106 7107 7108 7109 7110 7111 7112 7113 7114 7115 7116 7117 7118 7119 7120 7121 7122 7123 7124 7125 7126 7127 7128 7129 7130 7131 7132 7133 7134 7135 7136 7137 7138 7139 7140 7141 7142 7143 7144 7145 7146 7147 7148 7149 7150 7151 7152 7153 7154 7155 7156 7157 7158 7159 7160 7161 7162 7163 7164 7165 7166 7167 7168 7169 7170 7171 7172 7173 7174 7175 7176 7177 7178 7179 7180 7181 7182 7183 7184 7185 7186 7187 7188 7189 7190 7191 7192 7193 7194 7195 7196 7197 7198 7199 7200 7201 7202 7203 7204 7205 7206 7207 7208 7209 7210 7211 7212 7213 7214 7215 7216 7217 7218 7219 7220 7221 7222 7223 7224 7225 7226 7227 7228 7229 7230 7231 7232 7233 7234 7235 7236 7237 7238 7239 7240 7241 7242 7243 7244 7245 7246 7247 7248 7249 7250 7251 7252 7253 7254 7255 7256 7257 7258 7259 7260 7261 7262 7263 7264 7265 7266 7267 7268 7269 7270 7271 7272 7273 7274 7275 7276 7277 7278 7279 7280 7281 7282 7283 7284 7285 7286 7287 7288 7289 7290 7291 7292 7293 7294 7295 7296 7297 7298 7299 7300 7301 7302 7303 7304 7305 7306 7307 7308 7309 7310 7311 7312 7313 7314 7315 7316 7317 7318 7319 7320 7321 7322 7323 7324 7325 7326 7327 7328 7329 7330 7331 7332 7333 7334 7335 7336 7337 7338 7339 7340 7341 7342 7343 7344 7345 7346 7347 7348 7349 7350 7351 7352 7353 7354 7355 7356 7357 7358 7359 7360 7361 7362 7363 7364 7365 7366 7367 7368 7369 7370 7371 7372 7373 7374 7375 7376 7377 7378 7379 7380 7381 7382 7383 7384 7385 7386 7387 7388 7389 7390 7391 7392 7393 7394 7395 7396 7397 7398 7399 7400 7401 7402 7403 7404 7405 7406 7407 7408 7409 7410 7411 7412 7413 7414 7415 7416 7417 7418 7419 7420 7421 7422 7423 7424 7425 7426 7427 7428 7429 7430 7431 7432 7433 7434 7435 7436 7437 7438 7439 7440 7441 7442 7443 7444 7445 7446 7447 7448 7449 7450 7451 7452 7453 7454 7455 7456 7457 7458 7459 7460 7461 7462 7463 7464 7465 7466 7467 7468 7469 7470 7471 7472 7473 7474 7475 7476 7477 7478 7479 7480 7481 7482 7483 7484 7485 7486 7487 7488 7489 7490 7491 7492 7493 7494 7495 7496 7497 7498 7499 7500 7501 7502 7503 7504 7505 7506 7507 7508 7509 7510 7511 7512 7513 7514 7515 7516 7517 7518 7519 7520 7521 7522 7523 7524 7525 7526 7527 7528 7529 7530 7531 7532 7533 7534 7535 7536 7537 7538 7539 7540 7541 7542 7543 7544 7545 7546 7547 7548 7549 7550 7551 7552 7553 7554 7555 7556 7557 7558 7559 7560 7561 7562 7563 7564 7565 7566 7567 7568 7569 7570 7571 7572 7573 7574 7575 7576 7577 7578 7579 7580 7581 7582 7583 7584 7585 7586 7587 7588 7589 7590 7591 7592 7593 7594 7595 7596 7597 7598 7599 7600 7601 7602 7603 7604 7605 7606 7607 7608 7609 7610 7611 7612 7613 7614 7615 7616 7617 7618 7619 7620 7621 7622 7623 7624 7625 7626 7627 7628 7629 7630 7631 7632 7633 7634 7635 7636 7637 7638 7639 7640 7641 7642 7643 7644 7645 7646 7647 7648 7649 7650 7651 7652 7653 7654 7655 7656 7657 7658 7659 7660 7661 7662 7663 7664 7665 7666 7667 7668 7669 7670 7671 7672 7673 7674 7675 7676 7677 7678 7679 7680 7681 7682 7683 7684 7685 7686 7687 7688 7689 7690 7691 7692 7693 7694 7695 7696 7697 7698 7699 7700 7701 7702 7703 7704 7705 7706 7707 7708 7709 7710 7711 7712 7713 7714 7715 7716 7717 7718 7719 7720 7721 7722 7723 7724 7725 7726 7727 7728 7729 7730 7731 7732 7733 7734 7735 7736 7737 7738 7739 7740 7741 7742 7743 7744 7745 7746 7747 7748 7749 7750 7751 7752 7753 7754 7755 7756 7757 7758 7759 7760 7761 7762 7763 7764 7765 7766 7767 7768 7769 7770 7771 7772 7773 7774 7775 7776 7777 7778 7779 7780 7781 7782 7783 7784 7785 7786 7787 7788 7789 7790 7791 7792 7793 7794 7795 7796 7797 7798 7799 7800 7801 7802 7803 7804 7805 7806 7807 7808 7809 7810 7811 7812 7813 7814 7815 7816 7817 7818 7819 7820 7821 7822 7823 7824 7825 7826 7827 7828 7829 7830 7831 7832 7833 7834 7835 7836 7837 7838 7839 7840 7841 7842 7843 7844 7845 7846 7847 7848 7849 7850 7851 7852 7853 7854 7855 7856 7857 7858 7859 7860 7861 7862 7863 7864 7865 7866 7867 7868 7869 7870 7871 7872 7873 7874 7875 7876 7877 7878 7879 7880 7881 7882 7883 7884 7885 7886 7887 7888 7889 7890 7891 7892 7893 7894 7895 7896 7897 7898 7899 7900 7901 7902 7903 7904 7905 7906 7907 7908 7909 7910 7911 7912 7913 7914 7915 7916 7917 7918 7919 7920 7921 7922 7923 7924 7925 7926 7927 7928 7929 7930 7931 7932 7933 7934 7935 7936 7937 7938 7939 7940 7941 7942 7943 7944 7945 7946 7947 7948 7949 7950 7951 7952 7953 7954 7955 7956 7957 7958 7959 7960 7961 7962 7963 7964 7965 7966 7967 7968 7969 7970 7971 7972 7973 7974 7975 7976 7977 7978 7979 7980 7981 7982 7983 7984 7985 7986 7987 7988 7989 7990 7991 7992 7993 7994 7995 7996 7997 7998 7999 8000 8001 8002 8003 8004 8005 8006 8007 8008 8009 8010 8011 8012 8013 8014 8015 8016 8017 8018 8019 8020 8021 8022 8023 8024 8025 8026 8027 8028 8029 8030 8031 8032 8033 8034 8035 8036 8037 8038 8039 8040 8041 8042 8043 8044 8045 8046 8047 8048 8049 8050 8051 8052 8053 8054 8055 8056 8057 8058 8059 8060 8061 8062 8063 8064 8065 8066 8067 8068 8069 8070 8071 8072 8073 8074 8075 8076 8077 8078 8079 8080 8081 8082 8083 8084 8085 8086 8087 8088 8089 8090 8091 8092 8093 8094 8095 8096 8097 8098 8099 8100 8101 8102 8103 8104 8105 8106 8107 8108 8109 8110 8111 8112 8113 8114 8115 8116 8117 8118 8119 8120 8121 8122 8123 8124 8125 8126 8127 8128 8129 8130 8131 8132 8133 8134 8135 8136 8137 8138 8139 8140 8141 8142 8143 8144 8145 8146 8147 8148 8149 8150 8151 8152 8153 8154 8155 8156 8157 8158 8159 8160 8161 8162 8163 8164 8165 8166 8167 8168 8169 8170 8171 8172 8173 8174 8175 8176 8177 8178 8179 8180 8181 8182 8183 8184 8185 8186 8187 8188 8189 8190 8191 8192 8193 8194 8195 8196 8197 8198 8199 8200 8201 8202 8203 8204 8205 8206 8207 8208 8209 8210 8211 8212 8213 8214 8215 8216 8217 8218 8219 8220 8221 8222 8223 8224 8225 8226 8227 8228 8229 8230 8231 8232 8233 8234 8235 8236 8237 8238 8239 8240 8241 8242 8243 8244 8245 8246 8247 8248 8249 8250 8251 8252 8253 8254 8255 8256 8257 8258 8259 8260 8261 8262 8263 8264 8265 8266 8267 8268 8269 8270 8271 8272 8273 8274 8275 8276 8277 8278 8279 8280 8281 8282 8283 8284 8285 8286 8287 8288 8289 8290 8291 8292 8293 8294 8295 8296 8297 8298 8299 8300 8301 8302 8303 8304 8305 8306 8307 8308 8309 8310 8311 8312 8313 8314 8315 8316 8317 8318 8319 8320 8321 8322 8323 8324 8325 8326 8327 8328 8329 8330 8331 8332 8333 8334 8335 8336 8337 8338 8339 8340 8341 8342 8343 8344 8345 8346 8347 8348 8349 8350 8351 8352 8353 8354 8355 8356 8357 8358 8359 8360 8361 8362 8363 8364 8365 8366 8367 8368 8369 8370 8371 8372 8373 8374 8375 8376 8377 8378 8379 8380 8381 8382 8383 8384 8385 8386 8387 8388 8389 8390 8391 8392 8393 8394 8395 8396 8397 8398 8399 8400 8401 8402 8403 8404 8405 8406 8407 8408 8409 8410 8411 8412 8413 8414 8415 8416 8417 8418 8419 8420 8421 8422 8423 8424 8425 8426 8427 8428 8429 8430 8431 8432 8433 8434 8435 8436 8437 8438 8439 8440 8441 8442 8443 8444 8445 8446 8447 8448 8449 8450 8451 8452 8453 8454 8455 8456 8457 8458 8459 8460 8461 8462 8463 8464 8465 8466 8467 8468 8469 8470 8471 8472 8473 8474 8475 8476 8477 8478 8479 8480 8481 8482 8483 8484 8485 8486 8487 8488 8489 8490 8491 8492 8493 8494 8495 8496 8497 8498 8499 8500 8501 8502 8503 8504 8505 8506 8507 8508 8509 8510 8511 8512 8513 8514 8515 8516 8517 8518 8519 8520 8521 8522 8523 8524 8525 8526 8527 8528 8529 8530 8531 8532 8533 8534 8535 8536 8537 8538 8539 8540 8541 8542 8543 8544 8545 8546 8547 8548 8549 8550 8551 8552 8553 8554 8555 8556 8557 8558 8559 8560 8561 8562 8563 8564 8565 8566 8567 8568 8569 8570 8571 8572 8573 8574 8575 8576 8577 8578 8579 8580 8581 8582 8583 8584 8585 8586 8587 8588 8589 8590 8591 8592 8593 8594 8595 8596 8597 8598 8599 8600 8601 8602 8603 8604 8605 8606 8607 8608 8609 8610 8611 8612 8613 8614 8615 8616 8617 8618 8619 8620 8621 8622 8623 8624 8625 8626 8627 8628 8629 8630 8631 8632 8633 8634 8635 8636 8637 8638 8639 8640 8641 8642 8643 8644 8645 8646 8647 8648 8649 8650 8651 8652 8653 8654 8655 8656 8657 8658 8659 8660 8661 8662 8663 8664 8665 8666 8667 8668 8669 8670 8671 8672 8673 8674 8675 8676 8677 8678 8679 8680 8681 8682 8683 8684 8685 8686 8687 8688 8689 8690 8691 8692 8693 8694 8695 8696 8697 8698 8699 8700 8701 8702 8703 8704 8705 8706 8707 8708 8709 8710 8711 8712 8713 8714 8715 8716 8717 8718 8719 8720 8721 8722 8723 8724 8725 8726 8727 8728 8729 8730 8731 8732 8733 8734 8735 8736 8737 8738 8739 8740 8741 8742 8743 8744 8745 8746 8747 8748 8749 8750 8751 8752 8753 8754 8755 8756 8757 8758 8759 8760 8761 8762 8763 8764 8765 8766 8767 8768 8769 8770 8771 8772 8773 8774 8775 8776 8777 8778 8779 8780 8781 8782 8783 8784 8785 8786 8787 8788 8789 8790 8791 8792 8793 8794 8795 8796 8797 8798 8799 8800 8801 8802 8803 8804 8805 8806 8807 8808 8809 8810 8811 8812 8813 8814 8815 8816 8817 8818 8819 8820 8821 8822 8823 8824 8825 8826 8827 8828 8829 8830 8831 8832 8833 8834 8835 8836 8837 8838 8839 8840 8841 8842 8843 8844 8845 8846 8847 8848 8849 8850 8851 8852 8853 8854 8855 8856 8857 8858 8859 8860 8861 8862 8863 8864 8865 8866 8867 8868 8869 8870 8871 8872 8873 8874 8875 8876 8877 8878 8879 8880 8881 8882 8883 8884 8885 8886 8887 8888 8889 8890 8891 8892 8893 8894 8895 8896 8897 8898 8899 8900 8901 8902 8903 8904 8905 8906 8907 8908 8909 8910 8911 8912 8913 8914 8915 8916 8917 8918 8919 8920 8921 8922 8923 8924 8925 8926 8927 8928 8929 8930 8931 8932 8933 8934 8935 8936 8937 8938 8939 8940 8941 8942 8943 8944 8945 8946 8947 8948 8949 8950 8951 8952 8953 8954 8955 8956 8957 8958 8959 8960 8961 8962 8963 8964 8965 8966 8967 8968 8969 8970 8971 8972 8973 8974 8975 8976 8977 8978 8979 8980 8981 8982 8983 8984 8985 8986 8987 8988 8989 8990 8991 8992 8993 8994 8995 8996 8997 8998 8999 9000 9001 9002 9003 9004 9005 9006 9007 9008 9009 9010 9011 9012 9013 9014 9015 9016 9017 9018 9019 9020 9021 9022 9023 9024 9025 9026 9027 9028 9029 9030 9031 9032 9033 9034 9035 9036 9037 9038 9039 9040 9041 9042 9043 9044 9045 9046 9047 9048 9049 9050 9051 9052 9053 9054 9055 9056 9057 9058 9059 9060 9061 9062 9063 9064 9065 9066 9067 9068 9069 9070 9071 9072 9073 9074 9075 9076 9077 9078 9079 9080 9081 9082 9083 9084 9085 9086 9087 9088 9089 9090 9091 9092 9093 9094 9095 9096 9097 9098 9099 9100 9101 9102 9103 9104 9105 9106 9107 9108 9109 9110 9111 9112 9113 9114 9115 9116 9117 9118 9119 9120 9121 9122 9123 9124 9125 9126 9127 9128 9129 9130 9131 9132 9133 9134 9135 9136 9137 9138 9139 9140 9141 9142 9143 9144 9145 9146 9147 9148 9149 9150 9151 9152 9153 9154 9155 9156 9157 9158 9159 9160 9161 9162 9163 9164 9165 9166 9167 9168 9169 9170 9171 9172 9173 9174 9175 9176 9177 9178 9179 9180 9181 9182 9183 9184 9185 9186 9187 9188 9189 9190 9191 9192 9193 9194 9195 9196 9197 9198 9199 9200 9201 9202 9203 9204 9205 9206 9207 9208 9209 9210 9211 9212 9213 9214 9215 9216 9217 9218 9219 9220 9221 9222 9223 9224 9225 9226 9227 9228 9229 9230 9231 9232 9233 9234 9235 9236 9237 9238 9239 9240 9241 9242 9243 9244 9245 9246 9247 9248 9249 9250 9251 9252 9253 9254 9255 9256 9257 9258 9259 9260 9261 9262 9263 9264 9265 9266 9267 9268 9269 9270 9271 9272 9273 9274 9275 9276 9277 9278 9279 9280 9281 9282 9283 9284 9285 9286 9287 9288 9289 9290 9291 9292 9293 9294 9295 9296 9297 9298 9299 9300 9301 9302 9303 9304 9305 9306 9307 9308 9309 9310 9311 9312 9313 9314 9315 9316 9317 9318 9319 9320 9321 9322 9323 9324 9325 9326 9327 9328 9329 9330 9331 9332 9333 9334 9335 9336 9337 9338 9339 9340 9341 9342 9343 9344 9345 9346 9347 9348 9349 9350 9351 9352 9353 9354 9355 9356 9357 9358 9359 9360 9361 9362 9363 9364 9365 9366 9367 9368 9369 9370 9371 9372 9373 9374 9375 9376 9377 9378 9379 9380 9381 9382 9383 9384 9385 9386 9387 9388 9389 9390 9391 9392 9393 9394 9395 9396 9397 9398 9399 9400 9401 9402 9403 9404 9405 9406 9407 9408 9409 9410 9411 9412 9413 9414 9415 9416 9417 9418 9419 9420 9421 9422 9423 9424 9425 9426 9427 9428 9429 9430 9431 9432 9433 9434 9435 9436 9437 9438 9439 9440 9441 9442 9443 9444 9445 9446 9447 9448 9449 9450 9451 9452 9453 9454 9455 9456 9457 9458 9459 9460 9461 9462 9463 9464 9465 9466 9467 9468 9469 9470 9471 9472 9473 9474 9475 9476 9477 9478 9479 9480 9481 9482 9483 9484 9485 9486 9487 9488 9489 9490 9491 9492 9493 9494 9495 9496 9497 9498 9499 9500 9501 9502 9503 9504 9505 9506 9507 9508 9509 9510 9511 9512 9513 9514 9515 9516 9517 9518 9519 9520 9521 9522 9523 9524 9525 9526 9527 9528 9529 9530 9531 9532 9533 9534 9535 9536 9537 9538 9539 9540 9541 9542 9543 9544 9545 9546 9547 9548 9549 9550 9551 9552 9553 9554 9555 9556 9557 9558 9559 9560 9561 9562 9563 9564 9565 9566 9567 9568 9569 9570 9571 9572 9573 9574 9575 9576 9577 9578 9579 9580 9581 9582 9583 9584 9585 9586 9587 9588 9589 9590 9591 9592 9593 9594 9595 9596 9597 9598 9599 9600 9601 9602 9603 9604 9605 9606 9607 9608 9609 9610 9611 9612 9613 9614 9615 9616 9617 9618 9619 9620 9621 9622 9623 9624 9625 9626 9627 9628 9629 9630 9631 9632 9633 9634 9635 9636 9637 9638 9639 9640 9641 9642 9643 9644 9645 9646 9647 9648 9649 9650 9651 9652 9653 9654 9655 9656 9657 9658 9659 9660 9661 9662 9663 9664 9665 9666 9667 9668 9669 9670 9671 9672 9673 9674 9675 9676 9677 9678 9679 9680 9681 9682 9683 9684 9685 9686 9687 9688 9689 9690 9691 9692 9693 9694 9695 9696 9697 9698 9699 9700 9701 9702 9703 9704 9705 9706 9707 9708 9709 9710 9711 9712 9713 9714 9715 9716 9717 9718 9719 9720 9721 9722 9723 9724 9725 9726 9727 9728 9729 9730 9731 9732 9733 9734 9735 9736 9737 9738 9739 9740 9741 9742 9743 9744 9745 9746 9747 9748 9749 9750 9751 9752 9753 9754 9755 9756 9757 9758 9759 9760 9761 9762 9763 9764 9765 9766 9767 9768 9769 9770 9771 9772 9773 9774 9775 9776 9777 9778 9779 9780 9781 9782 9783 9784 9785 9786 9787 9788 9789 9790 9791 9792 9793 9794 9795 9796 9797 9798 9799 9800 9801 9802 9803 9804 9805 9806 9807 9808 9809 9810 9811 9812 9813 9814 9815 9816 9817 9818 9819 9820 9821 9822 9823 9824 9825 9826 9827 9828 9829 9830 9831 9832 9833 9834 9835 9836 9837 9838 9839 9840 9841 9842 9843 9844 9845 9846 9847 9848 9849 9850 9851 9852 9853 9854 9855 9856 9857 9858 9859 9860 9861 9862 9863 9864 9865 9866 9867 9868 9869 9870 9871 9872 9873 9874 9875 9876 9877 9878 9879 9880 9881 9882 9883 9884 9885 9886 9887 9888 9889 9890 9891 9892 9893 9894 9895 9896 9897 9898 9899 9900 9901 9902 9903 9904 9905 9906 9907 9908 9909 9910 9911 9912 9913 9914 9915 9916 9917 9918 9919 9920 9921 9922 9923 9924 9925 9926 9927 9928 9929 9930 9931 9932 9933 9934 9935 9936 9937 9938 9939 9940 9941 9942 9943 9944 9945 9946 9947 9948 9949 9950 9951 9952 9953 9954 9955 9956 9957 9958 9959 9960 9961 9962 9963 9964 9965 9966 9967 9968 9969 9970 9971 9972 9973 9974 9975 9976 9977 9978 9979 9980 9981 9982 9983 9984 9985 9986 9987 9988 9989 9990 9991 9992 9993 9994 9995 9996 9997 9998 9999 10000 10001 10002 10003 10004 10005 10006 10007 10008 10009 10010 10011 10012 10013 10014 10015 10016 10017 10018 10019 10020 10021 10022 10023 10024 10025 10026 10027 10028 10029 10030 10031 10032 10033 10034 10035 10036 10037 10038 10039 10040 10041 10042 10043 10044 10045 10046 10047 10048 10049 10050 10051 10052 10053 10054 10055 10056 10057 10058 10059 10060 10061 10062 10063 10064 10065 10066 10067 10068 10069 10070 10071 10072 10073 10074 10075 10076 10077 10078 10079 10080 10081 10082 10083 10084 10085 10086 10087 10088 10089 10090 10091 10092 10093 10094 10095 10096 10097 10098 10099 10100 10101 10102 10103 10104 10105 10106 10107 10108 10109 10110 10111 10112 10113 10114 10115 10116 10117 10118 10119 10120 10121 10122 10123 10124 10125 10126 10127 10128 10129 10130 10131 10132 10133 10134 10135 10136 10137 10138 10139 10140 10141 10142 10143 10144 10145 10146 10147 10148 10149 10150 10151 10152 10153 10154 10155 10156 10157 10158 10159 10160 10161 10162 10163 10164 10165 10166 10167 10168 10169 10170 10171 10172 10173 10174 10175 10176 10177 10178 10179 10180 10181 10182 10183 10184 10185 10186 10187 10188 10189 10190 10191 10192 10193 10194 10195 10196 10197 10198 10199 10200 10201 10202 10203 10204 10205 10206 10207 10208 10209 10210 10211 10212 10213 10214 10215 10216 10217 10218 10219 10220 10221 10222 10223 10224 10225 10226 10227 10228 10229 10230 10231 10232 10233 10234 10235 10236 10237 10238 10239 10240 10241 10242 10243 10244 10245 10246 10247 10248 10249 10250 10251 10252 10253 10254 10255 10256 10257 10258 10259 10260 10261 10262 10263 10264 10265 10266 10267 10268 10269 10270 10271 10272 10273 10274 10275 10276 10277 10278 10279 10280 10281 10282 10283 10284 10285 10286 10287 10288 10289 10290 10291 10292 10293 10294 10295 10296 10297 10298 10299 10300 10301 10302 10303 10304 10305 10306 10307 10308 10309 10310 10311 10312 10313 10314 10315 10316 10317 10318 10319 10320 10321 10322 10323 10324 10325 10326 10327 10328 10329 10330 10331 10332 10333 10334 10335 10336 10337 10338 10339 10340 10341 10342 10343 10344 10345 10346 10347 10348 10349 10350 10351 10352 10353 10354 10355 10356 10357 10358 10359 10360 10361 10362 10363 10364 10365 10366 10367 10368 10369 10370 10371 10372 10373 10374 10375 10376 10377 10378 10379 10380 10381 10382 10383 10384 10385 10386 10387 10388 10389 10390 10391 10392 10393 10394 10395 10396 10397 10398 10399 10400 10401 10402 10403 10404 10405 10406 10407 10408 10409 10410 10411 10412 10413 10414 10415 10416 10417 10418 10419 10420 10421 10422 10423 10424 10425 10426 10427 10428 10429 10430 10431 10432 10433 10434 10435 10436 10437 10438 10439 10440 10441 10442 10443 10444 10445 10446 10447 10448 10449 10450 10451 10452 10453 10454 10455 10456 10457 10458 10459 10460 10461 10462 10463 10464 10465 10466 10467 10468 10469 10470 10471 10472 10473 10474 10475 10476 10477 10478 10479 10480 10481 10482 10483 10484 10485 10486 10487 10488 10489 10490 10491 10492 10493 10494 10495 10496 10497 10498 10499 10500 10501 10502 10503 10504 10505 10506 10507 10508 10509 10510 10511 10512 10513 10514 10515 10516 10517 10518 10519 10520 10521 10522 10523 10524 10525 10526 10527 10528 10529 10530 10531 10532 10533 10534 10535 10536 10537 10538 10539 10540 10541 10542 10543 10544 10545 10546 10547 10548 10549 10550 10551 10552 10553 10554 10555 10556 10557 10558 10559 10560 10561 10562 10563 10564 10565 10566 10567 10568 10569 10570 10571 10572 10573 10574 10575 10576 10577 10578 10579 10580 10581 10582 10583 10584 10585 10586 10587 10588 10589 10590 10591 10592 10593 10594 10595 10596 10597 10598 10599 10600 10601 10602 10603 10604 10605 10606 10607 10608 10609 10610 10611 10612 10613 10614 10615 10616 10617 10618 10619 10620 10621 10622 10623 10624 10625 10626 10627 10628 10629 10630 10631 10632 10633 10634 10635 10636 10637 10638 10639 10640 10641 10642 10643 10644 10645 10646 10647 10648 10649 10650 10651 10652 10653 10654 10655 10656 10657 10658 10659 10660 10661 10662 10663 10664 10665 10666 10667 10668 10669 10670 10671 10672 10673 10674 10675 10676 10677 10678 10679 10680 10681 10682 10683 10684 10685 10686 10687 10688 10689 10690 10691 10692 10693 10694 10695 10696 10697 10698 10699 10700 10701 10702 10703 10704 10705 10706 10707 10708 10709 10710 10711 10712 10713 10714 10715 10716 10717 10718 10719 10720 10721 10722 10723 10724 10725 10726 10727 10728 10729 10730 10731 10732 10733 10734 10735 10736 10737 10738 10739 10740 10741 10742 10743 10744 10745 10746 10747 10748 10749 10750 10751 10752 10753 10754 10755 10756 10757 10758 10759 10760 10761 10762 10763 10764 10765 10766 10767 10768 10769 10770 10771 10772 10773 10774 10775 10776 10777 10778 10779 10780 10781 10782 10783 10784 10785 10786 10787 10788 10789 10790 10791 10792 10793 10794 10795 10796 10797 10798 10799 10800 10801 10802 10803 10804 10805 10806 10807 10808 10809 10810 10811 10812 10813 10814 10815 10816 10817 10818 10819 10820 10821 10822 10823 10824 10825 10826 10827 10828 10829 10830 10831 10832 10833 10834 10835 10836 10837 10838 10839 10840 10841 10842 10843 10844 10845 10846 10847 10848 10849 10850 10851 10852 10853 10854 10855 10856 10857 10858 10859 10860 10861 10862 10863 10864 10865 10866 10867 10868 10869 10870 10871 10872 10873 10874 10875 10876 10877 10878 10879 10880 10881 10882 10883 10884 10885 10886 10887 10888 10889 10890 10891 10892 10893 10894 10895 10896 10897 10898 10899 10900 10901 10902 10903 10904 10905 10906 10907 10908 10909 10910 10911 10912 10913 10914 10915 10916 10917 10918 10919 10920 10921 10922 10923 10924 10925 10926 10927 10928 10929 10930 10931 10932 10933 10934 10935 10936 10937 10938 10939 10940 10941 10942 10943 10944 10945 10946 10947 10948 10949 10950 10951 10952 10953 10954 10955 10956 10957 10958 10959 10960 10961 10962 10963 10964 10965 10966 10967 10968 10969 10970 10971 10972 10973 10974 10975 10976 10977 10978 10979 10980 10981 10982 10983 10984 10985 10986 10987 10988 10989 10990 10991 10992 10993 10994 10995 10996 10997 10998 10999 11000 11001 11002 11003 11004 11005 11006 11007 11008 11009 11010 11011 11012 11013 11014 11015 11016 11017 11018 11019 11020 11021 11022 11023 11024 11025 11026 11027 11028 11029 11030 11031 11032 11033 11034 11035 11036 11037 11038 11039 11040 11041 11042 11043 11044 11045 11046 11047 11048 11049 11050 11051 11052 11053 11054 11055 11056 11057 11058 11059 11060 11061 11062 11063 11064 11065 11066 11067 11068 11069 11070 11071 11072 11073 11074 11075 11076 11077 11078 11079 11080 11081 11082 11083 11084 11085 11086 11087 11088 11089 11090 11091 11092 11093 11094 11095 11096 11097 11098 11099 11100 11101 11102 11103 11104 11105 11106 11107 11108 11109 11110 11111 11112 11113 11114 11115 11116 11117 11118 11119 11120 11121 11122 11123 11124 11125 11126 11127 11128 11129 11130 11131 11132 11133 11134 11135 11136 11137 11138 11139 11140 11141 11142 11143 11144 11145 11146 11147 11148 11149 11150 11151 11152 11153 11154 11155 11156 11157 11158 11159 11160 11161 11162 11163 11164 11165 11166 11167 11168 11169 11170 11171 11172 11173 11174 11175 11176 11177 11178 11179 11180 11181 11182 11183 11184 11185 11186 11187 11188 11189 11190 11191 11192 11193 11194 11195 11196 11197 11198 11199 11200 11201 11202 11203 11204 11205 11206 11207 11208 11209 11210 11211 11212 11213 11214 11215 11216 11217 11218 11219 11220 11221 11222 11223 11224 11225 11226 11227 11228 11229 11230 11231 11232 11233 11234 11235 11236 11237 11238 11239 11240 11241 11242 11243 11244 11245 11246 11247 11248 11249 11250 11251 11252 11253 11254 11255 11256 11257 11258 11259 11260 11261 11262 11263 11264 11265 11266 11267 11268 11269 11270 11271 11272 11273 11274 11275 11276 11277 11278 11279 11280 11281 11282 11283 11284 11285 11286 11287 11288 11289 11290 11291 11292 11293 11294 11295 11296 11297 11298 11299 11300 11301 11302 11303 11304 11305 11306 11307 11308 11309 11310 11311 11312 11313 11314 11315 11316 11317 11318 11319 11320 11321 11322 11323 11324 11325 11326 11327 11328 11329 11330 11331 11332 11333 11334 11335 11336 11337 11338 11339 11340 11341 11342 11343 11344 11345 11346 11347 11348 11349 11350 11351 11352 11353 11354 11355 11356 11357 11358 11359 11360 11361 11362 11363 11364 11365 11366 11367 11368 11369 11370 11371 11372 11373 11374 11375 11376 11377 11378 11379 11380 11381 11382 11383 11384 11385 11386 11387 11388 11389 11390 11391 11392 11393 11394 11395 11396 11397 11398 11399 11400 11401 11402 11403 11404 11405 11406 11407 11408 11409 11410 11411 11412 11413 11414 11415 11416 11417 11418 11419 11420 11421 11422 11423 11424 11425 11426 11427 11428 11429 11430 11431 11432 11433 11434 11435 11436 11437 11438 11439 11440 11441 11442 11443 11444 11445 11446 11447 11448 11449 11450 11451 11452 11453 11454 11455 11456 11457 11458 11459 11460 11461 11462 11463 11464 11465 11466 11467 11468 11469 11470 11471 11472 11473 11474 11475 11476 11477 11478 11479 11480 11481 11482 11483 11484 11485 11486 11487 11488 11489 11490 11491 11492 11493 11494 11495 11496 11497 11498 11499 11500 11501 11502 11503 11504 11505 11506 11507 11508 11509 11510 11511 11512 11513 11514 11515 11516 11517 11518 11519 11520 11521 11522 11523 11524 11525 11526 11527 11528 11529 11530 11531 11532 11533 11534 11535 11536 11537 11538 11539 11540 11541 11542 11543 11544 11545 11546 11547 11548 11549 11550 11551 11552 11553 11554 11555 11556 11557 11558 11559 11560 11561 11562 11563 11564 11565 11566 11567 11568 11569 11570 11571 11572 11573 11574 11575 11576 11577 11578 11579 11580 11581 11582 11583 11584 11585 11586 11587 11588 11589 11590 11591 11592 11593 11594 11595 11596 11597 11598 11599 11600 11601 11602 11603 11604 11605 11606 11607 11608 11609 11610 11611 11612 11613 11614 11615 11616 11617 11618 11619 11620 11621 11622 11623 11624 11625 11626 11627 11628 11629 11630 11631 11632 11633 11634 11635 11636 11637 11638 11639 11640 11641 11642 11643 11644 11645 11646 11647 11648 11649 11650 11651 11652 11653 11654 11655 11656 11657 11658 11659 11660 11661 11662 11663 11664 11665 11666 11667 11668 11669 11670 11671 11672 11673 11674 11675 11676 11677 11678 11679 11680 11681 11682 11683 11684 11685 11686 11687 11688 11689 11690 11691 11692 11693 11694 11695 11696 11697 11698 11699 11700 11701 11702 11703 11704 11705 11706 11707 11708 11709 11710 11711 11712 11713 11714 11715 11716 11717 11718 11719 11720 11721 11722 11723 11724 11725 11726 11727 11728 11729 11730 11731 11732 11733 11734 11735 11736 11737 11738 11739 11740 11741 11742 11743 11744 11745 11746 11747 11748 11749 11750 11751 11752 11753 11754 11755 11756 11757 11758 11759 11760 11761 11762 11763 11764 11765 11766 11767 11768 11769 11770 11771 11772 11773 11774 11775 11776 11777 11778 11779 11780 11781 11782 11783 11784 11785 11786 11787 11788 11789 11790 11791 11792 11793 11794 11795 11796 11797 11798 11799 11800 11801 11802 11803 11804 11805 11806 11807 11808 11809 11810 11811 11812 11813 11814 11815 11816 11817 11818 11819 11820 11821 11822 11823 11824 11825 11826 11827 11828 11829 11830 11831 11832 11833 11834 11835 11836 11837 11838 11839 11840 11841 11842 11843 11844 11845 11846 11847 11848 11849 11850 11851 11852 11853 11854 11855 11856 11857 11858 11859 11860 11861 11862 11863 11864 11865 11866 11867 11868 11869 11870 11871 11872 11873 11874 11875 11876 11877 11878 11879 11880 11881 11882 11883 11884 11885 11886 11887 11888 11889 11890 11891 11892 11893 11894 11895 11896 11897 11898 11899 11900 11901 11902 11903 11904 11905 11906 11907 11908 11909 11910 11911 11912 11913 11914 11915 11916 11917 11918 11919 11920 11921 11922 11923 11924 11925 11926 11927 11928 11929 11930 11931 11932 11933 11934 11935 11936 11937 11938 11939 11940 11941 11942 11943 11944 11945 11946 11947 11948 11949 11950 11951 11952 11953 11954 11955 11956 11957 11958 11959 11960 11961 11962 11963 11964 11965 11966 11967 11968 11969 11970 11971 11972 11973 11974 11975 11976 11977 11978 11979 11980 11981 11982 11983 11984 11985 11986 11987 11988 11989 11990 11991 11992 11993 11994 11995 11996 11997 11998 11999 12000 12001 12002 12003 12004 12005 12006 12007 12008 12009 12010 12011 12012 12013 12014 12015 12016 12017 12018 12019 12020 12021 12022 12023 12024 12025 12026 12027 12028 12029 12030 12031 12032 12033 12034 12035 12036 12037 12038 12039 12040 12041 12042 12043 12044 12045 12046 12047 12048 12049 12050 12051 12052 12053 12054 12055 12056 12057 12058 12059 12060 12061 12062 12063 12064 12065 12066 12067 12068 12069 12070 12071 12072 12073 12074 12075 12076 12077 12078 12079 12080 12081 12082 12083 12084 12085 12086 12087 12088 12089 12090 12091 12092 12093 12094 12095 12096 12097 12098 12099 12100 12101 12102 12103 12104 12105 12106 12107 12108 12109 12110 12111 12112 12113 12114 12115 12116 12117 12118 12119 12120 12121 12122 12123 12124 12125 12126 12127 12128 12129 12130 12131 12132 12133 12134 12135 12136 12137 12138 12139 12140 12141 12142 12143 12144 12145 12146 12147 12148 12149 12150 12151 12152 12153 12154 12155 12156 12157 12158 12159 12160 12161 12162 12163 12164 12165 12166 12167 12168 12169 12170 12171 12172 12173 12174 12175 12176 12177 12178 12179 12180 12181 12182 12183 12184 12185 12186 12187 12188 12189 12190 12191 12192 12193 12194 12195 12196 12197 12198 12199 12200 12201 12202 12203 12204 12205 12206 12207 12208 12209 12210 12211 12212 12213 12214 12215 12216 12217 12218 12219 12220 12221 12222 12223 12224 12225 12226 12227 12228 12229 12230 12231 12232 12233 12234 12235 12236 12237 12238 12239 12240 12241 12242 12243 12244 12245 12246 12247 12248 12249 12250 12251 12252 12253 12254 12255 12256 12257 12258 12259 12260 12261 12262 12263 12264 12265 12266 12267 12268 12269 12270 12271 12272 12273 12274 12275 12276 12277 12278 12279 12280 12281 12282 12283 12284 12285 12286 12287 12288 12289 12290 12291 12292 12293 12294 12295 12296 12297 12298 12299 12300 12301 12302 12303 12304 12305 12306 12307 12308 12309 12310 12311 12312 12313 12314 12315 12316 12317 12318 12319 12320 12321 12322 12323 12324 12325 12326 12327 12328 12329 12330 12331 12332 12333 12334 12335 12336 12337 12338 12339 12340 12341 12342 12343 12344 12345 12346 12347 12348 12349 12350 12351 12352 12353 12354 12355 12356 12357 12358 12359 12360 12361 12362 12363 12364 12365 12366 12367 12368 12369 12370 12371 12372 12373 12374 12375 12376 12377 12378 12379 12380 12381 12382 12383 12384 12385 12386 12387 12388 12389 12390 12391 12392 12393 12394 12395 12396 12397 12398 12399 12400 12401 12402 12403 12404 12405 12406 12407 12408 12409 12410 12411 12412 12413 12414 12415 12416 12417 12418 12419 12420 12421 12422 12423 12424 12425 12426 12427 12428 12429 12430 12431 12432 12433 12434 12435 12436 12437 12438 12439 12440 12441 12442 12443 12444 12445 12446 12447 12448 12449 12450 12451 12452 12453 12454 12455 12456 12457 12458 12459 12460 12461 12462 12463 12464 12465 12466 12467 12468 12469 12470 12471 12472 12473 12474 12475 12476 12477 12478 12479 12480 12481 12482 12483 12484 12485 12486 12487 12488 12489 12490 12491 12492 12493 12494 12495 12496 12497 12498 12499 12500 12501 12502 12503 12504 12505 12506 12507 12508 12509 12510 12511 12512 12513 12514 12515 12516 12517 12518 12519 12520 12521 12522 12523 12524 12525 12526 12527 12528 12529 12530 12531 12532 12533 12534 12535 12536 12537 12538 12539 12540 12541 12542 12543 12544 12545 12546 12547 12548 12549 12550 12551 12552 12553 12554 12555 12556 12557 12558 12559 12560 12561 12562 12563 12564 12565 12566 12567 12568 12569 12570 12571 12572 12573 12574 12575 12576 12577 12578 12579 12580 12581 12582 12583 12584 12585 12586 12587 12588 12589 12590 12591 12592 12593 12594 12595 12596 12597 12598 12599 12600 12601 12602 12603 12604 12605 12606 12607 12608 12609 12610 12611 12612 12613 12614 12615 12616 12617 12618 12619 12620 12621 12622 12623 12624 12625 12626 12627 12628 12629 12630 12631 12632 12633 12634 12635 12636 12637 12638 12639 12640 12641 12642 12643 12644 12645 12646 12647 12648 12649 12650 12651 12652 12653 12654 12655 12656 12657 12658 12659 12660 12661 12662 12663 12664 12665 12666 12667 12668 12669 12670 12671 12672 12673 12674 12675 12676 12677 12678 12679 12680 12681 12682 12683 12684 12685 12686 12687 12688 12689 12690 12691 12692 12693 12694 12695 12696 12697 12698 12699 12700 12701 12702 12703 12704 12705 12706 12707 12708 12709 12710 12711 12712 12713 12714 12715 12716 12717 12718 12719 12720 12721 12722 12723 12724 12725 12726 12727 12728 12729 12730 12731 12732 12733 12734 12735 12736 12737 12738 12739 12740 12741 12742 12743 12744 12745 12746 12747 12748 12749 12750 12751 12752 12753 12754 12755 12756 12757 12758 12759 12760 12761 12762 12763 12764 12765 12766 12767 12768 12769 12770 12771 12772 12773 12774 12775 12776 12777 12778 12779 12780 12781 12782 12783 12784 12785 12786 12787 12788 12789 12790 12791 12792 12793 12794 12795 12796 12797 12798 12799 12800 12801 12802 12803 12804 12805 12806 12807 12808 12809 12810 12811 12812 12813 12814 12815 12816 12817 12818 12819 12820 12821 12822 12823 12824 12825 12826 12827 12828 12829 12830 12831 12832 12833 12834 12835 12836 12837 12838 12839 12840 12841 12842 12843 12844 12845 12846 12847 12848 12849 12850 12851 12852 12853 12854 12855 12856 12857 12858 12859 12860 12861 12862 12863 12864 12865 12866 12867 12868 12869 12870 12871 12872 12873 12874 12875 12876 12877 12878 12879 12880 12881 12882 12883 12884 12885 12886 12887 12888 12889 12890 12891 12892 12893 12894 12895 12896 12897 12898 12899 12900 12901 12902 12903 12904 12905 12906 12907 12908 12909 12910 12911 12912 12913 12914 12915 12916 12917 12918 12919 12920 12921 12922 12923 12924 12925 12926 12927 12928 12929 12930 12931 12932 12933 12934 12935 12936 12937 12938 12939 12940 12941 12942 12943 12944 12945 12946 12947 12948 12949 12950 12951 12952 12953 12954 12955 12956 12957 12958 12959 12960 12961 12962 12963 12964 12965 12966 12967 12968 12969 12970 12971 12972 12973 12974 12975 12976 12977 12978 12979 12980 12981 12982 12983 12984 12985 12986 12987 12988 12989 12990 12991 12992 12993 12994 12995 12996 12997 12998 12999 13000 13001 13002 13003 13004 13005 13006 13007 13008 13009 13010 13011 13012 13013 13014 13015 13016 13017 13018 13019 13020 13021 13022 13023 13024 13025 13026 13027 13028 13029 13030 13031 13032 13033 13034 13035 13036 13037 13038 13039 13040 13041 13042 13043 13044 13045 13046 13047 13048 13049 13050 13051 13052 13053 13054 13055 13056 13057 13058 13059 13060 13061 13062 13063 13064 13065 13066 13067 13068 13069 13070 13071 13072 13073 13074 13075 13076 13077 13078 13079 13080 13081 13082 13083 13084 13085 13086 13087 13088 13089 13090 13091 13092 13093 13094 13095 13096 13097 13098 13099 13100 13101 13102 13103 13104 13105 13106 13107 13108 13109 13110 13111 13112 13113 13114 13115 13116 13117 13118 13119 13120 13121 13122 13123 13124 13125 13126 13127 13128 13129 13130 13131 13132 13133 13134 13135 13136 13137 13138 13139 13140 13141 13142 13143 13144 13145 13146 13147 13148 13149 13150 13151 13152 13153 13154 13155 13156 13157 13158 13159 13160 13161 13162 13163 13164 13165 13166 13167 13168 13169 13170 13171 13172 13173 13174 13175 13176 13177 13178 13179 13180 13181 13182 13183 13184 13185 13186 13187 13188 13189 13190 13191 13192 13193 13194 13195 13196 13197 13198 13199 13200 13201 13202 13203 13204 13205 13206 13207 13208 13209 13210 13211 13212 13213 13214 13215 13216 13217 13218 13219 13220 13221 13222 13223 13224 13225 13226 13227 13228 13229 13230 13231 13232 13233 13234 13235 13236 13237 13238 13239 13240 13241 13242 13243 13244 13245 13246 13247 13248 13249 13250 13251 13252 13253 13254 13255 13256 13257 13258 13259 13260 13261 13262 13263 13264 13265 13266 13267 13268 13269 13270 13271 13272 13273 13274 13275 13276 13277 13278 13279 13280 13281 13282 13283 13284 13285 13286 13287 13288 13289 13290 13291 13292 13293 13294 13295 13296 13297 13298 13299 13300 13301 13302 13303 13304 13305 13306 13307 13308 13309 13310 13311 13312 13313 13314 13315 13316 13317 13318 13319 13320 13321 13322 13323 13324 13325 13326 13327 13328 13329 13330 13331 13332 13333 13334 13335 13336 13337 13338 13339 13340 13341 13342 13343 13344 13345 13346 13347 13348 13349 13350 13351 13352 13353 13354 13355 13356 13357 13358 13359 13360 13361 13362 13363 13364 13365 13366 13367 13368 13369 13370 13371 13372 13373 13374 13375 13376 13377 13378 13379 13380 13381 13382 13383 13384 13385 13386 13387 13388 13389 13390 13391 13392 13393 13394 13395 13396 13397 13398 13399 13400 13401 13402 13403 13404 13405 13406 13407 13408 13409 13410 13411 13412 13413 13414 13415 13416 13417 13418 13419 13420 13421 13422 13423 13424 13425 13426 13427 13428 13429 13430 13431 13432 13433 13434 13435 13436 13437 13438 13439 13440 13441 13442 13443 13444 13445 13446 13447 13448 13449 13450 13451 13452 13453 13454 13455 13456 13457 13458 13459 13460 13461 13462 13463 13464 13465 13466 13467 13468 13469 13470 13471 13472 13473 13474 13475 13476 13477 13478 13479 13480 13481 13482 13483 13484 13485 13486 13487 13488 13489 13490 13491 13492 13493 13494 13495 13496 13497 13498 13499 13500 13501 13502 13503 13504 13505 13506 13507 13508 13509 13510 13511 13512 13513 13514 13515 13516 13517 13518 13519 13520 13521 13522 13523 13524 13525 13526 13527 13528 13529 13530 13531 13532 13533 13534 13535 13536 13537 13538 13539 13540 13541 13542 13543 13544 13545 13546 13547 13548 13549 13550 13551 13552 13553 13554 13555 13556 13557 13558 13559 13560 13561 13562 13563 13564 13565 13566 13567 13568 13569 13570 13571 13572 13573 13574 13575 13576 13577 13578 13579 13580 13581 13582 13583 13584 13585 13586 13587 13588 13589 13590 13591 13592 13593 13594 13595 13596 13597 13598 13599 13600 13601 13602 13603 13604 13605 13606 13607 13608 13609 13610 13611 13612 13613 13614 13615 13616 13617 13618 13619 13620 13621 13622 13623 13624 13625 13626 13627 13628 13629 13630 13631 13632 13633 13634 13635 13636 13637 13638 13639 13640 13641 13642 13643 13644 13645 13646 13647 13648 13649 13650 13651 13652 13653 13654 13655 13656 13657 13658 13659 13660 13661 13662 13663 13664 13665 13666 13667 13668 13669 13670 13671 13672 13673 13674 13675 13676 13677 13678 13679 13680 13681 13682 13683 13684 13685 13686 13687 13688 13689 13690 13691 13692 13693 13694 13695 13696 13697 13698 13699 13700 13701 13702 13703 13704 13705 13706 13707 13708 13709 13710 13711 13712 13713 13714 13715 13716 13717 13718 13719 13720 13721 13722 13723 13724 13725 13726 13727 13728 13729 13730 13731 13732 13733 13734 13735 13736 13737 13738 13739 13740 13741 13742 13743 13744 13745 13746 13747 13748 13749 13750 13751 13752 13753 13754 13755 13756 13757 13758 13759 13760 13761 13762 13763 13764 13765 13766 13767 13768 13769 13770 13771 13772 13773 13774 13775 13776 13777 13778 13779 13780 13781 13782 13783 13784 13785 13786 13787 13788 13789 13790 13791 13792 13793 13794 13795 13796 13797 13798 13799 13800 13801 13802 13803 </DataArray>
        <DataArray type="Float64" Name="stress" format="ascii" NumberOfComponents="9">74346182.84714599 -234613.8525440055 -234613.8525440055 3795412.495548664 0 0 0 0 0 74229791.52795386 -328535.3906767859 -328535.3906767859 3563546.26315257 0 0 0 0 0 73960881.36576608 -234450.8145225043 -234450.8145225043 3728986.817929185 0 0 0 0 0 74576777.56177814 -627409.3218037901 -627409.3218037901 3816842.003921116 0 0 0 0 0 73703334.56271036 -251120.9011657024 -251120.9011657024 3742359.055134216 0 0 0 0 0 73904594.75452752 -655473.0166987316 -655473.0166987316 3651345.839200245 0 0 0 0 0 74191659.61356401 -889533.3206127908 -889533.3206127908 3520066.856537127 0 0 0 0 0 73438928.83644339 -252999.5942342197 -252999.5942342197 3780910.539329147 0 0 0 0 0 73720559.13384426 -672497.7489049041 -672497.7489049041 3748775.583829969 0 0 0 0 0 74699844.51597887 -1215606.645999723 -1215606.645999723 3832382.230984537 0 0 0 0 0 73053860.00100613 -273583.2811522249 -273583.2811522249 3777861.912454095 0 0 0 0 0 73356483.77707389 -722237.6699062798 -722237.6699062798 3761825.845621151 0 0 0 0 0 73798745.90330102 -1148237.156601131 -1148237.156601131 3790932.096407599 0 0 0 0 0 74252240.90361813 -1479174.729746469 -1479174.729746469 3474319.483538504 0 0 0 0 0 73763226.68638022 -1215150.391536274 -1215150.391536274 3567152.129714513 0 0 0 0 0 72762428.16352424 -281008.2515657736 -281008.2515657736 3813126.182550853 0 0 0 0 0 73127427.67613867 -707613.3812841719 -707613.3812841719 3802285.45209802 0 0 0 0 0 73245363.21988468 -1127815.135582174 -1127815.135582174 3685564.766306823 0 0 0 0 0 74810965.91263673 -1809146.699551331 -1809146.699551331 3779353.281072188 0 0 0 0 0 74353421.7224168 -2069589.190843236 -2069589.190843236 3409184.496914 0 0 0 0 0 74220495.81003971 -1677391.707710074 -1677391.707710074 3800829.769038856 0 0 0 0 0 72393188.45140901 -292733.7776718289 -292733.7776718289 3828432.912463722 0 0 0 0 0 72669116.11943758 -806590.5754439272 -806590.5754439272 3769694.558648446 0 0 0 0 0 73166382.19699837 -1108720.283063629 -1108720.283063629 3823875.990732688 0 0 0 0 0 73525391.41815187 -1569820.147462203 -1569820.147462203 3804063.991120525 0 0 0 0 0 73936569.12334085 -1829561.850726916 -1829561.850726916 3523051.113958897 0 0 0 0 0 74932007.12450342 -2383655.364731558 -2383655.364731558 3671469.834843569 0 0 0 0 0 74502372.12967843 -2637869.628541558 -2637869.628541558 3327281.231632319 0 0 0 0 0 73395712.23771781 -1667418.852084755 -1667418.852084755 3575202.467431916 0 0 0 0 0 71946966.72745919 -276992.6040800283 -276992.6040800283 3787909.113548348 0 0 0 0 0 72833688.14476699 -904108.2631299078 -904108.2631299078 3970054.996035775 0 0 0 0 0 72589850.81961381 -1038403.593547205 -1038403.593547205 3736363.1784476 0 0 0 0 0 72855294.09022345 -1573292.459825748 -1573292.459825748 3646082.434520983 0 0 0 0 0 74438013.62339321 -2224560.989853074 -2224560.989853074 3748629.157390846 0 0 0 0 0 74034769.7386332 -2439577.225717614 -2439577.225717614 3396940.166036322 0 0 0 0 0 75114601.75139765 -2991008.393140676 -2991008.393140676 3644919.984578708 0 0 0 0 0 74748688.77955504 -3221624.733791593 -3221624.733791593 3244106.873519213 0 0 0 0 0 73814859.4836935 -2129366.764879168 -2129366.764879168 3719446.653292143 0 0 0 0 0 71699444.68949516 -279049.3559246102 -279049.3559246102 3842643.600733554 0 0 0 0 0 72267196.80748008 -759459.7137608202 -759459.7137608202 4033898.444933784 0 0 0 0 0 71989371.67575328 -921886.2286240781 -921886.2286240781 3716198.840430624 0 0 0 0 0 72881613.14841568 -1512486.700665719 -1512486.700665719 3849335.848888943 0 0 0 0 0 73133803.29841362 -2090560.809417923 -2090560.809417923 3766030.665425015 0 0 0 0 0 73711680.3702563 -2209301.988111876 -2209301.988111876 3544172.823548653 0 0 0 0 0 74533536.74304058 -2660996.224618881 -2660996.224618881 3644756.443778199 0 0 0 0 0 74145681.12479085 -3015419.695789211 -3015419.695789211 3353103.205541119 0 0 0 0 0 75319503.43264861 -3548119.537499199 -3548119.537499199 3526675.369408167 0 0 0 0 0 73158248.69397047 -2151020.104096303 -2151020.104096303 3572068.097158266 0 0 0 0 0 71657650.48737058 -339273.1548227556 -339273.1548227556 3993249.501950154 0 0 0 0 0 71184555.23740189 -770116.6145269983 -770116.6145269983 3711048.515529473 0 0 0 0 0 72417357.24251187 -1343239.037978006 -1343239.037978006 3965754.726463849 0 0 0 0 0 72139897.40756553 -1500075.498550803 -1500075.498550803 3659627.780102565 0 0 0 0 0 72452404.43275569 -2088948.648472404 -2088948.648472404 3605284.412143151 0 0 0 0 0 73943417.95258048 -2675450.225841974 -2675450.225841974 3553531.482729822 0 0 0 0 0 74702041.79093499 -3293015.871496462 -3293015.871496462 3600084.235455143 0 0 0 0 0 74950024.26124784 -3789780.101162112 -3789780.101162112 3117720.025526061 0 0 0 0 0 74332193.5520224 -3543345.778401112 -3543345.778401112 3230511.36895225 0 0 0 0 0 73458110.20914012 -2674939.112851019 -2674939.112851019 3679329.324977183 0 0 0 0 0 71053593.4958832 -348471.3129008666 -348471.3129008666 3905583.595900957 0 0 0 0 0 71746073.49746227 -1148144.353578358 -1148144.353578358 4028521.776129543 0 0 0 0 0 71413787.74985561 -1333329.352421114 -1333329.352421114 3684658.027956101 0 0 0 0 0 72556390.62839964 -1996604.35681357 -1996604.35681357 3854340.952324573 0 0 0 0 0 72865260.76414403 -2592334.736981238 -2592334.736981238 3756390.279443494 0 0 0 0 0 73541421.02189335 -2705066.774312653 -2705066.774312653 3537306.306999912 0 0 0 0 0 73802954.07870071 -3303537.627451426 -3303537.627451426 3340095.162547951 0 0 0 0 0 75543095.56714749 -4107055.150973072 -4107055.150973072 3346999.723518619 0 0 0 0 0 75009602.63471012 -3877406.926792738 -3877406.926792738 3462192.358442943 0 0 0 0 0 75214710.84327994 -4327241.180762677 -4327241.180762677 2981521.417191553 0 0 0 0 0 75579562.03266022 -4855439.900080282 -4855439.900080282 2847586.864373423 0 0 0 0 0 72827521.82760276 -2657243.595781087 -2657243.595781087 3533659.07100495 0 0 0 0 0 70642037.65464361 -360895.1921101464 -360895.1921101464 3922143.433755543 0 0 0 0 0 70752155.50993814 -1160950.994637707 -1160950.994637707 3752592.080467879 0 0 0 0 0 71888721.64612547 -1877276.288734449 -1877276.288734449 3920917.142709885 0 0 0 0 0 71758406.46341956 -1980119.855813895 -1980119.855813895 3656314.94428897 0 0 0 0 0 72126627.76555037 -2575233.121688184 -2575233.121688184 3581729.4941504 0 0 0 0 0 73878612.61752239 -3227042.239475589 -3227042.239475589 3577617.193365735 0 0 0 0 0 74319675.68814008 -3771671.974149752 -3771671.974149752 3458133.545264348 0 0 0 0 0 74606022.81955226 -4143487.632779837 -4143487.632779837 3073114.165073919 0 0 0 0 0 74097576.76610599 -3901021.078408248 -3901021.078408248 3200131.615329158 0 0 0 0 0 75775947.29543561 -4731374.327990254 -4731374.327990254 3159495.986692879 0 0 0 0 0 76124161.51897961 -5242934.854782224 -5242934.854782224 2998972.382148628 0 0 0 0 0 75928263.14695732 -5367061.443913327 -5367061.443913327 2682175.935538653 0 0 0 0 0 73204148.62502494 -3165211.554740093 -3165211.554740093 3646597.025101962 0 0 0 0 0 70340107.98917837 -338344.9842979563 -338344.9842979563 3991255.824495784 0 0 0 0 0 70836686.74507311 -1062682.46631129 -1062682.46631129 4006683.542176863 0 0 0 0 0 71239258.32913883 -1748940.99612883 -1748940.99612883 3977354.422704766 0 0 0 0 0 71069855.77776204 -1863563.794907781 -1863563.794907781 3718162.752085872 0 0 0 0 0 72192253.38901737 -2496926.889125753 -2496926.889125753 3823132.612657149 0 0 0 0 0 72537297.44526324 -3095249.835438069 -3095249.835438069 3714129.808790916 0 0 0 0 0 73190170.48008437 -3226460.046648357 -3226460.046648357 3420965.360537318 0 0 0 0 0 73615642.40161718 -3775975.067192282 -3775975.067192282 3308499.714963721 0 0 0 0 0 74871101.46709299 -4263561.745883751 -4263561.745883751 3271006.204803437 0 0 0 0 0 74619958.04244253 -4265441.193905579 -4265441.193905579 3317634.102016799 0 0 0 0 0 75113562.19234882 -4785436.48537114 -4785436.48537114 2989097.381357925 0 0 0 0 0 75399912.40404673 -5299579.15466456 -5299579.15466456 2789007.515637184 0 0 0 0 0 76535516.6353047 -5734384.634766547 -5734384.634766547 2857014.519873335 0 0 0 0 0 76319470.64308582 -5871670.538920829 -5871670.538920829 2504152.356044909 0 0 0 0 0 76751823.18975495 -6375292.113513599 -6375292.113513599 2314477.164210567 0 0 0 0 0 72517064.20411839 -3157219.549712366 -3157219.549712366 3491570.95196238 0 0 0 0 0 69819161.1496138 -334564.1502150784 -334564.1502150784 3935880.314656477 0 0 0 0 0 70040608.30291854 -1046210.85770289 -1046210.85770289 3831750.347602124 0 0 0 0 0 70342110.01234071 -1732878.630044305 -1732878.630044305 3756814.305545254 0 0 0 0 0 71488782.6416309 -2401994.116612206 -2401994.116612206 3889225.170555423 0 0 0 0 0 71427054.24350706 -2483257.491948192 -2483257.491948192 3644922.895477431 0 0 0 0 0 71820495.22576272 -3086676.804621938 -3086676.804621938 3551845.004074318 0 0 0 0 0 73599416.5499755 -3725108.175759965 -3725108.175759965 3522991.775692144 0 0 0 0 0 73998188.19169532 -4271708.102589244 -4271708.102589244 3382448.789253681 0 0 0 0 0 74940623.1096133 -4773130.053287131 -4773130.053287131 3186123.484358268 0 0 0 0 0 74067901.03753592 -4296585.044774298 -4296585.044774298 3206877.744999998 0 0 0 0 0 75471789.24430692 -5238638.640163952 -5238638.640163952 2989656.227568528 0 0 0 0 0 75969639.9456695 -5607632.6985868 -5607632.6985868 3009480.573553432 0 0 0 0 0 75667309.76471098 -5817126.023706377 -5817126.023706377 2592382.27057798 0 0 0 0 0 76945151.35218556 -6250838.354457305 -6250838.354457305 2700065.92195389 0 0 0 0 0 77359896.26662047 -6742620.750072257 -6742620.750072257 2452133.614075737 0 0 0 0 0 77198709.08273681 -6846900.361924876 -6846900.361924876 2106628.123983539 0 0 0 0 0 72914879.45916897 -3675903.508476343 -3675903.508476343 3588133.612978423 0 0 0 0 0 69595650.26873975 -322897.9737458003 -322897.9737458003 4034814.700503688 0 0 0 0 0 70029500.00473095 -979364.3792871292 -979364.3792871292 4029338.772022035 0 0 0 0 0 70449295.15204483 -1631055.448988325 -1631055.448988325 4021648.852662506 0 0 0 0 0 70796885.0379128 -2300206.700155125 -2300206.700155125 3947626.656263151 0 0 0 0 0 70697146.46723863 -2390199.458958853 -2390199.458958853 3705989.298003502 0 0 0 0 0 71837139.22647898 -3024016.827437721 -3024016.827437721 3774929.884322288 0 0 0 0 0 72222918.53245577 -3627428.024962049 -3627428.024962049 3651686.975031995 0 0 0 0 0 72942180.94322643 -3726017.548125551 -3726017.548125551 3376168.456444085 0 0 0 0 0 73397213.02174774 -4280646.259086398 -4280646.259086398 3248599.543134262 0 0 0 0 0 74529097.45857553 -4796347.437559956 -4796347.437559956 3098293.149666958 0 0 0 0 0 74451792.82017185 -4792470.477473995 -4792470.477473995 3223137.920146776 0 0 0 0 0 75219035.91975588 -5262413.910404446 -5262413.910404446 2966091.322472323 0 0 0 0 0 75103862.20651262 -5652144.367432489 -5652144.367432489 2752974.907581446 0 0 0 0 0 76288364.9077995 -6089907.009397373 -6089907.009397373 2789640.049667402 0 0 0 0 0 76008202.51612553 -6306461.306323198 -6306461.306323198 2418356.422908566 0 0 0 0 0 76518550.63672197 -6773851.585602965 -6773851.585602965 2200258.314887186 0 0 0 0 0 77795942.52467273 -7201206.125784004 -7201206.125784004 2205751.665772641 0 0 0 0 0 72249445.93514279 -3676247.714495092 -3676247.714495092 3443021.119023351 0 0 0 0 0 69080486.8439299 -303051.6121803322 -303051.6121803322 3966440.690592889 0 0 0 0 0 69353785.01226181 -944502.1033742472 -944502.1033742472 3910464.67336852 0 0 0 0 0 69583503.2765142 -1608759.658291052 -1608759.658291052 3813617.530865771 0 0 0 0 0 69924514.25332873 -2288082.990039005 -2288082.990039005 3732881.900337736 0 0 0 0 0 71106362.10814363 -2958160.268239304 -2958160.268239304 3836022.306202848 0 0 0 0 0 71108911.4952452 -3018008.803922218 -3018008.803922218 3612354.545462218 0 0 0 0 0 71534625.53800581 -3626165.026913479 -3626165.026913479 3502267.792144519 0 0 0 0 0 73346846.36836164 -4242609.280513017 -4242609.280513017 3451470.060231292 0 0 0 0 0 73792468.24943471 -4787083.674643196 -4787083.674643196 3290765.792266325 0 0 0 0 0 74813835.50391045 -5288027.252048092 -5288027.252048092 3038083.749769771 0 0 0 0 0 73867140.19794141 -4808187.619045093 -4808187.619045093 3098123.46240315 0 0 0 0 0 75600605.54888228 -5835241.049590801 -5835241.049590801 2931779.057877404 0 0 0 0 0 75327241.87893988 -6137019.814781543 -6137019.814781543 2517665.951023683 0 0 0 0 0 76671002.86194056 -6675636.5302896 -6675636.5302896 2531323.346794388 0 0 0 0 0 77164070.32891533 -7167069.815338673 -7167069.815338673 2299949.652327929 0 0 0 0 0 77654178.21719547 -7293911.038464583 -7293911.038464583 1880361.988695955 0 0 0 0 0 77093324.41693564 -7232755.492372983 -7232755.492372983 1998950.863725704 0 0 0 0 0 72660870.08282825 -4212554.934813624 -4212554.934813624 3511911.029550457 0 0 0 0 0 68812083.02290429 -318889.2778350998 -318889.2778350998 4027902.946968621 0 0 0 0 0 69198051.72552031 -919384.7351892064 -919384.7351892064 4053504.594710722 0 0 0 0 0 69668422.05965555 -1519176.321552081 -1519176.321552081 4069240.893944066 0 0 0 0 0 70052992.6594052 -2179483.438962608 -2179483.438962608 4017182.234478548 0 0 0 0 0 70380195.0557158 -2875506.855291595 -2875506.855291595 3910723.159952633 0 0 0 0 0 70332599.1867404 -2946542.35886162 -2946542.35886162 3665142.183959611 0 0 0 0 0 71500551.22161767 -3580468.599965889 -3580468.599965889 3710309.261280257 0 0 0 0 0 71948860.68417904 -4183386.060320592 -4183386.060320592 3578366.065832399 0 0 0 0 0 72712996.25907929 -4250736.043938241 -4250736.043938241 3307814.349682047 0 0 0 0 0 73224911.40137368 -4793302.669711075 -4793302.669711075 3169732.324854175 0 0 0 0 0 74324029.01723605 -5328089.16382465 -5328089.16382465 2958493.32656062 0 0 0 0 0 74275468.36673518 -5301739.269997003 -5301739.269997003 3134057.038928572 0 0 0 0 0 74726674.55277757 -5862253.036917672 -5862253.036917672 2668791.511864742 0 0 0 0 0 75547543.57270323 -6234406.598144784 -6234406.598144784 2675153.832418025 0 0 0 0 0 75950541.43767072 -6720140.628382993 -6720140.628382993 2338409.333724428 0 0 0 0 0 76516244.75810012 -7205548.076008731 -7205548.076008731 2133256.055503713 0 0 0 0 0 78286988.1910252 -7639611.820304803 -7639611.820304803 1966472.291850837 0 0 0 0 0 77722684.52725965 -7586441.700027294 -7586441.700027294 2069540.763071909 0 0 0 0 0 78169413.50472465 -7717497.205094237 -7717497.205094237 1652644.215389065 0 0 0 0 0 78730922.80799097 -8099483.932334599 -8099483.932334599 1421094.585525648 0 0 0 0 0 71990352.37392609 -4227342.837892912 -4227342.837892912 3362003.337722374 0 0 0 0 0 68429221.37663133 -333364.3014054298 -333364.3014054298 4044601.741781272 0 0 0 0 0 68700408.74744225 -893924.3631563175 -893924.3631563175 4002700.444243185 0 0 0 0 0 68860680.57315251 -1498521.728901945 -1498521.728901945 3889233.500071761 0 0 0 0 0 69131192.1022239 -2169081.915069197 -2169081.915069197 3788698.868913253 0 0 0 0 0 69533036.59899105 -2871649.732006414 -2871649.732006414 3698212.297445153 0 0 0 0 0 70739756.42787449 -3536421.724205002 -3536421.724205002 3763687.385041274 0 0 0 0 0 70789792.68712512 -3571799.151147193 -3571799.151147193 3553187.230937736 0 0 0 0 0 71245585.48625818 -4189753.518375155 -4189753.518375155 3417086.169001253 0 0 0 0 0 73098879.06230454 -4784730.400425942 -4784730.400425942 3343553.436697428 0 0 0 0 0 73561669.78492507 -5317633.701301954 -5317633.701301954 3166631.68353141 0 0 0 0 0 74843824.35246649 -5775008.158757306 -5775008.158757306 2955993.356139979 0 0 0 0 0 73731902.63352303 -5305803.993580961 -5305803.993580961 3020068.496196794 0 0 0 0 0 75249726.91448686 -6252942.156288622 -6252942.156288622 2734829.094964252 0 0 0 0 0 75781312.31221485 -6726376.724875292 -6726376.724875292 2528281.540283604 0 0 0 0 0 76482408.86239448 -7178773.745013451 -7178773.745013451 2324180.851492499 0 0 0 0 0 77047230.14100488 -7606280.174358652 -7606280.174358652 2073370.579208694 0 0 0 0 0 77545183.94000868 -7701689.668895594 -7701689.668895594 1735557.113367491 0 0 0 0 0 77160835.73797688 -7614538.934366846 -7614538.934366846 1919690.967191943 0 0 0 0 0 78717237.87369508 -8085601.098289513 -8085601.098289513 1612488.353617953 0 0 0 0 0 79392938.01158293 -8381589.036400016 -8381589.036400016 1584862.336859583 0 0 0 0 0 79196742.3845177 -8501930.72947423 -8501930.72947423 1144836.162172693 0 0 0 0 0 72411202.17654765 -4776127.803343073 -4776127.803343073 3411546.914918991 0 0 0 0 0 67986117.82048798 -342911.4466391628 -342911.4466391628 4059897.805476387 0 0 0 0 0 68264040.76474923 -953143.7414885184 -953143.7414885184 3953104.87563099 0 0 0 0 0 68943516.37308291 -1408966.52556352 -1408966.52556352 4163785.839987012 0 0 0 0 0 69256615.80666356 -2063995.978214332 -2063995.978214332 4058454.867341687 0 0 0 0 0 69616474.31290114 -2781037.575992584 -2781037.575992584 3955094.82459625 0 0 0 0 0 69971789.78920297 -3473332.338421938 -3473332.338421938 3825808.887308341 0 0 0 0 0 70024230.9096521 -3519130.645279592 -3519130.645279592 3619832.093983565 0 0 0 0 0 71199542.96636429 -4148560.848571939 -4148560.848571939 3632170.050533329 0 0 0 0 0 71684583.74447329 -4762085.212853603 -4762085.212853603 3477466.033961324 0 0 0 0 0 72498693.06895366 -4798379.972449748 -4798379.972449748 3218176.440897469 0 0 0 0 0 73041781.52765855 -5333264.707253773 -5333264.707253773 3065431.891306041 0 0 0 0 0 74214078.72127798 -5817346.263596986 -5817346.263596986 2816118.758435507 0 0 0 0 0 74054613.57702608 -5817541.117168443 -5817541.117168443 2984122.24478388 0 0 0 0 0 74792827.02257425 -6302551.23438476 -6302551.23438476 2664604.123237891 0 0 0 0 0 75392981.88999221 -6768865.639291121 -6768865.639291121 2465947.320844541 0 0 0 0 0 75961757.30989924 -7214598.090795812 -7214598.090795812 2209283.198253725 0 0 0 0 0 76583247.76678832 -7660525.637585458 -7660525.637585458 1988122.931809676 0 0 0 0 0 78036053.21982788 -7849250.66952929 -7849250.66952929 1861303.023193135 0 0 0 0 0 77473814.10082859 -7962624.129646168 -7962624.129646168 1767198.840992127 0 0 0 0 0 78622570.39640148 -8155963.152566534 -8155963.152566534 1637082.075211567 0 0 0 0 0 78511704.96039149 -8473669.793982184 -8473669.793982184 1302837.452645829 0 0 0 0 0 79886684.93838784 -8774495.403432945 -8774495.403432945 1252751.329217534 0 0 0 0 0 79743970.5109442 -8852771.939052984 -8852771.939052984 878743.3143218076 0 0 0 0 0 81101799.8998663 -9499338.485151509 -9499338.485151509 389870.3347484993 0 0 0 0 0 80443878.23515779 -9181781.750792449 -9181781.750792449 645963.016618245 0 0 0 0 0 71776412.7309925 -4788886.407778642 -4788886.407778642 3273391.095485176 0 0 0 0 0 67746202.0653429 -374747.0068495372 -374747.0068495372 4126594.376159666 0 0 0 0 0 68410351.82245649 -1059663.271865923 -1059663.271865923 4180858.780270422 0 0 0 0 0 67944978.6216439 -1393119.871234176 -1393119.871234176 3892679.386051912 0 0 0 0 0 68298027.66104797 -2035658.468518467 -2035658.468518467 3807188.661961866 0 0 0 0 0 68716719.62207206 -2768946.244014684 -2768946.244014684 3731367.132460153 0 0 0 0 0 69201876.75275125 -3468397.056178325 -3468397.056178325 3649315.15587293 0 0 0 0 0 70408072.82470903 -4132156.356186849 -4132156.356186849 3680599.902950749 0 0 0 0 0 70512635.75983979 -4154749.190711079 -4154749.190711079 3487094.342714072 0 0 0 0 0 71006637.24451631 -4780907.896120288 -4780907.896120288 3327780.676142199 0 0 0 0 0 72890054.80222699 -5337778.403894482 -5337778.403894482 3230503.066818533 0 0 0 0 0 73383757.32365376 -5862930.225228201 -5862930.225228201 3037995.120739624 0 0 0 0 0 74611621.82027958 -6309730.954890587 -6309730.954890587 2799916.532011837 0 0 0 0 0 73589976.82663612 -5841953.554748777 -5841953.554748777 2900296.192883551 0 0 0 0 0 75201636.14578877 -6792515.660219815 -6792515.660219815 2587286.661473126 0 0 0 0 0 75742036.20373355 -7240340.070679601 -7240340.070679601 2354269.09452957 0 0 0 0 0 76388076.67293249 -7675077.254711759 -7675077.254711759 2117656.929107217 0 0 0 0 0 77026868.19147263 -8077373.035201665 -8077373.035201665 1871354.306034262 0 0 0 0 0 77978098.18362865 -8263282.807397938 -8263282.807397938 1579225.294036388 0 0 0 0 0 77310054.01494476 -8022091.714893539 -8022091.714893539 1787616.703082093 0 0 0 0 0 79178519.19325285 -8666927.769522227 -8666927.769522227 1419048.926616276 0 0 0 0 0 78958182.19762295 -8853907.053395718 -8853907.053395718 969085.4906252942 0 0 0 0 0 80388237.84902684 -9213561.171574598 -9213561.171574598 879649.2558403536 0 0 0 0 0 81012113.53436838 -9524875.15834167 -9524875.15834167 603268.6777626141 0 0 0 0 0 81646443.02058776 -9780758.993707042 -9780758.993707042 344274.2053811738 0 0 0 0 0 81636557.24581701 -9783218.030393165 -9783218.030393165 87884.347755626 0 0 0 0 0 72164442.82454142 -5357640.527888644 -5357640.527888644 3288404.836603841 0 0 0 0 0 67164119.13896096 -391145.5737128884 -391145.5737128884 4068171.657151058 0 0 0 0 0 67529821.80627932 -1089414.493616346 -1089414.493616346 3992884.055298502 0 0 0 0 0 68478671.32911113 -1910577.228118507 -1910577.228118507 4114359.976243963 0 0 0 0 0 68814494.47076163 -2667087.024879497 -2667087.024879497 4018463.986731883 0 0 0 0 0 69219046.07758468 -3400534.627073819 -3400534.627073819 3895522.874370436 0 0 0 0 0 69621730.20929289 -4098762.47370949 -4098762.47370949 3739685.72091645 0 0 0 0 0 69705268.69723627 -4130028.681972801 -4130028.681972801 3529971.735255654 0 0 0 0 0 70899571.47464786 -4758782.975798807 -4758782.975798807 3522640.432127544 0 0 0 0 0 71443550.18253851 -5369271.607088929 -5369271.607088929 3355451.339239516 0 0 0 0 0 72323962.96627393 -5354738.493503504 -5354738.493503504 3117392.125461103 0 0 0 0 0 72902722.62047209 -5883337.401531616 -5883337.401531616 2952610.040070873 0 0 0 0 0 74149146.24423046 -6335453.723523288 -6335453.723523288 2705416.642483327 0 0 0 0 0 73935814.76711775 -6362249.764222445 -6362249.764222445 2846789.654309994 0 0 0 0 0 74756035.93088198 -6824939.187797357 -6824939.187797357 2499808.702356793 0 0 0 0 0 75390773.54220138 -7283000.33452544 -7283000.33452544 2298299.52073679 0 0 0 0 0 76033185.90007201 -7715596.965370674 -7715596.965370674 2060954.853017096 0 0 0 0 0 76688643.62104946 -8124867.023055838 -8124867.023055838 1819314.136359948 0 0 0 0 0 77988201.28578818 -8323559.826016283 -8323559.826016283 1633951.641346129 0 0 0 0 0 77555902.38272281 -8439176.187655136 -8439176.187655136 1608375.290756449 0 0 0 0 0 78503263.9167349 -8730254.151421886 -8730254.151421886 1213402.905468252 0 0 0 0 0 79439879.1676679 -8985789.925965507 -8985789.925965507 1149655.178992041 0 0 0 0 0 79958494.97534411 -9261202.133230373 -9261202.133230373 775385.0489698014 0 0 0 0 0 80664360.88712335 -9572890.288824556 -9572890.288824556 518560.8727125823 0 0 0 0 0 81396518.43628053 -9813195.067279473 -9813195.067279473 284007.7580908448 0 0 0 0 0 82164359.4380473 -9941923.021813462 -9941923.021813462 156106.8251932237 0 0 0 0 0 71579996.46521682 -5376191.109761883 -5376191.109761883 3168525.887927638 0 0 0 0 0 66768679.53208205 -397806.8091210819 -397806.8091210819 4096932.425582611 0 0 0 0 0 67317346.03249203 -1111035.396986131 -1111035.396986131 4090247.557360615 0 0 0 0 0 67531679.52001548 -1898785.847881641 -1898785.847881641 3876075.251615799 0 0 0 0 0 67884793.20920107 -2658747.170345244 -2658747.170345244 3790787.457309708 0 0 0 0 0 68336272.76304749 -3395851.351189051 -3395851.351189051 3679952.492555724 0 0 0 0 0 68875557.54149358 -4096856.139052784 -4096856.139052784 3574313.793782105 0 0 0 0 0 70114798.60581885 -4756701.789144182 -4756701.789144182 3579844.369632081 0 0 0 0 0 70251384.00240675 -4766550.649158726 -4766550.649158726 3387881.800745816 0 0 0 0 0 70793798.22714096 -5389554.378774662 -5389554.378774662 3210447.825683476 0 0 0 0 0 72687174.55307765 -5910986.210523627 -5910986.210523627 3092755.578345821 0 0 0 0 0 73237052.91827834 -6431097.71100801 -6431097.71100801 2887764.216653886 0 0 0 0 0 74519223.08312021 -6857816.921226565 -6857816.921226565 2628248.908624114 0 0 0 0 0 73477906.72341649 -6393880.415204967 -6393880.415204967 2757722.613516207 0 0 0 0 0 75115963.24818699 -7332558.145973608 -7332558.145973608 2394798.20177984 0 0 0 0 0 75710822.49274462 -7773898.936436692 -7773898.936436692 2150015.101610697 0 0 0 0 0 76368178.53346144 -8192216.614430511 -8192216.614430511 1902072.844827362 0 0 0 0 0 77040202.48824474 -8578219.346500987 -8578219.346500987 1646800.441764563 0 0 0 0 0 78272036.77929901 -8773993.648812162 -8773993.648812162 1361173.778841966 0 0 0 0 0 77404139.89718622 -8483191.475684308 -8483191.475684308 1606311.645241333 0 0 0 0 0 78908651.00492875 -9085842.344627541 -9085842.344627541 1061622.743143758 0 0 0 0 0 79559106.90302122 -9370792.726073191 -9370792.726073191 840828.4887691034 0 0 0 0 0 80374586.24393724 -9658608.861365357 -9658608.861365357 583712.9407337578 0 0 0 0 0 81032803.24426545 -9912302.102376783 -9912302.102376783 296858.3057532703 0 0 0 0 0 81523625.03936286 -10086058.51448359 -10086058.51448359 -21211.45131611626 0 0 0 0 0 82058445.66848418 -10197725.29678272 -10197725.29678272 -206265.6913661919 0 0 0 0 0 82545657.57838471 -10031888.9705321 -10031888.9705321 -108983.2483888854 0 0 0 0 0 71952377.69955587 -5956514.318141244 -5956514.318141244 3143290.586010226 0 0 0 0 0 66283925.40368498 -395995.5061096323 -395995.5061096323 4082139.094684321 0 0 0 0 0 66872009.86377192 -1131915.976291456 -1131915.976291456 4090829.578575692 0 0 0 0 0 67494460.38774513 -1835668.650242716 -1835668.650242716 4117695.031363704 0 0 0 0 0 67994700.4443396 -2555352.207933063 -2555352.207933063 4071228.033696299 0 0 0 0 0 68402494.94489458 -3306197.407377562 -3306197.407377562 3954521.760037467 0 0 0 0 0 68841149.53191057 -4046512.090250081 -4046512.090250081 3806994.78099015 0 0 0 0 0 69292974.87647143 -4748720.43054362 -4748720.43054362 3631013.265876203 0 0 0 0 0 69422043.33426003 -4765096.002838002 -4765096.002838002 3430315.291997625 0 0 0 0 0 70634149.93112265 -5387868.084911904 -5387868.084911904 3391594.296605388 0 0 0 0 0 71221472.47435445 -5993020.196453839 -5993020.196453839 3206438.552313022 0 0 0 0 0 72171756.67241363 -5932591.381964642 -5932591.381964642 2995341.573917982 0 0 0 0 0 72778485.22990771 -6459033.162825692 -6459033.162825692 2808415.795493773 0 0 0 0 0 74087750.65201762 -6893969.745501077 -6893969.745501077 2549958.24336021 0 0 0 0 0 73831090.74422722 -6932542.661805269 -6932542.661805269 2677684.146944331 0 0 0 0 0 74738179.481976 -7371635.942850832 -7371635.942850832 2331318.992090565 0 0 0 0 0 75408286.36152926 -7819131.462289063 -7819131.462289063 2108661.830910879 0 0 0 0 0 76097070.83929092 -8234035.17522633 -8234035.17522633 1865940.74183593 0 0 0 0 0 76800275.34522811 -8622325.32079621 -8622325.32079621 1618263.737155173 0 0 0 0 0 78060878.20470397 -8839489.024934778 -8839489.024934778 1344395.327625589 0 0 0 0 0 77682841.94418198 -8933902.709900944 -8933902.709900944 1381710.875008743 0 0 0 0 0 78783307.01980096 -9149518.338543007 -9149518.338543007 1082620.063187921 0 0 0 0 0 79508490.97735828 -9430216.564072996 -9430216.564072996 872208.5752121347 0 0 0 0 0 80164961.49327901 -9706892.831815613 -9706892.831815613 555119.1089600658 0 0 0 0 0 80896718.07501572 -9962971.958935816 -9962971.958935816 292140.0709324443 0 0 0 0 0 81688084.27509844 -10142951.68644449 -10142951.68644449 63471.67488672404 0 0 0 0 0 82545250.00263889 -10285529.02633082 -10285529.02633082 -53443.31790125682 0 0 0 0 0 82890805.64138214 -10383201.31471263 -10383201.31471263 -267215.7993210373 0 0 0 0 0 83088332.44055742 -10294701.94649608 -10294701.94649608 -421226.8344271625 0 0 0 0 0 71427665.28144178 -5978432.476134828 -5978432.476134828 3045150.83856164 0 0 0 0 0 65922691.60547527 -414747.0955444605 -414747.0955444605 4154673.505303655 0 0 0 0 0 66431944.31600717 -1117779.719935338 -1117779.719935338 4116164.858150786 0 0 0 0 0 66633261.46692914 -1800289.443262349 -1800289.443262349 3958938.635745288 0 0 0 0 0 67010017.35157991 -2534020.61421582 -2534020.61421582 3830735.738551413 0 0 0 0 0 67471071.93318495 -3300351.567129059 -3300351.567129059 3728219.661178728 0 0 0 0 0 67985691.74951607 -4049204.447251097 -4049204.447251097 3602695.212723774 0 0 0 0 0 68563824.14853726 -4755050.786542832 -4755050.786542832 3471586.981621642 0 0 0 0 0 69832500.8681962 -5410579.362273628 -5410579.362273628 3447152.2981807 0 0 0 0 0 70030658.69305703 -5401050.228337341 -5401050.228337341 3274717.297400879 0 0 0 0 0 70619770.41443652 -6019591.298538651 -6019591.298538651 3079444.094810192 0 0 0 0 0 72525193.51488796 -6501190.33356093 -6501190.33356093 2940558.676321668 0 0 0 0 0 73121769.80547245 -7016921.030976363 -7016921.030976363 2717358.581717695 0 0 0 0 0 74455065.23966186 -7422211.310598 -7422211.310598 2441313.493490768 0 0 0 0 0 73389261.17057188 -6966989.133569832 -6966989.133569832 2595666.249489108 0 0 0 0 0 75088914.60287218 -7886337.90490721 -7886337.90490721 2193654.842910221 0 0 0 0 0 75738039.56002945 -8316331.208382802 -8316331.208382802 1935572.25577275 0 0 0 0 0 76411122.67217541 -8717580.624300726 -8717580.624300726 1670283.52211595 0 0 0 0 0 77109305.14297178 -9091738.498852869 -9091738.498852869 1400727.232112125 0 0 0 0 0 78348105.52865808 -9253231.711243114 -9253231.711243114 1110061.054503182 0 0 0 0 0 77520352.02382499 -8982404.415258612 -8982404.415258612 1377290.685424698 0 0 0 0 0 79081507.20227884 -9562282.209460367 -9562282.209460367 849781.2461919041 0 0 0 0 0 79746774.2955917 -9827852.350583706 -9827852.350583706 580919.2184150511 0 0 0 0 0 80516786.9322805 -10079565.65474127 -10079565.65474127 311029.8642760757 0 0 0 0 0 81212023.38499799 -10296424.07159334 -10296424.07159334 29284.29890253293 0 0 0 0 0 81824243.17104523 -10463709.91502975 -10463709.91502975 -250708.5706323451 0 0 0 0 0 82399171.54733995 -10446064.07051311 -10446064.07051311 -429263.8589722216 0 0 0 0 0 83427857.64682803 -10556422.63509032 -10556422.63509032 -684460.9378101112 0 0 0 0 0 83645480.46663088 -10494420.40050315 -10494420.40050315 -732873.6791281493 0 0 0 0 0 71779823.22094855 -6576281.739799076 -6576281.739799076 2984371.250431274 0 0 0 0 0 65379024.15631642 -422385.038621752 -422385.038621752 4155387.542555114 0 0 0 0 0 65776196.90858572 -1181005.141810822 -1181005.141810822 4039790.295653062 0 0 0 0 0 66696258.7229176 -1722287.670679689 -1722287.670679689 4195951.627954191 0 0 0 0 0 67155167.2696415 -2420395.885958367 -2420395.885958367 4122852.910612102 0 0 0 0 0 67549016.3162026 -3206449.872693319 -3206449.872693319 4006574.345525624 0 0 0 0 0 68004207.15098552 -3976579.535060288 -3976579.535060288 3864322.010756434 0 0 0 0 0 68495744.59549235 -4716664.696475734 -4716664.696475734 3697489.054446287 0 0 0 0 0 69010724.27229807 -5420436.262171573 -5420436.262171573 3502011.375367511 0 0 0 0 0 69172374.93737419 -5424277.989998628 -5424277.989998628 3308066.413735163 0 0 0 0 0 70398653.38828225 -6042839.499277432 -6042839.499277432 3244825.753169937 0 0 0 0 0 71028614.49919398 -6641586.419757242 -6641586.419757242 3031262.844391391 0 0 0 0 0 72044984.70509844 -6528115.019254337 -6528115.019254337 2850137.63187852 0 0 0 0 0 72705593.17326094 -7046832.258617722 -7046832.258617722 2650044.756136307 0 0 0 0 0 74057942.09677272 -7459767.198628543 -7459767.198628543 2372141.480350228 0 0 0 0 0 73768166.93769276 -7510644.835349333 -7510644.835349333 2488211.476529536 0 0 0 0 0 74751050.85997078 -7927600.123821824 -7927600.123821824 2141157.326635068 0 0 0 0 0 75461582.12714915 -8362389.844616666 -8362389.844616666 1901000.612792237 0 0 0 0 0 76189744.79834589 -8764600.868161974 -8764600.868161974 1649526.953023444 0 0 0 0 0 76930255.79847117 -9138689.118076844 -9138689.118076844 1390001.349219854 0 0 0 0 0 78245896.84445673 -9304867.102025287 -9304867.102025287 1120865.663356369 0 0 0 0 0 77795233.22157112 -9429720.531182051 -9429720.531182051 1125741.175522357 0 0 0 0 0 78980820.2299837 -9604017.570391743 -9604017.570391743 853512.7887589121 0 0 0 0 0 79721364.50058226 -9877794.658678487 -9877794.658678487 608466.5262263708 0 0 0 0 0 80444800.59031752 -10127761.52940447 -10127761.52940447 323830.6793954537 0 0 0 0 0 81190174.41107607 -10347340.47934615 -10347340.47934615 60454.57079967804 0 0 0 0 0 81963802.80625574 -10511157.60569073 -10511157.60569073 -179509.6524564569 0 0 0 0 0 83053073.85569201 -10633562.99880338 -10633562.99880338 -427194.7899299273 0 0 0 0 0 83713514.7275563 -10609511.16027026 -10609511.16027026 -581055.2202307266 0 0 0 0 0 84299759.26317559 -10701731.61796908 -10701731.61796908 -779188.0828137409 0 0 0 0 0 82900510.30431354 -10749703.43962296 -10749703.43962296 -796247.8775357555 0 0 0 0 0 84354718.34718055 -10677033.02073794 -10677033.02073794 -1000977.623708228 0 0 0 0 0 85106293.15078309 -10819964.84500092 -10819964.84500092 -1256853.612434495 0 0 0 0 0 71281184.74468461 -6605965.595580318 -6605965.595580318 2886905.499067249 0 0 0 0 0 64745359.2071951 -404761.9967157161 -404761.9967157161 4097319.020620332 0 0 0 0 0 66100658.89297245 -1346758.088558696 -1346758.088558696 4321222.025860443 0 0 0 0 0 65638380.87965323 -1607703.968777034 -1607703.968777034 3935358.699494482 0 0 0 0 0 66109920.41592871 -2388341.781637572 -2388341.781637572 3856961.963079529 0 0 0 0 0 66579621.56328424 -3193332.277442887 -3193332.277442887 3766266.544923514 0 0 0 0 0 67098847.95598907 -3972362.939261991 -3972362.939261991 3645026.919675547 0 0 0 0 0 67671628.83155368 -4721757.583225286 -4721757.583225286 3502653.84044583 0 0 0 0 0 68298981.27572845 -5436323.566450948 -5436323.566450948 3345506.01912926 0 0 0 0 0 69584627.07917736 -6085340.186239076 -6085340.186239076 3287635.386842629 0 0 0 0 0 69823358.43948433 -6060371.189733489 -6060371.189733489 3131023.270821865 0 0 0 0 0 70486669.56043319 -6669056.13990806 -6669056.13990806 2926238.086787487 0 0 0 0 0 72372728.60925829 -7112803.888679822 -7112803.888679822 2748647.692542068 0 0 0 0 0 73031576.91327007 -7615420.095196145 -7615420.095196145 2516642.822799942 0 0 0 0 0 74423920.78458017 -7994599.069110789 -7994599.069110789 2234708.433772731 0 0 0 0 0 73363741.87837547 -7552072.083655789 -7552072.083655789 2419930.47129723 0 0 0 0 0 75097134.33200638 -8446084.841212761 -8446084.841212761 1971037.094434183 0 0 0 0 0 75788143.50666541 -8864147.695080679 -8864147.695080679 1698691.385011178 0 0 0 0 0 76499115.29954058 -9251450.971036624 -9251450.971036624 1420176.707041282 0 0 0 0 0 77221487.46953695 -9607937.761382313 -9607937.761382313 1137879.639336885 0 0 0 0 0 78505744.04519534 -9738968.766992062 -9738968.766992062 846311.5981680354 0 0 0 0 0 77681325.54647811 -9480538.944011535 -9480538.944011535 1133174.099171154 0 0 0 0 0 79234075.15187104 -10024841.98048044 -10024841.98048044 567515.55013549 0 0 0 0 0 79933042.84149057 -10274001.67508407 -10274001.67508407 286072.0407062659 0 0 0 0 0 80683976.30222791 -10502604.1240001 -10502604.1240001 7411.768719747691 0 0 0 0 0 81409424.88408951 -10696086.65956685 -10696086.65956685 -268330.0934820421 0 0 0 0 0 82221501.19239084 -10868477.59185616 -10868477.59185616 -528285.4075875288 0 0 0 0 0 82566690.56587373 -10717535.75499257 -10717535.75499257 -586982.2496022518 0 0 0 0 0 83580031.34276053 -10837012.21112372 -10837012.21112372 -1043159.032974328 0 0 0 0 0 83474409.52153242 -10833546.10671505 -10833546.10671505 -639862.5030437112 0 0 0 0 0 84808364.63010474 -10949323.26859881 -10949323.26859881 -1234764.599737319 0 0 0 0 0 85445175.07654329 -11074851.6306141 -11074851.6306141 -1535754.234454221 0 0 0 0 0 85756023.4307005 -10952127.95926184 -10952127.95926184 -1542202.79985672 0 0 0 0 0 71633062.99604398 -7206836.179910712 -7206836.179910712 2791284.470947108 0 0 0 0 0 64460221.55159439 -405576.127874631 -405576.127874631 4227301.989691316 0 0 0 0 0 65068635.06198309 -1233464.447112153 -1233464.447112153 4269523.019395496 0 0 0 0 0 64917463.22087939 -1348907.577790456 -1348907.577790456 3967948.931737164 0 0 0 0 0 66231255.84229129 -2279775.08629895 -2279775.08629895 4152808.144022714 0 0 0 0 0 66676502.62082299 -3092323.89316054 -3092323.89316054 4051641.406173971 0 0 0 0 0 67132800.73441549 -3892705.180415103 -3892705.180415103 3915846.581606632 0 0 0 0 0 67637214.88610423 -4666964.016387767 -4666964.016387767 3749666.490392261 0 0 0 0 0 68178853.16067111 -5410685.80777808 -5410685.80777808 3557470.239286781 0 0 0 0 0 68756850.98196781 -6113546.056548589 -6113546.056548589 3345374.284993807 0 0 0 0 0 68970253.69453451 -6102131.225488331 -6102131.225488331 3169212.109489316 0 0 0 0 0 70208819.27171357 -6706331.068428552 -6706331.068428552 3072382.63104436 0 0 0 0 0 70877495.18046084 -7299792.168948757 -7299792.168948757 2837562.888417781 0 0 0 0 0 71971239.42345598 -7141797.810360482 -7141797.810360482 2691334.332863114 0 0 0 0 0 72670196.11608592 -7652507.024465908 -7652507.024465908 2464232.432890814 0 0 0 0 0 74069181.40639558 -8037086.223394642 -8037086.223394642 2179033.337580317 0 0 0 0 0 73732054.39979327 -8106216.717129465 -8106216.717129465 2272419.64160039 0 0 0 0 0 74801246.18451606 -8491139.193677938 -8491139.193677938 1931063.290290692 0 0 0 0 0 75552479.23701645 -8911951.241159417 -8911951.241159417 1675035.203051166 0 0 0 0 0 76317829.47842941 -9300783.595626682 -9300783.595626682 1410524.029546677 0 0 0 0 0 77094590.82139061 -9657548.65621811 -9657548.65621811 1141402.69853525 0 0 0 0 0 78441144.62167057 -9790250.949281778 -9790250.949281778 865860.9937840389 0 0 0 0 0 77951975.57939482 -9930900.370275432 -9930900.370275432 851510.7426171998 0 0 0 0 0 79205680.63576655 -10073354.87129592 -10073354.87129592 593909.6911355797 0 0 0 0 0 79971217.52237988 -10326304.13301014 -10326304.13301014 330847.4024946991 0 0 0 0 0 80736043.79192623 -10550252.75530821 -10550252.75530821 52303.65941024656 0 0 0 0 0 81504486.16025102 -10744120.95943861 -10744120.95943861 -212908.9590533221 0 0 0 0 0 82259651.6572037 -10919290.6044702 -10919290.6044702 -484437.0444047208 0 0 0 0 0 82888801.7208418 -11013175.17494499 -11013175.17494499 -830231.6838771614 0 0 0 0 0 84189353.41487508 -10909179.79287006 -10909179.79287006 -914978.9685862835 0 0 0 0 0 83438416.06688444 -11093593.41963693 -11093593.41963693 -1110152.734051497 0 0 0 0 0 84782531.9124687 -11000778.71718896 -11000778.71718896 -1236977.520815684 0 0 0 0 0 85473990.11208463 -11138228.59575912 -11138228.59575912 -1513931.042538219 0 0 0 0 0 86149644.58942327 -11186825.30215263 -11186825.30215263 -1794422.116088943 0 0 0 0 0 86492196.5543185 -11061760.42063533 -11061760.42063533 -1799049.974178443 0 0 0 0 0 87085585.78754094 -11163434.18099838 -11163434.18099838 -2094744.219595818 0 0 0 0 0 71201302.45339407 -7239897.34701577 -7239897.34701577 2720733.177449204 0 0 0 0 0 63782602.27811661 -352017.1705114245 -352017.1705114245 4086162.22240144 0 0 0 0 0 63899151.85851788 -1249959.737549473 -1249959.737549473 3957358.903816735 0 0 0 0 0 65376136.19032029 -2121425.680728339 -2121425.680728339 4205039.59788626 0 0 0 0 0 65223296.79781281 -2247015.365684104 -2247015.365684104 3889693.592731516 0 0 0 0 0 65661037.73691916 -3070525.078553931 -3070525.078553931 3794411.728043796 0 0 0 0 0 66180632.85983673 -3883939.646141398 -3883939.646141398 3682626.64348259 0 0 0 0 0 66759336.4440317 -4669150.727509723 -4669150.727509723 3541598.905653489 0 0 0 0 0 67389470.72645004 -5423327.267002204 -5423327.267002204 3377716.960661091 0 0 0 0 0 68066485.1434764 -6128129.131507115 -6128129.131507115 3195812.520319439 0 0 0 0 0 69389183.46994349 -6766279.091588526 -6766279.091588526 3117335.641292349 0 0 0 0 0 69649119.31690164 -6730495.629388449 -6730495.629388449 2965293.89012758 0 0 0 0 0 70374696.0110067 -7326560.389695862 -7326560.389695862 2743420.740637139 0 0 0 0 0 72295729.74127999 -7733875.897692885 -7733875.897692885 2548129.029078161 0 0 0 0 0 72992160.87462714 -8234089.583997533 -8234089.583997533 2293995.007168157 0 0 0 0 0 74428449.68762414 -8576158.432354623 -8576158.432354623 2005541.546594795 0 0 0 0 0 73375523.87843956 -8149275.737232582 -8149275.737232582 2215363.386581308 0 0 0 0 0 75142654.42610024 -9013222.031139661 -9013222.031139661 1726360.247566691 0 0 0 0 0 75874378.05633195 -9416995.77738698 -9416995.77738698 1440585.848213118 0 0 0 0 0 76620561.2882316 -9787958.476490602 -9787958.476490602 1149713.039977972 0 0 0 0 0 77378028.10824512 -10126316.0541925 -10126316.0541925 855447.1164576228 0 0 0 0 0 78694595.91221908 -10224338.98085863 -10224338.98085863 562764.6567327988 0 0 0 0 0 77879752.66520365 -9982342.086703371 -9982342.086703371 869309.9960503556 0 0 0 0 0 79440999.8333267 -10489118.43890071 -10489118.43890071 274676.2278005751 0 0 0 0 0 80186049.72891364 -10721299.1083466 -10721299.1083466 -14128.11313604096 0 0 0 0 0 80935351.62665352 -10926292.25913159 -10926292.25913159 -300891.7506799324 0 0 0 0 0 81689058.82273431 -11105232.88994667 -11105232.88994667 -583950.5857542818 0 0 0 0 0 82421972.426534 -11253299.76240233 -11253299.76240233 -862688.7728114889 0 0 0 0 0 83002117.63408482 -11066324.04115705 -11066324.04115705 -769492.8181924301 0 0 0 0 0 84216660.70335011 -11211707.29802291 -11211707.29802291 -1316470.807184775 0 0 0 0 0 83788501.79933278 -11168948.9673759 -11168948.9673759 -974103.263484999 0 0 0 0 0 85006656.61308479 -11317558.85161352 -11317558.85161352 -1582307.585743841 0 0 0 0 0 85706118.55799335 -11387148.6170616 -11387148.6170616 -1832686.933185932 0 0 0 0 0 85991657.10620645 -11270661.68631933 -11270661.68631933 -1847147.366600856 0 0 0 0 0 86822498.90631343 -11321159.67923848 -11321159.67923848 -2049726.572135648 0 0 0 0 0 87454823.68834759 -11398651.73411085 -11398651.73411085 -2356007.741474932 0 0 0 0 0 87732111.2195996 -11227430.76169261 -11227430.76169261 -2369165.585492311 0 0 0 0 0 71538736.21145326 -7852983.376991711 -7852983.376991711 2579465.543254911 0 0 0 0 0 63441510.13415786 -396189.1100636083 -396189.1100636083 4089214.470155412 0 0 0 0 0 64172864.19735347 -1064825.84156045 -1064825.84156045 4383419.702496995 0 0 0 0 0 64550002.6913308 -1917836.424012844 -1917836.424012844 4273006.398897873 0 0 0 0 0 64236244.33533122 -2093405.482347831 -2093405.482347831 3932892.653908473 0 0 0 0 0 65770029.97103459 -2959340.557147587 -2959340.557147587 4105057.511868063 0 0 0 0 0 66233201.60660873 -3795037.081646051 -3795037.081646051 3969113.785138333 0 0 0 0 0 66744052.77580991 -4604935.165042363 -4604935.165042363 3805992.231156935 0 0 0 0 0 67307857.48212615 -5384184.935665577 -5384184.935665577 3616831.211219304 0 0 0 0 0 67914676.96111561 -6121630.345755135 -6121630.345755135 3403875.712446424 0 0 0 0 0 68542923.2290051 -6807958.617471547 -6807958.617471547 3165505.233246508 0 0 0 0 0 68791265.55450821 -6779287.166026371 -6779287.166026371 2999812.241594408 0 0 0 0 0 70077427.56172286 -7373431.669338133 -7373431.669338133 2880027.007184047 0 0 0 0 0 70790883.33083907 -7959551.299296679 -7959551.299296679 2628795.327583638 0 0 0 0 0 71924299.48695469 -7771817.707169422 -7771817.707169422 2495997.038627391 0 0 0 0 0 72661987.24348015 -8275020.12176707 -8275020.12176707 2251350.225032301 0 0 0 0 0 74115780.52980497 -8621605.746345593 -8621605.746345593 1961646.548392045 0 0 0 0 0 73728959.09752434 -8711173.119778411 -8711173.119778411 2036076.969948223 0 0 0 0 0 74891186.97445612 -9060748.13497149 -9060748.13497149 1698711.80688772 0 0 0 0 0 75681824.56573139 -9466463.059564719 -9466463.059564719 1428326.304043463 0 0 0 0 0 76485171.66016756 -9838583.090070056 -9838583.090070056 1151883.830438077 0 0 0 0 0 77297427.82348852 -10177621.29524525 -10177621.29524525 871157.0207393742 0 0 0 0 0 78670313.40928091 -10276091.55060103 -10276091.55060103 592272.2391467096 0 0 0 0 0 78143496.86359116 -10432142.34732076 -10432142.34732076 558838.1461400453 0 0 0 0 0 79463749.72005591 -10539539.91118318 -10539539.91118318 314515.5664727184 0 0 0 0 0 80256598.06243597 -10773137.71586238 -10773137.71586238 38032.41904605608 0 0 0 0 0 81049209.18856412 -10975669.1799782 -10975669.1799782 -240067.1962997011 0 0 0 0 0 81835911.4322823 -11153072.35670062 -11153072.35670062 -516249.4194433814 0 0 0 0 0 82617160.06335098 -11299442.6011316 -11299442.6011316 -784616.2015177542 0 0 0 0 0 83167019.58284944 -11379011.20610664 -11379011.20610664 -1137322.740146939 0 0 0 0 0 84524714.78683552 -11247901.10413896 -11247901.10413896 -1218396.275530162 0 0 0 0 0 83900460.82636739 -11473483.43015897 -11473483.43015897 -1394496.87415828 0 0 0 0 0 85234472.51159778 -11332357.61047019 -11332357.61047019 -1513801.261977021 0 0 0 0 0 85987365.91950864 -11410498.71607637 -11410498.71607637 -1746943.550893843 0 0 0 0 0 86586555.13251089 -11455215.07955732 -11455215.07955732 -1941077.018721897 0 0 0 0 0 86610010.79361944 -11376420.25895015 -11376420.25895015 -2130365.108063789 0 0 0 0 0 87354258.45578337 -11428673.43018299 -11428673.43018299 -2383593.73884816 0 0 0 0 0 88132081.84604287 -11445916.87963797 -11445916.87963797 -2620581.641152888 0 0 0 0 0 71153146.8018637 -7887637.792488272 -7887637.792488272 2521780.653125585 0 0 0 0 0 63423636.20980582 -478774.5595645936 -478774.5595645936 4300242.845951393 0 0 0 0 0 62752629.34283132 -1065182.382162602 -1065182.382162602 3975774.532249901 0 0 0 0 0 63164479.12230772 -1848537.228956933 -1848537.228956933 3882426.049182513 0 0 0 0 0 64833590.96259898 -2827474.358760142 -2827474.358760142 4144267.603924742 0 0 0 0 0 64698026.24977539 -2942620.104464866 -2942620.104464866 3841132.51899446 0 0 0 0 0 65228145.99860714 -3783549.237994291 -3783549.237994291 3722004.517025293 0 0 0 0 0 65815374.37283713 -4602207.497248014 -4602207.497248014 3582470.587537922 0 0 0 0 0 66456718.44130744 -5389878.134978117 -5389878.134978117 3417535.474770587 0 0 0 0 0 67148398.89641048 -6133909.101720905 -6133909.101720905 3230375.132058064 0 0 0 0 0 67894989.1138113 -6821752.321085299 -6821752.321085299 3035365.54269282 0 0 0 0 0 69231715.59655033 -7445643.806485849 -7445643.806485849 2923645.832867533 0 0 0 0 0 69535811.46072683 -7397656.012428329 -7397656.012428329 2780291.945945513 0 0 0 0 0 70298148.78875336 -7993884.581005455 -7993884.581005455 2535745.820066642 0 0 0 0 0 72257728.13813043 -8371976.351681662 -8371976.351681662 2325441.229060309 0 0 0 0 0 72993318.06825992 -8857593.559293071 -8857593.559293071 2054703.613211296 0 0 0 0 0 74470971.4837845 -9164255.839425299 -9164255.839425299 1752233.137766493 0 0 0 0 0 73403651.71201447 -8753697.988806974 -8753697.988806974 1987300.835801774 0 0 0 0 0 75226636.82327853 -9585747.268943347 -9585747.268943347 1459506.501713283 0 0 0 0 0 75997463.70833203 -9972596.495726485 -9972596.495726485 1160926.60551013 0 0 0 0 0 76780354.64627391 -10325581.51498833 -10325581.51498833 858244.619984067 0 0 0 0 0 77572456.79689963 -10644883.67581438 -10644883.67581438 553135.4269630593 0 0 0 0 0 78915242.29168241 -10706756.03432184 -10706756.03432184 261563.6123129171 0 0 0 0 0 78115583.10505983 -10484044.21012603 -10484044.21012603 587526.6111361757 0 0 0 0 0 79689659.06449312 -10950620.61327454 -10950620.61327454 -34719.88935281255 0 0 0 0 0 80463014.03408457 -11163107.16009932 -11163107.16009932 -329708.8533216674 0 0 0 0 0 81239520.76457432 -11347549.94126729 -11347549.94126729 -621236.9307539233 0 0 0 0 0 82006543.07968831 -11502691.44688947 -11502691.44688947 -908124.5326289494 0 0 0 0 0 82768612.00011325 -11627942.90287085 -11627942.90287085 -1190715.209176117 0 0 0 0 0 83397213.54680339 -11417252.60342958 -11417252.60342958 -1056309.160822905 0 0 0 0 0 84625415.36400658 -11548574.9628919 -11548574.9628919 -1656794.782370529 0 0 0 0 0 84170387.3394928 -11513226.71631069 -11513226.71631069 -1302869.633227821 0 0 0 0 0 85340266.03273602 -11612030.50600851 -11612030.50600851 -1917619.456490779 0 0 0 0 0 85936997.86221628 -11597526.50899457 -11597526.50899457 -2184090.354622045 0 0 0 0 0 87064070.86626221 -11608715.61866249 -11608715.61866249 -2360663.773019587 0 0 0 0 0 87720487.35773937 -11650938.04183516 -11650938.04183516 -2641920.810426765 0 0 0 0 0 88438418.14358647 -11266735.76272041 -11266735.76272041 -2619055.681773304 0 0 0 0 0 88033577.38401833 -11488279.7766591 -11488279.7766591 -2651672.782227705 0 0 0 0 0 71496281.26795533 -8514147.262295254 -8514147.262295254 2352121.363087914 0 0 0 0 0 62509102.32184741 -500973.500551727 -500973.500551727 4133778.349945206 0 0 0 0 0 63554100.77485786 -1626961.232577009 -1626961.232577009 4319119.566155349 0 0 0 0 0 63877667.21990945 -2657915.689049464 -2657915.689049464 4187272.324593137 0 0 0 0 0 63709722.22339275 -2790182.426123322 -2790182.426123322 3853781.265477852 0 0 0 0 0 65296942.27705984 -3688428.73109798 -3688428.73109798 4016150.959296572 0 0 0 0 0 65814205.5664654 -4531785.246665511 -4531785.246665511 3855669.904927215 0 0 0 0 0 66386551.13511468 -5344592.901781356 -5344592.901781356 3668357.992143626 0 0 0 0 0 67007931.03106312 -6118993.26649899 -6118993.26649899 3455896.009940251 0 0 0 0 0 67655369.84136978 -6845296.327532055 -6845296.327532055 3211856.08078701 0 0 0 0 0 68355129.54953726 -7515568.710735027 -7515568.710735027 2960320.054484501 0 0 0 0 0 68661523.35527897 -7465298.013725275 -7465298.013725275 2815888.590539325 0 0 0 0 0 69976547.61485045 -8052917.498913746 -8052917.498913746 2668571.28600907 0 0 0 0 0 70740711.945141 -8636428.634412209 -8636428.634412209 2391928.103096994 0 0 0 0 0 71908604.44467564 -8410147.057882434 -8410147.057882434 2273046.212552367 0 0 0 0 0 72706400.9383129 -8897775.550766449 -8897775.550766449 2023314.552510001 0 0 0 0 0 74203745.26064296 -9210371.338478679 -9210371.338478679 1719836.589252823 0 0 0 0 0 73772860.93885955 -9315782.811103217 -9315782.811103217 1777322.692803496 0 0 0 0 0 75022170.78748365 -9634719.326139424 -9634719.326139424 1444048.416981104 0 0 0 0 0 75852416.1713787 -10023424.31823914 -10023424.31823914 1160922.245326882 0 0 0 0 0 76692757.15319423 -10377270.63674619 -10377270.63674619 872537.1281474748 0 0 0 0 0 77540023.00422753 -10696907.47294322 -10696907.47294322 580831.2943098082 0 0 0 0 0 78937109.07944444 -10758315.8443281 -10758315.8443281 301946.3728865759 0 0 0 0 0 78370520.84448807 -10930973.84037279 -10930973.84037279 247158.3746498867 0 0 0 0 0 79759039.81093182 -11001267.08312408 -11001267.08312408 16356.12026154827 0 0 0 0 0 80579820.76801164 -11213103.49807274 -11213103.49807274 -267758.0201820682 0 0 0 0 0 81395715.7516887 -11395573.4486713 -11395573.4486713 -551211.8501963721 0 0 0 0 0 82206631.63116606 -11548295.52300007 -11548295.52300007 -829256.1954548942 0 0 0 0 0 83012028.50097954 -11671619.23686567 -11671619.23686567 -1102841.939511097 0 0 0 0 0 83538355.06247585 -11732206.18876576 -11732206.18876576 -1465443.002437844 0 0 0 0 0 84927188.71007226 -11587094.69726476 -11587094.69726476 -1558132.334777446 0 0 0 0 0 84292677.34178518 -11808928.67404203 -11808928.67404203 -1736009.176414552 0 0 0 0 0 85670008.88124955 -11638437.9814233 -11638437.9814233 -1822225.948608089 0 0 0 0 0 86436686.14477053 -11643256.85419894 -11643256.85419894 -2076088.135510673 0 0 0 0 0 87063933.21639177 -11653012.1643953 -11653012.1643953 -2354744.811031359 0 0 0 0 0 87759464.81207149 -11700726.49589949 -11700726.49589949 -2620097.82022974 0 0 0 0 0 88803747.5740795 -11494713.08696738 -11494713.08696738 -2903555.850284628 0 0 0 0 0 88477119.63541131 -11697084.26484474 -11697084.26484474 -2868282.827262355 0 0 0 0 0 89165571.98591313 -11284359.94604941 -11284359.94604941 -2854912.485841172 0 0 0 0 0 89844130.78528608 -11286852.29574772 -11286852.29574772 -3096471.083074967 0 0 0 0 0 71122452.7139055 -8552785.810646674 -8552785.810646674 2290303.345244224 0 0 0 0 0 62011896.23506529 -499815.2539715436 -499815.2539715436 4169996.92216265 0 0 0 0 0 62202904.91390333 -1615311.920793304 -1615311.920793304 3963316.485619988 0 0 0 0 0 62691209.88082556 -2625599.781630022 -2625599.781630022 3886909.992103479 0 0 0 0 0 64333560.59320543 -3566256.371838672 -3566256.371838672 4060929.185045405 0 0 0 0 0 64243387.71512654 -3671220.435490067 -3671220.435490067 3752958.512554118 0 0 0 0 0 64837570.68851179 -4524933.648523604 -4524933.648523604 3617875.911050349 0 0 0 0 0 65489337.07152168 -5346305.720467659 -5346305.720467659 3455321.036313767 0 0 0 0 0 66196746.11285013 -6129061.305666599 -6129061.305666599 3267296.17261598 0 0 0 0 0 66979014.2608536 -6859632.646985068 -6859632.646985068 3070414.865456477 0 0 0 0 0 67781655.82576919 -7533424.790553684 -7533424.790553684 2853416.096863588 0 0 0 0 0 69116687.62965854 -8143001.523858645 -8143001.523858645 2698551.675229643 0 0 0 0 0 69459923.29177272 -8081325.989084674 -8081325.989084674 2570221.029363892 0 0 0 0 0 70282126.77089295 -8675453.134131188 -8675453.134131188 2307159.914986872 0 0 0 0 0 72229731.40659814 -9018506.082216995 -9018506.082216995 2064967.49511234 0 0 0 0 0 73021000.74688871 -9483406.756100172 -9483406.756100172 1783178.906020345 0 0 0 0 0 74554306.06486005 -9756651.950221574 -9756651.950221574 1477821.564122193 0 0 0 0 0 73499500.73004603 -9364525.84160782 -9364525.84160782 1745258.550045117 0 0 0 0 0 75350224.00625782 -10161077.24083186 -10161077.24083186 1170803.883892034 0 0 0 0 0 76159915.91416466 -10529624.80135185 -10529624.80135185 859592.2155177275 0 0 0 0 0 76979451.73168688 -10862765.00149018 -10862765.00149018 545849.5059126772 0 0 0 0 0 77805563.08105478 -11161245.43533484 -11161245.43533484 230733.5897341725 0 0 0 0 0 79172290.18328252 -11184746.54845811 -11184746.54845811 -58132.52590640431 0 0 0 0 0 78390948.3735528 -10982870.35214156 -10982870.35214156 287396.2988101374 0 0 0 0 0 79974721.93493067 -11406743.43397275 -11406743.43397275 -361548.555550562 0 0 0 0 0 80775943.78054431 -11597844.05932245 -11597844.05932245 -661979.4317151166 0 0 0 0 0 81573295.33144604 -11758960.20304375 -11758960.20304375 -957933.0461334225 0 0 0 0 0 82364697.19012916 -11890472.47305568 -11890472.47305568 -1248889.787610801 0 0 0 0 0 83153983.78604122 -11994955.85225409 -11994955.85225409 -1534495.673531321 0 0 0 0 0 83810690.06544834 -11769862.95718537 -11769862.95718537 -1374760.622624676 0 0 0 0 0 85030293.19586504 -11859442.86900151 -11859442.86900151 -2005125.017040371 0 0 0 0 0 84595834.2658311 -11847003.50112383 -11847003.50112383 -1637678.716341045 0 0 0 0 0 85751946.60186963 -11884391.47688151 -11884391.47688151 -2266506.116229736 0 0 0 0 0 86510017.69624165 -11900864.06699243 -11900864.06699243 -2472506.161163229 0 0 0 0 0 87275212.06972861 -11912449.60003916 -11912449.60003916 -2724842.825739038 0 0 0 0 0 88011697.68417574 -11905921.45547298 -11905921.45547298 -2956024.049465287 0 0 0 0 0 88704003.06025885 -11546794.23296675 -11546794.23296675 -2949650.069589535 0 0 0 0 0 88273254.53125893 -11752829.86330637 -11752829.86330637 -2940815.798473138 0 0 0 0 0 89356669.05478553 -11523129.86944261 -11523129.86944261 -3249492.689119967 0 0 0 0 0 90065410.1702985 -11485605.24533468 -11485605.24533468 -3454242.078436513 0 0 0 0 0 90468869.73666056 -11270657.20590957 -11270657.20590957 -3344288.015929542 0 0 0 0 0 71474046.18819925 -9177810.261806602 -9177810.261806602 2084948.164681032 0 0 0 0 0 61472350.69227152 -500186.9875427997 -500186.9875427997 4180532.284288795 0 0 0 0 0 62209675.02451891 -1522165.157102636 -1522165.157102636 4228685.467710556 0 0 0 0 0 62901169.01525805 -2481427.423613332 -2481427.423613332 4214246.096240528 0 0 0 0 0 63340759.75766403 -3430907.9798972 -3430907.9798972 4101542.231296127 0 0 0 0 0 63222615.52647074 -3546304.479931399 -3546304.479931399 3782041.445200561 0 0 0 0 0 64853631.15127993 -4446777.864194238 -4446777.864194238 3902353.134252592 0 0 0 0 0 65431818.81960718 -5295341.738131659 -5295341.738131659 3714404.132337017 0 0 0 0 0 66064162.19314091 -6106609.361094645 -6106609.361094645 3498690.975992747 0 0 0 0 0 66736055.8199567 -6877680.798376204 -6877680.798376204 3258048.270717839 0 0 0 0 0 67432822.89810216 -7596595.482003489 -7596595.482003489 2988134.151800555 0 0 0 0 0 68197225.67419456 -8256735.91797228 -8256735.91797228 2719325.601594644 0 0 0 0 0 68601334.81201288 -8173686.661715467 -8173686.661715467 2607001.883922757 0 0 0 0 0 69907239.92717318 -8750397.28294033 -8750397.28294033 2423128.870348146 0 0 0 0 0 70716942.64236416 -9329543.011127001 -9329543.011127001 2120311.078817091 0 0 0 0 0 71959299.52554964 -9057343.679691596 -9057343.679691596 2042059.856559531 0 0 0 0 0 72798471.59973565 -9528771.555418311 -9528771.555418311 1767769.566131488 0 0 0 0 0 74335683.216534 -9805998.202444984 -9805998.202444984 1459193.528676524 0 0 0 0 0 73854746.43034774 -9931899.48886393 -9931899.48886393 1491837.605750248 0 0 0 0 0 75194962.71468565 -10211990.31444328 -10211990.31444328 1168408.339567481 0 0 0 0 0 76064748.77390864 -10581497.07655402 -10581497.07655402 872203.6570974037 0 0 0 0 0 76941617.40222803 -10914952.95522226 -10914952.95522226 572339.7034825757 0 0 0 0 0 77824054.10668312 -11213280.88983022 -11213280.88983022 270603.2583678304 0 0 0 0 0 79242655.81649326 -11235869.19366894 -11235869.19366894 -6506.326675771369 0 0 0 0 0 78635726.80231094 -11425651.60303565 -11425651.60303565 -83690.62973056642 0 0 0 0 0 80092792.42218713 -11456687.98569487 -11456687.98569487 -299349.4015032343 0 0 0 0 0 80939199.47628541 -11646192.67680115 -11646192.67680115 -590047.4685431491 0 0 0 0 0 81779753.01301993 -11805070.7973484 -11805070.7973484 -877215.4642798093 0 0 0 0 0 82613642.9931239 -11934234.30360869 -11934234.30360869 -1159638.630676995 0 0 0 0 0 83438916.39197911 -12036198.26314394 -12036198.26314394 -1438365.18170315 0 0 0 0 0 83938903.79508361 -12076146.5587769 -12076146.5587769 -1812622.375236667 0 0 0 0 0 85363107.50251897 -11900318.52781171 -11900318.52781171 -1897806.030707167 0 0 0 0 0 84706802.35958844 -12132034.44248022 -12132034.44248022 -2082651.90249877 0 0 0 0 0 86117792.61670756 -11926057.31793322 -11926057.31793322 -2150767.963534103 0 0 0 0 0 86869799.56717445 -11921689.7730505 -11921689.7730505 -2375018.613927815 0 0 0 0 0 87575839.94492055 -11915870.65136255 -11915870.65136255 -2642050.734427647 0 0 0 0 0 88291668.3930393 -11916764.97523465 -11916764.97523465 -2874645.363007548 0 0 0 0 0 89263044.11569695 -11713267.15873682 -11713267.15873682 -3095412.143203717 0 0 0 0 0 88832307.46387608 -11908361.67119821 -11908361.67119821 -3060524.438783858 0 0 0 0 0 89774760.93736951 -11515033.69403529 -11515033.69403529 -3138983.443598808 0 0 0 0 0 90295128.57071565 -11474792.73197838 -11474792.73197838 -3385108.510838918 0 0 0 0 0 90727705.17986794 -11453134.68299874 -11453134.68299874 -3659869.5919875 0 0 0 0 0 91078127.04185823 -11239933.67617901 -11239933.67617901 -3585938.505478121 0 0 0 0 0 91703282.31236097 -11185454.13816047 -11185454.13816047 -3811173.213720276 0 0 0 0 0 71173451.81051391 -9220568.780495334 -9220568.780495334 2049606.481497218 0 0 0 0 0 60846084.51263984 -485693.2446820101 -485693.2446820101 4134589.195496527 0 0 0 0 0 61236994.4243299 -1472099.640041328 -1472099.640041328 4037594.370043019 0 0 0 0 0 61645333.74370664 -2440051.285548619 -2440051.285548619 3899639.655122054 0 0 0 0 0 62169197.60404022 -3409612.914049824 -3409612.914049824 3810471.003881641 0 0 0 0 0 63857270.0201808 -4350270.087082817 -4350270.087082817 3946239.008398226 0 0 0 0 0 63822604.43651239 -4436796.59771004 -4436796.59771004 3649359.998781738 0 0 0 0 0 64486132.95502373 -5295014.507723999 -5295014.507723999 3488365.046789863 0 0 0 0 0 65207423.58821627 -6115815.508011861 -6115815.508011861 3300176.49471671 0 0 0 0 0 65982117.56334113 -6896531.141803822 -6896531.141803822 3089357.197781445 0 0 0 0 0 66836759.73350207 -7616465.895889238 -7616465.895889238 2871371.583464699 0 0 0 0 0 67687970.39123955 -8285081.63458875 -8285081.63458875 2629728.784456277 0 0 0 0 0 69019107.37287754 -8879746.562077893 -8879746.562077893 2435986.249288363 0 0 0 0 0 69434287.97435178 -8789567.148913816 -8789567.148913816 2336009.952440617 0 0 0 0 0 70316007.66680342 -9372426.418612113 -9372426.418612113 2052178.714210641 0 0 0 0 0 72273502.0502878 -9667894.693177911 -9667894.693177911 1790830.880276991 0 0 0 0 0 73105983.66009033 -10124567.23446451 -10124567.23446451 1487522.914859283 0 0 0 0 0 74678833.20403314 -10353259.42829666 -10353259.42829666 1179855.568623628 0 0 0 0 0 73639543.89867902 -9981245.054184964 -9981245.054184964 1472747.879260349 0 0 0 0 0 75515571.79250026 -10738413.36120162 -10738413.36120162 859386.0677463199 0 0 0 0 0 76363646.70249461 -11086068.26085422 -11086068.26085422 536488.8501215776 0 0 0 0 0 77219472.6866744 -11397373.55345517 -11397373.55345517 212441.302825971 0 0 0 0 0 78079137.11741559 -11673312.49337757 -11673312.49337757 -111689.5720584269 0 0 0 0 0 79467140.41638218 -11656869.52105892 -11656869.52105892 -396195.3396688308 0 0 0 0 0 78707000.10131404 -11477010.85380547 -11477010.85380547 -31695.73977641185 0 0 0 0 0 80297735.41832125 -11855805.94740313 -11855805.94740313 -705593.2624593731 0 0 0 0 0 81123959.36412056 -12023232.1709543 -12023232.1709543 -1010752.473295241 0 0 0 0 0 81945262.40629071 -12160357.34012009 -12160357.34012009 -1310666.882031051 0 0 0 0 0 82761187.92300576 -12268892.97596771 -12268892.97596771 -1604614.924099726 0 0 0 0 0 83570054.81235065 -12351126.51671734 -12351126.51671734 -1891499.020876795 0 0 0 0 0 84252097.22647288 -12113796.27504883 -12113796.27504883 -1712183.643903077 0 0 0 0 0 85456842.55756228 -12161660.05486968 -12161660.05486968 -2343860.265531839 0 0 0 0 0 85049640.67778459 -12167127.79177108 -12167127.79177108 -1976890.42491543 0 0 0 0 0 86198150.5143237 -12168245.7794669 -12168245.7794669 -2595579.062226681 0 0 0 0 0 86937490.49410093 -12154418.42430125 -12154418.42430125 -2833186.027844463 0 0 0 0 0 87663782.98740636 -12139552.82747287 -12139552.82747287 -3068299.167337003 0 0 0 0 0 88247385.77361782 -12058310.36475328 -12058310.36475328 -3301325.029532291 0 0 0 0 0 89171317.30088657 -11716823.02345667 -11716823.02345667 -3410120.928524104 0 0 0 0 0 88851289.89984998 -11802510.71606995 -11802510.71606995 -3255788.875503581 0 0 0 0 0 89712092.38818672 -11729860.14687998 -11729860.14687998 -3643451.270716543 0 0 0 0 0 90472710.61076546 -11681560.64163565 -11681560.64163565 -3694073.400696888 0 0 0 0 0 90774809.15272154 -11471437.02832849 -11471437.02832849 -3649048.469433275 0 0 0 0 0 91321066.43955524 -11412560.19294417 -11412560.19294417 -3922268.228014243 0 0 0 0 0 91930281.56819503 -11341233.25386119 -11341233.25386119 -4147496.778398277 0 0 0 0 0 92327594.54178914 -11114607.86054367 -11114607.86054367 -4024266.487880098 0 0 0 0 0 71501586.57697779 -9856235.109988136 -9856235.109988136 1796415.346224715 0 0 0 0 0 60373207.42326573 -490560.1588705399 -490560.1588705399 4159312.607573479 0 0 0 0 0 61071450.00590453 -1433110.663406272 -1433110.663406272 4206392.080859435 0 0 0 0 0 61702264.58266161 -2340197.756669324 -2340197.756669324 4191359.371151329 0 0 0 0 0 62313092.2696476 -3286597.778182506 -3286597.778182506 4125696.010226207 0 0 0 0 0 62826745.87252975 -4245009.033456256 -4245009.033456256 3979586.26583902 0 0 0 0 0 62770645.64850063 -4338680.994023579 -4338680.994023579 3679699.464685855 0 0 0 0 0 64442237.83103772 -5237270.698310258 -5237270.698310258 3758731.368433734 0 0 0 0 0 65086401.29538146 -6086716.496687775 -6086716.496687775 3542719.914362481 0 0 0 0 0 65785596.93529214 -6896110.248935863 -6896110.248935863 3300544.172132885 0 0 0 0 0 66526655.37215226 -7660508.344563822 -7660508.344563822 3033744.416303881 0 0 0 0 0 67273739.06259133 -8370179.794627353 -8370179.794627353 2744409.382969283 0 0 0 0 0 68113714.36928551 -9018120.38639042 -9018120.38639042 2451797.307364454 0 0 0 0 0 68570579.18744536 -8909948.729627442 -8909948.729627442 2361615.513762443 0 0 0 0 0 69884151.88283722 -9469171.91499459 -9469171.91499459 2144611.142785702 0 0 0 0 0 70745712.1875719 -10033236.34642077 -10033236.34642077 1819519.694517858 0 0 0 0 0 72045543.19988121 -9714975.667562919 -9714975.667562919 1776849.242711148 0 0 0 0 0 72924249.71192107 -10172765.98089844 -10172765.98089844 1483263.913677783 0 0 0 0 0 74511386.01409662 -10404854.29618878 -10404854.29618878 1174968.28431681 0 0 0 0 0 73974563.78791194 -10552719.57988277 -10552719.57988277 1183315.657508421 0 0 0 0 0 75412497.67032808 -10790386.61048725 -10790386.61048725 870184.2233416066 0 0 0 0 0 76321168.82587099 -11138394.54811514 -11138394.54811514 561982.6593789143 0 0 0 0 0 77233907.23425828 -11449639.83815197 -11449639.83815197 251448.5508248541 0 0 0 0 0 78150318.59020056 -11724793.28885951 -11724793.28885951 -59639.87183868072 0 0 0 0 0 79588336.32909103 -11706989.56655279 -11706989.56655279 -333122.1476245079 0 0 0 0 0 78940554.72073494 -11914299.18319627 -11914299.18319627 -433816.0946887896 0 0 0 0 0 80465787.37396832 -11904278.17379454 -11904278.17379454 -632448.830687154 0 0 0 0 0 81337401.18734142 -12069693.50780893 -12069693.50780893 -928131.9775127264 0 0 0 0 0 82201182.00933237 -12204400.2728832 -12204400.2728832 -1219559.624128271 0 0 0 0 0 83055290.74333695 -12310312.42872861 -12310312.42872861 -1506171.185977037 0 0 0 0 0 83897400.23547587 -12389419.34541505 -12389419.34541505 -1787242.63477766 0 0 0 0 0 84367266.06762017 -12408247.61293714 -12408247.61293714 -2169716.702257703 0 0 0 0 0 85831534.124266 -12193275.16470178 -12193275.16470178 -2232846.319256268 0 0 0 0 0 85147321.84182927 -12438975.04603847 -12438975.04603847 -2438559.713316971 0 0 0 0 0 86603561.96400094 -12194174.56212129 -12194174.56212129 -2481210.186507921 0 0 0 0 0 87358882.3322158 -12176453.70039651 -12176453.70039651 -2717401.680423317 0 0 0 0 0 88086657.75207955 -12146442.31578809 -12146442.31578809 -2959796.058503921 0 0 0 0 0 88820158.83076903 -12086936.49977222 -12086936.49977222 -3195128.365506317 0 0 0 0 0 89722918.1471231 -11733471.38850496 -11733471.38850496 -3299883.04637999 0 0 0 0 0 89201110.18751431 -11982723.5200655 -11982723.5200655 -3482179.744291645 0 0 0 0 0 90368060.95004965 -11715310.38945434 -11715310.38945434 -3463533.331858638 0 0 0 0 0 90271857.49573989 -11737255.4690761 -11737255.4690761 -3777347.974301096 0 0 0 0 0 91117873.10252218 -11660943.54829436 -11660943.54829436 -3952874.460996994 0 0 0 0 0 91444560.56235376 -11420686.22044891 -11420686.22044891 -3884836.671548904 0 0 0 0 0 92169644.47448458 -11338918.1135018 -11338918.1135018 -4076873.89467552 0 0 0 0 0 92565254.05115996 -11246093.1955938 -11246093.1955938 -4336741.73655813 0 0 0 0 0 92937317.87847301 -11028082.57174247 -11028082.57174247 -4228680.667617014 0 0 0 0 0 93541202.07357636 -10922136.02319009 -10922136.02319009 -4421214.445096383 0 0 0 0 0 71267743.5953033 -9900227.692292567 -9900227.692292567 1778936.103138863 0 0 0 0 0 59797349.83142031 -456338.1271114961 -456338.1271114961 4124772.813149963 0 0 0 0 0 60201402.28915191 -1375020.27686662 -1375020.27686662 4046244.421335744 0 0 0 0 0 60608208.62699465 -2286887.102468264 -2286887.102468264 3934106.282030222 0 0 0 0 0 61073248.66078193 -3252711.353784958 -3252711.353784958 3808213.758913962 0 0 0 0 0 61678005.04462694 -4225164.148713122 -4225164.148713122 3692721.276398445 0 0 0 0 0 63414932.88712611 -5170587.276250152 -5170587.276250152 3796175.670663159 0 0 0 0 0 63444287.50139908 -5234305.526936386 -5234305.526936386 3518456.581705108 0 0 0 0 0 64180230.91666494 -6092384.223613946 -6092384.223613946 3330261.599446657 0 0 0 0 0 64972604.03905009 -6910320.81153021 -6910320.81153021 3116141.370319665 0 0 0 0 0 65816558.24969041 -7684626.093001384 -7684626.093001384 2878944.599906341 0 0 0 0 0 66718897.89904551 -8392647.525108756 -8392647.525108756 2639300.238507745 0 0 0 0 0 67634497.34533906 -9049652.08875208 -9049652.08875208 2367278.098936602 0 0 0 0 0 68980142.8941806 -9625978.019842442 -9625978.019842442 2154201.119481121 0 0 0 0 0 69451695.07623574 -9511068.434253525 -9511068.434253525 2068128.060837831 0 0 0 0 0 70399298.50061633 -10078074.93635709 -10078074.93635709 1766516.904480651 0 0 0 0 0 72364000.18382764 -10331139.27642778 -10331139.27642778 1490304.770897402 0 0 0 0 0 73237602.65948062 -10766128.85676615 -10766128.85676615 1174418.806456872 0 0 0 0 0 74846203.59635234 -10952399.75753602 -10952399.75753602 856233.6265594893 0 0 0 0 0 73801570.58733569 -10601010.49216093 -10601010.49216093 1174785.625726984 0 0 0 0 0 75723887.44922462 -11315143.42856574 -11315143.42856574 524723.4761548935 0 0 0 0 0 76609649.66818 -11639921.1628674 -11639921.1628674 191305.2080763819 0 0 0 0 0 77501816.48059514 -11927553.25599231 -11927553.25599231 -141947.919071327 0 0 0 0 0 78394589.95608638 -12179047.36685722 -12179047.36685722 -474129.5509805619 0 0 0 0 0 79801171.69632465 -12121386.14882761 -12121386.14882761 -752586.8060113069 0 0 0 0 0 79064945.53284439 -11964557.5449032 -11964557.5449032 -369886.6838005944 0 0 0 0 0 80658105.36338638 -12295720.88983175 -12295720.88983175 -1067040.617401808 0 0 0 0 0 81509593.45624058 -12438429.98391406 -12438429.98391406 -1376056.949870046 0 0 0 0 0 82354513.21799874 -12551102.44460004 -12551102.44460004 -1678663.749165342 0 0 0 0 0 83191084.93251255 -12635535.84902109 -12635535.84902109 -1973906.530601836 0 0 0 0 0 84016305.8604182 -12693214.46359521 -12693214.46359521 -2260600.828399583 0 0 0 0 0 84724854.59345482 -12442814.82170002 -12442814.82170002 -2060798.54688733 0 0 0 0 0 85914677.15302755 -12444285.63895364 -12444285.63895364 -2699046.335678619 0 0 0 0 0 85535979.24544442 -12470158.92822612 -12470158.92822612 -2324615.240273057 0 0 0 0 0 86672757.75102301 -12429782.20428644 -12429782.20428644 -2951306.249407026 0 0 0 0 0 87410910.42190601 -12394809.54524587 -12394809.54524587 -3196107.19592688 0 0 0 0 0 88107688.46590522 -12335607.58427474 -12335607.58427474 -3439923.868314897 0 0 0 0 0 88817844.51166113 -12265487.2024186 -12265487.2024186 -3620424.185896006 0 0 0 0 0 89768189.48643611 -11911220.0923817 -11911220.0923817 -3682714.644782506 0 0 0 0 0 89467041.96140665 -11998362.56314879 -11998362.56314879 -3400879.71230755 0 0 0 0 0 90847894.34715925 -11828696.92626851 -11828696.92626851 -3875102.323700216 0 0 0 0 0 90912658.75316864 -11698489.65021505 -11698489.65021505 -4025025.104834174 0 0 0 0 0 91670476.906555 -11588056.17232705 -11588056.17232705 -4259969.59269238 0 0 0 0 0 92304705.5294693 -11467592.51854186 -11467592.51854186 -4441710.781523666 0 0 0 0 0 92738036.72741 -11245811.63216109 -11245811.63216109 -4284906.42501244 0 0 0 0 0 93167460.18642685 -11148975.91513333 -11148975.91513333 -4547321.87412005 0 0 0 0 0 93726085.26504944 -11025447.37526491 -11025447.37526491 -4761736.458553969 0 0 0 0 0 94182834.23137248 -10798088.34117782 -10798088.34117782 -4588298.344149918 0 0 0 0 0 71594604.96193786 -10546115.88321248 -10546115.88321248 1487662.666414335 0 0 0 0 0 59228993.50069025 -497398.1075207423 -497398.1075207423 4101087.000797266 0 0 0 0 0 59891061.62228686 -1393216.98297573 -1393216.98297573 4180460.495668478 0 0 0 0 0 60576089.46874994 -2225776.015880764 -2225776.015880764 4175496.623890325 0 0 0 0 0 61192712.78186209 -3133325.381947607 -3133325.381947607 4139541.93909539 0 0 0 0 0 61763023.61865617 -4120766.953159705 -4120766.953159705 4002779.024713287 0 0 0 0 0 62351713.78448229 -5091701.583588417 -5091701.583588417 3824253.984101465 0 0 0 0 0 62362775.39294472 -5162377.034378916 -5162377.034378916 3539444.836203658 0 0 0 0 0 64070573.64064358 -6057942.610963968 -6057942.610963968 3581704.976273377 0 0 0 0 0 64786036.24749351 -6904641.816202675 -6904641.816202675 3339632.216661765 0 0 0 0 0 65555273.53434519 -7707848.962848875 -7707848.962848875 3071686.420353785 0 0 0 0 0 66365102.29303415 -8462493.181419609 -8462493.181419609 2788257.743509255 0 0 0 0 0 67176549.26076998 -9163022.926315444 -9163022.926315444 2479498.670221814 0 0 0 0 0 68041691.61896826 -9793549.159711273 -9793549.159711273 2145919.571564722 0 0 0 0 0 68567208.80480611 -9656505.149162319 -9656505.149162319 2088997.920079763 0 0 0 0 0 69909027.6260187 -10198190.24257762 -10198190.24257762 1834569.19247161 0 0 0 0 0 70829738.26735912 -10743912.21252022 -10743912.21252022 1495833.086285476 0 0 0 0 0 72171365.35422482 -10376708.2315837 -10376708.2315837 1479065.585540091 0 0 0 0 0 73110696.35926192 -10813428.58016534 -10813428.58016534 1183352.985804087 0 0 0 0 0 74734908.68104056 -11003015.55061556 -11003015.55061556 864090.9071431343 0 0 0 0 0 74150286.13433895 -11169520.53318835 -11169520.53318835 851661.3258639055 0 0 0 0 0 75676691.63063179 -11367018.47134951 -11367018.47134951 548784.6818687019 0 0 0 0 0 76623921.29073814 -11692008.24365224 -11692008.24365224 230193.5020806175 0 0 0 0 0 77572051.3981811 -11979222.17653159 -11979222.17653159 -90031.69818334754 0 0 0 0 0 78521056.08596566 -12229513.56729725 -12229513.56729725 -409588.943280011 0 0 0 0 0 79974906.08658835 -12170017.48889002 -12170017.48889002 -677979.3943206288 0 0 0 0 0 79286352.05733383 -12394949.27177666 -12394949.27177666 -802847.6508695058 0 0 0 0 0 80878708.65233134 -12342270.18785139 -12342270.18785139 -982656.8900982074 0 0 0 0 0 81774204.58208956 -12482536.81936083 -12482536.81936083 -1282831.020562973 0 0 0 0 0 82659114.77990456 -12592415.42606169 -12592415.42606169 -1577788.271067675 0 0 0 0 0 83531439.93562977 -12673702.29406099 -12673702.29406099 -1866627.930363541 0 0 0 0 0 84389073.31714362 -12727776.16468447 -12727776.16468447 -2148036.726907114 0 0 0 0 0 84826643.72567075 -12724715.52878962 -12724715.52878962 -2537797.800829421 0 0 0 0 0 86331075.46739019 -12472604.34236302 -12472604.34236302 -2580379.859358517 0 0 0 0 0 85620549.61059451 -12730463.3021219 -12730463.3021219 -2805262.407480694 0 0 0 0 0 87111357.95181541 -12454522.62107522 -12454522.62107522 -2829707.754409136 0 0 0 0 0 87868179.4565614 -12419408.46037176 -12419408.46037176 -3070427.24394052 0 0 0 0 0 88605301.60365102 -12360474.59700984 -12360474.59700984 -3304101.910070298 0 0 0 0 0 89338016.49434498 -12271734.03491663 -12271734.03491663 -3498002.047949506 0 0 0 0 0 90189769.79361649 -11921256.36884611 -11921256.36884611 -3572512.097590633 0 0 0 0 0 89510395.69550364 -12183676.11549876 -12183676.11549876 -3853555.535964472 0 0 0 0 0 90813564.21810395 -11860226.88260449 -11860226.88260449 -3892377.894973554 0 0 0 0 0 91527287.75239974 -11778155.97561691 -11778155.97561691 -4027480.381066743 0 0 0 0 0 92076332.18135498 -11589455.13716458 -11589455.13716458 -4150946.17907801 0 0 0 0 0 92663525.71260393 -11461698.74349496 -11461698.74349496 -4338700.308240049 0 0 0 0 0 92958747.20488398 -11371219.93847834 -11371219.93847834 -4600104.404249557 0 0 0 0 0 93320317.48208693 -11153204.18029661 -11153204.18029661 -4501888.447665259 0 0 0 0 0 93931291.59767061 -11035052.64841881 -11035052.64841881 -4701025.561068352 0 0 0 0 0 94220405.40622602 -10886106.63190992 -10886106.63190992 -4975486.178025092 0 0 0 0 0 94669921.23411545 -10682850.91094941 -10682850.91094941 -4787207.561773937 0 0 0 0 0 71385057.9448069 -10591919.13886056 -10591919.13886056 1469703.655946874 0 0 0 0 0 58664698.59388994 -489270.0397627152 -489270.0397627152 4133649.476823135 0 0 0 0 0 59143869.50450148 -1317462.710504135 -1317462.710504135 4055659.598819393 0 0 0 0 0 59530632.41117352 -2156013.144510124 -2156013.144510124 3948791.604493681 0 0 0 0 0 59927320.53348883 -3094666.860762011 -3094666.860762011 3816710.081195666 0 0 0 0 0 60538772.04132599 -4091125.434087112 -4091125.434087112 3690428.083554491 0 0 0 0 0 61239055.83989077 -5076070.224612776 -5076070.224612776 3547815.433084579 0 0 0 0 0 63016156.93284997 -6019196.76770449 -6019196.76770449 3612782.311890603 0 0 0 0 0 63113257.64046702 -6059046.04075582 -6059046.04075582 3353884.050088652 0 0 0 0 0 63923843.32767523 -6914290.150581524 -6914290.150581524 3140281.447310482 0 0 0 0 0 64790330.69247536 -7725741.029085878 -7725741.029085878 2901191.551750903 0 0 0 0 0 65687017.76447156 -8487250.934256049 -8487250.934256049 2636862.312617193 0 0 0 0 0 66645552.91159943 -9190377.457064619 -9190377.457064619 2374094.645675441 0 0 0 0 0 67687385.19441465 -9819290.696574206 -9819290.696574206 2102541.308940247 0 0 0 0 0 69012276.65498565 -10370441.89953068 -10370441.89953068 1839559.881273415 0 0 0 0 0 69539973.18780982 -10240190.21713254 -10240190.21713254 1774611.46398892 0 0 0 0 0 70541849.95921765 -10788583.98532787 -10788583.98532787 1456141.920222472 0 0 0 0 0 72472989.60935661 -10997517.11962172 -10997517.11962172 1152076.997804078 0 0 0 0 0 73400281.74418962 -11404738.14895596 -11404738.14895596 823838.0870802227 0 0 0 0 0 75059488.55646406 -11549479.56087351 -11549479.56087351 510502.2825710404 0 0 0 0 0 74042131.83678938 -11222469.1693738 -11222469.1693738 861772.1038942622 0 0 0 0 0 75976935.06236321 -11889076.10233296 -11889076.10233296 167317.4313152735 0 0 0 0 0 76899747.73283704 -12189360.13909599 -12189360.13909599 -176190.7765388236 0 0 0 0 0 77827117.91877007 -12451497.02866696 -12451497.02866696 -517699.9859970833 0 0 0 0 0 78752403.15198912 -12676733.30740087 -12676733.30740087 -856512.868408603 0 0 0 0 0 80175001.61306956 -12576454.93881547 -12576454.93881547 -1126906.406606333 0 0 0 0 0 79465520.90005413 -12443661.60722212 -12443661.60722212 -726887.775411212 0 0 0 0 0 81058043.80336781 -12724957.85567421 -12724957.85567421 -1445299.275674393 0 0 0 0 0 81933521.10600145 -12841896.88318819 -12841896.88318819 -1756940.963333566 0 0 0 0 0 82799719.32498141 -12928921.80963221 -12928921.80963221 -2060843.039291016 0 0 0 0 0 83654290.70631136 -12987654.66786668 -12987654.66786668 -2355985.642695576 0 0 0 0 0 84494571.15545027 -13019442.24134018 -13019442.24134018 -2641646.787903583 0 0 0 0 0 85230496.5001629 -12755501.584221 -12755501.584221 -2420515.190408491 0 0 0 0 0 86402990.19381925 -12713909.27680924 -12713909.27680924 -3063529.76972072 0 0 0 0 0 86054327.35285604 -12757822.27852873 -12757822.27852873 -2683269.330557963 0 0 0 0 0 87168209.47824007 -12677366.96393401 -12677366.96393401 -3311503.020970503 0 0 0 0 0 87907994.40195575 -12618755.38969668 -12618755.38969668 -3547764.592774219 0 0 0 0 0 88632078.03890303 -12539264.28946896 -12539264.28946896 -3772225.843447543 0 0 0 0 0 89346960.8024606 -12439397.24726616 -12439397.24726616 -3982811.573310331 0 0 0 0 0 90297659.36168496 -12089464.06479975 -12089464.06479975 -4037922.328262995 0 0 0 0 0 90040568.55975471 -12174222.14959214 -12174222.14959214 -3727590.147922196 0 0 0 0 0 90898014.01327004 -11968122.86802409 -11968122.86802409 -4287035.224927466 0 0 0 0 0 91436158.43940362 -11807857.29531866 -11807857.29531866 -4389426.207281602 0 0 0 0 0 92072643.55107045 -11686663.34158047 -11686663.34158047 -4575080.522587054 0 0 0 0 0 92693788.34781049 -11575135.4017978 -11575135.4017978 -4758853.701951957 0 0 0 0 0 93089394.56715114 -11362105.75737684 -11362105.75737684 -4559744.422786362 0 0 0 0 0 93541979.13545239 -11266022.79317764 -11266022.79317764 -4809652.063020224 0 0 0 0 0 94290332.21583124 -11133173.63377878 -11133173.63377878 -4984423.627298075 0 0 0 0 0 94757604.24738868 -10866418.28588367 -10866418.28588367 -4885990.831813592 0 0 0 0 0 94901189.66975412 -10728424.25205189 -10728424.25205189 -5039190.790685422 0 0 0 0 0 95219042.67072031 -10535931.48565754 -10535931.48565754 -4952633.278170639 0 0 0 0 0 95807770.38926655 -10376535.39755247 -10376535.39755247 -5091043.653542765 0 0 0 0 0 71716967.97242787 -11229969.91370631 -11229969.91370631 1137573.270239526 0 0 0 0 0 58003921.14369574 -514196.6144219282 -514196.6144219282 4132677.819616494 0 0 0 0 0 58630875.94096794 -1443231.716583644 -1443231.716583644 3983217.737023036 0 0 0 0 0 59541938.53840338 -2080225.413370451 -2080225.413370451 4247202.312213446 0 0 0 0 0 60084041.78372636 -2971088.977509771 -2971088.977509771 4144523.152797854 0 0 0 0 0 60630635.81419306 -3981287.470362194 -3981287.470362194 4015441.13353001 0 0 0 0 0 61247081.75076371 -4997487.166766809 -4997487.166766809 3842948.246479492 0 0 0 0 0 61922457.88077235 -5968281.951720928 -5968281.951720928 3635765.007978354 0 0 0 0 0 62004465.42573524 -6014610.680011758 -6014610.680011758 3368096.437473729 0 0 0 0 0 63745606.79153045 -6904408.914664033 -6904408.914664033 3371120.177593278 0 0 0 0 0 64533646.95434713 -7745395.347908696 -7745395.347908696 3102801.483229189 0 0 0 0 0 65373181.80062254 -8536432.399225783 -8536432.399225783 2811128.059892998 0 0 0 0 0 66232429.4538648 -9274283.749041723 -9274283.749041723 2494528.467252322 0 0 0 0 0 67125188.71466461 -9957555.407950478 -9957555.407950478 2161012.88814721 0 0 0 0 0 68036172.28022303 -10578572.05130558 -10578572.05130558 1813267.591108624 0 0 0 0 0 68654994.84561852 -10412856.43402372 -10412856.43402372 1787384.085763372 0 0 0 0 0 69978395.90462582 -10936682.67656715 -10936682.67656715 1490028.732873636 0 0 0 0 0 70955888.53468697 -11457420.97091349 -11457420.97091349 1137605.033602731 0 0 0 0 0 72369254.46589348 -11044101.36805299 -11044101.36805299 1169534.856823718 0 0 0 0 0 73349731.96706961 -11456038.41462679 -11456038.41462679 851325.5507092234 0 0 0 0 0 75009387.96228662 -11601959.52753658 -11601959.52753658 534250.5934358991 0 0 0 0 0 74368053.63385651 -11791730.25303652 -11791730.25303652 491064.7156046584 0 0 0 0 0 75990267.0343962 -11941460.29323307 -11941460.29323307 206179.6209891794 0 0 0 0 0 76974623.04956162 -12240972.9176033 -12240972.9176033 -123136.8864869595 0 0 0 0 0 77956716.0679466 -12502046.99223467 -12502046.99223467 -452377.0148571745 0 0 0 0 0 78936624.3499192 -12725426.40651285 -12725426.40651285 -779371.1967195465 0 0 0 0 0 80403107.80716561 -12623010.24425084 -12623010.24425084 -1040729.211646815 0 0 0 0 0 79673965.39068331 -12865791.43527136 -12865791.43527136 -1190580.372366206 0 0 0 0 0 81331883.46305947 -12768958.04996062 -12768958.04996062 -1349940.641700038 0 0 0 0 0 82249560.29150873 -12882991.21982796 -12882991.21982796 -1653482.758809534 0 0 0 0 0 83153977.88418919 -12966778.72765837 -12966778.72765837 -1950463.815751707 0 0 0 0 0 84043164.91886006 -13021885.30133855 -13021885.30133855 -2239792.611320571 0 0 0 0 0 84915686.02408455 -13049842.86277316 -13049842.86277316 -2520400.693708566 0 0 0 0 0 85317923.72535694 -13025076.54445499 -13025076.54445499 -2916933.032581073 0 0 0 0 0 86859822.879134 -12737810.56279397 -12737810.56279397 -2938089.966528837 0 0 0 0 0 86125130.30499405 -13006557.23777914 -13006557.23777914 -3181749.145417104 0 0 0 0 0 87645863.74254818 -12697261.83671335 -12697261.83671335 -3183983.640285306 0 0 0 0 0 88411280.9852761 -12634222.59105278 -12634222.59105278 -3416981.80510398 0 0 0 0 0 89160724.81199916 -12548813.45764364 -12548813.45764364 -3640538.502732957 0 0 0 0 0 89889944.75758108 -12446571.39896278 -12446571.39896278 -3848101.001427672 0 0 0 0 0 90706706.82897429 -12091051.04197131 -12091051.04197131 -3926547.763618161 0 0 0 0 0 90060008.63373618 -12340087.63155049 -12340087.63155049 -4185816.003333042 0 0 0 0 0 91369803.41789524 -11983990.17434506 -11983990.17434506 -4166616.200530414 0 0 0 0 0 92033114.68110414 -11818087.66500826 -11818087.66500826 -4258924.404152157 0 0 0 0 0 92630752.59347638 -11676770.46337209 -11676770.46337209 -4449725.980168086 0 0 0 0 0 93196358.08934227 -11541318.89801975 -11541318.89801975 -4615199.452456779 0 0 0 0 0 93423476.51506008 -11490811.25822517 -11490811.25822517 -4804801.248856462 0 0 0 0 0 93677232.93447012 -11257136.46828261 -11257136.46828261 -4768705.249185729 0 0 0 0 0 94348267.88929249 -10993342.84131852 -10993342.84131852 -5086248.025713493 0 0 0 0 0 94312810.64631985 -11129260.28275838 -11129260.28275838 -4977330.388102536 0 0 0 0 0 94724081.74873726 -10789503.40972964 -10789503.40972964 -5122415.350394901 0 0 0 0 0 95358990.3484495 -10612386.96451027 -10612386.96451027 -5288176.455716014 0 0 0 0 0 95947686.25700383 -10417555.3791389 -10417555.3791389 -5376487.831685753 0 0 0 0 0 96294054.76057673 -10215185.32979769 -10215185.32979769 -5244864.538379246 0 0 0 0 0 71590740.06995565 -11278507.72801862 -11278507.72801862 1145522.45093869 0 0 0 0 0 57308536.34185272 -411033.0862782579 -411033.0862782579 4021244.51814798 0 0 0 0 0 58781704.83201105 -1550023.982000402 -1550023.982000402 4204931.317809599 0 0 0 0 0 58148119.39987342 -1981539.977425193 -1981539.977425193 3883142.309900258 0 0 0 0 0 58724663.36013771 -2896438.208659044 -2896438.208659044 3780911.205824373 0 0 0 0 0 59360647.3410169 -3946795.646602731 -3946795.646602731 3688947.63676683 0 0 0 0 0 60071482.3106467 -4973834.814683196 -4973834.814683196 3546067.117326145 0 0 0 0 0 60851408.93328381 -5957181.448847981 -5957181.448847981 3372378.585898155 0 0 0 0 0 62665172.79903922 -6895080.157434024 -6895080.157434024 3395244.336575388 0 0 0 0 0 62834383.36107367 -6909411.001839442 -6909411.001839442 3156915.024572233 0 0 0 0 0 63722648.63461906 -7758447.03379197 -7758447.03379197 2917966.076025628 0 0 0 0 0 64664237.3117805 -8557012.153711272 -8557012.153711272 2653547.659142244 0 0 0 0 0 65650345.865009 -9304515.559659023 -9304515.559659023 2375442.513102818 0 0 0 0 0 66672202.01607773 -9994983.323475482 -9994983.323475482 2081230.328402441 0 0 0 0 0 67769099.45908019 -10615535.07199723 -10615535.07199723 1788252.119810157 0 0 0 0 0 69074249.35606812 -11149126.7757555 -11149126.7757555 1471930.941602951 0 0 0 0 0 69708465.41104607 -10983466.28790444 -10983466.28790444 1458640.786296096 0 0 0 0 0 70746956.4487713 -11506746.31029221 -11506746.31029221 1120053.955488841 0 0 0 0 0 72660442.31797618 -11658605.19457007 -11658605.19457007 798943.1877052388 0 0 0 0 0 73635367.83704886 -12049644.84177986 -12049644.84177986 454221.6936771045 0 0 0 0 0 75317765.44691321 -12146298.48404505 -12146298.48404505 138576.0568942831 0 0 0 0 0 74319666.10949939 -11843399.35213838 -11843399.35213838 513474.7542163793 0 0 0 0 0 76276452.95256506 -12459325.19270748 -12459325.19270748 -214211.8413070289 0 0 0 0 0 77236058.28755853 -12732632.2177522 -12732632.2177522 -565883.9747166933 0 0 0 0 0 78197452.86791141 -12967111.27131874 -12967111.27131874 -914419.0518798126 0 0 0 0 0 79154046.73888436 -13163993.35595974 -13163993.35595974 -1258413.810214241 0 0 0 0 0 80589833.86100982 -13020268.80087362 -13020268.80087362 -1518706.347411373 0 0 0 0 0 79909810.79399955 -12912263.19564355 -12912263.19564355 -1102612.899165629 0 0 0 0 0 81497646.63859114 -13141644.54470358 -13141644.54470358 -1839735.792357861 0 0 0 0 0 82395211.25126193 -13231519.82218537 -13231519.82218537 -2152707.982476468 0 0 0 0 0 83280530.58892538 -13291546.69500319 -13291546.69500319 -2456617.484347752 0 0 0 0 0 84151468.15897191 -13323411.01442316 -13323411.01442316 -2750687.793007266 0 0 0 0 0 85005442.45251903 -13328544.45444756 -13328544.45444756 -3034192.150780639 0 0 0 0 0 85769575.01999253 -13051659.6581927 -13051659.6581927 -2791175.637858017 0 0 0 0 0 86916978.69619423 -12966304.50474396 -12966304.50474396 -3435835.757853575 0 0 0 0 0 86603729.02613884 -13029181.91130006 -13029181.91130006 -3052186.423118507 0 0 0 0 0 87687681.5782029 -12904366.12164868 -12904366.12164868 -3678066.061906958 0 0 0 0 0 88438138.89427917 -12820598.33625959 -12820598.33625959 -3909512.352879554 0 0 0 0 0 89176119.00647432 -12719777.80215757 -12719777.80215757 -4128004.731641702 0 0 0 0 0 89895780.20366277 -12603816.62545541 -12603816.62545541 -4336642.269624418 0 0 0 0 0 90729057.58837929 -12214721.03979808 -12214721.03979808 -4390637.684080355 0 0 0 0 0 90592882.63104793 -12335584.25397744 -12335584.25397744 -4060615.882649866 0 0 0 0 0 91358223.09861182 -12072388.0300301 -12072388.0300301 -4558724.971518324 0 0 0 0 0 92001690.51389101 -11917959.00913177 -11917959.00913177 -4712519.789241055 0 0 0 0 0 92618344.96855506 -11781711.54473477 -11781711.54473477 -4848453.9412042 0 0 0 0 0 93113493.29356429 -11588177.15595706 -11588177.15595706 -4957508.372037481 0 0 0 0 0 93960006.47121343 -11393047.72551253 -11393047.72551253 -5123649.945491301 0 0 0 0 0 94936229.21599236 -10983318.58043276 -10983318.58043276 -5031986.145640784 0 0 0 0 0 94396128.69445452 -11204734.40345516 -11204734.40345516 -5280072.529141306 0 0 0 0 0 95349138.34505548 -10807491.26261766 -10807491.26261766 -5139099.159899946 0 0 0 0 0 95768950.60861599 -10581609.99009673 -10581609.99009673 -5182685.934055584 0 0 0 0 0 96115694.97994815 -10430876.57877184 -10430876.57877184 -5332257.269385769 0 0 0 0 0 96366195.37532547 -10252864.03050073 -10252864.03050073 -5554101.622565241 0 0 0 0 0 96726473.76710878 -10052666.06207586 -10052666.06207586 -5399401.113898399 0 0 0 0 0 71894653.90048206 -11919082.1525086 -11919082.1525086 765514.2567159132 0 0 0 0 0 56797302.72787122 -492671.0806495404 -492671.0806495404 3979706.563950405 0 0 0 0 0 57649743.0746091 -1499403.28496209 -1499403.28496209 3967367.942356384 0 0 0 0 0 58975474.52902558 -2733582.439625137 -2733582.439625137 4160590.545874779 0 0 0 0 0 59440626.07504264 -3838077.491183624 -3838077.491183624 4020200.115515766 0 0 0 0 0 60092135.71211548 -4888430.319780491 -4888430.319780491 3853804.654326443 0 0 0 0 0 60785719.86078134 -5903318.70366076 -5903318.70366076 3651413.390607055 0 0 0 0 0 61542250.66136637 -6875079.526653063 -6875079.526653063 3412707.991030654 0 0 0 0 0 61700064.07153869 -6895077.746172765 -6895077.746172765 3164702.98767981 0 0 0 0 0 63470768.39007256 -7775368.312809303 -7775368.312809303 3124708.936856172 0 0 0 0 0 64332002.95180295 -8605856.183630439 -8605856.183630439 2827322.559484594 0 0 0 0 0 65228794.40543105 -9386803.367960339 -9386803.367960339 2508369.877714896 0 0 0 0 0 66161298.81221559 -10113156.87650889 -10113156.87650889 2165643.102186271 0 0 0 0 0 67136060.7760461 -10780053.91583083 -10780053.91583083 1810074.12592642 0 0 0 0 0 68115933.66676481 -11385292.2757333 -11385292.2757333 1437520.943996532 0 0 0 0 0 68827599.46608512 -11194531.31962116 -11194531.31962116 1450714.424635063 0 0 0 0 0 70098145.64248043 -11685924.63963676 -11685924.63963676 1112118.738114711 0 0 0 0 0 71143151.24605112 -12175518.93845377 -12175518.93845377 751561.7661857703 0 0 0 0 0 72613655.69799 -11709937.62719814 -11709937.62719814 828865.73021901 0 0 0 0 0 73640957.25453338 -12100206.82903568 -12100206.82903568 493662.6823180327 0 0 0 0 0 75331708.92452936 -12197970.82253049 -12197970.82253049 177268.0880917654 0 0 0 0 0 74638670.71614347 -12408882.16725884 -12408882.16725884 107064.3720219357 0 0 0 0 0 76350827.70665452 -12510537.63721807 -12510537.63721807 -161600.7391230691 0 0 0 0 0 77371446.66604459 -12782558.5297388 -12782558.5297388 -499526.6260727243 0 0 0 0 0 78387737.27287623 -13015370.2190736 -13015370.2190736 -836124.4524335073 0 0 0 0 0 79397728.11053473 -13210058.22807495 -13210058.22807495 -1168853.004252778 0 0 0 0 0 80873606.76410349 -13064071.25397573 -13064071.25397573 -1421108.498550821 0 0 0 0 0 80104271.30018114 -13324725.37956179 -13324725.37956179 -1596633.156222179 0 0 0 0 0 81825611.00354321 -13182417.41059542 -13182417.41059542 -1733645.524393076 0 0 0 0 0 82763797.04828064 -13268950.02269476 -13268950.02269476 -2039201.591344196 0 0 0 0 0 83685979.24054806 -13325330.16464004 -13325330.16464004 -2336792.447120781 0 0 0 0 0 84590538.38422626 -13353271.950262 -13353271.950262 -2625469.994021092 0 0 0 0 0 85476053.78344332 -13354235.79580749 -13354235.79580749 -2904342.771370145 0 0 0 0 0 85841654.52522017 -13308225.74127245 -13308225.74127245 -3306188.833083278 0 0 0 0 0 87417414.60583 -12984674.71590402 -12984674.71590402 -3303799.29987399 0 0 0 0 0 86660530.94693869 -13264466.34820919 -13264466.34820919 -3566698.838219337 0 0 0 0 0 88210581.64639378 -12918076.35151388 -12918076.35151388 -3543804.188866907 0 0 0 0 0 88983653.21568541 -12830309.49724144 -12830309.49724144 -3772745.131417798 0 0 0 0 0 89735803.42297567 -12724281.48421506 -12724281.48421506 -3991462.89565805 0 0 0 0 0 90462512.50637622 -12605157.5145404 -12605157.5145404 -4200054.419071753 0 0 0 0 0 91261889.42307529 -12216988.0708286 -12216988.0708286 -4259455.120170265 0 0 0 0 0 90590981.09948272 -12476142.5945174 -12476142.5945174 -4531704.405942191 0 0 0 0 0 91929119.50119424 -12062763.46845782 -12062763.46845782 -4433088.796093585 0 0 0 0 0 92572342.2465743 -11906479.24361481 -11906479.24361481 -4584100.424230452 0 0 0 0 0 93182652.68722467 -11742513.63155368 -11742513.63155368 -4730502.503508025 0 0 0 0 0 93770283.3396735 -11571039.45996985 -11571039.45996985 -4921083.750734285 0 0 0 0 0 94300315.54646309 -11366953.52946 -11366953.52946 -5029987.82346927 0 0 0 0 0 94845766.21682006 -10978230.89495478 -10978230.89495478 -5373041.575339442 0 0 0 0 0 94881374.41464496 -11194979.2798716 -11194979.2798716 -5168059.371907961 0 0 0 0 0 95257528.99025981 -10780998.46714445 -10780998.46714445 -5429537.187295158 0 0 0 0 0 95729242.38425691 -10618198.34782316 -10618198.34782316 -5463459.63776991 0 0 0 0 0 96434019.50036497 -10459296.5123506 -10459296.5123506 -5502352.171200958 0 0 0 0 0 96783187.16255726 -10229654.38024601 -10229654.38024601 -5462252.455992199 0 0 0 0 0 97005690.68290327 -10098955.88767968 -10098955.88767968 -5596516.247236224 0 0 0 0 0 97761214.83475435 -9658028.572777679 -9658028.572777679 -5611001.000991777 0 0 0 0 0 97413479.27519095 -9823088.108537102 -9823088.108537102 -5462060.203944042 0 0 0 0 0 71844528.89518294 -11968003.75420707 -11968003.75420707 792951.0785258036 0 0 0 0 0 56472032.50639229 -494353.2251245524 -494353.2251245524 4074861.441314966 0 0 0 0 0 57315829.81570735 -1554436.925572001 -1554436.925572001 4175703.70659902 0 0 0 0 0 57514402.32030956 -2690581.907884282 -2690581.907884282 3786862.076476127 0 0 0 0 0 58148433.32519928 -3801250.204414585 -3801250.204414585 3688851.170956185 0 0 0 0 0 58864181.43383658 -4860289.119289232 -4860289.119289232 3541067.47542196 0 0 0 0 0 59651619.8083743 -5886040.978492296 -5886040.978492296 3368746.136808383 0 0 0 0 0 60519051.59232238 -6869342.711385723 -6869342.711385723 3164353.082987437 0 0 0 0 0 62365939.58539855 -7798038.82436972 -7798038.82436972 3141737.054460751 0 0 0 0 0 62611886.06942193 -7785056.500488181 -7785056.500488181 2926159.249272992 0 0 0 0 0 63579619.67171524 -8624868.155477699 -8624868.155477699 2659857.620160835 0 0 0 0 0 64593664.24843521 -9414040.610022672 -9414040.610022672 2371944.084335524 0 0 0 0 0 65668398.02691486 -10144121.68028894 -10144121.68028894 2070498.446486017 0 0 0 0 0 66772392.57378957 -10820891.83856776 -10820891.83856776 1751910.783994634 0 0 0 0 0 67929159.06935549 -11429873.53111325 -11429873.53111325 1433617.815509907 0 0 0 0 0 69217822.2636416 -11936520.39325994 -11936520.39325994 1084608.047323539 0 0 0 0 0 69915592.50331557 -11731113.75193586 -11731113.75193586 1102219.840047551 0 0 0 0 0 71000724.47308363 -12224063.14757211 -12224063.14757211 748707.5598358999 0 0 0 0 0 72903724.06450659 -12323395.22291737 -12323395.22291737 413896.4627362429 0 0 0 0 0 73914894.59158392 -12688755.13885605 -12688755.13885605 57263.30922506898 0 0 0 0 0 75630150.27590056 -12736107.84544563 -12736107.84544563 -254950.7184321904 0 0 0 0 0 74651622.82798719 -12459896.9931821 -12459896.9931821 144178.3907906115 0 0 0 0 0 76626181.12659036 -13021504.23594446 -13021504.23594446 -617223.8517146168 0 0 0 0 0 77621601.88634254 -13265913.31180714 -13265913.31180714 -976252.6278673944 0 0 0 0 0 78614236.89746653 -13471196.28985835 -13471196.28985835 -1330915.81612213 0 0 0 0 0 79600893.94779876 -13638486.27605925 -13638486.27605925 -1679195.359708495 0 0 0 0 0 81046024.39023699 -13450681.70649443 -13450681.70649443 -1927357.975208077 0 0 0 0 0 80398728.65683614 -13368103.44050546 -13368103.44050546 -1496769.510028145 0 0 0 0 0 81976916.90575881 -13543642.0771132 -13543642.0771132 -2249652.864310342 0 0 0 0 0 82894806.80006848 -13605193.36011983 -13605193.36011983 -2562448.054108756 0 0 0 0 0 83797598.9330294 -13637142.5060142 -13637142.5060142 -2865045.946251066 0 0 0 0 0 84683815.16763808 -13641248.15775558 -13641248.15775558 -3156637.272446639 0 0 0 0 0 85550801.70554382 -13618966.3650335 -13618966.3650335 -3436432.531264864 0 0 0 0 0 86340480.57663675 -13329659.90158104 -13329659.90158104 -3172563.094516991 0 0 0 0 0 87459921.33238214 -13198451.04079304 -13198451.04079304 -3815363.27320062 0 0 0 0 0 87183494.32352354 -13281526.70937827 -13281526.70937827 -3430340.502102645 0 0 0 0 0 88238740.60613325 -13111205.62441233 -13111205.62441233 -4052336.108538006 0 0 0 0 0 88998684.51475434 -13004845.57940665 -13004845.57940665 -4277190.289849848 0 0 0 0 0 89740254.82877952 -12882952.77986232 -12882952.77986232 -4489348.400942882 0 0 0 0 0 90455629.77744462 -12746048.57660918 -12746048.57660918 -4688747.706293768 0 0 0 0 0 91242044.58379444 -12326617.91857395 -12326617.91857395 -4715909.090847344 0 0 0 0 0 91161080.68018785 -12472462.40857712 -12472462.40857712 -4398358.0304337 0 0 0 0 0 91907156.90557221 -12170211.58862583 -12170211.58862583 -4882908.283371072 0 0 0 0 0 92540090.76789296 -12002953.81913216 -12002953.81913216 -5041711.765155721 0 0 0 0 0 93114135.29473998 -11812316.223444 -11812316.223444 -5209158.805486528 0 0 0 0 0 93696552.82785355 -11629520.53017977 -11629520.53017977 -5305480.80477399 0 0 0 0 0 94260193.10448074 -11444440.22371693 -11444440.22371693 -5459900.521468656 0 0 0 0 0 95445674.87678671 -10985116.27411009 -10985116.27411009 -5279100.537452035 0 0 0 0 0 94824234.58561829 -11225270.85498378 -11225270.85498378 -5567592.513983744 0 0 0 0 0 95931455.89988522 -10771367.26215117 -10771367.26215117 -5348686.685415473 0 0 0 0 0 96208804.17392829 -10570905.18100535 -10570905.18100535 -5412550.609026083 0 0 0 0 0 96396347.71896754 -10365906.82511927 -10365906.82511927 -5669871.233045479 0 0 0 0 0 96164808.77960195 -10503054.61340271 -10503054.61340271 -5590811.243637779 0 0 0 0 0 96691195.63606663 -10201399.72076734 -10201399.72076734 -5751864.100248768 0 0 0 0 0 96996648.74185935 -9992785.046593444 -9992785.046593444 -5702254.833986476 0 0 0 0 0 97387430.41125365 -9875427.432630977 -9875427.432630977 -5828416.318002423 0 0 0 0 0 97824552.58563739 -9692528.332940793 -9692528.332940793 -5931702.798982864 0 0 0 0 0 98205419.50485583 -9459466.638628546 -9459466.638628546 -5715559.89970348 0 0 0 0 0 72145112.31191307 -12613373.18889684 -12613373.18889684 371138.3214993401 0 0 0 0 0 55578945.41718463 -573157.843899638 -573157.843899638 3950989.864532178 0 0 0 0 0 55768380.30702426 -1573552.73541853 -1573552.73541853 3775698.17165265 0 0 0 0 0 57680632.9537083 -2546286.845626981 -2546286.845626981 4136115.193591056 0 0 0 0 0 58310698.20601436 -3676125.645422182 -3676125.645422182 3995718.583217037 0 0 0 0 0 58890753.29328934 -4770640.14525295 -4770640.14525295 3858756.208411595 0 0 0 0 0 59602153.20306936 -5824326.476671997 -5824326.476671997 3660287.1624178 0 0 0 0 0 60373986.1838107 -6843101.033702607 -6843101.033702607 3422648.313055034 0 0 0 0 0 61215997.65069732 -7811415.874570626 -7811415.874570626 3151360.208168516 0 0 0 0 0 61454985.74985667 -7802586.051833129 -7802586.051833129 2927285.033907202 0 0 0 0 0 63250621.18771537 -8669688.274025127 -8669688.274025127 2842192.492065291 0 0 0 0 0 64188791.07322378 -9488579.103338303 -9488579.103338303 2517045.998957274 0 0 0 0 0 65168581.96669698 -10253583.50271172 -10253583.50271172 2169957.690710729 0 0 0 0 0 66169295.31970444 -10965981.77869834 -10965981.77869834 1801788.516846959 0 0 0 0 0 67216947.60761239 -11619002.25764575 -11619002.25764575 1421492.795903253 0 0 0 0 0 68277516.30678447 -12198200.14302861 -12198200.14302861 1037762.60885575 0 0 0 0 0 69032426.53353548 -11980558.94460709 -11980558.94460709 1073919.396312854 0 0 0 0 0 70280640.07179564 -12436976.95990839 -12436976.95990839 709353.9366052129 0 0 0 0 0 71387405.14084186 -12892462.23715024 -12892462.23715024 335349.6380109323 0 0 0 0 0 72901373.76774146 -12372598.80507231 -12372598.80507231 450727.4754224921 0 0 0 0 0 73980663.9228276 -12738461.75455591 -12738461.75455591 108980.2833210126 0 0 0 0 0 75702212.54343809 -12786671.41503162 -12786671.41503162 -203358.5366852335 0 0 0 0 0 74959141.64601003 -13020763.777449 -13020763.777449 -300406.848753797 0 0 0 0 0 76762160.1933638 -13070986.46548816 -13070986.46548816 -551051.3183836257 0 0 0 0 0 77817839.36003394 -13313790.18102659 -13313790.18102659 -896790.7133129137 0 0 0 0 0 78867414.82724191 -13516808.72176306 -13516808.72176306 -1239393.660239512 0 0 0 0 0 79906068.94492234 -13681411.71150223 -13681411.71150223 -1577063.539069188 0 0 0 0 0 81386708.25020035 -13491055.36239121 -13491055.36239121 -1818497.997067379 0 0 0 0 0 80577953.08724977 -13769418.35954927 -13769418.35954927 -2019956.26935035 0 0 0 0 0 82360211.02299497 -13580528.27229423 -13580528.27229423 -2132991.592489487 0 0 0 0 0 83316772.95687829 -13638291.42811868 -13638291.42811868 -2439135.577677491 0 0 0 0 0 84254997.21463256 -13666215.26081006 -13666215.26081006 -2736025.732768557 0 0 0 0 0 85173001.56428386 -13665963.20905394 -13665963.20905394 -3022925.23604645 0 0 0 0 0 86069551.87142713 -13639108.54549611 -13639108.54549611 -3298831.368292082 0 0 0 0 0 86398643.95826371 -13571909.6928894 -13571909.6928894 -3704026.507157494 0 0 0 0 0 88004327.80003901 -13210901.4551851 -13210901.4551851 -3676879.180142414 0 0 0 0 0 87226249.17300621 -13501638.37170723 -13501638.37170723 -3958970.215743524 0 0 0 0 0 88803438.7438485 -13119240.30849861 -13119240.30849861 -3911946.705330776 0 0 0 0 0 89579623.25218742 -13008531.58185598 -13008531.58185598 -4135862.995535611 0 0 0 0 0 90331289.42318907 -12881825.87275294 -12881825.87275294 -4348746.802606085 0 0 0 0 0 91056794.09718844 -12740248.96406964 -12740248.96406964 -4549035.225956456 0 0 0 0 0 91840497.52513435 -12319159.96998121 -12319159.96998121 -4578879.402394958 0 0 0 0 0 91141094.25311241 -12592202.53257441 -12592202.53257441 -4874703.792822546 0 0 0 0 0 92500792.90458265 -12155149.87424235 -12155149.87424235 -4751311.0683805 0 0 0 0 0 93130073.30225416 -11987544.29986342 -11987544.29986342 -4911186.408049817 0 0 0 0 0 93731946.81767201 -11805351.39730139 -11805351.39730139 -5066281.050812691 0 0 0 0 0 94326615.88287558 -11598018.73110918 -11598018.73110918 -5176376.495892756 0 0 0 0 0 94881977.61956148 -11405148.26585365 -11405148.26585365 -5338043.103923928 0 0 0 0 0 95355108.088416 -10981533.96898372 -10981533.96898372 -5637209.449112564 0 0 0 0 0 95421806.56177643 -11196772.485624 -11196772.485624 -5455066.206182644 0 0 0 0 0 95843689.33608763 -10699844.31678625 -10699844.31678625 -5611829.75647707 0 0 0 0 0 96820193.07615261 -10308614.18279754 -10308614.18279754 -5619334.032060149 0 0 0 0 0 96515418.73513027 -10528244.46692684 -10528244.46692684 -5722369.016484455 0 0 0 0 0 97291147.29829501 -10178766.47635193 -10178766.47635193 -5683014.244929353 0 0 0 0 0 97562004.75020325 -9978423.907523001 -9978423.907523001 -5723373.566844607 0 0 0 0 0 97637231.91872604 -9821230.14477841 -9821230.14477841 -5734719.29505865 0 0 0 0 0 98185076.81692502 -9645109.018424353 -9645109.018424353 -5828332.829860359 0 0 0 0 0 98271425.88162325 -9471123.455782047 -9471123.455782047 -6010987.282014358 0 0 0 0 0 98644879.99176015 -9249955.239012927 -9249955.239012927 -5806210.791768674 0 0 0 0 0 72145667.01724355 -12660840.54915108 -12660840.54915108 406733.0874472535 0 0 0 0 0 54811588.46485045 -523035.0338241526 -523035.0338241526 3883193.273800208 0 0 0 0 0 56842553.86083279 -2018477.679650046 -2018477.679650046 4250569.727256354 0 0 0 0 0 56062549.66002802 -2406397.078015294 -2406397.078015294 3699439.689395231 0 0 0 0 0 56957015.93166866 -3615491.365898679 -3615491.365898679 3631237.476479323 0 0 0 0 0 57624857.65225555 -4743278.565497216 -4743278.565497216 3535009.592391902 0 0 0 0 0 58405065.82456008 -5803460.287745113 -5803460.287745113 3359725.747717683 0 0 0 0 0 59288916.1541668 -6832069.02357497 -6832069.02357497 3155963.991872935 0 0 0 0 0 60249476.85777326 -7810431.816042285 -7810431.816042285 2919768.557784683 0 0 0 0 0 62123792.26667855 -8726070.806810435 -8726070.806810435 2850387.262250184 0 0 0 0 0 62451282.310859 -8683562.028688861 -8683562.028688861 2660712.864179434 0 0 0 0 0 63500874.59298785 -9511008.015470456 -9511008.015470456 2368057.276273866 0 0 0 0 0 64589470.82256941 -10286621.50789238 -10286621.50789238 2051197.814815261 0 0 0 0 0 65725396.41782387 -11004253.53117699 -11004253.53117699 1721350.84564397 0 0 0 0 0 66901607.44187234 -11659338.55185922 -11659338.55185922 1374660.182930003 0 0 0 0 0 68110616.05329619 -12235600.20055096 -12235600.20055096 1031613.070189744 0 0 0 0 0 69407109.31960116 -12710431.78662728 -12710431.78662728 660502.3768593533 0 0 0 0 0 70183053.40172645 -12480883.25093749 -12480883.25093749 721799.4911572451 0 0 0 0 0 71309766.62535734 -12938863.71181629 -12938863.71181629 346892.7311363281 0 0 0 0 0 73189868.99919945 -12990022.33389642 -12990022.33389642 2627.888891838262 0 0 0 0 0 74242972.56602097 -13323798.76826332 -13323798.76826332 -366636.1216885512 0 0 0 0 0 75990872.1312051 -13318442.23306081 -13318442.23306081 -672611.7045501665 0 0 0 0 0 75036443.64061061 -13070329.71046801 -13070329.71046801 -248722.0306604486 0 0 0 0 0 77023936.22356662 -13573663.7347593 -13573663.7347593 -1042609.879932175 0 0 0 0 0 78054120.46180809 -13787674.5322769 -13787674.5322769 -1408134.16488906 0 0 0 0 0 79077643.03211778 -13962054.17865618 -13962054.17865618 -1767348.829630054 0 0 0 0 0 80092952.05584413 -14098060.70273851 -14098060.70273851 -2118259.805604001 0 0 0 0 0 81543705.15389803 -13865713.61437791 -13865713.61437791 -2352199.156188083 0 0 0 0 0 80932157.31082527 -13809054.13063746 -13809054.13063746 -1908366.219076438 0 0 0 0 0 82496123.01010688 -13928691.3728951 -13928691.3728951 -2673925.751468492 0 0 0 0 0 83432506.76626943 -13960839.94841745 -13960839.94841745 -2985148.519191824 0 0 0 0 0 84351485.03641815 -13963745.58446477 -13963745.58446477 -3284995.937437647 0 0 0 0 0 85251245.64574191 -13939182.07709287 -13939182.07709287 -3572698.826418462 0 0 0 0 0 86129878.6340701 -13888785.32819045 -13888785.32819045 -3847641.533272186 0 0 0 0 0 86943268.01257053 -13587556.33825098 -13587556.33825098 -3563409.093606694 0 0 0 0 0 88032970.04344852 -13409811.71231502 -13409811.71231502 -4201618.883729866 0 0 0 0 0 87793530.7124155 -13512699.56643379 -13512699.56643379 -3816117.736391658 0 0 0 0 0 88818418.74896206 -13298149.49414505 -13298149.49414505 -4431598.824537689 0 0 0 0 0 89582528.65809281 -13169023.88089688 -13169023.88089688 -4648642.429670362 0 0 0 0 0 90322793.9763934 -13024253.81863887 -13024253.81863887 -4852392.886519013 0 0 0 0 0 91035233.65162756 -12863476.10390232 -12863476.10390232 -5042869.169071325 0 0 0 0 0 91811405.22219867 -12425146.7137205 -12425146.7137205 -5049139.964539225 0 0 0 0 0 91758118.0838424 -12582277.39630538 -12582277.39630538 -4735257.669890384 0 0 0 0 0 92466823.999474 -12250466.9940569 -12250466.9940569 -5209783.277631455 0 0 0 0 0 93083753.06493099 -12062365.2542974 -12062365.2542974 -5358142.832734236 0 0 0 0 0 93676967.08370064 -11862033.53387083 -11862033.53387083 -5493706.572522904 0 0 0 0 0 94265044.46991697 -11651615.49756531 -11651615.49756531 -5622853.840807355 0 0 0 0 0 94816736.71987435 -11439688.73114204 -11439688.73114204 -5738384.760780607 0 0 0 0 0 95968081.01668732 -10952458.1167638 -10952458.1167638 -5539375.59200025 0 0 0 0 0 95346294.22404441 -11204857.52062779 -11204857.52062779 -5836353.268598481 0 0 0 0 0 96354264.70460132 -10732414.22572869 -10732414.22572869 -5714759.804665715 0 0 0 0 0 96843226.38783099 -10366432.71869573 -10366432.71869573 -5901287.839125057 0 0 0 0 0 96389822.81108902 -10572956.38135833 -10572956.38135833 -5785392.940343181 0 0 0 0 0 97200261.69757217 -10108031.42812373 -10108031.42812373 -5919572.884700621 0 0 0 0 0 97807668.38957715 -9876582.20722655 -9876582.20722655 -6035400.83911471 0 0 0 0 0 98199078.71382478 -9646219.220419876 -9646219.220419876 -6108583.616349102 0 0 0 0 0 98618269.65592512 -9439882.584278613 -9439882.584278613 -5909514.212640961 0 0 0 0 0 98727210.1497128 -9267121.163587822 -9267121.163587822 -6067216.261211637 0 0 0 0 0 72429464.06173423 -13297510.50561889 -13297510.50561889 -65185.15009281591 0 0 0 0 0 54286295.13876731 -553467.7928374473 -553467.7928374473 3923789.180168699 0 0 0 0 0 55352401.04410904 -1727834.917139903 -1727834.917139903 4125337.783183994 0 0 0 0 0 54687802.38384594 -2056476.761024489 -2056476.761024489 3609215.763942982 0 0 0 0 0 56895842.10541232 -3537989.94102299 -3537989.94102299 3918418.874576339 0 0 0 0 0 57683204.36102954 -4644077.586034595 -4644077.586034595 3858950.740895273 0 0 0 0 0 58377818.83662028 -5732087.297181913 -5732087.297181913 3665722.272390234 0 0 0 0 0 59156852.27914814 -6800041.406928239 -6800041.406928239 3423198.130822091 0 0 0 0 0 60018173.93196807 -7815394.046665764 -7815394.046665764 3150987.233992369 0 0 0 0 0 60950054.72018656 -8774464.008713899 -8774464.008713899 2848903.131672997 0 0 0 0 0 61274845.94140747 -8734217.083819801 -8734217.083819801 2653171.055747695 0 0 0 0 0 63090693.10301735 -9585560.416022481 -9585560.416022481 2523324.074030033 0 0 0 0 0 64109827.61238192 -10389095.93240809 -10389095.93240809 2173814.015861799 0 0 0 0 0 65174613.16972622 -11134903.76172196 -11134903.76172196 1804569.514022852 0 0 0 0 0 66275078.82723986 -11821132.67326767 -11821132.67326767 1418057.615010073 0 0 0 0 0 67396777.96959157 -12444390.85709194 -12444390.85709194 1021123.936610542 0 0 0 0 0 68502156.32467763 -12991128.38909816 -12991128.38909816 616375.4175941844 0 0 0 0 0 69297527.26871896 -12751220.25877308 -12751220.25877308 667689.892611953 0 0 0 0 0 70538636.7642822 -13176607.50655128 -13176607.50655128 283790.1634877612 0 0 0 0 0 71691394.98085706 -13605316.33209209 -13605316.33209209 -114403.6258691275 0 0 0 0 0 73267172.68805972 -13039672.1719512 -13039672.1719512 58439.06042312433 0 0 0 0 0 74385860.73544861 -13371727.24086476 -13371727.24086476 -298372.2986786927 0 0 0 0 0 76128927.56873992 -13367448.5930422 -13367448.5930422 -606265.2613136371 0 0 0 0 0 75329367.07617816 -13624442.40946449 -13624442.40946449 -734864.2022116942 0 0 0 0 0 77225815.51119353 -13620838.14786788 -13620838.14786788 -962275.4806123786 0 0 0 0 0 78316718.59143171 -13832584.02708643 -13832584.02708643 -1314839.486369621 0 0 0 0 0 79397779.28352812 -14003967.82240319 -14003967.82240319 -1662340.489495752 0 0 0 0 0 80463449.77129929 -14136734.88471544 -14136734.88471544 -2003399.108496322 0 0 0 0 0 81943770.11340052 -13901683.53360282 -13901683.53360282 -2232168.991421536 0 0 0 0 0 81095789.91942173 -14197922.96374958 -14197922.96374958 -2460591.539389024 0 0 0 0 0 82935524.57512461 -13960974.17798621 -13960974.17798621 -2546997.948933761 0 0 0 0 0 83908675.56644885 -13988955.27017324 -13988955.27017324 -2852274.837622887 0 0 0 0 0 84860967.99810599 -13987375.25002056 -13987375.25002056 -3147209.829196369 0 0 0 0 0 85790480.4856426 -13958132.2424909 -13958132.2424909 -3430931.878482539 0 0 0 0 0 86696200.15028766 -13902987.02795712 -13902987.02795712 -3702671.422725566 0 0 0 0 0 86986863.21751916 -13814190.92517301 -13814190.92517301 -4109395.21234408 0 0 0 0 0 88619734.47696389 -13416164.07016546 -13416164.07016546 -4057119.696630901 0 0 0 0 0 87821778.78978521 -13717160.38645207 -13717160.38645207 -4357825.082772874 0 0 0 0 0 89421742.45224732 -13299905.77624052 -13299905.77624052 -4286256.504733741 0 0 0 0 0 90198414.07061221 -13166109.78053082 -13166109.78053082 -4503465.962270479 0 0 0 0 0 90948736.06163102 -13016473.03745321 -13016473.03745321 -4707994.705864228 0 0 0 0 0 91673046.97620411 -12851236.10467937 -12851236.10467937 -4898961.130725837 0 0 0 0 0 92434950.12744525 -12410349.71714336 -12410349.71714336 -4910307.418568193 0 0 0 0 0 91724202.19763765 -12688673.83667918 -12688673.83667918 -5219653.510053728 0 0 0 0 0 93085093.716052 -12230632.87272161 -12230632.87272161 -5075546.409717613 0 0 0 0 0 93709300.49713659 -12039480.54238825 -12039480.54238825 -5224572.28383187 0 0 0 0 0 94313025.37109782 -11832955.16110774 -11832955.16110774 -5361531.038546382 0 0 0 0 0 94889635.67449698 -11625074.83454869 -11625074.83454869 -5491634.876398201 0 0 0 0 0 95442769.45649132 -11405562.25160221 -11405562.25160221 -5611928.921155679 0 0 0 0 0 95955033.26436658 -11000695.32249173 -11000695.32249173 -5907441.787980493 0 0 0 0 0 95986975.55044974 -11171751.3235452 -11171751.3235452 -5715090.87772416 0 0 0 0 0 96400072.97454184 -10745615.9604705 -10745615.9604705 -5708440.352488376 0 0 0 0 0 97351392.13420109 -10321833.51415814 -10321833.51415814 -5808570.54956081 0 0 0 0 0 96936955.77494998 -10592406.84853935 -10592406.84853935 -5793483.390376767 0 0 0 0 0 97791198.7407524 -10070703.09555365 -10070703.09555365 -5876138.223747319 0 0 0 0 0 98185892.08095415 -9831490.462898079 -9831490.462898079 -5926110.247825977 0 0 0 0 0 98630570.10946441 -9613421.599081177 -9613421.599081177 -5994798.602270879 0 0 0 0 0 98621625.7709453 -9425498.166919678 -9425498.166919678 -6181714.0744339 0 0 0 0 0 99051963.85792488 -9045383.995931357 -9045383.995931357 -5891401.030834882 0 0 0 0 0 98953200.23907895 -9238660.048345068 -9238660.048345068 -5997438.258782119 0 0 0 0 0 99495937.52476683 -8825035.444912905 -8825035.444912905 -5950551.983640739 0 0 0 0 0 72522376.89397384 -13345230.53202562 -13345230.53202562 -7393.177525502308 0 0 0 0 0 53652043.94477013 -481473.1351932581 -481473.1351932581 3873300.119658461 0 0 0 0 0 53724380.46291588 -1628858.515847925 -1628858.515847925 3656253.438174709 0 0 0 0 0 55954784.30008242 -2713562.433777092 -2713562.433777092 4118955.893708332 0 0 0 0 0 56057967.13838399 -3560532.264072716 -3560532.264072716 3789712.786930582 0 0 0 0 0 56427711.87239441 -4658492.479020672 -4658492.479020672 3548086.787062881 0 0 0 0 0 57106321.42467996 -5717832.403354628 -5717832.403354628 3350254.560758588 0 0 0 0 0 58008065.37654345 -6785075.466649949 -6785075.466649949 3138156.930217636 0 0 0 0 0 58994084.0769091 -7808343.526437134 -7808343.526437134 2901578.262254168 0 0 0 0 0 60048840.54998874 -8776669.722270517 -8776669.722270517 2635159.777278652 0 0 0 0 0 61944713.36773944 -9675897.305660304 -9675897.305660304 2518848.44945271 0 0 0 0 0 62357191.62885064 -9601767.233796259 -9601767.233796259 2359134.611073238 0 0 0 0 0 63489547.12515548 -10411857.3893696 -10411857.3893696 2041119.440624364 0 0 0 0 0 64664180.49969594 -11163728.69757206 -11163728.69757206 1701873.544837793 0 0 0 0 0 65874287.60118877 -11856200.8153547 -11856200.8153547 1346115.920848309 0 0 0 0 0 67107395.47338063 -12481132.8675932 -12481132.8675932 977353.7526694197 0 0 0 0 0 68379573.1073799 -13030065.53525249 -13030065.53525249 620740.2294766062 0 0 0 0 0 69671348.27999562 -13471582.17187555 -13471582.17187555 222447.5079179032 0 0 0 0 0 70487556.43066946 -13218346.35533717 -13218346.35533717 302727.2399172646 0 0 0 0 0 71698279.49612255 -13650045.98260279 -13650045.98260279 -82883.47871235559 0 0 0 0 0 73535129.07654741 -13643853.61061774 -13643853.61061774 -440337.6250207472 0 0 0 0 0 74629271.14799406 -13948498.20856421 -13948498.20856421 -817637.1032291469 0 0 0 0 0 76402330.12270996 -13890617.51732489 -13890617.51732489 -1114294.422929187 0 0 0 0 0 75483255.07996815 -13671772.11635563 -13671772.11635563 -666147.6907366186 0 0 0 0 0 77472334.05668832 -14113859.77222436 -14113859.77222436 -1490953.220155214 0 0 0 0 0 78536135.79151952 -14295879.66237841 -14295879.66237841 -1861580.009553425 0 0 0 0 0 79589484.96622083 -14437562.67180157 -14437562.67180157 -2223525.029519274 0 0 0 0 0 80630772.55883773 -14541050.07795723 -14541050.07795723 -2575727.788484393 0 0 0 0 0 82083340.14025015 -14262774.4302956 -14262774.4302956 -2791638.391360764 0 0 0 0 0 81513560.04215109 -14233147.43480805 -14233147.43480805 -2336712.986914863 0 0 0 0 0 83054910.55851628 -14295065.03297259 -14295065.03297259 -3111863.96867169 0 0 0 0 0 84008446.57385609 -14296556.8797798 -14296556.8797798 -3419941.464450933 0 0 0 0 0 84941610.80761893 -14269391.56570306 -14269391.56570306 -3715470.040456689 0 0 0 0 0 85852835.91920923 -14215364.06374101 -14215364.06374101 -3997905.677458049 0 0 0 0 0 86741243.25714636 -14136155.89280655 -14136155.89280655 -4266583.945901137 0 0 0 0 0 87577155.83504383 -13823668.34662471 -13823668.34662471 -3962146.477931387 0 0 0 0 0 88634251.67441995 -13599716.21177134 -13599716.21177134 -4593044.637233558 0 0 0 0 0 88432249.50088593 -13721699.18330764 -13721699.18330764 -4208978.593546067 0 0 0 0 0 89423441.87770784 -13463586.93899512 -13463586.93899512 -4814678.945332746 0 0 0 0 0 90188158.26009205 -13310793.42780089 -13310793.42780089 -5022530.967361394 0 0 0 0 0 90926532.12979254 -13142199.12686713 -13142199.12686713 -5216619.621465078 0 0 0 0 0 91639764.99570066 -12959178.36892558 -12959178.36892558 -5396846.317668413 0 0 0 0 0 92394371.86373118 -12503350.58523709 -12503350.58523709 -5383587.450548321 0 0 0 0 0 92371896.4075413 -12671617.85400462 -12671617.85400462 -5076759.179001925 0 0 0 0 0 93037263.71600057 -12307527.31303665 -12307527.31303665 -5533764.20568794 0 0 0 0 0 93651124.1791663 -12098535.12267817 -12098535.12267817 -5671580.707026161 0 0 0 0 0 94251225.42692088 -11883269.13674182 -11883269.13674182 -5798514.936855051 0 0 0 0 0 94818655.99188475 -11658579.51922377 -11658579.51922377 -5913963.770996378 0 0 0 0 0 95364627.57333563 -11425092.756535 -11425092.756535 -6019729.342586967 0 0 0 0 0 96485218.31752208 -10952437.60250858 -10952437.60250858 -5805048.289165232 0 0 0 0 0 95926434.87904227 -11199693.51120763 -11199693.51120763 -6104650.194899967 0 0 0 0 0 96434596.84587485 -10778938.20378162 -10778938.20378162 -6054017.236562606 0 0 0 0 0 97253684.67112376 -10293189.95540059 -10293189.95540059 -6149349.516474736 0 0 0 0 0 96827238.47098821 -10520745.23937969 -10520745.23937969 -6067317.195830027 0 0 0 0 0 97716173.4475942 -10061565.20546706 -10061565.20546706 -6173014.212268069 0 0 0 0 0 98140740.96152461 -9832364.384499136 -9832364.384499136 -6252129.702995534 0 0 0 0 0 98575617.33488782 -9587066.450312892 -9587066.450312892 -6281279.752299901 0 0 0 0 0 99042463.40408175 -9399581.992030187 -9399581.992030187 -6067197.384023732 0 0 0 0 0 99130186.42378947 -9048790.018613184 -9048790.018613184 -6151683.799196618 0 0 0 0 0 99157755.81506999 -9276588.423417628 -9276588.423417628 -6182869.802181366 0 0 0 0 0 99467279.98951645 -8801484.427861771 -8801484.427861771 -6237379.042545273 0 0 0 0 0 99851491.13112384 -8608374.183083773 -8608374.183083773 -6021497.578218558 0 0 0 0 0 72798403.56401543 -13981384.82337843 -13981384.82337843 -517781.8604347203 0 0 0 0 0 52880789.12053821 -589666.4220261093 -589666.4220261093 3785292.177117712 0 0 0 0 0 53620280.69353407 -1614368.078925059 -1614368.078925059 3783370.616219985 0 0 0 0 0 54500466.47492179 -2394956.04410643 -2394956.04410643 4060609.548753041 0 0 0 0 0 54879386.61717343 -3661378.779010109 -3661378.779010109 3554478.409568038 0 0 0 0 0 53826640.02435389 -2805481.646841485 -2805481.646841485 3481209.478064008 0 0 0 0 0 56402569.59256165 -4591306.720670302 -4591306.720670302 3849416.025665908 0 0 0 0 0 57106448.13670168 -5648411.871538155 -5648411.871538155 3628892.725115014 0 0 0 0 0 57889000.58377665 -6752245.97943296 -6752245.97943296 3397087.382137943 0 0 0 0 0 58769675.02864759 -7810732.109440892 -7810732.109440892 3135243.126799034 0 0 0 0 0 59727288.05305009 -8814738.594384989 -8814738.594384989 2835769.364039036 0 0 0 0 0 60750646.58447777 -9760191.662227426 -9760191.662227426 2504476.046952012 0 0 0 0 0 61165010.80374893 -9686783.672799328 -9686783.672799328 2340014.816955585 0 0 0 0 0 62995103.69563337 -10518419.06688926 -10518419.06688926 2164139.348546487 0 0 0 0 0 64094114.49833955 -11300959.68105229 -11300959.68105229 1788337.112914054 0 0 0 0 0 65234338.90128883 -12022564.26458772 -12022564.26458772 1395549.016240101 0 0 0 0 0 66410175.17897907 -12680937.75713495 -12680937.75713495 990586.5726455023 0 0 0 0 0 67580472.25148135 -13270251.12988673 -13270251.12988673 571083.7790216634 0 0 0 0 0 68761200.79894653 -13782600.34384333 -13782600.34384333 153985.7815258736 0 0 0 0 0 69635679.37907572 -13512101.10792475 -13512101.10792475 246796.3678860815 0 0 0 0 0 70857888.84235781 -13909206.26306499 -13909206.26306499 -179145.839207086 0 0 0 0 0 72062876.68376264 -14308550.65948058 -14308550.65948058 -587767.0266374659 0 0 0 0 0 73675221.35912195 -13690475.97646241 -13690475.97646241 -373602.9766597808 0 0 0 0 0 74844008.57947217 -13994744.7574238 -13994744.7574238 -734471.9710503694 0 0 0 0 0 76614205.24399747 -13937203.40254948 -13937203.40254948 -1031975.490617132 0 0 0 0 0 75754548.51816365 -14218139.92225578 -14218139.92225578 -1195090.207141286 0 0 0 0 0 77745587.05845067 -14158159.3278128 -14158159.3278128 -1395522.681026553 0 0 0 0 0 78868738.64680856 -14337345.62771937 -14337345.62771937 -1753846.695406383 0 0 0 0 0 79976269.0851714 -14475581.12405577 -14475581.12405577 -2105212.445135573 0 0 0 0 0 81065937.42055069 -14575091.76792636 -14575091.76792636 -2448427.052948707 0 0 0 0 0 82543027.64873582 -14294023.88773347 -14294023.88773347 -2660635.95003742 0 0 0 0 0 81656626.72257224 -14608079.22716467 -14608079.22716467 -2916949.444757259 0 0 0 0 0 83552580.74050869 -14321928.50400447 -14321928.50400447 -2974793.075663713 0 0 0 0 0 84539659.23993438 -14318895.80389389 -14318895.80389389 -3277836.586674696 0 0 0 0 0 85503445.42228335 -14286936.93055448 -14286936.93055448 -3569309.332828599 0 0 0 0 0 86442471.86879776 -14227907.84885683 -14227907.84885683 -3848497.169841357 0 0 0 0 0 87355227.04095604 -14143742.71552768 -14143742.71552768 -4114790.877473345 0 0 0 0 0 87605901.49156854 -14033667.58124907 -14033667.58124907 -4521027.942494703 0 0 0 0 0 89261642.51781131 -13599385.45641684 -13599385.45641684 -4443409.140154102 0 0 0 0 0 88446610.97526881 -13909857.74862411 -13909857.74862411 -4761574.793952129 0 0 0 0 0 90064329.32326151 -13458441.38887211 -13458441.38887211 -4665039.582666143 0 0 0 0 0 90839978.98704197 -13300719.66813278 -13300719.66813278 -4873603.440615694 0 0 0 0 0 91588010.3574165 -13127263.83943324 -13127263.83943324 -5068660.229240749 0 0 0 0 0 92308886.88980216 -12939589.29395988 -12939589.29395988 -5250281.347486631 0 0 0 0 0 93042780.74090582 -12481553.13811499 -12481553.13811499 -5243969.877855553 0 0 0 0 0 92329003.46874779 -12764108.46613339 -12764108.46613339 -5563376.856874335 0 0 0 0 0 93686865.45393877 -12280998.96249284 -12280998.96249284 -5396859.147550461 0 0 0 0 0 94305574.973685 -12068691.68092306 -12068691.68092306 -5535975.905705477 0 0 0 0 0 94899971.65032116 -11849404.93746534 -11849404.93746534 -5666494.277122193 0 0 0 0 0 95469762.21588315 -11621646.44471837 -11621646.44471837 -5783382.48174722 0 0 0 0 0 96020497.10083449 -11384681.86345812 -11384681.86345812 -5890439.559418813 0 0 0 0 0 96401607.84108259 -10958432.90727986 -10958432.90727986 -6192213.336244443 0 0 0 0 0 96537138.87551866 -11155242.64086563 -11155242.64086563 -5989334.921543233 0 0 0 0 0 96956141.848527 -10737576.05783686 -10737576.05783686 -5938780.967732414 0 0 0 0 0 97872073.10766323 -10248543.75550034 -10248543.75550034 -6031898.996186187 0 0 0 0 0 97439239.803086 -10491868.2403821 -10491868.2403821 -5963742.688131334 0 0 0 0 0 98296599.99590342 -10001508.00211336 -10001508.00211336 -6075123.437176927 0 0 0 0 0 98698859.24589224 -9762090.24225647 -9762090.24225647 -6141504.236146025 0 0 0 0 0 99085408.98795547 -9528827.118322613 -9528827.118322613 -6190431.960020468 0 0 0 0 0 98944545.72331205 -9338940.279336909 -9338940.279336909 -6282198.618426533 0 0 0 0 0 99294348.04208429 -9031160.460066393 -9031160.460066393 -6100491.188469884 0 0 0 0 0 99935854.56572466 -8758590.936633231 -8758590.936633231 -6153534.822786644 0 0 0 0 0 99961783.52373677 -8604737.942153299 -8604737.942153299 -6234663.152336023 0 0 0 0 0 100222342.6713045 -8383775.371222818 -8383775.371222818 -6073399.148055935 0 0 0 0 0 72951501.8077452 -14025484.42771834 -14025484.42771834 -450159.709740567 0 0 0 0 0 52349913.40523212 -522386.3992322672 -522386.3992322672 3738688.13048228 0 0 0 0 0 53239174.97636697 -1607336.959810738 -1607336.959810738 3833731.225044725 0 0 0 0 0 52598509.26770759 -2445198.457339309 -2445198.457339309 3487597.286075795 0 0 0 0 0 55718404.0790886 -4006120.964727833 -4006120.964727833 3974558.305922786 0 0 0 0 0 54935206.05437142 -3371746.139811722 -3371746.139811722 3979703.081749585 0 0 0 0 0 54891859.74085532 -4577570.466879428 -4577570.466879428 3402293.113407637 0 0 0 0 0 55721094.28872063 -5583170.382018491 -5583170.382018491 3238647.894676826 0 0 0 0 0 56673080.23424484 -6713327.14565022 -6713327.14565022 3080239.585297442 0 0 0 0 0 57686163.08591738 -7791929.43686738 -7791929.43686738 2863708.067997898 0 0 0 0 0 58770694.0964113 -8808654.547957262 -8808654.547957262 2603165.51473072 0 0 0 0 0 59921448.99120917 -9764414.426023871 -9764414.426023871 2309282.627591291 0 0 0 0 0 61833437.73139373 -10644451.53863875 -10644451.53863875 2145883.587733219 0 0 0 0 0 62334829.3129701 -10536949.61151155 -10536949.61151155 2018971.634634055 0 0 0 0 0 63550908.60483631 -11325886.5762688 -11325886.5762688 1675386.016899636 0 0 0 0 0 64806179.24492761 -12051754.85946701 -12051754.85946701 1313176.242618533 0 0 0 0 0 66094427.33947553 -12713046.17213103 -12713046.17213103 936078.3025111387 0 0 0 0 0 67415336.7476576 -13305783.06274694 -13305783.06274694 557784.4622179549 0 0 0 0 0 68757028.79038766 -13819731.70921335 -13819731.70921335 183029.8126323286 0 0 0 0 0 69986284.86324666 -14236053.3941502 -14236053.3941502 -269274.5428356891 0 0 0 0 0 70900705.56440632 -13952287.19732029 -13952287.19732029 -138879.3166851788 0 0 0 0 0 72154866.01875234 -14353099.83221138 -14353099.83221138 -535823.8585154102 0 0 0 0 0 73936112.56373902 -14294937.31264322 -14294937.31264322 -906554.1105899261 0 0 0 0 0 75075070.24831347 -14564240.70280449 -14564240.70280449 -1294633.229568488 0 0 0 0 0 76866893.3866985 -14450938.73916624 -14450938.73916624 -1580757.381626821 0 0 0 0 0 75988848.17197111 -14262846.32330155 -14262846.32330155 -1108727.651142534 0 0 0 0 0 77973001.78592998 -14640528.61015017 -14640528.61015017 -1961770.107507865 0 0 0 0 0 79068862.75141008 -14788077.5630865 -14788077.5630865 -2334538.189313382 0 0 0 0 0 80150710.90370071 -14894826.68084541 -14894826.68084541 -2696730.300465595 0 0 0 0 0 81218007.27965885 -14963652.09602647 -14963652.09602647 -3047995.57875245 0 0 0 0 0 82665090.69737184 -14640263.69263443 -14640263.69263443 -3245959.851701149 0 0 0 0 0 82136688.73714635 -14637725.82047343 -14637725.82047343 -2782231.425906407 0 0 0 0 0 83653950.69539718 -14640275.07715066 -14640275.07715066 -3562319.29259937 0 0 0 0 0 84622194.25469401 -14610276.03991961 -14610276.03991961 -3865684.496949397 0 0 0 0 0 85567602.29678093 -14552223.59934218 -14552223.59934218 -4155419.608449922 0 0 0 0 0 86488697.29974239 -14468069.51908835 -14468069.51908835 -4430951.367661089 0 0 0 0 0 87384709.09762132 -14359713.22533667 -14359713.22533667 -4691766.993567113 0 0 0 0 0 88241003.96468616 -14036192.51022019 -14036192.51022019 -4367692.219969076 0 0 0 0 0 89262247.90722877 -13766576.5596696 -13766576.5596696 -4987963.944227222 0 0 0 0 0 89099090.46543469 -13907309.70890878 -13907309.70890878 -4607427.410533909 0 0 0 0 0 90052426.09489723 -13605627.6149069 -13605627.6149069 -5200043.623956576 0 0 0 0 0 90816041.31984809 -13428573.91596659 -13428573.91596659 -5397682.066657201 0 0 0 0 0 91553112.35868803 -13236734.86526692 -13236734.86526692 -5580952.107877247 0 0 0 0 0 92264241.48273306 -13032199.29823749 -13032199.29823749 -5750033.650312944 0 0 0 0 0 92991319.10928422 -12557952.89358942 -12557952.89358942 -5715735.173729927 0 0 0 0 0 93001250.7015917 -12739968.08993904 -12739968.08993904 -5419386.14967738 0 0 0 0 0 93626795.95946084 -12341344.01863762 -12341344.01863762 -5855072.460941551 0 0 0 0 0 94239302.42031416 -12116209.64276897 -12116209.64276897 -5982665.026370568 0 0 0 0 0 94827014.59999219 -11883042.37242178 -11883042.37242178 -6097916.895450734 0 0 0 0 0 95389859.68121314 -11642088.2989831 -11642088.2989831 -6202129.540260794 0 0 0 0 0 95940941.99518472 -11401007.46493742 -11401007.46493742 -6293672.4371981 0 0 0 0 0 97027579.3293476 -10913648.45288239 -10913648.45288239 -6073207.019452268 0 0 0 0 0 96448413.11686367 -11153423.57707233 -11153423.57707233 -6373155.245051706 0 0 0 0 0 96870736.09050572 -10719970.1143429 -10719970.1143429 -6267676.470193254 0 0 0 0 0 97343139.96174131 -10469748.63967656 -10469748.63967656 -6314353.375441323 0 0 0 0 0 97776756.75594074 -10221961.76269765 -10221961.76269765 -6364437.56947082 0 0 0 0 0 98198471.40843995 -9970976.482847277 -9970976.482847277 -6407094.873025954 0 0 0 0 0 98603126.5707188 -9724632.286512911 -9724632.286512911 -6449936.381157295 0 0 0 0 0 98977711.59786588 -9471914.384909818 -9471914.384909818 -6480287.066258918 0 0 0 0 0 99441067.36970574 -9286980.036114857 -9286980.036114857 -6238825.931813436 0 0 0 0 0 99589993.41292363 -9049082.373097142 -9049082.373097142 -6318368.669562228 0 0 0 0 0 99639647.40717587 -8853542.772734646 -8853542.772734646 -6297762.270624432 0 0 0 0 0 99866669.13172241 -8636154.430735651 -8636154.430735651 -6282102.986404738 0 0 0 0 0 100249291.0572998 -8374079.997709095 -8374079.997709095 -6356217.499495274 0 0 0 0 0 100620250.4404041 -8143595.035908429 -8143595.035908429 -6103037.886588367 0 0 0 0 0 73207069.68690367 -14647751.0643239 -14647751.0643239 -1007549.486837686 0 0 0 0 0 51456054.82509525 -652068.654898667 -652068.654898667 3572070.205682343 0 0 0 0 0 52060337.69381165 -1749631.804813691 -1749631.804813691 3652455.047192592 0 0 0 0 0 53419513.85279122 -2939491.771390702 -2939491.771390702 3881243.104927299 0 0 0 0 0 54013916.87711682 -4163110.061720001 -4163110.061720001 3480259.320453368 0 0 0 0 0 52745526.04257216 -3400169.556372988 -3400169.556372988 3323825.743351422 0 0 0 0 0 55897897.95000831 -5437674.162448069 -5437674.162448069 3660893.752715065 0 0 0 0 0 56559205.4548609 -6669351.850405679 -6669351.850405679 3373314.992158749 0 0 0 0 0 57477802.10671472 -7786270.72248917 -7786270.72248917 3110897.809973739 0 0 0 0 0 58455678.68845662 -8842754.268717276 -8842754.268717276 2812127.940971767 0 0 0 0 0 59506746.83231036 -9836372.127935627 -9836372.127935627 2479650.413783415 0 0 0 0 0 60622499.97515223 -10765499.18928176 -10765499.18928176 2117712.479934226 0 0 0 0 0 61130390.1076306 -10657290.09400304 -10657290.09400304 1986676.08998316 0 0 0 0 0 62968930.09902979 -11465867.01925492 -11465867.01925492 1764058.322381539 0 0 0 0 0 64149783.61571816 -12223171.24518026 -12223171.24518026 1362525.426061472 0 0 0 0 0 65366626.75384185 -12915178.29757709 -12915178.29757709 944351.9531288409 0 0 0 0 0 66598754.94196355 -13542268.98783509 -13542268.98783509 512955.3158462986 0 0 0 0 0 67837248.08015454 -14100174.28325486 -14100174.28325486 70039.08790963893 0 0 0 0 0 69093463.67252243 -14588730.63175133 -14588730.63175133 -362188.5636217476 0 0 0 0 0 70100921.38070171 -14281270.06208331 -14281270.06208331 -209367.7634551669 0 0 0 0 0 71237812.43931606 -14639310.26092643 -14639310.26092643 -671259.4386159402 0 0 0 0 0 72496402.25649635 -15005066.39005457 -15005066.39005457 -1093736.925305312 0 0 0 0 0 74163138.16236144 -14341173.7849322 -14341173.7849322 -820501.9960610057 0 0 0 0 0 75366910.65210354 -14607740.04862119 -14607740.04862119 -1196002.004975833 0 0 0 0 0 77154953.32283749 -14493833.7186131 -14493833.7186131 -1482712.723748084 0 0 0 0 0 76240702.31282742 -14799182.65849687 -14799182.65849687 -1678841.930171681 0 0 0 0 0 78319351.27830969 -14680808.23700292 -14680808.23700292 -1851540.399418382 0 0 0 0 0 79470444.64613011 -14824684.55217429 -14824684.55217429 -2213630.028868575 0 0 0 0 0 80602652.85386242 -14927400.59493162 -14927400.59493162 -2566523.314659032 0 0 0 0 0 81714525.75030966 -14991935.77967023 -14991935.77967023 -2910117.445117885 0 0 0 0 0 83184621.55550535 -14665505.62079353 -14665505.62079353 -3104740.778145851 0 0 0 0 0 82263823.46086194 -14996047.35594421 -14996047.35594421 -3386591.78024091 0 0 0 0 0 84209257.18196695 -14660899.64853166 -14660899.64853166 -3415805.386566087 0 0 0 0 0 85208585.15150625 -14625965.96506281 -14625965.96506281 -3715004.891266362 0 0 0 0 0 86181967.81713879 -14562866.55123238 -14562866.55123238 -4001405.775302079 0 0 0 0 0 87128119.60443723 -14473523.28751743 -14473523.28751743 -4274494.034960758 0 0 0 0 0 88045666.78982385 -14359949.74701893 -14359949.74701893 -4533756.044206014 0 0 0 0 0 88254797.10080647 -14229099.58078283 -14229099.58078283 -4937766.67386674 0 0 0 0 0 89929272.94104768 -13758979.47763259 -13758979.47763259 -4833752.914212068 0 0 0 0 0 89098681.47042473 -14078241.56185679 -14078241.56185679 -5168963.1000125 0 0 0 0 0 90730871.40082359 -13593003.64529577 -13593003.64529577 -5046450.754421096 0 0 0 0 0 91503809.17918348 -13410896.95688595 -13410896.95688595 -5245274.828214553 0 0 0 0 0 92247599.90839322 -13214225.7051087 -13214225.7051087 -5430265.452896841 0 0 0 0 0 92962120.50612733 -13004963.76978601 -13004963.76978601 -5601795.231831552 0 0 0 0 0 93665113.44565193 -12529412.74975665 -12529412.74975665 -5574815.889213872 0 0 0 0 0 92947029.43859771 -12815933.37283903 -12815933.37283903 -5904466.015357873 0 0 0 0 0 94301962.73472312 -12308408.91612055 -12308408.91612055 -5716778.89289852 0 0 0 0 0 94913741.79367416 -12079206.2216341 -12079206.2216341 -5846722.882769419 0 0 0 0 0 95499607.48315214 -11842028.27733351 -11842028.27733351 -5965017.045029236 0 0 0 0 0 96061290.99994242 -11597878.96830197 -11597878.96830197 -6071575.901892827 0 0 0 0 0 96594699.11328994 -11352765.30425764 -11352765.30425764 -6170424.636366299 0 0 0 0 0 96931583.41797894 -10897754.28653064 -10897754.28653064 -6443514.822699837 0 0 0 0 0 97101147.33685696 -11102366.33222662 -11102366.33222662 -6252186.202155235 0 0 0 0 0 97503832.89300868 -10662903.86724365 -10662903.86724365 -6155156.303810045 0 0 0 0 0 97959452.47183095 -10415748.76716463 -10415748.76716463 -6203747.118885892 0 0 0 0 0 98391027.8110633 -10163814.72084173 -10163814.72084173 -6257137.715966023 0 0 0 0 0 98800171.09402509 -9912695.423666604 -9912695.423666604 -6302942.345046248 0 0 0 0 0 99184210.87752494 -9664948.751444535 -9664948.751444535 -6351605.077246331 0 0 0 0 0 99547562.58303902 -9416878.041778034 -9416878.041778034 -6381461.142828 0 0 0 0 0 99341483.70561139 -9228912.186764931 -9228912.186764931 -6482071.98971243 0 0 0 0 0 99788630.52049682 -9025484.762537817 -9025484.762537817 -6258300.38183119 0 0 0 0 0 100133442.8490631 -8821995.331483033 -8821995.331483033 -6283906.229559064 0 0 0 0 0 100378453.9461284 -8596034.929001439 -8596034.929001439 -6298649.701256396 0 0 0 0 0 100672992.1986935 -8309306.862768217 -8309306.862768217 -6241714.663445826 0 0 0 0 0 100594924.2756374 -8122485.106144329 -8122485.106144329 -6380548.344973342 0 0 0 0 0 100961926.9324675 -7912316.665926735 -7912316.665926735 -6135736.987787423 0 0 0 0 0 73451650.29857367 -14691956.95849879 -14691956.95849879 -919189.1234746883 0 0 0 0 0 50693035.75399812 -613019.850798279 -613019.850798279 3555169.262653133 0 0 0 0 0 51360566.35911019 -1671760.34753072 -1671760.34753072 3607365.178972755 0 0 0 0 0 51503378.77713203 -2947154.849721529 -2947154.849721529 3311661.141547732 0 0 0 0 0 53882471.89661933 -4186561.501793205 -4186561.501793205 3544863.130834049 0 0 0 0 0 53767914.11775737 -4185551.935598931 -4185551.935598931 3757433.437122317 0 0 0 0 0 54353086.33634066 -5450972.474882525 -5450972.474882525 3231193.333728257 0 0 0 0 0 55285472.67472396 -6635091.782859342 -6635091.782859342 3045746.721619352 0 0 0 0 0 56321965.21344545 -7759594.713738129 -7759594.713738129 2816655.759853234 0 0 0 0 0 57437508.61937029 -8828979.195997618 -8828979.195997618 2559542.636662228 0 0 0 0 0 58623617.32035936 -9833460.583178632 -9833460.583178632 2266745.382142298 0 0 0 0 0 59872842.12507927 -10771892.21364192 -10771892.21364192 1943005.779845009 0 0 0 0 0 61794944.46446276 -11628602.62577909 -11628602.62577909 1730524.250160226 0 0 0 0 0 62389423.10294975 -11485965.25944901 -11485965.25944901 1639269.985893195 0 0 0 0 0 63690858.80031336 -12249384.09645362 -12249384.09645362 1270705.875931807 0 0 0 0 0 65026722.78773647 -12947209.90736286 -12947209.90736286 885009.9999801656 0 0 0 0 0 66389840.23699611 -13579205.73424286 -13579205.73424286 487664.3818720069 0 0 0 0 0 67787512.54713812 -14141196.47607672 -14141196.47607672 87958.57656773787 0 0 0 0 0 69148789.83667788 -14634109.46625397 -14634109.46625397 -317172.9328370966 0 0 0 0 0 70357660.49776889 -15006152.69168485 -15006152.69168485 -789510.8264115605 0 0 0 0 0 71380404.21547979 -14687328.26720556 -14687328.26720556 -603745.4381687392 0 0 0 0 0 72669742.22978513 -15046566.77622532 -15046566.77622532 -1024357.584592676 0 0 0 0 0 74402113.16462377 -14927994.57891817 -14927994.57891817 -1402223.176018181 0 0 0 0 0 75585560.80595481 -15164141.01793807 -15164141.01793807 -1793465.021934919 0 0 0 0 0 77388567.74853657 -14996137.67283114 -14996137.67283114 -2069043.201214468 0 0 0 0 0 76546161.53971414 -14839009.7951588 -14839009.7951588 -1578569.012215946 0 0 0 0 0 78528730.39632496 -15149317.39651407 -15149317.39651407 -2452091.51755693 0 0 0 0 0 79653164.17101121 -15259699.57207003 -15259699.57207003 -2824803.911630258 0 0 0 0 0 80761332.43159185 -15330127.54956166 -15330127.54956166 -3185927.761966276 0 0 0 0 0 81848508.60763639 -15362830.11483544 -15362830.11483544 -3534285.970240986 0 0 0 0 0 83289784.36679687 -14994665.62475432 -14994665.62475432 -3711966.265363117 0 0 0 0 0 82803771.59522592 -15019747.21418792 -15019747.21418792 -3241548.801195935 0 0 0 0 0 84293752.4064437 -14961770.2218565 -14961770.2218565 -4023425.387005727 0 0 0 0 0 85274029.15984377 -14899601.72700254 -14899601.72700254 -4320660.697941238 0 0 0 0 0 86229234.97072618 -14810195.06244956 -14810195.06244956 -4603150.87256479 0 0 0 0 0 87157889.45673226 -14695540.239868 -14695540.239868 -4870309.060657836 0 0 0 0 0 88059110.92350529 -14557766.94326025 -14557766.94326025 -5121937.580825554 0 0 0 0 0 88934026.40967782 -14224078.62880858 -14224078.62880858 -4778908.772815989 0 0 0 0 0 89915422.69649364 -13908914.61752871 -13908914.61752871 -5385265.481378983 0 0 0 0 0 89792765.69387108 -14067953.12060058 -14067953.12060058 -5010040.264384609 0 0 0 0 0 90704876.92674492 -13722919.45713276 -13722919.45713276 -5586612.54045702 0 0 0 0 0 91466291.19333474 -13521634.38220556 -13521634.38220556 -5772833.902367722 0 0 0 0 0 92200083.62721123 -13307237.15828124 -13307237.15828124 -5944309.403639499 0 0 0 0 0 92904934.41737367 -13080761.75789723 -13080761.75789723 -6101002.303488732 0 0 0 0 0 93603175.56160532 -12589710.16893389 -12589710.16893389 -6045103.85549484 0 0 0 0 0 93647119.57791913 -12784336.69423621 -12784336.69423621 -5759408.847657145 0 0 0 0 0 94232808.20470828 -12354518.63964894 -12354518.63964894 -6173361.071238298 0 0 0 0 0 94837329.75365295 -12111386.03861007 -12111386.03861007 -6289012.932583345 0 0 0 0 0 95417069.64884326 -11861463.83470138 -11861463.83470138 -6392476.429827069 0 0 0 0 0 95974842.58021002 -11607505.16254335 -11607505.16254335 -6483790.917977435 0 0 0 0 0 96503510.23129216 -11349948.78267549 -11349948.78267549 -6562224.514802437 0 0 0 0 0 97586121.87498836 -10844117.13581761 -10844117.13581761 -6323589.129546355 0 0 0 0 0 97003519.7577825 -11086538.26359621 -11086538.26359621 -6629776.558714196 0 0 0 0 0 97412571.8955228 -10645634.96692547 -10645634.96692547 -6500381.504867507 0 0 0 0 0 97860368.39216286 -10387632.3812528 -10387632.3812528 -6547856.559128711 0 0 0 0 0 98290176.76949464 -10129111.26827989 -10129111.26827989 -6587395.954198188 0 0 0 0 0 98696996.99216492 -9870656.852418333 -9870656.852418333 -6619369.516769822 0 0 0 0 0 99081045.27148019 -9614726.907848978 -9614726.907848978 -6641196.375355671 0 0 0 0 0 99442118.33226822 -9358032.133534357 -9358032.133534357 -6652796.534992526 0 0 0 0 0 99901375.62418221 -9159356.088252001 -9159356.088252001 -6382008.660211529 0 0 0 0 0 99712890.82311423 -8985575.891237652 -8985575.891237652 -6520442.577680632 0 0 0 0 0 100026442.4521475 -8727655.478652269 -8727655.478652269 -6492715.454968834 0 0 0 0 0 100278402.7627054 -8488608.084865678 -8488608.084865678 -6465189.881141972 0 0 0 0 0 100587307.4382515 -8260714.351950569 -8260714.351950569 -6500350.010149198 0 0 0 0 0 100989777.1972227 -8072442.008436898 -8072442.008436898 -6273014.320975684 0 0 0 0 0 100950112.0842447 -7894282.376947831 -7894282.376947831 -6389929.152937783 0 0 0 0 0 73700905.90658712 -15311203.64430378 -15311203.64430378 -1516104.115955078 0 0 0 0 0 49912653.72579558 -653546.8958586657 -653546.8958586657 3530678.634336725 0 0 0 0 0 50753670.80145321 -1844284.057525779 -1844284.057525779 3486898.942093406 0 0 0 0 0 51972123.13283017 -2662446.594234191 -2662446.594234191 3863013.636760423 0 0 0 0 0 52475744.81565236 -3854459.933624289 -3854459.933624289 3713408.274582663 0 0 0 0 0 54339889.20692819 -5380668.770716094 -5380668.770716094 3543757.879020249 0 0 0 0 0 52040762.45060409 -4105680.782001701 -4105680.782001701 3267644.82681726 0 0 0 0 0 55252058.96273305 -6565413.971041554 -6565413.971041554 3349965.016246286 0 0 0 0 0 56126155.24972311 -7746326.850871566 -7746326.850871566 3079652.578580502 0 0 0 0 0 57128833.74189865 -8858931.205867205 -8858931.205867205 2777553.742160355 0 0 0 0 0 58209404.75455073 -9903643.612600511 -9903643.612600511 2443421.664404218 0 0 0 0 0 59359377.33643136 -10880524.51229052 -10880524.51229052 2078446.52647782 0 0 0 0 0 60570299.60254823 -11788158.24984368 -11788158.24984368 1686497.15062271 0 0 0 0 0 61176454.98178497 -11642888.57465665 -11642888.57465665 1592570.512562758 0 0 0 0 0 63016707.48513336 -12424693.15993038 -12424693.15993038 1322247.924008082 0 0 0 0 0 64278225.32178773 -13153312.2391173 -13153312.2391173 896500.8437281481 0 0 0 0 0 65572914.19371974 -13814281.85918063 -13814281.85918063 457192.0502636267 0 0 0 0 0 66886682.04235435 -14407785.82577707 -14407785.82577707 7228.044709402222 0 0 0 0 0 68197158.07349874 -14933643.18697541 -14933643.18697541 -436368.1663320022 0 0 0 0 0 69553352.48471516 -15379097.65498605 -15379097.65498605 -887702.7830591457 0 0 0 0 0 70545851.49909689 -15039942.85319046 -15039942.85319046 -722392.7100886106 0 0 0 0 0 71698190.77096067 -15364975.13246391 -15364975.13246391 -1198731.207427164 0 0 0 0 0 72995384.65546033 -15690099.53457602 -15690099.53457602 -1629592.680162776 0 0 0 0 0 74695589.63165095 -14969345.07983617 -14969345.07983617 -1304884.470506454 0 0 0 0 0 75944455.13696846 -15203168.69527256 -15203168.69527256 -1682502.223267159 0 0 0 0 0 77748397.80431551 -15034208.0797027 -15034208.0797027 -1957070.767997992 0 0 0 0 0 76785843.3853001 -15362251.65096046 -15362251.65096046 -2182832.926985753 0 0 0 0 0 78944796.51864558 -15184069.17488302 -15184069.17488302 -2328994.455681396 0 0 0 0 0 80122543.04961337 -15290418.43025193 -15290418.43025193 -2691780.61579573 0 0 0 0 0 81278035.6991674 -15356582.51323801 -15356582.51323801 -3044491.185499351 0 0 0 0 0 82409417.51392509 -15384562.74170634 -15384562.74170634 -3385483.828769543 0 0 0 0 0 83867625.95059416 -15013550.44961587 -15013550.44961587 -3561290.024993832 0 0 0 0 0 82913836.82092243 -15360069.03131266 -15360069.03131266 -3868869.744411323 0 0 0 0 0 84905036.64059713 -14975516.89831675 -14975516.89831675 -3868226.101192609 0 0 0 0 0 85914740.34541593 -14908049.76725308 -14908049.76725308 -4161908.45007578 0 0 0 0 0 86895637.81149118 -14813292.86483123 -14813292.86483123 -4441833.212969461 0 0 0 0 0 87846414.83466367 -14693249.15272433 -14693249.15272433 -4707379.983423543 0 0 0 0 0 88766363.14977856 -14550048.31841521 -14550048.31841521 -4958221.02985103 0 0 0 0 0 88932479.26126021 -14398846.64968985 -14398846.64968985 -5357991.159652078 0 0 0 0 0 90621882.96722309 -13893385.72392014 -13893385.72392014 -5226921.456592964 0 0 0 0 0 89777440.52530573 -14220751.27841285 -14220751.27841285 -5578526.758864508 0 0 0 0 0 91420505.22720906 -13702258.54188294 -13702258.54188294 -5429549.450901264 0 0 0 0 0 92188416.28669386 -13496020.65951225 -13496020.65951225 -5617623.615147541 0 0 0 0 0 92925995.85355513 -13276654.96766027 -13276654.96766027 -5791518.772640366 0 0 0 0 0 93632564.4199336 -13045765.79765226 -13045765.79765226 -5951519.004512474 0 0 0 0 0 94302566.2305873 -12553864.46050608 -12553864.46050608 -5903335.987955776 0 0 0 0 0 93581275.75091358 -12844072.8914145 -12844072.8914145 -6242897.437200302 0 0 0 0 0 94931306.92681175 -12314185.94234215 -12314185.94234215 -6033828.454374381 0 0 0 0 0 95533729.45938814 -12067071.13778625 -12067071.13778625 -6152649.689618521 0 0 0 0 0 96109423.14976792 -11813411.76594213 -11813411.76594213 -6259546.400905746 0 0 0 0 0 96657670.47172259 -11555922.09614446 -11555922.09614446 -6355656.098803858 0 0 0 0 0 97179007.71549352 -11294309.81689898 -11294309.81689898 -6438885.104313951 0 0 0 0 0 97485386.01404566 -10819792.45182054 -10819792.45182054 -6687388.310550261 0 0 0 0 0 97675540.8821649 -11027896.11890144 -11027896.11890144 -6509140.241505944 0 0 0 0 0 98050537.801636 -10584490.39408851 -10584490.39408851 -6389454.57330747 0 0 0 0 0 98491625.12226105 -10325991.15498844 -10325991.15498844 -6438851.796347499 0 0 0 0 0 98908923.8771451 -10066273.69142683 -10066273.69142683 -6482221.185440822 0 0 0 0 0 99302495.65913337 -9807271.859601269 -9807271.859601269 -6517722.202074462 0 0 0 0 0 99674513.99649167 -9547366.76210654 -9547366.76210654 -6545100.634876365 0 0 0 0 0 100028678.4357174 -9286620.048730548 -9286620.048730548 -6561066.409491654 0 0 0 0 0 99791964.32396208 -9099339.738621444 -9099339.738621444 -6666158.510182794 0 0 0 0 0 100224594.8863739 -8921898.890288394 -8921898.890288394 -6438868.428770077 0 0 0 0 0 100531819.9714356 -8672811.44419528 -8672811.44419528 -6424441.840599609 0 0 0 0 0 100809784.4755608 -8425933.102149943 -8425933.102149943 -6392676.982057429 0 0 0 0 0 101095196.164001 -8189947.635993994 -8189947.635993994 -6393269.123278589 0 0 0 0 0 100910982.8365769 -8022935.851339439 -8022935.851339439 -6495696.503182027 0 0 0 0 0 101308068.7674179 -7681865.738628934 -7681865.738628934 -6153649.116408938 0 0 0 0 0 101243140.0526698 -7843578.469656982 -7843578.469656982 -6289125.131783238 0 0 0 0 0 74011556.32215811 -15349564.19547338 -15349564.19547338 -1416892.147491524 0 0 0 0 0 49417133.93078072 -603970.2638047331 -603970.2638047331 3500599.151871787 0 0 0 0 0 50713901.75116427 -1888632.245322873 -1888632.245322873 3627352.844631623 0 0 0 0 0 49804043.22765753 -2634206.511837092 -2634206.511837092 3229983.895771357 0 0 0 0 0 50484200.75442979 -3770476.362693143 -3770476.362693143 3134082.76836811 0 0 0 0 0 52915067.67310932 -5313869.467518465 -5313869.467518465 3164746.266523372 0 0 0 0 0 53048015.15433252 -5199620.577328088 -5199620.577328088 3502006.527686508 0 0 0 0 0 53846230.44709445 -6527147.684693122 -6527147.684693122 2979512.830127404 0 0 0 0 0 54901141.62682193 -7718663.95381655 -7718663.95381655 2766247.655734289 0 0 0 0 0 56046521.3597191 -8838522.735302927 -8838522.735302927 2505225.36105809 0 0 0 0 0 57269069.44028018 -9893530.248368779 -9893530.248368779 2211990.467702189 0 0 0 0 0 58559384.4189197 -10879919.48657675 -10879919.48657675 1886949.956202924 0 0 0 0 0 59908780.488415 -11795792.73994646 -11795792.73994646 1533698.113189239 0 0 0 0 0 61834293.06724694 -12625400.51748619 -12625400.51748619 1271900.880125252 0 0 0 0 0 62525383.70974369 -12445679.32626652 -12445679.32626652 1219112.2277622 0 0 0 0 0 63911975.74822958 -13179724.06497403 -13179724.06497403 827035.4097098787 0 0 0 0 0 65327743.78857166 -13845102.1225784 -13845102.1225784 419754.0918053124 0 0 0 0 0 66763527.6045348 -14442601.97210713 -14442601.97210713 1506.226650957386 0 0 0 0 0 68192997.38956021 -14962117.93196117 -14962117.93196117 -418153.3295717802 0 0 0 0 0 69641410.52866383 -15411330.07411513 -15411330.07411513 -843038.5330858176 0 0 0 0 0 70879515.93472473 -15739835.20433617 -15739835.20433617 -1301393.388165621 0 0 0 0 0 71880980.65043193 -15395166.94854316 -15395166.94854316 -1134492.048907632 0 0 0 0 0 73253145.01487698 -15721872.97354799 -15721872.97354799 -1546095.576355149 0 0 0 0 0 74927612.71192767 -15551946.90032099 -15551946.90032099 -1919180.028477735 0 0 0 0 0 76148462.07727443 -15746694.90641056 -15746694.90641056 -2317073.341538467 0 0 0 0 0 77968292.36949776 -15521068.76141505 -15521068.76141505 -2576292.388582954 0 0 0 0 0 77162425.96533072 -15397682.32161233 -15397682.32161233 -2068382.444789585 0 0 0 0 0 79137179.06766975 -15635609.27915325 -15635609.27915325 -2960053.779063639 0 0 0 0 0 80287771.31543922 -15708070.82160917 -15708070.82160917 -3331592.816050869 0 0 0 0 0 81417522.1744813 -15741131.4339188 -15741131.4339188 -3689822.051104004 0 0 0 0 0 82524753.98597251 -15737039.59244822 -15737039.59244822 -4033780.873345864 0 0 0 0 0 83955792.3042125 -15324235.88587721 -15324235.88587721 -4188807.316863458 0 0 0 0 0 83514923.79581031 -15376890.13285995 -15376890.13285995 -3713994.511519518 0 0 0 0 0 84972505.65406063 -15257709.01961188 -15257709.01961188 -4493806.175509813 0 0 0 0 0 85962938.16475934 -15162756.60881689 -15162756.60881689 -4783432.40170693 0 0 0 0 0 86925614.53280503 -15041470.81812984 -15041470.81812984 -5057035.306499281 0 0 0 0 0 87859414.7971691 -14896095.82401746 -14896095.82401746 -5314382.336505855 0 0 0 0 0 88763612.97291289 -14728709.38388073 -14728709.38388073 -5555320.748815121 0 0 0 0 0 89654929.73266873 -14385715.65875077 -14385715.65875077 -5194222.545719564 0 0 0 0 0 90593594.1479241 -14025271.13048327 -14025271.13048327 -5783458.335628811 0 0 0 0 0 90512035.29702359 -14202252.69066111 -14202252.69066111 -5415371.761954388 0 0 0 0 0 91380150.67845902 -13814199.59497898 -13814199.59497898 -5972756.597325366 0 0 0 0 0 92137551.17191936 -13589256.88238987 -13589256.88238987 -6146629.109084982 0 0 0 0 0 92865252.20145151 -13352115.38062168 -13352115.38062168 -6305203.700602364 0 0 0 0 0 93562587.87321037 -13104279.34972314 -13104279.34972314 -6448176.035848515 0 0 0 0 0 94228712.09875937 -12598226.73209837 -12598226.73209837 -6371301.758437566 0 0 0 0 0 94307784.43195972 -12804645.80277917 -12804645.80277917 -6096882.282245751 0 0 0 0 0 94851101.5673506 -12344776.86198134 -12344776.86198134 -6487209.236902463 0 0 0 0 0 95447310.94346789 -12084395.85442299 -12084395.85442299 -6590072.315790078 0 0 0 0 0 96018117.01898514 -11819080.89361041 -11819080.89361041 -6680383.262809323 0 0 0 0 0 96561670.16857819 -11549763.47008304 -11549763.47008304 -6758171.621188194 0 0 0 0 0 97078242.57563616 -11276575.02062668 -11276575.02062668 -6824107.732272145 0 0 0 0 0 98148786.56039304 -10758409.6605635 -10758409.6605635 -6570551.723553235 0 0 0 0 0 97570633.14636061 -11000051.8490814 -11000051.8490814 -6879266.457073639 0 0 0 0 0 97949662.82006079 -10554058.80428646 -10554058.80428646 -6733810.277585782 0 0 0 0 0 98387243.16162497 -10286923.61824536 -10286923.61824536 -6770389.651875424 0 0 0 0 0 98802592.14848553 -10019742.25074997 -10019742.25074997 -6797852.450312432 0 0 0 0 0 99193663.19228132 -9752277.395593088 -9752277.395593088 -6816616.640926444 0 0 0 0 0 99564412.54986708 -9485444.639092175 -9485444.639092175 -6826854.567501143 0 0 0 0 0 99919318.26655161 -9221331.542953407 -9221331.542953407 -6828445.222267825 0 0 0 0 0 100358667.5942475 -9032199.878608644 -9032199.878608644 -6573939.282344719 0 0 0 0 0 100117475.7862217 -8847067.437156253 -8847067.437156253 -6658741.623707635 0 0 0 0 0 100430249.2376014 -8600349.942540547 -8600349.942540547 -6631405.302977413 0 0 0 0 0 100706431.6420431 -8357381.992540961 -8357381.992540961 -6613962.833161093 0 0 0 0 0 100981878.9968066 -8114408.244444218 -8114408.244444218 -6603238.923377107 0 0 0 0 0 101362518.8350663 -7957311.558851233 -7957311.558851233 -6395876.643143842 0 0 0 0 0 101251928.4084531 -7657711.233454839 -7657711.233454839 -6412199.193935243 0 0 0 0 0 101433713.7349148 -7813262.483864358 -7813262.483864358 -6470068.328553616 0 0 0 0 0 101604511.1442114 -7461058.700482141 -7461058.700482141 -6173406.672046001 0 0 0 0 0 74238259.43677492 -15948915.78886998 -15948915.78886998 -2061660.801933123 0 0 0 0 0 48383190.76505108 -741318.0178086977 -741318.0178086977 3293051.723675971 0 0 0 0 0 49126734.5629434 -2005023.819322168 -2005023.819322168 3299971.294489168 0 0 0 0 0 50889856.74538058 -3541998.569812022 -3541998.569812022 3565520.87781688 0 0 0 0 0 51467035.82743303 -5013579.273689509 -5013579.273689509 3392431.08019863 0 0 0 0 0 53762425.06055318 -6473026.323103814 -6473026.323103814 3284919.198481722 0 0 0 0 0 51384895.40722353 -5123717.787024381 -5123717.787024381 3055739.951598753 0 0 0 0 0 54724997.72400472 -7700523.236066696 -7700523.236066696 3028280.178894063 0 0 0 0 0 55744564.50533443 -8865141.616968464 -8865141.616968464 2728816.822639561 0 0 0 0 0 56855298.73424243 -9962333.118107487 -9962333.118107487 2393582.248226753 0 0 0 0 0 58040724.19758339 -10989069.99073229 -10989069.99073229 2026091.919847186 0 0 0 0 0 59291977.5612619 -11943516.95603653 -11943516.95603653 1629969.684155815 0 0 0 0 0 60600138.9965382 -12824255.47574298 -12824255.47574298 1209458.970019543 0 0 0 0 0 61307806.27309544 -12639977.17729802 -12639977.17729802 1156065.944376708 0 0 0 0 0 63142823.98043782 -13391732.24334387 -13391732.24334387 838747.9793966839 0 0 0 0 0 64487730.64183132 -14087146.4592045 -14087146.4592045 391482.2855166368 0 0 0 0 0 65862150.8437468 -14712235.20639694 -14712235.20639694 -65468.4487473958 0 0 0 0 0 67258256.14018799 -15267582.92343033 -15267582.92343033 -522035.7360668407 0 0 0 0 0 68637065.6723803 -15747427.32660688 -15747427.32660688 -983024.7235362794 0 0 0 0 0 69979971.77799073 -16137639.21358826 -16137639.21358826 -1439568.154172613 0 0 0 0 0 71048926.16320971 -15775429.34411076 -15775429.34411076 -1236298.732005234 0 0 0 0 0 72221605.33029075 -16069355.93780981 -16069355.93780981 -1748267.579961917 0 0 0 0 0 73566285.62858368 -16351331.13588175 -16351331.13588175 -2192752.854167209 0 0 0 0 0 75311763.52669579 -15590452.15983517 -15590452.15983517 -1804260.115045638 0 0 0 0 0 76591036.91955316 -15779949.7095931 -15779949.7095931 -2191674.266416636 0 0 0 0 0 78399457.85768126 -15553964.37115821 -15553964.37115821 -2450888.723776487 0 0 0 0 0 77385962.00523888 -15904525.20151451 -15904525.20151451 -2709639.443207592 0 0 0 0 0 79624696.66231161 -15664505.91240487 -15664505.91240487 -2823933.887109444 0 0 0 0 0 80826260.930576 -15732479.99309597 -15732479.99309597 -3186339.775596709 0 0 0 0 0 82002591.50013584 -15760620.10512807 -15760620.10512807 -3536775.332258033 0 0 0 0 0 83151132.25369032 -15751424.10060147 -15751424.10060147 -3874398.421776108 0 0 0 0 0 84592269.74803868 -15335831.91315902 -15335831.91315902 -4029045.244027024 0 0 0 0 0 83606544.62276761 -15698127.79663764 -15698127.79663764 -4362498.239191784 0 0 0 0 0 85640242.65954126 -15263840.11897975 -15263840.11897975 -4330215.046456716 0 0 0 0 0 86657593.1174476 -15163300.76402792 -15163300.76402792 -4617089.68891993 0 0 0 0 0 87643221.53181754 -15036391.43247542 -15036391.43247542 -4889029.891286743 0 0 0 0 0 88596250.69004649 -14885380.52641477 -14885380.52641477 -5145599.456841161 0 0 0 0 0 89516133.90673999 -14712415.82069789 -14712415.82069789 -5386591.86217415 0 0 0 0 0 89637829.72617541 -14541275.79422464 -14541275.79422464 -5779913.073394355 0 0 0 0 0 91337516.72201721 -14001426.89687834 -14001426.89687834 -5621596.018084243 0 0 0 0 0 90481740.7536523 -14335907.51608214 -14335907.51608214 -5988321.050328889 0 0 0 0 0 92131153.17474404 -13785246.45910458 -13785246.45910458 -5813032.990197262 0 0 0 0 0 92891904.93456391 -13555295.96948843 -13555295.96948843 -5989410.218642197 0 0 0 0 0 93620358.53753524 -13313438.60008041 -13313438.60008041 -6151118.786845575 0 0 0 0 0 94316572.37299223 -13061204.18300668 -13061204.18300668 -6298133.208322946 0 0 0 0 0 94954179.73076835 -12554347.43846931 -12554347.43846931 -6228293.361349439 0 0 0 0 0 94229734.36886166 -12847381.83887161 -12847381.83887161 -6577049.726414048 0 0 0 0 0 95572991.3218172 -12296603.54693833 -12296603.54693833 -6347403.710620251 0 0 0 0 0 96163991.99677113 -12032381.25833404 -12032381.25833404 -6454081.084829493 0 0 0 0 0 96726814.49575029 -11763401.94231826 -11763401.94231826 -6548789.916025441 0 0 0 0 0 97262056.800834 -11490448.50689555 -11490448.50689555 -6631211.907803155 0 0 0 0 0 97771031.63788065 -11213723.37725998 -11213723.37725998 -6701232.374794131 0 0 0 0 0 98041746.9528735 -10722518.8527505 -10722518.8527505 -6924067.539681082 0 0 0 0 0 98254827.17506711 -10934395.52255966 -10934395.52255966 -6760413.090548951 0 0 0 0 0 98598901.72921185 -10488650.90190936 -10488650.90190936 -6623082.167064411 0 0 0 0 0 99025161.00837623 -10219538.95994886 -10219538.95994886 -6663690.753079882 0 0 0 0 0 99427741.46101984 -9950427.258798957 -9950427.258798957 -6695512.203372019 0 0 0 0 0 99807766.16077134 -9681189.073421605 -9681189.073421605 -6718119.860603828 0 0 0 0 0 100166719.3480472 -9412219.99970434 -9412219.99970434 -6732630.520541687 0 0 0 0 0 100503178.5639548 -9146353.570888706 -9146353.570888706 -6739672.729894706 0 0 0 0 0 100245722.0759422 -8956411.83359755 -8956411.83359755 -6821347.065221534 0 0 0 0 0 100669665.6242723 -8774236.970618349 -8774236.970618349 -6579455.992733915 0 0 0 0 0 100950492.0981832 -8532244.417073321 -8532244.417073321 -6571781.870526852 0 0 0 0 0 101225137.007773 -8289625.340869603 -8289625.340869603 -6544519.019142497 0 0 0 0 0 101490389.1902645 -8045717.446862506 -8045717.446862506 -6528937.572274425 0 0 0 0 0 101261126.8968897 -7883489.692054516 -7883489.692054516 -6579028.023818435 0 0 0 0 0 101695372.4047863 -7558817.04678809 -7558817.04678809 -6307367.898249187 0 0 0 0 0 101429515.0496797 -7671566.014968256 -7671566.014968256 -6478567.327089712 0 0 0 0 0 101548902.8461636 -7429678.176890163 -7429678.176890163 -6431083.628871127 0 0 0 0 0 101865907.550826 -7234282.03165119 -7234282.03165119 -6191014.638428409 0 0 0 0 0 102645455.2920938 -6535444.179260501 -6535444.179260501 -6173468.885742614 0 0 0 0 0 102419139.7864517 -6762245.87886 -6762245.87886 -6180784.850453446 0 0 0 0 0 102141949.6945705 -7002393.604559269 -7002393.604559269 -6191981.537015014 0 0 0 0 0 74652245.69637953 -15983015.51489251 -15983015.51489251 -1943601.660157931 0 0 0 0 0 47624299.27616432 -656185.6130943983 -656185.6130943983 3187629.973736266 0 0 0 0 0 48608302.62305317 -1967684.003530676 -1967684.003530676 3313376.868401586 0 0 0 0 0 48987574.67847654 -3486866.312361107 -3486866.312361107 3020773.999924974 0 0 0 0 0 49808109.05836742 -4934808.153562139 -4934808.153562139 2942580.95148977 0 0 0 0 0 52350651.77458063 -6429714.852212426 -6429714.852212426 2918207.681315248 0 0 0 0 0 52327991.95290077 -6363181.335091807 -6363181.335091807 3200732.200024452 0 0 0 0 0 53422422.25729791 -7661402.327844043 -7661402.327844043 2689282.114643166 0 0 0 0 0 54596179.47128262 -8837589.274501763 -8837589.274501763 2435608.478319664 0 0 0 0 0 55854775.42440671 -9944339.835517185 -9944339.835517185 2142460.308283372 0 0 0 0 0 57187750.05960151 -10980603.77144248 -10980603.77144248 1816626.22748095 0 0 0 0 0 58584390.66619774 -11943703.86292626 -11943703.86292626 1461073.161321417 0 0 0 0 0 60034679.65954889 -12831854.48412856 -12831854.48412856 1079534.485429317 0 0 0 0 0 61956678.28843644 -13630508.94412087 -13630508.94412087 768817.7166208482 0 0 0 0 0 62747577.96581852 -13411891.86578243 -13411891.86578243 758072.4715501358 0 0 0 0 0 64219301.14150967 -14111389.52020321 -14111389.52020321 343875.9493880674 0 0 0 0 0 65714679.207697 -14738844.67991648 -14738844.67991648 -82586.93942125193 0 0 0 0 0 67213697.99288255 -15291649.83866058 -15291649.83866058 -517143.3591171564 0 0 0 0 0 68718839.07142285 -15771274.01050336 -15771274.01050336 -947162.5936152762 0 0 0 0 0 70259094.35453406 -16162847.22319135 -16162847.22319135 -1361764.176292674 0 0 0 0 0 71409660.57990146 -16460622.51048114 -16460622.51048114 -1880281.688561006 0 0 0 0 0 72488142.22661322 -16098026.58623881 -16098026.58623881 -1665204.508045606 0 0 0 0 0 73919978.24202347 -16380109.46249486 -16380109.46249486 -2088291.576315601 0 0 0 0 0 75517788.93968217 -16148663.10611654 -16148663.10611654 -2465490.185581248 0 0 0 0 0 76773832.67006584 -16304683.72638344 -16304683.72638344 -2862949.208168417 0 0 0 0 0 78600393.26865973 -16023234.38570168 -16023234.38570168 -3103268.087544031 0 0 0 0 0 77841445.478846 -15933685.28784913 -15933685.28784913 -2580420.997143809 0 0 0 0 0 79796680.35776472 -16098073.96254759 -16098073.96254759 -3485632.622696042 0 0 0 0 0 80971244.67657214 -16131404.27277937 -16131404.27277937 -3854034.358408024 0 0 0 0 0 82121728.11807188 -16125747.85028236 -16125747.85028236 -4207533.810416608 0 0 0 0 0 83245831.65492487 -16083694.81372193 -16083694.81372193 -4545136.13833736 0 0 0 0 0 84661904.80245295 -15627026.86760281 -15627026.86760281 -4675479.354093562 0 0 0 0 0 84270284.14924608 -15707203.37952346 -15707203.37952346 -4197925.019795905 0 0 0 0 0 85689454.45587793 -15526207.21418092 -15526207.21418092 -4972254.570887304 0 0 0 0 0 86687847.02790719 -15397857.24492584 -15397857.24492584 -5252411.806154076 0 0 0 0 0 87655737.97103301 -15244334.60568488 -15244334.60568488 -5515471.871498994 0 0 0 0 0 88592224.305419 -15068065.42022782 -15068065.42022782 -5761518.399903306 0 0 0 0 0 89496889.79978377 -14870835.37452825 -14870835.37452825 -5990159.892503074 0 0 0 0 0 90402350.34166145 -14519458.51841024 -14519458.51841024 -5611934.183710532 0 0 0 0 0 91295232.72817904 -14114386.25432293 -14114386.25432293 -6180660.9079509 0 0 0 0 0 91255316.11500251 -14308637.87345808 -14308637.87345808 -5821767.29361062 0 0 0 0 0 92077077.1917305 -13878470.97407951 -13878470.97407951 -6356700.885036771 0 0 0 0 0 92827898.79065733 -13630183.42793959 -13630183.42793959 -6516805.699485994 0 0 0 0 0 93547451.58296208 -13370866.78468106 -13370866.78468106 -6660984.462471397 0 0 0 0 0 94235358.22852458 -13102175.78250316 -13102175.78250316 -6790098.85183083 0 0 0 0 0 94869638.86564837 -12582865.67171753 -12582865.67171753 -6692640.957495084 0 0 0 0 0 94982026.68573087 -12799690.93793701 -12799690.93793701 -6430427.849420711 0 0 0 0 0 95482435.06083922 -12311447.60521889 -12311447.60521889 -6794908.092353416 0 0 0 0 0 96068059.20821877 -12034649.72307226 -12034649.72307226 -6884079.712849238 0 0 0 0 0 96626128.84756696 -11753741.14393059 -11753741.14393059 -6960585.068846105 0 0 0 0 0 97156971.02381693 -11469408.93338593 -11469408.93338593 -7024901.659602683 0 0 0 0 0 97662224.51870392 -11182448.77715394 -11182448.77715394 -7077790.917509502 0 0 0 0 0 98713943.03388493 -10654079.29978293 -10654079.29978293 -6809947.657703366 0 0 0 0 0 98143163.86361618 -10894066.89957621 -10894066.89957621 -7119810.333950571 0 0 0 0 0 98490596.46909329 -10445454.60987778 -10445454.60987778 -6958325.526297205 0 0 0 0 0 98914650.10026819 -10168401.6132975 -10168401.6132975 -6982627.959099626 0 0 0 0 0 99315210.07205823 -9891430.704943798 -9891430.704943798 -6997569.542729559 0 0 0 0 0 99693518.29171667 -9614950.235836081 -9614950.235836081 -7003975.365059546 0 0 0 0 0 100052348.4640806 -9340741.373838358 -9340741.373838358 -7001868.632049313 0 0 0 0 0 100388554.2863767 -9069035.755872892 -9069035.755872892 -6990125.269655188 0 0 0 0 0 100818894.4977589 -8881804.86751459 -8881804.86751459 -6737516.789805473 0 0 0 0 0 100565614.5043462 -8702024.523914253 -8702024.523914253 -6798536.11679144 0 0 0 0 0 100844871.5669159 -8448034.673910983 -8448034.673910983 -6767722.970161542 0 0 0 0 0 101111790.9773142 -8200293.938778715 -8200293.938778715 -6746620.741681738 0 0 0 0 0 101378462.1857559 -7956580.25371817 -7956580.25371817 -6716609.299883831 0 0 0 0 0 101709389.4692246 -7824937.054377003 -7824937.054377003 -6537801.907847107 0 0 0 0 0 101613239.4302886 -7516104.038881022 -7516104.038881022 -6548425.341585128 0 0 0 0 0 101807041.8348857 -7621621.506623806 -7621621.506623806 -6534211.151560111 0 0 0 0 0 101918357.6713489 -7329838.82680339 -7329838.82680339 -6315601.282534366 0 0 0 0 0 101818892.3135761 -7200712.734435594 -7200712.734435594 -6433266.747137602 0 0 0 0 0 102344155.5999793 -6713811.236841992 -6713811.236841992 -6401423.657680733 0 0 0 0 0 102580245.6596062 -6489157.49833833 -6489157.49833833 -6381807.747038249 0 0 0 0 0 102085920.2909848 -6963374.315667831 -6963374.315667831 -6443708.525763473 0 0 0 0 0 102883858.8792748 -6305994.07723412 -6305994.07723412 -6151589.259701064 0 0 0 0 0 74864909.97746836 -16572096.62485947 -16572096.62485947 -2621730.972463907 0 0 0 0 0 46728302.99767021 -769884.3654359578 -769884.3654359578 3041245.739326574 0 0 0 0 0 47765473.33830883 -2086143.434124485 -2086143.434124485 3219022.574087517 0 0 0 0 0 48977093.15805488 -3406989.702619049 -3406989.702619049 3325016.214633713 0 0 0 0 0 49963684.74143865 -4805383.081712368 -4805383.081712368 3274540.865644091 0 0 0 0 0 50789838.53085903 -6209585.609821831 -6209585.609821831 3091287.407081033 0 0 0 0 0 53249281.88399852 -7641977.901300367 -7641977.901300367 2953003.508906985 0 0 0 0 0 50782562.26932681 -6291436.734488423 -6291436.734488423 2782782.349133478 0 0 0 0 0 54303796.91716871 -8861521.158717336 -8861521.158717336 2659503.187802599 0 0 0 0 0 55443560.68435521 -10011862.50223197 -10011862.50223197 2326531.363709751 0 0 0 0 0 56664793.19595449 -11090378.33154102 -11090378.33154102 1958139.993733519 0 0 0 0 0 57956943.0666337 -12094018.63214858 -12094018.63214858 1558871.28808213 0 0 0 0 0 59311001.05743395 -13020585.80074124 -13020585.80074124 1133299.587501252 0 0 0 0 0 60717702.69528452 -13868963.61527306 -13868963.61527306 685929.0377521908 0 0 0 0 0 61529378.90552203 -13644136.49813287 -13644136.49813287 675990.8417141336 0 0 0 0 0 63352977.41777025 -14362059.76811679 -14362059.76811679 312291.332943793 0 0 0 0 0 64780835.37549652 -15019099.98924403 -15019099.98924403 -155444.0847955783 0 0 0 0 0 66231890.67427018 -15601383.24287039 -15601383.24287039 -629703.1030923993 0 0 0 0 0 67674974.72536597 -16108434.49628374 -16108434.49628374 -1111031.125542685 0 0 0 0 0 69110372.33886746 -16541999.96520157 -16541999.96520157 -1588505.862616617 0 0 0 0 0 70510300.67576902 -16897722.84640428 -16897722.84640428 -2046151.660369276 0 0 0 0 0 71717445.5707489 -16494183.36669944 -16494183.36669944 -1784914.47140343 0 0 0 0 0 72810145.98917112 -16752414.52507419 -16752414.52507419 -2330520.086567999 0 0 0 0 0 74208923.81422794 -16990483.39224099 -16990483.39224099 -2774403.28573957 0 0 0 0 0 75975502.93297644 -16179356.74122127 -16179356.74122127 -2338998.092333179 0 0 0 0 0 77296063.57292649 -16332433.13135044 -16332433.13135044 -2722816.577592439 0 0 0 0 0 79108868.66384645 -16049890.41618501 -16049890.41618501 -2963669.970044726 0 0 0 0 0 78043421.57650654 -16422665.64772916 -16422665.64772916 -3256362.090161324 0 0 0 0 0 80358165.56129868 -16119990.13788253 -16119990.13788253 -3336538.941791338 0 0 0 0 0 81581728.42282517 -16148371.65846079 -16148371.65846079 -3696644.990635059 0 0 0 0 0 82775810.3206913 -16137384.98400325 -16137384.98400325 -4043366.964930056 0 0 0 0 0 83938619.46393102 -16089792.58329084 -16089792.58329084 -4375545.944588326 0 0 0 0 0 85358210.41232456 -15630481.12399869 -15630481.12399869 -4506899.785809739 0 0 0 0 0 84341920.4371596 -16007838.57681844 -16007838.57681844 -4866170.165292313 0 0 0 0 0 86413724.24489872 -15523825.58131971 -15523825.58131971 -4800830.892227706 0 0 0 0 0 87435858.19166115 -15389716.64072435 -15389716.64072435 -5079200.980434935 0 0 0 0 0 88423331.35274297 -15230346.49589667 -15230346.49589667 -5341508.235498433 0 0 0 0 0 89376519.76519211 -15048265.80512254 -15048265.80512254 -5587569.456352038 0 0 0 0 0 90293438.69243452 -14845373.02198241 -14845373.02198241 -5817141.658836003 0 0 0 0 0 90369666.29163969 -14655035.78818266 -14655035.78818266 -6201889.359102003 0 0 0 0 0 92074749.36557652 -14081841.45237746 -14081841.45237746 -6016184.720820046 0 0 0 0 0 91210132.73934864 -14422626.16623766 -14422626.16623766 -6396920.561437377 0 0 0 0 0 92860780.14270653 -13840754.17998045 -13840754.17998045 -6194980.843938802 0 0 0 0 0 93612482.57014439 -13587573.05697108 -13587573.05697108 -6358455.844597342 0 0 0 0 0 94329703.62475759 -13323761.62646599 -13323761.62646599 -6506697.650805586 0 0 0 0 0 95014965.52169229 -13050645.38476821 -13050645.38476821 -6639735.586715468 0 0 0 0 0 95618228.17874797 -12530708.55929312 -12530708.55929312 -6549449.659930909 0 0 0 0 0 94893598.71807636 -12825840.08525793 -12825840.08525793 -6905588.667702566 0 0 0 0 0 96224898.92657746 -12255252.00134422 -12255252.00134422 -6655620.999318185 0 0 0 0 0 96802593.61408076 -11974713.04830262 -11974713.04830262 -6749207.659272805 0 0 0 0 0 97351720.06252487 -11690185.40065163 -11690185.40065163 -6830337.76946375 0 0 0 0 0 97873362.05633615 -11402396.79065098 -11402396.79065098 -6899219.892880972 0 0 0 0 0 98368118.80954035 -11112379.89497359 -11112379.89497359 -6956659.63090089 0 0 0 0 0 98600357.82032329 -10605679.2045427 -10605679.2045427 -7151372.621391551 0 0 0 0 0 98837009.13837218 -10821297.64902002 -10821297.64902002 -7003427.200873461 0 0 0 0 0 99148846.88279569 -10373991.90404603 -10373991.90404603 -6849535.593324849 0 0 0 0 0 99559672.89909874 -10094645.02858428 -10094645.02858428 -6878528.532398473 0 0 0 0 0 99947275.76581593 -9815659.987523478 -9815659.987523478 -6897934.240397307 0 0 0 0 0 100313078.2376723 -9537372.317583833 -9537372.317583833 -6908557.880125765 0 0 0 0 0 100657343.3396014 -9261432.772634581 -9261432.772634581 -6911687.642892034 0 0 0 0 0 100977742.535589 -8990231.279095806 -8990231.279095806 -6907800.583793084 0 0 0 0 0 100707439.7622847 -8803678.323718833 -8803678.323718833 -6968853.920661384 0 0 0 0 0 101104504.3601675 -8630996.852981145 -8630996.852981145 -6736592.730965195 0 0 0 0 0 101376944.9179856 -8378206.430771885 -8378206.430771885 -6714152.083549157 0 0 0 0 0 101639643.6693435 -8126949.279317109 -8126949.279317109 -6686187.884808592 0 0 0 0 0 101874698.3842264 -7877132.475147163 -7877132.475147163 -6652118.215563299 0 0 0 0 0 101622489.5125374 -7696237.937862929 -7696237.937862929 -6652721.654465493 0 0 0 0 0 101924644.5881664 -7440043.260059741 -7440043.260059741 -6430615.468681212 0 0 0 0 0 101888608.5269795 -7312626.812884605 -7312626.812884605 -6568160.048524074 0 0 0 0 0 102240877.1349479 -7100366.760735839 -7100366.760735839 -6307002.922005793 0 0 0 0 0 102746590.0416595 -6642034.745162311 -6642034.745162311 -6291806.61278461 0 0 0 0 0 102963846.9164773 -6413960.77885926 -6413960.77885926 -6262214.379354005 0 0 0 0 0 102513469.4266536 -6863023.752755406 -6863023.752755406 -6314868.117325537 0 0 0 0 0 102818310.9179777 -6262138.620422003 -6262138.620422003 -6321213.753672292 0 0 0 0 0 103111112.3208739 -6091463.614693251 -6091463.614693251 -6122566.379035836 0 0 0 0 0 103295637.881023 -5861248.784349297 -5861248.784349297 -6096324.85503466 0 0 0 0 0 75350403.67171755 -16598602.59133461 -16598602.59133461 -2491486.10349948 0 0 0 0 0 46085235.8881078 -724913.4880001895 -724913.4880001895 3009661.49761712 0 0 0 0 0 46947296.01593581 -1999448.260373768 -1999448.260373768 3120524.570624308 0 0 0 0 0 47421741.91821387 -3308719.40309545 -3308719.40309545 2953743.515348047 0 0 0 0 0 48170066.20731223 -4712703.865203106 -4712703.865203106 2788596.342779317 0 0 0 0 0 49157250.95857849 -6133813.789007676 -6133813.789007676 2649730.538807333 0 0 0 0 0 51881080.6945038 -7592510.879826113 -7592510.879826113 2592549.199410477 0 0 0 0 0 51744351.75753549 -7563248.245523968 -7563248.245523968 2853555.892833817 0 0 0 0 0 53084395.4390776 -8822165.170385255 -8822165.170385255 2341765.294559885 0 0 0 0 0 54379863.2486063 -9984143.618627135 -9984143.618627135 2053709.273638041 0 0 0 0 0 55755487.99526925 -11072868.12761393 -11072868.12761393 1729059.255289641 0 0 0 0 0 57200747.55937411 -12085588.25517714 -12085588.25517714 1372508.556474892 0 0 0 0 0 58704637.55268908 -13019995.00476657 -13019995.00476657 988057.7384858807 0 0 0 0 0 60256540.54025588 -13874981.55690401 -13874981.55690401 579828.6766125045 0 0 0 0 0 62167701.39969576 -14638950.30006803 -14638950.30006803 220998.4718729283 0 0 0 0 0 63059679.18196265 -14380318.12993878 -14380318.12993878 254638.5206794551 0 0 0 0 0 64615811.1847287 -15040451.31751074 -15040451.31751074 -180343.5582557663 0 0 0 0 0 66190458.77061528 -15623460.20383058 -15623460.20383058 -624553.2066602296 0 0 0 0 0 67761403.1658583 -16133075.65246003 -16133075.65246003 -1073720.839778412 0 0 0 0 0 69330945.77231571 -16570493.39107271 -16570493.39107271 -1516553.467309399 0 0 0 0 0 70923547.77562197 -16920766.59818045 -16920766.59818045 -1936724.249670892 0 0 0 0 0 71985922.79821581 -17192746.49060338 -17192746.49060338 -2513450.483289174 0 0 0 0 0 73206178.48129588 -16782979.44626516 -16782979.44626516 -2215275.534951767 0 0 0 0 0 74658889.14523427 -17015922.82249521 -17015922.82249521 -2648973.320929312 0 0 0 0 0 76169223.33547261 -16729250.4089416 -16729250.4089416 -3029162.318354964 0 0 0 0 0 77459356.22026922 -16840792.63910544 -16840792.63910544 -3429846.199384725 0 0 0 0 0 79287690.02706774 -16500451.69926848 -16500451.69926848 -3648397.951769628 0 0 0 0 0 78581939.84110478 -16445768.87934778 -16445768.87934778 -3111216.467263873 0 0 0 0 0 80509199.42317012 -16534079.69286148 -16534079.69286148 -4027194.11506085 0 0 0 0 0 81705503.6887313 -16526763.00634377 -16526763.00634377 -4390419.384501116 0 0 0 0 0 82873903.11096154 -16481239.61594914 -16481239.61594914 -4736992.701705336 0 0 0 0 0 84012664.00895911 -16400416.62915012 -16400416.62915012 -5066331.159421389 0 0 0 0 0 85408596.78964452 -15900825.14002459 -15900825.14002459 -5170248.294019087 0 0 0 0 0 85068616.87223302 -16008177.86872454 -16008177.86872454 -4692438.937732124 0 0 0 0 0 86444355.4461145 -15765063.33031313 -15765063.33031313 -5456749.935711792 0 0 0 0 0 87447924.52458437 -15602845.98116503 -15602845.98116503 -5725609.902687621 0 0 0 0 0 88418374.16622883 -15417200.34262543 -15417200.34262543 -5976878.987990239 0 0 0 0 0 89355165.09250203 -15209593.97388913 -15209593.97388913 -6209660.294051168 0 0 0 0 0 90257675.58407967 -14982842.01543991 -14982842.01543991 -6424744.246356732 0 0 0 0 0 91174906.37091237 -14623993.70055982 -14623993.70055982 -6030413.217832273 0 0 0 0 0 92018270.05763179 -14175367.67768761 -14175367.67768761 -6575197.55708533 0 0 0 0 0 92021158.39029267 -14386117.43790938 -14386117.43790938 -6227593.246870117 0 0 0 0 0 92793579.70007975 -13915047.60609027 -13915047.60609027 -6736690.759118165 0 0 0 0 0 93535410.28371158 -13643666.37406004 -13643666.37406004 -6881927.498917616 0 0 0 0 0 94244214.72405307 -13362870.2065031 -13362870.2065031 -7011432.778632923 0 0 0 0 0 94921830.95859675 -13073955.84752647 -13073955.84752647 -7126270.455568126 0 0 0 0 0 95523178.78412235 -12542657.14058315 -12542657.14058315 -7006988.737531756 0 0 0 0 0 95669150.94646126 -12769545.62977968 -12769545.62977968 -6758673.433896629 0 0 0 0 0 96124294.49336085 -12254133.92473082 -12254133.92473082 -7094988.53038716 0 0 0 0 0 96697126.038856 -11961355.79708174 -11961355.79708174 -7169912.433179894 0 0 0 0 0 97241973.10102417 -11665390.81690118 -11665390.81690118 -7232348.473838053 0 0 0 0 0 97759937.80067599 -11367045.14136554 -11367045.14136554 -7282705.013968256 0 0 0 0 0 98251798.75197491 -11067551.47169956 -11067551.47169956 -7321803.616635301 0 0 0 0 0 99280639.96051098 -10530234.95868823 -10530234.95868823 -7040038.651610587 0 0 0 0 0 98718500.09983246 -10767906.3142352 -10767906.3142352 -7350175.910866859 0 0 0 0 0 99033808.07295528 -10318070.8364101 -10318070.8364101 -7172729.10505094 0 0 0 0 0 99442990.2436167 -10031185.47890571 -10031185.47890571 -7184201.167170403 0 0 0 0 0 99829229.5991317 -9745352.741135694 -9745352.741135694 -7186795.813737235 0 0 0 0 0 100194389.2106825 -9461437.134734742 -9461437.134734742 -7181166.612891055 0 0 0 0 0 100539030.127854 -9180303.781909481 -9180303.781909481 -7165974.853550368 0 0 0 0 0 100861029.0805174 -8903804.38201626 -8903804.38201626 -7141936.528953844 0 0 0 0 0 101272290.8952001 -8726724.512663098 -8726724.512663098 -6898269.385008574 0 0 0 0 0 100992678.153653 -8537726.689443858 -8537726.689443858 -6934151.175071466 0 0 0 0 0 101265616.7842411 -8287492.74216851 -8287492.74216851 -6912097.402230285 0 0 0 0 0 101528691.3225732 -8029595.662538619 -8029595.662538619 -6868280.76631109 0 0 0 0 0 101754709.2503083 -7772096.554171787 -7772096.554171787 -6837362.233368803 0 0 0 0 0 102115320.549883 -7617029.7069858 -7617029.7069858 -6628278.359176402 0 0 0 0 0 101970827.6047715 -7426281.041247818 -7426281.041247818 -6683685.639981664 0 0 0 0 0 102302236.1546704 -7221172.614385337 -7221172.614385337 -6436293.97779929 0 0 0 0 0 102183838.9872771 -7061452.044189569 -7061452.044189569 -6556589.124161338 0 0 0 0 0 102637948.3064626 -6571940.826700033 -6571940.826700033 -6481985.258560241 0 0 0 0 0 102428340.8856667 -6811004.734163514 -6811004.734163514 -6507283.612659188 0 0 0 0 0 102835657.3494704 -6333280.000237219 -6333280.000237219 -6447966.480019736 0 0 0 0 0 103160583.0591996 -6183057.644883978 -6183057.644883978 -6227080.474603909 0 0 0 0 0 103023249.331508 -6032053.396774116 -6032053.396774116 -6328733.146555784 0 0 0 0 0 103218751.5191033 -5809933.146714933 -5809933.146714933 -6284160.134414033 0 0 0 0 0 103499227.1420474 -5636678.69593259 -5636678.69593259 -6054778.862680024 0 0 0 0 0 75535951.75228789 -17163422.56234353 -17163422.56234353 -3212566.297417121 0 0 0 0 0 45051505.85722727 -847193.0136571462 -847193.0136571462 2857234.664057742 0 0 0 0 0 45596627.47587007 -2236025.259422718 -2236025.259422718 2830692.413283697 0 0 0 0 0 47374632.02908961 -3254196.16078188 -3254196.16078188 3184646.328696791 0 0 0 0 0 48251814.50277366 -4615611.274096564 -4615611.274096564 3081005.160492701 0 0 0 0 0 49185005.11751803 -6051701.213134088 -6051701.213134088 2936858.595637725 0 0 0 0 0 50158471.20439958 -7462852.017420913 -7462852.017420913 2718783.948278211 0 0 0 0 0 52804578.25894874 -8842063.714504445 -8842063.714504445 2567499.679105732 0 0 0 0 0 50276785.3002872 -7497185.972356341 -7497185.972356341 2458045.659014667 0 0 0 0 0 53972920.21627979 -10050317.60779746 -10050317.60779746 2238290.465890889 0 0 0 0 0 55228844.76905839 -11183482.72472617 -11183482.72472617 1871015.909420181 0 0 0 0 0 56563143.44474168 -12238711.81034685 -12238711.81034685 1470376.115914665 0 0 0 0 0 57964250.26134112 -13213623.31560848 -13213623.31560848 1040984.788555877 0 0 0 0 0 59422313.70605052 -14106637.21190515 -14106637.21190515 587740.4227530294 0 0 0 0 0 60927825.44292981 -14917298.40999817 -14917298.40999817 115370.2472389835 0 0 0 0 0 61846977.5263248 -14650268.06079729 -14650268.06079729 152029.6821128892 0 0 0 0 0 63651878.54172166 -15330579.4633527 -15330579.4633527 -257185.8139870754 0 0 0 0 0 65162584.60678618 -15944053.95541696 -15944053.95541696 -744739.15168527 0 0 0 0 0 66680215.7705541 -16483033.38105063 -16483033.38105063 -1233453.748801661 0 0 0 0 0 68182894.01927149 -16945733.57751143 -16945733.57751143 -1728911.56309186 0 0 0 0 0 69690918.87276275 -17330982.31439346 -17330982.31439346 -2218550.198996615 0 0 0 0 0 71197314.82932834 -17639916.66375587 -17639916.66375587 -2696077.519220264 0 0 0 0 0 72507846.53936537 -17217476.14592196 -17217476.14592196 -2379808.123963465 0 0 0 0 0 73467812.02149829 -17420221.81632179 -17420221.81632179 -2945050.362455582 0 0 0 0 0 74916764.56291969 -17609906.69169809 -17609906.69169809 -3392494.940442557 0 0 0 0 0 76721853.61015113 -16756067.77471431 -16756067.77471431 -2885764.935192924 0 0 0 0 0 78067719.20017375 -16861035.64979311 -16861035.64979311 -3276605.948053293 0 0 0 0 0 79875125.08983068 -16519539.61049159 -16519539.61049159 -3494823.342485614 0 0 0 0 0 78760808.83809495 -16915356.67994393 -16915356.67994393 -3822497.756719124 0 0 0 0 0 81146531.7113992 -16548114.9568129 -16548114.9568129 -3865388.117052925 0 0 0 0 0 82388242.27613455 -16535263.18164603 -16535263.18164603 -4221535.39516682 0 0 0 0 0 83596891.2895558 -16484024.17781922 -16484024.17781922 -4562406.012642266 0 0 0 0 0 84770922.56479037 -16397249.37430975 -16397249.37430975 -4887355.227611704 0 0 0 0 0 86164142.21237174 -15895217.30392237 -15895217.30392237 -4993549.660373772 0 0 0 0 0 85120189.21838361 -16286887.24224848 -16286887.24224848 -5377705.705692007 0 0 0 0 0 87223823.78594241 -15753485.60038982 -15753485.60038982 -5278334.482803927 0 0 0 0 0 88247513.01762852 -15585278.42131644 -15585278.42131644 -5546406.000985373 0 0 0 0 0 89235699.84231012 -15393572.50612045 -15393572.50612045 -5797516.515622574 0 0 0 0 0 90184961.06858265 -15180187.97859453 -15180187.97859453 -6031399.393938499 0 0 0 0 0 91096819.24663405 -14947652.12517635 -14947652.12517635 -6248158.357259212 0 0 0 0 0 91126361.1842466 -14738893.98772416 -14738893.98772416 -6622196.575405952 0 0 0 0 0 92832155.03260656 -14133649.21160115 -14133649.21160115 -6408662.749406914 0 0 0 0 0 91960775.25600804 -14479684.45411481 -14479684.45411481 -6802348.019356326 0 0 0 0 0 93607936.95151602 -13868293.54749081 -13868293.54749081 -6573821.653850913 0 0 0 0 0 94348123.31108621 -13592162.85828668 -13592162.85828668 -6723439.631196307 0 0 0 0 0 95053869.32141493 -13306797.64191395 -13306797.64191395 -6857007.006645067 0 0 0 0 0 95726618.05646068 -13013098.54733649 -13013098.54733649 -6975419.089273291 0 0 0 0 0 96292398.66934556 -12482169.64854107 -12482169.64854107 -6864255.846170749 0 0 0 0 0 95569411.1942783 -12778420.93554184 -12778420.93554184 -7226787.797075593 0 0 0 0 0 96885449.73224299 -12189728.87430103 -12189728.87430103 -6956791.596092893 0 0 0 0 0 97448736.03355676 -11893255.1231662 -11893255.1231662 -7036477.104947782 0 0 0 0 0 97983164.16981235 -11593820.5572168 -11593820.5572168 -7103699.733268444 0 0 0 0 0 98489275.20226127 -11292390.39980536 -11292390.39980536 -7159005.719112378 0 0 0 0 0 98968320.93070585 -10990117.37468315 -10990117.37468315 -7203180.178079648 0 0 0 0 0 99160600.1309333 -10469109.55868197 -10469109.55868197 -7368179.757391179 0 0 0 0 0 99421037.77825122 -10687882.88877851 -10687882.88877851 -7236660.519786834 0 0 0 0 0 99699625.40519674 -10240065.83854515 -10240065.83854515 -7066611.275820716 0 0 0 0 0 100094132.9668946 -9951198.122289464 -9951198.122289464 -7083201.834644645 0 0 0 0 0 100465598.649423 -9663565.798109408 -9663565.798109408 -7090225.535580502 0 0 0 0 0 100816620.6811884 -9377942.055566462 -9377942.055566462 -7089139.629565898 0 0 0 0 0 101144806.9863191 -9096535.206945427 -9096535.206945427 -7081990.884134161 0 0 0 0 0 101448219.2546135 -8820725.906925179 -8820725.906925179 -7068672.082129932 0 0 0 0 0 101155341.0939689 -8630373.658532867 -8630373.658532867 -7110807.633548343 0 0 0 0 0 101547615.1831634 -8465064.160111569 -8465064.160111569 -6882091.296289714 0 0 0 0 0 101809227.9758093 -8202731.496340309 -8202731.496340309 -6847474.08723944 0 0 0 0 0 102047982.1718556 -7949021.908194756 -7949021.908194756 -6808521.044615467 0 0 0 0 0 102281115.1606419 -7692496.175523833 -7692496.175523833 -6765138.220098935 0 0 0 0 0 102004033.2813588 -7526389.394137205 -7526389.394137205 -6794295.362300075 0 0 0 0 0 102353480.086999 -7347174.555791304 -7347174.555791304 -6563374.274017626 0 0 0 0 0 102240853.2565958 -7179283.911707819 -7179283.911707819 -6641912.807433166 0 0 0 0 0 102554127.3825293 -6975486.610587934 -6975486.610587934 -6420563.791970933 0 0 0 0 0 103074413.1052094 -6472258.795136239 -6472258.795136239 -6392357.606841165 0 0 0 0 0 102862340.8520333 -6705951.607427199 -6705951.607427199 -6461629.385217271 0 0 0 0 0 103239370.2905305 -6269868.081153443 -6269868.081153443 -6365736.500562213 0 0 0 0 0 103132108.6644327 -6140213.159324211 -6140213.159324211 -6389701.340945761 0 0 0 0 0 103361682.499646 -5944306.227268764 -5944306.227268764 -6214972.493052263 0 0 0 0 0 103613944.2003233 -5717689.880476271 -5717689.880476271 -6163382.791740122 0 0 0 0 0 103419309.8973699 -5584903.149567083 -5584903.149567083 -6228637.999894657 0 0 0 0 0 76124692.93322289 -17186255.709689 -17186255.709689 -3064222.12224721 0 0 0 0 0 43869947.1864317 -750194.7621064209 -750194.7621064209 2618081.083547465 0 0 0 0 0 46369917.31272067 -2557672.093521698 -2557672.093521698 3183560.054230085 0 0 0 0 0 45419462.05839579 -3059916.868576344 -3059916.868576344 2639159.366920454 0 0 0 0 0 46450346.14509991 -4471442.715106399 -4471442.715106399 2570766.98187965 0 0 0 0 0 47462624.07514747 -5946086.577011773 -5946086.577011773 2454648.882468928 0 0 0 0 0 48605877.91877234 -7378309.120816784 -7378309.120816784 2290595.798261498 0 0 0 0 0 51508700.24036889 -8791037.753908243 -8791037.753908243 2223252.729542153 0 0 0 0 0 51247741.0158913 -8806375.331335362 -8806375.331335362 2446284.2061551 0 0 0 0 0 52840280.25652221 -10010863.08332711 -10010863.08332711 1940981.686131817 0 0 0 0 0 54259737.73920345 -11155044.68069447 -11155044.68069447 1620263.801843749 0 0 0 0 0 55754730.20215685 -12220051.36624689 -12220051.36624689 1264578.912127837 0 0 0 0 0 57314101.58891845 -13203471.38823756 -13203471.38823756 878785.0278610106 0 0 0 0 0 58926151.9067829 -14103729.64812932 -14103729.64812932 467245.9181150606 0 0 0 0 0 60579783.03324977 -14920347.05016878 -14920347.05016878 34275.68587332284 0 0 0 0 0 62471212.95056257 -15645811.26417337 -15645811.26417337 -371980.7247427872 0 0 0 0 0 63467281.76887428 -15345725.0240025 -15345725.0240025 -290966.2486338838 0 0 0 0 0 65108023.29379747 -15962175.58868551 -15962175.58868551 -745406.6520379846 0 0 0 0 0 66751325.29202012 -16501099.58716872 -16501099.58716872 -1204290.40808409 0 0 0 0 0 68412384.54297051 -16964073.21241213 -16964073.21241213 -1661922.210370558 0 0 0 0 0 70057651.28296122 -17353158.19292637 -17353158.19292637 -2116341.594048779 0 0 0 0 0 71670081.58469522 -17668536.06696022 -17668536.06696022 -2566750.162526483 0 0 0 0 0 72693361.04262215 -17875415.97419377 -17875415.97419377 -3146774.899805086 0 0 0 0 0 73984038.57330465 -17442735.14626775 -17442735.14626775 -2808493.658614033 0 0 0 0 0 75463690.49717516 -17624299.06829719 -17624299.06829719 -3250267.250073004 0 0 0 0 0 76887557.40591261 -17277632.09542223 -17277632.09542223 -3619758.643732537 0 0 0 0 0 78212147.40528083 -17347325.77365683 -17347325.77365683 -4014560.651740663 0 0 0 0 0 80030603.46339835 -16949385.99993275 -16949385.99993275 -4210559.850818533 0 0 0 0 0 79378042.68725272 -16928867.51516279 -16928867.51516279 -3664708.994252983 0 0 0 0 0 81274995.2997717 -16940452.47189462 -16940452.47189462 -4583204.108014455 0 0 0 0 0 82490037.5964683 -16891215.58975591 -16891215.58975591 -4938690.74429302 0 0 0 0 0 83673530.27725863 -16805131.39863441 -16805131.39863441 -5276410.431766004 0 0 0 0 0 84823895.85054049 -16684711.62785652 -16684711.62785652 -5595299.993622627 0 0 0 0 0 86194828.06610611 -16143278.72218582 -16143278.72218582 -5670835.105961432 0 0 0 0 0 85908555.93354607 -16277606.58165183 -16277606.58165183 -5195628.222773937 0 0 0 0 0 87235616.61540751 -15972301.77792356 -15972301.77792356 -5945283.691603228 0 0 0 0 0 88241996.90027337 -15776060.43334818 -15776060.43334818 -6201396.033401653 0 0 0 0 0 89212243.09832495 -15557853.77978836 -15557853.77978836 -6438721.221799235 0 0 0 0 0 90146485.12035531 -15319524.64701001 -15319524.64701001 -6657204.714042026 0 0 0 0 0 91044477.38374546 -15063214.72430337 -15063214.72430337 -6856981.568628036 0 0 0 0 0 91970786.42703892 -14698024.61792425 -14698024.61792425 -6447906.262918741 0 0 0 0 0 92761121.40218173 -14206949.35402804 -14206949.35402804 -6965341.876118483 0 0 0 0 0 92808120.70717184 -14433476.88028474 -14433476.88028474 -6631069.045283315 0 0 0 0 0 93527377.31371826 -13922968.50644391 -13922968.50644391 -7111410.236121074 0 0 0 0 0 94258299.5306735 -13629125.45808014 -13629125.45808014 -7240960.594469458 0 0 0 0 0 94955741.22095984 -13327162.97761575 -13327162.97761575 -7354979.617207588 0 0 0 0 0 95621938.98151764 -13018682.06411985 -13018682.06411985 -7454637.347898017 0 0 0 0 0 96186991.27598757 -12477606.46079401 -12477606.46079401 -7313418.842332617 0 0 0 0 0 96367269.53905362 -12713162.85269782 -12713162.85269782 -7080439.35527155 0 0 0 0 0 96775028.0490503 -12172471.81481197 -12172471.81481197 -7386442.104778294 0 0 0 0 0 97334012.92150454 -11864276.95740273 -11864276.95740273 -7446573.190524002 0 0 0 0 0 97864765.83758102 -11553951.78903301 -11553951.78903301 -7494128.574121107 0 0 0 0 0 98368049.11362465 -11242807.45491849 -11242807.45491849 -7530157.492588591 0 0 0 0 0 98844844.0647766 -10931600.25135926 -10931600.25135926 -7554985.275989689 0 0 0 0 0 99848058.82239269 -10386612.93562797 -10386612.93562797 -7259931.420727653 0 0 0 0 0 99295906.34086713 -10621287.29167608 -10621287.29167608 -7569285.819957574 0 0 0 0 0 99578407.86636864 -10171690.01970727 -10171690.01970727 -7376130.340739406 0 0 0 0 0 99971934.53088596 -9876047.549571535 -9876047.549571535 -7374644.262532813 0 0 0 0 0 100342767.1135444 -9582995.846166115 -9582995.846166115 -7365510.174757249 0 0 0 0 0 100693547.9080375 -9292307.526398294 -9292307.526398294 -7347693.661910668 0 0 0 0 0 101022695.7992786 -9005580.183748992 -9005580.183748992 -7321642.092627087 0 0 0 0 0 101327892.2975879 -8722285.174476365 -8722285.174476365 -7285607.048696742 0 0 0 0 0 101729138.744179 -8548325.254128443 -8548325.254128443 -7045664.632402035 0 0 0 0 0 101436277.7389181 -8367306.049484699 -8367306.049484699 -7078742.448070399 0 0 0 0 0 101702522.1279833 -8100247.186603241 -8100247.186603241 -7020471.075054048 0 0 0 0 0 101935619.4953791 -7844025.067327354 -7844025.067327354 -6976308.141446923 0 0 0 0 0 102166634.3552753 -7588003.309100424 -7588003.309100424 -6927412.339822752 0 0 0 0 0 102526942.8796689 -7428756.928962455 -7428756.928962455 -6701645.292312668 0 0 0 0 0 102264832.6830657 -7292512.113523211 -7292512.113523211 -6785278.191032153 0 0 0 0 0 102588584.9839877 -7093320.253987231 -7093320.253987231 -6520853.536731672 0 0 0 0 0 102631569.6890336 -6954203.932640282 -6954203.932640282 -6680555.176167501 0 0 0 0 0 102800262.18258 -6586108.488768614 -6586108.488768614 -6562128.512386653 0 0 0 0 0 102973996.9315205 -6369731.014223268 -6369731.014223268 -6511134.736946007 0 0 0 0 0 102712751.7471593 -6777636.863671556 -6777636.863671556 -6583088.575178145 0 0 0 0 0 103171629.3422251 -6142097.231505708 -6142097.231505708 -6387230.274799936 0 0 0 0 0 103306787.5903345 -5898103.045842343 -5898103.045842343 -6399488.166912025 0 0 0 0 0 103498489.4167612 -5645305.598899543 -5645305.598899543 -6336763.771414107 0 0 0 0 0 103702927.7461242 -5416501.616424779 -5416501.616424779 -6004064.297931687 0 0 0 0 0 103791004.8195189 -5490962.640470018 -5490962.640470018 -6120416.442332879 0 0 0 0 0 76295644.48896348 -17738669.18703453 -17738669.18703453 -3821179.072741376 0 0 0 0 0 43302543.07465164 -814580.5001647539 -814580.5001647539 2634001.021869262 0 0 0 0 0 44544248.82057969 -2316366.298581523 -2316366.298581523 2787291.858613159 0 0 0 0 0 43985418.71518087 -2586389.144448539 -2586389.144448539 2468742.370612765 0 0 0 0 0 46635334.86776639 -4339224.191116152 -4339224.191116152 2893451.919267553 0 0 0 0 0 47483184.04618107 -5864698.673726686 -5864698.673726686 2747925.255473472 0 0 0 0 0 48512874.24524281 -7336989.150796125 -7336989.150796125 2551000.628964767 0 0 0 0 0 49623079.41775836 -8747985.155454012 -8747985.155454012 2293693.732553702 0 0 0 0 0 52441163.80322438 -10074903.13041958 -10074903.13041958 2125099.259790366 0 0 0 0 0 49866226.33053645 -8737875.237585464 -8737875.237585464 2069655.173970128 0 0 0 0 0 53732624.53462204 -11265956.33333135 -11265956.33333135 1761661.693511013 0 0 0 0 0 55108488.46647058 -12375868.29664661 -12375868.29664661 1361484.985568977 0 0 0 0 0 56557721.24889648 -13402001.39794684 -13402001.39794684 929909.5633631551 0 0 0 0 0 58068849.89839967 -14342526.22702871 -14342526.22702871 472130.5447699479 0 0 0 0 0 59631424.98516016 -15196475.11984972 -15196475.11984972 -6768.36444201268 0 0 0 0 0 61235961.45273616 -15963947.40607161 -15963947.40607161 -501892.5530780223 0 0 0 0 0 62265749.78343793 -15653535.55995382 -15653535.55995382 -415816.1673601863 0 0 0 0 0 64042685.21601008 -16292892.78665052 -16292892.78665052 -869853.3141979484 0 0 0 0 0 65629856.61250286 -16859442.75187866 -16859442.75187866 -1372883.895073982 0 0 0 0 0 67220659.77212834 -17347975.42614182 -17347975.42614182 -1879802.850731976 0 0 0 0 0 68795610.71501283 -17760857.75900887 -17760857.75900887 -2381803.165401103 0 0 0 0 0 70372890.34482403 -18098017.3520583 -18098017.3520583 -2873102.584400439 0 0 0 0 0 71983677.5365355 -18355122.63657119 -18355122.63657119 -3345484.638389398 0 0 0 0 0 73269557.07477498 -17892829.14981642 -17892829.14981642 -3015123.422228211 0 0 0 0 0 74221985.52318026 -18059898.88576282 -18059898.88576282 -3584960.71882282 0 0 0 0 0 75700436.83125201 -18198227.14944296 -18198227.14944296 -4026833.701846782 0 0 0 0 0 77517968.28856944 -17294748.43796635 -17294748.43796635 -3464210.654603363 0 0 0 0 0 78898532.36575028 -17359359.81283953 -17359359.81283953 -3847995.285532899 0 0 0 0 0 80695489.6993373 -16959418.19917864 -16959418.19917864 -4044512.492893875 0 0 0 0 0 79538174.85217024 -17377928.03449761 -17377928.03449761 -4403217.813225576 0 0 0 0 0 81988080.92416619 -16945333.6477875 -16945333.6477875 -4409420.205186922 0 0 0 0 0 83244558.11262888 -16890323.6538928 -16890323.6538928 -4759033.186368961 0 0 0 0 0 84465004.58684509 -16798080.55760445 -16798080.55760445 -5092076.338164988 0 0 0 0 0 85646857.24690785 -16671369.80371231 -16671369.80371231 -5407749.421576216 0 0 0 0 0 87008654.96290737 -16127838.68906088 -16127838.68906088 -5486915.319494242 0 0 0 0 0 85939720.86119583 -16532874.96658637 -16532874.96658637 -5895103.977793151 0 0 0 0 0 88069766.16618998 -15950680.73893116 -15950680.73893116 -5760581.796781092 0 0 0 0 0 89092458.41190156 -15748521.75586843 -15748521.75586843 -6016516.496926862 0 0 0 0 0 90076893.2801796 -15524083.1610014 -15524083.1610014 -6255117.328521885 0 0 0 0 0 91020725.82267317 -15279793.29873533 -15279793.29873533 -6475307.2941196 0 0 0 0 0 91924063.88418211 -15017699.4136657 -15017699.4136657 -6677690.66942346 0 0 0 0 0 91906378.93120997 -14791525.89301604 -14791525.89301604 -7038971.118535608 0 0 0 0 0 93608155.66234851 -14155718.98182815 -14155718.98182815 -6797665.106334588 0 0 0 0 0 92732455.08109577 -14505770.71834369 -14505770.71834369 -7202847.533746645 0 0 0 0 0 94371348.55492112 -13866765.04023855 -13866765.04023855 -6947831.582942718 0 0 0 0 0 95098723.94850466 -13568294.59325955 -13568294.59325955 -7082205.398255504 0 0 0 0 0 95790916.36703272 -13261493.3472239 -13261493.3472239 -7200524.28250331 0 0 0 0 0 96449389.06517161 -12948430.8382273 -12948430.8382273 -7304410.858431171 0 0 0 0 0 96976264.88760652 -12408278.73004736 -12408278.73004736 -7171792.754212567 0 0 0 0 0 96256729.01151076 -12704877.34609055 -12704877.34609055 -7539712.083625657 0 0 0 0 0 97553747.02814378 -12099462.66335819 -12099462.66335819 -7249763.585329152 0 0 0 0 0 98100998.25281021 -11787815.59373601 -11787815.59373601 -7314895.545284562 0 0 0 0 0 98618764.08074851 -11474488.58528417 -11474488.58528417 -7367862.515555505 0 0 0 0 0 99108181.81245978 -11160482.56073078 -11160482.56073078 -7409166.410139833 0 0 0 0 0 99570146.87919025 -10846687.03376784 -10846687.03376784 -7439379.774149528 0 0 0 0 0 99721981.89116898 -10312928.0991821 -10312928.0991821 -7573502.273992489 0 0 0 0 0 100005616.3804557 -10533954.67534182 -10533954.67534182 -7459024.941217965 0 0 0 0 0 100249704.8591775 -10087199.36393502 -10087199.36393502 -7273558.953577472 0 0 0 0 0 100626934.4940606 -9790164.226103971 -9790164.226103971 -7277306.814724572 0 0 0 0 0 100982170.0150906 -9495552.342582677 -9495552.342582677 -7272094.745297197 0 0 0 0 0 101316305.8108443 -9204144.613757459 -9204144.613757459 -7259663.310558177 0 0 0 0 0 101629051.804805 -8916124.955007216 -8916124.955007216 -7240478.500641108 0 0 0 0 0 101919340.4466636 -8632127.081042634 -8632127.081042634 -7213894.559696358 0 0 0 0 0 101611449.6473103 -8445200.399627451 -8445200.399627451 -7245918.870436343 0 0 0 0 0 102002820.7969903 -8271843.908077921 -8271843.908077921 -7003047.754902622 0 0 0 0 0 102239943.7395528 -8016650.15089496 -8016650.15089496 -6980719.691691274 0 0 0 0 0 102465499.1660853 -7754786.050007918 -7754786.050007918 -6921054.903092535 0 0 0 0 0 102694285.3038946 -7492095.844046167 -7492095.844046167 -6866345.649593838 0 0 0 0 0 102415007.112904 -7342016.660397899 -7342016.660397899 -6876422.562243529 0 0 0 0 0 102726901.2410192 -7208008.71114138 -7208008.71114138 -6692618.563422965 0 0 0 0 0 102673095.3664102 -7080941.372994648 -7080941.372994648 -6747010.073873284 0 0 0 0 0 102846879.5249521 -6879753.48613089 -6879753.48613089 -6571642.240793723 0 0 0 0 0 103255220.9370876 -6492987.96298075 -6492987.96298075 -6511090.476152227 0 0 0 0 0 103404846.3475142 -6273922.894304653 -6273922.894304653 -6459204.129576806 0 0 0 0 0 103108798.5585672 -6704485.175717834 -6704485.175717834 -6592022.734106743 0 0 0 0 0 103526301.3097398 -6062728.840257453 -6062728.840257453 -6420445.336049622 0 0 0 0 0 103705981.2897581 -5804305.524518181 -5804305.524518181 -6293863.622790742 0 0 0 0 0 103874678.6421703 -5561487.332093397 -5561487.332093397 -6230491.279919494 0 0 0 0 0 103597335.2955641 -5349125.53872087 -5349125.53872087 -6182815.656092145 0 0 0 0 0 103686638.7220537 -5424693.763586616 -5424693.763586616 -6265731.770595495 0 0 0 0 0 103859224.984508 -5195768.617488486 -5195768.617488486 -5958882.648262592 0 0 0 0 0 76961419.04776269 -17749514.90493358 -17749514.90493358 -3661099.593123198 0 0 0 0 0 42088465.00539347 -596631.5869360274 -596631.5869360274 2272174.183933159 0 0 0 0 0 42254743.62639087 -2300680.226472314 -2300680.226472314 2102944.802977665 0 0 0 0 0 45110458.69570595 -3970822.581248786 -3970822.581248786 2718180.067644066 0 0 0 0 0 44676379.50424556 -4194151.505118207 -4194151.505118207 2324648.687471871 0 0 0 0 0 45699634.35754324 -5738104.076984339 -5738104.076984339 2239384.174403675 0 0 0 0 0 46863680.44377916 -7230350.282583054 -7230350.282583054 2085216.334378139 0 0 0 0 0 48154164.41698088 -8661256.177286945 -8661256.177286945 1883887.275307351 0 0 0 0 0 51234345.15488447 -10021132.35527234 -10021132.35527234 1800243.953609955 0 0 0 0 0 50846634.36986488 -10082269.88998025 -10082269.88998025 1983437.782929951 0 0 0 0 0 52697525.83654788 -11224433.93041166 -11224433.93041166 1486163.042078981 0 0 0 0 0 54243587.43656215 -12345180.33643609 -12345180.33643609 1134005.998577618 0 0 0 0 0 55859874.56950912 -13380642.86623208 -13380642.86623208 748675.3783592202 0 0 0 0 0 57534282.41895082 -14329080.93421298 -14329080.93421298 335291.0546708881 0 0 0 0 0 59255029.10954946 -15189512.31724275 -15189512.31724275 -101378.0076325973 0 0 0 0 0 61010248.78460806 -15962242.62218795 -15962242.62218795 -556962.0520800097 0 0 0 0 0 62871819.8141048 -16645997.89134762 -16645997.89134762 -1008112.687918128 0 0 0 0 0 63973170.79698413 -16304304.1734048 -16304304.1734048 -878704.7855288304 0 0 0 0 0 65690417.9164411 -16872784.83047103 -16872784.83047103 -1349333.146284081 0 0 0 0 0 67405051.49595435 -17363865.75082383 -17363865.75082383 -1824708.325958184 0 0 0 0 0 69129159.20751731 -17774443.90638187 -17774443.90638187 -2293139.029072221 0 0 0 0 0 70838972.27484873 -18102896.05982209 -18102896.05982209 -2760017.72586935 0 0 0 0 0 72494153.82632305 -18360952.94149654 -18360952.94149654 -3227241.984187122 0 0 0 0 0 73513800.12414221 -18530368.90759763 -18530368.90759763 -3785407.298796928 0 0 0 0 0 74797550.42464428 -18061134.59989678 -18061134.59989678 -3445072.620486658 0 0 0 0 0 76336884.36600804 -18199065.59556862 -18199065.59556862 -3871860.62400999 0 0 0 0 0 77669448.41877358 -17804052.75417128 -17804052.75417128 -4225062.997052344 0 0 0 0 0 79019583.32907274 -17824302.37872908 -17824302.37872908 -4618492.829003014 0 0 0 0 0 80830389.97848119 -17367076.28785308 -17367076.28785308 -4785945.049755012 0 0 0 0 0 80235742.87346551 -17383044.35926183 -17383044.35926183 -4231602.93542575 0 0 0 0 0 82093706.40880854 -17313854.98109547 -17313854.98109547 -5150717.076794039 0 0 0 0 0 83323976.51453996 -17222300.19829881 -17222300.19829881 -5497045.091805219 0 0 0 0 0 84519498.25343958 -17094560.59628646 -17094560.59628646 -5823588.803178014 0 0 0 0 0 85678276.68852553 -16934074.6215808 -16934074.6215808 -6130167.596288889 0 0 0 0 0 87019336.3813583 -16352210.60948813 -16352210.60948813 -6175243.886015599 0 0 0 0 0 86789118.25857784 -16513153.53399563 -16513153.53399563 -5705529.144086695 0 0 0 0 0 88061312.08597916 -16145490.83540385 -16145490.83540385 -6435869.034109142 0 0 0 0 0 89068450.0712 -15915651.29946031 -15915651.29946031 -6677482.852631934 0 0 0 0 0 90035673.99753413 -15665277.84172062 -15665277.84172062 -6899541.828494544 0 0 0 0 0 90964852.51766722 -15395933.40032445 -15395933.40032445 -7101610.239716434 0 0 0 0 0 91855459.07987668 -15111047.7023117 -15111047.7023117 -7285598.418378751 0 0 0 0 0 92788966.17775121 -14740368.40996887 -14740368.40996887 -6862716.023247384 0 0 0 0 0 93522583.74025358 -14208329.85379117 -14208329.85379117 -7349283.639233843 0 0 0 0 0 93614503.65802749 -14449400.62124636 -14449400.62124636 -7030460.775859035 0 0 0 0 0 94276614.87216888 -13901055.21089817 -13901055.21089817 -7479179.026114236 0 0 0 0 0 94995696.08462834 -13585442.00540095 -13585442.00540095 -7592248.011134904 0 0 0 0 0 95681113.45103402 -13263388.5429216 -13263388.5429216 -7690167.979162152 0 0 0 0 0 96333560.90147029 -12935869.71989571 -12935869.71989571 -7773428.064115323 0 0 0 0 0 96860462.94362734 -12386789.35268544 -12386789.35268544 -7610394.824754789 0 0 0 0 0 97074540.70655322 -12630380.71811727 -12630380.71811727 -7394380.554466693 0 0 0 0 0 97433646.56571816 -12065892.78073497 -12065892.78073497 -7667805.496324907 0 0 0 0 0 97977415.74793571 -11743168.94989377 -11743168.94989377 -7712335.949709221 0 0 0 0 0 98492379.03089143 -11419785.66127681 -11419785.66127681 -7744917.521441117 0 0 0 0 0 98979552.76540962 -11096569.6306004 -11096569.6306004 -7765977.208314161 0 0 0 0 0 99439866.60767466 -10774455.47272284 -10774455.47272284 -7776201.193690455 0 0 0 0 0 100414865.4984154 -10223443.13800913 -10223443.13800913 -7468871.97612533 0 0 0 0 0 99874422.93980084 -10454515.01928301 -10454515.01928301 -7776216.073277213 0 0 0 0 0 100123143.8175891 -10006813.89489417 -10006813.89489417 -7567248.893694193 0 0 0 0 0 100499812.545021 -9703696.927872954 -9703696.927872954 -7553123.53447051 0 0 0 0 0 100854483.6554143 -9403529.700707784 -9403529.700707784 -7531056.418069914 0 0 0 0 0 101188400.4754303 -9107285.358736599 -9107285.358736599 -7502552.707894051 0 0 0 0 0 101502110.5550303 -8813963.679696064 -8813963.679696064 -7464608.678530137 0 0 0 0 0 101794385.7912556 -8525151.261835899 -8525151.261835899 -7419731.266983401 0 0 0 0 0 102194140.1328434 -8348416.709527621 -8348416.709527621 -7173818.806157537 0 0 0 0 0 101887392.2483404 -8172470.629138399 -8172470.629138399 -7198599.896802716 0 0 0 0 0 102130189.2392396 -7902007.815593407 -7902007.815593407 -7127909.091261448 0 0 0 0 0 102349211.7993567 -7644817.314893123 -7644817.314893123 -7083877.415155461 0 0 0 0 0 102581203.8948486 -7389217.79425888 -7389217.79425888 -7028169.685380051 0 0 0 0 0 102902318.9168034 -7244751.391489102 -7244751.391489102 -6817374.500785081 0 0 0 0 0 102641671.4102741 -7090572.570639166 -7090572.570639166 -6762218.719936538 0 0 0 0 0 102821080.1421224 -6855559.094086575 -6855559.094086575 -6794138.786231192 0 0 0 0 0 103165190.0506434 -6376990.074211656 -6376990.074211656 -6618621.497660219 0 0 0 0 0 103014145.7691195 -6605105.427280983 -6605105.427280983 -6683649.364635755 0 0 0 0 0 103308608.8756375 -6151512.127822386 -6151512.127822386 -6552025.185960086 0 0 0 0 0 103434031.0072695 -5929606.82545881 -5929606.82545881 -6472105.896844788 0 0 0 0 0 103569261.7335713 -5708149.353787934 -5708149.353787934 -6433387.21382679 0 0 0 0 0 103753054.8892008 -5486964.864653652 -5486964.864653652 -6371366.080013392 0 0 0 0 0 103942821.2396873 -5256118.593313607 -5256118.593313607 -6059168.761101523 0 0 0 0 0 104017795.1429946 -5329337.096623137 -5329337.096623137 -6146511.636680289 0 0 0 0 0 103761952.979269 -5124326.501540459 -5124326.501540459 -6079865.98998275 0 0 0 0 0 104002565.4051924 -4999556.39657653 -4999556.39657653 -5909342.419350462 0 0 0 0 0 77104612.50522487 -18271229.65750756 -18271229.65750756 -4456000.208300056 0 0 0 0 0 41406742.90997561 -778925.4849433099 -778925.4849433099 2071229.224041854 0 0 0 0 0 42788785.27907214 -2009690.282316391 -2009690.282316391 2611378.009099013 0 0 0 0 0 43431282.01846179 -3592468.187784513 -3592468.187784513 2484846.383629737 0 0 0 0 0 42855215.5853019 -3860666.981717642 -3860666.981717642 2083921.132820816 0 0 0 0 0 45823045.08414064 -5622416.048118875 -5622416.048118875 2556951.737323908 0 0 0 0 0 46789364.88147094 -7180527.995904529 -7180527.995904529 2358177.062375183 0 0 0 0 0 47929105.74735654 -8665699.73074095 -8665699.73074095 2110206.607005269 0 0 0 0 0 49182247.18376791 -10069422.66229641 -10069422.66229641 1810633.460868543 0 0 0 0 0 52172204.02599131 -11335234.96557915 -11335234.96557915 1626293.830498536 0 0 0 0 0 49558430.48233196 -10011523.6898892 -10011523.6898892 1627530.505996956 0 0 0 0 0 53590403.97795957 -12503456.19060835 -12503456.19060835 1228951.31614328 0 0 0 0 0 55088551.32308746 -13584062.7186744 -13584062.7186744 796968.6279570856 0 0 0 0 0 56654653.16993374 -14575091.95295808 -14575091.95295808 336262.2542209159 0 0 0 0 0 58276896.4357565 -15475368.83501504 -15475368.83501504 -147896.3097810594 0 0 0 0 0 59944294.97145617 -16284707.0786359 -16284707.0786359 -649986.0082472558 0 0 0 0 0 61646894.73299519 -17003720.7471186 -17003720.7471186 -1164803.409082509 0 0 0 0 0 62788440.6374421 -16647795.78255419 -16647795.78255419 -1026810.84958955 0 0 0 0 0 64528767.50301562 -17243246.48485863 -17243246.48485863 -1520270.588832489 0 0 0 0 0 66194807.77743526 -17756777.14766572 -17756777.14766572 -2033988.032356268 0 0 0 0 0 67867402.48449129 -18189279.82994434 -18189279.82994434 -2548316.300888556 0 0 0 0 0 69537957.52470915 -18546008.44510307 -18546008.44510307 -3055663.127596823 0 0 0 0 0 71178898.21293226 -18833344.91529826 -18833344.91529826 -3550148.156443622 0 0 0 0 0 72749656.7517269 -19033354.09883309 -19033354.09883309 -4028308.931399005 0 0 0 0 0 74124728.32451403 -18536973.28267782 -18536973.28267782 -3646749.76160866 0 0 0 0 0 75046048.12379563 -18660570.61500074 -18660570.61500074 -4232893.090489374 0 0 0 0 0 76554682.17627831 -18749625.3599548 -18749625.3599548 -4684645.573099655 0 0 0 0 0 78398911.00072294 -17814144.98190369 -17814144.98190369 -4054945.049392451 0 0 0 0 0 79797904.17496301 -17825700.27312354 -17825700.27312354 -4439903.225175618 0 0 0 0 0 81574945.30773365 -17368122.66004741 -17368122.66004741 -4607317.215410516 0 0 0 0 0 80369690.49261163 -17807377.36452865 -17807377.36452865 -5001449.022160864 0 0 0 0 0 82881549.98006907 -17308820.57176787 -17308820.57176787 -4965904.969804992 0 0 0 0 0 84150978.64647657 -17210853.00029716 -17210853.00029716 -5307173.742479801 0 0 0 0 0 85379146.03149341 -17076709.36107098 -17076709.36107098 -5630306.702598141 0 0 0 0 0 86565837.98587801 -16909534.27929637 -16909534.27929637 -5934753.93271766 0 0 0 0 0 87890260.59510784 -16326113.14343135 -16326113.14343135 -5984881.376622895 0 0 0 0 0 86799032.61110334 -16743266.98288187 -16743266.98288187 -6416031.290465464 0 0 0 0 0 88949898.32511598 -16113053.17834773 -16113053.17834773 -6245476.713721165 0 0 0 0 0 89968598.9916009 -15877224.3679884 -15877224.3679884 -6488020.862970863 0 0 0 0 0 90947058.15316874 -15620630.1527354 -15620630.1527354 -6712048.14537237 0 0 0 0 0 91880883.42382054 -15345443.53527837 -15345443.53527837 -6917022.089574988 0 0 0 0 0 92775713.23477305 -15054480.73894258 -15054480.73894258 -7104023.882347656 0 0 0 0 0 92708429.11847369 -14811617.71634066 -14811617.71634066 -7450327.811999343 0 0 0 0 0 94400859.52379185 -14146969.94957804 -14146969.94957804 -7181252.444661723 0 0 0 0 0 93523570.34583904 -14499981.71014627 -14499981.71014627 -7596552.646659536 0 0 0 0 0 95149763.26799175 -13834823.60730936 -13834823.60730936 -7315370.671649727 0 0 0 0 0 95862150.73142587 -13514742.13023507 -13514742.13023507 -7433627.163361732 0 0 0 0 0 96538397.42795168 -13188017.47989035 -13188017.47989035 -7536295.674645468 0 0 0 0 0 97180706.55942808 -12856089.88637467 -12856089.88637467 -7624140.993896795 0 0 0 0 0 97666974.89862837 -12308647.4470742 -12308647.4470742 -7470442.643179793 0 0 0 0 0 96953502.00375491 -12604402.43589361 -12604402.43589361 -7841711.090197679 0 0 0 0 0 98227527.64469467 -11984275.61543694 -11984275.61543694 -7533279.463837721 0 0 0 0 0 98757111.21078593 -11658578.29624705 -11658578.29624705 -7583610.572850388 0 0 0 0 0 99257035.35245521 -11332293.92807265 -11332293.92807265 -7621630.177285444 0 0 0 0 0 99728371.72829518 -11006497.74411077 -11006497.74411077 -7648261.455106305 0 0 0 0 0 100172185.9086425 -10682006.3667245 -10682006.3667245 -7664024.707406433 0 0 0 0 0 100283276.993507 -10137143.24973669 -10137143.24973669 -7765758.531194127 0 0 0 0 0 100589391.4846801 -10359834.48461807 -10359834.48461807 -7669541.505126693 0 0 0 0 0 100797920.3779805 -9916128.555436486 -9916128.555436486 -7469315.893218653 0 0 0 0 0 101157891.7774126 -9611449.952331942 -9611449.952331942 -7459907.155944004 0 0 0 0 0 101495772.2129841 -9310421.530985132 -9310421.530985132 -7442914.352104138 0 0 0 0 0 101813439.5481544 -9012182.136235474 -9012182.136235474 -7417042.96363817 0 0 0 0 0 102110355.3757856 -8718137.270546038 -8718137.270546038 -7385170.486877801 0 0 0 0 0 102389723.9942956 -8426786.479121599 -8426786.479121599 -7344263.767248396 0 0 0 0 0 102073898.0330247 -8243877.532757449 -8243877.532757449 -7367859.764602885 0 0 0 0 0 102442088.4035569 -8079799.287967814 -8079799.287967814 -7139285.054321741 0 0 0 0 0 102661047.5322419 -7818722.5651544 -7818722.5651544 -7095904.511716914 0 0 0 0 0 102878535.3683273 -7551775.152604286 -7551775.152604286 -7026718.067527059 0 0 0 0 0 103085865.3549136 -7295500.105036481 -7295500.105036481 -6970710.16397091 0 0 0 0 0 102785036.3986193 -7133988.880599042 -7133988.880599042 -6969635.649767307 0 0 0 0 0 103069136.558246 -7011160.207303267 -7011160.207303267 -6795594.39992601 0 0 0 0 0 103252032.6705651 -6751627.251892038 -6751627.251892038 -6701888.184103534 0 0 0 0 0 103591708.0283498 -6287265.273018534 -6287265.273018534 -6577777.929208172 0 0 0 0 0 103435154.6389347 -6515381.907829873 -6515381.907829873 -6644222.926341501 0 0 0 0 0 103726543.0677072 -6065924.488931015 -6065924.488931015 -6512645.51882224 0 0 0 0 0 103862307.1505813 -5837035.67202529 -5837035.67202529 -6430447.229841853 0 0 0 0 0 104008929.327264 -5609982.617838854 -5609982.617838854 -6342373.42269745 0 0 0 0 0 104127965.5266393 -5407291.782516296 -5407291.782516296 -6288313.13849852 0 0 0 0 0 103931711.255024 -5218864.430673563 -5218864.430673563 -6253297.091895861 0 0 0 0 0 104026840.5044291 -5300168.659406279 -5300168.659406279 -6310095.460891634 0 0 0 0 0 104082762.2037098 -5023965.946912766 -5023965.946912766 -6054003.974400354 0 0 0 0 0 103898713.1871215 -4934069.251576636 -4934069.251576636 -6055427.260047519 0 0 0 0 0 77879294.46616437 -18274456.47698672 -18274456.47698672 -4281320.517867601 0 0 0 0 0 41231241.79556135 -785233.8613895765 -785233.8613895765 2149176.11124705 0 0 0 0 0 40078676.07687382 -1965285.050409731 -1965285.050409731 1812905.570070187 0 0 0 0 0 40787690.51337129 -3467487.911913273 -3467487.911913273 1691276.554581224 0 0 0 0 0 44031661.28344595 -5382971.430290985 -5382971.430290985 2283512.451136285 0 0 0 0 0 43871057.44920415 -5499341.868336651 -5499341.868336651 2007465.326142434 0 0 0 0 0 45051155.55340301 -7067885.995188349 -7067885.995188349 1867271.110612688 0 0 0 0 0 46367519.23857953 -8562693.160995349 -8562693.160995349 1667785.317039085 0 0 0 0 0 47808978.46057349 -9981347.901202569 -9981347.901202569 1422652.477351792 0 0 0 0 0 51066795.18500781 -11278508.65674901 -11278508.65674901 1323609.385592292 0 0 0 0 0 50544343.33462296 -11388985.26912069 -11388985.26912069 1461591.227861508 0 0 0 0 0 52664621.16431044 -12458712.93307339 -12458712.93307339 977339.3068073824 0 0 0 0 0 54339621.3488416 -13549723.19676098 -13549723.19676098 594677.2280880442 0 0 0 0 0 56077740.96937466 -14549531.28778816 -14549531.28778816 181040.718172281 0 0 0 0 0 57867183.68785754 -15457024.34889602 -15457024.34889602 -258252.1788318777 0 0 0 0 0 59695550.64892112 -16271978.02708826 -16271978.02708826 -718062.2157504784 0 0 0 0 0 61550887.11705691 -16994924.50584569 -16994924.50584569 -1193724.278410989 0 0 0 0 0 63373738.51452478 -17632991.11078061 -17632991.11078061 -1687379.281998023 0 0 0 0 0 64580936.33485339 -17246517.13580116 -17246517.13580116 -1505597.408905023 0 0 0 0 0 66379065.7163253 -17760381.78988554 -17760381.78988554 -1987664.74494161 0 0 0 0 0 68173656.07483084 -18193296.9500042 -18193296.9500042 -2472579.921984658 0 0 0 0 0 69956731.290389 -18548461.7349818 -18548461.7349818 -2953214.477732169 0 0 0 0 0 71690851.76028743 -18827286.11059114 -18827286.11059114 -3430207.61917961 0 0 0 0 0 73411201.41173165 -19032975.99991872 -19032975.99991872 -3883543.974343724 0 0 0 0 0 74336844.81194662 -19149003.41768125 -19149003.41768125 -4460920.3118964 0 0 0 0 0 75699198.22962268 -18660626.41847076 -18660626.41847076 -4077345.095257983 0 0 0 0 0 77295950.05061205 -18744364.58582171 -18744364.58582171 -4509653.391682344 0 0 0 0 0 78518713.61197519 -18288083.39048147 -18288083.39048147 -4853880.668264627 0 0 0 0 0 79893625.55197707 -18261314.28449355 -18261314.28449355 -5237180.692356047 0 0 0 0 0 81684428.12224765 -17749504.94654836 -17749504.94654836 -5373778.5033934 0 0 0 0 0 81156211.03869234 -17801019.80642876 -17801019.80642876 -4816324.022036912 0 0 0 0 0 82963788.65873092 -17652294.46642669 -17652294.46642669 -5729099.186685463 0 0 0 0 0 84206595.10340039 -17516986.69979673 -17516986.69979673 -6063271.383859765 0 0 0 0 0 85410628.82855514 -17347515.49852511 -17347515.49852511 -6377166.31323154 0 0 0 0 0 86574514.14150982 -17145927.57394038 -17145927.57394038 -6668169.690428139 0 0 0 0 0 87880333.28577171 -16525122.95921844 -16525122.95921844 -6681100.649120925 0 0 0 0 0 87708481.07286558 -16712265.10133824 -16712265.10133824 -6219735.421983696 0 0 0 0 0 88922185.88875037 -16283418.79187465 -16283418.79187465 -6926317.916348727 0 0 0 0 0 89925268.89718807 -16020090.11576402 -16020090.11576402 -7152108.360583248 0 0 0 0 0 90886812.55415441 -15737577.98608858 -15737577.98608858 -7356860.264934831 0 0 0 0 0 91808155.88413556 -15438645.81156749 -15438645.81156749 -7542824.587635247 0 0 0 0 0 92689904.53524455 -15124310.25554536 -15124310.25554536 -7707993.487567659 0 0 0 0 0 93627450.92242634 -14749614.47455226 -14749614.47455226 -7272953.079518185 0 0 0 0 0 94300798.80747628 -14178628.80031438 -14178628.80031438 -7725611.667768141 0 0 0 0 0 94437244.32497032 -14433061.8230551 -14433061.8230551 -7423749.415249562 0 0 0 0 0 95041704.86405458 -13849042.2285053 -13849042.2285053 -7838141.28697627 0 0 0 0 0 95746903.53178798 -13512584.21489954 -13512584.21489954 -7933957.737524447 0 0 0 0 0 96417173.45872572 -13170957.98712094 -13170957.98712094 -8014550.218295285 0 0 0 0 0 97054352.43201081 -12825268.33753743 -12825268.33753743 -8080826.574658373 0 0 0 0 0 97541591.01530968 -12270169.21117113 -12270169.21117113 -7896126.831513779 0 0 0 0 0 97788677.06498505 -12520881.11693365 -12520881.11693365 -7698696.893334652 0 0 0 0 0 98098645.3750294 -11934467.93158992 -11934467.93158992 -7937381.555903185 0 0 0 0 0 98625353.64153084 -11598308.30685771 -11598308.30685771 -7966118.693583318 0 0 0 0 0 99123069.25024365 -11262640.9467506 -11262640.9467506 -7983129.703243855 0 0 0 0 0 99592791.24300417 -10928344.5222177 -10928344.5222177 -7988997.555614105 0 0 0 0 0 100035659.5850217 -10596352.33520369 -10596352.33520369 -7984320.349148985 0 0 0 0 0 100979242.5171887 -10041256.12761735 -10041256.12761735 -7666244.387784406 0 0 0 0 0 100452460.5982327 -10267382.99747826 -10267382.99747826 -7969605.711115687 0 0 0 0 0 100666194.502577 -9823440.471034599 -9823440.471034599 -7746278.419294896 0 0 0 0 0 101025998.8133545 -9513421.444577003 -9513421.444577003 -7719335.005337543 0 0 0 0 0 101364044.1065839 -9207295.060181361 -9207295.060181361 -7684826.965796448 0 0 0 0 0 101681947.4289634 -8904673.024316182 -8904673.024316182 -7642868.562089127 0 0 0 0 0 101979610.9621908 -8606189.420821879 -8606189.420821879 -7593808.285194738 0 0 0 0 0 102261715.4838568 -8314169.598413357 -8314169.598413357 -7538534.13047237 0 0 0 0 0 102643874.0098647 -8146068.67995701 -8146068.67995701 -7302826.888442392 0 0 0 0 0 102324231.8288955 -7965397.77284782 -7965397.77284782 -7300423.828589034 0 0 0 0 0 102547649.7265938 -7698715.072691999 -7698715.072691999 -7233507.269763396 0 0 0 0 0 102762296.7873813 -7439385.084499359 -7439385.084499359 -7175611.118229642 0 0 0 0 0 102968974.7201511 -7180580.017632029 -7180580.017632029 -7108920.34162519 0 0 0 0 0 103274268.9108745 -7044589.720321274 -7044589.720321274 -6913585.363655325 0 0 0 0 0 102969364.4122652 -6888869.055568623 -6888869.055568623 -6889305.048576425 0 0 0 0 0 103143594.5472712 -6645325.7562038 -6645325.7562038 -6831069.412268642 0 0 0 0 0 103486313.1863923 -6174510.951368973 -6174510.951368973 -6672436.16214907 0 0 0 0 0 103329160.3071553 -6406034.486508836 -6406034.486508836 -6752787.076701607 0 0 0 0 0 103622129.7776159 -5945066.551768519 -5945066.551768519 -6589679.476992106 0 0 0 0 0 103759633.2046233 -5722138.850166327 -5722138.850166327 -6506053.946755299 0 0 0 0 0 103890676.716408 -5510560.520163294 -5510560.520163294 -6435064.334563698 0 0 0 0 0 104037613.1790624 -5294162.226667787 -5294162.226667787 -6300968.432269698 0 0 0 0 0 104031531.6930344 -5061037.525181171 -5061037.525181171 -6120829.67279389 0 0 0 0 0 104179104.5769805 -5136785.241071969 -5136785.241071969 -6146410.619677348 0 0 0 0 0 104029949.325378 -4928350.151566185 -4928350.151566185 -6122922.320738781 0 0 0 0 0 104154353.8396745 -4788799.117738494 -4788799.117738494 -5849458.691239501 0 0 0 0 0 104243513.7041258 -4814829.083582073 -4814829.083582073 -5935663.205527562 0 0 0 0 0 78003958.19095807 -18776005.92297819 -18776005.92297819 -5102172.17791185 0 0 0 0 0 39611785.30877758 -969844.7664832226 -969844.7664832226 1736977.797169485 0 0 0 0 0 41627997.62671109 -3068715.467332095 -3068715.467332095 2176708.199077865 0 0 0 0 0 42257005.93435615 -5036578.492245637 -5036578.492245637 2020882.771808708 0 0 0 0 0 41954779.47967739 -5211750.076605191 -5211750.076605191 1670736.654835826 0 0 0 0 0 45013362.53674542 -7013610.02421575 -7013610.02421575 2117928.072519273 0 0 0 0 0 46158664.80991417 -8564436.447337924 -8564436.447337924 1887679.754446801 0 0 0 0 0 47445054.05368983 -10037028.54000639 -10037028.54000639 1601929.679010503 0 0 0 0 0 48843914.26403171 -11425653.40712189 -11425653.40712189 1263004.894281846 0 0 0 0 0 52004919.6660796 -12619640.84032929 -12619640.84032929 1068850.555710647 0 0 0 0 0 49363007.57202639 -11315188.82609918 -11315188.82609918 1129075.585604839 0 0 0 0 0 53553340.27188849 -13758303.42866335 -13758303.42866335 638773.5526606954 0 0 0 0 0 55175883.79597352 -14803014.29113537 -14803014.29113537 176966.1375799349 0 0 0 0 0 56860571.77367761 -15752369.52194401 -15752369.52194401 -310602.171558427 0 0 0 0 0 58594651.31766462 -16606182.49791714 -16606182.49791714 -818562.4938121003 0 0 0 0 0 60366871.73147926 -17364900.57888913 -17364900.57888913 -1341232.997784932 0 0 0 0 0 62164671.60890216 -18029374.99273496 -18029374.99273496 -1873565.9899961 0 0 0 0 0 63421858.03783292 -17626956.34540655 -17626956.34540655 -1680028.585022164 0 0 0 0 0 65111912.80596686 -18174184.85822346 -18174184.85822346 -2213288.984528729 0 0 0 0 0 66855474.15510858 -18630677.23150789 -18630677.23150789 -2738293.756299136 0 0 0 0 0 68600500.60539852 -19007506.28300977 -19007506.28300977 -3259661.230710479 0 0 0 0 0 70331695.42012767 -19314114.15231599 -19314114.15231599 -3769312.242716854 0 0 0 0 0 71993697.45939715 -19541933.07949471 -19541933.07949471 -4264796.38532714 0 0 0 0 0 73608119.81635383 -19670949.20029572 -19670949.20029572 -4725934.607563841 0 0 0 0 0 75058297.36413832 -19151570.09870341 -19151570.09870341 -4303117.393378776 0 0 0 0 0 75928833.47299176 -19232051.66023382 -19232051.66023382 -4916276.390852156 0 0 0 0 0 77483417.97641276 -19264546.84366478 -19264546.84366478 -5356569.295094919 0 0 0 0 0 79328549.50379294 -18284992.83403762 -18284992.83403762 -4672667.467588083 0 0 0 0 0 80753024.88762237 -18252800.90156697 -18252800.90156697 -5046085.386798227 0 0 0 0 0 82508686.80586724 -17739101.87550065 -17739101.87550065 -5183916.587703274 0 0 0 0 0 81263122.37292072 -18198056.49751963 -18198056.49751963 -5610130.70258363 0 0 0 0 0 83830712.60627061 -17635585.56593246 -17635585.56593246 -5533070.250136151 0 0 0 0 0 85108510.38607068 -17493632.0448514 -17493632.0448514 -5863527.153586845 0 0 0 0 0 86343699.50440004 -17317121.80249858 -17317121.80249858 -6174649.148166961 0 0 0 0 0 87528321.02363156 -17109222.38511318 -17109222.38511318 -6465262.005874358 0 0 0 0 0 88806598.30658811 -16487783.20820924 -16487783.20820924 -6485027.867255503 0 0 0 0 0 87696527.63224089 -16915675.66191938 -16915675.66191938 -6937371.577232574 0 0 0 0 0 89861824.64059022 -16239453.74096688 -16239453.74096688 -6731291.50195594 0 0 0 0 0 90877139.31609046 -15969586.61872483 -15969586.61872483 -6958159.953258297 0 0 0 0 0 91847118.78757964 -15680640.95435046 -15680640.95435046 -7166450.542976469 0 0 0 0 0 92770518.38312475 -15375573.72259626 -15375573.72259626 -7355036.330126246 0 0 0 0 0 93648257.18673053 -15056304.60243141 -15056304.60243141 -7524913.622897367 0 0 0 0 0 93530624.92893769 -14797946.31848501 -14797946.31848501 -7853362.457735076 0 0 0 0 0 95208300.22744016 -14106780.71978236 -14106780.71978236 -7557593.196385633 0 0 0 0 0 94331768.95947178 -14461912.8364639 -14461912.8364639 -7981539.350585595 0 0 0 0 0 95941424.23374832 -13772487.82962472 -13772487.82962472 -7675162.030121165 0 0 0 0 0 96636289.56968553 -13431556.98794336 -13431556.98794336 -7776457.36606763 0 0 0 0 0 97294660.14627874 -13085694.39434828 -13085694.39434828 -7862351.308360353 0 0 0 0 0 97918496.45917794 -12736146.43039511 -12736146.43039511 -7933606.609934445 0 0 0 0 0 98362665.27471021 -12183229.3376608 -12183229.3376608 -7758792.995305803 0 0 0 0 0 97657696.2451295 -12477025.44347102 -12477025.44347102 -8131607.816766729 0 0 0 0 0 98904492.69802773 -11844514.28654874 -11844514.28654874 -7805989.318982069 0 0 0 0 0 99415214.79084256 -11505452.52236449 -11505452.52236449 -7840485.975958637 0 0 0 0 0 99896088.49870075 -11167182.6843208 -11167182.6843208 -7863243.142484067 0 0 0 0 0 100348231.4676474 -10830552.22174953 -10830552.22174953 -7874893.401353112 0 0 0 0 0 100772617.3879001 -10496429.52975234 -10496429.52975234 -7876031.004884171 0 0 0 0 0 100842588.5201787 -9942127.884295037 -9942127.884295037 -7944495.238809041 0 0 0 0 0 101169529.3203727 -10165929.32564415 -10165929.32564415 -7867706.926031753 0 0 0 0 0 101343706.5645666 -9726254.000191001 -9726254.000191001 -7652514.373506362 0 0 0 0 0 101685770.3176439 -9414833.646615064 -9414833.646615064 -7630200.05066421 0 0 0 0 0 102007440.0230558 -9106725.386316111 -9106725.386316111 -7599406.403640998 0 0 0 0 0 102307876.0274118 -8803135.845138064 -8803135.845138064 -7562273.775424352 0 0 0 0 0 102588805.1704412 -8503758.434936225 -8503758.434936225 -7517826.109870417 0 0 0 0 0 102848821.0242706 -8211619.844809059 -8211619.844809059 -7468670.993641178 0 0 0 0 0 102520133.1762132 -8028362.145748187 -8028362.145748187 -7472568.075475491 0 0 0 0 0 102868895.153971 -7875859.541839271 -7875859.541839271 -7259273.689159938 0 0 0 0 0 103078041.6273808 -7607186.12320211 -7607186.12320211 -7194542.547202632 0 0 0 0 0 103280663.3670236 -7342735.447035125 -7342735.447035125 -7123378.89211574 0 0 0 0 0 103470045.6849757 -7081992.116647451 -7081992.116647451 -7056293.057473575 0 0 0 0 0 103156826.9812031 -6924003.97437654 -6924003.97437654 -7035612.311539054 0 0 0 0 0 103454082.9776933 -6790328.126065704 -6790328.126065704 -6840538.225463844 0 0 0 0 0 103620188.346922 -6545868.201937239 -6545868.201937239 -6784882.554825646 0 0 0 0 0 103915804.613977 -6079221.515960519 -6079221.515960519 -6634640.673471079 0 0 0 0 0 103775778.7054729 -6308773.568468022 -6308773.568468022 -6712284.265312776 0 0 0 0 0 104047138.4352576 -5849575.959756973 -5849575.959756973 -6553081.978062965 0 0 0 0 0 104169178.9613972 -5627643.540795307 -5627643.540795307 -6472599.734653727 0 0 0 0 0 104282041.8470726 -5413259.767978896 -5413259.767978896 -6385722.203673592 0 0 0 0 0 104360528.4023398 -5215759.128815511 -5215759.128815511 -6329886.054052101 0 0 0 0 0 104290031.1549689 -5006677.152168193 -5006677.152168193 -6165252.364341307 0 0 0 0 0 104115170.6350565 -5094942.57280645 -5094942.57280645 -6272469.480195025 0 0 0 0 0 104336502.2501691 -4835464.604815931 -4835464.604815931 -6035782.598173006 0 0 0 0 0 104042366.0439613 -4718506.610606283 -4718506.610606283 -5998947.704639982 0 0 0 0 0 104164914.0756736 -4763526.484106471 -4763526.484106471 -6070525.14104162 0 0 0 0 0 104269316.7425078 -4580168.534774967 -4580168.534774967 -5793242.92884939 0 0 0 0 0 104514870.4094121 -4181040.811018459 -4181040.811018459 -5655659.780868862 0 0 0 0 0 104405107.4633891 -4377233.548488691 -4377233.548488691 -5723820.353552537 0 0 0 0 0 78860117.88093524 -18765521.58575677 -18765521.58575677 -4914439.9741187 0 0 0 0 0 38581330.48558413 -796259.7387850087 -796259.7387850087 1505378.491327856 0 0 0 0 0 38760725.58442821 -2951542.349206884 -2951542.349206884 1338252.662138781 0 0 0 0 0 39879158.55572254 -4876814.857071489 -4876814.857071489 1322481.193890463 0 0 0 0 0 43174818.65921741 -6804369.403356316 -6804369.403356316 1831926.50646312 0 0 0 0 0 43163784.36137252 -6872603.582406963 -6872603.582406963 1580380.59498959 0 0 0 0 0 44510739.84475461 -8441699.064984335 -8441699.064984335 1411556.14535536 0 0 0 0 0 45986332.8925107 -9930127.691072283 -9930127.691072283 1180809.413847661 0 0 0 0 0 47584120.36474628 -11333725.27919815 -11333725.27919815 899502.9616670888 0 0 0 0 0 51015183.88998993 -12558876.89567358 -12558876.89567358 791050.8010601894 0 0 0 0 0 50349508.05363578 -12722517.60298679 -12722517.60298679 877792.6834972543 0 0 0 0 0 52749618.37736974 -13708967.62250915 -13708967.62250915 413175.0458801849 0 0 0 0 0 54554154.47318372 -14763265.79062199 -14763265.79062199 1400.870316412468 0 0 0 0 0 56414560.40491252 -15720654.61563319 -15720654.61563319 -438735.6541914056 0 0 0 0 0 58318670.86945721 -16580932.3682371 -16580932.3682371 -901676.7918070573 0 0 0 0 0 60253420.04640474 -17344499.25927596 -17344499.25927596 -1382218.677489678 0 0 0 0 0 62207134.3067515 -18012374.65167839 -18012374.65167839 -1875023.157174318 0 0 0 0 0 63977939.27162011 -18601305.26481757 -18601305.26481757 -2409558.219112251 0 0 0 0 0 65297871.78175245 -18170018.96945733 -18170018.96945733 -2171840.72829197 0 0 0 0 0 67170291.9034024 -18627272.0921763 -18627272.0921763 -2665572.951332336 0 0 0 0 0 69031563.49749945 -19002822.8410036 -19002822.8410036 -3159847.512701651 0 0 0 0 0 70847961.13637067 -19300550.36678714 -19300550.36678714 -3650346.327497303 0 0 0 0 0 72644401.73411931 -19523031.4266804 -19523031.4266804 -4118766.05063225 0 0 0 0 0 74445520.11987828 -19663139.84834487 -19663139.84834487 -4568489.09927474 0 0 0 0 0 75264388.57325044 -19734172.49797507 -19734172.49797507 -5172499.930258497 0 0 0 0 0 76699271.09685189 -19219563.78371091 -19219563.78371091 -4740608.389599946 0 0 0 0 0 78330772.22828546 -19243915.08749298 -19243915.08749298 -5166468.753740858 0 0 0 0 0 79433046.80162607 -18741909.003484 -18741909.003484 -5490425.129797474 0 0 0 0 0 80828924.28879017 -18664178.18955986 -18664178.18955986 -5867349.233145547 0 0 0 0 0 82593921.35773727 -18094356.71165173 -18094356.71165173 -5972242.337222477 0 0 0 0 0 82130754.04611889 -18180216.26582243 -18180216.26582243 -5412615.792463587 0 0 0 0 0 83884860.71905817 -17953020.17745767 -17953020.17745767 -6317312.73073027 0 0 0 0 0 85137637.55851831 -17773369.44621662 -17773369.44621662 -6637955.887757905 0 0 0 0 0 86346643.03191008 -17559848.10437302 -17559848.10437302 -6934073.984735981 0 0 0 0 0 87510106.84792955 -17317643.01410643 -17317643.01410643 -7206272.845174111 0 0 0 0 0 88776739.45700206 -16660937.08820123 -16660937.08820123 -7186345.177535012 0 0 0 0 0 88663894.91838326 -16873203.83892484 -16873203.83892484 -6735350.90924082 0 0 0 0 0 89814641.72657268 -16384560.86046802 -16384560.86046802 -7416059.912394664 0 0 0 0 0 90813733.42922845 -16086813.73544786 -16086813.73544786 -7623820.058030377 0 0 0 0 0 91766017.53207454 -15773256.94234175 -15773256.94234175 -7811546.960334559 0 0 0 0 0 92676763.30610433 -15444105.06058595 -15444105.06058595 -7976583.27636865 0 0 0 0 0 93544643.80616213 -15102502.09412081 -15102502.09412081 -8121419.330836594 0 0 0 0 0 94482214.56502002 -14725249.56614324 -14725249.56614324 -7676016.676894595 0 0 0 0 0 95094812.8148222 -14117570.43161377 -14117570.43161377 -8092657.508880082 0 0 0 0 0 95274686.21719356 -14384170.73682971 -14384170.73682971 -7809246.207447555 0 0 0 0 0 95820515.66031146 -13766092.37079585 -13766092.37079585 -8186538.557487201 0 0 0 0 0 96509203.90019575 -13409666.84389746 -13409666.84389746 -8264230.246942564 0 0 0 0 0 97162405.94519298 -13049529.65784919 -13049529.65784919 -8326645.409442041 0 0 0 0 0 97781702.69072098 -12686663.30603464 -12686663.30603464 -8374882.143636226 0 0 0 0 0 98228221.18985873 -12127887.74578183 -12127887.74578183 -8169330.517925784 0 0 0 0 0 98507095.24854919 -12384508.78854489 -12384508.78854489 -7991380.048604876 0 0 0 0 0 98767141.48827493 -11778395.43161788 -11778395.43161788 -8193975.793760684 0 0 0 0 0 99275702.9460516 -11429712.3444191 -11429712.3444191 -8206445.630189317 0 0 0 0 0 99755015.76092166 -11082765.66221645 -11082765.66221645 -8207608.316560837 0 0 0 0 0 100206190.8887953 -10738351.80921947 -10738351.80921947 -8197993.088232408 0 0 0 0 0 100630422.2444281 -10397673.46843876 -10397673.46843876 -8178270.878289979 0 0 0 0 0 101539840.7649602 -9839864.626855049 -9839864.626855049 -7849861.689622784 0 0 0 0 0 101027556.5915723 -10060772.39806077 -10060772.39806077 -8148001.405041253 0 0 0 0 0 101207415.9297567 -9621733.082269577 -9621733.082269577 -7912114.541456242 0 0 0 0 0 101549554.834119 -9305562.445367038 -9305562.445367038 -7872399.073707388 0 0 0 0 0 101871699.9782815 -8993248.558677543 -8993248.558677543 -7825040.330238843 0 0 0 0 0 102173022.9344079 -8685595.607291048 -8685595.607291048 -7770658.81904045 0 0 0 0 0 102456038.0676429 -8384042.506454466 -8384042.506454466 -7709896.35580072 0 0 0 0 0 102719424.120125 -8090127.48047543 -8090127.48047543 -7641906.125084563 0 0 0 0 0 103081265.7816734 -7930840.325915683 -7930840.325915683 -7419038.867191069 0 0 0 0 0 102750202.7119052 -7750959.187586993 -7750959.187586993 -7395678.839183443 0 0 0 0 0 102962453.4924691 -7482313.384369507 -7482313.384369507 -7321532.290872929 0 0 0 0 0 103161246.8257362 -7219577.712951056 -7219577.712951056 -7254093.278751574 0 0 0 0 0 103350987.3116908 -6958398.977808851 -6958398.977808851 -7176981.020272249 0 0 0 0 0 103649053.0160003 -6825336.287268273 -6825336.287268273 -6985141.938993557 0 0 0 0 0 103337591.2147946 -6670523.774502879 -6670523.774502879 -6960942.625273982 0 0 0 0 0 103509788.6751719 -6427118.919978467 -6427118.919978467 -6881914.693102913 0 0 0 0 0 103668462.7227405 -6190775.26793082 -6190775.26793082 -6798200.705525183 0 0 0 0 0 103807796.8192703 -5957648.407886927 -5957648.407886927 -6711838.961331385 0 0 0 0 0 103942300.3730867 -5730326.748513864 -5730326.748513864 -6623923.189809557 0 0 0 0 0 104068693.4308896 -5511372.846180946 -5511372.846180946 -6533973.295545814 0 0 0 0 0 104173570.9837686 -5295354.90554384 -5295354.90554384 -6445511.076602923 0 0 0 0 0 104265404.3456067 -5089725.17703936 -5089725.17703936 -6351246.447217098 0 0 0 0 0 104227013.8907162 -4893789.546637829 -4893789.546637829 -6142779.828025467 0 0 0 0 0 104457655.777718 -4998341.886643415 -4998341.886643415 -6220806.115650751 0 0 0 0 0 104336689.2571126 -4709974.860823111 -4709974.860823111 -5990201.004138329 0 0 0 0 0 104380442.6261908 -4615854.704592957 -4615854.704592957 -5884784.702527264 0 0 0 0 0 104172357.427349 -4519171.767437223 -4519171.767437223 -5925254.083075556 0 0 0 0 0 104295125.3537632 -4309502.321699468 -4309502.321699468 -5839213.090886952 0 0 0 0 0 104400053.2687727 -4112883.069630142 -4112883.069630142 -5767261.811535172 0 0 0 0 0 104613813.1862603 -3986513.975016661 -3986513.975016661 -5584601.189843014 0 0 0 0 0 78952639.81413257 -19230377.12687994 -19230377.12687994 -5766520.983560238 0 0 0 0 0 37685649.42618544 -951975.0365693391 -951975.0365693391 1318312.87583919 0 0 0 0 0 39216118.11352035 -2761280.483056616 -2761280.483056616 1600621.168353456 0 0 0 0 0 40609001.35013141 -4570136.45870879 -4570136.45870879 1711540.428106932 0 0 0 0 0 41346375.99949872 -6519968.320430581 -6519968.320430581 1528605.988112699 0 0 0 0 0 41191882.4574246 -6636789.542821224 -6636789.542821224 1244161.94262276 0 0 0 0 0 44329354.3718411 -8438090.058239607 -8438090.058239607 1621498.97495864 0 0 0 0 0 45630762.49217047 -9985298.964836549 -9985298.964836549 1350892.725863256 0 0 0 0 0 47067589.4378974 -11445280.22585966 -11445280.22585966 1026123.462339282 0 0 0 0 0 48618946.92724237 -12810227.95419614 -12810227.95419614 650669.7615660297 0 0 0 0 0 51948480.26880588 -13923133.89995055 -13923133.89995055 451443.6710715824 0 0 0 0 0 49287267.46105018 -12644008.27516838 -12644008.27516838 570516.8621454987 0 0 0 0 0 53629812.03869182 -15024689.95380395 -15024689.95380395 -9242.714190828341 0 0 0 0 0 55378571.12111443 -16026112.99090167 -16026112.99090167 -498400.0466880546 0 0 0 0 0 57182198.88444288 -16927211.74479579 -16927211.74479579 -1010191.097429788 0 0 0 0 0 59027616.04391588 -17728358.02659165 -17728358.02659165 -1539184.223548704 0 0 0 0 0 60902693.21118289 -18430528.66454045 -18430528.66454045 -2079246.281728682 0 0 0 0 0 62794651.52449063 -19035352.64545722 -19035352.64545722 -2624802.415576851 0 0 0 0 0 64166111.68733654 -18586191.89513715 -18586191.89513715 -2374993.584765818 0 0 0 0 0 65798356.48970917 -19083339.7328683 -19083339.7328683 -2944742.388414904 0 0 0 0 0 67620370.71057951 -19479800.82115309 -19479800.82115309 -3476045.498524908 0 0 0 0 0 69435000.26183672 -19800057.57354677 -19800057.57354677 -3996000.401646301 0 0 0 0 0 71192766.15355884 -20038365.35028924 -20038365.35028924 -4513484.830730295 0 0 0 0 0 72926962.82851127 -20193833.96044992 -20193833.96044992 -5013488.798131468 0 0 0 0 0 74582314.60036457 -20269253.44538822 -20269253.44538822 -5463533.537114412 0 0 0 0 0 76125858.82833648 -19716847.52197446 -19716847.52197446 -4989637.075470924 0 0 0 0 0 76900774.46135646 -19759398.70417495 -19759398.70417495 -5617138.203248611 0 0 0 0 0 78485772.98644248 -19730629.19246875 -19730629.19246875 -6045215.672603082 0 0 0 0 0 80338270.71133286 -18729145.81278586 -18729145.81278586 -5297184.711728957 0 0 0 0 0 81763313.5979977 -18642860.67142328 -18642860.67142328 -5670782.30412478 0 0 0 0 0 83502255.95657881 -18071023.60245941 -18071023.60245941 -5769893.925813233 0 0 0 0 0 82213253.69677775 -18550052.55190145 -18550052.55190145 -6231378.664308526 0 0 0 0 0 84844223.20067056 -17922106.89524345 -17922106.89524345 -6108851.944371565 0 0 0 0 0 86125582.53123066 -17736284.02643382 -17736284.02643382 -6426147.462722498 0 0 0 0 0 87351518.77584173 -17517129.22887104 -17517129.22887104 -6723096.062275101 0 0 0 0 0 88526661.95002525 -17268870.38034375 -17268870.38034375 -6997784.790640626 0 0 0 0 0 89754937.43412592 -16612046.35701965 -16612046.35701965 -6985295.814821007 0 0 0 0 0 88629381.9500068 -17049287.97738439 -17049287.97738439 -7457276.016262132 0 0 0 0 0 90805003.66813353 -16329201.5114649 -16329201.5114649 -7216314.411901617 0 0 0 0 0 91807186.40102232 -16025289.68075561 -16025289.68075561 -7426558.39360432 0 0 0 0 0 92767453.27889419 -15703818.38207212 -15703818.38207212 -7617498.680956636 0 0 0 0 0 93675450.0418748 -15369044.66018562 -15369044.66018562 -7788854.253811776 0 0 0 0 0 94535109.65917355 -15023023.35577377 -15023023.35577377 -7940886.52223289 0 0 0 0 0 94370167.66452475 -14750788.58057807 -14750788.58057807 -8247394.347130961 0 0 0 0 0 96029133.529025 -14034973.22567962 -14034973.22567962 -7925462.821966589 0 0 0 0 0 95155340.41866851 -14391182.12611624 -14391182.12611624 -8356651.550145173 0 0 0 0 0 96743376.25432482 -13679004.24831029 -13679004.24831029 -8025159.505515162 0 0 0 0 0 97418950.56823705 -13318383.95732248 -13318383.95732248 -8108788.613940273 0 0 0 0 0 98057100.71043687 -12954349.1614387 -12954349.1614387 -8176986.748911357 0 0 0 0 0 98660630.08263141 -12588105.97517538 -12588105.97517538 -8230715.791835879 0 0 0 0 0 99061484.19750144 -12032103.98541753 -12032103.98541753 -8035178.576068018 0 0 0 0 0 98366751.34525776 -12323216.3775865 -12323216.3775865 -8408447.316017799 0 0 0 0 0 99583365.47332636 -11679788.24449569 -11679788.24449569 -8065920.597368946 0 0 0 0 0 100073637.8533668 -11328519.42974935 -11328519.42974935 -8084481.65680619 0 0 0 0 0 100534376.0147744 -10979276.27621716 -10979276.27621716 -8091587.19005464 0 0 0 0 0 100966434.9964512 -10632826.57996984 -10632826.57996984 -8087963.02639121 0 0 0 0 0 101369786.1893565 -10290465.53983438 -10290465.53983438 -8074546.344241438 0 0 0 0 0 101398528.1067979 -9729107.090236152 -9729107.090236152 -8109606.33499044 0 0 0 0 0 101745037.8807618 -9952912.333032867 -9952912.333032867 -8051864.737554869 0 0 0 0 0 101886105.8443722 -9517903.015752047 -9517903.015752047 -7822372.138942564 0 0 0 0 0 102210933.5826807 -9199960.068526477 -9199960.068526477 -7786414.213596494 0 0 0 0 0 102514434.6370114 -8886651.553747611 -8886651.553747611 -7743853.121294321 0 0 0 0 0 102797103.1255337 -8578332.174670098 -8578332.174670098 -7694365.904186361 0 0 0 0 0 103059600.8548782 -8276298.017850078 -8276298.017850078 -7638949.439805529 0 0 0 0 0 103299629.5651046 -7983325.357002674 -7983325.357002674 -7579583.092986692 0 0 0 0 0 102957411.1479661 -7799405.092521374 -7799405.092521374 -7557027.33317858 0 0 0 0 0 103291141.6725903 -7656615.913202425 -7656615.913202425 -7355172.780113127 0 0 0 0 0 103485027.7693801 -7385472.922381636 -7385472.922381636 -7285004.412843275 0 0 0 0 0 103673372.7092991 -7117438.944416107 -7117438.944416107 -7203519.424825476 0 0 0 0 0 103851516.7215467 -6855955.370850017 -6855955.370850017 -7127567.400875758 0 0 0 0 0 103531346.6942447 -6700875.74824356 -6700875.74824356 -7095625.052367139 0 0 0 0 0 103814130.9430684 -6574346.850936002 -6574346.850936002 -6912523.282706514 0 0 0 0 0 103967232.7027313 -6329157.685695666 -6329157.685695666 -6839273.496291965 0 0 0 0 0 104107603.3917799 -6092179.397668391 -6092179.397668391 -6760343.739982836 0 0 0 0 0 104236696.5803607 -5859964.429959124 -5859964.429959124 -6675788.989716347 0 0 0 0 0 104354824.8906773 -5633895.137723522 -5633895.137723522 -6591072.950444648 0 0 0 0 0 104460579.940512 -5416305.542047814 -5416305.542047814 -6505612.086273558 0 0 0 0 0 104550489.644111 -5207235.242209319 -5207235.242209319 -6421019.790739599 0 0 0 0 0 104637890.1377353 -4994777.238030449 -4994777.238030449 -6322641.625026899 0 0 0 0 0 104541054.5153646 -4799723.363994302 -4799723.363994302 -6142650.768322864 0 0 0 0 0 104349980.6218598 -4885781.866290607 -4885781.866290607 -6260998.925045261 0 0 0 0 0 104559218.013805 -4651597.491359716 -4651597.491359716 -6086886.59559731 0 0 0 0 0 104289795.8046011 -4557509.825114177 -4557509.825114177 -6020483.293242393 0 0 0 0 0 104534605.5269347 -4421162.278880483 -4421162.278880483 -5818270.289998223 0 0 0 0 0 104622338.4779487 -4224624.465938807 -4224624.465938807 -5754555.229079202 0 0 0 0 0 104714989.3134499 -4030280.560033208 -4030280.560033208 -5669240.208303728 0 0 0 0 0 104513665.0241244 -3927123.396714617 -3927123.396714617 -5666976.731348673 0 0 0 0 0 104715425.0121649 -3805504.012873897 -3805504.012873897 -5506989.528098651 0 0 0 0 0 104781751.7750563 -3618491.690949537 -3618491.690949537 -5434591.633552262 0 0 0 0 0 79918047.83742656 -19209235.18614231 -19209235.18614231 -5566233.157975719 0 0 0 0 0 36577523.78777681 -727026.1252190473 -727026.1252190473 977168.5597782101 0 0 0 0 0 37315232.60292666 -2494354.046603689 -2494354.046603689 1025346.066810297 0 0 0 0 0 37951580.17251606 -4425255.880116018 -4425255.880116018 936327.4712420264 0 0 0 0 0 39157906.50191148 -6370862.941670876 -6370862.941670876 891763.3665866087 0 0 0 0 0 42427856.2675151 -8278227.909378585 -8278227.909378585 1313259.784181105 0 0 0 0 0 42570307.87026519 -8292899.289149092 -8292899.289149092 1102544.099602995 0 0 0 0 0 44083733.29769734 -9857292.221390788 -9857292.221390788 894573.1664110142 0 0 0 0 0 45724502.97500785 -11332126.56437355 -11332126.56437355 628223.9551167722 0 0 0 0 0 47485837.55960787 -12710287.81717699 -12710287.81717699 312320.7430199678 0 0 0 0 0 51084545.41049898 -13856273.98257553 -13856273.98257553 199562.3292484062 0 0 0 0 0 50274468.23818426 -14074671.64674265 -14074671.64674265 231837.4232223705 0 0 0 0 0 52958189.99769423 -14968303.73527422 -14968303.73527422 -208015.5093111341 0 0 0 0 0 54893479.47737942 -15978701.61545194 -15978701.61545194 -646534.4340381101 0 0 0 0 0 56876246.62894005 -16887191.38129324 -16887191.38129324 -1110518.312089391 0 0 0 0 0 58893970.08085256 -17694187.29220207 -17694187.29220207 -1594359.540226174 0 0 0 0 0 60932298.3216032 -18400520.17791334 -18400520.17791334 -2092565.910852438 0 0 0 0 0 62980281.00474795 -19007711.43113203 -19007711.43113203 -2599280.43507479 0 0 0 0 0 64694490.89117154 -19544587.64716628 -19544587.64716628 -3170992.45250786 0 0 0 0 0 66123185.44792194 -19068842.39045241 -19068842.39045241 -2877370.708197901 0 0 0 0 0 68068120.64442873 -19464140.76661989 -19464140.76661989 -3379712.250344354 0 0 0 0 0 69991724.42145334 -19777491.57948334 -19777491.57948334 -3875565.144674092 0 0 0 0 0 71878460.98446544 -20013612.63301895 -20013612.63301895 -4363434.874615188 0 0 0 0 0 73720484.80379839 -20176780.84089003 -20176780.84089003 -4839284.71063961 0 0 0 0 0 75541718.9920565 -20247711.91196603 -20247711.91196603 -5269266.92483192 0 0 0 0 0 76268527.66310036 -20282261.75651755 -20282261.75651755 -5905011.247688238 0 0 0 0 0 77805254.74690525 -19738440.51082898 -19738440.51082898 -5415318.659186461 0 0 0 0 0 79433832.04718696 -19703023.54008969 -19703023.54008969 -5836186.918432417 0 0 0 0 0 80410840.36998002 -19150699.54332663 -19150699.54332663 -6146133.80862497 0 0 0 0 0 81819519.10217692 -19023174.82771439 -19023174.82771439 -6499819.232706589 0 0 0 0 0 83561907.6585293 -18400160.50496247 -18400160.50496247 -6584261.01435611 0 0 0 0 0 83149447.03132811 -18521287.44763935 -18521287.44763935 -6024132.869430238 0 0 0 0 0 84861190.21547695 -18210900.43457047 -18210900.43457047 -6913713.799515955 0 0 0 0 0 86117187.80780931 -17986947.35123739 -17986947.35123739 -7215443.768501509 0 0 0 0 0 87325923.58158869 -17731006.7559359 -17731006.7559359 -7490650.677193649 0 0 0 0 0 88484530.65988187 -17448472.02948316 -17448472.02948316 -7743701.770807728 0 0 0 0 0 89705207.35917994 -16758778.85893962 -16758778.85893962 -7689653.039163432 0 0 0 0 0 89653849.28881003 -16993748.08364506 -16993748.08364506 -7250912.9792819 0 0 0 0 0 90737712.08124809 -16446355.15213285 -16446355.15213285 -7898452.053129811 0 0 0 0 0 91728345.66062993 -16116411.56066242 -16116411.56066242 -8087979.954091717 0 0 0 0 0 92673117.51652841 -15770214.07453402 -15770214.07453402 -8253827.600788404 0 0 0 0 0 93569407.55782315 -15412794.96495964 -15412794.96495964 -8398575.440887427 0 0 0 0 0 94418561.50951929 -15044949.23654694 -15044949.23654694 -8522320.996435424 0 0 0 0 0 95350712.57603011 -14666459.38484207 -14666459.38484207 -8071524.374137146 0 0 0 0 0 95902260.15139428 -14023910.25911756 -14023910.25911756 -8447816.151256451 0 0 0 0 0 96126041.25189722 -14301883.43199578 -14301883.43199578 -8185546.588247209 0 0 0 0 0 96610255.78354834 -13651890.65939323 -13651890.65939323 -8522544.645560315 0 0 0 0 0 97280413.03898133 -13276404.55070014 -13276404.55070014 -8581116.340156108 0 0 0 0 0 97914340.24678551 -12899068.76800872 -12899068.76800872 -8624762.855674256 0 0 0 0 0 98514162.34253055 -12520562.05140022 -12520562.05140022 -8654793.149859341 0 0 0 0 0 98918338.13266963 -11959821.14639896 -11959821.14639896 -8428478.767506292 0 0 0 0 0 99228301.25609446 -12221255.02172717 -12221255.02172717 -8271330.851406321 0 0 0 0 0 99438019.84242812 -11597490.72869924 -11597490.72869924 -8436070.675168971 0 0 0 0 0 99926944.74789648 -11237566.48209437 -11237566.48209437 -8432155.976976167 0 0 0 0 0 100386715.2515529 -10880347.99663392 -10880347.99663392 -8417188.933559515 0 0 0 0 0 100818674.1282785 -10527111.88890421 -10527111.88890421 -8391863.78351808 0 0 0 0 0 101222454.6138356 -10178227.19346905 -10178227.19346905 -8356298.548635591 0 0 0 0 0 102096066.267617 -9620077.503875781 -9620077.503875781 -8019209.017395685 0 0 0 0 0 101598694.7328102 -9835370.362104518 -9835370.362104518 -8311803.880066455 0 0 0 0 0 101745315.5973952 -9402186.855695603 -9402186.855695603 -8063944.718284991 0 0 0 0 0 102070625.9330074 -9080043.365255188 -9080043.365255188 -8011068.598766422 0 0 0 0 0 102375213.9483807 -8762820.205620563 -8762820.205620563 -7950865.382983097 0 0 0 0 0 102659693.2292108 -8451805.286210701 -8451805.286210701 -7884438.838364651 0 0 0 0 0 102925099.7788922 -8148316.960949393 -8148316.960949393 -7811540.315105478 0 0 0 0 0 103168501.0239118 -7850335.722845762 -7850335.722845762 -7730725.161355223 0 0 0 0 0 103510683.7864581 -7700784.414588361 -7700784.414588361 -7521173.46870125 0 0 0 0 0 103169665.5076977 -7522098.757506641 -7522098.757506641 -7479739.212541407 0 0 0 0 0 103367628.7812262 -7253265.482824882 -7253265.482824882 -7396738.124842159 0 0 0 0 0 103551480.5867825 -6989774.684547812 -6989774.684547812 -7320132.257735637 0 0 0 0 0 103730976.5637526 -6726123.190951535 -6726123.190951535 -7232962.863375178 0 0 0 0 0 104015587.2990648 -6598936.076855885 -6598936.076855885 -7049280.220502156 0 0 0 0 0 103698365.4942129 -6448941.926328797 -6448941.926328797 -7011354.556235445 0 0 0 0 0 103855642.1433682 -6204995.608664155 -6204995.608664155 -6923780.603907767 0 0 0 0 0 103998220.5384389 -5967423.53785536 -5967423.53785536 -6833099.789892492 0 0 0 0 0 104129453.4340326 -5735633.326318241 -5735633.326318241 -6740405.066156308 0 0 0 0 0 104251209.5912912 -5511256.998761632 -5511256.998761632 -6645745.895850881 0 0 0 0 0 104359323.3598958 -5293986.885300366 -5293986.885300366 -6549458.271490958 0 0 0 0 0 104450426.869263 -5080930.925012954 -5080930.925012954 -6450715.046459835 0 0 0 0 0 104540192.6183133 -4872792.405628745 -4872792.405628745 -6353438.631546938 0 0 0 0 0 104461206.8089736 -4694786.406650151 -4694786.406650151 -6150225.348603 0 0 0 0 0 104716421.866684 -4793201.261740393 -4793201.261740393 -6236528.168379677 0 0 0 0 0 104509599.0960378 -4513040.596702384 -4513040.596702384 -6066128.382641383 0 0 0 0 0 104658156.1756417 -4435143.594023038 -4435143.594023038 -5932442.079137586 0 0 0 0 0 104411950.8618358 -4332731.6602348 -4332731.6602348 -5916410.50741954 0 0 0 0 0 104498798.6702451 -4138295.926222083 -4138295.926222083 -5827887.499328647 0 0 0 0 0 104572747.433495 -3949440.712353359 -3949440.712353359 -5755779.477011242 0 0 0 0 0 104795470.5793765 -3840604.890906639 -3840604.890906639 -5584404.205919997 0 0 0 0 0 104606646.6831352 -3741500.948979889 -3741500.948979889 -5617899.592828932 0 0 0 0 0 104686245.1667168 -3564129.557258019 -3564129.557258019 -5533040.946399487 0 0 0 0 0 104879318.3075092 -3432651.566502644 -3432651.566502644 -5347819.092625735 0 0 0 0 0 79989522.34366404 -19651389.59679784 -19651389.59679784 -6441086.358410986 0 0 0 0 0 35599157.04684762 -956272.6189390636 -956272.6189390636 673595.6077454339 0 0 0 0 0 36837966.06343184 -2590269.493630295 -2590269.493630295 981733.555743654 0 0 0 0 0 38001577.89491592 -4353726.288421699 -4353726.288421699 1127790.758221314 0 0 0 0 0 39390147.49781871 -6252404.111590374 -6252404.111590374 1099989.044541444 0 0 0 0 0 40483482.15416689 -8093009.245459193 -8093009.245459193 934581.4389406749 0 0 0 0 0 40551514.27164628 -8119718.424917701 -8119718.424917701 757129.8291929185 0 0 0 0 0 43753163.30539022 -9907296.557058651 -9907296.557058651 1057086.676168747 0 0 0 0 0 45218290.42744815 -11443327.89185559 -11443327.89185559 745398.6574218193 0 0 0 0 0 46813845.58656368 -12879843.1055827 -12879843.1055827 382430.7422323686 0 0 0 0 0 48519914.3552195 -14213075.16622206 -14213075.16622206 -27220.16289291031 0 0 0 0 0 52014544.40366172 -15236907.05926805 -15236907.05926805 -225307.3906639287 0 0 0 0 0 49344392.50318521 -13988138.40238562 -13988138.40238562 -49257.17002703354 0 0 0 0 0 53829288.30904416 -16294194.82497694 -16294194.82497694 -714150.1500659385 0 0 0 0 0 55703926.48721269 -17245920.57945718 -17245920.57945718 -1228122.039701663 0 0 0 0 0 57625818.7125946 -18092476.32046213 -18092476.32046213 -1761077.725977212 0 0 0 0 0 59580848.40603384 -18834817.43424883 -18834817.43424883 -2307547.745576599 0 0 0 0 0 61557178.52254055 -19474192.97887293 -19474192.97887293 -2860974.8600402 0 0 0 0 0 63541140.12306764 -20013212.6556195 -20013212.6556195 -3416915.188887217 0 0 0 0 0 65027001.84306849 -19518432.05163411 -19518432.05163411 -3109815.304104977 0 0 0 0 0 66595647.40090298 -19962634.38077921 -19962634.38077921 -3713138.455098065 0 0 0 0 0 68488895.32993419 -20294881.36461395 -20294881.36461395 -4248898.476449908 0 0 0 0 0 70345526.92963056 -20547374.31665499 -20547374.31665499 -4775329.73742124 0 0 0 0 0 72157709.73959924 -20720477.67824822 -20720477.67824822 -5287442.372093972 0 0 0 0 0 73941305.98446319 -20813003.98796168 -20813003.98796168 -5769637.908723603 0 0 0 0 0 75669237.96799298 -20822639.05567024 -20822639.05567024 -6223739.746119604 0 0 0 0 0 77282091.98434897 -20253868.38986876 -20253868.38986876 -5702242.020155788 0 0 0 0 0 77935938.43028788 -20246378.12182594 -20246378.12182594 -6338167.118695308 0 0 0 0 0 79558071.68191981 -20159413.04860963 -20159413.04860963 -6743398.55015694 0 0 0 0 0 81402014.15906499 -19118467.51024367 -19118467.51024367 -5939952.793019566 0 0 0 0 0 82852750.30459325 -18988792.42825739 -18988792.42825739 -6291484.264079954 0 0 0 0 0 84540971.28701398 -18365827.89900016 -18365827.89900016 -6369696.431905496 0 0 0 0 0 83219564.90084654 -18861588.2505313 -18861588.2505313 -6855671.720852988 0 0 0 0 0 85887952.41753459 -18167148.63827153 -18167148.63827153 -6696499.159453899 0 0 0 0 0 87169508.74581656 -17935588.07768768 -17935588.07768768 -6999739.922419591 0 0 0 0 0 88390736.32812384 -17674309.19905162 -17674309.19905162 -7278236.824873833 0 0 0 0 0 89557049.24012198 -17385330.18245825 -17385330.18245825 -7532769.449210024 0 0 0 0 0 90740978.28267874 -16695715.22112168 -16695715.22112168 -7483607.148924948 0 0 0 0 0 89598043.57907416 -17141844.39958776 -17141844.39958776 -7976520.595435338 0 0 0 0 0 91779666.10041103 -16377526.87447647 -16377526.87447647 -7696836.335079419 0 0 0 0 0 92767442.03613465 -16040618.68517176 -16040618.68517176 -7887706.76413886 0 0 0 0 0 93706584.91765171 -15689544.68284993 -15689544.68284993 -8060178.222483637 0 0 0 0 0 94595702.54407424 -15326986.29069469 -15326986.29069469 -8211468.811195412 0 0 0 0 0 95437348.44455534 -14954642.53237075 -14954642.53237075 -8343303.38243109 0 0 0 0 0 95225690.02876274 -14669087.95567999 -14669087.95567999 -8629681.468729082 0 0 0 0 0 96859701.41472867 -13930343.84153073 -13930343.84153073 -8282573.6512836 0 0 0 0 0 95992964.1033121 -14285801.87160131 -14285801.87160131 -8717904.535903266 0 0 0 0 0 97553495.11973898 -13554144.73843638 -13554144.73843638 -8363466.303755716 0 0 0 0 0 98207452.41253163 -13174846.40356351 -13174846.40356351 -8428540.921881754 0 0 0 0 0 98823406.69703303 -12794104.49603747 -12794104.49603747 -8478470.513890969 0 0 0 0 0 99404686.08295357 -12412124.46719785 -12412124.46719785 -8513464.652859019 0 0 0 0 0 99761227.05152428 -11855220.16161828 -11855220.16161828 -8297953.483189296 0 0 0 0 0 99079184.69414414 -12142500.44599085 -12142500.44599085 -8669700.315361474 0 0 0 0 0 100261189.4726905 -11490433.76364454 -11490433.76364454 -8312038.324414952 0 0 0 0 0 100730478.1757563 -11128208.80801864 -11128208.80801864 -8314374.364069804 0 0 0 0 0 101169891.3712039 -10769018.19482782 -10769018.19482782 -8305530.559631915 0 0 0 0 0 101580465.9515679 -10413959.70231506 -10413959.70231506 -8286342.544453197 0 0 0 0 0 101962132.1829177 -10064343.79627168 -10064343.79627168 -8258536.386439909 0 0 0 0 0 101950214.9719573 -9497219.992317088 -9497219.992317088 -8259578.398315617 0 0 0 0 0 102316763.4002221 -9720465.188866973 -9720465.188866973 -8220529.084398133 0 0 0 0 0 102424091.5295608 -9291516.493946046 -9291516.493946046 -7977769.557918395 0 0 0 0 0 102730360.2804226 -8968260.317757638 -8968260.317757638 -7929333.542457425 0 0 0 0 0 103014890.9975556 -8650538.512266945 -8650538.512266945 -7874294.057301569 0 0 0 0 0 103278685.7982978 -8339258.37318696 -8339258.37318696 -7813010.988954442 0 0 0 0 0 103520742.2335981 -8035546.924342966 -8035546.924342966 -7746209.286661263 0 0 0 0 0 103741241.0707314 -7741988.493339106 -7741988.493339106 -7677728.956015683 0 0 0 0 0 103386756.3281065 -7560606.499030027 -7560606.499030027 -7633180.275246607 0 0 0 0 0 103704751.0890979 -7421157.271551946 -7421157.271551946 -7438475.161355531 0 0 0 0 0 103884813.2427638 -7151388.502998275 -7151388.502998275 -7357538.158580854 0 0 0 0 0 104060503.2362778 -6882988.095719852 -6882988.095719852 -7271330.494153328 0 0 0 0 0 104224380.5832375 -6619946.556152218 -6619946.556152218 -7187303.406951623 0 0 0 0 0 103897285.4094456 -6468461.833072483 -6468461.833072483 -7142685.73346894 0 0 0 0 0 104166659.8489208 -6347915.600844975 -6347915.600844975 -6968196.904298386 0 0 0 0 0 104305319.0059976 -6103842.293641333 -6103842.293641333 -6885141.576347361 0 0 0 0 0 104432279.3993279 -5866572.980924937 -5866572.980924937 -6797969.747751999 0 0 0 0 0 104547794.2293551 -5635981.665614633 -5635981.665614633 -6708242.472142729 0 0 0 0 0 104651151.8296836 -5413127.061263195 -5413127.061263195 -6617646.395503258 0 0 0 0 0 104742826.13873 -5197004.85046017 -5197004.85046017 -6524359.54978598 0 0 0 0 0 104825877.233769 -4984268.85534287 -4984268.85534287 -6427491.039556434 0 0 0 0 0 104900340.0294044 -4778126.469719412 -4778126.469719412 -6332102.305793065 0 0 0 0 0 104772756.2484972 -4606607.662721747 -4606607.662721747 -6158531.005175151 0 0 0 0 0 104623159.8582421 -4673171.131567218 -4673171.131567218 -6253896.111330115 0 0 0 0 0 104850384.866196 -4403382.527712182 -4403382.527712182 -6036242.852623919 0 0 0 0 0 104567167.1339345 -4321645.389378354 -4321645.389378354 -5974632.727367776 0 0 0 0 0 104743731.2887579 -4234863.518310817 -4234863.518310817 -5848653.984986012 0 0 0 0 0 104824762.7805847 -4052387.119192772 -4052387.119192772 -5762276.530461456 0 0 0 0 0 104880032.3537556 -3884933.973526158 -3884933.973526158 -5693647.993843324 0 0 0 0 0 104737493.9076222 -3800735.42537791 -3800735.42537791 -5683141.236082812 0 0 0 0 0 104868885.3342803 -3654578.335417778 -3654578.335417778 -5529359.079045802 0 0 0 0 0 104976577.8608098 -3485318.526947144 -3485318.526947144 -5448251.416762402 0 0 0 0 0 104774777.2147676 -3375472.551198877 -3375472.551198877 -5432628.741081161 0 0 0 0 0 104957757.8854452 -3254636.205860825 -3254636.205860825 -5262139.02552904 0 0 0 0 0 81023697.6643063 -19612661.38531477 -19612661.38531477 -6228198.409518998 0 0 0 0 0 34723445.62608847 -734809.5016678174 -734809.5016678174 357164.6399947537 0 0 0 0 0 35455550.68731925 -2389234.535165588 -2389234.535165588 576900.6558276089 0 0 0 0 0 36083394.12483203 -4176026.189895273 -4176026.189895273 546963.3186875186 0 0 0 0 0 37069110.45259429 -6047495.986020545 -6047495.986020545 395145.6645674268 0 0 0 0 0 38465187.3855378 -7902414.144644975 -7902414.144644975 321371.6846723544 0 0 0 0 0 41798291.64958326 -9803744.518560542 -9803744.518560542 704447.6474169579 0 0 0 0 0 42095337.71522682 -9758125.657623503 -9758125.657623503 559440.7329256688 0 0 0 0 0 43785549.58854166 -11307281.1952157 -11307281.1952157 310661.6760013275 0 0 0 0 0 45599777.15800127 -12757616.5372658 -12757616.5372658 9397.881311782941 0 0 0 0 0 47523897.16769449 -14104051.87389305 -14104051.87389305 -339273.8229335289 0 0 0 0 0 51287453.9698398 -15161847.44704441 -15161847.44704441 -450059.6211951863 0 0 0 0 0 50323211.5169802 -15438902.26199596 -15438902.26199596 -477425.2305886997 0 0 0 0 0 53300071.15980119 -16228905.14583277 -16228905.14583277 -885000.8129989713 0 0 0 0 0 55365456.37285145 -17188919.8071166 -17188919.8071166 -1347769.569879914 0 0 0 0 0 57468514.52080926 -18042131.7954419 -18042131.7954419 -1832891.351461299 0 0 0 0 0 59597413.19717108 -18789366.45959235 -18789366.45959235 -2334502.41907914 0 0 0 0 0 61735995.74117136 -19432215.42267534 -19432215.42267534 -2846809.336602519 0 0 0 0 0 63875159.18973977 -19973444.13922622 -19973444.13922622 -3364426.335112781 0 0 0 0 0 65525345.81387227 -20455744.37335561 -20455744.37335561 -3968842.004112083 0 0 0 0 0 67059027.76000694 -19936395.28793492 -19936395.28793492 -3620491.760616409 0 0 0 0 0 69070606.97900347 -20267433.50475018 -20267433.50475018 -4128550.310011707 0 0 0 0 0 71050684.55069517 -20513836.34828622 -20513836.34828622 -4625183.676321497 0 0 0 0 0 73001544.95880783 -20683289.73795622 -20683289.73795622 -5111473.842266467 0 0 0 0 0 74904962.54143876 -20772892.90738066 -20772892.90738066 -5571031.698528224 0 0 0 0 0 76753184.09921822 -20787523.26514066 -20787523.26514066 -6012021.82446258 0 0 0 0 0 77404488.94741203 -20776380.39307617 -20776380.39307617 -6646030.398902336 0 0 0 0 0 78969468.76611742 -20204190.2556734 -20204190.2556734 -6126222.53416398 0 0 0 0 0 80605076.18046038 -20109265.57433809 -20109265.57433809 -6522727.733133479 0 0 0 0 0 81443024.19155645 -19514192.8143333 -19514192.8143333 -6809250.138924226 0 0 0 0 0 82864944.2338832 -19334938.62546687 -19334938.62546687 -7156858.673940904 0 0 0 0 0 84588234.38876638 -18658788.78439651 -18658788.78439651 -7191066.778026134 0 0 0 0 0 84264193.32758059 -18817988.52344546 -18817988.52344546 -6634069.351370601 0 0 0 0 0 85899214.65373181 -18422131.49629397 -18422131.49629397 -7501251.610129301 0 0 0 0 0 87150835.28748439 -18152738.02219982 -18152738.02219982 -7783530.025091955 0 0 0 0 0 88348798.85084958 -17856350.32147205 -17856350.32147205 -8040288.216858664 0 0 0 0 0 89495113.73719136 -17534347.65296954 -17534347.65296954 -8274321.840896362 0 0 0 0 0 90668406.14209771 -16814441.16051163 -16814441.16051163 -8188606.212750606 0 0 0 0 0 90678409.94544302 -17071826.9326032 -17071826.9326032 -7764364.266470426 0 0 0 0 0 91689664.18896379 -16467471.46668614 -16467471.46668614 -8376209.995781558 0 0 0 0 0 92666636.85633534 -16105317.03731583 -16105317.03731583 -8542290.897370592 0 0 0 0 0 93594451.98713414 -15730385.83821143 -15730385.83821143 -8686337.125896905 0 0 0 0 0 94472829.25925632 -15345168.18981118 -15345168.18981118 -8809932.432580315 0 0 0 0 0 95304289.60330203 -14951335.26888666 -14951335.26888666 -8912748.803264936 0 0 0 0 0 96233847.58999194 -14572716.1256613 -14572716.1256613 -8454359.682410575 0 0 0 0 0 96720375.89424899 -13897693.91162999 -13897693.91162999 -8789305.115626339 0 0 0 0 0 96987266.87472476 -14185245.01738514 -14185245.01738514 -8549372.241569957 0 0 0 0 0 97408642.13463634 -13506078.84312054 -13506078.84312054 -8843886.533795916 0 0 0 0 0 98058245.35834633 -13112991.17978758 -13112991.17978758 -8882748.005689267 0 0 0 0 0 98670689.57290265 -12719662.67524369 -12719662.67524369 -8906915.055607373 0 0 0 0 0 99249108.75501135 -12326815.88498482 -12326815.88498482 -8918341.251159891 0 0 0 0 0 99610022.27987172 -11766287.58545534 -11766287.58545534 -8671993.704217911 0 0 0 0 0 99950292.99407317 -12031633.89566047 -12031633.89566047 -8537029.262131825 0 0 0 0 0 100108746.9558929 -11392915.37160321 -11392915.37160321 -8662775.042825583 0 0 0 0 0 100577097.7206218 -11022440.02253654 -11022440.02253654 -8641891.595060848 0 0 0 0 0 101016282.2728288 -10656253.396937 -10656253.396937 -8610513.394853275 0 0 0 0 0 101427348.2967897 -10295180.43308117 -10295180.43308117 -8569602.512748785 0 0 0 0 0 101810171.1555419 -9939396.640913589 -9939396.640913589 -8518433.500533964 0 0 0 0 0 102647189.2023104 -9381222.593839949 -9381222.593839949 -8173494.562524654 0 0 0 0 0 102166148.8757244 -9589802.372260597 -9589802.372260597 -8459243.787125818 0 0 0 0 0 102279117.0137516 -9164828.659962278 -9164828.659962278 -8200758.239986599 0 0 0 0 0 102586586.7116922 -8837739.174695691 -8837739.174695691 -8134327.490877028 0 0 0 0 0 102873012.075724 -8517133.665499832 -8517133.665499832 -8061539.56279967 0 0 0 0 0 103139166.4456685 -8203567.089803086 -8203567.089803086 -7982737.958404489 0 0 0 0 0 103385300.9352998 -7899068.591309497 -7899068.591309497 -7897320.385737427 0 0 0 0 0 103609079.4944875 -7597732.429768447 -7597732.429768447 -7796592.401197451 0 0 0 0 0 103931011.0907388 -7459078.591556231 -7459078.591556231 -7602301.07044722 0 0 0 0 0 103581939.2279724 -7284748.268233262 -7284748.268233262 -7546830.211046122 0 0 0 0 0 103764308.7772466 -7015163.33407766 -7015163.33407766 -7461834.981042057 0 0 0 0 0 103937205.6101851 -6748099.319085529 -6748099.319085529 -7371939.715350354 0 0 0 0 0 104103126.9647115 -6484000.832560142 -6484000.832560142 -7275703.832268849 0 0 0 0 0 104373641.0971971 -6362983.603609062 -6362983.603609062 -7100617.566040259 0 0 0 0 0 104051150.2696087 -6217588.52507932 -6217588.52507932 -7049784.669086903 0 0 0 0 0 104192981.8836808 -5974008.136441148 -5974008.136441148 -6954276.429725221 0 0 0 0 0 104322758.9587711 -5737373.901173155 -5737373.901173155 -6856489.294382374 0 0 0 0 0 104441261.5794487 -5507900.232285564 -5507900.232285564 -6756565.107673114 0 0 0 0 0 104547660.2676929 -5285317.904229027 -5285317.904229027 -6654782.624048236 0 0 0 0 0 104640493.5469055 -5068396.520612637 -5068396.520612637 -6552177.750859166 0 0 0 0 0 104726339.8440236 -4856913.07116896 -4856913.07116896 -6448393.569728199 0 0 0 0 0 104803938.5163149 -4652271.049803069 -4652271.049803069 -6344225.478801026 0 0 0 0 0 104691165.1226463 -4478472.225289085 -4478472.225289085 -6150743.542573822 0 0 0 0 0 104965499.2251716 -4579078.141239013 -4579078.141239013 -6236127.87942824 0 0 0 0 0 104763715.9119505 -4291899.591854446 -4291899.591854446 -6052290.270439488 0 0 0 0 0 104901826.0213378 -4227378.153659302 -4227378.153659302 -5953315.225945603 0 0 0 0 0 104638537.046946 -4137973.190850139 -4137973.190850139 -5887950.761598903 0 0 0 0 0 104711327.774306 -3954478.046214684 -3954478.046214684 -5794143.402631473 0 0 0 0 0 104787233.0364968 -3784600.735063802 -3784600.735063802 -5657867.755314924 0 0 0 0 0 104793706.4915193 -3611064.887351237 -3611064.887351237 -5615802.900302411 0 0 0 0 0 104848851.6544135 -3422859.793834476 -3422859.793834476 -5518008.759642917 0 0 0 0 0 105025111.5919302 -3293289.136162329 -3293289.136162329 -5335221.786668973 0 0 0 0 0 104845626.6491624 -3180324.826493051 -3180324.826493051 -5306196.091999467 0 0 0 0 0 105007904.189907 -3092830.590900141 -3092830.590900141 -5180646.219340021 0 0 0 0 0 81074872.32169482 -20017606.15105611 -20017606.15105611 -7126914.532091355 0 0 0 0 0 33451147.57391471 -1033809.501486187 -1033809.501486187 -76342.38431337857 0 0 0 0 0 34502637.73999466 -2612747.376750597 -2612747.376750597 361004.575310818 0 0 0 0 0 35948329.01295204 -4198833.852126992 -4198833.852126992 583410.252560413 0 0 0 0 0 37103740.59369048 -5991269.105595964 -5991269.105595964 564323.003404586 0 0 0 0 0 38436164.70032708 -7875193.03768933 -7875193.03768933 456156.7390688072 0 0 0 0 0 39768284.68353399 -9674469.048409216 -9674469.048409216 270960.3143917677 0 0 0 0 0 40031544.23942262 -9628898.858987598 -9628898.858987598 163151.6359218422 0 0 0 0 0 43295401.61324377 -11417716.38529881 -11417716.38529881 413167.9115251446 0 0 0 0 0 44930280.69395781 -12930008.66410631 -12930008.66410631 66340.30753359036 0 0 0 0 0 46689828.1189478 -14334983.86762061 -14334983.86762061 -330344.2856879288 0 0 0 0 0 48554960.31972063 -15627703.3386526 -15627703.3386526 -770816.9104958322 0 0 0 0 0 52207453.97075506 -16554910.76091899 -16554910.76091899 -962587.2566496042 0 0 0 0 0 49539379.30798125 -15341711.35569205 -15341711.35569205 -730744.2991532687 0 0 0 0 0 54156508.15034974 -17560650.49964489 -17560650.49964489 -1476121.027468541 0 0 0 0 0 56157336.14852797 -18455452.38904773 -18455452.38904773 -2011057.790181488 0 0 0 0 0 58196843.36788502 -19240516.5435119 -19240516.5435119 -2561429.947818299 0 0 0 0 0 60258929.45810115 -19917317.45963305 -19917317.45963305 -3121049.167804217 0 0 0 0 0 62333502.28086073 -20488251.90457403 -20488251.90457403 -3683977.207547656 0 0 0 0 0 64407117.01964502 -20957050.82397845 -20957050.82397845 -4245083.149426756 0 0 0 0 0 66001633.8611425 -20416285.32062194 -20416285.32062194 -3882187.418523001 0 0 0 0 0 67501535.19743679 -20806559.61040372 -20806559.61040372 -4514408.870035451 0 0 0 0 0 69458565.34529498 -21069798.76149478 -21069798.76149478 -5049616.512947177 0 0 0 0 0 71380952.97451876 -21252312.69566543 -21252312.69566543 -5575356.375989741 0 0 0 0 0 73243760.45743734 -21351438.30775838 -21351438.30775838 -6077186.381584485 0 0 0 0 0 75079245.97862478 -21377894.19867868 -21377894.19867868 -6553257.752638577 0 0 0 0 0 76846705.65961382 -21328776.69652036 -21328776.69652036 -6989982.780070842 0 0 0 0 0 78503149.44882673 -20730838.54560897 -20730838.54560897 -6428474.748305722 0 0 0 0 0 79066610.28333765 -20678554.08761298 -20678554.08761298 -7058533.230987739 0 0 0 0 0 80695368.3182587 -20529252.61487474 -20529252.61487474 -7449386.856567535 0 0 0 0 0 82531228.90324399 -19474003.555263 -19474003.555263 -6595061.93432008 0 0 0 0 0 83994567.55313003 -19286133.8047816 -19286133.8047816 -6932539.647767332 0 0 0 0 0 85641442.97831544 -18610270.53924645 -18610270.53924645 -6967462.944490477 0 0 0 0 0 84276650.19625516 -19123187.3485578 -19123187.3485578 -7491834.579077835 0 0 0 0 0 86979314.18189523 -18366975.86354126 -18366975.86354126 -7278948.403346824 0 0 0 0 0 88252447.99778377 -18090999.20588465 -18090999.20588465 -7564352.61509441 0 0 0 0 0 89466315.15432623 -17786666.69286586 -17786666.69286586 -7823041.806601997 0 0 0 0 0 90627675.57952322 -17457234.91133669 -17457234.91133669 -8057822.873083062 0 0 0 0 0 91755732.98079684 -16737904.61946428 -16737904.61946428 -7979444.560953869 0 0 0 0 0 90603224.67783253 -17190725.85139095 -17190725.85139095 -8488195.706378413 0 0 0 0 0 92777810.78511749 -16384018.86435264 -16384018.86435264 -8171153.038922084 0 0 0 0 0 93745656.43252289 -16016833.14897454 -16016833.14897454 -8343421.214194342 0 0 0 0 0 94663718.27766475 -15636864.56825088 -15636864.56825088 -8494234.576796016 0 0 0 0 0 95532172.26999804 -15246799.77899218 -15246799.77899218 -8624050.946323562 0 0 0 0 0 96352881.77412169 -14847821.07270188 -14847821.07270188 -8733610.284392716 0 0 0 0 0 96093966.31589776 -14551613.50990838 -14551613.50990838 -8998356.959087219 0 0 0 0 0 97698255.0179482 -13792986.794201 -13792986.794201 -8626563.006955119 0 0 0 0 0 96840977.65373382 -14146559.81026966 -14146559.81026966 -9064697.289100368 0 0 0 0 0 98368900.67293073 -13397741.97662612 -13397741.97662612 -8687894.797985643 0 0 0 0 0 98999822.91971308 -13001122.63281761 -13001122.63281761 -8733748.783558302 0 0 0 0 0 99591997.21056147 -12604562.81739838 -12604562.81739838 -8764589.593707509 0 0 0 0 0 100149153.5023413 -12208820.96732245 -12208820.96732245 -8781390.69528617 0 0 0 0 0 100459297.9647648 -11653020.36179692 -11653020.36179692 -8546106.567606097 0 0 0 0 0 99792885.70128299 -11935374.64388712 -11935374.64388712 -8914281.982915616 0 0 0 0 0 100936904.8111305 -11277382.15266024 -11277382.15266024 -8543063.912106408 0 0 0 0 0 101383553.2210335 -10905198.13699678 -10905198.13699678 -8528698.865105484 0 0 0 0 0 101800442.1201932 -10537374.59387055 -10537374.59387055 -8503702.423880272 0 0 0 0 0 102188238.551124 -10175017.43995364 -10175017.43995364 -8469461.927474558 0 0 0 0 0 102548662.5434518 -9818536.883928923 -9818536.883928923 -8425738.9105889 0 0 0 0 0 102497675.9339891 -9247041.618152563 -9247041.618152563 -8393815.505942345 0 0 0 0 0 102882307.2688356 -9468222.948473701 -9468222.948473701 -8373170.393584785 0 0 0 0 0 102955939.5828573 -9047544.26599898 -9047544.26599898 -8118679.634288501 0 0 0 0 0 103242375.4137071 -8720090.837636739 -8720090.837636739 -8057512.528389485 0 0 0 0 0 103507400.699661 -8399278.132301463 -8399278.132301463 -7989969.250833053 0 0 0 0 0 103751723.3390746 -8085541.611909709 -8085541.611909709 -7916478.810528194 0 0 0 0 0 103971936.4280393 -7782374.296761955 -7782374.296761955 -7839577.01192189 0 0 0 0 0 104165261.3788852 -7491604.063020152 -7491604.063020152 -7763657.821367184 0 0 0 0 0 103804071.5419444 -7312781.400882928 -7312781.400882928 -7699299.909476786 0 0 0 0 0 104107192.2471703 -7180369.486714612 -7180369.486714612 -7513219.525346473 0 0 0 0 0 104279388.1945249 -6905695.427592833 -6905695.427592833 -7418664.374696602 0 0 0 0 0 104440925.637694 -6637561.546370563 -6637561.546370563 -7326931.035745205 0 0 0 0 0 104588040.9450466 -6374155.796948681 -6374155.796948681 -7234497.961875548 0 0 0 0 0 104255240.4287277 -6227102.067727286 -6227102.067727286 -7176842.989670921 0 0 0 0 0 104510163.6658677 -6112918.394351775 -6112918.394351775 -7011312.939588789 0 0 0 0 0 104634689.9552812 -5869901.763383781 -5869901.763383781 -6919563.715683744 0 0 0 0 0 104747553.0554779 -5634139.930554511 -5634139.930554511 -6825264.097217907 0 0 0 0 0 104848459.4292434 -5405972.474306341 -5405972.474306341 -6729221.040974597 0 0 0 0 0 104938374.8664444 -5184631.291685083 -5184631.291685083 -6631027.780155196 0 0 0 0 0 105018808.7336298 -4968574.698056514 -4968574.698056514 -6529762.725130132 0 0 0 0 0 105090398.0774006 -4758754.75226732 -4758754.75226732 -6428607.849000075 0 0 0 0 0 105153415.6232328 -4555146.177004555 -4555146.177004555 -6326770.812166477 0 0 0 0 0 105028536.029872 -4381431.964985519 -4381431.964985519 -6136078.414202244 0 0 0 0 0 104870565.2884781 -4452436.012931585 -4452436.012931585 -6239631.232002141 0 0 0 0 0 105078529.8972096 -4198766.908446066 -4198766.908446066 -6039839.309878991 0 0 0 0 0 104819329.3781787 -4106050.521340638 -4106050.521340638 -5951181.374162022 0 0 0 0 0 104953866.8328948 -4046529.850572806 -4046529.850572806 -5860915.28231953 0 0 0 0 0 105004562.5097904 -3868649.702647596 -3868649.702647596 -5763880.521594248 0 0 0 0 0 105023470.9572794 -3711840.861071123 -3711840.861071123 -5685576.058589797 0 0 0 0 0 105084762.9729707 -3520451.897589585 -3520451.897589585 -5549703.385542453 0 0 0 0 0 105143952.2043714 -3348753.269866658 -3348753.269866658 -5448042.301931049 0 0 0 0 0 105061713.7402329 -3256181.273588278 -3256181.273588278 -5440863.760084772 0 0 0 0 0 105047962.7318056 -3105784.740372115 -3105784.740372115 -5315701.891353374 0 0 0 0 0 104895769.474277 -3033804.368919554 -3033804.368919554 -5263742.817791011 0 0 0 0 0 105052300.6152976 -2921747.450897458 -2921747.450897458 -5096910.136621373 0 0 0 0 0 82204292.90479089 -19967116.80464433 -19967116.80464433 -6904312.603059414 0 0 0 0 0 32468554.34103555 -834329.5367139063 -834329.5367139063 -354824.0802671718 0 0 0 0 0 33481218.59824089 -2359122.358406644 -2359122.358406644 1947.754637065946 0 0 0 0 0 34006078.73316269 -3992368.355273865 -3992368.355273865 -25984.8669566587 0 0 0 0 0 34957712.81712723 -5773381.593036417 -5773381.593036417 -104432.9535979449 0 0 0 0 0 36304861.01127616 -7637815.727454935 -7637815.727454935 -215675.6401631664 0 0 0 0 0 37895075.68618243 -9460433.36601969 -9460433.36601969 -322260.5968846031 0 0 0 0 0 41290435.61180127 -11366575.57904387 -11366575.57904387 14869.75170767085 0 0 0 0 0 41759337.80252898 -11255693.74734958 -11255693.74734958 -64054.73565284311 0 0 0 0 0 43628346.26741086 -12781641.7077506 -12781641.7077506 -345675.6172692487 0 0 0 0 0 45618322.40954605 -14199876.36637217 -14199876.36637217 -678165.2644577534 0 0 0 0 0 47709504.8831734 -15505367.52258656 -15505367.52258656 -1055973.439167138 0 0 0 0 0 51630905.05110007 -16468770.33113849 -16468770.33113849 -1158939.622934611 0 0 0 0 0 50509547.73124596 -16805964.87291655 -16805964.87291655 -1248817.01566437 0 0 0 0 0 53782313.20898435 -17483750.36150837 -17483750.36150837 -1617843.036911184 0 0 0 0 0 55976282.79285564 -18386139.72177808 -18386139.72177808 -2101466.915138165 0 0 0 0 0 58197675.14225698 -19177254.98616409 -19177254.98616409 -2604183.180568632 0 0 0 0 0 60433818.76614975 -19858316.95999352 -19858316.95999352 -3119437.512079323 0 0 0 0 0 62669632.45886316 -20432144.2685906 -20432144.2685906 -3641876.394421425 0 0 0 0 0 64895080.99526449 -20902232.95079284 -20902232.95079284 -4166160.609087042 0 0 0 0 0 66471352.0324812 -21328122.11267346 -21328122.11267346 -4799616.482082336 0 0 0 0 0 68105963.83571056 -20766299.57900266 -20766299.57900266 -4397520.597686886 0 0 0 0 0 70179403.6046935 -21027882.17241721 -21027882.17241721 -4905785.077332705 0 0 0 0 0 72207398.89271738 -21207380.23414223 -21207380.23414223 -5403714.82178466 0 0 0 0 0 74200715.28871633 -21305025.9580628 -21305025.9580628 -5882006.176969165 0 0 0 0 0 76139022.98822135 -21322343.5576029 -21322343.5576029 -6340764.600788612 0 0 0 0 0 78017530.78426085 -21271133.42762021 -21271133.42762021 -6775887.891453564 0 0 0 0 0 78589327.33181746 -21217840.20608993 -21217840.20608993 -7404464.200685228 0 0 0 0 0 80211288.27712496 -20622510.40429958 -20622510.40429958 -6836200.950982824 0 0 0 0 0 81835112.13817546 -20463948.71945966 -20463948.71945966 -7216770.127217233 0 0 0 0 0 82550564.59895931 -19825169.23653936 -19825169.23653936 -7474376.551467764 0 0 0 0 0 83998637.36363217 -19598925.3612872 -19598925.3612872 -7804920.300293258 0 0 0 0 0 85648518.68009359 -18874436.75272639 -18874436.75272639 -7805667.436412458 0 0 0 0 0 85405903.23933074 -19062023.89450808 -19062023.89450808 -7262050.269481373 0 0 0 0 0 86959125.90540375 -18589159.68070852 -18589159.68070852 -8092043.318496312 0 0 0 0 0 88207470.97943136 -18276104.25062843 -18276104.25062843 -8352164.303777156 0 0 0 0 0 89398478.18654433 -17936635.02772495 -17936635.02772495 -8587944.930998366 0 0 0 0 0 90541045.08321857 -17574772.22922764 -17574772.22922764 -8799634.898150435 0 0 0 0 0 91662110.74784929 -16825802.07558916 -16825802.07558916 -8676096.9542288 0 0 0 0 0 91735644.72941533 -17106417.42655468 -17106417.42655468 -8272146.621316788 0 0 0 0 0 92670858.90181455 -16446170.1458174 -16446170.1458174 -8840996.23321184 0 0 0 0 0 93627566.54549573 -16053717.66635087 -16053717.66635087 -8984046.260270892 0 0 0 0 0 94534620.25036472 -15650254.0568665 -15650254.0568665 -9105441.282149144 0 0 0 0 0 95393161.64485477 -15238401.55549406 -15238401.55549406 -9206356.488658592 0 0 0 0 0 96206154.87222815 -14820474.35654307 -14820474.35654307 -9287139.112968167 0 0 0 0 0 97126796.78915653 -14443249.13696334 -14443249.13696334 -8825281.505686749 0 0 0 0 0 97546823.53654632 -13738731.14379928 -13738731.14379928 -9115050.795448389 0 0 0 0 0 97856480.6934738 -14034288.8672959 -14034288.8672959 -8899155.101977739 0 0 0 0 0 98212997.92349401 -13329004.55994297 -13329004.55994297 -9149106.665460138 0 0 0 0 0 98840361.12739079 -12919252.26330832 -12919252.26330832 -9167455.542914299 0 0 0 0 0 99430000.37245864 -12511388.57097631 -12511388.57097631 -9172359.082127267 0 0 0 0 0 99985127.30369844 -12105668.69417748 -12105668.69417748 -9163972.55192917 0 0 0 0 0 100300865.9157348 -11548194.66393044 -11548194.66393044 -8899124.749931272 0 0 0 0 0 100669786.5351658 -11815660.62707384 -11815660.62707384 -8786747.23596574 0 0 0 0 0 100777528.0654777 -11164171.25943823 -11164171.25943823 -8871883.22091054 0 0 0 0 0 101223883.2271051 -10784733.61822515 -10784733.61822515 -8834274.845274536 0 0 0 0 0 101641332.9325035 -10411126.35459948 -10411126.35459948 -8787058.819119031 0 0 0 0 0 102029953.189153 -10042590.60676862 -10042590.60676862 -8729544.413560912 0 0 0 0 0 102391786.7387067 -9680952.167121716 -9680952.167121716 -8663646.260299748 0 0 0 0 0 103192404.1739903 -9124165.730371706 -9124165.730371706 -8311921.937028305 0 0 0 0 0 102727732.1278643 -9326310.99224782 -9326310.99224782 -8590371.304510243 0 0 0 0 0 102807606.836325 -8910034.688994905 -8910034.688994905 -8321063.010881254 0 0 0 0 0 103095870.6443174 -8579607.08112097 -8579607.08112097 -8241588.235201813 0 0 0 0 0 103363147.8784045 -8256398.512949641 -8256398.512949641 -8156333.505871193 0 0 0 0 0 103610948.2453324 -7941659.502758588 -7941659.502758588 -8064527.728893368 0 0 0 0 0 103837644.962083 -7634578.508790243 -7634578.508790243 -7962188.874497715 0 0 0 0 0 104032878.3500214 -7340825.224185362 -7340825.224185362 -7854209.644651896 0 0 0 0 0 104338827.5924585 -7207086.965551344 -7207086.965551344 -7669032.315266915 0 0 0 0 0 103981353.8081215 -7038172.089007215 -7038172.089007215 -7606444.246559267 0 0 0 0 0 104154366.7862624 -6765533.894783364 -6765533.894783364 -7511736.245106396 0 0 0 0 0 104316559.4173931 -6495462.856219233 -6495462.856219233 -7409662.970997533 0 0 0 0 0 104466841.761077 -6232586.05073755 -6232586.05073755 -7304783.067798967 0 0 0 0 0 104722273.2279578 -6118277.888687003 -6118277.888687003 -7139306.759172474 0 0 0 0 0 104394743.6215393 -5977493.142663096 -5977493.142663096 -7075803.704056971 0 0 0 0 0 104522480.259909 -5735301.995719347 -5735301.995719347 -6972669.194983342 0 0 0 0 0 104638619.144907 -5500522.199968299 -5500522.199968299 -6867529.021577805 0 0 0 0 0 104742717.5122976 -5272825.338375779 -5272825.338375779 -6760393.147329773 0 0 0 0 0 104834867.6681243 -5051786.532882714 -5051786.532882714 -6652487.771132708 0 0 0 0 0 104917542.0433754 -4836960.998746417 -4836960.998746417 -6543952.265911166 0 0 0 0 0 104991923.2875455 -4628232.681637723 -4628232.681637723 -6434528.099076938 0 0 0 0 0 105057448.0926954 -4425613.93986724 -4425613.93986724 -6324931.712561388 0 0 0 0 0 104940309.7052919 -4261933.377873408 -4261933.377873408 -6134391.157963844 0 0 0 0 0 105210352.2015214 -4356610.840396223 -4356610.840396223 -6223653.831694985 0 0 0 0 0 104990978.7498873 -4076024.114727333 -4076024.114727333 -6028822.443991784 0 0 0 0 0 105123017.0333474 -4016402.499108233 -4016402.499108233 -5940385.130455424 0 0 0 0 0 104868184.6808548 -3927439.008078719 -3927439.008078719 -5851984.859495703 0 0 0 0 0 104915212.7446243 -3756633.786156235 -3756633.786156235 -5752046.520438223 0 0 0 0 0 104940112.3999964 -3588125.636773383 -3588125.636773383 -5651789.064881939 0 0 0 0 0 104966621.6442386 -3423845.335797404 -3423845.335797404 -5552286.045031448 0 0 0 0 0 105024522.5835178 -3266793.975307913 -3266793.975307913 -5455154.865108204 0 0 0 0 0 105085334.0097257 -3092737.229645768 -3092737.229645768 -5295579.417678577 0 0 0 0 0 105077876.4365114 -2959620.333596659 -2959620.333596659 -5169758.884404246 0 0 0 0 0 104959438.7352228 -2869804.292218482 -2869804.292218482 -5148819.693256559 0 0 0 0 0 105083907.3676674 -2767901.084134487 -2767901.084134487 -5013362.659554164 0 0 0 0 0 82221566.32297474 -20329050.21358829 -20329050.21358829 -7811216.244686947 0 0 0 0 0 31211740.62359738 -1080737.702928925 -1080737.702928925 -716256.547233768 0 0 0 0 0 32229759.04784479 -2797775.855973384 -2797775.855973384 -548992.7843615174 0 0 0 0 0 34062654.60084193 -3954338.640222243 -3954338.640222243 68045.40402479284 0 0 0 0 0 35021177.89323723 -5728255.12906351 -5728255.12906351 2860.792135693619 0 0 0 0 0 36210191.12423032 -7634447.41481676 -7634447.41481676 -105155.5967846261 0 0 0 0 0 37644751.24453269 -9511737.950648611 -9511737.950648611 -251862.6991877717 0 0 0 0 0 39200685.97709632 -11285234.62765856 -11285234.62765856 -465473.3514961678 0 0 0 0 0 39651537.55719551 -11170607.83803673 -11170607.83803673 -510016.0610263009 0 0 0 0 0 42969517.27548768 -12956422.77948884 -12956422.77948884 -307226.6187700274 0 0 0 0 0 44779879.27081914 -14436347.70422469 -14436347.70422469 -685271.0832608499 0 0 0 0 0 46708094.76141825 -15800406.26089241 -15800406.26089241 -1111397.962392885 0 0 0 0 0 48732441.5918745 -17044943.11891884 -17044943.11891884 -1578876.806992294 0 0 0 0 0 52536396.30939022 -17869064.80239899 -17869064.80239899 -1758903.097700744 0 0 0 0 0 49882204.49548966 -16695690.23353055 -16695690.23353055 -1473726.925303698 0 0 0 0 0 54619798.09262842 -18815582.86162791 -18815582.86162791 -2293216.231295299 0 0 0 0 0 56745382.61859342 -19646330.20049538 -19646330.20049538 -2845162.361014395 0 0 0 0 0 58899148.71532281 -20363101.19096693 -20363101.19096693 -3408654.493567862 0 0 0 0 0 61065409.7765594 -20968054.77313802 -20968054.77313802 -3977351.587562238 0 0 0 0 0 63234323.29115155 -21465265.20943096 -21465265.20943096 -4545675.495851792 0 0 0 0 0 65392352.51104963 -21859032.90895189 -21859032.90895189 -5107995.858432316 0 0 0 0 0 67096633.50483426 -21273152.89693217 -21273152.89693217 -4687759.729116444 0 0 0 0 0 68516286.79100025 -21606796.98271981 -21606796.98271981 -5343403.607956202 0 0 0 0 0 70532545.5197012 -21797534.57168582 -21797534.57168582 -5871620.570099331 0 0 0 0 0 72507819.76422684 -21903492.76820172 -21903492.76820172 -6385773.441310277 0 0 0 0 0 74443947.0837439 -21930379.74425444 -21930379.74425444 -6873036.585029951 0 0 0 0 0 76326859.52697793 -21888925.65454225 -21888925.65454225 -7337243.770718951 0 0 0 0 0 78108412.83750699 -21775901.94237405 -21775901.94237405 -7756139.381208874 0 0 0 0 0 79782872.159631 -21152245.95572315 -21152245.95572315 -7177728.675468308 0 0 0 0 0 80261049.33036651 -21051414.06149258 -21051414.06149258 -7782351.744597905 0 0 0 0 0 81896420.81626545 -20848265.04955279 -20848265.04955279 -8163853.048850952 0 0 0 0 0 83726255.58697006 -19771292.44226246 -19771292.44226246 -7246420.173845577 0 0 0 0 0 85189014.58685881 -19533600.74428503 -19533600.74428503 -7575116.706333697 0 0 0 0 0 86787008.36245787 -18808744.15507415 -18808744.15507415 -7575961.302888527 0 0 0 0 0 85407710.75718249 -19334208.51603228 -19334208.51603228 -8119050.690257271 0 0 0 0 0 88110557.33379096 -18517998.83055265 -18517998.83055265 -7865158.369922928 0 0 0 0 0 89374694.53151593 -18198023.88156724 -18198023.88156724 -8127363.426062438 0 0 0 0 0 90579274.17336969 -17851472.34484619 -17851472.34484619 -8365009.774071712 0 0 0 0 0 91726183.32817252 -17481786.02984657 -17481786.02984657 -8579060.852093667 0 0 0 0 0 92791806.34349309 -16735615.7924669 -16735615.7924669 -8465297.123595564 0 0 0 0 0 91636020.50157355 -17193354.48901405 -17193354.48901405 -8987691.492628496 0 0 0 0 0 93793192.57868437 -16350582.36504085 -16350582.36504085 -8637596.844290281 0 0 0 0 0 94739856.55127025 -15952726.91907389 -15952726.91907389 -8786893.275078159 0 0 0 0 0 95635091.3243037 -15543966.02028654 -15543966.02028654 -8914696.078777904 0 0 0 0 0 96480883.06726514 -15126973.79845233 -15126973.79845233 -9021927.773609187 0 0 0 0 0 97277433.9280566 -14704441.00677146 -14704441.00677146 -9110314.692456041 0 0 0 0 0 96973523.33481495 -14397851.78487957 -14397851.78487957 -9349834.005025422 0 0 0 0 0 98543013.8898094 -13622755.1025099 -13622755.1025099 -8956372.711471632 0 0 0 0 0 97697912.50987686 -13972721.79372515 -13972721.79372515 -9394716.611750159 0 0 0 0 0 99188358.22719114 -13209831.39135232 -13209831.39135232 -8997184.997780835 0 0 0 0 0 99793297.69837169 -12796893.42325596 -12796893.42325596 -9022890.035283715 0 0 0 0 0 100361068.3051841 -12386048.85772829 -12386048.85772829 -9034429.308610803 0 0 0 0 0 100892174.7101805 -11978171.85349851 -11978171.85349851 -9032416.610852642 0 0 0 0 0 101155177.5356253 -11426124.66084949 -11426124.66084949 -8777411.239831792 0 0 0 0 0 100504911.2219497 -11702305.36047171 -11702305.36047171 -9140503.243414856 0 0 0 0 0 101608525.2702725 -11040728.22649953 -11040728.22649953 -8757228.644895922 0 0 0 0 0 102031406.0478507 -10659879.25601991 -10659879.25601991 -8726311.661639487 0 0 0 0 0 102424569.4871365 -10284655.87211692 -10284655.87211692 -8684943.116796426 0 0 0 0 0 102789732.7407189 -9915608.537899906 -9915608.537899906 -8635076.037971124 0 0 0 0 0 103127328.0722759 -9553286.351433428 -9553286.351433428 -8576327.023752123 0 0 0 0 0 103039510.0404558 -8978959.262413602 -8978959.262413602 -8510689.456735579 0 0 0 0 0 103439819.8440323 -9197718.517071497 -9197718.517071497 -8508729.503663743 0 0 0 0 0 103480005.6302361 -8786725.500287293 -8786725.500287293 -8244226.432686589 0 0 0 0 0 103745776.0573928 -8456205.414546017 -8456205.414546017 -8170057.985207192 0 0 0 0 0 103990887.550628 -8133169.794578456 -8133169.794578456 -8089946.4226984 0 0 0 0 0 104213650.7598439 -7818069.405405356 -7818069.405405356 -8004422.545572684 0 0 0 0 0 104409279.7375114 -7519901.28280545 -7519901.28280545 -7923036.59615397 0 0 0 0 0 104578225.4553993 -7230559.449694264 -7230559.449694264 -7829478.300414049 0 0 0 0 0 104208818.1432381 -7057310.821261939 -7057310.821261939 -7751931.841914253 0 0 0 0 0 104505821.997836 -6927157.629415886 -6927157.629415886 -7567639.277034087 0 0 0 0 0 104665036.5672918 -6650325.552695497 -6650325.552695497 -7468706.379792781 0 0 0 0 0 104810257.7098867 -6381331.338319505 -6381331.338319505 -7369329.718792099 0 0 0 0 0 104941779.0802796 -6119529.441023741 -6119529.441023741 -7268345.0785476 0 0 0 0 0 104604083.2332452 -5977246.201678919 -5977246.201678919 -7197840.955001 0 0 0 0 0 104844213.465194 -5869650.002421923 -5869650.002421923 -7041766.948667979 0 0 0 0 0 104954370.7950737 -5628415.04257805 -5628415.04257805 -6942149.947711477 0 0 0 0 0 105052892.0703759 -5394765.10209502 -5394765.10209502 -6840692.256360607 0 0 0 0 0 105139956.2826269 -5168505.773943227 -5168505.773943227 -6737675.976526208 0 0 0 0 0 105217538.4291949 -4948632.617692594 -4948632.617692594 -6631928.976394212 0 0 0 0 0 105286024.6021232 -4735055.831500382 -4735055.831500382 -6525343.767652139 0 0 0 0 0 105345870.2466987 -4527771.355394007 -4527771.355394007 -6418272.521245895 0 0 0 0 0 105398403.5912102 -4326712.901339537 -4326712.901339537 -6310709.525960052 0 0 0 0 0 105258520.402277 -4167089.828988187 -4167089.828988187 -6122718.53547472 0 0 0 0 0 105118326.4443357 -4230249.212847772 -4230249.212847772 -6215167.754761207 0 0 0 0 0 105299509.9887926 -3983089.277664039 -3983089.277664039 -6018352.208530359 0 0 0 0 0 105037314.4511732 -3896162.162150083 -3896162.162150083 -5923106.508957838 0 0 0 0 0 105160510.8572661 -3840422.787863659 -3840422.787863659 -5840977.149741614 0 0 0 0 0 105189597.2342789 -3672039.840943296 -3672039.840943296 -5742293.367662382 0 0 0 0 0 105223385.8312312 -3499704.255053344 -3499704.255053344 -5633436.074594674 0 0 0 0 0 105240690.4539116 -3344152.346865918 -3344152.346865918 -5540393.20557126 0 0 0 0 0 105267754.2551466 -3174136.65642411 -3174136.65642411 -5424355.350007107 0 0 0 0 0 105192317.0384056 -3031270.827268063 -3031270.827268063 -5372967.684968063 0 0 0 0 0 105160659.5070011 -2921822.414992321 -2921822.414992321 -5265759.736753019 0 0 0 0 0 105157379.7745145 -2797036.106726732 -2797036.106726732 -5138060.081649899 0 0 0 0 0 105054538.2304193 -2737751.122457042 -2737751.122457042 -5095979.094250889 0 0 0 0 0 83448498.18808295 -20262974.91972043 -20262974.91972043 -7582864.850234765 0 0 0 0 0 30339606.9515119 -815919.2939675942 -815919.2939675942 -1124862.897920109 0 0 0 0 0 32598074.03106366 -2877711.777307924 -2877711.777307924 -599278.138600857 0 0 0 0 0 31411997.18998275 -3713352.723684336 -3713352.723684336 -740200.1489514359 0 0 0 0 0 32579258.3238758 -5451308.815707001 -5451308.815707001 -776452.1930675695 0 0 0 0 0 34031982.5894111 -7366818.605950408 -7366818.605950408 -810979.155416792 0 0 0 0 0 35660285.95636045 -9247161.273105474 -9247161.273105474 -905553.1996212731 0 0 0 0 0 37465945.87931057 -11045677.45943325 -11045677.45943325 -1042528.713692516 0 0 0 0 0 40922157.26491073 -12954885.91549178 -12954885.91549178 -751223.3357709758 0 0 0 0 0 41572274.98777206 -12776188.4028396 -12776188.4028396 -763701.5916253317 0 0 0 0 0 43627331.74777526 -14271293.636081 -14271293.636081 -1072894.032179852 0 0 0 0 0 45793605.69039248 -15649226.18837628 -15649226.18837628 -1432732.055151688 0 0 0 0 0 48052289.6441438 -16906560.53436457 -16906560.53436457 -1835567.460680703 0 0 0 0 0 52122826.48813459 -17769127.37545222 -17769127.37545222 -1925704.935228335 0 0 0 0 0 50839969.51497489 -18168479.59826292 -18168479.59826292 -2081440.982487707 0 0 0 0 0 54411286.09124356 -18724390.82388102 -18724390.82388102 -2405075.007671518 0 0 0 0 0 56731176.96499632 -19562166.04814813 -19562166.04814813 -2905765.003834845 0 0 0 0 0 59067829.98332535 -20284371.20492959 -20284371.20492959 -3421870.799531737 0 0 0 0 0 61407136.94413809 -20893288.36419343 -20893288.36419343 -3946677.781384327 0 0 0 0 0 63734741.13077063 -21392779.16852592 -21392779.16852592 -4475454.172467096 0 0 0 0 0 66039857.89200443 -21787115.61313456 -21787115.61313456 -5002377.797157719 0 0 0 0 0 67531122.28698076 -22154314.67254847 -22154314.67254847 -5660174.749512322 0 0 0 0 0 69266299.86370558 -21550092.38146409 -21550092.38146409 -5202738.714429034 0 0 0 0 0 71394647.18675733 -21737342.41640225 -21737342.41640225 -5706511.837715534 0 0 0 0 0 73474099.02093296 -21840394.47434288 -21840394.47434288 -6197457.283624509 0 0 0 0 0 75499095.81718388 -21864913.98092978 -21864913.98092978 -6666825.995364875 0 0 0 0 0 77460074.50840294 -21816154.747731 -21816154.747731 -7114192.122323422 0 0 0 0 0 79361760.77412444 -21700574.52986865 -21700574.52986865 -7530069.839839468 0 0 0 0 0 79852686.92823227 -21591428.49256435 -21591428.49256435 -8138618.032770734 0 0 0 0 0 81490910.49753979 -20980719.62779709 -20980719.62779709 -7553225.11998482 0 0 0 0 0 83136195.63393104 -20764649.16158798 -20764649.16158798 -7919168.305076047 0 0 0 0 0 83722409.90389448 -20086389.06196222 -20086389.06196222 -8144351.900313661 0 0 0 0 0 85162634.40215132 -19804916.20254008 -19804916.20254008 -8453642.615546046 0 0 0 0 0 86765932.25045089 -19035621.68512673 -19035621.68512673 -8411131.418625448 0 0 0 0 0 86597836.01451553 -19260615.1823891 -19260615.1823891 -7884792.87001511 0 0 0 0 0 88065514.83824959 -18705614.96381453 -18705614.96381453 -8675112.007714195 0 0 0 0 0 89304931.31012571 -18348143.55213352 -18348143.55213352 -8912747.206563661 0 0 0 0 0 90489521.6219175 -17967506.28016093 -17967506.28016093 -9124265.817869728 0 0 0 0 0 91621659.20342274 -17567410.03255793 -17567410.03255793 -9311215.135724328 0 0 0 0 0 92680533.53687364 -16795116.38276755 -16795116.38276755 -9151816.226915507 0 0 0 0 0 92815777.85909167 -17094478.53539102 -17094478.53539102 -8772433.671827536 0 0 0 0 0 93668918.43069445 -16383351.6418884 -16383351.6418884 -9292332.700277634 0 0 0 0 0 94604270.34771816 -15961007.51639643 -15961007.51639643 -9410914.695091417 0 0 0 0 0 95490079.02229971 -15530305.36870376 -15530305.36870376 -9508408.271284308 0 0 0 0 0 96327682.18909316 -15093242.75730382 -15093242.75730382 -9585698.988222122 0 0 0 0 0 97117212.67253701 -14652174.23679857 -14652174.23679857 -9643494.682168283 0 0 0 0 0 98026278.7320427 -14278056.38218517 -14278056.38218517 -9180739.89665113 0 0 0 0 0 98379901.88638344 -13546044.86299153 -13546044.86299153 -9422830.450171854 0 0 0 0 0 98729927.70100938 -13848995.65581938 -13848995.65581938 -9232500.627708588 0 0 0 0 0 99021563.74846914 -13119631.69129131 -13119631.69129131 -9435909.10480495 0 0 0 0 0 99624502.39259048 -12695699.28542494 -12695699.28542494 -9434317.942730391 0 0 0 0 0 100190787.8474276 -12274461.92714002 -12274461.92714002 -9418640.779001506 0 0 0 0 0 100719742.0948006 -11855772.49495051 -11855772.49495051 -9389619.013230721 0 0 0 0 0 100989421.782273 -11304227.15822189 -11304227.15822189 -9106793.742433755 0 0 0 0 0 101386545.3541177 -11573312.23673781 -11573312.23673781 -9018443.265032327 0 0 0 0 0 101442502.220171 -10911447.02471142 -10911447.02471142 -9062578.729404802 0 0 0 0 0 101865977.568189 -10524435.60597443 -10524435.60597443 -9007959.778113475 0 0 0 0 0 102259901.3650235 -10143397.40685764 -10143397.40685764 -8944241.051114203 0 0 0 0 0 102626661.4049904 -9769698.690449078 -9769698.690449078 -8871787.243427213 0 0 0 0 0 102966623.2596047 -9403079.974859003 -9403079.974859003 -8790715.165198278 0 0 0 0 0 103728604.5923388 -8849888.720380252 -8849888.720380252 -8434049.962311283 0 0 0 0 0 103281726.4560555 -9044666.766216148 -9044666.766216148 -8703396.311814645 0 0 0 0 0 103329026.6915331 -8638659.349623092 -8638659.349623092 -8424385.787976934 0 0 0 0 0 103597145.8569922 -8306017.998870596 -8306017.998870596 -8331974.020032588 0 0 0 0 0 103844614.2717583 -7981001.954281312 -7981001.954281312 -8234757.649531063 0 0 0 0 0 104073723.2191471 -7668231.912576345 -7668231.912576345 -8129040.140431942 0 0 0 0 0 104277760.6939829 -7362795.489402095 -7362795.489402095 -8013726.142354967 0 0 0 0 0 104447940.7570619 -7071515.053333499 -7071515.053333499 -7899338.325772006 0 0 0 0 0 104740991.1103806 -6944061.357980391 -6944061.357980391 -7721410.665559956 0 0 0 0 0 104376815.1675449 -6778564.840831051 -6778564.840831051 -7652902.705845036 0 0 0 0 0 104538486.6938038 -6502657.175467608 -6502657.175467608 -7544338.089036459 0 0 0 0 0 104686190.0722773 -6233769.112885957 -6233769.112885957 -7433415.885655065 0 0 0 0 0 104821014.8325378 -5972673.147366388 -5972673.147366388 -7320186.114138923 0 0 0 0 0 105060898.2244237 -5865346.221747286 -5865346.221747286 -7164861.898452775 0 0 0 0 0 104729164.0230456 -5729445.261254953 -5729445.261254953 -7088988.166251022 0 0 0 0 0 104842645.0956105 -5489237.310860435 -5489237.310860435 -6978410.891445598 0 0 0 0 0 104944552.5894426 -5256494.270552747 -5256494.270552747 -6866309.792558478 0 0 0 0 0 105035008.9375916 -5030829.320643025 -5030829.320643025 -6752255.420089438 0 0 0 0 0 105114688.5515694 -4812464.438511427 -4812464.438511427 -6639124.537174364 0 0 0 0 0 105186219.1342892 -4599886.686606996 -4599886.686606996 -6524232.023866613 0 0 0 0 0 105248844.6472278 -4394154.548392404 -4394154.548392404 -6409527.270929075 0 0 0 0 0 105304589.9889665 -4195296.352779098 -4195296.352779098 -6294744.844631336 0 0 0 0 0 105169734.1852718 -4041765.547021985 -4041765.547021985 -6104963.874215797 0 0 0 0 0 105443191.5592763 -4132944.668694579 -4132944.668694579 -6203720.173645751 0 0 0 0 0 105212974.1770947 -3859178.166212354 -3859178.166212354 -5994796.394886456 0 0 0 0 0 105333475.7076063 -3804751.291256801 -3804751.291256801 -5914667.225528714 0 0 0 0 0 105078131.5680124 -3722661.671947193 -3722661.671947193 -5817355.701080077 0 0 0 0 0 105106711.7988345 -3552528.956200766 -3552528.956200766 -5711782.233865329 0 0 0 0 0 105140837.6408242 -3389273.370422976 -3389273.370422976 -5608783.59784645 0 0 0 0 0 105155139.9975369 -3231025.625270939 -3231025.625270939 -5517193.453091897 0 0 0 0 0 105165054.3358244 -3096515.183444322 -3096515.183444322 -5441388.692401991 0 0 0 0 0 105318974.1769768 -2979619.306052825 -2979619.306052825 -5296555.477789136 0 0 0 0 0 105250379.445839 -2881024.940922072 -2881024.940922072 -5203348.353531674 0 0 0 0 0 105175706.1160513 -2786456.66768154 -2786456.66768154 -5118621.353823254 0 0 0 0 0 105146295.9341582 -2687403.857601826 -2687403.857601826 -5030187.357174764 0 0 0 0 0 83449315.06396016 -20594614.39244025 -20594614.39244025 -8499485.242852243 0 0 0 0 0 28948117.5688886 -1152087.443951831 -1152087.443951831 -1670223.113142812 0 0 0 0 0 30271314.83763545 -3105087.822635867 -3105087.822635867 -1257900.96539305 0 0 0 0 0 32878947.21688308 -5326134.781483065 -5326134.781483065 -693287.829526201 0 0 0 0 0 34032392.67090897 -7345397.586349016 -7345397.586349016 -723942.6407250107 0 0 0 0 0 35434301.46589678 -9293468.184278307 -9293468.184278307 -840173.1640168701 0 0 0 0 0 37031420.30523245 -11161638.22917329 -11161638.22917329 -1022669.221348616 0 0 0 0 0 38782640.04834294 -12922657.93050973 -12922657.93050973 -1274608.301026385 0 0 0 0 0 39428964.36181231 -12737265.42137168 -12737265.42137168 -1256032.601550427 0 0 0 0 0 42785760.3235848 -14514400.84877405 -14514400.84877405 -1102364.462078115 0 0 0 0 0 44776669.91700364 -15953586.26093329 -15953586.26093329 -1508085.924991308 0 0 0 0 0 46874715.81876042 -17268402.89678853 -17268402.89678853 -1959969.231325075 0 0 0 0 0 49062544.64582149 -18456549.14579951 -18456549.14579951 -2450424.787282447 0 0 0 0 0 53009503.76305938 -19170319.45698889 -19170319.45698889 -2611802.535619466 0 0 0 0 0 50383966.21561054 -18041927.12328535 -18041927.12328535 -2276488.86691678 0 0 0 0 0 55225793.99264029 -20050119.25728 -20050119.25728 -3162621.298600542 0 0 0 0 0 57473709.01680774 -20809773.30382738 -20809773.30382738 -3727110.224150964 0 0 0 0 0 59738140.66627657 -21451667.3125172 -21451667.3125172 -4298921.010731712 0 0 0 0 0 62005425.76519812 -21979536.81846572 -21979536.81846572 -4872090.4519878 0 0 0 0 0 64263687.5188761 -22397885.48181466 -22397885.48181466 -5441026.777112267 0 0 0 0 0 66501097.70890218 -22711697.80060838 -22711697.80060838 -6000240.348376814 0 0 0 0 0 68311148.99238156 -22081449.52985997 -22081449.52985997 -5523357.301405545 0 0 0 0 0 69640456.05688143 -22356136.88401259 -22356136.88401259 -6197735.585511776 0 0 0 0 0 71710647.73993333 -22469315.50885372 -22469315.50885372 -6717234.125147184 0 0 0 0 0 73733725.29067114 -22500218.61399853 -22500218.61399853 -7215376.879368301 0 0 0 0 0 75704740.71137652 -22455936.3138008 -22455936.3138008 -7687562.519981798 0 0 0 0 0 77614576.32162221 -22340376.59711896 -22340376.59711896 -8132186.057608876 0 0 0 0 0 79417678.91880725 -22149260.73631097 -22149260.73631097 -8519074.414597631 0 0 0 0 0 81113177.74382481 -21516949.7546752 -21516949.7546752 -7919648.189723896 0 0 0 0 0 81529228.00156148 -21369234.932313 -21369234.932313 -8512128.410124287 0 0 0 0 0 83167328.3281917 -21108044.50657128 -21108044.50657128 -8870904.625278814 0 0 0 0 0 84964639.53152548 -20011546.79063223 -20011546.79063223 -7912647.808212271 0 0 0 0 0 86429180.48735859 -19724425.42007439 -19724425.42007439 -8217055.328272659 0 0 0 0 0 87967872.19034329 -18955475.80324926 -18955475.80324926 -8178402.570513424 0 0 0 0 0 86572076.22185819 -19492413.84165681 -19492413.84165681 -8743375.976637773 0 0 0 0 0 89280039.74285933 -18618846.89556139 -18618846.89556139 -8443915.38966848 0 0 0 0 0 90530342.60342176 -18254348.23379463 -18254348.23379463 -8683680.876230679 0 0 0 0 0 91719359.90640417 -17866671.38003436 -17866671.38003436 -8898944.376928192 0 0 0 0 0 92846601.37666784 -17460334.455399 -17460334.455399 -9091307.374758668 0 0 0 0 0 93848363.25804317 -16691090.52793033 -16691090.52793033 -8942965.640942905 0 0 0 0 0 92697215.81657019 -17150316.72120797 -17150316.72120797 -9473526.463620795 0 0 0 0 0 94825573.05531867 -16274030.51386429 -16274030.51386429 -9090065.801478133 0 0 0 0 0 95748572.48545052 -15846428.44673591 -15846428.44673591 -9215281.501405355 0 0 0 0 0 96618951.59393556 -15410641.0271324 -15410641.0271324 -9319857.712138562 0 0 0 0 0 97438341.43198965 -14969079.61062367 -14969079.61062367 -9404538.913439026 0 0 0 0 0 98207676.89932048 -14523982.65369912 -14523982.65369912 -9470250.838542039 0 0 0 0 0 97860340.2608882 -14208349.41219419 -14208349.41219419 -9682335.769226186 0 0 0 0 0 99389975.98304789 -13418992.4761509 -13418992.4761509 -9268549.337920083 0 0 0 0 0 98559369.95942342 -13764177.72059752 -13764177.72059752 -9705294.16658999 0 0 0 0 0 100009595.4389737 -12989562.04349148 -12989562.04349148 -9288715.122266727 0 0 0 0 0 100588576.6161194 -12561846.51049436 -12561846.51049436 -9293931.163087487 0 0 0 0 0 101129505.1893692 -12138601.68324677 -12138601.68324677 -9286813.686484437 0 0 0 0 0 101630220.5279443 -11718997.95478514 -11718997.95478514 -9265235.171763571 0 0 0 0 0 101846601.427041 -11173607.31527392 -11173607.31527392 -8991729.199680632 0 0 0 0 0 101214266.9162462 -11442703.37527472 -11442703.37527472 -9348125.104077179 0 0 0 0 0 102275051.2608457 -10779359.18933768 -10779359.18933768 -8953822.29034536 0 0 0 0 0 102672881.5579905 -10391131.14965526 -10391131.14965526 -8905704.952194907 0 0 0 0 0 103041615.6079574 -10009548.71931395 -10009548.71931395 -8848482.885572698 0 0 0 0 0 103382646.4839508 -9635108.077942044 -9635108.077942044 -8781935.550836569 0 0 0 0 0 103697840.2227378 -9268481.662244091 -9268481.662244091 -8708090.803983616 0 0 0 0 0 103572911.8627117 -8694098.865606211 -8694098.865606211 -8609636.750820242 0 0 0 0 0 103987701.5904567 -8909592.562722519 -8909592.562722519 -8626536.76734262 0 0 0 0 0 103994851.8443909 -8509626.305108448 -8509626.305108448 -8353055.783351301 0 0 0 0 0 104239377.9695576 -8177074.397762884 -8177074.397762884 -8266045.434008811 0 0 0 0 0 104465204.1285373 -7852699.063441033 -7852699.063441033 -8173552.917482171 0 0 0 0 0 104658869.180642 -7543037.205799525 -7543037.205799525 -8081469.496080996 0 0 0 0 0 104830626.8767385 -7245371.563161394 -7245371.563161394 -7985411.006134365 0 0 0 0 0 104990555.0717543 -6956610.334244421 -6956610.334244421 -7876049.483604597 0 0 0 0 0 104610083.8685939 -6786781.829036973 -6786781.829036973 -7791165.333970994 0 0 0 0 0 104897461.5132927 -6659210.42184033 -6659210.42184033 -7609504.65914787 0 0 0 0 0 105040386.0216121 -6384114.142842116 -6384114.142842116 -7505328.538338101 0 0 0 0 0 105169227.9227249 -6116362.432301698 -6116362.432301698 -7397907.314890252 0 0 0 0 0 105285022.9971373 -5856608.603194104 -5856608.603194104 -7288559.24304924 0 0 0 0 0 104943246.6413844 -5719434.285821055 -5719434.285821055 -7205390.502680418 0 0 0 0 0 105168066.6890525 -5618741.375608039 -5618741.375608039 -7059424.718840001 0 0 0 0 0 105263780.9899584 -5379746.353846325 -5379746.353846325 -6952245.500025532 0 0 0 0 0 105348490.5126449 -5148279.527244841 -5148279.527244841 -6843436.021792596 0 0 0 0 0 105422223.8930884 -4924496.933550231 -4924496.933550231 -6733907.882868558 0 0 0 0 0 105487548.0628936 -4706792.335010714 -4706792.335010714 -6621466.915676959 0 0 0 0 0 105543932.2488114 -4496053.6941602 -4496053.6941602 -6509483.339689771 0 0 0 0 0 105592353.7083608 -4291994.921002506 -4291994.921002506 -6396969.659842594 0 0 0 0 0 105633131.4108878 -4094939.189790847 -4094939.189790847 -6284685.297595333 0 0 0 0 0 105480726.3813059 -3945728.242068662 -3945728.242068662 -6096000.060879175 0 0 0 0 0 105352408.8577184 -4003377.484366647 -4003377.484366647 -6180000.197187246 0 0 0 0 0 105511305.3200377 -3764841.030676155 -3764841.030676155 -5987674.971725889 0 0 0 0 0 105249365.8129832 -3682548.947450291 -3682548.947450291 -5884696.378631068 0 0 0 0 0 105360441.3485558 -3632411.654131162 -3632411.654131162 -5811082.183554638 0 0 0 0 0 105383177.7897884 -3464103.648503651 -3464103.648503651 -5706231.325031145 0 0 0 0 0 105398900.2264522 -3304618.487450645 -3304618.487450645 -5604717.038917243 0 0 0 0 0 105414699.7859505 -3148274.683752894 -3148274.683752894 -5497654.361897423 0 0 0 0 0 105406234.224468 -3005381.176221712 -3005381.176221712 -5388469.021951022 0 0 0 0 0 105340013.1231827 -2923073.70608627 -2923073.70608627 -5391280.900878548 0 0 0 0 0 105319336.6701652 -2828316.984323303 -2828316.984323303 -5298497.891031175 0 0 0 0 0 105269380.6182431 -2739619.64074493 -2739619.64074493 -5206411.287896895 0 0 0 0 0 105218803.8920034 -2649171.782630255 -2649171.782630255 -5101470.61977082 0 0 0 0 0 84747362.60637942 -20507620.24721813 -20507620.24721813 -8262273.743172588 0 0 0 0 0 27960847.62639246 -834500.3406223729 -834500.3406223729 -2146162.749536131 0 0 0 0 0 29448468.31642564 -2845670.827775086 -2845670.827775086 -1640702.746570189 0 0 0 0 0 30369767.12589056 -5018872.691604412 -5018872.691604412 -1501784.670469953 0 0 0 0 0 31736929.74693721 -7060032.833159985 -7060032.833159985 -1466484.874751811 0 0 0 0 0 33350517.15870318 -9013623.006581213 -9013623.006581213 -1529058.215305177 0 0 0 0 0 35176218.97936431 -10885444.39726336 -10885444.39726336 -1653555.86988112 0 0 0 0 0 37199460.94139078 -12663098.65539026 -12663098.65539026 -1829364.230915279 0 0 0 0 0 40703700.05799052 -14564119.14130609 -14564119.14130609 -1592069.126034734 0 0 0 0 0 41545722.01639605 -14313686.4930831 -14313686.4930831 -1535181.96966039 0 0 0 0 0 43788918.89178528 -15768411.50090753 -15768411.50090753 -1870068.210458191 0 0 0 0 0 46135043.19807094 -17097436.21882069 -17097436.21882069 -2253070.383515234 0 0 0 0 0 48561840.04744755 -18298888.91021699 -18298888.91021699 -2677363.187733001 0 0 0 0 0 52770388.01173914 -19053804.2600421 -19053804.2600421 -2748197.856102568 0 0 0 0 0 51322040.20697348 -19517122.65919312 -19517122.65919312 -2972306.737165291 0 0 0 0 0 55192835.5778947 -19941915.28145307 -19941915.28145307 -3244077.671658988 0 0 0 0 0 57635268.96800837 -20707972.43284546 -20707972.43284546 -3757714.18146392 0 0 0 0 0 60081990.52413871 -21354948.15865181 -21354948.15865181 -4282547.657320777 0 0 0 0 0 62518782.11568429 -21886351.93525141 -21886351.93525141 -4812847.489840091 0 0 0 0 0 64932265.43926578 -22306454.65414586 -22306454.65414586 -5343469.91502611 0 0 0 0 0 67311234.91930638 -22620270.22595775 -22620270.22595775 -5868843.307192158 0 0 0 0 0 68708192.69914731 -22926533.39768933 -22926533.39768933 -6545216.241325405 0 0 0 0 0 70539378.24601158 -22281133.58777808 -22281133.58777808 -6033932.009237668 0 0 0 0 0 72715795.47186367 -22391749.44923726 -22391749.44923726 -6530132.704205548 0 0 0 0 0 74832530.98461047 -22419167.10839435 -22419167.10839435 -7008575.403464582 0 0 0 0 0 76879644.74128611 -22371001.85165361 -22371001.85165361 -7465619.025530182 0 0 0 0 0 78844449.27640803 -22251372.82745176 -22251372.82745176 -7899893.460731311 0 0 0 0 0 80719158.08475353 -22062299.18696039 -22062299.18696039 -8300091.55575906 0 0 0 0 0 81160578.75399646 -21913012.49272526 -21913012.49272526 -8882404.560787104 0 0 0 0 0 82826474.876498 -21277181.61061161 -21277181.61061161 -8271594.741505875 0 0 0 0 0 84495907.73778763 -21004225.94858694 -21004225.94858694 -8618437.583907871 0 0 0 0 0 84944208.36958842 -20295417.18531469 -20295417.18531469 -8805826.909819955 0 0 0 0 0 86381798.79072405 -19960246.06534663 -19960246.06534663 -9092476.293131275 0 0 0 0 0 87920561.73854451 -19145513.9295691 -19145513.9295691 -9009095.055664783 0 0 0 0 0 87831135.06969649 -19402375.99144351 -19402375.99144351 -8501263.951330639 0 0 0 0 0 89209811.83232571 -18770228.01684627 -18770228.01684627 -9248512.879771244 0 0 0 0 0 90440102.61671032 -18370138.54840823 -18370138.54840823 -9460424.364951 0 0 0 0 0 91611468.9583018 -17949757.15547162 -17949757.15547162 -9646271.504783388 0 0 0 0 0 92722893.18875912 -17512410.78504264 -17512410.78504264 -9806639.017685745 0 0 0 0 0 93717227.48537166 -16719346.55391361 -16719346.55391361 -9611965.685598215 0 0 0 0 0 93913677.1309711 -17037447.22669303 -17037447.22669303 -9259569.127973862 0 0 0 0 0 94683212.27912104 -16277257.47902898 -16277257.47902898 -9727306.572999498 0 0 0 0 0 95596354.0426037 -15826631.35741736 -15826631.35741736 -9820764.746519543 0 0 0 0 0 96458478.82138638 -15370015.38603557 -15370015.38603557 -9893274.534419129 0 0 0 0 0 97271016.67868927 -14909401.54945163 -14909401.54945163 -9945774.893901607 0 0 0 0 0 98034444.11706065 -14446614.57212803 -14446614.57212803 -9979155.322251625 0 0 0 0 0 98928686.4788049 -14076993.98612978 -14076993.98612978 -9517827.197300756 0 0 0 0 0 99216355.99793653 -13320981.09032461 -13320981.09032461 -9711787.605849352 0 0 0 0 0 99604520.22458109 -13629053.8700159 -13629053.8700159 -9547556.692018593 0 0 0 0 0 99832923.29832485 -12878916.83838044 -12878916.83838044 -9704099.120389193 0 0 0 0 0 100411327.0309331 -12441539.67318713 -12441539.67318713 -9681962.335171467 0 0 0 0 0 100951555.2332803 -12006848.27925108 -12006848.27925108 -9643326.291079534 0 0 0 0 0 101452131.0001195 -11579502.76917838 -11579502.76917838 -9594463.962275961 0 0 0 0 0 101674904.3206946 -11036053.18521381 -11036053.18521381 -9296483.026540412 0 0 0 0 0 102097677.1663095 -11304808.14215231 -11304808.14215231 -9231163.889987422 0 0 0 0 0 102104235.2565449 -10635443.29075492 -10635443.29075492 -9234375.486681083 0 0 0 0 0 102503251.2822558 -10241659.06914142 -10241659.06914142 -9162807.654843254 0 0 0 0 0 102873767.8915995 -9855337.711585363 -9855337.711585363 -9082277.263542796 0 0 0 0 0 103216718.7393464 -9477170.337080775 -9477170.337080775 -8994336.780917114 0 0 0 0 0 103534297.9518452 -9106960.930224953 -9106960.930224953 -8898779.758039203 0 0 0 0 0 104254446.7098327 -8559261.480151424 -8559261.480151424 -8538491.646624353 0 0 0 0 0 103827074.1191722 -8745826.422282539 -8745826.422282539 -8797212.228315106 0 0 0 0 0 103841642.7382041 -8351591.594385287 -8351591.594385287 -8510292.730736949 0 0 0 0 0 104089245.1483013 -8017897.754510445 -8017897.754510445 -8405216.887588821 0 0 0 0 0 104318998.7129445 -7693394.45721959 -7693394.45721959 -8294761.925742106 0 0 0 0 0 104525075.7959048 -7380126.159472231 -7380126.159472231 -8170771.297970781 0 0 0 0 0 104695545.2005002 -7082742.2941057 -7082742.2941057 -8051380.654586875 0 0 0 0 0 104854371.19074 -6790269.160306379 -6790269.160306379 -7933730.43102411 0 0 0 0 0 105139639.177061 -6665624.9763304 -6665624.9763304 -7757894.517835865 0 0 0 0 0 104767488.2654023 -6505751.154356439 -6505751.154356439 -7680351.868129396 0 0 0 0 0 104913477.7122015 -6230515.537353378 -6230515.537353378 -7562469.099687045 0 0 0 0 0 105045513.8550694 -5963584.53880475 -5963584.53880475 -7442953.79198887 0 0 0 0 0 105164964.0654271 -5704775.426696034 -5704775.426696034 -7321583.582169083 0 0 0 0 0 105388845.3510366 -5604726.453908904 -5604726.453908904 -7177054.431515889 0 0 0 0 0 105053640.6027861 -5473968.350540231 -5473968.350540231 -7089061.156008231 0 0 0 0 0 105152639.6381478 -5236214.487957101 -5236214.487957101 -6971379.458297246 0 0 0 0 0 105240730.3446838 -5005946.650482471 -5005946.650482471 -6852528.707365965 0 0 0 0 0 105318204.0966178 -4783053.584796802 -4783053.584796802 -6732961.295203147 0 0 0 0 0 105386009.4845112 -4567107.505673571 -4567107.505673571 -6613217.883300506 0 0 0 0 0 105445422.7361384 -4358061.593160703 -4358061.593160703 -6493303.795147744 0 0 0 0 0 105497027.2182948 -4155996.182959341 -4155996.182959341 -6373360.073561255 0 0 0 0 0 105540932.4956042 -3960984.013822702 -3960984.013822702 -6253636.798936002 0 0 0 0 0 105392815.4890593 -3818133.520661737 -3818133.520661737 -6065458.451490887 0 0 0 0 0 105666684.204712 -3904713.209323202 -3904713.209323202 -6172264.893589556 0 0 0 0 0 105425995.0511864 -3638879.172506882 -3638879.172506882 -5951113.994499411 0 0 0 0 0 105535298.9769631 -3589764.653250629 -3589764.653250629 -5879513.914678529 0 0 0 0 0 105278397.5833518 -3511158.571577917 -3511158.571577917 -5774799.739490513 0 0 0 0 0 105305064.7857982 -3346465.434782361 -3346465.434782361 -5664909.621899292 0 0 0 0 0 105323997.2385307 -3188407.214818564 -3188407.214818564 -5554237.841629355 0 0 0 0 0 105351900.7218296 -3036623.549234804 -3036623.549234804 -5449348.896691132 0 0 0 0 0 105400700.8379461 -2896335.877093294 -2896335.877093294 -5347700.785801931 0 0 0 0 0 105417869.3346404 -2780622.586071769 -2780622.586071769 -5221720.437832389 0 0 0 0 0 105362523.4338118 -2692491.017523122 -2692491.017523122 -5129799.973709831 0 0 0 0 0 105313453.8603541 -2606231.045630166 -2606231.045630166 -5033071.529310866 0 0 0 0 0 84717119.28993241 -20791869.15229048 -20791869.15229048 -9183697.321823869 0 0 0 0 0 26606935.12269286 -1206308.914133191 -1206308.914133191 -2713485.296035039 0 0 0 0 0 28073333.89815245 -3225109.611339564 -3225109.611339564 -2172609.583945228 0 0 0 0 0 29980921.31203889 -5182055.891851885 -5182055.891851885 -1726825.573194215 0 0 0 0 0 31714872.9417508 -7071075.188255844 -7071075.188255844 -1485449.707268468 0 0 0 0 0 33182689.87236072 -9059624.147547362 -9059624.147547362 -1525247.429560054 0 0 0 0 0 34776272.10432654 -11000086.61257192 -11000086.61257192 -1666909.941121146 0 0 0 0 0 36565914.65075117 -12854344.33878961 -12854344.33878961 -1884522.489857521 0 0 0 0 0 38526333.47576902 -14584189.31593044 -14584189.31593044 -2165833.467706963 0 0 0 0 0 39376832.42543299 -14322564.31461272 -14322564.31461272 -2073444.374084895 0 0 0 0 0 42760366.10354673 -16082190.43785324 -16082190.43785324 -1969337.810332066 0 0 0 0 0 44932989.34423658 -17471726.38624036 -17471726.38624036 -2399536.229851982 0 0 0 0 0 47203580.96448787 -18729108.85591821 -18729108.85591821 -2872466.440771295 0 0 0 0 0 49554467.63785136 -19852303.05862611 -19852303.05862611 -3380731.103127978 0 0 0 0 0 53633258.6136684 -20449479.38163417 -20449479.38163417 -3518255.347702474 0 0 0 0 0 51049278.13634012 -19370983.1938968 -19370983.1938968 -3136919.421436148 0 0 0 0 0 55980149.93962916 -21255128.97398782 -21255128.97398782 -4081203.692422595 0 0 0 0 0 58346838.37162045 -21936448.47845844 -21936448.47845844 -4652262.41760978 0 0 0 0 0 60718399.34208669 -22497695.77173124 -22497695.77173124 -5227258.882318676 0 0 0 0 0 63081003.60548574 -22943167.09747501 -22943167.09747501 -5800530.786333425 0 0 0 0 0 65423032.8362373 -23277619.93402976 -23277619.93402976 -6365817.204200233 0 0 0 0 0 67733142.51651533 -23506959.72293041 -23506959.72293041 -6916846.816014869 0 0 0 0 0 69645131.06273678 -22833708.01188639 -22833708.01188639 -6384392.933613873 0 0 0 0 0 70874543.91290484 -23048119.74473089 -23048119.74473089 -7071724.789633208 0 0 0 0 0 72991524.5950529 -23082043.58807333 -23082043.58807333 -7575335.144230828 0 0 0 0 0 75053676.7600169 -23035686.63721189 -23035686.63721189 -8053029.024509393 0 0 0 0 0 77048995.16436809 -22915775.11893944 -22915775.11893944 -8501846.918679176 0 0 0 0 0 78983262.892849 -22725688.94558513 -22725688.94558513 -8907835.582877699 0 0 0 0 0 80784580.69852932 -22465376.87355878 -22465376.87355878 -9275840.468126129 0 0 0 0 0 82510325.29395781 -21813627.50181961 -21813627.50181961 -8650607.383559711 0 0 0 0 0 82857258.55430877 -21630522.72190993 -21630522.72190993 -9240911.927869853 0 0 0 0 0 84497329.38833761 -21302952.4773531 -21302952.4773531 -9575737.308758095 0 0 0 0 0 86267593.22048785 -20205201.20581777 -20205201.20581777 -8570749.89290498 0 0 0 0 0 87712665.2555213 -19860670.64175946 -19860670.64175946 -8859007.437274268 0 0 0 0 0 89188958.21081936 -19049414.98375801 -19049414.98375801 -8771374.900302744 0 0 0 0 0 87776773.07390614 -19595956.86488806 -19595956.86488806 -9359200.675367722 0 0 0 0 0 90486231.09108901 -18666820.7268641 -18666820.7268641 -9013664.604032153 0 0 0 0 0 91717588.70029789 -18260168.72818349 -18260168.72818349 -9229853.947577681 0 0 0 0 0 92884391.52752769 -17833630.43081271 -17833630.43081271 -9420982.820643382 0 0 0 0 0 93987852.91989999 -17390252.79304504 -17390252.79304504 -9587311.356715832 0 0 0 0 0 94922085.7779884 -16600910.84603778 -16600910.84603778 -9404549.290195122 0 0 0 0 0 93776083.6590887 -17060949.35025928 -17060949.35025928 -9942340.613665286 0 0 0 0 0 95873161.57985656 -16153570.67912846 -16153570.67912846 -9526998.770808913 0 0 0 0 0 96769054.1354856 -15698031.71093751 -15698031.71093751 -9627604.976049526 0 0 0 0 0 97611419.50032879 -15237005.33346506 -15237005.33346506 -9708111.788210858 0 0 0 0 0 98401404.53391097 -14772318.63814726 -14772318.63814726 -9768686.626400659 0 0 0 0 0 99141156.75636978 -14306338.66400109 -14306338.66400109 -9811074.513402976 0 0 0 0 0 98751121.11384124 -13984034.35642024 -13984034.35642024 -9994885.894246805 0 0 0 0 0 100237485.6673247 -13182679.17011491 -13182679.17011491 -9561713.200064542 0 0 0 0 0 99423572.71951132 -13522586.03153551 -13522586.03153551 -9995102.921978744 0 0 0 0 0 100831838.9777262 -12737125.62977145 -12737125.62977145 -9559915.782148225 0 0 0 0 0 101383729.4983771 -12296119.89812244 -12296119.89812244 -9545984.121607594 0 0 0 0 0 101892490.4321379 -11861393.33527396 -11861393.33527396 -9519170.671358073 0 0 0 0 0 102364551.3068396 -11433259.30640809 -11433259.30640809 -9478354.220602633 0 0 0 0 0 102532652.4216364 -10896300.60775222 -10896300.60775222 -9186099.810377117 0 0 0 0 0 101919564.4824332 -11158446.40439804 -11158446.40439804 -9535576.115798233 0 0 0 0 0 102935440.1258004 -10494686.46262235 -10494686.46262235 -9131371.709042773 0 0 0 0 0 103308000.5048405 -10100170.23155719 -10100170.23155719 -9066620.450093519 0 0 0 0 0 103650771.3897163 -9713525.861974007 -9713525.861974007 -8993027.61853868 0 0 0 0 0 103967735.1889079 -9335382.53961925 -9335382.53961925 -8911419.15170058 0 0 0 0 0 104258101.2193625 -8965510.39566412 -8965510.39566412 -8821935.228387164 0 0 0 0 0 104096634.9573514 -8393374.797662625 -8393374.797662625 -8689790.207383912 0 0 0 0 0 104525008.1113866 -8604692.890266569 -8604692.890266569 -8726357.32138595 0 0 0 0 0 104498882.2861709 -8217305.149253632 -8217305.149253632 -8444499.029192042 0 0 0 0 0 104720398.1908135 -7884155.527559578 -7884155.527559578 -8345202.234908352 0 0 0 0 0 104922245.9765953 -7560906.099304579 -7560906.099304579 -8240529.778057465 0 0 0 0 0 105087895.5641099 -7258988.977688667 -7258988.977688667 -8142595.024504234 0 0 0 0 0 105244039.3425088 -6964879.716341825 -6964879.716341825 -8028678.488137307 0 0 0 0 0 105390728.6194237 -6667480.870225519 -6667480.870225519 -7903324.06726826 0 0 0 0 0 105006704.1683394 -6503061.179418306 -6503061.179418306 -7814556.204199465 0 0 0 0 0 105278666.6463651 -6382348.499759797 -6382348.499759797 -7642193.220174959 0 0 0 0 0 105404213.2840029 -6108581.210873457 -6108581.210873457 -7528333.709457545 0 0 0 0 0 105516806.9807175 -5843108.916051949 -5843108.916051949 -7412224.444708552 0 0 0 0 0 105617068.0115606 -5586041.582152714 -5586041.582152714 -7294797.615873915 0 0 0 0 0 105272004.3952223 -5454262.15621445 -5454262.15621445 -7199330.646626644 0 0 0 0 0 105481266.4026901 -5360668.559227526 -5360668.559227526 -7063983.35801941 0 0 0 0 0 105562638.1101273 -5124360.146316561 -5124360.146316561 -6949524.387326832 0 0 0 0 0 105633519.8031456 -4895718.030469673 -4895718.030469673 -6834008.131992612 0 0 0 0 0 105695016.3087476 -4674173.951936363 -4674173.951936363 -6717203.97332599 0 0 0 0 0 105747490.4219729 -4459971.17628907 -4459971.17628907 -6599832.327774489 0 0 0 0 0 105791859.8336894 -4252652.159663043 -4252652.159663043 -6482174.905507358 0 0 0 0 0 105828427.1675003 -4052517.912415538 -4052517.912415538 -6364732.035445923 0 0 0 0 0 105857676.049766 -3859501.254452719 -3859501.254452719 -6247492.784051021 0 0 0 0 0 105693570.9860159 -3721031.070735446 -3721031.070735446 -6059648.742137204 0 0 0 0 0 105577376.966622 -3772918.317621602 -3772918.317621602 -6134474.036909679 0 0 0 0 0 105714081.5160964 -3543547.446616902 -3543547.446616902 -5947180.825167195 0 0 0 0 0 105452328.1448006 -3465364.897179904 -3465364.897179904 -5837349.340414296 0 0 0 0 0 105553861.9862764 -3419839.156008805 -3419839.156008805 -5771254.029517984 0 0 0 0 0 105566447.485543 -3256249.215883256 -3256249.215883256 -5663839.115096224 0 0 0 0 0 105574269.8985253 -3098492.980594611 -3098492.980594611 -5555783.991822365 0 0 0 0 0 105585312.9340105 -2947708.452693908 -2947708.452693908 -5448957.581562691 0 0 0 0 0 105556306.0585825 -2815491.900603008 -2815491.900603008 -5359883.136775515 0 0 0 0 0 105487782.3187532 -2728407.646508201 -2728407.646508201 -5317898.093162495 0 0 0 0 0 105428800.2391245 -2640114.246476053 -2640114.246476053 -5225938.737095961 0 0 0 0 0 105376466.2152985 -2550543.993513335 -2550543.993513335 -5128286.690755047 0 0 0 0 0 86110906.51549239 -20689725.13855781 -20689725.13855781 -8941792.153058825 0 0 0 0 0 25517467.68613572 -838830.5782935051 -838830.5782935051 -3282668.149172729 0 0 0 0 0 26968541.98952519 -2849645.979350072 -2849645.979350072 -2756386.485780223 0 0 0 0 0 28581930.50926889 -4771552.862663262 -4771552.862663262 -2368167.048253549 0 0 0 0 0 29499533.973328 -6754918.17978654 -6754918.17978654 -2226615.288420262 0 0 0 0 0 30985075.28575385 -8749472.31333768 -8749472.31333768 -2262699.631378203 0 0 0 0 0 32797442.51034469 -10689445.71299038 -10689445.71299038 -2351196.09290714 0 0 0 0 0 34867473.19139127 -12552652.59824721 -12552652.59824721 -2495570.101853229 0 0 0 0 0 37112416.09062336 -14296918.5653941 -14296918.5653941 -2699267.541307097 0 0 0 0 0 40649897.71481007 -16183298.51962899 -16183298.51962899 -2507426.729598631 0 0 0 0 0 41691485.41154242 -15857931.10375135 -15857931.10375135 -2377307.212215751 0 0 0 0 0 44125574.38013412 -17263202.01726045 -17263202.01726045 -2734338.618219144 0 0 0 0 0 46650152.62820136 -18535006.77123526 -18535006.77123526 -3136808.194255725 0 0 0 0 0 49243526.92967737 -19671284.69085003 -19671284.69085003 -3578264.147612822 0 0 0 0 0 53578523.23227589 -20313291.78329511 -20313291.78329511 -3623975.896222629 0 0 0 0 0 51964421.02208283 -20840914.44276597 -20840914.44276597 -3916757.773801802 0 0 0 0 0 56131086.71578693 -21127381.88882574 -21127381.88882574 -4132005.538734833 0 0 0 0 0 58684481.83635629 -21814940.15185603 -21814940.15185603 -4654160.594085017 0 0 0 0 0 61232113.07865296 -22380285.22855421 -22380285.22855421 -5184254.48501434 0 0 0 0 0 63763903.41953543 -22828133.97661958 -22828133.97661958 -5715555.005374673 0 0 0 0 0 66262170.18672427 -23164397.37283511 -23164397.37283511 -6242203.081621811 0 0 0 0 0 68708508.43615252 -23393846.0814555 -23393846.0814555 -6760666.926885424 0 0 0 0 0 70001225.73144045 -23637380.69343299 -23637380.69343299 -7449904.798794785 0 0 0 0 0 71925054.70495678 -22952612.76310929 -22952612.76310929 -6885590.376714548 0 0 0 0 0 74142915.49783455 -22982760.11557555 -22982760.11557555 -7368449.048568483 0 0 0 0 0 76292945.92879751 -22930561.57652463 -22930561.57652463 -7829384.0405741 0 0 0 0 0 78366485.16160922 -22805913.35549489 -22805913.35549489 -8267044.873454427 0 0 0 0 0 80321135.8924419 -22617440.82809158 -22617440.82809158 -8679347.807964925 0 0 0 0 0 82190148.44389527 -22360144.82399609 -22360144.82399609 -9041401.397510383 0 0 0 0 0 82537104.10247479 -22164694.77624988 -22164694.77624988 -9625601.263043065 0 0 0 0 0 84236120.30613385 -21516752.63879421 -21516752.63879421 -8990530.003557432 0 0 0 0 0 85918336.33964492 -21183860.00353433 -21183860.00353433 -9315755.430010958 0 0 0 0 0 86214498.75602981 -20442199.63186099 -20442199.63186099 -9469663.949970668 0 0 0 0 0 87643317.83825563 -20055907.90759398 -20055907.90759398 -9719373.918104945 0 0 0 0 0 89114442.39197282 -19202354.23294653 -19202354.23294653 -9598447.630649067 0 0 0 0 0 89100267.90519558 -19487102.67879137 -19487102.67879137 -9114325.124252426 0 0 0 0 0 90390884.01397288 -18781667.93213109 -18781667.93213109 -9809663.794343553 0 0 0 0 0 91603884.05806582 -18340526.50962055 -18340526.50962055 -9994071.748956321 0 0 0 0 0 92754347.58032611 -17881808.19389543 -17881808.19389543 -10152039.43838969 0 0 0 0 0 93843377.95014212 -17408670.03153475 -17408670.03153475 -10284165.1481791 0 0 0 0 0 94772508.62584102 -16598231.99091296 -16598231.99091296 -10054266.37950304 0 0 0 0 0 95029342.28086929 -16933131.47588721 -16933131.47588721 -9729650.202300293 0 0 0 0 0 95713483.64374159 -16127058.38910487 -16127058.38910487 -10143121.56318066 0 0 0 0 0 96601030.38691595 -15650049.31056538 -15650049.31056538 -10210560.50700663 0 0 0 0 0 97436246.30442005 -15169138.69562708 -15169138.69562708 -10257029.85410241 0 0 0 0 0 98220696.54022054 -14686838.71590601 -14686838.71590601 -10284248.90041087 0 0 0 0 0 98956067.1240364 -14204721.07116301 -14204721.07116301 -10292873.30112682 0 0 0 0 0 99832837.75676809 -13840680.88485336 -13840680.88485336 -9834981.160338588 0 0 0 0 0 100053449.1580116 -13062951.32480587 -13062951.32480587 -9979648.848193958 0 0 0 0 0 100479046.5746908 -13375642.18200927 -13375642.18200927 -9842140.509438973 0 0 0 0 0 100645482.6432958 -12606345.26345729 -12606345.26345729 -9951283.532142857 0 0 0 0 0 101198775.0457229 -12154897.38893798 -12154897.38893798 -9904811.549717221 0 0 0 0 0 101708581.5369264 -11711968.46628036 -11711968.46628036 -9847334.693231558 0 0 0 0 0 102181153.6553496 -11276077.60302279 -11276077.60302279 -9778500.46905675 0 0 0 0 0 102355566.4065367 -10743757.18981195 -10743757.18981195 -9465651.261059549 0 0 0 0 0 102803999.0194483 -11010427.30221703 -11010427.30221703 -9424416.521064956 0 0 0 0 0 102760025.8609054 -10336473.11944774 -10336473.11944774 -9386125.786065267 0 0 0 0 0 103134428.8315364 -9936904.951671813 -9936904.951671813 -9296811.447009336 0 0 0 0 0 103479921.0018018 -9547116.711221777 -9547116.711221777 -9201211.603685636 0 0 0 0 0 103799242.6471125 -9164968.767010987 -9164968.767010987 -9096156.881390968 0 0 0 0 0 104092400.512127 -8793347.964477459 -8793347.964477459 -8987252.431445438 0 0 0 0 0 104768926.3159611 -8252833.345564657 -8252833.345564657 -8624618.399798347 0 0 0 0 0 104362411.925175 -8430525.63345637 -8430525.63345637 -8871441.423637195 0 0 0 0 0 104343913.9548273 -8049655.95185687 -8049655.95185687 -8577440.362869645 0 0 0 0 0 104569787.1593988 -7716492.236887331 -7716492.236887331 -8458422.062466061 0 0 0 0 0 104775035.0780677 -7396924.73919043 -7396924.73919043 -8331756.949629781 0 0 0 0 0 104951578.5992035 -7086860.59160821 -7086860.59160821 -8198023.623113554 0 0 0 0 0 105103167.4187534 -6789681.104061589 -6789681.104061589 -8075127.4123811 0 0 0 0 0 105251815.5371785 -6497240.31763404 -6497240.31763404 -7952964.603151933 0 0 0 0 0 105526024.4657099 -6376703.857387663 -6376703.857387663 -7781353.858577937 0 0 0 0 0 105148472.8432294 -6222456.707442719 -6222456.707442719 -7691833.527622334 0 0 0 0 0 105277681.3819985 -5949669.138180364 -5949669.138180364 -7565408.374239692 0 0 0 0 0 105393717.3160711 -5685571.686810075 -5685571.686810075 -7437849.165789545 0 0 0 0 0 105497655.7996357 -5429815.028116873 -5429815.028116873 -7309075.14758354 0 0 0 0 0 105705711.3823865 -5337028.020188265 -5337028.020188265 -7175586.652574545 0 0 0 0 0 105367696.5959097 -5211611.966181703 -5211611.966181703 -7075848.785604895 0 0 0 0 0 105452473.2056873 -4976763.823800158 -4976763.823800158 -6951428.082061378 0 0 0 0 0 105526733.8669416 -4749538.170279136 -4749538.170279136 -6826451.787055227 0 0 0 0 0 105591627.4210172 -4529815.728889878 -4529815.728889878 -6701128.44941997 0 0 0 0 0 105647266.676569 -4317365.636895481 -4317365.636895481 -6575818.695714104 0 0 0 0 0 105694853.595826 -4112174.90319386 -4112174.90319386 -6450740.990567557 0 0 0 0 0 105734772.5065078 -3914180.206551298 -3914180.206551298 -6325841.693306017 0 0 0 0 0 105767051.7519671 -3723472.205174214 -3723472.205174214 -6201900.509256268 0 0 0 0 0 105607004.2476062 -3591298.641907502 -3591298.641907502 -6015885.814564686 0 0 0 0 0 105880364.1031006 -3673227.857597617 -3673227.857597617 -6130278.943323677 0 0 0 0 0 105630177.8167016 -3415696.353135431 -3415696.353135431 -5897907.869654994 0 0 0 0 0 105728791.637214 -3371815.868265111 -3371815.868265111 -5835017.398617375 0 0 0 0 0 105473738.9841198 -3297827.890869507 -3297827.890869507 -5724161.515954847 0 0 0 0 0 105489250.1243657 -3136684.296751165 -3136684.296751165 -5611038.211580495 0 0 0 0 0 105501895.9704764 -2984381.960904037 -2984381.960904037 -5498489.285328742 0 0 0 0 0 105513240.3890882 -2838318.572233549 -2838318.572233549 -5400527.217948535 0 0 0 0 0 105541112.6774356 -2694818.418283027 -2694818.418283027 -5255647.706473362 0 0 0 0 0 105527952.9979771 -2592147.322737025 -2592147.322737025 -5148721.719138546 0 0 0 0 0 105481460.3813612 -2501973.110317245 -2501973.110317245 -5051164.559852628 0 0 0 0 0 86054612.09513621 -20934530.74629984 -20934530.74629984 -9858918.996745158 0 0 0 0 0 24168029.89866228 -1268312.046741538 -1268312.046741538 -3936917.090162688 0 0 0 0 0 25461121.24264827 -3301568.382179535 -3301568.382179535 -3409812.470219575 0 0 0 0 0 27032700.84541849 -5203320.217266678 -5203320.217266678 -2952125.339453373 0 0 0 0 0 28883865.83012174 -6981122.843130504 -6981122.843130504 -2483624.817030095 0 0 0 0 0 30857438.65093746 -8806798.991508026 -8806798.991508026 -2345645.933229918 0 0 0 0 0 32466708.8438746 -10801381.16708025 -10801381.16708025 -2426032.324282268 0 0 0 0 0 34258189.67826757 -12749969.05881566 -12749969.05881566 -2600303.251857546 0 0 0 0 0 36269662.6267311 -14568418.28053902 -14568418.28053902 -2836511.872989548 0 0 0 0 0 38448952.16637141 -16251686.23969681 -16251686.23969681 -3133653.734236074 0 0 0 0 0 39502257.8926294 -15912968.12834017 -15912968.12834017 -2965816.113758164 0 0 0 0 0 42903071.32624875 -17649934.89015008 -17649934.89015008 -2906865.814706795 0 0 0 0 0 45260216.84787977 -18980435.0030834 -18980435.0030834 -3355616.210527632 0 0 0 0 0 47705077.69408774 -20170644.11800377 -20170644.11800377 -3843985.517680997 0 0 0 0 0 50215845.45774443 -21219770.41461425 -21219770.41461425 -4364625.931685062 0 0 0 0 0 54414402.75497241 -21696301.96672976 -21696301.96672976 -4473040.08775369 0 0 0 0 0 51884307.56221281 -20671603.02490871 -20671603.02490871 -4051115.37760308 0 0 0 0 0 56887035.06294515 -22420181.22388871 -22420181.22388871 -5040657.249265548 0 0 0 0 0 59370134.08629424 -23016164.58214153 -23016164.58214153 -5612270.80554772 0 0 0 0 0 61844407.41590405 -23491158.96363798 -23491158.96363798 -6186973.142111614 0 0 0 0 0 64296429.84526195 -23847946.95805517 -23847946.95805517 -6754791.067259593 0 0 0 0 0 66713393.14084773 -24095499.11572607 -24095499.11572607 -7313031.907690603 0 0 0 0 0 69088270.85257533 -24236931.28838468 -24236931.28838468 -7851548.876178223 0 0 0 0 0 71097140.57522084 -23522721.60672454 -23522721.60672454 -7265912.608275284 0 0 0 0 0 72217798.13642542 -23675198.39584715 -23675198.39584715 -7961055.641703497 0 0 0 0 0 74375885.52921228 -23627203.60509814 -23627203.60509814 -8446563.633276034 0 0 0 0 0 76469540.90774474 -23501742.57889715 -23501742.57889715 -8904002.058708357 0 0 0 0 0 78474996.70243466 -23306826.63076316 -23306826.63076316 -9325038.167746963 0 0 0 0 0 80370592.71840854 -23038847.19879182 -23038847.19879182 -9698418.763852067 0 0 0 0 0 82197392.64622238 -22719929.13122298 -22719929.13122298 -10043780.47711867 0 0 0 0 0 83983612.07217847 -22043881.57558357 -22043881.57558357 -9371208.971817581 0 0 0 0 0 84239831.75256038 -21822159.57003771 -21822159.57003771 -9963599.297026306 0 0 0 0 0 85888403.01894969 -21433402.88954895 -21433402.88954895 -10261341.10773082 0 0 0 0 0 87610073.84263268 -20328593.23299734 -20328593.23299734 -9224917.531061023 0 0 0 0 0 89046373.9118237 -19940427.17397678 -19940427.17397678 -9481618.456562607 0 0 0 0 0 90448358.34483953 -19088438.50314283 -19088438.50314283 -9356527.922767388 0 0 0 0 0 89024774.00220516 -19644441.204967 -19644441.204967 -9961628.594942871 0 0 0 0 0 91723346.80558248 -18661422.60507344 -18661422.60507344 -9572941.141178939 0 0 0 0 0 92931071.46295844 -18213939.53149873 -18213939.53149873 -9762892.864735782 0 0 0 0 0 94072371.75932759 -17749195.83995266 -17749195.83995266 -9927038.132904302 0 0 0 0 0 95147755.6710853 -17270295.25928225 -17270295.25928225 -10066230.94314221 0 0 0 0 0 96010254.06898308 -16465100.79479172 -16465100.79479172 -9848878.259690203 0 0 0 0 0 94872333.79865567 -16924300.93230405 -16924300.93230405 -10391935.06985105 0 0 0 0 0 96932119.36885737 -15988973.78758189 -15988973.78758189 -9945773.204559308 0 0 0 0 0 97797931.64370072 -15507445.67562157 -15507445.67562157 -10021017.29607216 0 0 0 0 0 98609141.09641711 -15022822.58114483 -15022822.58114483 -10076321.6401868 0 0 0 0 0 99367241.4754899 -14537081.8398633 -14537081.8398633 -10112122.84553692 0 0 0 0 0 100075731.8422485 -14051961.69619513 -14051961.69619513 -10130093.67761221 0 0 0 0 0 99643773.85606289 -13724024.15665341 -13724024.15665341 -10285195.33540519 0 0 0 0 0 101083457.3850319 -12913117.00388715 -12913117.00388715 -9833782.580447743 0 0 0 0 0 100287344.1487927 -13246244.61290132 -13246244.61290132 -10261898.4049426 0 0 0 0 0 101650628.3341328 -12452351.94734957 -12452351.94734957 -9809602.608786428 0 0 0 0 0 102171382.0667036 -12000796.2441162 -12000796.2441162 -9778142.177345308 0 0 0 0 0 102649036.4862407 -11556853.98454745 -11556853.98454745 -9729824.327423275 0 0 0 0 0 103092395.8554628 -11119992.09856954 -11119992.09856954 -9668229.471729767 0 0 0 0 0 103211345.5624218 -10594499.71702146 -10594499.71702146 -9361064.214038176 0 0 0 0 0 102621336.9710999 -10847591.43032497 -10847591.43032497 -9701001.766796263 0 0 0 0 0 103587772.2046752 -10187067.54397711 -10187067.54397711 -9289745.419647923 0 0 0 0 0 103933109.4554108 -9787773.886048514 -9787773.886048514 -9207088.777270967 0 0 0 0 0 104250381.1048452 -9397572.538736576 -9397572.538736576 -9118905.150492996 0 0 0 0 0 104540683.8999515 -9017278.004900647 -9017278.004900647 -9020572.363314563 0 0 0 0 0 104807541.2095682 -8645581.857283151 -8645581.857283151 -8916746.141805785 0 0 0 0 0 104609577.6633864 -8077372.171354636 -8077372.171354636 -8750819.429147279 0 0 0 0 0 105049863.1551485 -8283595.333911674 -8283595.333911674 -8807155.615709996 0 0 0 0 0 104991775.4906174 -7909960.337055212 -7909960.337055212 -8517477.19543427 0 0 0 0 0 105188026.8992958 -7579240.941019432 -7579240.941019432 -8408364.820118327 0 0 0 0 0 105354816.1441658 -7267672.695517799 -7267672.695517799 -8299180.700890264 0 0 0 0 0 105500606.6381958 -6963626.469555293 -6963626.469555293 -8185156.160667708 0 0 0 0 0 105644884.9071017 -6663608.941276243 -6663608.941276243 -8047973.202426991 0 0 0 0 0 105782083.6278573 -6365955.968557677 -6365955.968557677 -7915235.190842266 0 0 0 0 0 105392264.2876468 -6208906.493349162 -6208906.493349162 -7820718.123869416 0 0 0 0 0 105647005.1484803 -6095752.210588579 -6095752.210588579 -7658959.777135457 0 0 0 0 0 105755657.4917754 -5824800.804025334 -5824800.804025334 -7536172.715898812 0 0 0 0 0 105852495.3349962 -5562557.329690751 -5562557.329690751 -7412107.81072048 0 0 0 0 0 105937206.0207635 -5308527.966096567 -5308527.966096567 -7286742.285225128 0 0 0 0 0 105589780.204849 -5182323.90776848 -5182323.90776848 -7179477.913440063 0 0 0 0 0 105783346.5853463 -5095987.071019507 -5095987.071019507 -7055211.382684714 0 0 0 0 0 105850520.7266301 -4862838.281701582 -4862838.281701582 -6933881.708177112 0 0 0 0 0 105908101.4718064 -4637285.328635434 -4637285.328635434 -6811651.177305717 0 0 0 0 0 105956609.9546484 -4419366.945833195 -4419366.945833195 -6689038.601086002 0 0 0 0 0 105996699.9625467 -4208823.247633223 -4208823.247633223 -6566147.578736534 0 0 0 0 0 106028995.6674209 -4005594.714089837 -4005594.714089837 -6443423.143639988 0 0 0 0 0 106053773.6370072 -3809846.136695108 -3809846.136695108 -6321338.679776061 0 0 0 0 0 106071902.1513999 -3621042.126452319 -3621042.126452319 -6199270.521938924 0 0 0 0 0 105896866.3821051 -3493343.424258096 -3493343.424258096 -6013261.299239838 0 0 0 0 0 105792601.7136599 -3539451.929560155 -3539451.929560155 -6078648.313253353 0 0 0 0 0 105907663.0866164 -3319680.287489992 -3319680.287489992 -5896883.160441016 0 0 0 0 0 105647673.2177866 -3246038.492380806 -3246038.492380806 -5780858.218196657 0 0 0 0 0 105737885.1774608 -3205985.831144375 -3205985.831144375 -5723672.450509558 0 0 0 0 0 105740634.6889673 -3046377.428686255 -3046377.428686255 -5613025.049958873 0 0 0 0 0 105735860.0605747 -2895104.155543664 -2895104.155543664 -5503244.152211996 0 0 0 0 0 105747863.6772782 -2750220.644278503 -2750220.644278503 -5389664.19938443 0 0 0 0 0 105688014.2975051 -2631138.593006254 -2631138.593006254 -5321782.112046404 0 0 0 0 0 105594777.6208279 -2535959.027020788 -2535959.027020788 -5245366.388636983 0 0 0 0 0 105536490.3913291 -2446536.342557542 -2446536.342557542 -5145751.859528376 0 0 0 0 0 87510124.18677403 -20807047.49405428 -20807047.49405428 -9608708.239339864 0 0 0 0 0 23076118.45720804 -846158.6519631483 -846158.6519631483 -4599181.756989024 0 0 0 0 0 24721259.19581681 -2961475.259259092 -2961475.259259092 -3949835.913687474 0 0 0 0 0 26425482.51816126 -4918771.617789517 -4918771.617789517 -3416741.096844405 0 0 0 0 0 27819029.22632929 -6623527.574569701 -6623527.574569701 -3036732.793461344 0 0 0 0 0 28649353.20146407 -8490173.040840022 -8490173.040840022 -3092607.798007551 0 0 0 0 0 30334461.40429663 -10446612.19359442 -10446612.19359442 -3177151.750654723 0 0 0 0 0 32445154.10228013 -12400064.87311435 -12400064.87311435 -3271379.783909989 0 0 0 0 0 34744157.68362258 -14229400.91264073 -14229400.91264073 -3431693.276240058 0 0 0 0 0 37207753.60292877 -15927532.94525106 -15927532.94525106 -3651448.741749935 0 0 0 0 0 40778620.19032773 -17798182.08885581 -17798182.08885581 -3494769.433384569 0 0 0 0 0 42022016.95254605 -17396988.11979339 -17396988.11979339 -3289491.319045024 0 0 0 0 0 44647423.01014058 -18743853.43029354 -18743853.43029354 -3663007.635535517 0 0 0 0 0 47349077.46351479 -19949052.98426218 -19949052.98426218 -4079831.603985604 0 0 0 0 0 50105793.32588452 -21012032.84498944 -21012032.84498944 -4532287.328890913 0 0 0 0 0 54552516.03706141 -21537153.17258419 -21537153.17258419 -4548267.727815502 0 0 0 0 0 52772831.77013285 -22128880.37091324 -22128880.37091324 -4909264.103415165 0 0 0 0 0 57225246.87042106 -22268778.35338981 -22268778.35338981 -5063217.710041153 0 0 0 0 0 59883960.85559846 -22870895.29081037 -22870895.29081037 -5588034.805044617 0 0 0 0 0 62531731.57143189 -23350693.31912232 -23350693.31912232 -6117696.457143168 0 0 0 0 0 65142814.1955421 -23710844.53192151 -23710844.53192151 -6645468.994495559 0 0 0 0 0 67721193.51947676 -23958815.31744276 -23958815.31744276 -7164956.843432545 0 0 0 0 0 70230419.25948009 -24100033.78514687 -24100033.78514687 -7671653.102336326 0 0 0 0 0 71410605.09777571 -24279807.76781087 -24279807.76781087 -8367743.467071838 0 0 0 0 0 73420498.70683613 -23557822.50318335 -23557822.50318335 -7753671.03243583 0 0 0 0 0 75671190.97341344 -23506113.28011341 -23506113.28011341 -8219688.230776344 0 0 0 0 0 77844495.88953148 -23374701.04144773 -23374701.04144773 -8661241.247124467 0 0 0 0 0 79921132.49002855 -23177541.46309375 -23177541.46309375 -9083441.866867771 0 0 0 0 0 81882058.30116142 -22906791.47821311 -22906791.47821311 -9449017.138609083 0 0 0 0 0 83753744.72615436 -22582442.28995385 -22582442.28995385 -9798601.631307842 0 0 0 0 0 83975165.75911422 -22354479.07057758 -22354479.07057758 -10376216.52877901 0 0 0 0 0 85726459.75383475 -21688876.52358464 -21688876.52358464 -9698658.956335185 0 0 0 0 0 87387773.02845648 -21292467.69701397 -21292467.69701397 -9995700.396647617 0 0 0 0 0 87529552.04092853 -20526431.72989773 -20526431.72989773 -10112488.41309603 0 0 0 0 0 88942451.08841719 -20089116.16137293 -20089116.16137293 -10339360.38306905 0 0 0 0 0 90347398.35422848 -19201587.57829948 -19201587.57829948 -10171568.6249033 0 0 0 0 0 90421789.47099665 -19518225.94288585 -19518225.94288585 -9712767.538094703 0 0 0 0 0 91603506.28801699 -18738814.21553606 -18738814.21553606 -10354456.62907875 0 0 0 0 0 92794260.40059818 -18257811.75629275 -18257811.75629275 -10509512.89159137 0 0 0 0 0 93920474.99922712 -17761788.02259419 -17761788.02259419 -10637761.86952796 0 0 0 0 0 94983291.78926407 -17254884.02646117 -17254884.02646117 -10740277.60022103 0 0 0 0 0 95842650.68178424 -16431401.67711242 -16431401.67711242 -10476208.74145311 0 0 0 0 0 96160352.34664705 -16780738.66873468 -16780738.66873468 -10181386.30438545 0 0 0 0 0 96755986.07729119 -15932925.07237728 -15932925.07237728 -10537443.12412801 0 0 0 0 0 97614719.44129813 -15431040.93327487 -15431040.93327487 -10577391.59281524 0 0 0 0 0 98420088.68914858 -14927803.34495733 -14927803.34495733 -10597220.13932183 0 0 0 0 0 99173715.55188714 -14425733.18619665 -14425733.18619665 -10599079.4390465 0 0 0 0 0 99878742.31346084 -13925373.8918801 -13925373.8918801 -10582513.35477503 0 0 0 0 0 100736670.9460095 -13568218.6150565 -13568218.6150565 -10129963.61091046 0 0 0 0 0 100889552.3613108 -12772102.24102945 -12772102.24102945 -10224744.89214515 0 0 0 0 0 101351900.368565 -13087183.56901687 -13087183.56901687 -10114030.29036378 0 0 0 0 0 101455922.8254964 -12303574.20435122 -12303574.20435122 -10173840.16853288 0 0 0 0 0 101980045.3328954 -11840996.41936767 -11840996.41936767 -10104913.31272023 0 0 0 0 0 102459319.6916877 -11389190.45888541 -11389190.45888541 -10026768.91943629 0 0 0 0 0 102904095.0292269 -10946368.1561477 -10946368.1561477 -9939621.146945268 0 0 0 0 0 103030707.3941252 -10427703.79100142 -10427703.79100142 -9614298.487585366 0 0 0 0 0 103503056.4775015 -10690221.53368861 -10690221.53368861 -9596350.146486023 0 0 0 0 0 103409350.2816475 -10013844.13917812 -10013844.13917812 -9513891.457282774 0 0 0 0 0 103756784.450116 -9612769.584602322 -9612769.584602322 -9412854.32630063 0 0 0 0 0 104078331.011705 -9217463.851959502 -9217463.851959502 -9294615.343796054 0 0 0 0 0 104370118.7939846 -8836109.628428265 -8836109.628428265 -9179465.172053015 0 0 0 0 0 104640310.6445175 -8462365.888650166 -8462365.888650166 -9054809.41672528 0 0 0 0 0 105270831.8160574 -7931449.373607717 -7931449.373607717 -8691857.461133033 0 0 0 0 0 104886568.5713591 -8099448.166084737 -8099448.166084737 -8925361.601823941 0 0 0 0 0 104836162.0519837 -7734051.452363853 -7734051.452363853 -8625725.699141344 0 0 0 0 0 105043354.1070891 -7403575.868774874 -7403575.868774874 -8489099.711103395 0 0 0 0 0 105216040.6767223 -7084721.583581825 -7084721.583581825 -8353116.435696198 0 0 0 0 0 105369270.4055069 -6779941.859867897 -6779941.859867897 -8208519.400386806 0 0 0 0 0 105505560.0744673 -6487441.312666237 -6487441.312666237 -8086288.952322193 0 0 0 0 0 105643358.3145647 -6191448.827134123 -6191448.827134123 -7950383.879071601 0 0 0 0 0 105898633.9482133 -6078170.093278538 -6078170.093278538 -7788712.42246796 0 0 0 0 0 105517636.9095515 -5930504.650387245 -5930504.650387245 -7687171.484850916 0 0 0 0 0 105630101.0594389 -5661378.032283979 -5661378.032283979 -7553385.710594437 0 0 0 0 0 105730436.3018054 -5400387.095817459 -5400387.095817459 -7418066.118573312 0 0 0 0 0 105818879.2310382 -5148056.205900278 -5148056.205900278 -7282058.48315224 0 0 0 0 0 106010741.0724633 -5062841.347006997 -5062841.347006997 -7160276.488741724 0 0 0 0 0 105670849.1241316 -4942976.638449893 -4942976.638449893 -7049231.873659957 0 0 0 0 0 105741500.1080091 -4711571.389752668 -4711571.389752668 -6918523.25288933 0 0 0 0 0 105802482.5405328 -4488036.262196867 -4488036.262196867 -6787689.466378775 0 0 0 0 0 105854339.9773919 -4272174.335321224 -4272174.335321224 -6656972.513452352 0 0 0 0 0 105897780.4162914 -4063850.991846045 -4063850.991846045 -6526588.106179299 0 0 0 0 0 105933463.1449929 -3863036.084861911 -3863036.084861911 -6396682.49471428 0 0 0 0 0 105961671.9733222 -3669558.865619832 -3669558.865619832 -6267531.778304097 0 0 0 0 0 105982964.586304 -3483123.145172341 -3483123.145172341 -6139417.174375562 0 0 0 0 0 105811940.2105015 -3361826.744638232 -3361826.744638232 -5956207.881757881 0 0 0 0 0 106083944.6857076 -3438879.077850414 -3438879.077850414 -6077645.270260417 0 0 0 0 0 105825570.8853876 -3190424.512227689 -3190424.512227689 -5834811.457915558 0 0 0 0 0 105912899.141111 -3152212.335684589 -3152212.335684589 -5781598.317792963 0 0 0 0 0 105659496.8463135 -3082484.710181184 -3082484.710181184 -5664738.667306515 0 0 0 0 0 105666567.3573625 -2926079.675404849 -2926079.675404849 -5548064.280328481 0 0 0 0 0 105671242.547567 -2782087.710675904 -2782087.710675904 -5428412.314693592 0 0 0 0 0 105667193.8442859 -2638048.296363773 -2638048.296363773 -5327452.978900255 0 0 0 0 0 105689468.3087277 -2486319.231706754 -2486319.231706754 -5165915.272131362 0 0 0 0 0 105649923.462887 -2393081.803314863 -2393081.803314863 -5060775.013386697 0 0 0 0 0 87429259.45631739 -21006198.82362222 -21006198.82362222 -10519914.79987619 0 0 0 0 0 21648797.93667428 -1341006.986395445 -1341006.986395445 -5371642.762667004 0 0 0 0 0 22918431.24434898 -3442083.426741672 -3442083.426741672 -4692651.46922497 0 0 0 0 0 24383835.62176139 -5375284.725154824 -5375284.725154824 -4136832.618423051 0 0 0 0 0 26060244.5569385 -7159989.34726797 -7159989.34726797 -3778075.014128446 0 0 0 0 0 28433881.51632298 -8569653.625999149 -8569653.625999149 -3156107.306972695 0 0 0 0 0 30098467.9524752 -10557467.49437184 -10557467.49437184 -3350069.453669801 0 0 0 0 0 31870555.36234782 -12608759.86459909 -12608759.86459909 -3456345.490099125 0 0 0 0 0 33923958.22091123 -14510774.65237474 -14510774.65237474 -3625119.713660899 0 0 0 0 0 36162261.45016042 -16278039.40569002 -16278039.40569002 -3866694.401497458 0 0 0 0 0 38565295.04820305 -17907582.34851962 -17907582.34851962 -4174351.136299512 0 0 0 0 0 39822101.01840225 -17492725.30250875 -17492725.30250875 -3931339.201114702 0 0 0 0 0 43226161.5975034 -19205528.07015201 -19205528.07015201 -3910086.699945639 0 0 0 0 0 45767199.83494127 -20467438.33289066 -20467438.33289066 -4371967.084639086 0 0 0 0 0 48383223.96165577 -21581324.16426767 -21581324.16426767 -4869323.540732792 0 0 0 0 0 51051621.89713424 -22548527.27863923 -22548527.27863923 -5396906.905533573 0 0 0 0 0 55357362.04256599 -22899653.96415391 -22899653.96415391 -5469311.324855354 0 0 0 0 0 52895443.04605485 -21933047.02413359 -21933047.02413359 -5013186.054543491 0 0 0 0 0 57946312.67425071 -23534310.46132472 -23534310.46132472 -6037003.297148341 0 0 0 0 0 60536586.02723817 -24039758.52225105 -24039758.52225105 -6606495.619616602 0 0 0 0 0 63106030.17122763 -24423076.00033158 -24423076.00033158 -7171858.979386873 0 0 0 0 0 65647571.17588761 -24688523.21366336 -24688523.21366336 -7730828.977376681 0 0 0 0 0 68134746.77174538 -24843244.41677839 -24843244.41677839 -8275873.214443629 0 0 0 0 0 70565812.2452216 -24893842.79605065 -24893842.79605065 -8797566.168790646 0 0 0 0 0 72665262.40326618 -24141361.17044887 -24141361.17044887 -8161998.28276016 0 0 0 0 0 73670200.57243805 -24231596.49308288 -24231596.49308288 -8858322.590414941 0 0 0 0 0 75861860.59409176 -24100282.55132407 -24100282.55132407 -9321603.057473252 0 0 0 0 0 77985910.27808528 -23899608.68436447 -23899608.68436447 -9753451.033687947 0 0 0 0 0 79972595.2270371 -23618798.51774572 -23618798.51774572 -10137176.97126362 0 0 0 0 0 81893411.76236928 -23289875.13435274 -23289875.13435274 -10497828.5780918 0 0 0 0 0 83717254.2967921 -22902146.2764985 -22902146.2764985 -10803100.88334918 0 0 0 0 0 85533076.75743672 -22203548.38465053 -22203548.38465053 -10103763.98659641 0 0 0 0 0 85688728.22231555 -21942083.29734257 -21942083.29734257 -10667609.98586514 0 0 0 0 0 87322243.16736183 -21495783.15114104 -21495783.15114104 -10938264.72319036 0 0 0 0 0 88999598.19944762 -20399105.40614266 -20399105.40614266 -9872272.388723977 0 0 0 0 0 90416037.5008162 -19954752.97171764 -19954752.97171764 -10097550.57945449 0 0 0 0 0 91737596.16762985 -19070290.20488578 -19070290.20488578 -9928606.139699474 0 0 0 0 0 90308754.68941666 -19628872.93906778 -19628872.93906778 -10548488.57209396 0 0 0 0 0 92987131.90039755 -18601052.69566081 -18601052.69566081 -10117351.07082933 0 0 0 0 0 94167663.54997878 -18114035.81280488 -18114035.81280488 -10278878.95781901 0 0 0 0 0 95278932.45276263 -17612250.20031844 -17612250.20031844 -10414368.78587207 0 0 0 0 0 96323359.64961472 -17099755.91948582 -17099755.91948582 -10524984.74184626 0 0 0 0 0 97109483.83394498 -16283104.96353556 -16283104.96353556 -10274109.02522774 0 0 0 0 0 95984725.64882697 -16739365.18303444 -16739365.18303444 -10818997.94376366 0 0 0 0 0 97999313.03639279 -15780209.23099824 -15780209.23099824 -10344183.17277529 0 0 0 0 0 98831983.25789423 -15274437.14398177 -15274437.14398177 -10392923.11333764 0 0 0 0 0 99608271.82993312 -14768217.12157327 -14768217.12157327 -10422192.90382506 0 0 0 0 0 100333559.8339849 -14263003.19342903 -14263003.19342903 -10432474.48307845 0 0 0 0 0 101007831.7511487 -13760050.42839121 -13760050.42839121 -10425191.80473777 0 0 0 0 0 100536630.1244112 -13428017.69579366 -13428017.69579366 -10551090.52270432 0 0 0 0 0 101927389.843222 -12610215.6590184 -12610215.6590184 -10083069.23214298 0 0 0 0 0 101150602.8180902 -12936090.68516343 -12936090.68516343 -10504758.19409887 0 0 0 0 0 102459509.6058758 -12139997.09527466 -12139997.09527466 -10039339.63217991 0 0 0 0 0 102947804.6755177 -11677654.44417958 -11677654.44417958 -9984900.822735902 0 0 0 0 0 103396438.7999832 -11225421.07309925 -11225421.07309925 -9916393.277739519 0 0 0 0 0 103809370.0096203 -10781145.72148846 -10781145.72148846 -9835204.478346189 0 0 0 0 0 103881895.9999393 -10268783.05918657 -10268783.05918657 -9514530.113369888 0 0 0 0 0 103316718.8867245 -10511876.79725063 -10511876.79725063 -9843018.713580789 0 0 0 0 0 104228215.1209488 -9858357.425732462 -9858357.425732462 -9427776.686221313 0 0 0 0 0 104549121.4346717 -9454094.357026055 -9454094.357026055 -9325148.216872608 0 0 0 0 0 104837708.6256864 -9064271.916160479 -9064271.916160479 -9225572.925739221 0 0 0 0 0 105101700.9134177 -8680709.031872407 -8680709.031872407 -9109510.523766186 0 0 0 0 0 105343126.7837683 -8308638.085617435 -8308638.085617435 -8991428.76149559 0 0 0 0 0 105111051.7895583 -7747113.801298684 -7747113.801298684 -8792306.85634613 0 0 0 0 0 105561137.1885438 -7947224.061963102 -7947224.061963102 -8868388.731297458 0 0 0 0 0 105471464.7622752 -7589211.000383101 -7589211.000383101 -8572167.541417867 0 0 0 0 0 105637765.4677644 -7265021.870828656 -7265021.870828656 -8457836.978786454 0 0 0 0 0 105785338.5568561 -6951469.199473753 -6951469.199473753 -8331071.329348666 0 0 0 0 0 105908727.1388612 -6649499.78418606 -6649499.78418606 -8205308.477104208 0 0 0 0 0 106041198.0652995 -6349624.742956056 -6349624.742956056 -8053487.228380834 0 0 0 0 0 106161124.2385211 -6055875.856197705 -6055875.856197705 -7916514.526546592 0 0 0 0 0 105765770.767142 -5905749.770081187 -5905749.770081187 -7808944.165524102 0 0 0 0 0 106001419.8472137 -5801140.202127991 -5801140.202127991 -7659581.373946496 0 0 0 0 0 106095431.2210979 -5534034.728027273 -5534034.728027273 -7528876.516916205 0 0 0 0 0 106175914.6266124 -5274881.536163683 -5274881.536163683 -7397186.867502816 0 0 0 0 0 106244932.0480587 -5024576.874429749 -5024576.874429749 -7264370.417413771 0 0 0 0 0 105896039.6147084 -4904242.998427375 -4904242.998427375 -7145701.404208456 0 0 0 0 0 106073783.2396148 -4825322.78125276 -4825322.78125276 -7032979.909119331 0 0 0 0 0 106127015.4184882 -4595827.785008918 -4595827.785008918 -6905133.058961459 0 0 0 0 0 106171112.0984582 -4374266.747691711 -4374266.747691711 -6776991.847988828 0 0 0 0 0 106206734.2997551 -4160421.518814916 -4160421.518814916 -6648758.05345662 0 0 0 0 0 106234416.8982886 -3954203.625942531 -3954203.625942531 -6520766.651072731 0 0 0 0 0 106254577.4226696 -3755615.552133644 -3755615.552133644 -6393380.534740626 0 0 0 0 0 106268120.004408 -3564309.065445178 -3564309.065445178 -6266516.426546375 0 0 0 0 0 106275512.9810362 -3379872.566896015 -3379872.566896015 -6140128.133771691 0 0 0 0 0 106090323.6830592 -3263203.0683091 -3263203.0683091 -5956749.086499567 0 0 0 0 0 105998005.6112748 -3303436.622428056 -3303436.622428056 -6012362.888163215 0 0 0 0 0 106091368.1263485 -3093991.998321032 -3093991.998321032 -5836912.092505636 0 0 0 0 0 105833764.6718345 -3025086.075715479 -3025086.075715479 -5714940.620108841 0 0 0 0 0 105912293.2566162 -2990825.624476646 -2990825.624476646 -5667517.230955752 0 0 0 0 0 105903303.7078952 -2836554.908324677 -2836554.908324677 -5555298.999145301 0 0 0 0 0 105878495.7582251 -2696384.607277727 -2696384.607277727 -5448059.549269997 0 0 0 0 0 105893997.7466069 -2543437.936489173 -2543437.936489173 -5310380.936062774 0 0 0 0 0 105760350.7678939 -2432840.534673079 -2432840.534673079 -5265612.406030649 0 0 0 0 0 105698220.5037954 -2337531.888529025 -2337531.888529025 -5155217.428602662 0 0 0 0 0 88960989.9204348 -20863706.01473757 -20863706.01473757 -10268552.88508675 0 0 0 0 0 20525936.11109001 -840714.6333926101 -840714.6333926101 -6164444.201466319 0 0 0 0 0 22257169.39066916 -3017028.645148409 -3017028.645148409 -5370681.402550878 0 0 0 0 0 24475549.81511805 -5110362.018539719 -5110362.018539719 -4652461.520173815 0 0 0 0 0 26921374.174995 -7216111.403860803 -7216111.403860803 -4007097.514861185 0 0 0 0 0 25627605.21296526 -8301085.267074432 -8301085.267074432 -4044170.762965852 0 0 0 0 0 27700385.33293161 -10081388.29828159 -10081388.29828159 -4239741.204522756 0 0 0 0 0 29917603.12203152 -12173541.7374544 -12173541.7374544 -4217397.239053569 0 0 0 0 0 32283152.34676227 -14101628.0817575 -14101628.0817575 -4294774.370116079 0 0 0 0 0 34829485.49428598 -15890245.43697886 -15890245.43697886 -4450344.882986807 0 0 0 0 0 37519350.00207528 -17541957.38081264 -17541957.38081264 -4673292.300981306 0 0 0 0 0 41097922.1572952 -19397248.44818196 -19397248.44818196 -4547326.350389547 0 0 0 0 0 42549260.56398889 -18918929.18430939 -18918929.18430939 -4266767.764552538 0 0 0 0 0 45366890.64966003 -20198412.29021158 -20198412.29021158 -4650670.614529588 0 0 0 0 0 48239595.44028877 -21328736.03636065 -21328736.03636065 -5075458.869474422 0 0 0 0 0 51156657.35226105 -22310332.86465498 -22310332.86465498 -5533855.695191266 0 0 0 0 0 55694217.94437525 -22713394.15814927 -22713394.15814927 -5515550.967979527 0 0 0 0 0 53752806.81989428 -23370087.93697219 -23370087.93697219 -5943780.043160683 0 0 0 0 0 58482528.6137036 -23356116.01543128 -23356116.01543128 -6031313.307617074 0 0 0 0 0 61243654.57930242 -23868871.90595357 -23868871.90595357 -6552824.368131198 0 0 0 0 0 63977867.95019604 -24256824.39484261 -24256824.39484261 -7075684.88926437 0 0 0 0 0 66674129.17504478 -24526897.48200066 -24526897.48200066 -7594535.461995238 0 0 0 0 0 69314546.15735435 -24682491.40814591 -24682491.40814591 -8102944.836865988 0 0 0 0 0 71875857.33488473 -24731662.09322217 -24731662.09322217 -8594617.23404102 0 0 0 0 0 72933439.54857816 -24846233.9270401 -24846233.9270401 -9291394.236512899 0 0 0 0 0 75022222.12078135 -24090495.24543676 -24090495.24543676 -8631450.321039405 0 0 0 0 0 77297602.07344739 -23955517.69786566 -23955517.69786566 -9076902.341738034 0 0 0 0 0 79480953.89806412 -23747386.86496946 -23747386.86496946 -9495837.896328406 0 0 0 0 0 81563923.15583755 -23469035.75668427 -23469035.75668427 -9887578.97614887 0 0 0 0 0 83517113.2172458 -23124367.01499322 -23124367.01499322 -10229203.92118097 0 0 0 0 0 85400323.19035733 -22736489.78453395 -22736489.78453395 -10539605.20455264 0 0 0 0 0 85489825.55761574 -22468465.66737242 -22468465.66737242 -11096865.62266987 0 0 0 0 0 87261389.75118226 -21790045.66285013 -21790045.66285013 -10397980.65397806 0 0 0 0 0 88907644.08266301 -21333190.79966765 -21333190.79966765 -10666609.50923988 0 0 0 0 0 88892714.53028478 -20544219.52727468 -20544219.52727468 -10738488.85264193 0 0 0 0 0 90292554.37328941 -20060927.43976315 -20060927.43976315 -10933897.25362812 0 0 0 0 0 91610206.05102302 -19144848.07838644 -19144848.07838644 -10728828.23626914 0 0 0 0 0 91763392.67204104 -19483710.22718159 -19483710.22718159 -10299540.66315904 0 0 0 0 0 92843354.10154137 -18640365.29810932 -18640365.29810932 -10879465.22994963 0 0 0 0 0 94008243.25566307 -18120566.25260208 -18120566.25260208 -11003076.32422873 0 0 0 0 0 95106252.7880189 -17589273.1711147 -17589273.1711147 -11100665.37489134 0 0 0 0 0 96139586.96044485 -17050295.54486281 -17050295.54486281 -11171862.35451432 0 0 0 0 0 96924898.12238412 -16218609.42171722 -16218609.42171722 -10875036.36185356 0 0 0 0 0 97302917.34880711 -16579123.31039826 -16579123.31039826 -10611397.20463395 0 0 0 0 0 97807484.60393323 -15694387.52387069 -15694387.52387069 -10907348.01920141 0 0 0 0 0 98634361.55592215 -15169229.8749195 -15169229.8749195 -10918123.95191371 0 0 0 0 0 99406497.19742942 -14646783.52141846 -14646783.52141846 -10912542.57068161 0 0 0 0 0 100128162.4855415 -14125899.20148072 -14125899.20148072 -10887249.44502479 0 0 0 0 0 100800165.8628007 -13609657.0178239 -13609657.0178239 -10845861.31321052 0 0 0 0 0 101637180.0735816 -13260049.00068632 -13260049.00068632 -10400654.28868318 0 0 0 0 0 101725681.43001 -12449373.8699836 -12449373.8699836 -10443541.92185446 0 0 0 0 0 102220555.1639684 -12764666.13340826 -12764666.13340826 -10361353.48165522 0 0 0 0 0 102257668.8571817 -11969886.06297365 -11969886.06297365 -10368243.9641281 0 0 0 0 0 102749469.828403 -11499981.31600934 -11499981.31600934 -10280150.7025564 0 0 0 0 0 103200504.5857344 -11040858.37822819 -11040858.37822819 -10181881.48202689 0 0 0 0 0 103616146.3160551 -10591815.34184624 -10591815.34184624 -10074908.77536733 0 0 0 0 0 103698296.4954263 -10086221.34570034 -10086221.34570034 -9736148.826416917 0 0 0 0 0 104190524.3977894 -10345671.48482751 -10345671.48482751 -9744244.257754179 0 0 0 0 0 104046977.4485131 -9671516.738704355 -9671516.738704355 -9621477.993998427 0 0 0 0 0 104369404.5324664 -9265567.008839678 -9265567.008839678 -9501246.555039054 0 0 0 0 0 104664142.2624201 -8870406.153602092 -8870406.153602092 -9370657.663372818 0 0 0 0 0 104931582.3879685 -8487475.634680759 -8487475.634680759 -9238419.609948846 0 0 0 0 0 105176003.7442218 -8115100.661376999 -8115100.661376999 -9101071.947181076 0 0 0 0 0 105758593.9975775 -7596419.773002658 -7596419.773002658 -8740155.31847029 0 0 0 0 0 105398468.272959 -7753596.102787465 -7753596.102787465 -8958341.363931429 0 0 0 0 0 105316405.5192624 -7406257.301609891 -7406257.301609891 -8655112.143180458 0 0 0 0 0 105497599.8654556 -7074973.494148065 -7074973.494148065 -8501529.26196851 0 0 0 0 0 105649492.2534272 -6761755.507052422 -6761755.507052422 -8362343.331584738 0 0 0 0 0 105786647.7847811 -6460590.666699911 -6460590.666699911 -8205919.912508988 0 0 0 0 0 105905916.3053656 -6168552.128744297 -6168552.128744297 -8072799.589711671 0 0 0 0 0 106018858.6702854 -5879894.467290473 -5879894.467290473 -7934938.24843605 0 0 0 0 0 106258379.540371 -5771867.866675837 -5771867.866675837 -7782319.239070209 0 0 0 0 0 105873753.3089501 -5632069.304115887 -5632069.304115887 -7667824.817735621 0 0 0 0 0 105970728.9045418 -5365751.729548681 -5365751.729548681 -7526300.804861191 0 0 0 0 0 106055132.5478466 -5108445.033165099 -5108445.033165099 -7383193.769469068 0 0 0 0 0 106128075.0431971 -4860238.802000954 -4860238.802000954 -7240511.323523479 0 0 0 0 0 106303491.6789127 -4782785.896259167 -4782785.896259167 -7130946.401355835 0 0 0 0 0 105962669.8376178 -4668731.151433853 -4668731.151433853 -7009095.148645777 0 0 0 0 0 106019509.1411683 -4441426.383773232 -4441426.383773232 -6872539.507873242 0 0 0 0 0 106067136.1036948 -4222138.141487254 -4222138.141487254 -6736245.572957617 0 0 0 0 0 106106230.9733699 -4010716.440378937 -4010716.440378937 -6600485.29360131 0 0 0 0 0 106137514.329261 -3806997.97745967 -3806997.97745967 -6465318.906477651 0 0 0 0 0 106161269.588081 -3610863.831459899 -3610863.831459899 -6330999.585403163 0 0 0 0 0 106177998.3927748 -3422149.213589587 -3422149.213589587 -6198099.683360579 0 0 0 0 0 106188515.0289108 -3240429.46107227 -3240429.46107227 -6066338.765153384 0 0 0 0 0 106007392.5270184 -3130261.882253885 -3130261.882253885 -5886232.386403454 0 0 0 0 0 106277332.3415226 -3202161.094501459 -3202161.094501459 -6014530.764732262 0 0 0 0 0 106011547.8187196 -2963629.697874352 -2963629.697874352 -5761265.243242879 0 0 0 0 0 106087224.7844313 -2931476.6714755 -2931476.6714755 -5718878.67058724 0 0 0 0 0 105836044.9471314 -2866111.427426225 -2866111.427426225 -5596644.200831615 0 0 0 0 0 105832827.9969429 -2716689.205572951 -2716689.205572951 -5476306.445076317 0 0 0 0 0 105815397.9278253 -2584953.418993825 -2584953.418993825 -5360823.843364813 0 0 0 0 0 105794043.6833519 -2490202.330100084 -2490202.330100084 -5355193.290533605 0 0 0 0 0 105824234.8094296 -2277342.59809559 -2277342.59809559 -5059495.166328326 0 0 0 0 0 105922147.0930923 -2355730.853544441 -2355730.853544441 -5157624.58005848 0 0 0 0 0 88845875.54457287 -21008207.82097202 -21008207.82097202 -11156287.86771705 0 0 0 0 0 19092875.41710906 -1403801.30876787 -1403801.30876787 -7050562.072700895 0 0 0 0 0 20492564.66333267 -3598948.517098465 -3598948.517098465 -6275835.158882333 0 0 0 0 0 22117159.22433175 -5653215.679169335 -5653215.679169335 -5539947.875395331 0 0 0 0 0 23871619.90524322 -7601999.351034976 -7601999.351034976 -4903358.184795005 0 0 0 0 0 27658788.11860898 -10129822.35966588 -10129822.35966588 -4399298.017952051 0 0 0 0 0 29365141.0912735 -12387059.91113677 -12387059.91113677 -4435683.375317975 0 0 0 0 0 31492694.22362773 -14388805.51678146 -14388805.51678146 -4540913.406878499 0 0 0 0 0 33779577.2472988 -16254975.92453001 -16254975.92453001 -4719433.762405324 0 0 0 0 0 36246583.02181144 -17975188.67302836 -17975188.67302836 -4969281.861531465 0 0 0 0 0 38875479.28450922 -19548512.35176986 -19548512.35176986 -5283808.497542668 0 0 0 0 0 40357256.17792979 -19052020.35574978 -19052020.35574978 -4959096.441588181 0 0 0 0 0 43739440.32456667 -20736477.39658596 -20736477.39658596 -4973931.083517852 0 0 0 0 0 46460672.70115452 -21920903.24770305 -21920903.24770305 -5440963.043452171 0 0 0 0 0 49246648.02151028 -22950300.90955027 -22950300.90955027 -5942962.366969108 0 0 0 0 0 52067555.2652581 -23826877.21458412 -23826877.21458412 -6469780.876590125 0 0 0 0 0 56460822.1182562 -24050093.06716444 -24050093.06716444 -6503923.435328634 0 0 0 0 0 54086504.95194136 -23144459.69212188 -23144459.69212188 -6017142.094219776 0 0 0 0 0 59157979.0941143 -24590818.28673271 -24590818.28673271 -7066617.341357569 0 0 0 0 0 61850842.31354433 -24999284.80318856 -24999284.80318856 -7625615.846338911 0 0 0 0 0 64508530.32834195 -25283857.74705742 -25283857.74705742 -8180193.565078477 0 0 0 0 0 67130161.01174505 -25454208.0947955 -25454208.0947955 -8723245.704267059 0 0 0 0 0 69682047.2612381 -25515962.6256404 -25515962.6256404 -9251417.565051276 0 0 0 0 0 72163655.54047248 -25469355.21929292 -25469355.21929292 -9746282.249935811 0 0 0 0 0 74344311.91794929 -24682480.09492196 -24682480.09492196 -9065555.489625113 0 0 0 0 0 75228028.78091326 -24711167.89773658 -24711167.89773658 -9757378.310077582 0 0 0 0 0 77447329.88242823 -24497322.10445015 -24497322.10445015 -10192896.21889959 0 0 0 0 0 79570834.7619275 -24212713.39015586 -24212713.39015586 -10598196.42181565 0 0 0 0 0 81578257.45043308 -23864618.3932827 -23864618.3932827 -10948237.33431736 0 0 0 0 0 83490018.50845653 -23457649.5942831 -23457649.5942831 -11273469.03979152 0 0 0 0 0 85321177.45516552 -22993179.37555279 -22993179.37555279 -11550148.4467767 0 0 0 0 0 87162125.87388271 -22300638.10639068 -22300638.10639068 -10832109.82745309 0 0 0 0 0 87193155.80203016 -21992522.44415958 -21992522.44415958 -11359416.31155938 0 0 0 0 0 88807355.98066048 -21485105.0430424 -21485105.0430424 -11595574.82665133 0 0 0 0 0 90430388.39332668 -20399830.3623345 -20399830.3623345 -10493753.70805045 0 0 0 0 0 91816014.14790924 -19907343.19614851 -19907343.19614851 -10694653.35454146 0 0 0 0 0 93054801.86654577 -18993681.47086027 -18993681.47086027 -10485585.51670095 0 0 0 0 0 91631677.91662076 -19556655.25872301 -19556655.25872301 -11114314.34595642 0 0 0 0 0 94275547.63142827 -18484269.68458971 -18484269.68458971 -10643187.74785883 0 0 0 0 0 95423175.41780424 -17959169.97084276 -17959169.97084276 -10774381.79507735 0 0 0 0 0 96500562.65626447 -17422482.99892128 -17422482.99892128 -10879706.44260863 0 0 0 0 0 97507911.30816379 -16877693.1982834 -16877693.1982834 -10960432.48622216 0 0 0 0 0 98218241.71195477 -16054097.55945357 -16054097.55945357 -10678105.07063156 0 0 0 0 0 97110328.47094692 -16507321.81589773 -16507321.81589773 -11223929.04588592 0 0 0 0 0 99071310.91348347 -15526763.72740695 -15526763.72740695 -10720239.44755765 0 0 0 0 0 99864616.71936899 -14999288.82479987 -14999288.82479987 -10739485.93478405 0 0 0 0 0 100609395.6396928 -14473689.44872417 -14473689.44872417 -10742939.2506512 0 0 0 0 0 101295844.3551497 -13950257.59098571 -13950257.59098571 -10727747.05050703 0 0 0 0 0 101935744.4597843 -13432075.68172185 -13432075.68172185 -10694737.4002093 0 0 0 0 0 101426621.7843772 -13097307.82045453 -13097307.82045453 -10790712.46269332 0 0 0 0 0 102761847.1885557 -12276621.19961914 -12276621.19961914 -10309051.13178915 0 0 0 0 0 102010933.2402657 -12592675.06308793 -12592675.06308793 -10719809.55470555 0 0 0 0 0 103257347.2667723 -11797770.44595199 -11797770.44595199 -10244373.4030878 0 0 0 0 0 103712135.9772823 -11327788.14405199 -11327788.14405199 -10167095.58121525 0 0 0 0 0 104129771.8310309 -10868287.77395211 -10868287.77395211 -10077158.73693612 0 0 0 0 0 104512374.5344476 -10419042.3306753 -10419042.3306753 -9977420.704817345 0 0 0 0 0 104538108.3038147 -9922165.982850749 -9922165.982850749 -9647533.087651916 0 0 0 0 0 103999740.4286323 -10153558.08065909 -10153558.08065909 -9959433.746683251 0 0 0 0 0 104857417.9183227 -9507549.000533441 -9507549.000533441 -9539768.578994269 0 0 0 0 0 105148279.8094299 -9103381.430824788 -9103381.430824788 -9425471.289261399 0 0 0 0 0 105411596.8257065 -8709321.626214644 -8709321.626214644 -9304025.791804813 0 0 0 0 0 105649224.1438564 -8327126.902839858 -8327126.902839858 -9176927.037738552 0 0 0 0 0 105865160.9532908 -7956174.515369806 -7956174.515369806 -9044561.95718188 0 0 0 0 0 105599556.1724439 -7403595.449969499 -7403595.449969499 -8813243.838292403 0 0 0 0 0 106057783.9754007 -7596889.942636212 -7596889.942636212 -8908958.74460114 0 0 0 0 0 105935131.9719437 -7256650.419158502 -7256650.419158502 -8608244.915432287 0 0 0 0 0 106079514.083834 -6933780.474773813 -6933780.474773813 -8484546.408478862 0 0 0 0 0 106214187.2596302 -6617674.6147752 -6617674.6147752 -8340764.854944512 0 0 0 0 0 106315559.8811286 -6318160.321330485 -6318160.321330485 -8209259.342791173 0 0 0 0 0 106421266.8721379 -6027053.3111376 -6027053.3111376 -8055639.905566861 0 0 0 0 0 106526006.4190886 -5739865.611120795 -5739865.611120795 -7900105.215855791 0 0 0 0 0 106124059.8414329 -5598173.671476521 -5598173.671476521 -7781454.976919115 0 0 0 0 0 106345840.907829 -5500625.218593608 -5500625.218593608 -7644337.282640968 0 0 0 0 0 106422788.7132131 -5235895.73706486 -5235895.73706486 -7506646.493441143 0 0 0 0 0 106485946.0237941 -4980823.673275198 -4980823.673275198 -7367330.971819454 0 0 0 0 0 106539738.9950441 -4734862.112156604 -4734862.112156604 -7227423.127596535 0 0 0 0 0 106190359.8138877 -4620689.585551639 -4620689.585551639 -7097824.092998532 0 0 0 0 0 106352096.0845117 -4549384.11198087 -4549384.11198087 -6997204.672132422 0 0 0 0 0 106391524.5537729 -4324206.527129511 -4324206.527129511 -6863374.711744716 0 0 0 0 0 106422268.0614241 -4107081.147272976 -4107081.147272976 -6729627.080187757 0 0 0 0 0 106445184.0772159 -3897861.663180383 -3897861.663180383 -6596208.855884303 0 0 0 0 0 106460600.0720298 -3696487.571608522 -3696487.571608522 -6463557.209067083 0 0 0 0 0 106469055.5096558 -3502712.800296566 -3502712.800296566 -6331741.185330405 0 0 0 0 0 106471572.8640755 -3316157.9772879 -3316157.9772879 -6200407.312167243 0 0 0 0 0 106468537.5676742 -3136525.474932315 -3136525.474932315 -6070106.123213908 0 0 0 0 0 106273723.0271693 -3031041.635227827 -3031041.635227827 -5890058.830976908 0 0 0 0 0 106193400.5242407 -3065351.194429296 -3065351.194429296 -5935751.206970046 0 0 0 0 0 106265217.8491254 -2866478.005110786 -2866478.005110786 -5766739.622015644 0 0 0 0 0 106010918.2733183 -2802919.857603533 -2802919.857603533 -5638293.29266772 0 0 0 0 0 106075699.692088 -2775783.159405825 -2775783.159405825 -5603380.885584684 0 0 0 0 0 106045881.4064761 -2634525.859137715 -2634525.859137715 -5497696.674780712 0 0 0 0 0 105961476.8012724 -2525867.695472679 -2525867.695472679 -5413391.71573669 0 0 0 0 0 106028647.7464873 -2394353.049056784 -2394353.049056784 -5235899.136283377 0 0 0 0 0 105862645.2687185 -2222037.199049037 -2222037.199049037 -5152508.574793051 0 0 0 0 0 105916035.2241656 -2313621.908025782 -2313621.908025782 -5260710.871078874 0 0 0 0 0 90454174.94108978 -20846708.14743995 -20846708.14743995 -10910576.62612724 0 0 0 0 0 17908100.94922952 -855562.1230255569 -855562.1230255569 -7921090.189834028 0 0 0 0 0 19696464.80222337 -3105850.894680183 -3105850.894680183 -7068669.13432283 0 0 0 0 0 21645931.51994686 -5236810.901171506 -5236810.901171506 -6257775.956742416 0 0 0 0 0 23841494.92096252 -7295196.853686807 -7295196.853686807 -5467600.178378345 0 0 0 0 0 25163414.34404506 -9701121.065349899 -9701121.065349899 -5279751.663318112 0 0 0 0 0 27315490.9940794 -11907735.36857964 -11907735.36857964 -5251964.554323853 0 0 0 0 0 29728861.72928316 -13911934.62147657 -13911934.62147657 -5285932.53656912 0 0 0 0 0 32357516.88146772 -15795704.4785756 -15795704.4785756 -5372519.351238555 0 0 0 0 0 35154971.43950579 -17539288.75885427 -17539288.75885427 -5527551.659240949 0 0 0 0 0 38073906.72174986 -19139383.88693944 -19139383.88693944 -5754162.00718697 0 0 0 0 0 41616920.37126201 -20970882.83658322 -20970882.83658322 -5660668.172803556 0 0 0 0 0 43294329.47550436 -20412574.94441508 -20412574.94441508 -5300203.471462023 0 0 0 0 0 46292876.67846775 -21616110.74217776 -21616110.74217776 -5688579.571589623 0 0 0 0 0 49333153.96932588 -22663744.05374342 -22663744.05374342 -6116894.91403217 0 0 0 0 0 52395862.4022624 -23556259.78694709 -23556259.78694709 -6575933.147009157 0 0 0 0 0 57014557.50856985 -23835087.16854466 -23835087.16854466 -6516840.377682311 0 0 0 0 0 54903258.31524172 -24552978.47329693 -24552978.47329693 -7014487.530300193 0 0 0 0 0 59907876.29539985 -24384569.83468143 -24384569.83468143 -7029424.689028626 0 0 0 0 0 62763830.71889867 -24802353.05572372 -24802353.05572372 -7543144.785148004 0 0 0 0 0 65573163.65280902 -25092490.70134762 -25092490.70134762 -8055119.91942912 0 0 0 0 0 68336759.8580942 -25263982.00222043 -25263982.00222043 -8561245.731838366 0 0 0 0 0 71047637.42879121 -25325994.31829054 -25325994.31829054 -9053206.977189142 0 0 0 0 0 73634913.33692203 -25280540.91536465 -25280540.91536465 -9522812.091535354 0 0 0 0 0 74566401.00000079 -25331157.89128112 -25331157.89128112 -10213738.23972053 0 0 0 0 0 76725893.44657005 -24544850.76162749 -24544850.76162749 -9512486.840932043 0 0 0 0 0 79015003.8716713 -24327259.07249109 -24327259.07249109 -9933789.382595841 0 0 0 0 0 81204935.48519613 -24036955.64432069 -24036955.64432069 -10324038.59244272 0 0 0 0 0 83298854.11543769 -23679246.56227595 -23679246.56227595 -10670487.07668651 0 0 0 0 0 85259598.36120871 -23271889.25134757 -23271889.25134757 -11003011.37714715 0 0 0 0 0 87088261.47210266 -22806990.4417116 -22806990.4417116 -11285632.23250592 0 0 0 0 0 87061774.77276102 -22495554.57086119 -22495554.57086119 -11797951.72155777 0 0 0 0 0 88848695.02404074 -21816610.7701242 -21816610.7701242 -11082632.45144598 0 0 0 0 0 90467325.70997533 -21301773.34219815 -21301773.34219815 -11320008.6592015 0 0 0 0 0 90296042.94715829 -20499565.25042726 -20499565.25042726 -11348429.30165127 0 0 0 0 0 91665660.28937674 -19969925.91130645 -19969925.91130645 -11509389.78325884 0 0 0 0 0 92904313.2493487 -19028141.72970761 -19028141.72970761 -11261042.05446708 0 0 0 0 0 93134362.42198485 -19391008.59531325 -19391008.59531325 -10864025.27565448 0 0 0 0 0 94108070.75545527 -18483966.33533041 -18483966.33533041 -11379619.53592447 0 0 0 0 0 95241618.60762447 -17927923.18096079 -17927923.18096079 -11471446.9124213 0 0 0 0 0 96307771.25560656 -17363985.51199403 -17363985.51199403 -11537507.24662972 0 0 0 0 0 97308237.68402109 -16797680.45872116 -16797680.45872116 -11577578.19303661 0 0 0 0 0 98018305.73868968 -15959594.38509354 -15959594.38509354 -11248022.23601972 0 0 0 0 0 98452964.68323778 -16328407.86286792 -16328407.86286792 -11017366.47111423 0 0 0 0 0 98865268.88210049 -15410050.98752902 -15410050.98752902 -11245474.16845556 0 0 0 0 0 99654733.44393897 -14868505.41744576 -14868505.41744576 -11234799.67210955 0 0 0 0 0 100394952.3900169 -14324705.09823057 -14324705.09823057 -11199130.41318583 0 0 0 0 0 101080373.7827949 -13788790.5125802 -13788790.5125802 -11147639.7544452 0 0 0 0 0 101717431.7399799 -13256550.89432952 -13256550.89432952 -11079533.30309777 0 0 0 0 0 102529935.6997832 -12916572.09400009 -12916572.09400009 -10644165.85900448 0 0 0 0 0 102552829.8945766 -12095825.17910026 -12095825.17910026 -10634176.83312192 0 0 0 0 0 103080680.955516 -12410554.66986793 -12410554.66986793 -10583536.08885272 0 0 0 0 0 103050019.1195793 -11608710.88571749 -11608710.88571749 -10536380.78678849 0 0 0 0 0 103507897.2902054 -11133231.4307554 -11133231.4307554 -10428145.09591742 0 0 0 0 0 103928164.8801377 -10668802.63679234 -10668802.63679234 -10310454.14177766 0 0 0 0 0 104314679.3547342 -10216110.46341226 -10216110.46341226 -10184671.50437591 0 0 0 0 0 104350944.7485799 -9725827.810671927 -9725827.810671927 -9835829.518526888 0 0 0 0 0 104860827.6563776 -9981755.832376977 -9981755.832376977 -9870175.6808096 0 0 0 0 0 104672493.6153063 -9308079.275473109 -9308079.275473109 -9703906.441906001 0 0 0 0 0 104966109.5285893 -8901371.930561554 -8901371.930561554 -9566530.242348831 0 0 0 0 0 105235105.9962619 -8506744.167192198 -8506744.167192198 -9423557.063832562 0 0 0 0 0 105477865.7913226 -8124409.921645441 -8124409.921645441 -9276184.914838865 0 0 0 0 0 105697425.9275595 -7753489.113294478 -7753489.113294478 -9125238.830004567 0 0 0 0 0 106230024.6483664 -7248780.780654599 -7248780.780654599 -8768422.178459993 0 0 0 0 0 105896021.901046 -7394138.112559013 -7394138.112559013 -8969403.218025111 0 0 0 0 0 105779808.9485482 -7064457.554025972 -7064457.554025972 -8665384.978818614 0 0 0 0 0 105941323.4182659 -6737531.027196308 -6737531.027196308 -8505849.497806119 0 0 0 0 0 106079463.0469349 -6425057.555703825 -6425057.555703825 -8361174.451785035 0 0 0 0 0 106212497.1321595 -6121530.17446401 -6121530.17446401 -8180012.251184696 0 0 0 0 0 106295478.7065845 -5842936.815791545 -5842936.815791545 -8037185.615574002 0 0 0 0 0 106375880.3959402 -5569384.569233518 -5569384.569233518 -7918525.693771261 0 0 0 0 0 106611019.3411786 -5459317.672152002 -5459317.672152002 -7763185.117439282 0 0 0 0 0 106218554.0383229 -5326213.440703508 -5326213.440703508 -7633990.683591752 0 0 0 0 0 106298919.9311439 -5063046.398952418 -5063046.398952418 -7482953.962707206 0 0 0 0 0 106367020.2086189 -4810596.84442634 -4810596.84442634 -7333256.233952312 0 0 0 0 0 106424674.9634783 -4567110.478005428 -4567110.478005428 -7184200.73560078 0 0 0 0 0 106583386.1583193 -4497687.003749801 -4497687.003749801 -7087572.63817125 0 0 0 0 0 106242696.6660912 -4389694.729667108 -4389694.729667108 -6955469.074457225 0 0 0 0 0 106285820.8991535 -4166959.747924249 -4166959.747924249 -6813425.75581318 0 0 0 0 0 106320259.5359921 -3952475.462539096 -3952475.462539096 -6672124.341299818 0 0 0 0 0 106346755.621045 -3746003.165134664 -3746003.165134664 -6531742.515331034 0 0 0 0 0 106365882.0763206 -3547291.938269674 -3547291.938269674 -6392397.840417865 0 0 0 0 0 106378065.9207063 -3356205.199748843 -3356205.199748843 -6254019.924388261 0 0 0 0 0 106383570.70097 -3172638.880707718 -3172638.880707718 -6117736.690850922 0 0 0 0 0 106383711.1726324 -2995859.65589817 -2995859.65589817 -5982590.799946708 0 0 0 0 0 106192934.2510335 -2896950.397986838 -2896950.397986838 -5806298.990493346 0 0 0 0 0 106460331.6659482 -2963673.626184288 -2963673.626184288 -5941104.585114253 0 0 0 0 0 106187663.0452902 -2735193.10556935 -2735193.10556935 -5677979.901451962 0 0 0 0 0 106253651.4553252 -2708193.659135145 -2708193.659135145 -5644905.619255845 0 0 0 0 0 106006714.442546 -2649606.556728344 -2649606.556728344 -5513834.545778145 0 0 0 0 0 106005113.5914623 -2500428.902492926 -2500428.902492926 -5365954.096223444 0 0 0 0 0 105982905.4359166 -2356727.378134775 -2356727.378134775 -5331144.180914029 0 0 0 0 0 105987349.7780834 -2162065.470483887 -2162065.470483887 -5056636.012608287 0 0 0 0 0 106093606.8189839 -2232497.678762807 -2232497.678762807 -5140484.027267904 0 0 0 0 0 90317120.57947782 -20950070.54774235 -20950070.54774235 -11775288.30427159 0 0 0 0 0 16447296.09552222 -1460185.258331913 -1460185.258331913 -8875805.188349277 0 0 0 0 0 17867280.32584065 -3772427.832288079 -3772427.832288079 -8112697.275805971 0 0 0 0 0 19661104.02830591 -5838952.009623396 -5838952.009623396 -7195769.48149181 0 0 0 0 0 21850365.80011159 -7834029.464269328 -7834029.464269328 -6258540.740351079 0 0 0 0 0 24429241.61169708 -10011693.77431156 -10011693.77431156 -5738909.556497928 0 0 0 0 0 26821207.74003835 -12137886.11722632 -12137886.11722632 -5606176.906206776 0 0 0 0 0 28950425.06789141 -14217437.67997136 -14217437.67997136 -5621618.268578759 0 0 0 0 0 31303974.38690676 -16179569.53278204 -16179569.53278204 -5719584.464558724 0 0 0 0 0 33837176.0220341 -17998146.22024539 -17998146.22024539 -5892999.565622834 0 0 0 0 0 36535354.87249926 -19663081.29995664 -19663081.29995664 -6138097.30180522 0 0 0 0 0 39394208.7323054 -21166391.15120712 -21166391.15120712 -6448931.755223113 0 0 0 0 0 41110659.62376363 -20584896.5606409 -20584896.5606409 -6042894.006579573 0 0 0 0 0 44449667.8210405 -22233013.70839568 -22233013.70839568 -6089679.071699077 0 0 0 0 0 47349813.56489949 -23330215.47920101 -23330215.47920101 -6556457.421456819 0 0 0 0 0 50299434.57325439 -24266346.87775267 -24266346.87775267 -7053902.919526207 0 0 0 0 0 53268443.82369076 -25043385.19867757 -25043385.19867757 -7573139.375700955 0 0 0 0 0 57729921.0420201 -25137063.5301994 -25137063.5301994 -7569260.21301191 0 0 0 0 0 55457954.35555447 -24296429.09280276 -24296429.09280276 -7056619.580976957 0 0 0 0 0 60532814.44329819 -25575802.70844088 -25575802.70844088 -8117952.474811988 0 0 0 0 0 63316778.23271193 -25882363.26396345 -25882363.26396345 -8662467.80584655 0 0 0 0 0 66064817.05218381 -26067283.19619986 -26067283.19619986 -9198854.497865971 0 0 0 0 0 68757298.33068898 -26138387.74748293 -26138387.74748293 -9725365.100292869 0 0 0 0 0 71357430.18736254 -26099200.39887015 -26099200.39887015 -10221778.85517002 0 0 0 0 0 73874770.38163325 -25959646.91100383 -25959646.91100383 -10691165.56024844 0 0 0 0 0 76128207.26771683 -25140882.6405655 -25140882.6405655 -9969658.960873172 0 0 0 0 0 76887105.94097118 -25108923.19302316 -25108923.19302316 -10651262.09530412 0 0 0 0 0 79119943.55426358 -24809816.41160868 -24809816.41160868 -11053879.63518055 0 0 0 0 0 81245792.68737699 -24439790.6696369 -24439790.6696369 -11424230.39331646 0 0 0 0 0 83265682.10679443 -24010247.85754495 -24010247.85754495 -11755652.23789561 0 0 0 0 0 85174730.60384367 -23533779.06854806 -23533779.06854806 -12029088.86419684 0 0 0 0 0 86985158.39031141 -23009817.97446086 -23009817.97446086 -12262352.07050331 0 0 0 0 0 88827874.83646238 -22305895.64641771 -22305895.64641771 -11533346.41749114 0 0 0 0 0 88742966.83706442 -21968223.4572567 -21968223.4572567 -12029746.03862121 0 0 0 0 0 90336408.50088014 -21402838.25657996 -21402838.25657996 -12218878.23945156 0 0 0 0 0 91887201.26131049 -20330644.79460322 -20330644.79460322 -11104664.07711319 0 0 0 0 0 93246359.23846923 -19794426.44372964 -19794426.44372964 -11266504.60409778 0 0 0 0 0 94396191.93408474 -18859185.95569506 -18859185.95569506 -11019214.8754052 0 0 0 0 0 92975767.31094447 -19421376.76247776 -19421376.76247776 -11655516.00478453 0 0 0 0 0 95581766.01346831 -18309954.42675 -18309954.42675 -11145400.35069333 0 0 0 0 0 96692768.61114304 -17749011.42189262 -17749011.42189262 -11245038.93537253 0 0 0 0 0 97731169.99470635 -17180756.31790111 -17180756.31790111 -11319593.15666232 0 0 0 0 0 98698177.26196375 -16606032.20420247 -16606032.20420247 -11365858.70333133 0 0 0 0 0 99329666.55443016 -15780096.34195322 -15780096.34195322 -11057910.71599971 0 0 0 0 0 98245922.17840795 -16227314.01877289 -16227314.01877289 -11597748.99456923 0 0 0 0 0 100144315.6230961 -15231355.86267588 -15231355.86267588 -11068381.27491806 0 0 0 0 0 100903846.1490242 -14681971.75359033 -14681971.75359033 -11061726.50095575 0 0 0 0 0 101603701.7301677 -14137056.65942601 -14137056.65942601 -11037926.29448076 0 0 0 0 0 102255349.0635252 -13600231.57877128 -13600231.57877128 -10996092.56908825 0 0 0 0 0 102850902.3570809 -13066878.86515235 -13066878.86515235 -10935188.24561914 0 0 0 0 0 102310400.1134495 -12734025.45162488 -12734025.45162488 -11002148.51531378 0 0 0 0 0 103582607.25666 -11914090.3926903 -11914090.3926903 -10509392.8272967 0 0 0 0 0 102863616.9343338 -12217186.8819844 -12217186.8819844 -10904514.77073145 0 0 0 0 0 104042099.1902966 -11427710.32560148 -11427710.32560148 -10422013.40628634 0 0 0 0 0 104462493.1617275 -10952305.43146674 -10952305.43146674 -10322944.93545457 0 0 0 0 0 104847110.5276311 -10488421.33632895 -10488421.33632895 -10213373.54193965 0 0 0 0 0 105197416.8130049 -10036146.46292246 -10036146.46292246 -10094769.24869524 0 0 0 0 0 105179532.459979 -9554515.75465437 -9554515.75465437 -9753373.364744177 0 0 0 0 0 104666912.0977301 -9774631.022908004 -9774631.022908004 -10050183.75106576 0 0 0 0 0 105469253.6654003 -9138939.521690251 -9138939.521690251 -9630192.709533824 0 0 0 0 0 105731254.4864907 -8733409.896575371 -8733409.896575371 -9499027.688479755 0 0 0 0 0 105967543.6522917 -8339965.728335932 -8339965.728335932 -9362251.171026027 0 0 0 0 0 106179561.3209213 -7959323.732316379 -7959323.732316379 -9221399.922490876 0 0 0 0 0 106369725.6502864 -7590108.218574969 -7590108.218574969 -9075673.474401837 0 0 0 0 0 106071923.3734954 -7047643.63479758 -7047643.63479758 -8812941.460218225 0 0 0 0 0 106537326.2172979 -7233746.379507986 -7233746.379507986 -8927539.679227592 0 0 0 0 0 106383254.5800534 -6911764.85217748 -6911764.85217748 -8624593.6943946 0 0 0 0 0 106512039.8146773 -6588148.195907979 -6588148.195907979 -8484013.565769119 0 0 0 0 0 106638691.2454819 -6265881.706003974 -6265881.706003974 -8323449.187224443 0 0 0 0 0 106715133.1089395 -5980270.104686259 -5980270.104686259 -8205295.123833384 0 0 0 0 0 106787401.2037837 -5710057.12780179 -5710057.12780179 -8048112.03015011 0 0 0 0 0 106890976.630464 -5416871.401077463 -5416871.401077463 -7863385.766790456 0 0 0 0 0 106476220.2940287 -5285791.837161602 -5285791.837161602 -7746108.491200798 0 0 0 0 0 106683249.865958 -5188787.805452225 -5188787.805452225 -7615482.653484935 0 0 0 0 0 106738542.2540653 -4931772.557477946 -4931772.557477946 -7468155.204741159 0 0 0 0 0 106783256.2064779 -4681615.899017849 -4681615.899017849 -7321530.313947388 0 0 0 0 0 106820686.895793 -4440237.684199549 -4440237.684199549 -7175838.887041823 0 0 0 0 0 106472194.4561135 -4332603.499719414 -4332603.499719414 -7036150.397028936 0 0 0 0 0 106617960.7861777 -4268954.569928677 -4268954.569928677 -6947879.531594547 0 0 0 0 0 106643469.8086415 -4048542.806606017 -4048542.806606017 -6808461.883525184 0 0 0 0 0 106661187.8126083 -3836440.030957343 -3836440.030957343 -6669552.835788754 0 0 0 0 0 106671609.4287977 -3632375.895496963 -3632375.895496963 -6531429.305986986 0 0 0 0 0 106675212.551755 -3436073.416381376 -3436073.416381376 -6394306.72059706 0 0 0 0 0 106672178.6990422 -3247553.900640292 -3247553.900640292 -6258579.73388702 0 0 0 0 0 106663923.0066137 -3066094.36830437 -3066094.36830437 -6123302.64114204 0 0 0 0 0 106650591.9171409 -2891679.907555581 -2891679.907555581 -5989648.314404844 0 0 0 0 0 106446922.9929551 -2797322.04923602 -2797322.04923602 -5813355.606512038 0 0 0 0 0 106378531.1089938 -2825741.866724271 -2825741.866724271 -5849188.769502562 0 0 0 0 0 106429066.0837419 -2637329.260118494 -2637329.260118494 -5686524.347387684 0 0 0 0 0 106177632.8467079 -2577408.153808199 -2577408.153808199 -5554171.523812413 0 0 0 0 0 106231969.5187307 -2554575.430122177 -2554575.430122177 -5524271.141799981 0 0 0 0 0 106194213.2648767 -2419816.251453316 -2419816.251453316 -5424217.144527226 0 0 0 0 0 106205718.2966707 -2262191.751800953 -2262191.751800953 -5248978.319993798 0 0 0 0 0 106025624.9277639 -2104146.878705101 -2104146.878705101 -5150501.136659504 0 0 0 0 0 106092894.4852652 -2187536.191029008 -2187536.191029008 -5229445.102252591 0 0 0 0 0 91978184.28817347 -20763878.45308682 -20763878.45308682 -11525226.13325688 0 0 0 0 0 15276238.24157749 -732253.2502578313 -732253.2502578313 -10048189.05704578 0 0 0 0 0 17568781.12661294 -3238002.410649912 -3238002.410649912 -8991279.900864417 0 0 0 0 0 19617662.60578744 -5509986.769286007 -5509986.769286007 -7809806.015520845 0 0 0 0 0 21199482.18418095 -7380927.683188094 -7380927.683188094 -6998620.779079738 0 0 0 0 0 22703729.62996946 -9443649.398284316 -9443649.398284316 -6596095.694751133 0 0 0 0 0 24615568.65048477 -11560704.25359258 -11560704.25359258 -6529423.150837013 0 0 0 0 0 27076794.52449975 -13661948.74515327 -13661948.74515327 -6446579.64558356 0 0 0 0 0 29763418.51311448 -15641653.77217346 -15641653.77217346 -6453265.854046122 0 0 0 0 0 32637154.22710689 -17483164.23304797 -17483164.23304797 -6529995.712862319 0 0 0 0 0 35674757.99743896 -19170826.22617259 -19170826.22617259 -6679971.453254118 0 0 0 0 0 38831651.55424465 -20699969.99380519 -20699969.99380519 -6901130.484287513 0 0 0 0 0 42354588.73010857 -22505164.56166695 -22505164.56166695 -6820719.470131241 0 0 0 0 0 44243411.63203313 -21867540.03895162 -21867540.03895162 -6387112.858007602 0 0 0 0 0 47417675.28106879 -22985396.12371058 -22985396.12371058 -6774445.936804819 0 0 0 0 0 50618967.74245247 -23940724.22551832 -23940724.22551832 -7199970.267603816 0 0 0 0 0 53822840.94711038 -24735292.06097253 -24735292.06097253 -7651321.267712153 0 0 0 0 0 58502389.81263772 -24888886.81716637 -24888886.81716637 -7549569.74744376 0 0 0 0 0 56239962.11382086 -25668661.08472105 -25668661.08472105 -8108864.463307848 0 0 0 0 0 61504713.88088002 -25340652.41194116 -25340652.41194116 -8052830.114719671 0 0 0 0 0 64444199.71325351 -25654667.70888639 -25654667.70888639 -8550478.028886091 0 0 0 0 0 67320806.18833353 -25846387.4132503 -25846387.4132503 -9046874.159643123 0 0 0 0 0 70136292.43084663 -25921460.0496703 -25921460.0496703 -9535083.444548313 0 0 0 0 0 72872228.03155828 -25881443.59640508 -25881443.59640508 -10007561.11073772 0 0 0 0 0 75500202.66132896 -25740228.68759838 -25740228.68759838 -10451949.5276635 0 0 0 0 0 76305054.34893389 -25729576.52844622 -25729576.52844622 -11128813.55885479 0 0 0 0 0 78527556.26661554 -24915934.70643235 -24915934.70643235 -10390304.8092347 0 0 0 0 0 80817848.29535322 -24613367.52190676 -24613367.52190676 -10781543.26512266 0 0 0 0 0 83003579.48063073 -24239598.31512848 -24239598.31512848 -11140082.81814522 0 0 0 0 0 85083416.5522991 -23801637.92415022 -23801637.92415022 -11458237.78491038 0 0 0 0 0 87026470.78949179 -23325322.66074268 -23325322.66074268 -11757320.51988384 0 0 0 0 0 88820812.93034992 -22801480.98628806 -22801480.98628806 -12002116.37137606 0 0 0 0 0 88700042.25479047 -22451619.1427166 -22451619.1427166 -12474617.09391686 0 0 0 0 0 90485964.86281218 -21764825.56734229 -21764825.56734229 -11746328.35450613 0 0 0 0 0 92055922.10656884 -21195234.07834752 -21195234.07834752 -11945556.08224515 0 0 0 0 0 91732828.89308862 -20390524.68204694 -20390524.68204694 -11926473.29806561 0 0 0 0 0 93071345.37603749 -19813336.96918429 -19813336.96918429 -12056359.83516721 0 0 0 0 0 94220503.17201427 -18851662.93648905 -18851662.93648905 -11767042.84006707 0 0 0 0 0 94534364.71887518 -19236942.58763997 -19236942.58763997 -11404522.26843234 0 0 0 0 0 95391511.78162578 -18269912.59772545 -18269912.59772545 -11851242.23626758 0 0 0 0 0 96490890.69821674 -17680308.29525563 -17680308.29525563 -11908828.12184213 0 0 0 0 0 97518302.85478322 -17084421.84792063 -17084421.84792063 -11941160.36140411 0 0 0 0 0 98480476.44123529 -16492665.4919485 -16492665.4919485 -11952709.29753081 0 0 0 0 0 99114670.49238268 -15651531.0374869 -15651531.0374869 -11584319.70299532 0 0 0 0 0 99610308.64095938 -16030821.35000338 -16030821.35000338 -11394443.31738138 0 0 0 0 0 99923239.09254545 -15086174.05639916 -15086174.05639916 -11565642.99165688 0 0 0 0 0 100681436.6681596 -14520905.18563728 -14520905.18563728 -11518599.66684911 0 0 0 0 0 101380863.230893 -13964534.59622681 -13964534.59622681 -11456713.59094421 0 0 0 0 0 102030053.125313 -13409979.86346952 -13409979.86346952 -11372005.88970845 0 0 0 0 0 102625463.9534769 -12872388.68445776 -12872388.68445776 -11285998.9134933 0 0 0 0 0 103414624.5358466 -12541794.04884644 -12541794.04884644 -10860620.14344463 0 0 0 0 0 103367827.5040303 -11713128.65043024 -11713128.65043024 -10795927.72539422 0 0 0 0 0 103925634.9307793 -12025804.76540148 -12025804.76540148 -10778218.52148775 0 0 0 0 0 103830231.6678034 -11220862.57119863 -11220862.57119863 -10676741.87430295 0 0 0 0 0 104254003.5283158 -10741194.63498424 -10741194.63498424 -10548401.13693885 0 0 0 0 0 104642006.4450333 -10273625.09998887 -10273625.09998887 -10411201.30407997 0 0 0 0 0 104996160.5629604 -9818244.932776885 -9818244.932776885 -10266613.81411488 0 0 0 0 0 104989264.1466998 -9344787.28662046 -9344787.28662046 -9909336.511932226 0 0 0 0 0 105515415.4439899 -9596097.820058256 -9596097.820058256 -9968815.176904704 0 0 0 0 0 105282031.310184 -8926611.355781117 -8926611.355781117 -9761449.33553265 0 0 0 0 0 105548316.2464351 -8521066.003282404 -8521066.003282404 -9608784.673743412 0 0 0 0 0 105789571.5406328 -8128129.778426337 -8128129.778426337 -9452156.478939019 0 0 0 0 0 106006939.5792743 -7747421.565005902 -7747421.565005902 -9291183.928903259 0 0 0 0 0 106201109.1166438 -7379636.328725826 -7379636.328725826 -9126871.820765262 0 0 0 0 0 106685825.9453974 -6889407.746620409 -6889407.746620409 -8774937.861787323 0 0 0 0 0 106374472.9279518 -7024693.657982587 -7024693.657982587 -8959921.818288261 0 0 0 0 0 106228147.3079501 -6711557.405887711 -6711557.405887711 -8654475.231118014 0 0 0 0 0 106368030.0824019 -6387739.342027489 -6387739.342027489 -8494612.525737997 0 0 0 0 0 106493962.3667052 -6084107.331092549 -6084107.331092549 -8342838.587468621 0 0 0 0 0 106609612.3239698 -5786712.926405173 -5786712.926405173 -8136458.642299281 0 0 0 0 0 106653515.0268763 -5529662.964540896 -5529662.964540896 -8015981.352440263 0 0 0 0 0 106730699.6469584 -5247570.190405292 -5247570.190405292 -7877066.750682847 0 0 0 0 0 106958919.1624097 -5139768.864271904 -5139768.864271904 -7725776.824068576 0 0 0 0 0 106555540.2060663 -5011890.615416899 -5011890.615416899 -7575049.861418807 0 0 0 0 0 106612764.0429731 -4755821.672153587 -4755821.672153587 -7423861.035903339 0 0 0 0 0 106665799.5452127 -4507707.81667898 -4507707.81667898 -7268716.515359646 0 0 0 0 0 106708270.2605892 -4269824.290725333 -4269824.290725333 -7113648.983427279 0 0 0 0 0 106850705.7825231 -4208280.446423886 -4208280.446423886 -7030042.416987274 0 0 0 0 0 106510589.6407684 -4106349.46257677 -4106349.46257677 -6888117.996581105 0 0 0 0 0 106539953.7167351 -3888915.468450922 -3888915.468450922 -6741195.645772699 0 0 0 0 0 106561412.6969615 -3679779.54401582 -3679779.54401582 -6595408.203918263 0 0 0 0 0 106575499.0839292 -3478627.590975258 -3478627.590975258 -6450888.331844004 0 0 0 0 0 106582818.520564 -3285284.225119547 -3285284.225119547 -6307714.580884906 0 0 0 0 0 106583689.7893465 -3099605.699265394 -3099605.699265394 -6165974.005276478 0 0 0 0 0 106578458.9958616 -2921378.019833781 -2921378.019833781 -6026345.593944455 0 0 0 0 0 106568329.651571 -2750100.133153856 -2750100.133153856 -5888401.03136666 0 0 0 0 0 106368254.2549593 -2662208.534443217 -2662208.534443217 -5716874.544700425 0 0 0 0 0 106632944.7247966 -2724025.296587031 -2724025.296587031 -5857553.967348167 0 0 0 0 0 106353619.9275703 -2505945.47906885 -2505945.47906885 -5584523.02426225 0 0 0 0 0 106414070.0014432 -2482716.121373724 -2482716.121373724 -5560306.273518141 0 0 0 0 0 106164701.0463418 -2428284.377815051 -2428284.377815051 -5424693.683268195 0 0 0 0 0 106141856.6677723 -2296555.948228842 -2296555.948228842 -5298439.945224108 0 0 0 0 0 106123118.3259551 -2166842.581204513 -2166842.581204513 -5188491.246004252 0 0 0 0 0 106139803.2945303 -2049647.13950622 -2049647.13950622 -5061521.699129107 0 0 0 0 0 91810610.07764848 -20812550.82545156 -20812550.82545156 -12363031.02634312 0 0 0 0 0 13861497.31044472 -1511777.395222986 -1511777.395222986 -11304006.57684753 0 0 0 0 0 15351040.37594 -3940909.612414594 -3940909.612414594 -10096638.77225697 0 0 0 0 0 16446301.93189883 -6052092.185840004 -6052092.185840004 -8895239.522709701 0 0 0 0 0 18778375.99090683 -7977885.841224076 -7977885.841224076 -7991569.639631219 0 0 0 0 0 22102769.94621913 -9732252.364733543 -9732252.364733543 -7080872.308412553 0 0 0 0 0 24101991.19500309 -11830109.79415625 -11830109.79415625 -7014071.51431674 0 0 0 0 0 26335682.94577883 -13987541.92368864 -13987541.92368864 -6903261.842426793 0 0 0 0 0 28743274.28610071 -16037836.73143148 -16037836.73143148 -6883081.041370137 0 0 0 0 0 31358660.73702402 -17949139.63404369 -17949139.63404369 -6954943.160541805 0 0 0 0 0 34155544.79839456 -19706129.1710041 -19706129.1710041 -7112166.890282596 0 0 0 0 0 37089278.98439184 -21299774.4426621 -21299774.4426621 -7346604.452679883 0 0 0 0 0 40152241.48444939 -22724930.46173906 -22724930.46173906 -7648636.717084561 0 0 0 0 0 42080535.69549922 -22067444.32639426 -22067444.32639426 -7183063.438127088 0 0 0 0 0 45375468.3316126 -23676082.39786066 -23676082.39786066 -7242213.249928626 0 0 0 0 0 48450463.23330136 -24677307.57513437 -24677307.57513437 -7701770.753549977 0 0 0 0 0 51551413.59688818 -25511254.5958947 -25511254.5958947 -8189483.117616457 0 0 0 0 0 54659887.82393931 -26183958.03010991 -26183958.03010991 -8697655.3899423 0 0 0 0 0 59175818.71771114 -26145820.08640066 -26145820.08640066 -8652443.841407355 0 0 0 0 0 57013555.17389604 -25375773.93098499 -25375773.93098499 -8122857.127650598 0 0 0 0 0 62077008.17191063 -26480082.37572165 -26480082.37572165 -9182926.641721807 0 0 0 0 0 64940069.85639755 -26683003.49829626 -26683003.49829626 -9708035.683572443 0 0 0 0 0 67753782.49129844 -26765009.53815944 -26765009.53815944 -10221685.99760871 0 0 0 0 0 70513220.42571722 -26734264.70186219 -26734264.70186219 -10716806.0917325 0 0 0 0 0 73158476.71565534 -26591605.52430077 -26591605.52430077 -11183690.63345782 0 0 0 0 0 75701258.28535199 -26353180.83523838 -26353180.83523838 -11621575.77673046 0 0 0 0 0 78020221.24139369 -25509741.94685529 -25509741.94685529 -10867889.44252904 0 0 0 0 0 78641639.05676404 -25416657.043686 -25416657.043686 -11530305.2728812 0 0 0 0 0 80875953.94934554 -25031115.3246939 -25031115.3246939 -11895692.60531268 0 0 0 0 0 83011263.75825398 -24580061.09038402 -24580061.09038402 -12223256.50858596 0 0 0 0 0 85044812.11666305 -24077233.02123177 -24077233.02123177 -12513527.59333386 0 0 0 0 0 86917978.71912923 -23523449.26019835 -23523449.26019835 -12744632.51931448 0 0 0 0 0 88691162.3636003 -22947603.19044839 -22947603.19044839 -12954724.87504869 0 0 0 0 0 90533345.02094391 -22234972.0232158 -22234972.0232158 -12214084.19722231 0 0 0 0 0 90342596.20312035 -21860263.6438668 -21860263.6438668 -12661670.81281743 0 0 0 0 0 91895807.7166779 -21249044.12034389 -21249044.12034389 -12820136.75208984 0 0 0 0 0 93383955.0825461 -20203701.802458 -20203701.802458 -11687744.30415226 0 0 0 0 0 94702118.4366166 -19617093.57296161 -19617093.57296161 -11820159.94164501 0 0 0 0 0 95757051.71594806 -18663657.50605286 -18663657.50605286 -11527443.87037462 0 0 0 0 0 94348022.65937945 -19221863.05502972 -19221863.05502972 -12167865.56465925 0 0 0 0 0 96901644.62735665 -18076874.39888279 -18076874.39888279 -11620803.93186353 0 0 0 0 0 97971286.0907402 -17483560.6296925 -17483560.6296925 -11687784.84324875 0 0 0 0 0 98965355.90231219 -16885559.0143884 -16885559.0143884 -11730441.7589795 0 0 0 0 0 99881719.21193533 -16285830.80233973 -16285830.80233973 -11745682.81053156 0 0 0 0 0 100445031.4586319 -15461818.36880837 -15461818.36880837 -11417523.73670925 0 0 0 0 0 99385097.35992517 -15898100.62570326 -15898100.62570326 -11948874.69775826 0 0 0 0 0 101220945.2917381 -14885535.71495349 -14885535.71495349 -11385404.29896165 0 0 0 0 0 101939621.3159117 -14320010.91691334 -14320010.91691334 -11352280.65446011 0 0 0 0 0 102596492.2887953 -13762160.48763184 -13762160.48763184 -11304051.87904305 0 0 0 0 0 103197124.6711808 -13211686.30793751 -13211686.30793751 -11233744.11376233 0 0 0 0 0 103764931.133195 -12669227.32405795 -12669227.32405795 -11147212.00954386 0 0 0 0 0 103185808.2774278 -12336886.70659381 -12336886.70659381 -11180870.42290897 0 0 0 0 0 104389053.8295001 -11522492.48782881 -11522492.48782881 -10680947.64736665 0 0 0 0 0 103702019.3708308 -11812455.66678249 -11812455.66678249 -11059000.67341339 0 0 0 0 0 104811301.6618901 -11030949.18879921 -11030949.18879921 -10571396.92555194 0 0 0 0 0 105197360.3738022 -10552019.35120781 -10552019.35120781 -10451536.72221732 0 0 0 0 0 105547785.3664794 -10085510.88434147 -10085510.88434147 -10322580.12987662 0 0 0 0 0 105865249.8154984 -9631428.598568253 -9631428.598568253 -10185486.79025916 0 0 0 0 0 105803535.4052125 -9167732.916970229 -9167732.916970229 -9835315.353737088 0 0 0 0 0 105318567.8992226 -9375212.677281907 -9375212.677281907 -10114566.72348195 0 0 0 0 0 106063624.6093759 -8751515.461302429 -8751515.461302429 -9694833.167694444 0 0 0 0 0 106296885.8318168 -8347622.462953311 -8347622.462953311 -9548884.323285509 0 0 0 0 0 106505799.2678201 -7956165.985284219 -7956165.985284219 -9397820.806739524 0 0 0 0 0 106691615.3103317 -7577781.611430023 -7577781.611430023 -9243161.798809757 0 0 0 0 0 106854981.7513678 -7212923.374421859 -7212923.374421859 -9085440.150826149 0 0 0 0 0 106526743.6164457 -6681571.707607424 -6681571.707607424 -8792251.52594105 0 0 0 0 0 106997812.9591983 -6860548.673195366 -6860548.673195366 -8924818.64928302 0 0 0 0 0 106816696.5587968 -6555747.077825142 -6555747.077825142 -8619892.431791 0 0 0 0 0 106930650.0691114 -6232364.702200287 -6232364.702200287 -8462565.73457766 0 0 0 0 0 107025640.0371497 -5925987.271228184 -5925987.271228184 -8302978.520833192 0 0 0 0 0 107063205.0995291 -5663210.129620887 -5663210.129620887 -8197479.91855474 0 0 0 0 0 107144651.3475367 -5378639.614339177 -5378639.614339177 -8000689.613405872 0 0 0 0 0 107242173.4290641 -5090013.275936313 -5090013.275936313 -7819722.417833508 0 0 0 0 0 106823798.8512061 -4955952.201186418 -4955952.201186418 -7679375.357735166 0 0 0 0 0 107001869.3282771 -4879583.278494594 -4879583.278494594 -7582579.943074618 0 0 0 0 0 107038110.7394525 -4623584.734791563 -4623584.734791563 -7417689.744974296 0 0 0 0 0 107065582.5970437 -4376489.884389917 -4376489.884389917 -7261219.508645079 0 0 0 0 0 107089334.2728572 -4141639.454126135 -4141639.454126135 -7109978.783355501 0 0 0 0 0 106741714.2065187 -4040027.527109277 -4040027.527109277 -6959965.547394289 0 0 0 0 0 106870477.5790822 -3984589.721078377 -3984589.721078377 -6885010.495756774 0 0 0 0 0 106882546.9294859 -3769663.779905269 -3769663.779905269 -6740412.437080533 0 0 0 0 0 106887592.5515101 -3563080.054088966 -3563080.054088966 -6596818.888135366 0 0 0 0 0 106885891.2409391 -3364473.990857688 -3364473.990857688 -6454361.927902303 0 0 0 0 0 106877834.8285741 -3173705.254509135 -3173705.254509135 -6313283.06889886 0 0 0 0 0 106863854.229822 -2990602.456006497 -2990602.456006497 -6173766.270055772 0 0 0 0 0 106844864.0402017 -2814741.673795806 -2814741.673795806 -6035299.646072967 0 0 0 0 0 106821244.8791263 -2646172.269869056 -2646172.269869056 -5898809.939764197 0 0 0 0 0 106610342.4102866 -2562347.703178642 -2562347.703178642 -5726924.285228182 0 0 0 0 0 106553226.5826636 -2585238.180643802 -2585238.180643802 -5753582.982303875 0 0 0 0 0 106582991.1855299 -2406877.513822204 -2406877.513822204 -5597075.705853896 0 0 0 0 0 106334213.4278025 -2351134.738773324 -2351134.738773324 -5459450.464943103 0 0 0 0 0 106372647.8125298 -2335991.467880966 -2335991.467880966 -5440618.003616835 0 0 0 0 0 106318536.6642454 -2206629.933130876 -2206629.933130876 -5336738.037050715 0 0 0 0 0 106267514.0897055 -2078062.553645166 -2078062.553645166 -5216105.44412895 0 0 0 0 0 106186140.7598304 -1984441.205475784 -1984441.205475784 -5151623.203426676 0 0 0 0 0 93535686.0405567 -20608920.04604931 -20608920.04604931 -12120810.4772784 0 0 0 0 0 12545327.65659665 -715910.5570014877 -715910.5570014877 -12592338.87369119 0 0 0 0 0 13632086.7727064 -3120665.217390824 -3120665.217390824 -11291810.53195843 0 0 0 0 0 18387428.36508868 -6204782.03613154 -6204782.03613154 -9658894.10426404 0 0 0 0 0 20452110.74858083 -8161172.895716489 -8161172.895716489 -8505416.874687424 0 0 0 0 0 19076923.86308316 -9161910.411094191 -9161910.411094191 -8186647.055563088 0 0 0 0 0 21795754.18539262 -11093012.67836643 -11093012.67836643 -8091553.26662972 0 0 0 0 0 24335709.63534138 -13312529.9319941 -13312529.9319941 -7840417.117593783 0 0 0 0 0 27078113.35719346 -15394649.96214294 -15394649.96214294 -7718155.517942701 0 0 0 0 0 30030076.46046425 -17333853.6849675 -17333853.6849675 -7691206.209127475 0 0 0 0 0 33157335.0447967 -19121465.96534419 -19121465.96534419 -7748239.614378755 0 0 0 0 0 36430118.00781032 -20746558.73748298 -20746558.73748298 -7880528.522395068 0 0 0 0 0 39812356.16309776 -22201462.75705696 -22201462.75705696 -8086022.819064164 0 0 0 0 0 43309006.00268853 -23975312.05457173 -23975312.05457173 -8009735.359367323 0 0 0 0 0 45397394.2074082 -23263463.54366409 -23263463.54366409 -7516790.002183537 0 0 0 0 0 48744190.02198434 -24287609.15563432 -24287609.15563432 -7897148.420402339 0 0 0 0 0 52102748.16266182 -25143775.98051563 -25143775.98051563 -8309790.153170431 0 0 0 0 0 55443326.77494474 -25836247.29488279 -25836247.29488279 -8747443.387117665 0 0 0 0 0 60162894.29012945 -25865938.48570758 -25865938.48570758 -8605886.520001642 0 0 0 0 0 57751497.89816547 -26703446.56478088 -26703446.56478088 -9218765.49621377 0 0 0 0 0 63259029.13622092 -26212848.09587142 -26212848.09587142 -9089158.696498191 0 0 0 0 0 66272606.33894018 -26422516.17270414 -26422516.17270414 -9569733.079674913 0 0 0 0 0 69212546.02069107 -26508646.24125771 -26508646.24125771 -10042712.39539962 0 0 0 0 0 72070323.01985903 -26482516.23817347 -26482516.23817347 -10510767.08459193 0 0 0 0 0 74828979.33626665 -26344401.86213283 -26344401.86213283 -10948415.54209456 0 0 0 0 0 77476357.41446635 -26106903.97346691 -26106903.97346691 -11362290.44476308 0 0 0 0 0 78145168.82559906 -26031032.84901458 -26031032.84901458 -12024081.12461468 0 0 0 0 0 80419372.67161447 -25195326.54440451 -25195326.54440451 -11255653.10901372 0 0 0 0 0 82703051.77068554 -24806771.79161418 -24806771.79161418 -11611373.09015618 0 0 0 0 0 84872382.67508329 -24351459.03724347 -24351459.03724347 -11933574.73474394 0 0 0 0 0 86911885.03324936 -23841931.12022042 -23841931.12022042 -12221251.47221312 0 0 0 0 0 88827690.22706413 -23293570.07237272 -23293570.07237272 -12483540.69099338 0 0 0 0 0 90586377.4651936 -22708340.30576437 -22708340.30576437 -12690698.99251571 0 0 0 0 0 90381247.6026244 -22317759.36844191 -22317759.36844191 -13098905.40665651 0 0 0 0 0 92132289.4034002 -21635172.98313984 -21635172.98313984 -12386442.57247023 0 0 0 0 0 93686349.37081772 -21020133.88848158 -21020133.88848158 -12544156.47109203 0 0 0 0 0 93197867.78609034 -20207795.77101658 -20207795.77101658 -12483284.95040093 0 0 0 0 0 94504950.68170522 -19589376.32438056 -19589376.32438056 -12571608.68945845 0 0 0 0 0 95556820.73433211 -18613773.99497325 -18613773.99497325 -12243073.97689383 0 0 0 0 0 95948786.50410691 -19016214.91150619 -19016214.91150619 -11921460.48519376 0 0 0 0 0 96690495.87504703 -17997659.866409 -17997659.866409 -12290231.60885265 0 0 0 0 0 97749635.69336589 -17376197.1275161 -17376197.1275161 -12311671.50410554 0 0 0 0 0 98734996.68297765 -16753360.66766011 -16753360.66766011 -12311244.30580913 0 0 0 0 0 99651672.50958617 -16143631.46448543 -16143631.46448543 -12291697.71848919 0 0 0 0 0 100217590.4551812 -15298594.38843297 -15298594.38843297 -11894592.6966176 0 0 0 0 0 100762827.3381748 -15688036.86878781 -15688036.86878781 -11740604.23803107 0 0 0 0 0 100990074.0459788 -14712612.95213644 -14712612.95213644 -11844300.32291797 0 0 0 0 0 101707561.7289991 -14130954.97516089 -14130954.97516089 -11772966.8010318 0 0 0 0 0 102366442.7856129 -13556435.50783935 -13556435.50783935 -11670116.17448499 0 0 0 0 0 102965210.9485451 -13002619.91849417 -13002619.91849417 -11575874.98603266 0 0 0 0 0 103531548.9326629 -12448292.04499386 -12448292.04499386 -11456199.44455019 0 0 0 0 0 104283008.6490944 -12134055.65472415 -12134055.65472415 -11049842.7601939 0 0 0 0 0 104169626.6738899 -11302721.51320561 -11302721.51320561 -10927522.38655028 0 0 0 0 0 104752046.0084189 -11611409.7336852 -11611409.7336852 -10942537.57281114 0 0 0 0 0 104595747.8548411 -10807537.93493285 -10807537.93493285 -10788087.51892379 0 0 0 0 0 104985485.1936635 -10324992.65059656 -10324992.65059656 -10639688.87603388 0 0 0 0 0 105339939.2323184 -9855595.163531596 -9855595.163531596 -10483549.94031628 0 0 0 0 0 105661753.6010238 -9399751.619182298 -9399751.619182298 -10320790.87121271 0 0 0 0 0 105610924.0259732 -8945565.765605129 -8945565.765605129 -9956942.121515101 0 0 0 0 0 106151727.6318837 -9190431.13691101 -9190431.13691101 -10041533.37564778 0 0 0 0 0 105875206.9495338 -8529046.962458586 -8529046.962458586 -9794296.495757299 0 0 0 0 0 106113575.3223171 -8125334.119781792 -8125334.119781792 -9627142.394310491 0 0 0 0 0 106327716.6164045 -7734972.489540367 -7734972.489540367 -9456389.283378061 0 0 0 0 0 106519258.1830131 -7357964.730876964 -7357964.730876964 -9282398.567387557 0 0 0 0 0 106688043.7892258 -6994251.675876448 -6994251.675876448 -9106057.006564735 0 0 0 0 0 107123915.1202943 -6519114.56038888 -6519114.56038888 -8759919.682712946 0 0 0 0 0 106836504.7029175 -6643160.99303636 -6643160.99303636 -8928334.619964371 0 0 0 0 0 106662092.320121 -6348826.807723968 -6348826.807723968 -8622022.365538277 0 0 0 0 0 106788868.5076083 -6032080.621725557 -6032080.621725557 -8454303.075238591 0 0 0 0 0 106897787.1134228 -5728721.769225061 -5728721.769225061 -8277093.904985889 0 0 0 0 0 106973036.161797 -5457078.313526835 -5457078.313526835 -8104952.183790992 0 0 0 0 0 107013003.341067 -5193911.115588644 -5193911.115588644 -7961606.042160434 0 0 0 0 0 107080279.7363143 -4899892.869617293 -4899892.869617293 -7791598.338753753 0 0 0 0 0 107273265.0148284 -4819594.673444966 -4819594.673444966 -7682850.480821642 0 0 0 0 0 106874220.5504092 -4692627.435844222 -4692627.435844222 -7506289.726535426 0 0 0 0 0 106912700.40457 -4442525.394118517 -4442525.394118517 -7350106.836386469 0 0 0 0 0 106950012.4351432 -4201465.362205972 -4201465.362205972 -7189878.876235734 0 0 0 0 0 106980519.4072554 -3967108.193951831 -3967108.193951831 -7026778.399714472 0 0 0 0 0 107103688.9289349 -3915128.397880772 -3915128.397880772 -6958992.21517433 0 0 0 0 0 106765479.6446871 -3819751.746019747 -3819751.746019747 -6807335.133123784 0 0 0 0 0 106781493.8759492 -3608105.326262746 -3608105.326262746 -6656039.395822632 0 0 0 0 0 106790249.4490428 -3404671.95297265 -3404671.95297265 -6506236.2028879 0 0 0 0 0 106792238.6231124 -3209234.618231082 -3209234.618231082 -6357985.760950992 0 0 0 0 0 106787861.4925593 -3021635.693350185 -3021635.693350185 -6211491.034748722 0 0 0 0 0 106777680.1092727 -2841711.994233511 -2841711.994233511 -6066794.977673082 0 0 0 0 0 106762072.3149902 -2669245.688293983 -2669245.688293983 -5923946.922594672 0 0 0 0 0 106741882.780795 -2504344.975903303 -2504344.975903303 -5783544.88001518 0 0 0 0 0 106533579.5693641 -2426653.560779265 -2426653.560779265 -5620038.103358451 0 0 0 0 0 106795080.7100391 -2484467.689624794 -2484467.689624794 -5764315.154468285 0 0 0 0 0 106509535.549982 -2273882.369285982 -2273882.369285982 -5484577.576827384 0 0 0 0 0 106574358.2124177 -2250010.818655994 -2250010.818655994 -5458607.397095462 0 0 0 0 0 106329284.287103 -2197766.406435617 -2197766.406435617 -5315657.162597863 0 0 0 0 0 106331444.9485189 -2052967.030732411 -2052967.030732411 -5181006.497056779 0 0 0 0 0 106306691.5266718 -1922430.633524856 -1922430.633524856 -5047068.595558601 0 0 0 0 0 93346267.02013008 -20611699.88907054 -20611699.88907054 -12921282.587332 0 0 0 0 0 11169782.18146282 -1532222.214372626 -1532222.214372626 -13945161.54178479 0 0 0 0 0 12890759.1473687 -3768783.273553349 -3768783.273553349 -12559342.88655791 0 0 0 0 0 15167061.91164433 -6077094.324280416 -6077094.324280416 -11750455.63200047 0 0 0 0 0 16711657.84971123 -8421888.471437987 -8421888.471437987 -9585958.818026794 0 0 0 0 0 14305473.8642798 -6170997.649986221 -6170997.649986221 -10864956.90783373 0 0 0 0 0 21557377.63903059 -11303409.34467528 -11303409.34467528 -8674882.390395468 0 0 0 0 0 23573959.44729853 -13666470.84557527 -13666470.84557527 -8384481.956154412 0 0 0 0 0 26097854.19000468 -15804975.19717124 -15804975.19717124 -8243579.243165647 0 0 0 0 0 28772819.11764777 -17815997.58318841 -17815997.58318841 -8195078.177318009 0 0 0 0 0 31645483.47754475 -19672287.35666538 -19672287.35666538 -8241339.581036229 0 0 0 0 0 34684380.65661298 -21363111.76683378 -21363111.76683378 -8375771.895794683 0 0 0 0 0 37856656.60313005 -22879244.28384264 -22879244.28384264 -8590526.113834936 0 0 0 0 0 41132706.99949834 -24215902.19572365 -24215902.19572365 -8875888.053306175 0 0 0 0 0 43272409.25514438 -23482179.87306316 -23482179.87306316 -8353935.439553065 0 0 0 0 0 46516129.68598448 -25049119.86779312 -25049119.86779312 -8420838.670513758 0 0 0 0 0 49752242.20376962 -25947455.49564071 -25947455.49564071 -8867091.837108567 0 0 0 0 0 52998950.55055863 -26674920.80947122 -26674920.80947122 -9340502.79481411 0 0 0 0 0 56240615.29591011 -27239097.72443788 -27239097.72443788 -9832635.385577697 0 0 0 0 0 60792896.69590534 -27069664.36638467 -27069664.36638467 -9740542.639171313 0 0 0 0 0 58752420.97985464 -26371725.56402956 -26371725.56402956 -9204337.269677533 0 0 0 0 0 63786912.97605098 -27294946.25460739 -27294946.25460739 -10250892.45266988 0 0 0 0 0 66720517.22210959 -27390442.55261821 -27390442.55261821 -10752965.51429807 0 0 0 0 0 69598030.9266125 -27367630.00094873 -27367630.00094873 -11240048.856513 0 0 0 0 0 72375111.1747808 -27228233.57140662 -27228233.57140662 -11699747.22573157 0 0 0 0 0 75054560.17800702 -26984335.8031982 -26984335.8031982 -12132426.86449115 0 0 0 0 0 77629613.19687204 -26650856.37713072 -26650856.37713072 -12533265.70152422 0 0 0 0 0 80005261.69646399 -25782533.0074199 -25782533.0074199 -11748271.54503789 0 0 0 0 0 80485129.42656671 -25628851.92816712 -25628851.92816712 -12387341.34497124 0 0 0 0 0 82715778.98020341 -25159370.76223745 -25159370.76223745 -12712389.39295692 0 0 0 0 0 84842392.68985881 -24628519.6727226 -24628519.6727226 -12991553.45074857 0 0 0 0 0 86845066.76447888 -24059522.68974373 -24059522.68974373 -13246915.01271954 0 0 0 0 0 88705892.85342307 -23446941.25880534 -23446941.25880534 -13435519.12408068 0 0 0 0 0 90427125.25351788 -22786781.10878153 -22786781.10878153 -13561966.40280873 0 0 0 0 0 92237857.05911198 -22090438.02461226 -22090438.02461226 -12846261.74851567 0 0 0 0 0 91970873.8773855 -21686809.92341154 -21686809.92341154 -13264876.74069967 0 0 0 0 0 93493401.18593793 -21016125.94923398 -21016125.94923398 -13375745.5124059 0 0 0 0 0 94895874.89900237 -19996669.94419409 -19996669.94419409 -12243809.47440381 0 0 0 0 0 96171692.59467292 -19372830.07313924 -19372830.07313924 -12336446.19349229 0 0 0 0 0 97128800.24629176 -18405575.9210126 -18405575.9210126 -12007424.0555328 0 0 0 0 0 95741955.75840235 -18959733.25767237 -18959733.25767237 -12644289.26678513 0 0 0 0 0 98229711.03314544 -17785858.40694473 -17785858.40694473 -12065429.32809015 0 0 0 0 0 99256903.47051989 -17161058.97910177 -17161058.97910177 -12097617.72242654 0 0 0 0 0 100217721.5573492 -16534615.65831908 -16534615.65831908 -12105349.14909237 0 0 0 0 0 101092317.4533559 -15915545.70813343 -15915545.70813343 -12091145.61048855 0 0 0 0 0 101568269.8570749 -15092123.57669845 -15092123.57669845 -11725456.55944552 0 0 0 0 0 100514722.3829011 -15515340.39727115 -15515340.39727115 -12251177.46504724 0 0 0 0 0 102298290.7765737 -14498701.71645194 -14498701.71645194 -11679251.65934222 0 0 0 0 0 102969838.7296581 -13910930.83667012 -13910930.83667012 -11611659.02177492 0 0 0 0 0 103577326.5445656 -13348549.01316741 -13348549.01316741 -11543718.99614277 0 0 0 0 0 104142225.0028241 -12784782.35987423 -12784782.35987423 -11438503.35991914 0 0 0 0 0 104658734.5443309 -12232517.78887407 -12232517.78887407 -11329245.80209626 0 0 0 0 0 104050160.6836756 -11906135.80807893 -11906135.80807893 -11324629.90117921 0 0 0 0 0 105176874.7066584 -11103486.07597123 -11103486.07597123 -10822437.10626031 0 0 0 0 0 104525156.9172782 -11378627.35879162 -11378627.35879162 -11180522.52193088 0 0 0 0 0 105564039.6306431 -10609275.02997799 -10609275.02997799 -10691560.15900031 0 0 0 0 0 105914242.8003834 -10128024.57761258 -10128024.57761258 -10551682.04177796 0 0 0 0 0 106230172.5797725 -9660346.574330907 -9660346.574330907 -10403605.14247426 0 0 0 0 0 106514144.3180702 -9206582.591288092 -9206582.591288092 -10248664.12851932 0 0 0 0 0 106408995.1105534 -8762669.037973329 -8762669.037973329 -9891163.954448933 0 0 0 0 0 105953093.0122645 -8957819.904508401 -8957819.904508401 -10152338.53075017 0 0 0 0 0 106639186.0315357 -8348040.495066842 -8348040.495066842 -9734806.98381993 0 0 0 0 0 106844267.847031 -7946456.571716693 -7946456.571716693 -9574043.456948463 0 0 0 0 0 107025347.0339006 -7558501.803265807 -7558501.803265807 -9409627.818769908 0 0 0 0 0 107184048.0062663 -7184372.42259251 -7184372.42259251 -9242476.350046122 0 0 0 0 0 107321784.1805244 -6823603.419012621 -6823603.419012621 -9072122.804931266 0 0 0 0 0 106966217.6161005 -6304315.540790156 -6304315.540790156 -8749949.016424334 0 0 0 0 0 107441553.1170457 -6475223.170871221 -6475223.170871221 -8899188.413765151 0 0 0 0 0 107233876.7588954 -6189000.55568479 -6189000.55568479 -8593940.132136051 0 0 0 0 0 107326192.5379829 -5872322.134025136 -5872322.134025136 -8426820.887473453 0 0 0 0 0 107383621.9237627 -5583224.317218728 -5583224.317218728 -8279430.059386699 0 0 0 0 0 107420406.7185282 -5312822.397183255 -5312822.397183255 -8132693.937956048 0 0 0 0 0 107471148.6228806 -5033591.910613198 -5033591.910613198 -7946325.474438116 0 0 0 0 0 107541694.8160864 -4746765.003886605 -4746765.003886605 -7771204.083296463 0 0 0 0 0 107151051.6573454 -4617086.710894487 -4617086.710894487 -7592319.955573993 0 0 0 0 0 107294449.5955418 -4561807.950178983 -4561807.950178983 -7523030.47632178 0 0 0 0 0 107315760.1385129 -4308434.382992857 -4308434.382992857 -7350298.692485278 0 0 0 0 0 107332335.1519322 -4065177.352684871 -4065177.352684871 -7187020.944038368 0 0 0 0 0 107342035.4801977 -3839044.99843897 -3839044.99843897 -7032173.702009846 0 0 0 0 0 106996952.2087879 -3744745.897845643 -3744745.897845643 -6870415.362598288 0 0 0 0 0 107109314.3954319 -3697278.320925863 -3697278.320925863 -6808509.983628889 0 0 0 0 0 107108644.2086356 -3488342.568693848 -3488342.568693848 -6659318.009529731 0 0 0 0 0 107101297.0974176 -3287607.436215408 -3287607.436215408 -6511495.625372151 0 0 0 0 0 107087654.2097459 -3094902.290997747 -3094902.290997747 -6365229.66806085 0 0 0 0 0 107068253.2802986 -2909981.523311187 -2909981.523311187 -6220567.281444489 0 0 0 0 0 107043501.2150255 -2732642.39008514 -2732642.39008514 -6077654.64396395 0 0 0 0 0 107013685.882252 -2562879.970051259 -2562879.970051259 -5936558.991124069 0 0 0 0 0 106979695.524581 -2400719.778288288 -2400719.778288288 -5797315.314168583 0 0 0 0 0 106762543.0112508 -2328141.395705353 -2328141.395705353 -5632286.913314492 0 0 0 0 0 106717389.0207165 -2345010.625748979 -2345010.625748979 -5648689.513323395 0 0 0 0 0 106725858.4135179 -2170331.40908481 -2170331.40908481 -5492799.318303599 0 0 0 0 0 106486430.4278053 -2107288.544567402 -2107288.544567402 -5358476.742827047 0 0 0 0 0 106514948.4095719 -2092651.94676142 -2092651.94676142 -5333084.67465853 0 0 0 0 0 106432671.8703225 -1950166.457420178 -1950166.457420178 -5221660.733317877 0 0 0 0 0 106349533.6885729 -1860734.62646976 -1860734.62646976 -5137059.934867503 0 0 0 0 0 95116153.37418611 -20381012.93265048 -20381012.93265048 -12676093.90758452 0 0 0 0 0 10149367.45513686 -645613.5958910448 -645613.5958910448 -15457296.29800891 0 0 0 0 0 11037427.67804057 -2820798.742341914 -2820798.742341914 -13953428.96348547 0 0 0 0 0 12101760.60076236 -5214425.995420761 -5214425.995420761 -13096847.58993542 0 0 0 0 0 17203725.96124749 -8024339.047547651 -8024339.047547651 -10368300.14957764 0 0 0 0 0 16716756.32727695 -8447649.691840626 -8447649.691840626 -11196531.07270698 0 0 0 0 0 18968187.46635186 -10526527.34533695 -10526527.34533695 -9827030.721307067 0 0 0 0 0 21531296.142726 -12904269.95105558 -12904269.95105558 -9396267.645340046 0 0 0 0 0 24300902.15783785 -15047019.77367219 -15047019.77367219 -9188664.177486651 0 0 0 0 0 27319029.71435811 -17087354.61712214 -17087354.61712214 -9038133.300085649 0 0 0 0 0 30538623.99426418 -18976745.56838489 -18976745.56838489 -8979008.274479633 0 0 0 0 0 33921927.94282242 -20703425.57411619 -20703425.57411619 -9006842.680654192 0 0 0 0 0 37432309.34684293 -22257188.92513392 -22257188.92513392 -9115088.142252741 0 0 0 0 0 41034146.24927332 -23631104.33131656 -23631104.33131656 -9297408.509239865 0 0 0 0 0 44478296.65574977 -25370625.68132548 -25370625.68132548 -9221291.114298215 0 0 0 0 0 46774357.40140972 -24585450.41463433 -24585450.41463433 -8672501.405046966 0 0 0 0 0 50288864.88680395 -25511882.40685258 -25511882.40685258 -9036888.416341873 0 0 0 0 0 53792778.00741044 -26264105.94154565 -26264105.94154565 -9432363.030259548 0 0 0 0 0 57259997.22879301 -26849982.14572244 -26849982.14572244 -9853066.122992555 0 0 0 0 0 61999334.26734411 -26754623.03398717 -26754623.03398717 -9670463.653247792 0 0 0 0 0 59437832.12976411 -27646428.43841851 -27646428.43841851 -10333747.27236259 0 0 0 0 0 65168850.95385687 -26991850.9970515 -26991850.9970515 -10131769.04860439 0 0 0 0 0 68253192.31677449 -27095512.1259772 -27095512.1259772 -10588085.40483584 0 0 0 0 0 71239743.41808636 -27079003.41270686 -27079003.41270686 -11038128.87526768 0 0 0 0 0 74122190.77627659 -26946052.593727 -26946052.593727 -11470886.79918906 0 0 0 0 0 76896339.79386011 -26704554.79273776 -26704554.79273776 -11876481.28729067 0 0 0 0 0 79558185.15892796 -26372179.28342877 -26372179.28342877 -12257535.07709322 0 0 0 0 0 80080411.82056767 -26232775.64824353 -26232775.64824353 -12894155.45144326 0 0 0 0 0 82396927.62138017 -25378528.78562875 -25378528.78562875 -12100439.81943559 0 0 0 0 0 84660582.05839594 -24908109.51660401 -24908109.51660401 -12419764.39407885 0 0 0 0 0 86772944.21284209 -24376070.43007651 -24376070.43007651 -12701205.17685004 0 0 0 0 0 88778552.36016549 -23799282.99783254 -23799282.99783254 -12952225.09095407 0 0 0 0 0 90670874.97162126 -23178842.21360478 -23178842.21360478 -13151981.8162179 0 0 0 0 0 92388005.08208178 -22555217.55384383 -22555217.55384383 -13359858.63498805 0 0 0 0 0 92062798.79849958 -22122534.55341299 -22122534.55341299 -13721933.04223841 0 0 0 0 0 93835932.80652578 -21437290.7478295 -21437290.7478295 -12988086.97871631 0 0 0 0 0 95338364.60850662 -20761818.02809022 -20761818.02809022 -13103920.4229646 0 0 0 0 0 94691917.60572547 -19959161.02616857 -19959161.02616857 -12994145.28456243 0 0 0 0 0 95953157.60522713 -19300522.45091746 -19300522.45091746 -13047815.56819214 0 0 0 0 0 96908333.79736701 -18315598.44552172 -18315598.44552172 -12682708.91636729 0 0 0 0 0 97373804.55090538 -18735422.19363128 -18735422.19363128 -12402250.60239008 0 0 0 0 0 97998916.71590181 -17667883.73074671 -17667883.73074671 -12694841.47524446 0 0 0 0 0 99016801.45093583 -17017237.01747091 -17017237.01747091 -12683239.6377517 0 0 0 0 0 99967064.96088217 -16361604.46370488 -16361604.46370488 -12649052.63373005 0 0 0 0 0 100843526.6862057 -15715963.28370189 -15715963.28370189 -12590758.24853479 0 0 0 0 0 101320486.8824579 -14895043.42326703 -14895043.42326703 -12174730.21904423 0 0 0 0 0 101907242.7913106 -15290143.69896385 -15290143.69896385 -12056936.97157633 0 0 0 0 0 102053440.9569227 -14287692.24233103 -14287692.24233103 -12088335.61758875 0 0 0 0 0 102730526.3738552 -13696668.01459172 -13696668.01459172 -11984572.63759232 0 0 0 0 0 103342131.5630524 -13114847.51559016 -13114847.51559016 -11864473.39670945 0 0 0 0 0 103908424.1606725 -12544063.18942816 -12544063.18942816 -11732757.76649205 0 0 0 0 0 104427133.6835934 -11987858.26583861 -11987858.26583861 -11587516.11814034 0 0 0 0 0 105131526.5249595 -11693614.13184017 -11693614.13184017 -11206792.64314473 0 0 0 0 0 104954135.7268138 -10867443.59415062 -10867443.59415062 -11029381.22007289 0 0 0 0 0 105559490.5396672 -11169388.5407478 -11169388.5407478 -11076182.5716755 0 0 0 0 0 105345193.4678597 -10369453.68042618 -10369453.68042618 -10868988.36037755 0 0 0 0 0 105699915.1640807 -9885756.205102095 -9885756.205102095 -10700995.73750224 0 0 0 0 0 106020747.5875285 -9416640.985029198 -9416640.985029198 -10526596.00924988 0 0 0 0 0 106309922.5947526 -8962198.734316396 -8962198.734316396 -10346622.18606613 0 0 0 0 0 106215604.6072315 -8529758.866773155 -8529758.866773155 -9978722.038631497 0 0 0 0 0 106768503.0950857 -8766677.955187993 -8766677.955187993 -10087291.45547013 0 0 0 0 0 106450833.9145072 -8115368.613900183 -8115368.613900183 -9801065.217901677 0 0 0 0 0 106661335.9224592 -7714877.976339461 -7714877.976339461 -9620013.461455952 0 0 0 0 0 106848503.9138406 -7328510.649196427 -7328510.649196427 -9436179.311625801 0 0 0 0 0 107013167.1246891 -6956072.451558316 -6956072.451558316 -9249938.418745017 0 0 0 0 0 107156456.3020295 -6597317.80780424 -6597317.80780424 -9062503.422954405 0 0 0 0 0 107544726.186528 -6138884.006605325 -6138884.006605325 -8724072.247844025 0 0 0 0 0 107281019.6660775 -6251815.664110456 -6251815.664110456 -8875149.57353491 0 0 0 0 0 107081975.6709371 -5977710.384243525 -5977710.384243525 -8569817.730052667 0 0 0 0 0 107187814.2968781 -5667549.692319764 -5667549.692319764 -8393068.246768484 0 0 0 0 0 107277218.0121829 -5371081.451110012 -5371081.451110012 -8204963.861890623 0 0 0 0 0 107353985.5748547 -5084925.208848328 -5084925.208848328 -8026383.475502282 0 0 0 0 0 107404438.9214837 -4802479.20850084 -4802479.20850084 -7850351.808150294 0 0 0 0 0 107420759.5163328 -4531728.678774949 -4531728.678774949 -7676866.422752376 0 0 0 0 0 107560992.2867899 -4479345.15394321 -4479345.15394321 -7610520.857970241 0 0 0 0 0 107182808.6743811 -4362499.898561287 -4362499.898561287 -7419330.946808037 0 0 0 0 0 107202439.8041981 -4122178.223130707 -4122178.223130707 -7264974.501424512 0 0 0 0 0 107229406.8120071 -3884818.56865975 -3884818.56865975 -7086444.3976896 0 0 0 0 0 107239588.9439114 -3660479.804376098 -3660479.804376098 -6924895.989830726 0 0 0 0 0 107341213.2171099 -3618785.306580412 -3618785.306580412 -6873719.116030222 0 0 0 0 0 107007014.8097415 -3530779.444330813 -3530779.444330813 -6713363.709533478 0 0 0 0 0 107010180.1676044 -3325175.978122011 -3325175.978122011 -6558101.136601874 0 0 0 0 0 107006579.6977901 -3127810.633359315 -3127810.633359315 -6404688.771889948 0 0 0 0 0 106996668.8005793 -2938474.195475176 -2938474.195475176 -6253227.479202534 0 0 0 0 0 106980927.2579581 -2756933.75521995 -2756933.75521995 -6103819.674767539 0 0 0 0 0 106959900.3907185 -2583054.423669307 -2583054.423669307 -5956311.903467203 0 0 0 0 0 106933739.5090321 -2417049.021949786 -2417049.021949786 -5810615.696602097 0 0 0 0 0 106903996.754929 -2259422.545705921 -2259422.545705921 -5665961.025480124 0 0 0 0 0 106684957.2005824 -2188110.964880127 -2188110.964880127 -5517549.251141386 0 0 0 0 0 106946614.0591285 -2246139.239102994 -2246139.239102994 -5660813.1040103 0 0 0 0 0 106628548.0876978 -2036246.151203123 -2036246.151203123 -5385875.889046472 0 0 0 0 0 106757387.4282446 -1970989.904342477 -1970989.904342477 -5283405.152102282 0 0 0 0 0 106519049.2487638 -1913729.53824344 -1913729.53824344 -5164664.69471468 0 0 0 0 0 106497256.3942451 -1787250.11168128 -1787250.11168128 -5017147.90214604 0 0 0 0 0 94898001.45359519 -20325746.95697961 -20325746.95697961 -13432394.50385102 0 0 0 0 0 8462511.488536509 -1668998.806036609 -1668998.806036609 -17125790.30564807 0 0 0 0 0 9933039.688183408 -3556865.477245455 -3556865.477245455 -15409663.7179401 0 0 0 0 0 11985233.55513886 -5590759.186911026 -5590759.186911026 -14274793.53748915 0 0 0 0 0 14098549.09546004 -7859888.295740671 -7859888.295740671 -13470188.33523205 0 0 0 0 0 18290735.58395169 -10907071.02985303 -10907071.02985303 -10534562.5007291 0 0 0 0 0 13858903.48710555 -7641386.187116347 -7641386.187116347 -12436377.31474468 0 0 0 0 0 20947461.63992843 -13257642.96543908 -13257642.96543908 -10132834.30789359 0 0 0 0 0 23347329.05431552 -15480480.14447497 -15480480.14447497 -9832504.814120375 0 0 0 0 0 26088316.28568475 -17588234.4155594 -17588234.4155594 -9642014.488001207 0 0 0 0 0 29034132.99795638 -19546504.04414847 -19546504.04414847 -9553053.555422241 0 0 0 0 0 32164295.0542088 -21339471.85293521 -21339471.85293521 -9564123.415314693 0 0 0 0 0 35447653.79495241 -22955723.92248053 -22955723.92248053 -9667949.207040953 0 0 0 0 0 38848782.55512105 -24387113.7184758 -24387113.7184758 -9855271.290316811 0 0 0 0 0 42335257.37897918 -25629572.33731906 -25629572.33731906 -10116060.21201771 0 0 0 0 0 44693064.20033446 -24821079.1143237 -24821079.1143237 -9543034.834467625 0 0 0 0 0 47858562.75745108 -26342170.12999706 -26342170.12999706 -9616080.096009323 0 0 0 0 0 51255690.84675374 -27132565.42767552 -27132565.42767552 -10043045.32548818 0 0 0 0 0 54645152.10957733 -27748027.58300624 -27748027.58300624 -10496019.10664222 0 0 0 0 0 58007110.21331678 -28197154.5768486 -28197154.5768486 -10966947.31177072 0 0 0 0 0 62578609.83770256 -27900038.82201475 -27900038.82201475 -10827244.56139901 0 0 0 0 0 60678138.98278309 -27275392.23027512 -27275392.23027512 -10288549.48353841 0 0 0 0 0 65650637.15785636 -28012808.37555198 -28012808.37555198 -11314241.89013814 0 0 0 0 0 68650767.70344774 -27997848.78476585 -27997848.78476585 -11786866.3438515 0 0 0 0 0 71561256.26271217 -27863385.93659845 -27863385.93659845 -12237930.61134391 0 0 0 0 0 74371371.96916741 -27617415.778724 -27617415.778724 -12658871.73012819 0 0 0 0 0 77077574.4338184 -27271039.79819803 -27271039.79819803 -13053972.1191603 0 0 0 0 0 79657284.77447334 -26841372.96183591 -26841372.96183591 -13414386.13214286 0 0 0 0 0 82079437.84857233 -25953676.62333518 -25953676.62333518 -12605613.17907622 0 0 0 0 0 82415410.50044461 -25742312.2255533 -25742312.2255533 -13212693.39942641 0 0 0 0 0 84624695.78379419 -25188013.00128448 -25188013.00128448 -13481290.09896089 0 0 0 0 0 86714741.70522092 -24596565.77079295 -24596565.77079295 -13727572.83354723 0 0 0 0 0 88675871.85792498 -23947353.93055815 -23947353.93055815 -13926571.68014963 0 0 0 0 0 90521154.87118226 -23263410.40091078 -23263410.40091078 -14080545.18474208 0 0 0 0 0 92186184.68392929 -22551012.95674142 -22551012.95674142 -14170327.24612619 0 0 0 0 0 94002167.4659602 -21853198.26791846 -21853198.26791846 -13440153.25383553 0 0 0 0 0 93635363.78392412 -21424209.99589564 -21424209.99589564 -13824164.91395739 0 0 0 0 0 95114210.06447847 -20700628.11366286 -20700628.11366286 -13887232.94135037 0 0 0 0 0 96429724.17937022 -19730173.69205813 -19730173.69205813 -12765313.99927003 0 0 0 0 0 97652244.75399624 -19063868.33968149 -19063868.33968149 -12822926.51429379 0 0 0 0 0 98506862.08867234 -18090067.66573541 -18090067.66573541 -12454010.37228911 0 0 0 0 0 97143840.06453089 -18634750.4145685 -18634750.4145685 -13083856.83675383 0 0 0 0 0 99556929.42413694 -17439907.25334762 -17439907.25334762 -12477406.29736221 0 0 0 0 0 100533936.8945774 -16786054.10053494 -16786054.10053494 -12473255.27146822 0 0 0 0 0 101456209.8359904 -16123002.30645001 -16123002.30645001 -12442101.50434454 0 0 0 0 0 102295174.1990943 -15473502.85590659 -15473502.85590659 -12401526.53097101 0 0 0 0 0 102667932.7961696 -14672297.36841174 -14672297.36841174 -12002906.24724364 0 0 0 0 0 101650745.2505261 -15082829.33328007 -15082829.33328007 -12515192.44063354 0 0 0 0 0 103352032.2211836 -14061069.7795122 -14061069.7795122 -11926499.18533036 0 0 0 0 0 103973114.4232746 -13474009.11374064 -13474009.11374064 -11842290.46860534 0 0 0 0 0 104547888.8243343 -12887803.86708248 -12887803.86708248 -11729327.47716268 0 0 0 0 0 105069383.1733319 -12318130.31259422 -12318130.31259422 -11608893.83015187 0 0 0 0 0 105538238.6745382 -11765820.30899434 -11765820.30899434 -11478437.22861406 0 0 0 0 0 104898714.9235173 -11447211.2163521 -11447211.2163521 -11434855.94287729 0 0 0 0 0 105947758.6582983 -10659458.91322558 -10659458.91322558 -10933335.81818236 0 0 0 0 0 105329957.1139059 -10919900.15047735 -10919900.15047735 -11271384.20578262 0 0 0 0 0 106297176.3161519 -10163212.84513643 -10163212.84513643 -10781694.65800466 0 0 0 0 0 106611044.1341717 -9681583.829355314 -9681583.829355314 -10622125.15946101 0 0 0 0 0 106892112.0416993 -9214787.481657201 -9214787.481657201 -10455616.59551154 0 0 0 0 0 107142544.6273264 -8762819.119784929 -8762819.119784929 -10283095.21223108 0 0 0 0 0 106994938.8983221 -8340894.590669385 -8340894.590669385 -9920713.078941323 0 0 0 0 0 106569562.2829622 -8522454.802370125 -8522454.802370125 -10162014.60234029 0 0 0 0 0 107195434.0856975 -7929127.088150347 -7929127.088150347 -9749551.431179876 0 0 0 0 0 107371748.8846073 -7531423.268156795 -7531423.268156795 -9574828.477851486 0 0 0 0 0 107524928.9578736 -7148006.299465981 -7148006.299465981 -9397317.125438591 0 0 0 0 0 107657070.1890458 -6779026.842480678 -6779026.842480678 -9217695.681654809 0 0 0 0 0 107769545.491578 -6423650.720391169 -6423650.720391169 -9036033.755166791 0 0 0 0 0 107389227.1583499 -5918670.836800531 -5918670.836800531 -8686520.699283874 0 0 0 0 0 107865629.7778407 -6080765.864121236 -6080765.864121236 -8851847.987997929 0 0 0 0 0 107631589.7623679 -5815184.1121579 -5815184.1121579 -8548861.569684841 0 0 0 0 0 107700566.7958846 -5505789.237005369 -5505789.237005369 -8372511.036425915 0 0 0 0 0 107745295.2914763 -5214941.888166548 -5214941.888166548 -8208091.809979665 0 0 0 0 0 107795901.4627805 -4925075.911622096 -4925075.911622096 -8034369.739995328 0 0 0 0 0 107820231.5669681 -4652973.201864055 -4652973.201864055 -7857357.160750563 0 0 0 0 0 107850243.2781164 -4384396.283971372 -4384396.283971372 -7675158.682649079 0 0 0 0 0 107463639.399817 -4269175.584960317 -4269175.584960317 -7486447.011349732 0 0 0 0 0 107574036.853916 -4227240.749407102 -4227240.749407102 -7438484.518594473 0 0 0 0 0 107593700.7756251 -3979516.906289725 -3979516.906289725 -7257053.486825957 0 0 0 0 0 107585433.2133806 -3748240.627698306 -3748240.627698306 -7102404.863224102 0 0 0 0 0 107577997.4546124 -3533342.519979188 -3533342.519979188 -6940254.106268673 0 0 0 0 0 107237949.9820402 -3447523.780795354 -3447523.780795354 -6767046.118367949 0 0 0 0 0 107334803.5765152 -3407879.338526765 -3407879.338526765 -6718624.611737236 0 0 0 0 0 107321477.4581056 -3205174.868943041 -3205174.868943041 -6565312.320460788 0 0 0 0 0 107301977.6863828 -3010700.580054376 -3010700.580054376 -6413752.962528029 0 0 0 0 0 107276751.6830465 -2824211.252295308 -2824211.252295308 -6264044.910026501 0 0 0 0 0 107246348.0513599 -2645450.857590019 -2645450.857590019 -6116257.135404957 0 0 0 0 0 107210900.975127 -2474367.370050829 -2474367.370050829 -5970662.042237221 0 0 0 0 0 107170489.278999 -2310601.244067421 -2310601.244067421 -5826782.365378674 0 0 0 0 0 107125734.8325428 -2154543.224486471 -2154543.224486471 -5684369.329682874 0 0 0 0 0 106905529.9732317 -2093846.668904243 -2093846.668904243 -5527410.32608561 0 0 0 0 0 106869601.9408179 -2104573.18708094 -2104573.18708094 -5530642.47764001 0 0 0 0 0 106833260.5625634 -1950829.336391639 -1950829.336391639 -5399134.032294045 0 0 0 0 0 106616989.4792862 -1904614.296440374 -1904614.296440374 -5345639.764723299 0 0 0 0 0 106603430.8261672 -1820121.350729384 -1820121.350729384 -5231051.91072163 0 0 0 0 0 106512470.5878338 -1727801.189097726 -1727801.189097726 -5116866.295006102 0 0 0 0 0 96705565.83192141 -20078061.77524491 -20078061.77524491 -13201598.36290637 0 0 0 0 0 7327802.454112139 -590070.6989642476 -590070.6989642476 -18923223.41914313 0 0 0 0 0 8576994.015438389 -2625891.781301145 -2625891.781301145 -16944621.68144067 0 0 0 0 0 9706690.537056174 -4537453.121112358 -4537453.121112358 -15814962.89896492 0 0 0 0 0 11190939.42615745 -6839977.521521053 -6839977.521521053 -14875529.52829409 0 0 0 0 0 16104991.08506601 -10006870.86550488 -10006870.86550488 -11738131.4963878 0 0 0 0 0 16033010.90081445 -10320391.61859104 -10320391.61859104 -12758691.96558575 0 0 0 0 0 18637383.83270754 -12329976.74969903 -12329976.74969903 -11331688.27891095 0 0 0 0 0 21444904.75714606 -14600782.63247294 -14600782.63247294 -10885695.84094432 0 0 0 0 0 24513652.55535471 -16730524.97390759 -16730524.97390759 -10601740.52373343 0 0 0 0 0 27811417.27697472 -18723631.48534052 -18723631.48534052 -10405117.59031311 0 0 0 0 0 31299873.65465502 -20556751.35625548 -20556751.35625548 -10303099.39113563 0 0 0 0 0 34936449.55754647 -22216503.58251168 -22216503.58251168 -10293094.13512308 0 0 0 0 0 38679519.94858241 -23692422.300808 -23692422.300808 -10368377.52028556 0 0 0 0 0 42494935.77438443 -24978574.23675511 -24978574.23675511 -10520804.44237587 0 0 0 0 0 45871660.8751495 -26681457.20159337 -26681457.20159337 -10438321.88178561 0 0 0 0 0 48374773.29275577 -25826372.11867622 -25826372.11867622 -9841868.155771485 0 0 0 0 0 52044033.10144525 -26648359.93355745 -26648359.93355745 -10185807.12542044 0 0 0 0 0 55681476.84450189 -27291874.11310744 -27291874.11310744 -10560542.15056011 0 0 0 0 0 59267401.30613447 -27765454.7857861 -27765454.7857861 -10959394.14175458 0 0 0 0 0 64010477.28841612 -27546281.89795976 -27546281.89795976 -10732105.13464133 0 0 0 0 0 61305377.3474461 -28486885.99412773 -28486885.99412773 -11442722.27724412 0 0 0 0 0 67251537.6273182 -27672398.02320269 -27672398.02320269 -11167463.04619012 0 0 0 0 0 70384818.91645032 -27666998.94805891 -27666998.94805891 -11597294.79664964 0 0 0 0 0 73402578.70523261 -27541050.21148698 -27541050.21148698 -12014540.48590179 0 0 0 0 0 76297222.52737118 -27303297.53870263 -27303297.53870263 -12410293.18488088 0 0 0 0 0 79070318.07754713 -26959974.95498832 -26959974.95498832 -12778234.77516695 0 0 0 0 0 81729797.78921595 -26530729.69932654 -26530729.69932654 -13123791.99978637 0 0 0 0 0 82103861.57945254 -26327487.90037007 -26327487.90037007 -13725321.03640755 0 0 0 0 0 84444889.41739632 -25462504.59453847 -25462504.59453847 -12917489.76323971 0 0 0 0 0 86656540.19141437 -24911350.20271067 -24911350.20271067 -13196947.8327312 0 0 0 0 0 88744790.24531551 -24308866.32722202 -24308866.32722202 -13426512.84535991 0 0 0 0 0 90715691.17178468 -23662938.62983464 -23662938.62983464 -13633253.98246204 0 0 0 0 0 92545765.42629106 -22988072.16172703 -22988072.16172703 -13810490.2736455 0 0 0 0 0 94252331.44631845 -22273652.0318373 -22273652.0318373 -13930601.37063091 0 0 0 0 0 93794766.46044089 -21835039.37912007 -21835039.37912007 -14287205.09658771 0 0 0 0 0 95570166.22827058 -21152494.05677503 -21152494.05677503 -13547601.29374664 0 0 0 0 0 96989236.64904703 -20427296.60060344 -20427296.60060344 -13620783.02862155 0 0 0 0 0 96198075.96448642 -19637316.73131534 -19637316.73131534 -13471952.59215431 0 0 0 0 0 97412867.08404894 -18944132.62018129 -18944132.62018129 -13483755.20585467 0 0 0 0 0 98265808.53948222 -17958247.15740664 -17958247.15740664 -13083197.66309628 0 0 0 0 0 98804301.31743398 -18390832.14778712 -18390832.14778712 -12849185.70799104 0 0 0 0 0 99306805.83429039 -17280873.27480421 -17280873.27480421 -13057289.65672507 0 0 0 0 0 100272178.4395769 -16602063.13093248 -16602063.13093248 -13013794.19638271 0 0 0 0 0 101190890.9632044 -15929932.15897534 -15929932.15897534 -12946342.04876795 0 0 0 0 0 102035577.0590446 -15257642.37935766 -15257642.37935766 -12848641.89205764 0 0 0 0 0 102411752.561356 -14447978.44510986 -14447978.44510986 -12408157.07423637 0 0 0 0 0 103058290.1444004 -14841114.55334152 -14841114.55334152 -12333190.94518222 0 0 0 0 0 103100707.151524 -13833753.45821673 -13833753.45821673 -12292888.74059312 0 0 0 0 0 103721818.3593881 -13228753.08321596 -13228753.08321596 -12160570.97730518 0 0 0 0 0 104298088.2304706 -12639803.16436755 -12639803.16436755 -12016209.17841544 0 0 0 0 0 104823895.6005944 -12064885.66957574 -12064885.66957574 -11858263.73307779 0 0 0 0 0 105299075.6621182 -11505981.19803136 -11505981.19803136 -11687998.33574375 0 0 0 0 0 105962961.0184091 -11227451.33733772 -11227451.33733772 -11332418.72415022 0 0 0 0 0 105721743.596002 -10406286.91291787 -10406286.91291787 -11098445.43015519 0 0 0 0 0 106349238.6182737 -10701542.28502765 -10701542.28502765 -11176706.4093269 0 0 0 0 0 106076109.6570781 -9907920.505272783 -9907920.505272783 -10918012.94731448 0 0 0 0 0 106395334.4161285 -9425266.103244644 -9425266.103244644 -10731443.0463537 0 0 0 0 0 106681948.0955743 -8958143.438059779 -8958143.438059779 -10539495.34176661 0 0 0 0 0 106938073.0553942 -8506686.388599018 -8506686.388599018 -10343189.00511432 0 0 0 0 0 106801585.1830043 -8097307.047339997 -8097307.047339997 -9973307.362024019 0 0 0 0 0 107364568.1579726 -8325724.092839639 -8325724.092839639 -10105406.76363115 0 0 0 0 0 107007674.9232827 -7686886.888319084 -7686886.888319084 -9781620.242273197 0 0 0 0 0 107189868.6923961 -7291105.986794373 -7291105.986794373 -9587454.808329413 0 0 0 0 0 107349701.375162 -6909920.098317976 -6909920.098317976 -9390960.015210994 0 0 0 0 0 107487900.0761236 -6543392.892543023 -6543392.892543023 -9193997.517173573 0 0 0 0 0 107606627.5291618 -6190649.138304413 -6190649.138304413 -8996226.225594649 0 0 0 0 0 107945436.7731711 -5750996.165303666 -5750996.165303666 -8667488.342551649 0 0 0 0 0 107707397.4584486 -5851708.863266245 -5851708.863266245 -8799123.66790423 0 0 0 0 0 107482391.4103189 -5599107.664371772 -5599107.664371772 -8497041.627650455 0 0 0 0 0 107562069.4137924 -5290384.699516853 -5290384.699516853 -8308174.738374051 0 0 0 0 0 107627930.2324103 -4991447.798511242 -4991447.798511242 -8120818.894808456 0 0 0 0 0 107677111.2254909 -4711652.610641309 -4711652.610641309 -7933228.613963486 0 0 0 0 0 107720512.1719677 -4437558.475186655 -4437558.475186655 -7747398.5426935 0 0 0 0 0 107731084.711733 -4177023.889796982 -4177023.889796982 -7559780.755340399 0 0 0 0 0 107849532.5472417 -4131611.239449715 -4131611.239449715 -7511691.948703946 0 0 0 0 0 107471233.8040597 -4031769.478616534 -4031769.478616534 -7324198.227506522 0 0 0 0 0 107485792.5430554 -3792106.029547193 -3792106.029547193 -7160623.551142152 0 0 0 0 0 107502789.6735978 -3558691.670830822 -3558691.670830822 -6957694.214999323 0 0 0 0 0 107478460.7796957 -3355858.663226764 -3355858.663226764 -6813432.901354367 0 0 0 0 0 107565919.992677 -3321307.679440184 -3321307.679440184 -6774502.030039543 0 0 0 0 0 107235298.9934309 -3239866.419228716 -3239866.419228716 -6606143.862009385 0 0 0 0 0 107225845.1734209 -3040727.254669131 -3040727.254669131 -6447414.928069674 0 0 0 0 0 107210107.779289 -2849827.207448454 -2849827.207448454 -6290931.240055885 0 0 0 0 0 107188599.3255529 -2666929.397710084 -2666929.397710084 -6136768.910385093 0 0 0 0 0 107161789.7220879 -2491821.691241179 -2491821.691241179 -5984952.911047713 0 0 0 0 0 107129980.59132 -2324236.215134786 -2324236.215134786 -5835600.360684969 0 0 0 0 0 107093388.9793951 -2164517.569024406 -2164517.569024406 -5687668.386679228 0 0 0 0 0 107052895.9759686 -2015472.606876528 -2015472.606876528 -5539327.262134568 0 0 0 0 0 106833070.4261486 -1947443.674299476 -1947443.674299476 -5387631.622709458 0 0 0 0 0 107096726.3452931 -2002667.057557559 -2002667.057557559 -5540396.101676993 0 0 0 0 0 106859476.257873 -1794427.798043047 -1794427.798043047 -5176194.385298467 0 0 0 0 0 106771135.6297034 -1739941.249678943 -1739941.249678943 -5105965.011684889 0 0 0 0 0 106669191.6320866 -1650773.700383546 -1650773.700383546 -4994196.569798937 0 0 0 0 0 96470072.47430332 -19978520.30792832 -19978520.30792832 -13904079.03361876 0 0 0 0 0 5919191.116358448 -1729439.07865989 -1729439.07865989 -20859236.14070968 0 0 0 0 0 6947996.335200937 -3548697.638679623 -3548697.638679623 -18717327.2366533 0 0 0 0 0 9488605.824265163 -4980623.652446092 -4980623.652446092 -17318525.91421635 0 0 0 0 0 11074985.50154098 -7216367.372038247 -7216367.372038247 -16358770.14377242 0 0 0 0 0 13123331.80442627 -9628946.905787893 -9628946.905787893 -15456913.63990672 0 0 0 0 0 18066104.29151438 -12709893.85773144 -12709893.85773144 -12177918.26708594 0 0 0 0 0 13225344.9069768 -9261547.467931524 -9261547.467931524 -14150119.38963769 0 0 0 0 0 20578293.82002516 -15054180.58572358 -15054180.58572358 -11700738.84893685 0 0 0 0 0 23316633.7261443 -17254891.9501939 -17254891.9501939 -11333484.75073503 0 0 0 0 0 26326588.09471175 -19313631.72882762 -19313631.72882762 -11079062.29830281 0 0 0 0 0 29544923.85853033 -21211727.16615408 -21211727.16615408 -10936444.30187581 0 0 0 0 0 32933656.3871383 -22934010.68526366 -22934010.68526366 -10900719.77983438 0 0 0 0 0 36458748.35541905 -24468492.67853829 -24468492.67853829 -10965091.23049024 0 0 0 0 0 40084694.46224532 -25808003.19603197 -25808003.19603197 -11118214.30388538 0 0 0 0 0 43775429.43991202 -26950135.63446949 -26950135.63446949 -11348217.387432 0 0 0 0 0 46342602.10992803 -26071928.76974688 -26071928.76974688 -10739781.82398625 0 0 0 0 0 49423466.78125738 -27543431.15956602 -27543431.15956602 -10808270.91751232 0 0 0 0 0 52972157.62742923 -28219542.61525582 -28219542.61525582 -11211099.37755655 0 0 0 0 0 56494502.4816014 -28718316.53271467 -28718316.53271467 -11640708.1045358 0 0 0 0 0 59967355.77234697 -29048336.8705982 -29048336.8705982 -12083092.57963039 0 0 0 0 0 64528004.41556428 -28624148.76723781 -28624148.76723781 -11908216.19317698 0 0 0 0 0 62775964.23744595 -28075155.7339101 -28075155.7339101 -11369951.35815251 0 0 0 0 0 67671213.42518018 -28623531.75354103 -28623531.75354103 -12363742.38334334 0 0 0 0 0 70719514.68532695 -28494637.42588782 -28494637.42588782 -12798843.43421583 0 0 0 0 0 73656049.86369838 -28247833.39461212 -28247833.39461212 -13208709.09168853 0 0 0 0 0 76478525.27959584 -27895305.66298361 -27895305.66298361 -13588508.1902036 0 0 0 0 0 79201946.675439 -27451599.54912051 -27451599.54912051 -13942534.34830366 0 0 0 0 0 81775271.50783767 -26920139.38974786 -26920139.38974786 -14245272.40569098 0 0 0 0 0 84211507.33009867 -26018804.44805346 -26018804.44805346 -13430649.10266564 0 0 0 0 0 84418794.89665173 -25754132.25613707 -25754132.25613707 -13990636.46936345 0 0 0 0 0 86584139.54128227 -25127447.91352502 -25127447.91352502 -14221713.2706593 0 0 0 0 0 88627515.54114638 -24452953.41199354 -24452953.41199354 -14422201.31919414 0 0 0 0 0 90560987.11317816 -23741413.38913628 -23741413.38913628 -14575233.56184676 0 0 0 0 0 92347837.41885287 -22996425.17666798 -22996425.17666798 -14684603.24917046 0 0 0 0 0 94019645.36654516 -22221199.05993405 -22221199.05993405 -14740934.6985669 0 0 0 0 0 95829832.61085171 -21537318.92899317 -21537318.92899317 -14005895.33863126 0 0 0 0 0 95330849.49608833 -21069539.12919467 -21069539.12919467 -14320640.31720069 0 0 0 0 0 96741949.34439166 -20318881.94172704 -20318881.94172704 -14352549.97176869 0 0 0 0 0 97964455.11407228 -19384386.73409404 -19384386.73409404 -13245890.9974362 0 0 0 0 0 99136526.58233835 -18687835.32452105 -18687835.32452105 -13263948.4197378 0 0 0 0 0 99884219.3246377 -17713861.85753652 -17713861.85753652 -12862309.75438743 0 0 0 0 0 98553682.72831436 -18246289.21272492 -18246289.21272492 -13479668.68932041 0 0 0 0 0 100883658.9506308 -17034605.74869128 -17034605.74869128 -12847721.86913885 0 0 0 0 0 101817415.1653473 -16352140.53002218 -16352140.53002218 -12805105.0417194 0 0 0 0 0 102681061.0042553 -15675884.17954907 -15675884.17954907 -12744512.66790863 0 0 0 0 0 103467133.4114001 -15003210.43237843 -15003210.43237843 -12670740.0772558 0 0 0 0 0 103751116.8002281 -14210918.9606225 -14210918.9606225 -12249627.14358758 0 0 0 0 0 102791557.9376089 -14604762.4623191 -14604762.4623191 -12732805.3678884 0 0 0 0 0 104383143.6009788 -13597777.56389484 -13597777.56389484 -12147059.63315466 0 0 0 0 0 104961792.5593112 -12993325.92349563 -12993325.92349563 -12025079.4263691 0 0 0 0 0 105486664.0703786 -12405651.28336107 -12405651.28336107 -11890780.94158904 0 0 0 0 0 105960092.6314332 -11832910.44521181 -11832910.44521181 -11745458.78860505 0 0 0 0 0 106384939.4949796 -11276761.48897368 -11276761.48897368 -11589310.41278655 0 0 0 0 0 105726289.2589227 -10962865.5250113 -10962865.5250113 -11512337.5376469 0 0 0 0 0 106696794.1788575 -10190274.33609592 -10190274.33609592 -11012232.73479999 0 0 0 0 0 106117066.694349 -10433817.03283375 -10433817.03283375 -11326302.22916755 0 0 0 0 0 107008060.1579174 -9694507.352689257 -9694507.352689257 -10840325.35397829 0 0 0 0 0 107285733.4150377 -9214583.764730856 -9214583.764730856 -10661833.51736738 0 0 0 0 0 107531585.3790646 -8750379.821547026 -8750379.821547026 -10477631.66519354 0 0 0 0 0 107748234.4302214 -8302026.951531712 -8302026.951531712 -10288507.09710836 0 0 0 0 0 107559904.6179472 -7903600.017870331 -7903600.017870331 -9923617.561813723 0 0 0 0 0 107165809.3097318 -8070792.76916044 -8070792.76916044 -10143278.92373309 0 0 0 0 0 107730435.6821813 -7496255.087216845 -7496255.087216845 -9738207.594351241 0 0 0 0 0 107877952.6173922 -7103715.494306608 -7103715.494306608 -9550070.565237561 0 0 0 0 0 108003190.4705952 -6726272.737500751 -6726272.737500751 -9360600.612743633 0 0 0 0 0 108109367.8810935 -6363241.054712743 -6363241.054712743 -9168884.991436904 0 0 0 0 0 108197247.9874111 -6014247.911975085 -6014247.911975085 -8976373.55536267 0 0 0 0 0 107792578.0715158 -5525691.148264898 -5525691.148264898 -8601620.675828177 0 0 0 0 0 108269055.2336058 -5678644.500344882 -5678644.500344882 -8782684.034459718 0 0 0 0 0 108008721.2171603 -5434486.981065115 -5434486.981065115 -8483059.281143758 0 0 0 0 0 108057352.6595789 -5129773.114299813 -5129773.114299813 -8298911.117452215 0 0 0 0 0 108096595.1190023 -4834539.339114318 -4834539.339114318 -8115405.888701086 0 0 0 0 0 108122110.6888888 -4555747.609611417 -4555747.609611417 -7931806.42756214 0 0 0 0 0 108137798.7848944 -4285926.326167517 -4285926.326167517 -7750521.358460548 0 0 0 0 0 108135252.0224627 -4033754.54987197 -4033754.54987197 -7570873.790158946 0 0 0 0 0 107747439.5554946 -3931426.831334071 -3931426.831334071 -7381141.164214318 0 0 0 0 0 107855475.4266407 -3887040.272117166 -3887040.272117166 -7329121.68971762 0 0 0 0 0 107860955.4094784 -3644885.646484196 -3644885.646484196 -7149351.678031165 0 0 0 0 0 107816545.6968141 -3434908.221304798 -3434908.221304798 -7011481.458690098 0 0 0 0 0 107799680.1351765 -3227102.189650145 -3227102.189650145 -6829405.587919154 0 0 0 0 0 107465715.5213607 -3148308.34791234 -3148308.34791234 -6649735.623113636 0 0 0 0 0 107546407.5027312 -3116851.326480311 -3116851.326480311 -6615443.131168025 0 0 0 0 0 107520758.7173805 -2920825.265451614 -2920825.265451614 -6458468.540464962 0 0 0 0 0 107489437.5202048 -2732991.876382472 -2732991.876382472 -6303633.677881156 0 0 0 0 0 107452964.4057419 -2553108.325398564 -2553108.325398564 -6151031.45381207 0 0 0 0 0 107411737.6006421 -2380986.528343142 -2380986.528343142 -6000788.752139261 0 0 0 0 0 107366265.029114 -2216331.495853928 -2216331.495853928 -5852951.068658999 0 0 0 0 0 107314982.5237444 -2058957.791436468 -2058957.791436468 -5707607.876993563 0 0 0 0 0 107257093.3685132 -1911939.329801487 -1911939.329801487 -5567231.478848916 0 0 0 0 0 107063473.5545899 -1830814.854179627 -1830814.854179627 -5382174.293856712 0 0 0 0 0 106994239.4276233 -1867191.924947627 -1867191.924947627 -5431217.053548249 0 0 0 0 0 106862775.099676 -1734833.298229025 -1734833.298229025 -5295800.728962576 0 0 0 0 0 106747523.8715895 -1680356.141570309 -1680356.141570309 -5218707.486146471 0 0 0 0 0 106677312.1682384 -1590041.377019721 -1590041.377019721 -5082074.778676737 0 0 0 0 0 98305547.33120497 -19705229.82488475 -19705229.82488475 -13673182.5608563 0 0 0 0 0 4655855.770283849 -394617.2700924518 -394617.2700924518 -22778164.52206171 0 0 0 0 0 8136460.206136472 -3648653.070411863 -3648653.070411863 -20378907.93694748 0 0 0 0 0 6678079.953446994 -3922626.141518926 -3922626.141518926 -18876870.76341795 0 0 0 0 0 8414317.83908922 -6054988.360035842 -6054988.360035842 -17871176.50273396 0 0 0 0 0 10300323.07132854 -8388607.001826603 -8388607.001826603 -16975723.51745301 0 0 0 0 0 15703770.0304033 -11690768.00378975 -11690768.00378975 -13435809.74715039 0 0 0 0 0 15244599.12599522 -12127767.99449565 -12127767.99449565 -14628263.33179527 0 0 0 0 0 18512508.24091274 -14015810.97932526 -14015810.97932526 -12900846.49356131 0 0 0 0 0 21621116.32559483 -16247138.2063939 -16247138.2063939 -12424408.97092284 0 0 0 0 0 24984878.16400097 -18341287.48778997 -18341287.48778997 -12061168.85319135 0 0 0 0 0 28564348.10818731 -20284676.23565317 -20284676.23565317 -11801131.57687424 0 0 0 0 0 32316426.35009798 -22057056.37382048 -22057056.37382048 -11644856.79638534 0 0 0 0 0 36200696.29518621 -23643978.43188175 -23643978.43188175 -11588076.87496166 0 0 0 0 0 40171348.02284913 -25036351.08972076 -25036351.08972076 -11622560.95096063 0 0 0 0 0 44190878.13228066 -26228714.32573309 -26228714.32573309 -11738675.95905042 0 0 0 0 0 47494889.57020435 -27892911.75929689 -27892911.75929689 -11640453.04160404 0 0 0 0 0 50187652.8426578 -26971968.61486351 -26971968.61486351 -11013054.33769863 0 0 0 0 0 54006065.51401019 -27684137.20984178 -27684137.20984178 -11330677.82719831 0 0 0 0 0 57773150.34869015 -28214401.81512819 -28214401.81512819 -11678557.41226629 0 0 0 0 0 61461730.95807984 -28571645.20265479 -28571645.20265479 -12049167.53392189 0 0 0 0 0 66188003.89402919 -28232215.39054361 -28232215.39054361 -11782886.23266301 0 0 0 0 0 63352710.18478901 -29215364.62482382 -29215364.62482382 -12527784.66064948 0 0 0 0 0 69482792.5044798 -28244555.47574889 -28244555.47574889 -12190717.92374067 0 0 0 0 0 72651667.75820971 -28127718.58378853 -28127718.58378853 -12588184.72377985 0 0 0 0 0 75686686.65218297 -27891461.56858879 -27891461.56858879 -12967973.87866488 0 0 0 0 0 78580916.29939149 -27546398.54025124 -27546398.54025124 -13321666.36337958 0 0 0 0 0 81339510.19181858 -27104555.31348373 -27104555.31348373 -13648607.64726902 0 0 0 0 0 83957744.03927064 -26578204.73901529 -26578204.73901529 -13953238.22052575 0 0 0 0 0 84203001.63972552 -26323066.18952743 -26323066.18952743 -14506760.26629718 0 0 0 0 0 86534001.7028859 -25450280.70340602 -25450280.70340602 -13704579.91708666 0 0 0 0 0 88717343.04243796 -24819907.21641699 -24819907.21641699 -13925101.56167958 0 0 0 0 0 90774725.76063524 -24143560.16315092 -24143560.16315092 -14114694.84905619 0 0 0 0 0 92695376.39261876 -23435571.50876315 -23435571.50876315 -14280238.73234774 0 0 0 0 0 94473652.52325112 -22686981.21059683 -22686981.21059683 -14395641.08034595 0 0 0 0 0 96129752.245051 -21906501.56648122 -21906501.56648122 -14469409.53571009 0 0 0 0 0 95576852.07689641 -21431222.69358357 -21431222.69358357 -14760136.13242849 0 0 0 0 0 97282492.29274884 -20781851.27405363 -20781851.27405363 -14060343.46660277 0 0 0 0 0 98653235.59525299 -20020459.53307414 -20020459.53307414 -14091200.02040733 0 0 0 0 0 97718051.69411162 -19251705.38467117 -19251705.38467117 -13898555.19202514 0 0 0 0 0 98879493.53529555 -18523908.79783309 -18523908.79783309 -13871065.74184151 0 0 0 0 0 99623967.86809319 -17540756.64258423 -17540756.64258423 -13440436.66056654 0 0 0 0 0 100234075.6360069 -17984429.28822349 -17984429.28822349 -13251854.29779525 0 0 0 0 0 100615119.3487353 -16836302.09782485 -16836302.09782485 -13379809.31169889 0 0 0 0 0 101542322.0146175 -16136941.62565946 -16136941.62565946 -13301466.27661417 0 0 0 0 0 102398010.257272 -15437578.98082783 -15437578.98082783 -13193642.23254392 0 0 0 0 0 103194608.4919676 -14756246.88223524 -14756246.88223524 -13060292.72522256 0 0 0 0 0 103488665.3288584 -13966183.12774919 -13966183.12774919 -12602816.79513858 0 0 0 0 0 104170911.4781887 -14356509.33999327 -14356509.33999327 -12572304.39205715 0 0 0 0 0 104121203.5887506 -13340476.02073491 -13340476.02073491 -12457342.15486246 0 0 0 0 0 104704048.5133429 -12730152.48863999 -12730152.48863999 -12298067.42437115 0 0 0 0 0 105232111.1959319 -12135479.68463536 -12135479.68463536 -12127124.0450755 0 0 0 0 0 105711170.7145734 -11557201.4833979 -11557201.4833979 -11944218.67366579 0 0 0 0 0 106142572.5984987 -10995931.78206413 -10995931.78206413 -11751502.06012008 0 0 0 0 0 106769640.8211597 -10734580.47946498 -10734580.47946498 -11419044.33787659 0 0 0 0 0 106469352.8578756 -9921185.07158641 -9921185.07158641 -11133431.56635598 0 0 0 0 0 107114313.9334048 -10208231.93100681 -10208231.93100681 -11242292.06029402 0 0 0 0 0 106786020.8441768 -9425069.81524216 -9425069.81524216 -10934527.59304007 0 0 0 0 0 107069514.6305819 -8945121.170675196 -8945121.170675196 -10730174.23244435 0 0 0 0 0 107321538.1352763 -8481852.133863935 -8481852.133863935 -10521665.80501655 0 0 0 0 0 107544364.7075457 -8035108.749697289 -8035108.749697289 -10309988.3531389 0 0 0 0 0 107367234.8266814 -7650303.584754919 -7650303.584754919 -9940463.511976639 0 0 0 0 0 107937728.9006243 -7869401.717452884 -7869401.717452884 -10095336.24873031 0 0 0 0 0 107544016.3169831 -7245194.81801758 -7245194.81801758 -9735378.862010727 0 0 0 0 0 107697860.2680516 -6855374.198417356 -6855374.198417356 -9529009.241402335 0 0 0 0 0 107830441.7997968 -6480810.00651986 -6480810.00651986 -9321156.188644003 0 0 0 0 0 107942470.0465133 -6121152.345145126 -6121152.345145126 -9113767.2650901 0 0 0 0 0 108036506.3582611 -5775882.129857928 -5775882.129857928 -8906866.771119179 0 0 0 0 0 108325361.7172017 -5356344.337751997 -5356344.337751997 -8589320.577712923 0 0 0 0 0 108113716.3307396 -5444382.617327978 -5444382.617327978 -8700522.780876879 0 0 0 0 0 107860874.0254219 -5212152.442838524 -5212152.442838524 -8404630.448191419 0 0 0 0 0 107913943.4267259 -4909977.691480868 -4909977.691480868 -8209250.905159728 0 0 0 0 0 107961275.3039866 -4622262.022566745 -4622262.022566745 -8014772.811295712 0 0 0 0 0 107990088.2724365 -4345709.364732113 -4345709.364732113 -7821882.535163376 0 0 0 0 0 108013494.0113705 -4083017.820894194 -4083017.820894194 -7629621.912023636 0 0 0 0 0 108016849.7625619 -3828796.881048065 -3828796.881048065 -7440060.954052826 0 0 0 0 0 108128334.1832056 -3784687.644934533 -3784687.644934533 -7391747.899971346 0 0 0 0 0 107752635.4374684 -3691217.506636862 -3691217.506636862 -7207316.047708821 0 0 0 0 0 107755016.3255869 -3456436.962055643 -3456436.962055643 -7027811.553490559 0 0 0 0 0 107750814.6748021 -3240124.21664054 -3240124.21664054 -6828055.091027761 0 0 0 0 0 107704516.0908412 -3048273.564654462 -3048273.564654462 -6685465.777353932 0 0 0 0 0 107775674.8926058 -3022217.677231635 -3022217.677231635 -6661547.255669481 0 0 0 0 0 107450009.9860585 -2947687.111944843 -2947687.111944843 -6485722.506530269 0 0 0 0 0 107428182.4217389 -2755437.096182954 -2755437.096182954 -6324090.843239735 0 0 0 0 0 107400616.2003528 -2571413.446362162 -2571413.446362162 -6165119.319171506 0 0 0 0 0 107367890.2575261 -2395337.278497806 -2395337.278497806 -6008782.957806494 0 0 0 0 0 107330306.687217 -2226992.762704128 -2226992.762704128 -5855238.358514568 0 0 0 0 0 107288265.3746744 -2065805.432004758 -2065805.432004758 -5705197.322545842 0 0 0 0 0 107243431.4522801 -1913618.874608411 -1913618.874608411 -5557657.447734976 0 0 0 0 0 107197061.1017124 -1779685.681420865 -1779685.681420865 -5402972.678581655 0 0 0 0 0 106944522.3156421 -1741881.445229727 -1741881.445229727 -5320304.349663592 0 0 0 0 0 107252020.7328416 -1759845.62698813 -1759845.62698813 -5406966.85250456 0 0 0 0 0 107079302.2052377 -1631652.099738887 -1631652.099738887 -5147496.572896593 0 0 0 0 0 106961839.1518671 -1575004.528454273 -1575004.528454273 -5051350.948750906 0 0 0 0 0 106838080.7571681 -1510005.875393167 -1510005.875393167 -4951223.407982999 0 0 0 0 0 98045256.4098632 -19552034.98351049 -19552034.98351049 -14325841.8745415 0 0 0 0 0 3487245.960047143 -1711328.488090354 -1711328.488090354 -25222441.98184507 0 0 0 0 0 4935493.710902235 -3655677.627858043 -3655677.627858043 -23755175.61788048 0 0 0 0 0 4715942.992464165 -3194591.844078369 -3194591.844078369 -21383512.65565715 0 0 0 0 0 8589844.628896313 -6362333.946379725 -6362333.946379725 -19731127.19846436 0 0 0 0 0 10235070.09506087 -8831580.649222186 -8831580.649222186 -18603987.8702831 0 0 0 0 0 12360163.76020948 -11370312.11585181 -11370312.11585181 -17529921.86213675 0 0 0 0 0 17689374.32699154 -14509039.53655274 -14509039.53655274 -13916890.20089526 0 0 0 0 0 12746004.53794786 -10884278.57022033 -10884278.57022033 -16071028.08995993 0 0 0 0 0 20485237.69445581 -16798135.90495035 -16798135.90495035 -13325347.23013466 0 0 0 0 0 23535496.38358441 -18954045.19211835 -18954045.19211835 -12861586.67120084 0 0 0 0 0 26826488.15331468 -20958507.24600961 -20958507.24600961 -12526219.30893108 0 0 0 0 0 30316284.80603603 -22791499.43979065 -22791499.43979065 -12317132.10758139 0 0 0 0 0 33962270.82013043 -24437068.77298962 -24437068.77298962 -12225832.31165529 0 0 0 0 0 37723963.01007134 -25884211.35052101 -25884211.35052101 -12243743.70774321 0 0 0 0 0 41567688.58555134 -27127089.93048418 -27127089.93048418 -12358040.9237901 0 0 0 0 0 45451454.56775502 -28162141.49613495 -28162141.49613495 -12553167.4917457 0 0 0 0 0 48221250.01599467 -27219812.85890415 -27219812.85890415 -11924984.37051411 0 0 0 0 0 51208525.78526796 -28638462.73855421 -28638462.73855421 -11981756.49804987 0 0 0 0 0 54897260.07396565 -29196384.98876939 -29196384.98876939 -12359411.27915474 0 0 0 0 0 58539279.98736846 -29573904.00338026 -29573904.00338026 -12759436.35058094 0 0 0 0 0 62104474.73737332 -29779136.41585803 -29779136.41585803 -13169883.42335964 0 0 0 0 0 66653512.81114519 -29234887.37435507 -29234887.37435507 -12961796.37772129 0 0 0 0 0 65052036.45313423 -28763741.99929189 -28763741.99929189 -12429247.19008709 0 0 0 0 0 69849005.15167804 -29116051.68721218 -29116051.68721218 -13379837.85041274 0 0 0 0 0 72928312.24338636 -28871784.37668523 -28871784.37668523 -13774335.26675317 0 0 0 0 0 75880045.63176307 -28514332.06912336 -28514332.06912336 -14138846.63952692 0 0 0 0 0 78704375.80549805 -28058540.21348286 -28058540.21348286 -14475215.80302201 0 0 0 0 0 81417178.92610635 -27517158.48440548 -27517158.48440548 -14776774.59707178 0 0 0 0 0 83965044.10529025 -26893987.21344004 -26893987.21344004 -15029345.86582966 0 0 0 0 0 86401387.37577744 -25987601.40670659 -25987601.40670659 -14219486.04151305 0 0 0 0 0 86461903.96663271 -25664198.46236282 -25664198.46236282 -14726773.52148846 0 0 0 0 0 88597428.18217164 -24958382.80102359 -24958382.80102359 -14913396.63936161 0 0 0 0 0 90611907.87758318 -24213883.36394698 -24213883.36394698 -15065200.73062904 0 0 0 0 0 92486866.11510096 -23430151.87578965 -23430151.87578965 -15163190.02322197 0 0 0 0 0 94233245.51453143 -22620571.44785112 -22620571.44785112 -15220654.24609363 0 0 0 0 0 95880981.1380032 -21806184.46370021 -21806184.46370021 -15232217.63963353 0 0 0 0 0 97618447.32633217 -21133770.73224382 -21133770.73224382 -14541147.80795044 0 0 0 0 0 97024170.96748915 -20657597.57510011 -20657597.57510011 -14788670.1380222 0 0 0 0 0 98380360.21894692 -19859617.7024484 -19859617.7024484 -14766951.30102305 0 0 0 0 0 99513677.07365207 -18978308.08530757 -18978308.08530757 -13681713.14364332 0 0 0 0 0 100624830.8256338 -18246066.83763113 -18246066.83763113 -13668298.62073114 0 0 0 0 0 101255218.6938775 -17279297.18910576 -17279297.18910576 -13227938.02823539 0 0 0 0 0 99963989.05269277 -17796219.56653673 -17796219.56653673 -13828607.27034064 0 0 0 0 0 102203092.0992357 -16571476.7584539 -16571476.7584539 -13173256.23499352 0 0 0 0 0 103091260.6728906 -15867465.28897154 -15867465.28897154 -13096636.47893489 0 0 0 0 0 103894296.3214879 -15170161.06056101 -15170161.06056101 -13004374.29222415 0 0 0 0 0 104613991.0008073 -14492637.62017158 -14492637.62017158 -12900333.78814313 0 0 0 0 0 104811629.5267007 -13718076.29452729 -13718076.29452729 -12455473.33128049 0 0 0 0 0 103896982.7803813 -14093031.0146317 -14093031.0146317 -12914784.86264625 0 0 0 0 0 105395147.5801451 -13093346.75322669 -13093346.75322669 -12321121.82760615 0 0 0 0 0 105923873.4935225 -12484402.35142385 -12484402.35142385 -12173836.31629591 0 0 0 0 0 106400845.4909908 -11891627.2197722 -11891627.2197722 -12013050.75457564 0 0 0 0 0 106828143.5921529 -11316068.17119447 -11316068.17119447 -11842400.26830939 0 0 0 0 0 107209819.9039208 -10757488.3046866 -10757488.3046866 -11661597.26037483 0 0 0 0 0 106530842.5212741 -10451830.01587382 -10451830.01587382 -11552672.6433258 0 0 0 0 0 107421962.9673782 -9698506.709945058 -9698506.709945058 -11057577.25730915 0 0 0 0 0 106880705.1513589 -9924809.223667497 -9924809.223667497 -11346355.95783111 0 0 0 0 0 107695389.7881633 -9205330.650744446 -9205330.650744446 -10866484.72196731 0 0 0 0 0 107936122.3435981 -8728746.307462189 -8728746.307462189 -10670072.47125963 0 0 0 0 0 108146644.0691861 -8269013.903128206 -8269013.903128206 -10469057.28357555 0 0 0 0 0 108329497.0482745 -7825918.67686944 -7825918.67686944 -10264166.87622141 0 0 0 0 0 108102115.7276831 -7452356.182626535 -7452356.182626535 -9898909.046551213 0 0 0 0 0 107740115.5879963 -7604645.52277266 -7604645.52277266 -10095665.07078793 0 0 0 0 0 108242713.0562029 -7050917.080985458 -7050917.080985458 -9700187.459065605 0 0 0 0 0 108361614.4555202 -6664833.513477523 -6664833.513477523 -9499562.291853899 0 0 0 0 0 108459467.9210477 -6294476.703086304 -6294476.703086304 -9298538.482360171 0 0 0 0 0 108539419.1135629 -5938827.497549422 -5938827.497549422 -9096295.037794137 0 0 0 0 0 108603230.0971122 -5597423.861428948 -5597423.861428948 -8893487.987367107 0 0 0 0 0 108175205.4280827 -5126027.003564414 -5126027.003564414 -8494965.241416506 0 0 0 0 0 108651219.8341068 -5269829.780725655 -5269829.780725655 -8690923.205059173 0 0 0 0 0 108367020.349651 -5046709.095723881 -5046709.095723881 -8396026.318971323 0 0 0 0 0 108396980.0680313 -4748551.239076655 -4748551.239076655 -8203401.087109941 0 0 0 0 0 108414771.3552583 -4463997.126995587 -4463997.126995587 -8013818.648752072 0 0 0 0 0 108421646.5486681 -4191570.891447002 -4191570.891447002 -7823395.079552961 0 0 0 0 0 108416935.8576459 -3931773.095877429 -3931773.095877429 -7636099.302993753 0 0 0 0 0 108403615.8530342 -3682274.761679308 -3682274.761679308 -7448676.000177026 0 0 0 0 0 108017606.4971107 -3587570.978928467 -3587570.978928467 -7253896.884795377 0 0 0 0 0 108122617.1741194 -3545841.809960185 -3545841.809960185 -7209134.096084173 0 0 0 0 0 108102506.8364975 -3319610.762552389 -3319610.762552389 -7035599.575431196 0 0 0 0 0 108039978.9847808 -3121661.00668228 -3121661.00668228 -6893797.195311009 0 0 0 0 0 108007858.2317217 -2920460.943485222 -2920460.943485222 -6703428.001686613 0 0 0 0 0 107679070.2384604 -2848340.17331382 -2848340.17331382 -6518910.041334783 0 0 0 0 0 107744020.5879013 -2824954.926999387 -2824954.926999387 -6498865.601404553 0 0 0 0 0 107706234.787247 -2636018.205902771 -2636018.205902771 -6338822.053661736 0 0 0 0 0 107663515.1252418 -2455225.173775203 -2455225.173775203 -6181280.34229744 0 0 0 0 0 107616040.2719868 -2282361.603341226 -2282361.603341226 -6026402.951000207 0 0 0 0 0 107564207.6047408 -2117214.780972884 -2117214.780972884 -5874201.148760742 0 0 0 0 0 107509029.2680511 -1959703.892888014 -1959703.892888014 -5724890.349070991 0 0 0 0 0 107442740.0642405 -1814237.500836274 -1814237.500836274 -5584265.195128587 0 0 0 0 0 107314391.6721348 -1706351.576919135 -1706351.576919135 -5474540.715392143 0 0 0 0 0 107219245.1514743 -1615340.588793755 -1615340.588793755 -5270127.288000829 0 0 0 0 0 107129444.2208109 -1671834.479800971 -1671834.479800971 -5370690.219696108 0 0 0 0 0 107032005.922938 -1578290.2439166 -1578290.2439166 -5261546.608314275 0 0 0 0 0 106930640.7595457 -1516448.735558055 -1516448.735558055 -5159286.590177221 0 0 0 0 0 106836556.0024654 -1448020.874145242 -1448020.874145242 -5056552.962964484 0 0 0 0 0 99908344.73365171 -19260576.10305056 -19260576.10305056 -14105670.31858814 0 0 0 0 0 2425718.784785177 -179300.6152220157 -179300.6152220157 -27548959.80184159 0 0 0 0 0 4314876.181005404 -2277892.247338439 -2277892.247338439 -25433250.26430262 0 0 0 0 0 6569343.537478589 -4878679.879033456 -4878679.879033456 -23619738.51353772 0 0 0 0 0 5422916.624530781 -5285250.127057852 -5285250.127057852 -21103123.9798564 0 0 0 0 0 7398392.617843371 -7412932.720479251 -7412932.720479251 -20260520.44438382 0 0 0 0 0 9802224.812452585 -9927105.030198304 -9927105.030198304 -19125406.61326694 0 0 0 0 0 15534344.82823573 -13291647.05973233 -13291647.05973233 -15260223.10077621 0 0 0 0 0 14817441.16140979 -13823323.84397773 -13823323.84397773 -16539061.97931182 0 0 0 0 0 18652214.30586769 -15603578.74579772 -15603578.74579772 -14576287.24643707 0 0 0 0 0 22064187.38205504 -17802910.48063257 -17802910.48063257 -13996482.7455985 0 0 0 0 0 25721234.05419245 -19859009.43146903 -19859009.43146903 -13538158.1552331 0 0 0 0 0 29581636.21882677 -21750748.4683162 -21750748.4683162 -13200273.95273091 0 0 0 0 0 33594227.54893388 -23458982.41453031 -23458982.41453031 -12979063.27737379 0 0 0 0 0 37722527.0060102 -24970393.07066748 -24970393.07066748 -12866249.72285438 0 0 0 0 0 41915234.0786372 -26275715.49595239 -26275715.49595239 -12853464.39509379 0 0 0 0 0 46132658.45952007 -27371270.135405 -27371270.135405 -12928597.23125227 0 0 0 0 0 49338699.37141268 -28990724.20645203 -28990724.20645203 -12813471.88335874 0 0 0 0 0 52225044.74314529 -28011193.88943298 -28011193.88943298 -12166593.08878226 0 0 0 0 0 56183743.41362921 -28609705.69355853 -28609705.69355853 -12451701.13986661 0 0 0 0 0 60062068.34440321 -29022866.76068499 -29022866.76068499 -12770182.77280262 0 0 0 0 0 63837753.02098806 -29259406.87463207 -29259406.87463207 -13108945.10159453 0 0 0 0 0 68523586.31146082 -28802530.7031235 -28802530.7031235 -12810104.02316482 0 0 0 0 0 65575432.51284719 -29823870.75516928 -29823870.75516928 -13578876.87761066 0 0 0 0 0 71856190.04308893 -28700287.71627271 -28700287.71627271 -13186076.39739439 0 0 0 0 0 75042438.66069917 -28470016.50989209 -28470016.50989209 -13544928.14200291 0 0 0 0 0 78078841.75542173 -28123711.26842997 -28123711.26842997 -13882287.83998519 0 0 0 0 0 80966035.71734607 -27672465.74262383 -27672465.74262383 -14190281.46918138 0 0 0 0 0 83695436.10075493 -27138289.92082585 -27138289.92082585 -14478233.34476076 0 0 0 0 0 86263996.66506013 -26525044.79358087 -26525044.79358087 -14729830.6410398 0 0 0 0 0 86337594.64354868 -26205440.73090425 -26205440.73090425 -15239009.96707899 0 0 0 0 0 88691941.4379461 -25331681.18581314 -25331681.18581314 -14432306.08545508 0 0 0 0 0 90833080.06854552 -24625768.74046427 -24625768.74046427 -14612021.90449139 0 0 0 0 0 92834657.05461846 -23877241.42873846 -23877241.42873846 -14755000.01796328 0 0 0 0 0 94699690.06609501 -23093195.88369935 -23093195.88369935 -14861754.7404165 0 0 0 0 0 96422476.56228849 -22285980.70310403 -22285980.70310403 -14937309.6520588 0 0 0 0 0 97976043.84121211 -21480953.90337348 -21480953.90337348 -14985153.9871525 0 0 0 0 0 97356780.80063312 -20984045.33493487 -20984045.33493487 -15206659.4740663 0 0 0 0 0 99012280.3746715 -20336482.8847202 -20336482.8847202 -14527140.69031508 0 0 0 0 0 100316732.3152834 -19541187.90678304 -19541187.90678304 -14513401.42026722 0 0 0 0 0 99243618.63002047 -18796265.56648585 -18796265.56648585 -14290016.30786757 0 0 0 0 0 100353408.56896 -18036867.24595264 -18036867.24595264 -14209926.648153 0 0 0 0 0 100976492.6685194 -17064441.79742775 -17064441.79742775 -13750732.42023652 0 0 0 0 0 101658110.6617921 -17513211.78928858 -17513211.78928858 -13613897.57026736 0 0 0 0 0 101917990.7768267 -16340017.92098259 -16340017.92098259 -13657935.13605609 0 0 0 0 0 102796426.1926839 -15614635.3853245 -15614635.3853245 -13537934.53858617 0 0 0 0 0 103602399.9022232 -14903308.06865856 -14903308.06865856 -13391594.76621769 0 0 0 0 0 104329704.7102148 -14211825.52199269 -14211825.52199269 -13227371.13552849 0 0 0 0 0 104540311.7509721 -13444830.7751982 -13444830.7751982 -12754466.68450059 0 0 0 0 0 105262258.2522434 -13831428.11205251 -13831428.11205251 -12766340.46805763 0 0 0 0 0 105127308.8054622 -12812698.45871208 -12812698.45871208 -12580677.4966928 0 0 0 0 0 105660310.2124315 -12197712.95272272 -12197712.95272272 -12394564.16000466 0 0 0 0 0 106141937.4569294 -11599991.72970495 -11599991.72970495 -12197786.35200013 0 0 0 0 0 106575746.8598106 -11019959.83176323 -11019959.83176323 -11991166.30041786 0 0 0 0 0 106964996.6411452 -10459244.02507186 -10459244.02507186 -11775851.15892022 0 0 0 0 0 107550552.7115224 -10216457.73904371 -10216457.73904371 -11470794.06649863 0 0 0 0 0 107193543.8162502 -9415319.053581959 -9415319.053581959 -11134924.18635316 0 0 0 0 0 107853103.3950178 -9692832.333150052 -9692832.333150052 -11273219.95519867 0 0 0 0 0 107473076.4051191 -8922516.886049546 -8922516.886049546 -10917706.65724016 0 0 0 0 0 107720302.6780904 -8447324.452929465 -8447324.452929465 -10696683.35954068 0 0 0 0 0 107937577.10856 -7989610.322253852 -7989610.322253852 -10472599.64746463 0 0 0 0 0 108127026.659191 -7549193.836085261 -7549193.836085261 -10246560.98587609 0 0 0 0 0 107910870.1286469 -7190279.854102534 -7190279.854102534 -9879630.266793616 0 0 0 0 0 108486580.9586502 -7399323.329210667 -7399323.329210667 -10056431.0030727 0 0 0 0 0 108058315.4619388 -6791868.057997447 -6791868.057997447 -9662213.328314807 0 0 0 0 0 108183924.4349778 -6409309.609331216 -6409309.609331216 -9444340.344834035 0 0 0 0 0 108289788.0773743 -6042343.37378327 -6042343.37378327 -9226207.948348567 0 0 0 0 0 108375412.0116195 -5691302.483827206 -5691302.483827206 -9009725.045376291 0 0 0 0 0 108444694.6919443 -5354453.692962267 -5354453.692962267 -8794394.82348831 0 0 0 0 0 108684976.196212 -4955412.307756461 -4955412.307756461 -8488980.466481058 0 0 0 0 0 108498687.7484338 -5031093.017595833 -5031093.017595833 -8579847.767566597 0 0 0 0 0 108222118.3552707 -4820136.391664419 -4820136.391664419 -8290713.443792167 0 0 0 0 0 108257837.1721604 -4527336.189574581 -4527336.189574581 -8088648.88564779 0 0 0 0 0 108281486.226039 -4247637.596631174 -4247637.596631174 -7888277.007857026 0 0 0 0 0 108293991.6232972 -3980039.649788694 -3980039.649788694 -7689518.737771887 0 0 0 0 0 108294222.8072276 -3724416.517408988 -3724416.517408988 -7493152.515518431 0 0 0 0 0 108285889.6150797 -3479918.526216085 -3479918.526216085 -7300499.772032775 0 0 0 0 0 108379876.5829645 -3444783.121245727 -3444783.121245727 -7267419.553083019 0 0 0 0 0 108007613.9279772 -3356060.816512029 -3356060.816512029 -7072892.557915725 0 0 0 0 0 107986540.6069 -3135922.453981858 -3135922.453981858 -6892448.127915957 0 0 0 0 0 107972260.1280229 -2928164.013354355 -2928164.013354355 -6695186.501124886 0 0 0 0 0 107915306.8794095 -2741161.512457125 -2741161.512457125 -6544183.867902522 0 0 0 0 0 107971004.2109 -2722977.094879847 -2722977.094879847 -6534059.342054774 0 0 0 0 0 107650806.0814376 -2655008.005592762 -2655008.005592762 -6352211.137235451 0 0 0 0 0 107616869.1718981 -2470128.971452625 -2470128.971452625 -6188384.675618144 0 0 0 0 0 107577877.0067785 -2293317.636432325 -2293317.636432325 -6027426.19856185 0 0 0 0 0 107534241.8425336 -2124337.320031267 -2124337.320031267 -5869303.275682887 0 0 0 0 0 107486186.4664148 -1963239.618895576 -1963239.618895576 -5713858.447903685 0 0 0 0 0 107435384.8987293 -1810446.869072223 -1810446.869072223 -5561445.611264107 0 0 0 0 0 107389068.879288 -1661741.918580369 -1661741.918580369 -5392040.938286364 0 0 0 0 0 107382471.323669 -1543253.791422263 -1543253.791422263 -5252715.753635984 0 0 0 0 0 107160905.9115567 -1502717.858452465 -1502717.858452465 -5124061.075627344 0 0 0 0 0 107095557.5188853 -1429905.080119805 -1429905.080119805 -5018868.827786111 0 0 0 0 0 107001950.9715119 -1362964.900563619 -1362964.900563619 -4920057.444526086 0 0 0 0 0 99631345.73608947 -19063622.22408279 -19063622.22408279 -14699639.4042395 0 0 0 0 0 1155516.936532202 -1746798.254615787 -1746798.254615787 -30191823.69609401 0 0 0 0 0 2135640.172893123 -3730806.032939964 -3730806.032939964 -27727267.0669682 0 0 0 0 0 3160562.01297572 -5007322.680250032 -5007322.680250032 -24584309.1783172 0 0 0 0 0 7418343.785250286 -7982499.272280531 -7982499.272280531 -22447466.59735972 0 0 0 0 0 9461032.572060023 -10496754.05967964 -10496754.05967964 -20951313.3752031 0 0 0 0 0 11909969.94873767 -12967152.27363796 -12967152.27363796 -19643966.10796621 0 0 0 0 0 17590155.95068108 -16185346.51828434 -16185346.51828434 -15676082.73110537 0 0 0 0 0 12536683.95318314 -12381944.54085719 -12381944.54085719 -18064870.9026993 0 0 0 0 0 20675983.76687249 -18438504.40783445 -18438504.40783445 -14951645.64367467 0 0 0 0 0 24022683.17143527 -20551353.6843805 -20551353.6843805 -14376749.07018358 0 0 0 0 0 27596468.60391833 -22500723.72173917 -22500723.72173917 -13950025.0495229 0 0 0 0 0 31351026.36558149 -24266568.09341794 -24266568.09341794 -13666394.3209104 0 0 0 0 0 35246547.69303069 -25832471.71150073 -25832471.71150073 -13513575.53306893 0 0 0 0 0 39240501.82986961 -27189546.27556037 -27189546.27556037 -13482173.85306484 0 0 0 0 0 43291247.02518522 -28331255.34972551 -28331255.34972551 -13554032.2706173 0 0 0 0 0 47360025.33560549 -29256490.41023629 -29256490.41023629 -13712142.65350367 0 0 0 0 0 50335631.68135587 -28256204.78331065 -28256204.78331065 -13076703.69076316 0 0 0 0 0 53205561.04974387 -29618309.30605322 -29618309.30605322 -13124635.23924796 0 0 0 0 0 57027277.21124595 -30053984.75387408 -30053984.75387408 -13470203.04066057 0 0 0 0 0 60774783.96261559 -30305679.23662987 -30305679.23662987 -13836589.47948465 0 0 0 0 0 64425418.06923681 -30384661.37961119 -30384661.37961119 -14210660.7775417 0 0 0 0 0 68934152.20423302 -29721982.41743143 -29721982.41743143 -13976430.20494865 0 0 0 0 0 67491158.95509928 -29330769.65417385 -29330769.65417385 -13456246.75099769 0 0 0 0 0 72164981.07446742 -29483884.15131138 -29483884.15131138 -14350776.08591603 0 0 0 0 0 75261213.72101785 -29124679.79595431 -29124679.79595431 -14700552.67378179 0 0 0 0 0 78216077.61227661 -28657594.72074717 -28657594.72074717 -15020504.99695675 0 0 0 0 0 81035934.93075493 -28099932.33848454 -28099932.33848454 -15308691.07834917 0 0 0 0 0 83697964.51187986 -27457406.44607869 -27457406.44607869 -15555526.22910129 0 0 0 0 0 86199556.42346743 -26744380.93844094 -26744380.93844094 -15759883.27495073 0 0 0 0 0 88667200.45561881 -25844537.62504457 -25844537.62504457 -14942265.1694854 0 0 0 0 0 88571120.13547426 -25467744.56340728 -25467744.56340728 -15413139.39598512 0 0 0 0 0 90667834.92980926 -24689112.5777425 -24689112.5777425 -15547133.58067643 0 0 0 0 0 92630771.26722924 -23872019.04508566 -23872019.04508566 -15639644.59608019 0 0 0 0 0 94463332.90312654 -23027490.43306228 -23027490.43306228 -15689420.27021673 0 0 0 0 0 96166995.58792435 -22173192.41151698 -22173192.41151698 -15690716.26211429 0 0 0 0 0 97697167.47678606 -21310035.46615208 -21310035.46615208 -15659255.60260245 0 0 0 0 0 99406514.61985657 -20657286.72518998 -20657286.72518998 -14979617.37327591 0 0 0 0 0 98733368.11705767 -20160683.70225025 -20160683.70225025 -15183025.01473278 0 0 0 0 0 100020307.8255829 -19325870.67826081 -19325870.67826081 -15115558.01966921 0 0 0 0 0 101058385.8584892 -18494826.0630496 -18494826.0630496 -14067299.43728115 0 0 0 0 0 102114155.3674295 -17740163.73714877 -17740163.73714877 -14014484.27203782 0 0 0 0 0 102628541.4840104 -16784366.94016235 -16784366.94016235 -13545957.69045902 0 0 0 0 0 101374461.7704889 -17283857.4357063 -17283857.4357063 -14125951.66303354 0 0 0 0 0 103520631.4915387 -16053648.93396654 -16053648.93396654 -13455204.65824907 0 0 0 0 0 104341074.9962686 -15330551.8401757 -15330551.8401757 -13344680.03887752 0 0 0 0 0 105075289.9753708 -14624802.96152911 -14624802.96152911 -13221913.04477902 0 0 0 0 0 105734275.707659 -13935861.85567852 -13935861.85567852 -13077910.27783808 0 0 0 0 0 105850747.691892 -13184863.14048168 -13184863.14048168 -12618133.43913273 0 0 0 0 0 104980944.2231968 -13540464.53038028 -13540464.53038028 -13051219.53749802 0 0 0 0 0 106382569.8974464 -12554830.26438568 -12554830.26438568 -12456114.36053752 0 0 0 0 0 106860681.9631781 -11942078.2272651 -11942078.2272651 -12281439.3406981 0 0 0 0 0 107288653.3144564 -11347153.70736619 -11347153.70736619 -12095339.98284382 0 0 0 0 0 107669819.6533429 -10770438.04491657 -10770438.04491657 -11899842.47077784 0 0 0 0 0 108006036.9110058 -10214176.08709429 -10214176.08709429 -11697078.43333903 0 0 0 0 0 107310636.8961822 -9917966.939689962 -9917966.939689962 -11556247.40444055 0 0 0 0 0 108121611.0792338 -9186332.308168188 -9186332.308168188 -11068695.35140676 0 0 0 0 0 107618816.7760526 -9395111.004013939 -9395111.004013939 -11331424.97426436 0 0 0 0 0 108356364.5562691 -8697329.171403095 -8697329.171403095 -10859576.65681197 0 0 0 0 0 108560290.7191938 -8226116.49613153 -8226116.49613153 -10646134.91846778 0 0 0 0 0 108735504.6067562 -7772522.263241709 -7772522.263241709 -10429323.39919917 0 0 0 0 0 108884744.2261826 -7336329.711247905 -7336329.711247905 -10209722.7113182 0 0 0 0 0 108619998.3255175 -6988865.640653345 -6988865.640653345 -9846392.511031814 0 0 0 0 0 108290887.9665986 -7125738.812481966 -7125738.812481966 -10018993.84598675 0 0 0 0 0 108731128.1386457 -6594701.131415186 -6594701.131415186 -9635140.101538792 0 0 0 0 0 108821635.3479775 -6216356.175232202 -6216356.175232202 -9422969.529893385 0 0 0 0 0 108892765.4277551 -5854273.752421454 -5854273.752421454 -9211462.595860664 0 0 0 0 0 108947016.2850955 -5507504.082096399 -5507504.082096399 -8999365.519542463 0 0 0 0 0 108986330.4764221 -5174527.858617291 -5174527.858617291 -8787368.403459694 0 0 0 0 0 108538127.9150053 -4721145.715892215 -4721145.715892215 -8367032.015441021 0 0 0 0 0 109011385.6538767 -4855446.943256613 -4855446.943256613 -8576593.989635829 0 0 0 0 0 108705746.3125353 -4653799.994634124 -4653799.994634124 -8288240.384772537 0 0 0 0 0 108715132.618453 -4365230.253678308 -4365230.253678308 -8089506.999640659 0 0 0 0 0 108713603.7152602 -4089225.991412777 -4089225.991412777 -7892369.26739034 0 0 0 0 0 108701159.2225279 -3825990.085447466 -3825990.085447466 -7697385.519652261 0 0 0 0 0 108678909.9951425 -3574096.207061797 -3574096.207061797 -7503803.584849981 0 0 0 0 0 108649836.6446823 -3333945.138599255 -3333945.138599255 -7312996.953530059 0 0 0 0 0 108272864.5078646 -3248027.18826405 -3248027.18826405 -7108852.414815322 0 0 0 0 0 108354077.5382416 -3218819.195609051 -3218819.195609051 -7086869.372715523 0 0 0 0 0 108317936.2206296 -3003126.31420669 -3003126.31420669 -6903938.566809935 0 0 0 0 0 108242448.0283141 -2811404.119292522 -2811404.119292522 -6755538.506551604 0 0 0 0 0 108201574.3436351 -2614124.818199571 -2614124.818199571 -6563318.79614418 0 0 0 0 0 107878404.9546193 -2548037.082699157 -2548037.082699157 -6374505.837962519 0 0 0 0 0 107926921.9261347 -2533072.207201493 -2533072.207201493 -6369132.079830768 0 0 0 0 0 107877782.8745339 -2351574.977572223 -2351574.977572223 -6206617.90462764 0 0 0 0 0 107824036.2398056 -2178072.924300014 -2178072.924300014 -6046907.353101671 0 0 0 0 0 107766080.5779627 -2012419.230948498 -2012419.230948498 -5890187.265983822 0 0 0 0 0 107703773.2263099 -1854229.006919175 -1854229.006919175 -5736133.285005978 0 0 0 0 0 107637971.003694 -1704915.138187321 -1704915.138187321 -5585586.252935321 0 0 0 0 0 107564481.3056771 -1566235.748936718 -1566235.748936718 -5448855.566544453 0 0 0 0 0 107324880.5873961 -1509312.336120493 -1509312.336120493 -5319192.429067576 0 0 0 0 0 107221056.4151698 -1438181.623978473 -1438181.623978473 -5223869.001635277 0 0 0 0 0 107099501.4033841 -1369987.57327558 -1369987.57327558 -5125326.706894168 0 0 0 0 0 106996102.9594008 -1304284.80263227 -1304284.80263227 -5019450.008080476 0 0 0 0 0 101512080.8365371 -18744297.07518248 -18744297.07518248 -14472587.14423151 0 0 0 0 0 245271.3430244804 112680.0479343967 112680.0479343967 -33205726.59475986 0 0 0 0 0 2164518.85361441 -2087611.190948825 -2087611.190948825 -30456499.11892601 0 0 0 0 0 3944427.750423495 -4161955.634339255 -4161955.634339255 -27312198.616334 0 0 0 0 0 4806641.699586445 -6304277.762684884 -6304277.762684884 -24370956.70893235 0 0 0 0 0 6917922.009364196 -8850189.294462183 -8850189.294462183 -22688614.70345072 0 0 0 0 0 9542861.607962642 -11278408.9850655 -11278408.9850655 -21360256.82278881 0 0 0 0 0 15636646.05942799 -14775562.68753785 -14775562.68753785 -17101739.83458404 0 0 0 0 0 14670305.52494603 -15395695.22965063 -15395695.22965063 -18451963.71805118 0 0 0 0 0 19060973.51080619 -17073405.93797279 -17073405.93797279 -16266795.96170483 0 0 0 0 0 22776863.3942829 -19246503.88353036 -19246503.88353036 -15562451.33479388 0 0 0 0 0 26727019.65094154 -21265881.29822328 -21265881.29822328 -14997205.5854178 0 0 0 0 0 30863933.62004884 -23106939.43055419 -23106939.43055419 -14570128.40430333 0 0 0 0 0 35139155.41922112 -24751792.36532342 -24751792.36532342 -14276268.02125743 0 0 0 0 0 39502215.84769894 -26185683.55117861 -26185683.55117861 -14101903.13661576 0 0 0 0 0 43908543.22997366 -27401862.20594066 -27401862.20594066 -14038675.69038671 0 0 0 0 0 48314106.56846996 -28397070.34248707 -28397070.34248707 -14069106.78087327 0 0 0 0 0 51409106.89172392 -29967580.61714852 -29967580.61714852 -13937888.76623667 0 0 0 0 0 54489263.48591762 -28935539.55462011 -28935539.55462011 -13282268.79796221 0 0 0 0 0 58567765.52219339 -29416288.49527204 -29416288.49527204 -13535439.84011297 0 0 0 0 0 62542418.29584786 -29707615.19987408 -29707615.19987408 -13820530.89438813 0 0 0 0 0 66389095.64018352 -29820982.19174731 -29820982.19174731 -14124281.63493135 0 0 0 0 0 71002086.07296106 -29249953.90597801 -29249953.90597801 -13802036.35265403 0 0 0 0 0 67960976.83758485 -30304683.21600943 -30304683.21600943 -14580273.87237623 0 0 0 0 0 74357963.33046456 -29031706.43574239 -29031706.43574239 -14138348.30503776 0 0 0 0 0 77549070.97863998 -28687859.17285387 -28687859.17285387 -14456530.22102641 0 0 0 0 0 80575553.14852783 -28231753.47108167 -28231753.47108167 -14746997.38862796 0 0 0 0 0 83437580.23298946 -27682822.80513334 -27682822.80513334 -15013561.4304168 0 0 0 0 0 86125116.37858067 -27051523.18664183 -27051523.18664183 -15250595.62482873 0 0 0 0 0 88639719.92185055 -26345990.77217455 -26345990.77217455 -15448129.20535895 0 0 0 0 0 88544086.81725805 -25974819.76616265 -25974819.76616265 -15916319.0126772 0 0 0 0 0 90905167.44778726 -25105506.00305299 -25105506.00305299 -15109632.70445837 0 0 0 0 0 92992178.77605695 -24323761.20690038 -24323761.20690038 -15239679.34327414 0 0 0 0 0 94929243.9537601 -23507773.8814016 -23507773.8814016 -15336142.31501508 0 0 0 0 0 96720773.63228682 -22665514.39959813 -22665514.39959813 -15395559.29737302 0 0 0 0 0 98348884.3535922 -21818828.48272274 -21818828.48272274 -15431906.68703104 0 0 0 0 0 99841934.63169079 -20959192.74480911 -20959192.74480911 -15412049.5795818 0 0 0 0 0 99115640.62726787 -20448319.73344286 -20448319.73344286 -15592518.92997164 0 0 0 0 0 100736673.9194985 -19822185.69029605 -19822185.69029605 -14933823.30074228 0 0 0 0 0 101972957.3356296 -18989299.12289682 -18989299.12289682 -14876173.30303928 0 0 0 0 0 100772541.3818355 -18269138.9146207 -18269138.9146207 -14612557.34706058 0 0 0 0 0 101822992.4645811 -17481481.7448076 -17481481.7448076 -14502522.03606883 0 0 0 0 0 102332729.7609683 -16526983.80829922 -16526983.80829922 -14017544.77374383 0 0 0 0 0 103086350.2771842 -16984558.06051778 -16984558.06051778 -13930012.15593871 0 0 0 0 0 103223649.4615631 -15777770.56129662 -15777770.56129662 -13877674.24920603 0 0 0 0 0 104038843.4998607 -15042006.60969394 -15042006.60969394 -13720978.79068402 0 0 0 0 0 104779266.8378533 -14322235.46965116 -14322235.46965116 -13538941.77643312 0 0 0 0 0 105443399.2356791 -13627262.08351701 -13627262.08351701 -13347108.0376626 0 0 0 0 0 105573197.7703747 -12886485.15300853 -12886485.15300853 -12862013.52023919 0 0 0 0 0 106329230.115796 -13267318.93316689 -13267318.93316689 -12914668.68280178 0 0 0 0 0 106109554.5479521 -12250515.22934638 -12250515.22934638 -12660565.68118524 0 0 0 0 0 106592857.4080151 -11633434.10662082 -11633434.10662082 -12448421.54252523 0 0 0 0 0 107026366.8108424 -11035635.90575227 -11035635.90575227 -12227247.52687557 0 0 0 0 0 107414500.6495614 -10457955.17725006 -10457955.17725006 -11997690.65367189 0 0 0 0 0 107758635.3872504 -9901140.977048203 -9901140.977048203 -11762188.43150206 0 0 0 0 0 108303376.5925796 -9676650.40103781 -9676650.40103781 -11485472.19646511 0 0 0 0 0 107893179.6922185 -8889573.774540214 -8889573.774540214 -11101136.64808311 0 0 0 0 0 108565183.4789895 -9156881.146917392 -9156881.146917392 -11267523.66826903 0 0 0 0 0 108134865.6157501 -8402427.658225613 -8402427.658225613 -10867053.5761841 0 0 0 0 0 108345777.1458687 -7933729.451274396 -7933729.451274396 -10630528.47147766 0 0 0 0 0 108528306.0546138 -7483309.273143016 -7483309.273143016 -10392030.46273842 0 0 0 0 0 108684578.992469 -7050859.282744165 -7050859.282744165 -10152713.69354624 0 0 0 0 0 108430811.0115544 -6719139.917288903 -6719139.917288903 -9790753.351019025 0 0 0 0 0 109009561.3936283 -6917294.196098392 -6917294.196098392 -9988427.369865512 0 0 0 0 0 108548891.6493939 -6328841.639947478 -6328841.639947478 -9562264.649806956 0 0 0 0 0 108646526.5971993 -5955136.135729647 -5955136.135729647 -9334002.885518802 0 0 0 0 0 108725296.3777213 -5597489.997839018 -5597489.997839018 -9107045.847554933 0 0 0 0 0 108786241.0160698 -5255004.765833578 -5255004.765833578 -8881832.245130312 0 0 0 0 0 108831355.7642863 -4927075.86297118 -4927075.86297118 -8658555.006210979 0 0 0 0 0 109023365.7015543 -4549965.545776573 -4549965.545776573 -8367320.731612157 0 0 0 0 0 108862503.4473915 -4613073.613114218 -4613073.613114218 -8437014.988608366 0 0 0 0 0 108565065.5010347 -4424587.908002966 -4424587.908002966 -8156346.832233815 0 0 0 0 0 108579583.7444262 -4141318.484539122 -4141318.484539122 -7948596.077039154 0 0 0 0 0 108583725.5444854 -3870683.019164877 -3870683.019164877 -7742929.468041638 0 0 0 0 0 108576738.7531674 -3612006.461638181 -3612006.461638181 -7539748.603105887 0 0 0 0 0 108560669.7398308 -3365864.783901236 -3365864.783901236 -7339177.037562902 0 0 0 0 0 108538162.933175 -3134600.064888998 -3134600.064888998 -7142837.78936232 0 0 0 0 0 108607875.4906219 -3111857.351210064 -3111857.351210064 -7135745.596062662 0 0 0 0 0 108234580.9668253 -3031291.646079943 -3031291.646079943 -6926692.66750537 0 0 0 0 0 108199349.5888553 -2816184.373037086 -2816184.373037086 -6738023.146105766 0 0 0 0 0 108169163.9852017 -2621850.380792954 -2621850.380792954 -6558046.462554961 0 0 0 0 0 108111919.7838145 -2434244.73732189 -2434244.73732189 -6389818.684060926 0 0 0 0 0 108152051.0082731 -2423872.226379412 -2423872.226379412 -6393561.002112443 0 0 0 0 0 107837370.6220802 -2362770.1979203 -2362770.1979203 -6206143.420048737 0 0 0 0 0 107791821.1191375 -2185466.246041392 -2185466.246041392 -6040597.093689874 0 0 0 0 0 107741701.0150702 -2016148.37878602 -2016148.37878602 -5878198.083237993 0 0 0 0 0 107687351.7729132 -1854401.088118658 -1854401.088118658 -5719011.140504829 0 0 0 0 0 107629454.7235192 -1700963.576577774 -1700963.576577774 -5561073.372225072 0 0 0 0 0 107568766.7814568 -1555670.6237435 -1555670.6237435 -5409771.764524982 0 0 0 0 0 107477331.7579488 -1438461.495807245 -1438461.495807245 -5267295.548270468 0 0 0 0 0 107400569.9792371 -1349652.395691933 -1349652.395691933 -5082825.688605692 0 0 0 0 0 107556052.9867905 -1381658.511602697 -1381658.511602697 -5186800.051310258 0 0 0 0 0 107273558.3910412 -1277507.076134696 -1277507.076134696 -4974531.017022623 0 0 0 0 0 107174198.914394 -1212079.746016628 -1212079.746016628 -4871521.261097125 0 0 0 0 0 101209671.703418 -18494390.8081433 -18494390.8081433 -15013021.47764008 0 0 0 0 0 -776762.3865610446 -1764556.592080301 -1764556.592080301 -36328799.65478844 0 0 0 0 0 262279.9522553307 -3753592.44548482 -3753592.44548482 -33071770.78372156 0 0 0 0 0 1055518.555893336 -5238097.549466866 -5238097.549466866 -28976134.50431228 0 0 0 0 0 4024530.790303526 -7255704.682390383 -7255704.682390383 -26591313.7656148 0 0 0 0 0 6697093.505606074 -9517146.568088509 -9517146.568088509 -25045672.46743244 0 0 0 0 0 9051712.682219792 -11930872.372113 -11930872.372113 -23349228.38227215 0 0 0 0 0 11752057.66141658 -14389039.11535868 -14389039.11535868 -21743488.87320469 0 0 0 0 0 17755147.38611257 -17735159.84761939 -17735159.84761939 -17412195.09307389 0 0 0 0 0 12588348.37012666 -13725488.0410578 -13725488.0410578 -20086084.09949484 0 0 0 0 0 21143028.2597615 -19956119.28313796 -19956119.28313796 -16538422.65934454 0 0 0 0 0 24782630.34023017 -22027942.46923719 -22027942.46923719 -15839410.65380572 0 0 0 0 0 28635800.71623952 -23923454.68809882 -23923454.68809882 -15312973.70239048 0 0 0 0 0 32652330.33392872 -25621889.77478232 -25621889.77478232 -14948905.87179348 0 0 0 0 0 36794973.02544443 -27108853.43902891 -27108853.43902891 -14733487.53433827 0 0 0 0 0 41012555.84351293 -28373132.87912499 -28373132.87912499 -14650305.7074827 0 0 0 0 0 45263892.25714929 -29410772.526905 -29410772.526905 -14679091.33789207 0 0 0 0 0 49508440.85361101 -30222061.58892339 -30222061.58892339 -14799451.3440777 0 0 0 0 0 52679517.36708158 -29172731.76608145 -29172731.76608145 -14176597.5768577 0 0 0 0 0 55421903.47987226 -30473443.60444115 -30473443.60444115 -14215469.22035993 0 0 0 0 0 59359874.60639012 -30781720.23623246 -30781720.23623246 -14526975.68056979 0 0 0 0 0 63198045.14446461 -30904475.98816965 -30904475.98816965 -14857459.7927553 0 0 0 0 0 66915736.81687274 -30854993.68584805 -30854993.68584805 -15192517.85556468 0 0 0 0 0 71358223.14385557 -30078211.61145441 -30078211.61145441 -14935494.65343576 0 0 0 0 0 70087929.15661417 -29770005.37678024 -29770005.37678024 -14434480.28515767 0 0 0 0 0 74611193.86169891 -29721591.00336982 -29721591.00336982 -15267127.08556721 0 0 0 0 0 77708935.36509606 -29247915.07792018 -29247915.07792018 -15569230.89440617 0 0 0 0 0 80657147.78793421 -28675850.59265135 -28675850.59265135 -15842652.72987825 0 0 0 0 0 83444300.79873784 -28014521.66800691 -28014521.66800691 -16077186.57485061 0 0 0 0 0 86063550.22363552 -27277841.09451336 -27277841.09451336 -16268767.41250549 0 0 0 0 0 88519926.10683168 -26479539.59662823 -26479539.59662823 -16417717.75113831 0 0 0 0 0 90983832.05595183 -25581717.27907177 -25581717.27907177 -15607330.40096323 0 0 0 0 0 90736490.0718289 -25162036.61924863 -25162036.61924863 -16037535.98814841 0 0 0 0 0 92783810.0721243 -24310934.89954866 -24310934.89954866 -16115443.63894178 0 0 0 0 0 94687162.37270398 -23431557.40808011 -23431557.40808011 -16153196.9912397 0 0 0 0 0 96456516.75564115 -22540305.8581536 -22540305.8581536 -16148796.41302739 0 0 0 0 0 98061007.83660465 -21632827.13058646 -21632827.13058646 -16096356.90442529 0 0 0 0 0 99536063.44401987 -20730226.86983375 -20730226.86983375 -16026067.00526259 0 0 0 0 0 101195990.8988682 -20096686.11537876 -20096686.11537876 -15367984.69661634 0 0 0 0 0 100430415.6802179 -19587395.91793691 -19587395.91793691 -15520238.09744182 0 0 0 0 0 101652720.7776998 -18718117.68470478 -18718117.68470478 -15399330.57122356 0 0 0 0 0 102593687.3433719 -17954700.82385756 -17954700.82385756 -14409749.72985098 0 0 0 0 0 103584941.396712 -17164239.66351079 -17164239.66351079 -14307220.82703561 0 0 0 0 0 103991801.3187285 -16221315.52433291 -16221315.52433291 -13812533.40947427 0 0 0 0 0 102786462.2516459 -16697665.26120747 -16697665.26120747 -14367960.29135884 0 0 0 0 0 104819840.0546928 -15477232.88877895 -15477232.88877895 -13691715.08933412 0 0 0 0 0 105565047.7384273 -14744491.93205789 -14744491.93205789 -13546177.22663294 0 0 0 0 0 106232977.8506447 -14032182.70101447 -14032182.70101447 -13388800.47966671 0 0 0 0 0 106831466.5796606 -13339634.16970354 -13339634.16970354 -13210828.86270898 0 0 0 0 0 106863766.8941288 -12615815.69212888 -12615815.69212888 -12737573.86804308 0 0 0 0 0 106041798.952201 -12950444.61242938 -12950444.61242938 -13141332.16404621 0 0 0 0 0 107342512.3893592 -11982737.53307936 -11982737.53307936 -12547913.54277365 0 0 0 0 0 107769104.8894972 -11368918.27934953 -11368918.27934953 -12347060.55695303 0 0 0 0 0 108147340.7962272 -10774936.4469973 -10774936.4469973 -12136698.27346447 0 0 0 0 0 108479805.3947852 -10202127.06408546 -10202127.06408546 -11919231.89510924 0 0 0 0 0 108770466.6033674 -9650003.947169393 -9650003.947169393 -11694732.42761078 0 0 0 0 0 108061520.619551 -9364282.244417945 -9364282.244417945 -11523718.37370336 0 0 0 0 0 108792884.9114001 -8655420.719182167 -8655420.719182167 -11045160.73914629 0 0 0 0 0 108330667.5694105 -8845460.399220398 -8845460.399220398 -11279321.76429099 0 0 0 0 0 108989108.0467339 -8172667.699379425 -8172667.699379425 -10818933.6870797 0 0 0 0 0 109156616.2151435 -7708570.36680485 -7708570.36680485 -10589525.88922239 0 0 0 0 0 109296722.6139492 -7262847.564628745 -7262847.564628745 -10358018.02839976 0 0 0 0 0 109412310.4058329 -6835202.632435702 -6835202.632435702 -10124976.84223061 0 0 0 0 0 109112151.8459024 -6515199.870904382 -6515199.870904382 -9765972.442258624 0 0 0 0 0 108816587.2075949 -6636082.219487985 -6636082.219487985 -9913080.097686943 0 0 0 0 0 109194223.4478874 -6129572.393637581 -6129572.393637581 -9543138.118349386 0 0 0 0 0 109256285.611132 -5760853.2833402 -5760853.2833402 -9320978.120042151 0 0 0 0 0 109301421.7488039 -5407918.290489105 -5407918.290489105 -9099333.472310713 0 0 0 0 0 109331046.1682605 -5069966.633879683 -5069966.633879683 -8878092.469953438 0 0 0 0 0 109346646.8802614 -4746464.649303873 -4746464.649303873 -8658076.818099804 0 0 0 0 0 108880541.9550534 -4312959.331014334 -4312959.331014334 -8217887.881454905 0 0 0 0 0 109348996.2629694 -4437190.364334989 -4437190.364334989 -8440246.481382944 0 0 0 0 0 109023058.2409356 -4258178.404186393 -4258178.404186393 -8160473.109014492 0 0 0 0 0 109012524.6648732 -3979217.502947023 -3979217.502947023 -7955372.976853568 0 0 0 0 0 108991617.4543519 -3712819.03909711 -3712819.03909711 -7752793.88822635 0 0 0 0 0 108961453.0369782 -3458416.852751121 -3458416.852751121 -7552584.240713349 0 0 0 0 0 108920594.2613213 -3216794.21986959 -3216794.21986959 -7355789.742554696 0 0 0 0 0 108869162.4848236 -2995887.048677199 -2995887.048677199 -7171877.969588608 0 0 0 0 0 108497944.7808247 -2917417.315348534 -2917417.315348534 -6953541.224988794 0 0 0 0 0 108562930.3113154 -2899257.537591182 -2899257.537591182 -6948691.251317841 0 0 0 0 0 108506744.5338017 -2690800.047091232 -2690800.047091232 -6764256.289516207 0 0 0 0 0 108439990.2449469 -2494568.128161301 -2494568.128161301 -6592876.371672757 0 0 0 0 0 108381708.3535371 -2308738.710114108 -2308738.710114108 -6412751.254541562 0 0 0 0 0 108061836.8365123 -2249500.795337247 -2249500.795337247 -6218194.467206719 0 0 0 0 0 108095974.2387227 -2242050.022442841 -2242050.022442841 -6226419.257237406 0 0 0 0 0 108035345.6061417 -2068140.061187532 -2068140.061187532 -6062154.086681419 0 0 0 0 0 107971027.4574477 -1902236.800602713 -1902236.800602713 -5900878.307182867 0 0 0 0 0 107903428.7581578 -1743767.086597599 -1743767.086597599 -5742689.476977277 0 0 0 0 0 107829807.6311439 -1592289.644683706 -1592289.644683706 -5587157.801421974 0 0 0 0 0 107756861.3210065 -1456054.621354255 -1456054.621354255 -5442740.289147409 0 0 0 0 0 107631426.3982365 -1369543.914147549 -1369543.914147549 -5350395.189760105 0 0 0 0 0 107372760.9087194 -1286378.769564914 -1286378.769564914 -5193099.031752579 0 0 0 0 0 107469391.4489253 -1335870.408189496 -1335870.408189496 -5269805.080109597 0 0 0 0 0 107268171.2570737 -1218715.280993545 -1218715.280993545 -5071721.942680916 0 0 0 0 0 107156264.7361917 -1154235.131066169 -1154235.131066169 -4968506.501885988 0 0 0 0 0 103090555.9035 -18158348.65511322 -18158348.65511322 -14790513.93836446 0 0 0 0 0 -1573383.481739116 402125.6677690893 402125.6677690893 -39916990.75686692 0 0 0 0 0 -767268.4334359415 -1346324.375435032 -1346324.375435032 -35980355.31449634 0 0 0 0 0 2986024.373348165 -5447764.100591343 -5447764.100591343 -32258434.39955269 0 0 0 0 0 1996863.061871331 -5435712.916347526 -5435712.916347526 -28847557.34182472 0 0 0 0 0 4097882.166080353 -7493142.10392115 -7493142.10392115 -27140005.0473637 0 0 0 0 0 6603089.418284319 -9925513.094448134 -9925513.094448134 -25297139.68278304 0 0 0 0 0 9537890.085327338 -12411209.12434121 -12411209.12434121 -23617053.58920052 0 0 0 0 0 16003498.72126181 -16115479.98753016 -16115479.98753016 -18932899.98342263 0 0 0 0 0 14810778.67788611 -16805928.11397184 -16805928.11397184 -20310890.06484318 0 0 0 0 0 19740962.85951213 -18406055.674126 -18406055.674126 -17929160.51002147 0 0 0 0 0 23759424.5660935 -20560925.85650611 -20560925.85650611 -17082451.72488837 0 0 0 0 0 28002401.96480255 -22547609.96284721 -22547609.96284721 -16399808.33215442 0 0 0 0 0 32416698.0688583 -24341711.34077403 -24341711.34077403 -15876184.43528851 0 0 0 0 0 36948988.37876008 -25923450.39114613 -25923450.39114613 -15502957.73140269 0 0 0 0 0 41545042.66569614 -27280469.72905474 -27280469.72905474 -15266233.0363977 0 0 0 0 0 46156134.29084501 -28405417.01231758 -28405417.01231758 -15150036.93703685 0 0 0 0 0 50737553.56664319 -29297288.64283571 -29297288.64283571 -15135636.60020655 0 0 0 0 0 53715079.61137643 -30813100.44036145 -30813100.44036145 -14990978.59693202 0 0 0 0 0 56967334.9256294 -29735683.77056943 -29735683.77056943 -14347612.90227155 0 0 0 0 0 61149623.45415492 -30095061.16551749 -30095061.16551749 -14565378.08426932 0 0 0 0 0 65200193.87792645 -30261722.38722385 -30261722.38722385 -14814558.56964232 0 0 0 0 0 69098445.7286005 -30250458.80360401 -30250458.80360401 -15081895.48175296 0 0 0 0 0 73623500.24657871 -29569776.19883725 -29569776.19883725 -14742408.70486533 0 0 0 0 0 70494128.19210373 -30648211.78175593 -30648211.78175593 -15521277.60817271 0 0 0 0 0 76980964.65827107 -29234062.27906372 -29234062.27906372 -15035611.89516316 0 0 0 0 0 80160128.61862732 -28777684.53603962 -28777684.53603962 -15307674.97053771 0 0 0 0 0 83164162.46399949 -28217711.86913543 -28217711.86913543 -15554997.45072164 0 0 0 0 0 85982504.55887446 -27567830.60357082 -27567830.60357082 -15773388.0154382 0 0 0 0 0 88616477.10643233 -26840513.03266088 -26840513.03266088 -15956092.83541921 0 0 0 0 0 91067714.86727223 -26049692.49295742 -26049692.49295742 -16102538.20543072 0 0 0 0 0 90813055.75514367 -25631817.45795261 -25631817.45795261 -16523335.96559493 0 0 0 0 0 93160839.75444713 -24767848.35354657 -24767848.35354657 -15725826.85408161 0 0 0 0 0 95176707.81127779 -23919514.47272021 -23919514.47272021 -15809115.41433146 0 0 0 0 0 97038060.84346421 -23042828.25749902 -23042828.25749902 -15854742.81813058 0 0 0 0 0 98741562.96538301 -22153354.06389124 -22153354.06389124 -15866369.91473743 0 0 0 0 0 100294597.0879943 -21255341.17304138 -21255341.17304138 -15848211.69334948 0 0 0 0 0 101713074.7538429 -20347319.57085164 -20347319.57085164 -15778990.01745946 0 0 0 0 0 100885365.9068447 -19831672.1431392 -19831672.1431392 -15910620.65745636 0 0 0 0 0 102456843.8120704 -19227820.79054674 -19227820.79054674 -15278064.97898089 0 0 0 0 0 103602784.2897355 -18364306.96640667 -18364306.96640667 -15172216.47681312 0 0 0 0 0 102286749.6826405 -17672645.95911695 -17672645.95911695 -14878267.94110039 0 0 0 0 0 103275127.7671389 -16860611.42784636 -16860611.42784636 -14722184.94549916 0 0 0 0 0 103685121.9795441 -15928254.82280423 -15928254.82280423 -14222065.55287348 0 0 0 0 0 104497719.5903241 -16382349.1055213 -16382349.1055213 -14179097.88389592 0 0 0 0 0 104513883.6261399 -15164908.40751005 -15164908.40751005 -14042395.02411316 0 0 0 0 0 105256073.7335492 -14425128.29001196 -14425128.29001196 -13850364.11026026 0 0 0 0 0 105930818.9607803 -13702728.38038498 -13702728.38038498 -13639364.12094317 0 0 0 0 0 106534097.481306 -13003189.3769085 -13003189.3769085 -13416755.83470778 0 0 0 0 0 106581216.2398091 -12293131.30231162 -12293131.30231162 -12923610.45941941 0 0 0 0 0 107368278.8626594 -12666266.94418494 -12666266.94418494 -13017399.58373147 0 0 0 0 0 107065717.5895998 -11656070.08850464 -11656070.08850464 -12695514.7432232 0 0 0 0 0 107498930.2452401 -11040043.47556661 -11040043.47556661 -12458604.52456237 0 0 0 0 0 107884447.2981907 -10445266.04209167 -10445266.04209167 -12213898.02370793 0 0 0 0 0 108225039.0735749 -9872496.666915903 -9872496.666915903 -11963505.50539256 0 0 0 0 0 108523783.5950247 -9320771.123863883 -9320771.123863883 -11708978.52679991 0 0 0 0 0 109025775.67913 -9116251.902980139 -9116251.902980139 -11461753.55161219 0 0 0 0 0 108565680.1800484 -8346399.703376587 -8346399.703376587 -11031967.95337402 0 0 0 0 0 109246201.3962414 -8602213.919409569 -8602213.919409569 -11225799.70986185 0 0 0 0 0 108769390.0321195 -7866951.787115674 -7866951.787115674 -10782332.27665095 0 0 0 0 0 108944112.3309815 -7406442.164670246 -7406442.164670246 -10531490.80502454 0 0 0 0 0 109092440.2270364 -6964811.612705389 -6964811.612705389 -10279655.92099962 0 0 0 0 0 109215533.5123174 -6542031.603451374 -6542031.603451374 -10028441.61036114 0 0 0 0 0 108926042.315347 -6238566.479709925 -6238566.479709925 -9673788.895123469 0 0 0 0 0 109505304.7239568 -6425372.965144425 -6425372.965144425 -9891299.933787312 0 0 0 0 0 109015161.4223162 -5858109.149923762 -5858109.149923762 -9435332.10308985 0 0 0 0 0 109085265.603638 -5493908.847456231 -5493908.847456231 -9197821.444447009 0 0 0 0 0 109137362.2166885 -5146141.744301473 -5146141.744301473 -8962901.65032999 0 0 0 0 0 109173680.3240827 -4813592.881103447 -4813592.881103447 -8730263.574345348 0 0 0 0 0 109195653.5238349 -4495593.588320582 -4495593.588320582 -8499912.386164986 0 0 0 0 0 109339256.3396573 -4142069.612756225 -4142069.612756225 -8224955.372245299 0 0 0 0 0 109204543.7197325 -4192069.625538352 -4192069.625538352 -8272321.501715016 0 0 0 0 0 108886495.5261093 -4026479.099579219 -4026479.099579219 -8001837.574780097 0 0 0 0 0 108881155.043713 -3753123.129040974 -3753123.129040974 -7789185.710010659 0 0 0 0 0 108866011.0728664 -3491958.940951684 -3491958.940951684 -7579148.459599314 0 0 0 0 0 108841422.8409871 -3243105.001815034 -3243105.001815034 -7371994.312936974 0 0 0 0 0 108813204.41994 -3010689.431414201 -3010689.431414201 -7165144.912740951 0 0 0 0 0 108765064.7839973 -2792311.25401889 -2792311.25401889 -6971182.120524032 0 0 0 0 0 108811539.7596695 -2785623.358323711 -2785623.358323711 -6986258.283551418 0 0 0 0 0 108445962.7441141 -2706662.417572325 -2706662.417572325 -6765015.583744129 0 0 0 0 0 108390932.7085184 -2506262.609769589 -2506262.609769589 -6582664.057911023 0 0 0 0 0 108351646.7254548 -2314220.197864399 -2314220.197864399 -6400404.754059281 0 0 0 0 0 108291450.6346243 -2130019.539007776 -2130019.539007776 -6224343.661842461 0 0 0 0 0 108318114.4856006 -2126707.889298467 -2126707.889298467 -6240437.86275806 0 0 0 0 0 108009626.4886258 -2071685.594933351 -2071685.594933351 -6047984.70516797 0 0 0 0 0 107952852.0484712 -1902239.674700035 -1902239.674700035 -5881191.505587579 0 0 0 0 0 107892142.9966418 -1740562.512500958 -1740562.512500958 -5718073.343451317 0 0 0 0 0 107827433.4981297 -1585733.544394523 -1585733.544394523 -5559231.002465716 0 0 0 0 0 107762200.9577357 -1443258.433840434 -1443258.433840434 -5396189.228692538 0 0 0 0 0 107703465.7350012 -1318734.449415568 -1318734.449415568 -5235142.47376727 0 0 0 0 0 107665028.4738951 -1237696.977544575 -1237696.977544575 -5102715.469179358 0 0 0 0 0 107570408.1141785 -1178441.961800219 -1178441.961800219 -5023238.783452248 0 0 0 0 0 107460977.0637798 -1121846.707076171 -1121846.707076171 -4917424.348499454 0 0 0 0 0 107341834.4832417 -1057529.177498519 -1057529.177498519 -4813555.332907819 0 0 0 0 0 102768494.6047246 -17860657.97589835 -17860657.97589835 -15253398.01773947 0 0 0 0 0 -2374596.347599727 -1758956.50309878 -1758956.50309878 -43582052.59338617 0 0 0 0 0 -1474241.540863828 -3209062.889543802 -3209062.889543802 -40063400.09525754 0 0 0 0 0 274456.6296550384 -4954221.498780875 -4954221.498780875 -37850303.26098137 0 0 0 0 0 892.9354212997936 -3976625.065499599 -3976625.065499599 -33316008.90136382 0 0 0 0 0 4113758.083341243 -8155619.127417253 -8155619.127417253 -29939814.83731714 0 0 0 0 0 6302140.268121623 -10634542.06487604 -10634542.06487604 -27710292.12740518 0 0 0 0 0 8889629.929704251 -13116292.11063412 -13116292.11063412 -25639211.25285872 0 0 0 0 0 11872868.91192451 -15597762.56284189 -15597762.56284189 -23736255.20886711 0 0 0 0 0 18198443.19455509 -19132689.31090362 -19132689.31090362 -19070867.30517841 0 0 0 0 0 12894616.72938061 -14882529.92317699 -14882529.92317699 -22078092.07063152 0 0 0 0 0 21886814.10253969 -21331122.82184915 -21331122.82184915 -18034798.80222602 0 0 0 0 0 25817840.96694032 -23367401.37373637 -23367401.37373637 -17204897.00117218 0 0 0 0 0 29946580.48836736 -25213818.40140449 -25213818.40140449 -16574453.4859876 0 0 0 0 0 34224670.53676765 -26848016.05225543 -26848016.05225543 -16130493.9527816 0 0 0 0 0 38604427.6696308 -28255232.35429978 -28255232.35429978 -15854076.94852492 0 0 0 0 0 43037806.98139708 -29425839.25974535 -29425839.25974535 -15722112.66690355 0 0 0 0 0 47481031.17134755 -30356995.87485135 -30356995.87485135 -15709997.91252912 0 0 0 0 0 51893129.70387419 -31052290.85583551 -31052290.85583551 -15794974.05029353 0 0 0 0 0 55247571.55546084 -29960323.76588326 -29960323.76588326 -15204752.69058193 0 0 0 0 0 57850857.26919804 -31192218.4682016 -31192218.4682016 -15234004.17812901 0 0 0 0 0 61887462.02221544 -31371235.52113954 -31371235.52113954 -15510295.58578403 0 0 0 0 0 65800281.56485579 -31363259.83831585 -31363259.83831585 -15803007.38450544 0 0 0 0 0 69567048.05073677 -31184417.06123748 -31184417.06123748 -16097585.38767025 0 0 0 0 0 73915239.6030416 -30299607.07421102 -30299607.07421102 -15830487.65682481 0 0 0 0 0 72824322.76902404 -30076071.29630038 -30076071.29630038 -15353373.5869346 0 0 0 0 0 77171324.03937337 -29824381.18912009 -29824381.18912009 -16114572.40697702 0 0 0 0 0 80262615.12862961 -29241472.25800535 -29241472.25800535 -16371619.22760561 0 0 0 0 0 83185811.13848107 -28562647.33594279 -28562647.33594279 -16590593.62333947 0 0 0 0 0 85931388.69229636 -27802747.05836644 -27802747.05836644 -16769540.12701035 0 0 0 0 0 88501823.12896755 -26976015.37615085 -26976015.37615085 -16906128.84309013 0 0 0 0 0 90898163.4667879 -26095513.92031943 -26095513.92031943 -16999138.07111545 0 0 0 0 0 93341413.76574963 -25206409.0806618 -25206409.0806618 -16208037.89289693 0 0 0 0 0 92948660.43623719 -24745664.84706502 -24745664.84706502 -16587651.06133903 0 0 0 0 0 94928214.6774673 -23830165.56612879 -23830165.56612879 -16610791.57873214 0 0 0 0 0 96761987.77639998 -22897453.26201715 -22897453.26201715 -16593625.51496983 0 0 0 0 0 98439988.49774604 -21953035.28570956 -21953035.28570956 -16540236.55857863 0 0 0 0 0 99979635.46841599 -21006682.26157819 -21006682.26157819 -16439778.3223295 0 0 0 0 0 101386519.5999284 -20061236.83239098 -20061236.83239098 -16314795.38972551 0 0 0 0 0 102988139.3070154 -19455207.93057874 -19455207.93057874 -15692865.26678493 0 0 0 0 0 102128247.7014414 -18930364.25741808 -18930364.25741808 -15773802.14218007 0 0 0 0 0 103264659.4845784 -18045522.8340014 -18045522.8340014 -15622462.03468784 0 0 0 0 0 104108269.0080597 -17340820.76275042 -17340820.76275042 -14678157.45925883 0 0 0 0 0 105026825.4769966 -16535432.13171 -16535432.13171 -14547446.6386674 0 0 0 0 0 105334187.0718198 -15610113.85186571 -15610113.85186571 -14035106.47152001 0 0 0 0 0 104179961.8049487 -16065945.9902769 -16065945.9902769 -14561188.58811229 0 0 0 0 0 106082321.1360598 -14853372.18255619 -14853372.18255619 -13876940.63433695 0 0 0 0 0 106755489.0579808 -14118923.77251145 -14118923.77251145 -13697144.74463692 0 0 0 0 0 107358381.5213675 -13401129.96910311 -13401129.96910311 -13503166.49230925 0 0 0 0 0 107896459.3923733 -12705350.20619958 -12705350.20619958 -13293418.84976193 0 0 0 0 0 107846770.9383397 -12012589.33762168 -12012589.33762168 -12811726.15292352 0 0 0 0 0 107076067.022498 -12324285.60850325 -12324285.60850325 -13182272.72609164 0 0 0 0 0 108271513.1369943 -11379484.97702316 -11379484.97702316 -12595239.7312537 0 0 0 0 0 108645895.2692553 -10767696.9152366 -10767696.9152366 -12369456.78671355 0 0 0 0 0 108973331.8028236 -10178097.58464681 -10178097.58464681 -12136776.80466634 0 0 0 0 0 109257981.1459261 -9610555.493254479 -9610555.493254479 -11897075.71948305 0 0 0 0 0 109504575.5817054 -9063278.360185681 -9063278.360185681 -11651074.14039325 0 0 0 0 0 108785077.9974042 -8789713.627868794 -8789713.627868794 -11451304.2048441 0 0 0 0 0 109434014.1329422 -8108041.145582858 -8108041.145582858 -10986304.57465232 0 0 0 0 0 109013272.73932 -8278631.37971196 -8278631.37971196 -11190128.47257857 0 0 0 0 0 109591924.4832522 -7633580.222662804 -7633580.222662804 -10744198.72760077 0 0 0 0 0 109723290.1195952 -7178113.789401156 -7178113.789401156 -10499933.46594402 0 0 0 0 0 109828741.6193068 -6741958.300620952 -6741958.300620952 -10255076.88812272 0 0 0 0 0 109911232.9598528 -6324461.733828423 -6324461.733828423 -10009738.72446147 0 0 0 0 0 109577502.5175974 -6032950.095821036 -6032950.095821036 -9657497.145111289 0 0 0 0 0 109315982.381237 -6137335.650377287 -6137335.650377287 -9777826.666951712 0 0 0 0 0 109630548.8367025 -5657591.930489202 -5657591.930489202 -9424329.813354583 0 0 0 0 0 109665670.287184 -5298793.260440919 -5298793.260440919 -9192775.767235216 0 0 0 0 0 109685201.7821098 -4955808.638262419 -4955808.638262419 -8961944.942789672 0 0 0 0 0 109690726.8067502 -4627975.133051895 -4627975.133051895 -8732763.009942593 0 0 0 0 0 109683142.161557 -4315028.050554124 -4315028.050554124 -8506030.682297854 0 0 0 0 0 109201043.962399 -3902692.317279993 -3902692.317279993 -8048129.22723963 0 0 0 0 0 109663361.0463157 -4016727.014024293 -4016727.014024293 -8282261.924566614 0 0 0 0 0 109318768.1514336 -3860431.09756702 -3860431.09756702 -8012176.592718334 0 0 0 0 0 109288822.117094 -3591534.248439158 -3591534.248439158 -7801668.516463227 0 0 0 0 0 109249675.7259936 -3334861.040622857 -3334861.040622857 -7594427.171381281 0 0 0 0 0 109201941.8740012 -3090145.99912677 -3090145.99912677 -7390049.854924227 0 0 0 0 0 109134240.1633645 -2869625.571577123 -2869625.571577123 -7201277.311578139 0 0 0 0 0 109066552.0101825 -2661838.66941831 -2661838.66941831 -7012401.776693851 0 0 0 0 0 108704126.3559874 -2585970.603259409 -2585970.603259409 -6781545.726247932 0 0 0 0 0 108749476.1991217 -2578237.620339801 -2578237.620339801 -6794084.396442083 0 0 0 0 0 108685562.8139935 -2375910.60083524 -2375910.60083524 -6604326.289548752 0 0 0 0 0 108614699.3381318 -2185673.203207379 -2185673.203207379 -6428928.824868661 0 0 0 0 0 108543949.313052 -2004751.939734849 -2004751.939734849 -6249158.298693622 0 0 0 0 0 108231305.5535301 -1951860.199014567 -1951860.199014567 -6049292.367964847 0 0 0 0 0 108250139.9883606 -1952358.308451327 -1952358.308451327 -6071646.869374765 0 0 0 0 0 108178760.7616946 -1786415.538317768 -1786415.538317768 -5905930.234986594 0 0 0 0 0 108104556.5000403 -1628411.537130581 -1628411.537130581 -5743610.65410062 0 0 0 0 0 108028497.1947438 -1477462.35124599 -1477462.35124599 -5584832.304657315 0 0 0 0 0 107927495.974988 -1341329.852203409 -1341329.852203409 -5436829.61646259 0 0 0 0 0 107814215.347292 -1240969.672624107 -1240969.672624107 -5317690.032138478 0 0 0 0 0 107679757.7039057 -1167996.261275074 -1167996.261275074 -5220657.662645211 0 0 0 0 0 107542738.7030759 -1122176.416709729 -1122176.416709729 -5127587.142693992 0 0 0 0 0 107427024.98491 -1060727.937172635 -1060727.937172635 -5020638.809557728 0 0 0 0 0 107315116.6627733 -999784.5855791596 -999784.5855791596 -4908880.425235507 0 0 0 0 0 104645555.1009447 -17510441.48804298 -17510441.48804298 -15048092.20323287 0 0 0 0 0 -2929120.981751507 787813.4650360104 787813.4650360104 -47921286.94624361 0 0 0 0 0 -2468604.990034014 -606673.816482074 -606673.816482074 -43277826.07467368 0 0 0 0 0 -1550279.095927167 -2247515.262647569 -2247515.262647569 -39889058.54913584 0 0 0 0 0 1578831.107423784 -7117675.174349152 -7117675.174349152 -35836385.96923635 0 0 0 0 0 1684773.390699297 -6019932.756022969 -6019932.756022969 -31923148.04058736 0 0 0 0 0 3803424.488696425 -8335537.582752072 -8335537.582752072 -29871759.25219868 0 0 0 0 0 6543567.366521972 -10791752.94587849 -10791752.94587849 -27779197.82711478 0 0 0 0 0 9778660.653322101 -13317973.00336648 -13317973.00336648 -25787263.0029571 0 0 0 0 0 16625802.99895012 -17289089.05481298 -17289089.05481298 -20702391.59621306 0 0 0 0 0 15231788.45830489 -18026519.71040953 -18026519.71040953 -22044875.51286175 0 0 0 0 0 20680989.54280746 -19585417.91873534 -19585417.91873534 -19511865.01602362 0 0 0 0 0 25005354.28901866 -21732453.56465345 -21732453.56465345 -18511653.21562146 0 0 0 0 0 29541704.24948384 -23695236.46629243 -23695236.46629243 -17704379.92437419 0 0 0 0 0 34233846.11608266 -25447385.3270379 -25447385.3270379 -17081297.06650911 0 0 0 0 0 39022067.03011487 -26969040.29078741 -26969040.29078741 -16629081.71617797 0 0 0 0 0 43845207.6247029 -28248407.10198732 -28248407.10198732 -16330018.50779374 0 0 0 0 0 48649553.95105119 -29280070.58066642 -29280070.58066642 -16163496.71747066 0 0 0 0 0 53392035.52615071 -30065862.20820516 -30065862.20820516 -16107606.76435366 0 0 0 0 0 56237316.24464453 -31518718.41802927 -31518718.41802927 -15953279.77554382 0 0 0 0 0 59651838.85388359 -30403461.24941508 -30403461.24941508 -15339402.51786269 0 0 0 0 0 63921105.49946793 -30638225.67417279 -30638225.67417279 -15521433.63283706 0 0 0 0 0 68029324.97758332 -30678827.02438791 -30678827.02438791 -15734497.11181922 0 0 0 0 0 71960621.39346939 -30541739.9917762 -30541739.9917762 -15962612.33703189 0 0 0 0 0 76365492.83213861 -29755161.41687359 -29755161.41687359 -15618122.73473124 0 0 0 0 0 73170733.13871454 -30850749.47891187 -30850749.47891187 -16382113.79273385 0 0 0 0 0 79712237.04321699 -29303416.34341588 -29303416.34341588 -15867465.14853555 0 0 0 0 0 82869642.020556 -28737326.63604639 -28737326.63604639 -16092089.74345134 0 0 0 0 0 85828759.8878289 -28073473.33342115 -28073473.33342115 -16291266.14637547 0 0 0 0 0 88590737.71412064 -27326058.27691394 -27326058.27691394 -16457984.11291745 0 0 0 0 0 91156788.26454847 -26509512.8068921 -26509512.8068921 -16588687.48161337 0 0 0 0 0 93531979.96505786 -25637021.76430595 -25637021.76430595 -16681062.84955442 0 0 0 0 0 93125958.69240169 -25173623.51213383 -25173623.51213383 -17049395.53846122 0 0 0 0 0 95440847.61245978 -24325266.50840667 -24325266.50840667 -16277747.56371487 0 0 0 0 0 97372871.73663796 -23414694.80243651 -23414694.80243651 -16308726.4589947 0 0 0 0 0 99143025.18312444 -22486661.0386201 -22486661.0386201 -16303983.39577757 0 0 0 0 0 100761047.279075 -21545439.9859778 -21545439.9859778 -16260169.21223327 0 0 0 0 0 102232248.7534032 -20602116.06726428 -20602116.06726428 -16183317.12594008 0 0 0 0 0 103571510.5061866 -19653782.20529706 -19653782.20529706 -16068198.11207211 0 0 0 0 0 102661469.2352025 -19110619.0599245 -19110619.0599245 -16120792.85744503 0 0 0 0 0 104139840.7364829 -18561694.14104174 -18561694.14104174 -15554457.50891247 0 0 0 0 0 105210044.4046052 -17672761.64873735 -17672761.64873735 -15406725.04978904 0 0 0 0 0 103782189.2911017 -17018937.96031125 -17018937.96031125 -15082522.62370857 0 0 0 0 0 104702088.337552 -16191372.18478421 -16191372.18478421 -14889083.58128562 0 0 0 0 0 105014966.061092 -15277638.9339081 -15277638.9339081 -14364517.04151981 0 0 0 0 0 105870640.7432676 -15732906.10284778 -15732906.10284778 -14374658.58476657 0 0 0 0 0 105768594.2961693 -14512672.4357658 -14512672.4357658 -14153043.6197801 0 0 0 0 0 106441686.2334061 -13767476.51986011 -13767476.51986011 -13926783.16724071 0 0 0 0 0 107050645.9317803 -13043987.43475381 -13043987.43475381 -13686622.75362412 0 0 0 0 0 107594486.7877733 -12343192.95896666 -12343192.95896666 -13434633.21962896 0 0 0 0 0 107560902.1718445 -11667039.20390171 -11667039.20390171 -12937507.49354848 0 0 0 0 0 108374354.0512196 -12030669.93043355 -12030669.93043355 -13071160.03197737 0 0 0 0 0 107992633.0552511 -11032121.33706895 -11032121.33706895 -12684231.5816556 0 0 0 0 0 108375166.6087055 -10420065.68843229 -10420065.68843229 -12424041.04166318 0 0 0 0 0 108711309.3140918 -9831020.98687206 -9831020.98687206 -12157377.23560706 0 0 0 0 0 109004217.6886218 -9264652.70376274 -9264652.70376274 -11887839.0052178 0 0 0 0 0 109258475.3944738 -8721122.526597688 -8721122.526597688 -11615419.14048584 0 0 0 0 0 109716636.8212041 -8537164.847322818 -8537164.847322818 -11400379.7516615 0 0 0 0 0 109209075.2821699 -7788117.119731053 -7788117.119731053 -10927191.42934704 0 0 0 0 0 109895204.7163289 -8031454.237505621 -8031454.237505621 -11147208.64204426 0 0 0 0 0 109375263.0207128 -7317803.592460364 -7317803.592460364 -10663207.96949374 0 0 0 0 0 109513889.5422055 -6867467.24890082 -6867467.24890082 -10399319.43331446 0 0 0 0 0 109628035.9441418 -6436409.123647601 -6436409.123647601 -10135831.78419761 0 0 0 0 0 109718608.7307828 -6024647.956562796 -6024647.956562796 -9873817.002795264 0 0 0 0 0 109395476.9381298 -5750384.631759441 -5750384.631759441 -9528660.01510787 0 0 0 0 0 109972741.0985945 -5925327.369901431 -5925327.369901431 -9765006.825006874 0 0 0 0 0 109455697.2998091 -5380533.611188774 -5380533.611188774 -9281628.304757273 0 0 0 0 0 109498857.2833498 -5027203.036997771 -5027203.036997771 -9036239.569803175 0 0 0 0 0 109525476.1099652 -4690149.502467919 -4690149.502467919 -8794139.810549708 0 0 0 0 0 109537719.5411569 -4368426.69384212 -4368426.69384212 -8554881.395737721 0 0 0 0 0 109536683.0798828 -4061732.395983311 -4061732.395983311 -8318919.154971043 0 0 0 0 0 109632806.4238548 -3732426.326114929 -3732426.326114929 -8061312.178215212 0 0 0 0 0 109523573.5875899 -3769512.86902519 -3769512.86902519 -8086438.653283201 0 0 0 0 0 109186673.4512091 -3626811.533651856 -3626811.533651856 -7827527.409789165 0 0 0 0 0 109162241.0715684 -3363597.946858312 -3363597.946858312 -7610857.745893108 0 0 0 0 0 109128737.5644697 -3112646.949852015 -3112646.949852015 -7397649.169438233 0 0 0 0 0 109089592.9830244 -2877598.272807775 -2877598.272807775 -7182996.246183136 0 0 0 0 0 109039332.0026449 -2657221.024616725 -2657221.024616725 -6976133.90881324 0 0 0 0 0 108964775.6788456 -2455642.27210382 -2455642.27210382 -6790145.438751061 0 0 0 0 0 108997244.7630932 -2453946.362779578 -2453946.362779578 -6814206.050336646 0 0 0 0 0 108641602.8906178 -2385924.744887205 -2385924.744887205 -6595432.839237968 0 0 0 0 0 108582476.5243384 -2189584.160729479 -2189584.160729479 -6407962.185312727 0 0 0 0 0 108525540.9050965 -2003436.037447702 -2003436.037447702 -6224104.509993136 0 0 0 0 0 108457157.1033935 -1825660.004227455 -1825660.004227455 -6044112.287126658 0 0 0 0 0 108468510.7859502 -1830490.965952398 -1830490.965952398 -6075118.066490532 0 0 0 0 0 108167531.1305939 -1782334.686446283 -1782334.686446283 -5877968.549616953 0 0 0 0 0 108100042.5396012 -1621062.731672658 -1621062.731672658 -5710292.454167384 0 0 0 0 0 108029347.9965279 -1467442.619706376 -1467442.619706376 -5546988.728523889 0 0 0 0 0 107956126.1045438 -1319331.046941957 -1319331.046941957 -5385071.206814442 0 0 0 0 0 107902189.3993993 -1182500.877018382 -1182500.877018382 -5199064.614930838 0 0 0 0 0 107833315.0362555 -1081618.476922766 -1081618.476922766 -5064483.763321071 0 0 0 0 0 107740789.6575555 -1016460.397963293 -1016460.397963293 -4955111.264602878 0 0 0 0 0 107621217.2442031 -957113.5651161677 -957113.5651161677 -4854597.644843709 0 0 0 0 0 107510106.264759 -899344.3417196604 -899344.3417196604 -4748617.660203567 0 0 0 0 0 104308857.1159559 -17168467.24346954 -17168467.24346954 -15429878.04048103 0 0 0 0 0 -3523477.857715481 -1767542.488163898 -1767542.488163898 -52269199.96818881 0 0 0 0 0 -2968792.006247061 -2425024.957810616 -2425024.957810616 -47992464.17588799 0 0 0 0 0 -1872909.413253051 -3933521.509914841 -3933521.509914841 -44787285.20725045 0 0 0 0 0 -640113.0828469922 -5644746.605555732 -5644746.605555732 -42575313.94747245 0 0 0 0 0 -407871.9347033877 -4411457.59595306 -4411457.59595306 -37635807.75412851 0 0 0 0 0 3529265.535916762 -9220118.597888321 -9220118.597888321 -32992068.90345753 0 0 0 0 0 6107493.214375196 -11568564.73399187 -11568564.73399187 -30311406.81201739 0 0 0 0 0 8970974.650926907 -14068402.97041114 -14068402.97041114 -27813326.89799311 0 0 0 0 0 12255456.4793956 -16579610.8101181 -16579610.8101181 -25559233.05673661 0 0 0 0 0 18923975.05690069 -20356238.58979804 -20356238.58979804 -20591733.07379759 0 0 0 0 0 13448358.03434305 -15833165.81351872 -15833165.81351872 -23964656.08436953 0 0 0 0 0 22907010.22571846 -22545508.03322686 -22545508.03322686 -19384723.35217807 0 0 0 0 0 27126640.491932 -24557338.75033234 -24557338.75033234 -18422650.09316515 0 0 0 0 0 31530593.19312304 -26361672.19685435 -26361672.19685435 -17691450.27404596 0 0 0 0 0 36066383.13855483 -27935972.53001375 -27935972.53001375 -17174017.30884128 0 0 0 0 0 40679516.22511213 -29264885.13842622 -29264885.13842622 -16841683.28634927 0 0 0 0 0 45319706.6890953 -30340579.46023861 -30340579.46023861 -16666797.32197022 0 0 0 0 0 49943594.09224835 -31163216.42271717 -31163216.42271717 -16620857.47280512 0 0 0 0 0 54505705.20600232 -31738809.94785711 -31738809.94785711 -16675717.34458221 0 0 0 0 0 58031201.46349294 -30613224.66827542 -30613224.66827542 -16140392.59142171 0 0 0 0 0 60482122.63563222 -31768450.14104399 -31768450.14104399 -16163716.4613129 0 0 0 0 0 64598541.80884268 -31815565.37441655 -31815565.37441655 -16405484.76559901 0 0 0 0 0 68564980.19134606 -31675645.064629 -31675645.064629 -16660804.21769193 0 0 0 0 0 72362051.62149791 -31367287.68585375 -31367287.68585375 -16915867.42813857 0 0 0 0 0 76597728.39339469 -30380278.03568979 -30380278.03568979 -16646661.68652884 0 0 0 0 0 75696378.00113133 -30243946.79663134 -30243946.79663134 -16193965.0732366 0 0 0 0 0 79843531.75150304 -29790269.15155977 -29790269.15155977 -16885414.69254094 0 0 0 0 0 82910948.46472202 -29097205.76043052 -29097205.76043052 -17089252.14587183 0 0 0 0 0 85791024.51675254 -28316514.2887938 -28316514.2887938 -17254712.87078827 0 0 0 0 0 88483531.70471832 -27462629.9197271 -27462629.9197271 -17378011.4353763 0 0 0 0 0 90989716.85667062 -26550294.25866949 -26550294.25866949 -17457994.1238271 0 0 0 0 0 93314686.36607982 -25593217.95288114 -25593217.95288114 -17494410.49370436 0 0 0 0 0 95721034.87925963 -24722460.54319045 -24722460.54319045 -16735557.60735201 0 0 0 0 0 95186380.12513256 -24221226.05543259 -24221226.05543259 -17057051.07303651 0 0 0 0 0 97087244.70199622 -23249371.3837431 -23249371.3837431 -17024139.72478417 0 0 0 0 0 98830558.27536888 -22265030.7763897 -22265030.7763897 -16952216.20016693 0 0 0 0 0 100427507.5368106 -21274797.9572238 -21274797.9572238 -16843508.64796859 0 0 0 0 0 101882584.9978648 -20285732.94807359 -20285732.94807359 -16699132.46616725 0 0 0 0 0 103215897.3714245 -19312137.19601481 -19312137.19601481 -16513603.06003755 0 0 0 0 0 104735756.4793501 -18744755.08280604 -18744755.08280604 -15968371.08641889 0 0 0 0 0 103793952.5534861 -18219111.14533148 -18219111.14533148 -15980569.86383033 0 0 0 0 0 104856746.2235785 -17307843.60241317 -17307843.60241317 -15770688.1552065 0 0 0 0 0 105585441.4334702 -16673638.60204039 -16673638.60204039 -14894160.20518769 0 0 0 0 0 106436153.9075672 -15846220.98172224 -15846220.98172224 -14714514.42210172 0 0 0 0 0 106627886.5661196 -14952368.92855383 -14952368.92855383 -14198474.32676897 0 0 0 0 0 105541171.6124198 -15381480.48474298 -15381480.48474298 -14680805.28789996 0 0 0 0 0 107306836.1164015 -14191732.31602176 -14191732.31602176 -14003652.61767268 0 0 0 0 0 107911397.3705441 -13451522.13900329 -13451522.13900329 -13790285.1161731 0 0 0 0 0 108449454.0560734 -12732247.683705 -12732247.683705 -13563849.81327749 0 0 0 0 0 108925261.8366514 -12036420.0234396 -12036420.0234396 -13324805.45167347 0 0 0 0 0 108796196.0624893 -11378125.59293699 -11378125.59293699 -12838537.69755741 0 0 0 0 0 108078833.4495123 -11665585.89073376 -11665585.89073376 -13172985.70893603 0 0 0 0 0 109165996.1611637 -10748101.8299899 -10748101.8299899 -12596769.20330604 0 0 0 0 0 109487740.611605 -10141215.87788132 -10141215.87788132 -12347668.66779857 0 0 0 0 0 109764782.1257516 -9558222.807996491 -9558222.807996491 -12093453.23249087 0 0 0 0 0 110002661.1173103 -8997628.880324902 -8997628.880324902 -11832607.81148833 0 0 0 0 0 110204377.8387353 -8459165.920197487 -8459165.920197487 -11567815.52797995 0 0 0 0 0 109477911.0903265 -8198286.479090562 -8198286.479090562 -11340240.74490143 0 0 0 0 0 110043392.7707591 -7546405.550029533 -7546405.550029533 -10891695.67515097 0 0 0 0 0 109664876.7495773 -7696849.662392871 -7696849.662392871 -11063654.66580029 0 0 0 0 0 110163473.1998163 -7081788.217947164 -7081788.217947164 -10635001.80419792 0 0 0 0 0 110258560.9735736 -6637130.701306337 -6637130.701306337 -10377500.80614416 0 0 0 0 0 110330103.2559914 -6211950.066015099 -6211950.066015099 -10120421.93345962 0 0 0 0 0 110380320.9179487 -5806019.653704712 -5806019.653704712 -9864121.886238357 0 0 0 0 0 110015011.8428707 -5543901.097180604 -5543901.097180604 -9521170.822855495 0 0 0 0 0 109788076.628063 -5631401.233177388 -5631401.233177388 -9613724.86790755 0 0 0 0 0 110040086.0801267 -5179285.993483656 -5179285.993483656 -9278352.667075964 0 0 0 0 0 110049003.9661486 -4831511.392783266 -4831511.392783266 -9038138.369534433 0 0 0 0 0 110043782.5733525 -4499640.956569926 -4499640.956569926 -8799689.913465219 0 0 0 0 0 110025423.5437788 -4183302.7325322 -4183302.7325322 -8564099.111973591 0 0 0 0 0 109995114.7963312 -3882019.372602813 -3882019.372602813 -8331640.995013253 0 0 0 0 0 109499395.2310383 -3491286.297407588 -3491286.297407588 -7857951.787244292 0 0 0 0 0 109954079.7334859 -3595135.294895937 -3595135.294895937 -8102583.421671799 0 0 0 0 0 109592787.1959918 -3461367.051076278 -3461367.051076278 -7843324.666405844 0 0 0 0 0 109544521.6926752 -3203100.143798878 -3203100.143798878 -7628609.685830885 0 0 0 0 0 109487324.0286973 -2957121.60609977 -2957121.60609977 -7418074.263539429 0 0 0 0 0 109412378.8377854 -2731775.323066453 -2731775.323066453 -7220266.386500522 0 0 0 0 0 109328237.9821723 -2523436.487549256 -2523436.487549256 -7030606.092092511 0 0 0 0 0 109255266.1995228 -2316051.079451712 -2316051.079451712 -6823105.980887405 0 0 0 0 0 108897888.4287481 -2253751.318691721 -2253751.318691721 -6597058.010984129 0 0 0 0 0 108926865.5976298 -2251251.761010345 -2251251.761010345 -6618807.80272605 0 0 0 0 0 108851572.4695897 -2058623.565539873 -2058623.565539873 -6432674.811052586 0 0 0 0 0 108772723.0182345 -1875422.586143238 -1875422.586143238 -6252054.279749154 0 0 0 0 0 108690096.0405654 -1702152.448600091 -1702152.448600091 -6072390.99070416 0 0 0 0 0 108385755.7258605 -1656303.403050863 -1656303.403050863 -5868304.198763548 0 0 0 0 0 108389787.6253824 -1664622.951993062 -1664622.951993062 -5904874.121896956 0 0 0 0 0 108308016.7478937 -1506947.16580013 -1506947.16580013 -5738169.659935459 0 0 0 0 0 108224473.3257496 -1357319.670310222 -1357319.670310222 -5575216.999383112 0 0 0 0 0 108137874.7436967 -1213888.359684743 -1213888.359684743 -5414618.5951442 0 0 0 0 0 108007373.8552212 -1089003.947410583 -1089003.947410583 -5273597.804436509 0 0 0 0 0 107843368.8604964 -1009325.85299416 -1009325.85299416 -5174537.433232728 0 0 0 0 0 107714397.5941714 -956324.4450196426 -956324.4450196426 -5061306.576381142 0 0 0 0 0 107591210.8769405 -897867.6986425146 -897867.6986425146 -4953069.095585307 0 0 0 0 0 107470474.6665066 -840102.3289362503 -840102.3289362503 -4846559.637183947 0 0 0 0 0 106171781.7580405 -16802167.74496796 -16802167.74496796 -15238780.56523607 0 0 0 0 0 -3927014.548259266 1334066.527123828 1334066.527123828 -57542996.14638598 0 0 0 0 0 -3631417.23175668 157366.7616698734 157366.7616698734 -51781353.32796595 0 0 0 0 0 -3340312.102336057 -1041930.570698111 -1041930.570698111 -47541630.3240454 0 0 0 0 0 -2244407.16136137 -2677579.270277862 -2677579.270277862 -44232304.26943728 0 0 0 0 0 1176887.566082739 -7512527.939291473 -7512527.939291473 -39399217.13223126 0 0 0 0 0 1379711.568230973 -6476007.274553033 -6476007.274553033 -35380359.84145485 0 0 0 0 0 3681100.093159252 -8805616.900226152 -8805616.900226152 -32771020.96118278 0 0 0 0 0 6712145.175822542 -11353328.64525076 -11353328.64525076 -30200556.89512418 0 0 0 0 0 10246473.14472214 -13962950.24590267 -13962950.24590267 -27819670.92819724 0 0 0 0 0 17499359.08626259 -18277840.47776671 -18277840.47776671 -22347183.87588429 0 0 0 0 0 15917806.69385155 -19040475.55508294 -19040475.55508294 -23584243.55256188 0 0 0 0 0 21873140.56028012 -20599654.11055799 -20599654.11055799 -20956855.29468838 0 0 0 0 0 26508633.43948843 -22753962.59808026 -22753962.59808026 -19797485.42291662 0 0 0 0 0 31341632.83854733 -24703231.67346774 -24703231.67346774 -18864930.14410003 0 0 0 0 0 36316408.9993977 -26420501.15811926 -26420501.15811926 -18144979.69948248 0 0 0 0 0 41351507.64755752 -27884228.91482828 -27884228.91482828 -17618839.81753678 0 0 0 0 0 46393091.06763115 -29085707.49613481 -29085707.49613481 -17264584.23849256 0 0 0 0 0 51378675.19895864 -30021671.59914776 -30021671.59914776 -17053958.02132461 0 0 0 0 0 56268649.94956334 -30698658.08423644 -30698658.08423644 -16962198.81788737 0 0 0 0 0 58970366.55615502 -32078119.15237039 -32078119.15237039 -16805554.80937423 0 0 0 0 0 62533837.18311442 -30933533.26504621 -30933533.26504621 -16239957.61287983 0 0 0 0 0 66870610.53600156 -31041743.35743375 -31041743.35743375 -16387328.40826964 0 0 0 0 0 71019252.54304731 -30955427.3087833 -30955427.3087833 -16564161.55105307 0 0 0 0 0 74963477.00984098 -30691707.5995739 -30691707.5995739 -16753810.28122116 0 0 0 0 0 79226288.23550643 -29803736.40487196 -29803736.40487196 -16415627.41087947 0 0 0 0 0 75973909.97549473 -30908781.61456886 -30908781.61456886 -17156874.53628926 0 0 0 0 0 82547037.37957381 -29236774.0819145 -29236774.0819145 -16615991.86162912 0 0 0 0 0 85658268.47909014 -28563293.41125941 -28563293.41125941 -16795436.80769971 0 0 0 0 0 88558096.78748371 -27798738.41767399 -27798738.41767399 -16944798.16816221 0 0 0 0 0 91247361.4042763 -26958381.44335628 -26958381.44335628 -17059600.80965903 0 0 0 0 0 93731639.90387326 -26057543.11894671 -26057543.11894671 -17137357.83166171 0 0 0 0 0 96015948.90547954 -25110260.91549524 -25110260.91549524 -17176762.04106643 0 0 0 0 0 95461637.15630248 -24603452.08557211 -24603452.08557211 -17487626.20101494 0 0 0 0 0 97730507.34256859 -23776916.81582217 -23776916.81582217 -16751716.69789249 0 0 0 0 0 99567677.75551529 -22811205.55851382 -22811205.55851382 -16730038.96464803 0 0 0 0 0 101242942.7805848 -21831947.77724805 -21831947.77724805 -16670048.07772974 0 0 0 0 0 102764802.9959956 -20847090.83928688 -20847090.83928688 -16576057.22418779 0 0 0 0 0 104144126.7103194 -19862193.51090275 -19862193.51090275 -16446159.4234088 0 0 0 0 0 105359637.9932888 -18904135.76406623 -18904135.76406623 -16304859.2057739 0 0 0 0 0 104394097.5242404 -18353175.41801263 -18353175.41801263 -16284621.35902916 0 0 0 0 0 105800115.7163502 -17821670.74894068 -17821670.74894068 -15753104.43328473 0 0 0 0 0 106784317.0475412 -16921033.07798256 -16921033.07798256 -15570659.93683806 0 0 0 0 0 105246480.8740124 -16309337.92195807 -16309337.92195807 -15219073.6868644 0 0 0 0 0 106098930.8489097 -15471362.35529672 -15471362.35529672 -14986745.16031982 0 0 0 0 0 106300202.7879783 -14589711.92564013 -14589711.92564013 -14452300.56369085 0 0 0 0 0 107199963.0613162 -15040973.27620209 -15040973.27620209 -14516493.87245464 0 0 0 0 0 106983292.8761245 -13819277.80826396 -13819277.80826396 -14206971.30060996 0 0 0 0 0 107592600.0249949 -13071838.45406549 -13071838.45406549 -13948645.67062122 0 0 0 0 0 108137329.4585912 -12348902.95071498 -12348902.95071498 -13679067.89249346 0 0 0 0 0 108620261.8140281 -11650790.83351804 -11650790.83351804 -13399867.54665706 0 0 0 0 0 108508411.7467529 -11011406.82181285 -11011406.82181285 -12902697.95853454 0 0 0 0 0 109343607.7303624 -11363956.12498203 -11363956.12498203 -13075101.51930719 0 0 0 0 0 108886618.0286145 -10381781.60480659 -10381781.60480659 -12626119.07222415 0 0 0 0 0 109217672.9852467 -9776667.804091588 -9776667.804091588 -12344438.79135005 0 0 0 0 0 109504504.515792 -9195516.36305155 -9195516.36305155 -12057191.02616411 0 0 0 0 0 109749872.6311385 -8639091.950593423 -8639091.950593423 -11771028.9071623 0 0 0 0 0 109960682.4304429 -8104316.943957455 -8104316.943957455 -11480515.76321081 0 0 0 0 0 110372707.8154761 -7942268.324920989 -7942268.324920989 -11300259.64547099 0 0 0 0 0 109821723.3607409 -7216602.691139276 -7216602.691139276 -10786475.45722304 0 0 0 0 0 110510372.6167383 -7446791.34843554 -7446791.34843554 -11031031.03967095 0 0 0 0 0 109950978.5551205 -6757341.729992002 -6757341.729992002 -10509567.26832849 0 0 0 0 0 110054023.6613849 -6318670.994338625 -6318670.994338625 -10234091.72987307 0 0 0 0 0 110133987.7070427 -5900029.519272592 -5900029.519272592 -9960662.472439656 0 0 0 0 0 110192596.8812091 -5500680.507539021 -5500680.507539021 -9689310.786258139 0 0 0 0 0 109838085.661162 -5255949.475698148 -5255949.475698148 -9355943.817321364 0 0 0 0 0 110411451.8602872 -5418629.902892439 -5418629.902892439 -9609263.217886997 0 0 0 0 0 109870434.3210571 -4897790.428322818 -4897790.428322818 -9101036.662438711 0 0 0 0 0 109886977.8024057 -4556394.331702225 -4556394.331702225 -8849239.284361163 0 0 0 0 0 109888832.9290497 -4231121.924093078 -4231121.924093078 -8600970.215825379 0 0 0 0 0 109877480.8822442 -3921390.340957522 -3921390.340957522 -8356429.947794878 0 0 0 0 0 109854018.1342766 -3626609.014521859 -3626609.014521859 -8115976.178459555 0 0 0 0 0 109903649.6106362 -3322028.057864384 -3322028.057864384 -7876761.556249938 0 0 0 0 0 109819587.1880791 -3346299.963854481 -3346299.963854481 -7879618.355044493 0 0 0 0 0 109465475.0332412 -3226523.818201425 -3226523.818201425 -7633516.313969809 0 0 0 0 0 109422882.4604828 -2974060.439112818 -2974060.439112818 -7413768.902685327 0 0 0 0 0 109374428.7429066 -2736303.682370008 -2736303.682370008 -7195753.202162311 0 0 0 0 0 109318636.1313507 -2511456.508698905 -2511456.508698905 -6977826.24679018 0 0 0 0 0 109240453.7383289 -2309064.852775719 -2309064.852775719 -6779882.195876269 0 0 0 0 0 109157676.7749082 -2110983.726364315 -2110983.726364315 -6588057.270731266 0 0 0 0 0 109175962.1671438 -2115215.45789348 -2115215.45789348 -6624454.680266855 0 0 0 0 0 108830979.0684983 -2057010.571530404 -2057010.571530404 -6404102.186565569 0 0 0 0 0 108760057.4901693 -1869625.210555883 -1869625.210555883 -6215884.651680989 0 0 0 0 0 108686628.3030059 -1692567.487501892 -1692567.487501892 -6031537.926905984 0 0 0 0 0 108607527.7959664 -1523951.849789454 -1523951.849789454 -5851525.876206302 0 0 0 0 0 108604019.1052758 -1536777.267996725 -1536777.267996725 -5897361.837539438 0 0 0 0 0 108311039.5403795 -1495302.390077892 -1495302.390077892 -5696384.50983457 0 0 0 0 0 108233380.2048186 -1342572.004934872 -1342572.004934872 -5527798.981057811 0 0 0 0 0 108152462.1333626 -1195787.517125729 -1195787.517125729 -5362632.737827711 0 0 0 0 0 108070241.574259 -1050204.124254489 -1050204.124254489 -5194273.74470627 0 0 0 0 0 108041012.4950158 -900542.2689780835 -900542.2689780835 -4992061.712814165 0 0 0 0 0 107924557.0714649 -844543.9416133057 -844543.9416133057 -4882786.465395288 0 0 0 0 0 107798076.4210463 -789164.9955166932 -789164.9955166932 -4779421.529094485 0 0 0 0 0 107672733.6542775 -733622.7575818413 -733622.7575818413 -4676391.703330099 0 0 0 0 0 105820136.5986017 -16415572.67941888 -16415572.67941888 -15537881.09860092 0 0 0 0 0 -3957483.592159309 -1719686.757016888 -1719686.757016888 -62484837.68368014 0 0 0 0 0 -3934138.800314543 -1536670.432298618 -1536670.432298618 -55980486.97981475 0 0 0 0 0 -2804463.424558617 -2388555.384626351 -2388555.384626351 -53179407.09926224 0 0 0 0 0 -1960200.543167175 -3551844.889344994 -3551844.889344994 -50655747.16986222 0 0 0 0 0 -688005.8023672908 -5358498.630551349 -5358498.630551349 -47034415.21887052 0 0 0 0 0 -830682.4769859512 -4292836.875113712 -4292836.875113712 -41906545.66896883 0 0 0 0 0 3417210.072881176 -9690286.038499102 -9690286.038499102 -35901389.79439379 0 0 0 0 0 6182498.473957956 -12147242.1273379 -12147242.1273379 -32695399.77115615 0 0 0 0 0 9319733.64912577 -14717427.36115182 -14717427.36115182 -29733087.16636039 0 0 0 0 0 12893097.46101431 -17304345.87500735 -17304345.87500735 -27106446.28481089 0 0 0 0 0 19914954.58964045 -21393385.83747075 -21393385.83747075 -21906535.83500432 0 0 0 0 0 14232929.22793446 -16559141.81650325 -16559141.81650325 -25675397.3532157 0 0 0 0 0 24195011.21927553 -23591270.21408272 -23591270.21408272 -20529727.14651117 0 0 0 0 0 28702172.77615334 -25591850.63125192 -25591850.63125192 -19442373.76940896 0 0 0 0 0 33382287.19126619 -27363066.61578371 -27363066.61578371 -18622200.61130698 0 0 0 0 0 38172455.95272608 -28882204.62793365 -28882204.62793365 -18040850.98186651 0 0 0 0 0 43013682.53872787 -30133281.33847266 -30133281.33847266 -17664369.11689373 0 0 0 0 0 47851089.08766713 -31112694.85023769 -31112694.85023769 -17458218.41760951 0 0 0 0 0 52641127.3597398 -31824133.08201129 -31824133.08201129 -17388367.96444545 0 0 0 0 0 57336799.56387229 -32277312.88156907 -32277312.88156907 -17421556.28751077 0 0 0 0 0 61021008.23091952 -31127037.38616868 -31127037.38616868 -16962159.8692782 0 0 0 0 0 63305846.67892154 -32196357.85803063 -32196357.85803063 -16986354.19516297 0 0 0 0 0 67483118.2638977 -32109498.12803857 -32109498.12803857 -17195601.31804726 0 0 0 0 0 71485343.89467537 -31837929.92183196 -31837929.92183196 -17415867.3639189 0 0 0 0 0 75294231.40024719 -31400823.2261872 -31400823.2261872 -17632007.98743411 0 0 0 0 0 79388480.42730905 -30317615.99962244 -30317615.99962244 -17375193.52912242 0 0 0 0 0 78690231.36978824 -30271158.34057435 -30271158.34057435 -16944237.47988899 0 0 0 0 0 82613146.73057133 -29615027.65745695 -29615027.65745695 -17563549.56899748 0 0 0 0 0 85637726.85743997 -28816090.44719989 -28816090.44719989 -17715188.19884335 0 0 0 0 0 88461106.55258314 -27937059.06869499 -27937059.06869499 -17825254.00271552 0 0 0 0 0 91085087.77044752 -26994418.67798518 -26994418.67798518 -17892471.99264136 0 0 0 0 0 93513947.44252436 -26002440.94692608 -26002440.94692608 -17915303.07349749 0 0 0 0 0 95752303.30918494 -24975138.72591216 -24975138.72591216 -17894606.64871053 0 0 0 0 0 98108290.02021283 -24129346.3245566 -24129346.3245566 -17177415.95432695 0 0 0 0 0 97436634.47665429 -23591849.79989618 -23591849.79989618 -17438882.17526577 0 0 0 0 0 99245257.00978968 -22567459.68081563 -22567459.68081563 -17350625.45174744 0 0 0 0 0 100897789.0910996 -21537912.72528831 -21537912.72528831 -17225131.73332225 0 0 0 0 0 102402833.5490273 -20510070.26101762 -20510070.26101762 -17064270.6278149 0 0 0 0 0 103777049.4163506 -19498925.59268369 -19498925.59268369 -16869983.97920683 0 0 0 0 0 104993170.099131 -18505200.69824048 -18505200.69824048 -16635239.93234581 0 0 0 0 0 106440422.3141951 -17957892.12551782 -17957892.12551782 -16132066.94107725 0 0 0 0 0 105440281.9406063 -17433081.31225982 -17433081.31225982 -16098516.4734344 0 0 0 0 0 106416956.3843306 -16509055.99573475 -16509055.99573475 -15845032.65249154 0 0 0 0 0 107033607.1969506 -15947009.78826019 -15947009.78826019 -15042669.17580277 0 0 0 0 0 107801169.8377915 -15115935.30270385 -15115935.30270385 -14829971.33570264 0 0 0 0 0 107883924.1578409 -14253870.93450066 -14253870.93450066 -14302031.17028023 0 0 0 0 0 106860645.7437421 -14654318.45730005 -14654318.45730005 -14742565.97494377 0 0 0 0 0 108490845.1737003 -13488187.79988751 -13488187.79988751 -14071607.14608054 0 0 0 0 0 109028145.8299853 -12746313.21680153 -12746313.21680153 -13826661.87072789 0 0 0 0 0 109500811.8758575 -12028846.80432801 -12028846.80432801 -13570360.84413107 0 0 0 0 0 109913907.259939 -11336482.97904012 -11336482.97904012 -13303493.58740783 0 0 0 0 0 109708222.9237252 -10715563.74410154 -10715563.74410154 -12816941.05201035 0 0 0 0 0 109046220.887371 -10977711.94052726 -10977711.94052726 -13112475.43945915 0 0 0 0 0 110023099.675941 -10091716.1252228 -10091716.1252228 -12551344.36554965 0 0 0 0 0 110292555.4905999 -9492517.665176105 -9492517.665176105 -12280210.34872707 0 0 0 0 0 110518996.9024974 -8919064.659217961 -8919064.659217961 -12006805.69943633 0 0 0 0 0 110710298.2725543 -8367356.543795547 -8367356.543795547 -11726022.63538778 0 0 0 0 0 110866419.9316633 -7839455.626495762 -7839455.626495762 -11444763.30372637 0 0 0 0 0 110137112.0991858 -7592562.686809123 -7592562.686809123 -11190364.29895213 0 0 0 0 0 110619607.9193414 -6972672.716111788 -6972672.716111788 -10760973.20719517 0 0 0 0 0 110283196.9185946 -7102863.749394484 -7102863.749394484 -10900060.74420876 0 0 0 0 0 110702444.6259258 -6519737.487139897 -6519737.487139897 -10491165.95538127 0 0 0 0 0 110761874.9046002 -6087428.061719824 -6087428.061719824 -10221926.24433344 0 0 0 0 0 110800274.6555811 -5674931.376413445 -5674931.376413445 -9953927.506654466 0 0 0 0 0 110819164.6274105 -5281771.473316691 -5281771.473316691 -9688067.854184378 0 0 0 0 0 110424846.5317751 -5049027.020948902 -5049027.020948902 -9356299.428883478 0 0 0 0 0 110231745.3444262 -5119831.386463671 -5119831.386463671 -9420842.536625456 0 0 0 0 0 110422491.3987187 -4696715.221100026 -4696715.221100026 -9105672.059768917 0 0 0 0 0 110405807.8707112 -4361017.745934346 -4361017.745934346 -8857944.507247325 0 0 0 0 0 110376146.1566072 -4041481.180080957 -4041481.180080957 -8613311.766526194 0 0 0 0 0 110334701.3859125 -3737454.210328323 -3737454.210328323 -8372227.032049658 0 0 0 0 0 110282747.852427 -3448312.651600628 -3448312.651600628 -8134848.192728342 0 0 0 0 0 109775337.4500669 -3079918.962136615 -3079918.962136615 -7647837.170477173 0 0 0 0 0 110221268.6161295 -3173450.397438949 -3173450.397438949 -7901450.772349586 0 0 0 0 0 109844847.9531769 -3062151.760550672 -3062151.760550672 -7654487.133251035 0 0 0 0 0 109779794.7428967 -2815139.443687325 -2815139.443687325 -7436426.68058296 0 0 0 0 0 109700971.5379547 -2582268.775029984 -2582268.775029984 -7224980.490948763 0 0 0 0 0 109608135.9002905 -2371464.319511858 -2371464.319511858 -7030196.198564181 0 0 0 0 0 109515812.5465799 -2169946.784712535 -2169946.784712535 -6828801.084700625 0 0 0 0 0 109428934.8535852 -1972596.379540299 -1972596.379540299 -6623037.574673953 0 0 0 0 0 109080734.0190178 -1916637.474519148 -1916637.474519148 -6392795.282212746 0 0 0 0 0 109092668.2825493 -1923501.005551399 -1923501.005551399 -6432297.938411437 0 0 0 0 0 109005278.8837961 -1740666.994823562 -1740666.994823562 -6244913.15581195 0 0 0 0 0 108914470.0448082 -1567236.414748254 -1567236.414748254 -6062265.215144466 0 0 0 0 0 108820829.5725765 -1402889.664404196 -1402889.664404196 -5882817.51179887 0 0 0 0 0 108525252.9812237 -1363590.763962653 -1363590.763962653 -5675902.01933274 0 0 0 0 0 108515178.1815443 -1379445.181315939 -1379445.181315939 -5726332.556180635 0 0 0 0 0 108423879.9348618 -1229783.405174353 -1229783.405174353 -5558903.607682053 0 0 0 0 0 108337513.2394811 -1082608.776935714 -1082608.776935714 -5389654.581436135 0 0 0 0 0 108259400.5490628 -926929.0329482623 -926929.0329482623 -5204461.025190701 0 0 0 0 0 107999795.0471204 -845412.3754094585 -845412.3754094585 -5088297.274735698 0 0 0 0 0 107880439.4854299 -786049.9469836516 -786049.9469836516 -4981312.725669624 0 0 0 0 0 107749643.9244554 -730324.2724603043 -730324.2724603043 -4876395.428444242 0 0 0 0 0 107625433.4768838 -676505.9722366473 -676505.9722366473 -4769903.972033571 0 0 0 0 0 107659866.4212119 -16034796.08038408 -16034796.08038408 -15359530.73453888 0 0 0 0 0 -4540431.489857706 2273050.978786777 2273050.978786777 -68544830.65827507 0 0 0 0 0 -2971141.037949017 -307858.4018830023 -307858.4018830023 -62011972.45410886 0 0 0 0 0 -4115163.285401052 -138597.164131599 -138597.164131599 -55141099.38334925 0 0 0 0 0 -3654516.439624005 -692397.7212912065 -692397.7212912065 -52282424.38861094 0 0 0 0 0 -2647016.093349506 -1783284.714593877 -1783284.714593877 -49466676.23950999 0 0 0 0 0 1249164.647272869 -7327934.615781243 -7327934.615781243 -42682974.94155792 0 0 0 0 0 1115485.174369458 -6378942.750918685 -6378942.750918685 -38818172.51195779 0 0 0 0 0 3754937.393588566 -8892511.114647102 -8892511.114647102 -35490069.95514391 0 0 0 0 0 7066057.905764554 -11582181.27420065 -11582181.27420065 -32405192.37894441 0 0 0 0 0 10914444.7306982 -14333148.44523556 -14333148.44523556 -29600857.00690999 0 0 0 0 0 18608237.15647365 -19073184.20098802 -19073184.20098802 -23798369.02251092 0 0 0 0 0 16858188.85548623 -19831810.9155122 -19831810.9155122 -24837146.62064119 0 0 0 0 0 23308561.75656468 -21445567.16107965 -21445567.16107965 -22201707.6117608 0 0 0 0 0 28265123.43460134 -23625983.94212487 -23625983.94212487 -20884624.29862747 0 0 0 0 0 33403039.73040782 -25574748.54613767 -25574748.54613767 -19832880.50957197 0 0 0 0 0 38648951.89457958 -27261129.71075494 -27261129.71075494 -19026493.83735812 0 0 0 0 0 43931439.14959873 -28669307.31358176 -28669307.31358176 -18440229.24712306 0 0 0 0 0 49182070.76646806 -29791419.87926067 -29791419.87926067 -18040218.88214125 0 0 0 0 0 54336696.18453141 -30629348.15482039 -30629348.15482039 -17795685.35145585 0 0 0 0 0 59357772.93656716 -31193990.22228526 -31193990.22228526 -17675906.7036163 0 0 0 0 0 61904510.03576215 -32487634.88168514 -32487634.88168514 -17529881.19968278 0 0 0 0 0 65602928.7933745 -31321954.67392828 -31321954.67392828 -17030782.43848888 0 0 0 0 0 69988874.0277191 -31302065.40180495 -31302065.40180495 -17146323.56479109 0 0 0 0 0 74157426.81179084 -31086718.90140256 -31086718.90140256 -17288890.39170308 0 0 0 0 0 78094474.52152611 -30696324.4689545 -30696324.4689545 -17441041.02954948 0 0 0 0 0 82191925.67900884 -29710531.02839975 -29710531.02839975 -17120303.30136031 0 0 0 0 0 78895911.29104234 -30817375.89597493 -30817375.89597493 -17829169.02614509 0 0 0 0 0 85465462.00099723 -29032719.5423629 -29032719.5423629 -17277720.63836743 0 0 0 0 0 88513994.03816706 -28254526.66090328 -28254526.66090328 -17408229.79298731 0 0 0 0 0 91336337.52308935 -27393317.5547511 -27393317.5547511 -17506704.19628412 0 0 0 0 0 93937792.43190698 -26465755.16143922 -26465755.16143922 -17569276.51291009 0 0 0 0 0 96324288.57267295 -25486774.86701106 -25486774.86701106 -17593757.86088141 0 0 0 0 0 98505249.38597906 -24470609.28102692 -24470609.28102692 -17579399.2190717 0 0 0 0 0 97806855.19645055 -23923917.14156814 -23923917.14156814 -17831069.11164254 0 0 0 0 0 100016952.372103 -23125770.25722268 -23125770.25722268 -17139762.61137937 0 0 0 0 0 101752306.9275495 -22108421.4673038 -22108421.4673038 -17063811.90821143 0 0 0 0 0 103324568.3470777 -21085630.17451689 -21085630.17451689 -16952105.43921462 0 0 0 0 0 104743330.2920443 -20064509.55621428 -20064509.55621428 -16807304.701749 0 0 0 0 0 106004922.9578771 -19060115.35587981 -19060115.35587981 -16637265.93356942 0 0 0 0 0 107117918.1844712 -18082477.75780082 -18082477.75780082 -16441136.26107086 0 0 0 0 0 106081162.7649273 -17536334.69343276 -17536334.69343276 -16376699.18273481 0 0 0 0 0 107425767.0566578 -17020414.17057667 -17020414.17057667 -15887677.77136131 0 0 0 0 0 108317961.9552971 -16109692.39552382 -16109692.39552382 -15657947.85061274 0 0 0 0 0 106684680.5627482 -15546483.52225228 -15546483.52225228 -15286474.26390075 0 0 0 0 0 107455154.660066 -14701225.66438334 -14701225.66438334 -15018298.37147946 0 0 0 0 0 107548899.0305081 -13857183.34747615 -13857183.34747615 -14478170.19649335 0 0 0 0 0 108488787.0819342 -14301977.9027102 -14301977.9027102 -14592319.78102476 0 0 0 0 0 108161771.5985377 -13085923.38451486 -13085923.38451486 -14201281.81115627 0 0 0 0 0 108705925.3396888 -12340277.59608936 -12340277.59608936 -13913121.89936296 0 0 0 0 0 109186376.4308187 -11621255.27249104 -11621255.27249104 -13615907.44460097 0 0 0 0 0 109607833.7232616 -10929154.47055776 -10929154.47055776 -13310924.9881034 0 0 0 0 0 109419572.9035984 -10330137.67350435 -10330137.67350435 -12818690.85092396 0 0 0 0 0 110271997.2809245 -10669830.30679755 -10669830.30679755 -13028262.3405296 0 0 0 0 0 109744124.9256961 -9708250.1151112 -9708250.1151112 -12520390.32743748 0 0 0 0 0 110024433.0656361 -9112127.75045622 -9112127.75045622 -12218380.7198255 0 0 0 0 0 110262455.173649 -8541270.265862377 -8541270.265862377 -11914149.47984077 0 0 0 0 0 110461847.6701003 -7995386.881424898 -7995386.881424898 -11610047.65585349 0 0 0 0 0 110627852.217348 -7473357.288592897 -7473357.288592897 -11304912.50966957 0 0 0 0 0 110992241.5891275 -7334172.801136938 -7334172.801136938 -11161319.09679516 0 0 0 0 0 110401483.6431227 -6634784.570313569 -6634784.570313569 -10610250.37964604 0 0 0 0 0 111089795.5844737 -6851142.39678938 -6851142.39678938 -10877653.52929403 0 0 0 0 0 110494188.9687102 -6188286.069428399 -6188286.069428399 -10321990.21377072 0 0 0 0 0 110562267.8510763 -5763047.317841848 -5763047.317841848 -10036730.06611165 0 0 0 0 0 110608954.6085947 -5358034.98641082 -5358034.98641082 -9754868.618047809 0 0 0 0 0 110636959.1537861 -4971731.324014517 -4971731.324014517 -9474775.305653796 0 0 0 0 0 110252953.9406773 -4757232.335819569 -4757232.335819569 -9155932.556448726 0 0 0 0 0 110820244.3707119 -4907407.509217342 -4907407.509217342 -9424680.366253529 0 0 0 0 0 110258180.9094957 -4411878.528529909 -4411878.528529909 -8894594.205087919 0 0 0 0 0 110249007.2424119 -4083294.588024409 -4083294.588024409 -8637202.238304568 0 0 0 0 0 110226559.6999063 -3770851.965389108 -3770851.965389108 -8384171.454849033 0 0 0 0 0 110192174.0112538 -3473859.197844592 -3473859.197844592 -8135546.057686398 0 0 0 0 0 110146949.8816353 -3191772.594423014 -3191772.594423014 -7891806.057910707 0 0 0 0 0 110151651.0197606 -2912226.459681318 -2912226.459681318 -7671848.695584617 0 0 0 0 0 110092169.597211 -2923922.953607774 -2923922.953607774 -7652593.597882681 0 0 0 0 0 109722798.4719914 -2826918.940058947 -2826918.940058947 -7420171.312251855 0 0 0 0 0 109663095.9777483 -2586152.636007478 -2586152.636007478 -7198901.419443009 0 0 0 0 0 109598159.5094307 -2358740.230664578 -2358740.230664578 -6974189.107712015 0 0 0 0 0 109516536.9824842 -2153235.068897444 -2153235.068897444 -6767339.689302236 0 0 0 0 0 109429480.8561452 -1957404.894536568 -1957404.894536568 -6566453.696470916 0 0 0 0 0 109334031.5890289 -1768999.213241948 -1768999.213241948 -6372848.682625881 0 0 0 0 0 109337329.9587849 -1781144.861631732 -1781144.861631732 -6423478.294795961 0 0 0 0 0 109001421.209005 -1730021.491552214 -1730021.491552214 -6199524.567168104 0 0 0 0 0 108918509.2144013 -1552844.974765661 -1552844.974765661 -6010945.845768413 0 0 0 0 0 108832346.6243462 -1385127.466558052 -1385127.466558052 -5826563.424811536 0 0 0 0 0 108742505.9898596 -1225844.781160873 -1225844.781160873 -5647049.316754186 0 0 0 0 0 108724361.6707111 -1246635.064724118 -1246635.064724118 -5707804.777535655 0 0 0 0 0 108440112.6992162 -1211253.55257762 -1211253.55257762 -5504788.911951941 0 0 0 0 0 108351480.4287651 -1065679.728359088 -1065679.728359088 -5339283.545606467 0 0 0 0 0 108248824.2464136 -924504.308081287 -924504.308081287 -5181494.702725266 0 0 0 0 0 108123336.1344918 -808896.6677657354 -808896.6677657354 -5064456.848548637 0 0 0 0 0 108117169.359873 -667777.608688677 -667777.608688677 -4792733.194357056 0 0 0 0 0 108258579.3386768 -706701.0278856569 -706701.0278856569 -4897369.324745595 0 0 0 0 0 107967472.9860343 -616025.5134822829 -616025.5134822829 -4693855.242214315 0 0 0 0 0 107836169.5940338 -564993.5914511461 -564993.5914511461 -4591750.440419356 0 0 0 0 0 107297477.9562074 -15607582.96943194 -15607582.96943194 -15571922.50977938 0 0 0 0 0 -2828211.90610978 -1077110.312938831 -1077110.312938831 -75049429.68414173 0 0 0 0 0 -3791126.050316471 -697191.7217336389 -697191.7217336389 -69749360.21550649 0 0 0 0 0 -3859991.398366117 770091.691926343 770091.691926343 -62215775.25570519 0 0 0 0 0 -2981119.517869246 -1184229.550772294 -1184229.550772294 -60296996.51567279 0 0 0 0 0 -2063974.456692666 -2675975.910459685 -2675975.910459685 -56758793.9791678 0 0 0 0 0 -458423.0890887336 -4416844.379644437 -4416844.379644437 -50890962.32178108 0 0 0 0 0 -1274694.857325219 -3441224.647467767 -3441224.647467767 -45882489.5637856 0 0 0 0 0 3542318.603147053 -9733694.086466748 -9733694.086466748 -38514335.57417768 0 0 0 0 0 6497306.434794537 -12338012.8809511 -12338012.8809511 -34706225.64051405 0 0 0 0 0 9898364.845155146 -15049018.57529302 -15049018.57529302 -31267869.36447067 0 0 0 0 0 13762221.88474079 -17759905.03584204 -17759905.03584204 -28258211.1161885 0 0 0 0 0 21158644.99131779 -22238953.96229744 -22238953.96229744 -22941540.79284214 0 0 0 0 0 15219147.01105193 -17056968.00309659 -17056968.00309659 -27117115.83842702 0 0 0 0 0 25738386.63952723 -24468230.21791402 -24468230.21791402 -21408008.19856172 0 0 0 0 0 30537478.87772319 -26472969.60880079 -26472969.60880079 -20212275.0353381 0 0 0 0 0 35497089.36542699 -28219787.36067281 -28219787.36067281 -19321172.16976342 0 0 0 0 0 40535711.00597697 -29685129.00181612 -29685129.00181612 -18697044.90760697 0 0 0 0 0 45597230.85967315 -30859019.30138998 -30859019.30138998 -18294540.11304496 0 0 0 0 0 50620849.97908586 -31740594.32984239 -31740594.32984239 -18072637.61122175 0 0 0 0 0 55561742.55824045 -32338308.39146591 -32338308.39146591 -17991659.26747901 0 0 0 0 0 60376033.4513986 -32666930.69278876 -32666930.69278876 -18014967.37207319 0 0 0 0 0 64205363.99090713 -31499809.25133226 -31499809.25133226 -17650495.18987792 0 0 0 0 0 66310506.96435746 -32472311.13542723 -32472311.13542723 -17686131.14651782 0 0 0 0 0 70532094.37605281 -32251993.36684747 -32251993.36684747 -17867174.4562703 0 0 0 0 0 74549955.77824576 -31848026.17908652 -31848026.17908652 -18054277.59865695 0 0 0 0 0 78351478.86027987 -31282477.18954897 -31282477.18954897 -18232372.13048829 0 0 0 0 0 82288877.89236929 -30109668.12654967 -30109668.12654967 -18000988.30910633 0 0 0 0 0 81792368.87277506 -30152780.9232359 -30152780.9232359 -17590869.52228042 0 0 0 0 0 85466913.1377326 -29297437.72305486 -29297437.72305486 -18139758.58859336 0 0 0 0 0 88431344.35716449 -28396371.14284067 -28396371.14284067 -18237480.91056448 0 0 0 0 0 91181474.63885643 -27425146.39469655 -27425146.39469655 -18292720.33803027 0 0 0 0 0 93721734.66988544 -26399486.37097094 -26399486.37097094 -18303155.58950503 0 0 0 0 0 96057777.30756068 -25335075.40801691 -25335075.40801691 -18269851.3261924 0 0 0 0 0 98197341.93316309 -24244121.11378805 -24244121.11378805 -18192464.21866993 0 0 0 0 0 100489726.5929344 -23429351.53616997 -23429351.53616997 -17526042.22814813 0 0 0 0 0 99685096.15961549 -22859007.75435791 -22859007.75435791 -17726607.99000015 0 0 0 0 0 101396517.1697044 -21789326.6871854 -21789326.6871854 -17584090.86379974 0 0 0 0 0 102950471.1609356 -20721890.22168888 -20721890.22168888 -17405861.12713886 0 0 0 0 0 104360930.4669679 -19669663.69116931 -19669663.69116931 -17194740.68787271 0 0 0 0 0 105620112.8048518 -18633635.5862448 -18633635.5862448 -16944305.71477312 0 0 0 0 0 106734930.856942 -17621263.68291256 -17621263.68291256 -16671761.79326572 0 0 0 0 0 108111347.2964547 -17121107.25767326 -17121107.25767326 -16214790.2945501 0 0 0 0 0 107053039.0705599 -16588272.81363898 -16588272.81363898 -16129228.49688167 0 0 0 0 0 107938108.3621768 -15654772.42702053 -15654772.42702053 -15841503.95624559 0 0 0 0 0 108437211.2870321 -15173349.57604075 -15173349.57604075 -15127452.64638228 0 0 0 0 0 109125462.60322 -14333953.89018935 -14333953.89018935 -14874223.03584738 0 0 0 0 0 109097682.466588 -13511202.67806988 -13511202.67806988 -14343383.44610261 0 0 0 0 0 108143590.2072804 -13880324.24651888 -13880324.24651888 -14737298.31483745 0 0 0 0 0 109633611.2883316 -12745855.8889978 -12745855.8889978 -14080481.78145909 0 0 0 0 0 110102095.2703604 -12006704.55284944 -12006704.55284944 -13805913.10988858 0 0 0 0 0 110508836.0016191 -11294287.89790217 -11294287.89790217 -13521453.95747771 0 0 0 0 0 110858397.7889537 -10609318.66884917 -10609318.66884917 -13229078.24716743 0 0 0 0 0 110579223.9658796 -10028845.27273759 -10028845.27273759 -12746212.38246406 0 0 0 0 0 109974586.5860622 -10264133.64455638 -10264133.64455638 -13000251.36471482 0 0 0 0 0 110839897.5981 -9413564.686403282 -9413564.686403282 -12458435.43529896 0 0 0 0 0 111056855.0786452 -8824558.887603993 -8824558.887603993 -12167373.18015204 0 0 0 0 0 111235601.3863927 -8260587.991896126 -8260587.991896126 -11873579.09773589 0 0 0 0 0 111379663.825096 -7721613.610216361 -7721613.610216361 -11577017.1806132 0 0 0 0 0 111490580.5863001 -7207159.336707444 -7207159.336707444 -11280783.60370001 0 0 0 0 0 110761375.995238 -6975167.624030679 -6975167.624030679 -11001617.10735307 0 0 0 0 0 111160394.7764382 -6389774.006467916 -6389774.006467916 -10594607.78920373 0 0 0 0 0 110867301.8413602 -6498838.49058155 -6498838.49058155 -10699165.11338536 0 0 0 0 0 111206739.4727421 -5950264.396266947 -5950264.396266947 -10313322.56448253 0 0 0 0 0 111231910.8098336 -5531842.709594976 -5531842.709594976 -10033721.39327562 0 0 0 0 0 111238310.3963803 -5132733.177014408 -5132733.177014408 -9755855.735202333 0 0 0 0 0 111226084.7576991 -4753952.08789583 -4753952.08789583 -9482578.119726818 0 0 0 0 0 110805614.6620992 -4550908.164497188 -4550908.164497188 -9163883.621475965 0 0 0 0 0 110646019.2986502 -4604998.287961188 -4604998.287961188 -9200015.364263017 0 0 0 0 0 110776829.3238574 -4211734.028669086 -4211734.028669086 -8906480.774136765 0 0 0 0 0 110735151.0554408 -3889263.390266571 -3889263.390266571 -8652815.819114836 0 0 0 0 0 110681958.6147192 -3582847.142972855 -3582847.142972855 -8403015.507510068 0 0 0 0 0 110618365.1755668 -3291853.210711387 -3291853.210711387 -8157534.454799225 0 0 0 0 0 110545705.0025073 -3015470.431887381 -3015470.431887381 -7916248.01935029 0 0 0 0 0 110028694.4014651 -2669892.324124305 -2669892.324124305 -7418511.143824964 0 0 0 0 0 110464519.3775085 -2753266.946258404 -2753266.946258404 -7679691.916888874 0 0 0 0 0 110074493.6379605 -2664296.193546474 -2664296.193546474 -7446557.122782833 0 0 0 0 0 109994474.7276192 -2429401.291387209 -2429401.291387209 -7226123.902456855 0 0 0 0 0 109889629.4941247 -2215912.552702378 -2215912.552702378 -7020730.138668618 0 0 0 0 0 109784880.4922339 -2014463.936949467 -2014463.936949467 -6816270.870091111 0 0 0 0 0 109682135.1429146 -1821381.921985689 -1821381.921985689 -6614243.371068195 0 0 0 0 0 109585292.3518155 -1631604.295775472 -1631604.295775472 -6406090.773021738 0 0 0 0 0 109246246.3246184 -1583072.264362134 -1583072.264362134 -6174938.003186755 0 0 0 0 0 109241272.2011853 -1598998.013291477 -1598998.013291477 -6231201.879678592 0 0 0 0 0 109142210.498995 -1426247.622364917 -1426247.622364917 -6043498.738721518 0 0 0 0 0 109040114.7195648 -1262429.984399487 -1262429.984399487 -5860282.103866789 0 0 0 0 0 108936340.5997546 -1107564.814014102 -1107564.814014102 -5681256.145464766 0 0 0 0 0 108649765.0731109 -1074783.001405411 -1074783.001405411 -5471873.92440153 0 0 0 0 0 108625481.7025229 -1098436.199215975 -1098436.199215975 -5537065.877682573 0 0 0 0 0 108524928.8767428 -958059.1755938717 -958059.1755938717 -5370910.623862021 0 0 0 0 0 108426121.2010229 -823680.8886586163 -823680.8886586163 -5207646.287415178 0 0 0 0 0 108318911.0450236 -690387.9709287504 -690387.9709287504 -5020527.337491297 0 0 0 0 0 108033977.3814302 -604842.2015583335 -604842.2015583335 -4900218.495264545 0 0 0 0 0 108139763.9806669 -653225.321929941 -653225.321929941 -4985140.810925521 0 0 0 0 0 107907021.469984 -557658.8201955293 -557658.8201955293 -4789236.827231782 0 0 0 0 0 107777970.6841075 -508358.5120911779 -508358.5120911779 -4684301.59251962 0 0 0 0 0 109102632.5897069 -15216956.09092137 -15216956.09092137 -15409538.67887031 0 0 0 0 0 -3093572.518242355 2880164.229942166 2880164.229942166 -82741084.76880495 0 0 0 0 0 -3926310.441005909 3259605.776382782 3259605.776382782 -75442822.26893026 0 0 0 0 0 -3843004.310928183 1163536.171172574 1163536.171172574 -70682512.57651503 0 0 0 0 0 -3796310.514608001 876319.0418051509 876319.0418051509 -60681420.57758969 0 0 0 0 0 -3764923.231420636 1291861.922403466 1291861.922403466 -58611282.6790886 0 0 0 0 0 -3365311.196625816 210116.1011857496 210116.1011857496 -54536944.54418772 0 0 0 0 0 1312742.411018921 -6747349.163751289 -6747349.163751289 -45589552.63151173 0 0 0 0 0 1045323.651380314 -5847408.073982586 -5847408.073982586 -41823712.33642295 0 0 0 0 0 3971355.931235341 -8571303.091858774 -8571303.091858774 -37877009.59045468 0 0 0 0 0 7581895.017487281 -11482365.73246902 -11482365.73246902 -34244519.15281565 0 0 0 0 0 11730661.74338355 -14433272.3339082 -14433272.3339082 -31009643.70767578 0 0 0 0 0 19933750.65184506 -19680983.63978567 -19680983.63978567 -24974569.39112726 0 0 0 0 0 18028778.29153696 -20403871.26808063 -20403871.26808063 -25708236.11562127 0 0 0 0 0 24979386.45375922 -22133468.35392026 -22133468.35392026 -23179593.1247754 0 0 0 0 0 30264278.06954953 -24357167.16387472 -24357167.16387472 -21716059.72277524 0 0 0 0 0 35709319.51211181 -26313227.19932475 -26313227.19932475 -20564444.63942246 0 0 0 0 0 41236177.27959221 -27975011.87143554 -27975011.87143554 -19689355.46417946 0 0 0 0 0 46761094.76937998 -29328799.82343307 -29328799.82343307 -19057474.88904893 0 0 0 0 0 52204080.41014659 -30368157.14818456 -30368157.14818456 -18628236.44767795 0 0 0 0 0 57514644.85236897 -31104496.09965354 -31104496.09965354 -18364680.77849741 0 0 0 0 0 62649007.94811025 -31552575.14875616 -31552575.14875616 -18228991.17360067 0 0 0 0 0 65029260.34173188 -32746722.64742603 -32746722.64742603 -18111365.1673396 0 0 0 0 0 68848027.82346691 -31566437.0156795 -31566437.0156795 -17695501.8543099 0 0 0 0 0 73260176.83589001 -31416191.51606734 -31416191.51606734 -17783335.91877964 0 0 0 0 0 77428558.37864344 -31071657.40822111 -31071657.40822111 -17894593.87770903 0 0 0 0 0 81337508.11628711 -30554912.82961196 -30554912.82961196 -18013510.43855421 0 0 0 0 0 85243693.55260347 -29476685.14187923 -29476685.14187923 -17725263.89482181 0 0 0 0 0 81927140.51779962 -30577236.63369143 -30577236.63369143 -18387650.87351681 0 0 0 0 0 88453195.33308131 -28690012.38599443 -28690012.38599443 -17836600.02172149 0 0 0 0 0 91419227.87436944 -27811529.76653904 -27811529.76653904 -17918994.31900953 0 0 0 0 0 94147554.39491455 -26859377.87500154 -26859377.87500154 -17966916.32103153 0 0 0 0 0 96644393.89455037 -25850519.89546471 -25850519.89546471 -17977751.47925898 0 0 0 0 0 98920201.62644419 -24799756.54427813 -24799756.54427813 -17949227.65401826 0 0 0 0 0 100985364.9361014 -23721066.39252472 -23721066.39252472 -17881421.30059474 0 0 0 0 0 100148740.8334637 -23138364.03473055 -23138364.03473055 -18073214.77708946 0 0 0 0 0 102288767.7606238 -22373535.49680699 -22373535.49680699 -17434572.36938648 0 0 0 0 0 103913658.7426986 -21312120.75760982 -21312120.75760982 -17306419.27656695 0 0 0 0 0 105375542.9995777 -20253088.11939395 -20253088.11939395 -17144345.20426516 0 0 0 0 0 106680323.4140359 -19206955.61780189 -19206955.61780189 -16951085.22847249 0 0 0 0 0 107825147.1327824 -18187325.95344383 -18187325.95344383 -16741122.46284134 0 0 0 0 0 108830202.2983057 -17190896.84032385 -17190896.84032385 -16499511.47899184 0 0 0 0 0 107724971.9168039 -16643057.09792769 -16643057.09792769 -16385429.74469232 0 0 0 0 0 109006173.860777 -16171290.58451335 -16171290.58451335 -15948906.52807125 0 0 0 0 0 109799309.0997466 -15245399.24751742 -15245399.24751742 -15674044.87009271 0 0 0 0 0 108078010.0787908 -14732719.93979872 -14732719.93979872 -15283399.67796346 0 0 0 0 0 108771663.2267691 -13885838.51294822 -13885838.51294822 -14980486.01730679 0 0 0 0 0 108757993.8207365 -13084617.15881874 -13084617.15881874 -14441867.41102898 0 0 0 0 0 109733366.9450236 -13519230.75965284 -13519230.75965284 -14604384.59113115 0 0 0 0 0 109301219.0944225 -12316169.12490754 -12316169.12490754 -14134850.14095563 0 0 0 0 0 109778221.777719 -11575951.27027464 -11575951.27027464 -13818849.8214213 0 0 0 0 0 110193953.8239806 -10864587.68579776 -10864587.68579776 -13496077.81524389 0 0 0 0 0 110553230.2094586 -10182061.7457516 -10182061.7457516 -13167595.20846293 0 0 0 0 0 110291154.2549068 -9625973.895673618 -9625973.895673618 -12685169.89814527 0 0 0 0 0 111156242.1320213 -9951558.418065876 -9951558.418065876 -12929751.99854062 0 0 0 0 0 110562429.0517804 -9014516.472643808 -9014516.472643808 -12366821.34989667 0 0 0 0 0 110791579.6409843 -8429647.626441061 -8429647.626441061 -12046831.30427885 0 0 0 0 0 110981455.2479691 -7871697.196394805 -7871697.196394805 -11726590.17008119 0 0 0 0 0 111135436.3405266 -7339063.653234221 -7339063.653234221 -11407131.27590914 0 0 0 0 0 111257965.5611733 -6831138.172684115 -6831138.172684115 -11089234.11080921 0 0 0 0 0 111573667.7657987 -6715632.653040134 -6715632.653040134 -10983479.50812665 0 0 0 0 0 110947522.8416632 -6044917.415803845 -6044917.415803845 -10398493.01512277 0 0 0 0 0 111631548.9039324 -6246504.568379769 -6246504.568379769 -10687139.00911016 0 0 0 0 0 111003788.3085871 -5613199.559552393 -5613199.559552393 -10101069.43472868 0 0 0 0 0 111037961.2567255 -5202497.189396145 -5202497.189396145 -9807986.193849174 0 0 0 0 0 111053305.1264166 -4811364.037704265 -4811364.037704265 -9517248.713588195 0 0 0 0 0 111050066.7906119 -4440502.630425913 -4440502.630425913 -9231616.652102422 0 0 0 0 0 110639368.4902962 -4256103.755708088 -4256103.755708088 -8929032.372380469 0 0 0 0 0 111198514.8678003 -4393662.077427512 -4393662.077427512 -9211412.742365709 0 0 0 0 0 110618249.9908721 -3924573.129697461 -3924573.129697461 -8662615.404300334 0 0 0 0 0 110584088.8137209 -3609746.475582402 -3609746.475582402 -8400930.957734846 0 0 0 0 0 110538083.7170848 -3310949.933435487 -3310949.933435487 -8144375.333373068 0 0 0 0 0 110481514.8600244 -3027457.133979628 -3027457.133979628 -7892989.020359776 0 0 0 0 0 110415443.7833388 -2758555.132423001 -2758555.132423001 -7646921.946944585 0 0 0 0 0 110376109.9277284 -2504819.827660629 -2504819.827660629 -7447603.869358441 0 0 0 0 0 110340961.4181171 -2503849.535961375 -2503849.535961375 -7405692.446826227 0 0 0 0 0 109958420.9017595 -2429863.686511836 -2429863.686511836 -7188425.540822099 0 0 0 0 0 109876720.0094509 -2203858.89723418 -2203858.89723418 -6964758.833845614 0 0 0 0 0 109790860.4245338 -1993088.758456395 -1993088.758456395 -6746331.315374197 0 0 0 0 0 109696957.7789526 -1797254.187887965 -1797254.187887965 -6540447.538882776 0 0 0 0 0 109595931.3088075 -1611967.083435255 -1611967.083435255 -6341601.971115083 0 0 0 0 0 109494627.1411954 -1428891.122409497 -1428891.122409497 -6141056.727329114 0 0 0 0 0 109480627.6077686 -1450373.364528886 -1450373.364528886 -6209065.763700688 0 0 0 0 0 109154697.6757048 -1406792.1941981 -1406792.1941981 -5981732.643924887 0 0 0 0 0 109059921.7495923 -1239707.949047756 -1239707.949047756 -5793816.986205337 0 0 0 0 0 108962409.7400101 -1081725.437972462 -1081725.437972462 -5609681.993226987 0 0 0 0 0 108861606.7814599 -932251.259564175 -932251.259564175 -5431995.720621156 0 0 0 0 0 108830058.2458161 -960407.0792631099 -960407.0792631099 -5506466.18220497 0 0 0 0 0 108554614.6105746 -931572.9686463046 -931572.9686463046 -5300584.160416961 0 0 0 0 0 108457833.524306 -795591.0126156564 -795591.0126156564 -5133323.641042767 0 0 0 0 0 108361934.8694584 -666704.4472740624 -666704.4472740624 -4975531.327615364 0 0 0 0 0 108342196.2304678 -547085.9827536884 -547085.9827536884 -4803207.014693059 0 0 0 0 0 108134144.4766199 -439771.8770369402 -439771.8770369402 -4600978.903106906 0 0 0 0 0 108257763.2270588 -480805.9124766312 -480805.9124766312 -4695344.069446193 0 0 0 0 0 107995029.9121435 -392866.8082545039 -392866.8082545039 -4499551.049547913 0 0 0 0 0 108730857.8349891 -14748278.86122985 -14748278.86122985 -15531092.34852337 0 0 0 0 0 -1776880.063875907 -1255773.700623476 -1255773.700623476 -86497441.92053601 0 0 0 0 0 -3015462.339825135 124714.1399829705 124714.1399829705 -83374538.99843334 0 0 0 0 0 -2933079.53018118 1157244.197573846 1157244.197573846 -70462537.25987414 0 0 0 0 0 -2894397.38329208 798919.9131882711 798919.9131882711 -69061199.84416908 0 0 0 0 0 -1897319.530285489 -1189926.593852747 -1189926.593852747 -60984452.18317399 0 0 0 0 0 -416557.3175530726 -3225375.349229509 -3225375.349229509 -54064527.82557622 0 0 0 0 0 -1230585.576811485 -2137055.380005229 -2137055.380005229 -49370798.71649595 0 0 0 0 0 3843424.235990957 -9330383.293746274 -9330383.293746274 -40636965.84391107 0 0 0 0 0 6988929.074272653 -12155306.70863011 -12155306.70863011 -36197900.51134737 0 0 0 0 0 10673431.85920314 -15054419.22684381 -15054419.22684381 -32266498.06549938 0 0 0 0 0 14822246.89519221 -17962031.25861529 -17962031.25861529 -28896383.34717413 0 0 0 0 0 22638869.41868692 -22902882.25346142 -22902882.25346142 -23621394.46234614 0 0 0 0 0 16370547.62736692 -17344616.13810344 -17344616.13810344 -28185948.19067912 0 0 0 0 0 27529889.49401201 -25185894.60293989 -25185894.60293989 -21958984.6942847 0 0 0 0 0 32629860.30226918 -27207347.80701642 -27207347.80701642 -20683282.34054146 0 0 0 0 0 37859662.11672982 -28935856.97985 -28935856.97985 -19753604.90385685 0 0 0 0 0 43145338.49725137 -30351227.96522289 -30351227.96522289 -19111015.9471522 0 0 0 0 0 48419438.41024035 -31447688.97716307 -31447688.97716307 -18706584.47785483 0 0 0 0 0 53618310.14590576 -32227373.22484488 -32227373.22484488 -18489150.91447553 0 0 0 0 0 58695916.8129096 -32707839.8651626 -32707839.8651626 -18413610.67447198 0 0 0 0 0 63610699.28454559 -32908628.85333692 -32908628.85333692 -18439604.83543253 0 0 0 0 0 67568735.43432914 -31731353.49875046 -31731353.49875046 -18187111.09401696 0 0 0 0 0 69487040.51968867 -32596251.83701012 -32596251.83701012 -18247376.52510248 0 0 0 0 0 73730733.72462149 -32240898.38293 -32240898.38293 -18405045.54758829 0 0 0 0 0 77746771.33878165 -31704336.55858397 -31704336.55858397 -18563887.55316533 0 0 0 0 0 81519765.25879599 -31011420.87516863 -31011420.87516863 -18705254.47103038 0 0 0 0 0 85272751.33912443 -29756408.32791686 -29756408.32791686 -18515074.91341061 0 0 0 0 0 84984024.53326812 -29890723.57961083 -29890723.57961083 -18124362.71685474 0 0 0 0 0 88388662.81208292 -28837187.658435 -28837187.658435 -18602114.04155516 0 0 0 0 0 91274952.07407823 -27840001.68842781 -27840001.68842781 -18647157.26402842 0 0 0 0 0 93935740.39541285 -26782504.56775638 -26782504.56775638 -18647314.18491423 0 0 0 0 0 96376608.89255261 -25681732.8550451 -25681732.8550451 -18603521.56935526 0 0 0 0 0 98606843.61922283 -24551279.72823841 -24551279.72823841 -18514213.05293316 0 0 0 0 0 100635833.7432656 -23404369.25265527 -23404369.25265527 -18381698.95439569 0 0 0 0 0 102851710.2904756 -22626415.05565591 -22626415.05565591 -17774935.12073863 0 0 0 0 0 101922054.2665291 -22027548.57402856 -22027548.57402856 -17914740.18199528 0 0 0 0 0 103527530.014662 -20919869.49319175 -20919869.49319175 -17719641.84828212 0 0 0 0 0 104977341.3616306 -19824346.3345609 -19824346.3345609 -17490340.85016147 0 0 0 0 0 106276471.3662841 -18746927.68225466 -18746927.68225466 -17231189.79993581 0 0 0 0 0 107428760.6028978 -17693602.73797162 -17693602.73797162 -16931336.88158789 0 0 0 0 0 108440543.4760761 -16672961.25156443 -16672961.25156443 -16616389.01281686 0 0 0 0 0 109725324.0461646 -16216155.77863286 -16216155.77863286 -16218930.9136858 0 0 0 0 0 108615016.4008479 -15684043.58954881 -15684043.58954881 -16087516.80417911 0 0 0 0 0 109410648.916997 -14748754.06852306 -14748754.06852306 -15759476.6043434 0 0 0 0 0 109794414.2633966 -14349730.36854167 -14349730.36854167 -15139146.54401406 0 0 0 0 0 110398741.9679105 -13510025.80314079 -13510025.80314079 -14852427.13165365 0 0 0 0 0 110266671.1956413 -12730043.62494279 -12730043.62494279 -14322343.60638195 0 0 0 0 0 109383465.1701838 -13066698.43475337 -13066698.43475337 -14667142.98075839 0 0 0 0 0 110730194.1493013 -11968854.91707162 -11968854.91707162 -14029226.54976968 0 0 0 0 0 111129064.3115389 -11236191.80069625 -11236191.80069625 -13726685.38166358 0 0 0 0 0 111469628.5683961 -10532655.75857517 -10532655.75857517 -13416402.90496129 0 0 0 0 0 111755962.9666982 -9858451.488849537 -9858451.488849537 -13100622.73419217 0 0 0 0 0 111407185.4608029 -9320741.532925073 -9320741.532925073 -12625443.12888233 0 0 0 0 0 110860258.4358781 -9528437.581186876 -9528437.581186876 -12836297.43634581 0 0 0 0 0 111613320.41532 -8716576.940648748 -8716576.940648748 -12317492.85795087 0 0 0 0 0 111779241.4772794 -8139440.541485445 -8139440.541485445 -12007676.08305637 0 0 0 0 0 111909660.1484987 -7589279.798881335 -7589279.798881335 -11696949.96078296 0 0 0 0 0 112007655.0201538 -7064448.240614367 -7064448.240614367 -11385504.61340697 0 0 0 0 0 112076236.0806668 -6564225.431492175 -6564225.431492175 -11074977.13933112 0 0 0 0 0 111350220.9738071 -6347495.357215874 -6347495.357215874 -10773555.10783924 0 0 0 0 0 111664648.8155277 -5800167.017439498 -5800167.017439498 -10393040.97491385 0 0 0 0 0 111415650.9894017 -5887541.54810886 -5887541.54810886 -10461319.24269271 0 0 0 0 0 111675759.6900131 -5375605.358159168 -5375605.358159168 -10101519.99679682 0 0 0 0 0 111668822.9953903 -4971387.527297036 -4971387.527297036 -9812103.125711979 0 0 0 0 0 111642985.1809853 -4588232.022562467 -4588232.022562467 -9527819.844755407 0 0 0 0 0 111601034.5880153 -4224654.589618267 -4224654.589618267 -9247352.591715448 0 0 0 0 0 111156813.1941313 -4051312.964356007 -4051312.964356007 -8944355.864057815 0 0 0 0 0 111030232.7336561 -4088714.455478413 -4088714.455478413 -8951642.76277246 0 0 0 0 0 111102419.3552016 -3726264.919539458 -3726264.919539458 -8681475.612060955 0 0 0 0 0 111036660.5621448 -3417878.517554335 -3417878.517554335 -8423127.780633289 0 0 0 0 0 110960931.1041879 -3125355.195221393 -3125355.195221393 -8169375.888986872 0 0 0 0 0 110876269.0556006 -2847978.407919239 -2847978.407919239 -7920555.794702001 0 0 0 0 0 110783814.6116595 -2585058.988924715 -2585058.988924715 -7676727.033427216 0 0 0 0 0 110259962.8353501 -2263879.931090706 -2263879.931090706 -7168416.131377104 0 0 0 0 0 110683832.4841295 -2335756.504744404 -2335756.504744404 -7437924.862425596 0 0 0 0 0 110278210.8371242 -2273212.63157998 -2273212.63157998 -7224370.158344387 0 0 0 0 0 110174467.370267 -2055702.65575619 -2055702.65575619 -7007663.307193433 0 0 0 0 0 110058264.5919064 -1852357.52076821 -1852357.52076821 -6795989.508393844 0 0 0 0 0 109947815.8316541 -1659537.100974128 -1659537.100974128 -6588160.494998824 0 0 0 0 0 109836346.2236694 -1473722.110109255 -1473722.110109255 -6380325.753268439 0 0 0 0 0 109722708.5058044 -1294823.054702441 -1294823.054702441 -6177711.712712806 0 0 0 0 0 109394222.288555 -1253692.933100121 -1253692.933100121 -5944004.998309858 0 0 0 0 0 109372698.4567313 -1278512.417457813 -1278512.417457813 -6016756.500767122 0 0 0 0 0 109262737.8171288 -1116068.824885907 -1116068.824885907 -5829323.535959454 0 0 0 0 0 109149456.2115594 -962685.5611259601 -962685.5611259601 -5646864.059964381 0 0 0 0 0 109036795.4599018 -817632.177345866 -817632.177345866 -5468721.103814246 0 0 0 0 0 108758565.0350199 -790279.5908289286 -790279.5908289286 -5257758.679091374 0 0 0 0 0 108721695.9914454 -820853.5131352533 -820853.5131352533 -5335554.008308751 0 0 0 0 0 108613989.3856127 -688257.5699675801 -688257.5699675801 -5168904.760572889 0 0 0 0 0 108512610.4827144 -562680.7199149876 -562680.7199149876 -5007200.56984685 0 0 0 0 0 108369763.4938571 -463004.8706676489 -463004.8706676489 -4866443.302994396 0 0 0 0 0 108061011.044466 -380536.6605781608 -380536.6605781608 -4699068.691796901 0 0 0 0 0 108202318.9141524 -421210.9356115197 -421210.9356115197 -4801950.607578037 0 0 0 0 0 107927111.672869 -336385.3927458546 -336385.3927458546 -4591622.884545102 0 0 0 0 0 110493837.7001268 -14348626.43014321 -14348626.43014321 -15385512.7463779 0 0 0 0 0 -2514998.462917325 3037752.447204013 3037752.447204013 -101266532.3291727 0 0 0 0 0 806542.6113606475 2994755.737500109 2994755.737500109 -84243391.50789306 0 0 0 0 0 -3728481.309593793 4229745.642733027 4229745.642733027 -82302255.87063919 0 0 0 0 0 -2710503.974786558 2751556.217268868 2751556.217268868 -68626414.83766189 0 0 0 0 0 -3805443.848923012 4550116.606338021 4550116.606338021 -66070572.25045312 0 0 0 0 0 -2952965.791633056 2519560.291941234 2519560.291941234 -58438447.09827932 0 0 0 0 0 1565369.897269252 -5568431.423400987 -5568431.423400987 -47809599.23277992 0 0 0 0 0 1032815.550235042 -4817282.1102051 -4817282.1102051 -44363365.51735857 0 0 0 0 0 4289712.806402003 -7861831.063804444 -7861831.063804444 -39766776.38529926 0 0 0 0 0 8154524.824686842 -11050370.77011312 -11050370.77011312 -35590646.94713009 0 0 0 0 0 12628661.90659286 -14295785.54082025 -14295785.54082025 -31921243.03850887 0 0 0 0 0 21465132.59407331 -20121706.56845225 -20121706.56845225 -25793540.72764834 0 0 0 0 0 19402433.42455675 -20782337.82686711 -20782337.82686711 -26116157.32459312 0 0 0 0 0 26876262.35655859 -22678740.26906382 -22678740.26906382 -23822229.28275286 0 0 0 0 0 32500446.50782003 -24960523.90841926 -24960523.90841926 -22240685.74819073 0 0 0 0 0 38271875.57887924 -26936515.34450941 -26936515.34450941 -21011015.16875568 0 0 0 0 0 44075757.30074195 -28576490.99433765 -28576490.99433765 -20093810.32350429 0 0 0 0 0 49830630.566393 -29869882.97993125 -29869882.97993125 -19442524.0607586 0 0 0 0 0 55455064.27795047 -30821986.5896092 -30821986.5896092 -19006377.44278877 0 0 0 0 0 60903495.54496038 -31450687.09163532 -31450687.09163532 -18740430.28717845 0 0 0 0 0 66130639.73426718 -31775122.0745719 -31775122.0745719 -18603101.44557724 0 0 0 0 0 68328280.16052118 -32853317.00886063 -32853317.00886063 -18534497.38642969 0 0 0 0 0 72254547.29472691 -31668053.40586113 -31668053.40586113 -18215765.16332874 0 0 0 0 0 76679229.06279248 -31386984.34750774 -31386984.34750774 -18284413.5376396 0 0 0 0 0 80817447.18538956 -30909034.38722859 -30909034.38722859 -18370872.43044447 0 0 0 0 0 84674043.62507871 -30268658.37025396 -30268658.37025396 -18459285.17748839 0 0 0 0 0 88369082.31714438 -29100913.05819042 -29100913.05819042 -18216454.7048885 0 0 0 0 0 85047064.41905835 -30188689.13612968 -30188689.13612968 -18824082.31661907 0 0 0 0 0 91491441.38456194 -28209912.46229842 -28209912.46229842 -18284433.48946491 0 0 0 0 0 94356236.90324046 -27236437.11423575 -27236437.11423575 -18318660.18308425 0 0 0 0 0 96972787.22511378 -26199920.32070225 -26199920.32070225 -18317529.88562499 0 0 0 0 0 99351772.1338385 -25115956.62038046 -25115956.62038046 -18276728.85424926 0 0 0 0 0 101502851.0707258 -24000125.23017071 -24000125.23017071 -18196344.38638633 0 0 0 0 0 103440930.1470534 -22866388.35756071 -22866388.35756071 -18076266.69928349 0 0 0 0 0 102474299.6205464 -22252044.01655132 -22252044.01655132 -18208707.79323839 0 0 0 0 0 104532374.5826323 -21525949.35883135 -21525949.35883135 -17631342.39438129 0 0 0 0 0 106038599.4043458 -20428208.46939807 -20428208.46939807 -17453111.17601292 0 0 0 0 0 107380203.1113972 -19342009.99237249 -19342009.99237249 -17242873.05789149 0 0 0 0 0 108568772.5783155 -18273476.68692981 -18273476.68692981 -17001971.70133564 0 0 0 0 0 109600511.9210463 -17239423.42664907 -17239423.42664907 -16748243.49238153 0 0 0 0 0 110492860.1907598 -16233865.3505092 -16233865.3505092 -16466649.78506211 0 0 0 0 0 109330672.6858551 -15692464.69258289 -15692464.69258289 -16300660.82788041 0 0 0 0 0 110524484.7454911 -15256720.62928751 -15256720.62928751 -15918964.23590265 0 0 0 0 0 111226019.5580222 -14332205.33447137 -14332205.33447137 -15607875.71300632 0 0 0 0 0 109428819.5450649 -13873673.36076975 -13873673.36076975 -15208373.67810614 0 0 0 0 0 110041660.324331 -13029500.14705381 -13029500.14705381 -14872334.5065614 0 0 0 0 0 109923756.551285 -12275570.20038896 -12275570.20038896 -14341553.54923841 0 0 0 0 0 110927665.8953192 -12697883.16631174 -12697883.16631174 -14549744.23641036 0 0 0 0 0 110396420.3687508 -11513860.70541091 -11513860.70541091 -14006603.44171058 0 0 0 0 0 110805472.2799306 -10783055.06356065 -10783055.06356065 -13665208.1155487 0 0 0 0 0 111156320.5555399 -10082921.26448751 -10082921.26448751 -13319448.06090376 0 0 0 0 0 111454131.005962 -9412582.014129335 -9412582.014129335 -12970127.73881837 0 0 0 0 0 111121195.2048632 -8901931.052342271 -8901931.052342271 -12501573.9929519 0 0 0 0 0 111994111.7212398 -9212237.110285006 -9212237.110285006 -12778994.59878664 0 0 0 0 0 111339380.3476382 -8303396.305537449 -8303396.305537449 -12165035.91777143 0 0 0 0 0 111517651.8364021 -7733230.200199768 -7733230.200199768 -11829440.68882065 0 0 0 0 0 111658993.8040875 -7190418.862480335 -7190418.862480335 -11495350.9337137 0 0 0 0 0 111767047.5335837 -6673788.488792314 -6673788.488792314 -11163625.47944945 0 0 0 0 0 111846398.1572099 -6182444.614176696 -6182444.614176696 -10834637.3194404 0 0 0 0 0 112117623.6381292 -6088809.36218299 -6088809.36218299 -10766407.46954095 0 0 0 0 0 111458188.1761631 -5449698.497542657 -5449698.497542657 -10152260.05018942 0 0 0 0 0 112135614.3028162 -5636375.468834916 -5636375.468834916 -10459621.6802594 0 0 0 0 0 111478912.8507489 -5033860.117237936 -5033860.117237936 -9847428.59049084 0 0 0 0 0 111480255.4535682 -4638789.648375667 -4638789.648375667 -9546879.027825255 0 0 0 0 0 111464166.0772808 -4263870.981921023 -4263870.981921023 -9250657.923093874 0 0 0 0 0 111431272.2002405 -3909041.875959978 -3909041.875959978 -8960654.31281787 0 0 0 0 0 110996686.9150457 -3754498.604574513 -3754498.604574513 -8675951.471753575 0 0 0 0 0 111545729.3305831 -3879374.123608523 -3879374.123608523 -8970159.724128164 0 0 0 0 0 110950025.4787536 -3437677.605919318 -3437677.605919318 -8405749.760370445 0 0 0 0 0 110891761.9926081 -3137461.577783502 -3137461.577783502 -8141165.861699664 0 0 0 0 0 110823141.546363 -2853015.384181505 -2853015.384181505 -7882375.395816394 0 0 0 0 0 110745375.8318219 -2583618.893066626 -2583618.893066626 -7629408.37072245 0 0 0 0 0 110659296.1626634 -2328391.510865396 -2328391.510865396 -7382762.143802156 0 0 0 0 0 110577374.2384966 -2099840.641239845 -2099840.641239845 -7203921.211832192 0 0 0 0 0 110565902.5776535 -2087385.501990601 -2087385.501990601 -7142080.911519717 0 0 0 0 0 110175917.8844834 -2035855.772709731 -2035855.772709731 -6936388.547345418 0 0 0 0 0 110066369.3688505 -1828642.857349847 -1828642.857349847 -6718753.108872035 0 0 0 0 0 109962777.9890694 -1634148.351476835 -1634148.351476835 -6505932.798485935 0 0 0 0 0 109852433.518233 -1449767.203734596 -1449767.203734596 -6303917.584875667 0 0 0 0 0 109747820.3045922 -1267107.928568618 -1267107.928568618 -6097673.702845993 0 0 0 0 0 109637198.2418542 -1093688.055162239 -1093688.055162239 -5896248.359102155 0 0 0 0 0 109606511.8552969 -1124201.503246566 -1124201.503246566 -5981262.486127734 0 0 0 0 0 109290806.7291263 -1087978.814623133 -1087978.814623133 -5751420.122851061 0 0 0 0 0 109183725.8750054 -931895.0851949279 -931895.0851949279 -5565534.118428306 0 0 0 0 0 109075931.0822913 -784258.5819547946 -784258.5819547946 -5382824.155887903 0 0 0 0 0 108963388.520014 -645299.6000970288 -645299.6000970288 -5208785.829980322 0 0 0 0 0 108921884.798568 -679134.0375218506 -679134.0375218506 -5293949.237323902 0 0 0 0 0 108654949.9150266 -655518.8150860099 -655518.8150860099 -5086982.169862415 0 0 0 0 0 108552798.5744536 -529528.1875713054 -529528.1875713054 -4921153.628577637 0 0 0 0 0 108460421.3896299 -413330.4311690024 -413330.4311690024 -4772612.747779061 0 0 0 0 0 108389871.0724705 -305706.8742807119 -305706.8742807119 -4592504.342398373 0 0 0 0 0 108279012.0598768 -259896.0817344053 -259896.0817344053 -4502983.864171779 0 0 0 0 0 108147620.1568938 -218819.8717370941 -218819.8717370941 -4403280.323269997 0 0 0 0 0 110115953.9484514 -13844262.40546502 -13844262.40546502 -15414417.47465381 0 0 0 0 0 -1947906.895335559 4927945.87034025 4927945.87034025 -97366131.95079105 0 0 0 0 0 -650108.1898757493 4663651.526313982 4663651.526313982 -81265584.69845887 0 0 0 0 0 -3388834.36240611 5627127.363261799 5627127.363261799 -80008329.81240319 0 0 0 0 0 -1088158.789337815 1054010.676284304 1054010.676284304 -64420111.2958171 0 0 0 0 0 -1885217.035812326 3167383.953403013 3167383.953403013 -68067471.12859657 0 0 0 0 0 -367878.1869976959 -1160418.043809914 -1160418.043809914 -55471621.24606805 0 0 0 0 0 -1292541.538295942 -165470.1257767868 -165470.1257767868 -52103685.38256439 0 0 0 0 0 4234367.242648574 -8482291.881101003 -8482291.881101003 -42100108.39246449 0 0 0 0 0 7651718.984744788 -11552380.80743848 -11552380.80743848 -36984483.83783586 0 0 0 0 0 11581635.09524211 -14755960.07730439 -14755960.07730439 -32568058.22618354 0 0 0 0 0 16022491.99483187 -17968627.44202826 -17968627.44202826 -28939055.15249346 0 0 0 0 0 24342228.77042598 -23402630.41959556 -23402630.41959556 -23876710.77881623 0 0 0 0 0 17695410.36352631 -17461623.65539073 -17461623.65539073 -28782889.64322072 0 0 0 0 0 29554637.71013245 -25758569.82106934 -25758569.82106934 -22129094.70994987 0 0 0 0 0 34957113.54663111 -27810046.87298604 -27810046.87298604 -20814397.83330656 0 0 0 0 0 40465950.20826861 -29528383.77406812 -29528383.77406812 -19881315.00610819 0 0 0 0 0 45998209.43154962 -30894028.8442636 -30894028.8442636 -19259650.50923252 0 0 0 0 0 51472962.16549598 -31904874.26399534 -31904874.26399534 -18880978.19425983 0 0 0 0 0 56833637.53167457 -32578304.33236114 -32578304.33236114 -18691269.22501754 0 0 0 0 0 62031958.21547525 -32936800.53299221 -32936800.53299221 -18641279.40834919 0 0 0 0 0 67028438.24024873 -33004135.59907035 -33004135.59907035 -18688157.24943501 0 0 0 0 0 71112701.49080433 -31825438.33082442 -31825438.33082442 -18558855.02578747 0 0 0 0 0 72821408.08497696 -32565488.14606183 -32565488.14606183 -18662746.27068109 0 0 0 0 0 77069430.12281473 -32075698.2869439 -32075698.2869439 -18801254.94694258 0 0 0 0 0 81057616.94612415 -31406001.04734229 -31406001.04734229 -18930910.30521768 0 0 0 0 0 84779387.83633308 -30590570.67270399 -30590570.67270399 -19042457.98126046 0 0 0 0 0 88328628.58175041 -29256492.58898124 -29256492.58898124 -18904236.78859816 0 0 0 0 0 88248810.69176048 -29484393.8569619 -29484393.8569619 -18531596.62249411 0 0 0 0 0 91361558.33089709 -28236367.32864877 -28236367.32864877 -18941266.5932509 0 0 0 0 0 94151870.01105802 -27149960.77498617 -27149960.77498617 -18934842.83472858 0 0 0 0 0 96706092.55953299 -26014301.40038196 -26014301.40038196 -18883385.64467401 0 0 0 0 0 99034025.14251445 -24844486.95247506 -24844486.95247506 -18785644.77147356 0 0 0 0 0 101145403.7720973 -23656271.18008907 -23656271.18008907 -18642176.55656368 0 0 0 0 0 103052829.5517116 -22462025.08722671 -22462025.08722671 -18457245.52477288 0 0 0 0 0 105180526.9203584 -21726428.86188899 -21726428.86188899 -17918539.95101161 0 0 0 0 0 104133914.5088648 -21103086.21434849 -21103086.21434849 -17998427.27510934 0 0 0 0 0 105625814.2648562 -19965637.43189163 -19965637.43189163 -17752584.16155265 0 0 0 0 0 106958495.9050396 -18846701.29192367 -18846701.29192367 -17475111.78826559 0 0 0 0 0 108145133.0233067 -17753079.51515346 -17753079.51515346 -17167968.71981061 0 0 0 0 0 109192878.5175641 -16687664.22808241 -16687664.22808241 -16825156.56380969 0 0 0 0 0 110096116.6710643 -15664443.46601642 -15664443.46601642 -16465341.59319646 0 0 0 0 0 111281478.1280011 -15253429.9300035 -15253429.9300035 -16137315.89613583 0 0 0 0 0 110124534.7031502 -14731746.71729385 -14731746.71729385 -15959875.2949592 0 0 0 0 0 110830796.8973116 -13797247.63135827 -13797247.63135827 -15596863.04002666 0 0 0 0 0 111098100.338506 -13481924.40202579 -13481924.40202579 -15079137.83254869 0 0 0 0 0 111619186.555215 -12647338.40504616 -12647338.40504616 -14760534.78415634 0 0 0 0 0 111385008.2599716 -11914501.68087307 -11914501.68087307 -14237371.83102725 0 0 0 0 0 110575708.7396396 -12216633.02932383 -12216633.02932383 -14529413.5645927 0 0 0 0 0 111775627.1226228 -11161329.74669841 -11161329.74669841 -13916457.72874291 0 0 0 0 0 112105164.7494784 -10439102.32293258 -10439102.32293258 -13588256.85645923 0 0 0 0 0 112380442.7380091 -9747584.17804252 -9747584.17804252 -13254214.17758436 0 0 0 0 0 112605397.1727242 -9085473.131007589 -9085473.131007589 -12915603.03221025 0 0 0 0 0 112188350.3244813 -8593592.958236415 -8593592.958236415 -12454271.36698601 0 0 0 0 0 111703631.6862562 -8771520.090031229 -8771520.090031229 -12618594.24158024 0 0 0 0 0 112340876.7141003 -8003714.708295329 -8003714.708295329 -12128749.56820161 0 0 0 0 0 112456471.679174 -7442145.073378708 -7442145.073378708 -11802789.55035819 0 0 0 0 0 112539182.3456471 -6907973.725974775 -6907973.725974775 -11477069.77862831 0 0 0 0 0 112592183.4307679 -6399741.82502373 -6399741.82502373 -11152549.05974275 0 0 0 0 0 112618178.1045542 -5916726.299165005 -5916726.299165005 -10830670.01096727 0 0 0 0 0 111898691.3043872 -5715558.957046697 -5715558.957046697 -10509265.07915808 0 0 0 0 0 112132340.1043542 -5206197.841942412 -5206197.841942412 -10156088.88217908 0 0 0 0 0 111926031.6458681 -5272442.443279112 -5272442.443279112 -10188419.78028446 0 0 0 0 0 112109502.5471126 -4797652.03349868 -4797652.03349868 -9855927.638621204 0 0 0 0 0 112069735.7384001 -4410196.673880065 -4410196.673880065 -9559955.946363093 0 0 0 0 0 112013556.4824429 -4043219.959849916 -4043219.959849916 -9269312.611731267 0 0 0 0 0 111943779.0307896 -3695762.776285454 -3695762.776285454 -8983087.929845652 0 0 0 0 0 111477871.9496206 -3552151.460500366 -3552151.460500366 -8698322.98314587 0 0 0 0 0 111384019.9300379 -3572770.551640376 -3572770.551640376 -8676248.765151633 0 0 0 0 0 111398880.9745823 -3242117.552533192 -3242117.552533192 -8431319.420980414 0 0 0 0 0 111310151.0411216 -2948515.706613213 -2948515.706613213 -8169477.220410927 0 0 0 0 0 111212942.2733382 -2670582.210025685 -2670582.210025685 -7913032.085793456 0 0 0 0 0 111108048.7723928 -2407570.316614832 -2407570.316614832 -7662212.810458396 0 0 0 0 0 110996824.094127 -2158884.376559447 -2158884.376559447 -7417186.828992212 0 0 0 0 0 110465643.4790049 -1867113.917444437 -1867113.917444437 -6900324.104373283 0 0 0 0 0 110876725.5729541 -1925551.98900091 -1925551.98900091 -7180276.912687158 0 0 0 0 0 110468248.1873836 -1887588.1757485 -1887588.1757485 -6987471.211161755 0 0 0 0 0 110342223.0475717 -1685851.956933732 -1685851.956933732 -6767319.524026181 0 0 0 0 0 110209862.8639017 -1495321.097027962 -1495321.097027962 -6555766.320854319 0 0 0 0 0 110091685.7639268 -1309179.427443143 -1309179.427443143 -6343332.525822781 0 0 0 0 0 109967926.3296488 -1131432.508618818 -1131432.508618818 -6137564.833693227 0 0 0 0 0 109841130.2236417 -963445.9743899431 -963445.9743899431 -5936581.322562744 0 0 0 0 0 109524242.3982853 -929916.0331781199 -929916.0331781199 -5700420.01245012 0 0 0 0 0 109486232.7521226 -964078.740934125 -964078.740934125 -5790832.925934325 0 0 0 0 0 109366301.4334663 -812249.2828807556 -812249.2828807556 -5603841.015305551 0 0 0 0 0 109241889.8790033 -670155.4576172552 -670155.4576172552 -5423936.335143523 0 0 0 0 0 109121471.7859712 -534235.8167262216 -534235.8167262216 -5245987.270798494 0 0 0 0 0 108851601.5839321 -511760.243902855 -511760.243902855 -5036013.447715597 0 0 0 0 0 108805559.2773433 -547272.486571336 -547272.486571336 -5123362.893969616 0 0 0 0 0 108689038.040316 -424486.2899092967 -424486.2899092967 -4958030.825325235 0 0 0 0 0 108578487.4059619 -318444.330943931 -318444.330943931 -4807849.238782238 0 0 0 0 0 108402633.2879139 -242014.6791735559 -242014.6791735559 -4687326.945176662 0 0 0 0 0 108217240.1352248 -198523.6615594736 -198523.6615594736 -4603071.690035555 0 0 0 0 0 108071245.8271498 -161633.2741968833 -161633.2741968833 -4495837.262247841 0 0 0 0 0 111826914.3035374 -13437580.48409356 -13437580.48409356 -15284637.15162633 0 0 0 0 0 -2738630.973152817 7316447.880860021 7316447.880860021 -96227425.92305492 0 0 0 0 0 -1309806.171683136 7035019.472076294 7035019.472076294 -78808772.7399704 0 0 0 0 0 -3046806.426284715 6135834.515583272 6135834.515583272 -65484593.62310872 0 0 0 0 0 -2940645.383733845 6939404.447844242 6939404.447844242 -78478465.52579048 0 0 0 0 0 -2395518.509750317 4747520.825441616 4747520.825441616 -61535843.75786744 0 0 0 0 0 1686171.932477628 -4060249.1812462 -4060249.1812462 -48799711.7752644 0 0 0 0 0 1328486.101839444 -3421765.007877608 -3421765.007877608 -46214090.92786992 0 0 0 0 0 4579222.300363863 -6766231.564808115 -6766231.564808115 -40971613.12400348 0 0 0 0 0 8650083.342906768 -10351823.25911476 -10351823.25911476 -36272085.48225226 0 0 0 0 0 13651262.71762307 -14000153.64349619 -14000153.64349619 -32207167.13747137 0 0 0 0 0 23194103.96013522 -20426823.03678421 -20426823.03678421 -26173732.63684948 0 0 0 0 0 20961849.22941839 -20998510.83713448 -20998510.83713448 -25970330.54061645 0 0 0 0 0 28988633.99012843 -23110872.01685075 -23110872.01685075 -24065888.4721667 0 0 0 0 0 34967883.98352729 -25466146.8387829 -25466146.8387829 -22402688.93988477 0 0 0 0 0 41074435.4402126 -27464937.29145084 -27464937.29145084 -21136310.1132094 0 0 0 0 0 47168421.97318892 -29079622.75563452 -29079622.75563452 -20213057.43392397 0 0 0 0 0 53136561.28596917 -30304637.85141426 -30304637.85141426 -19571355.20092682 0 0 0 0 0 58928360.44009221 -31161992.8568681 -31161992.8568681 -19153654.31342798 0 0 0 0 0 64495376.21998103 -31675675.57024299 -31675675.57024299 -18906818.0285632 0 0 0 0 0 69796972.77896394 -31870845.74263519 -31870845.74263519 -18784564.72075731 0 0 0 0 0 71791746.89809431 -32810359.8550361 -32810359.8550361 -18791822.08421449 0 0 0 0 0 75818333.6914833 -31627323.10913635 -31627323.10913635 -18578919.77054237 0 0 0 0 0 80223784.65999821 -31211360.34630765 -31211360.34630765 -18632652.05722405 0 0 0 0 0 84310081.71006499 -30606585.48708754 -30606585.48708754 -18702001.31679282 0 0 0 0 0 88089225.70795955 -29839298.18294096 -29839298.18294096 -18764438.54868954 0 0 0 0 0 91543483.71846132 -28586199.27942459 -28586199.27942459 -18585518.52586955 0 0 0 0 0 88239326.03221774 -29651437.13756805 -29651437.13756805 -19122961.96313504 0 0 0 0 0 94560244.63189276 -27595933.20860667 -27595933.20860667 -18611090.09469853 0 0 0 0 0 97305360.30084258 -26533720.72526353 -26533720.72526353 -18600117.51343572 0 0 0 0 0 99796950.2975032 -25418457.20585528 -25418457.20585528 -18549617.51933748 0 0 0 0 0 102042211.3709159 -24266448.32079621 -24266448.32079621 -18459230.79703214 0 0 0 0 0 104055296.8495994 -23093618.85329452 -23093618.85329452 -18328793.61054486 0 0 0 0 0 105857408.0587916 -21913128.18934735 -21913128.18934735 -18158780.47926578 0 0 0 0 0 104769748.5746253 -21271360.25215956 -21271360.25215956 -18233485.0572868 0 0 0 0 0 106734921.2890174 -20589136.80638175 -20589136.80638175 -17725375.90409803 0 0 0 0 0 108113241.1313403 -19462842.40437841 -19462842.40437841 -17499167.80283937 0 0 0 0 0 109329712.6223798 -18355125.3364433 -18355125.3364433 -17241918.2117229 0 0 0 0 0 110393294.8422979 -17271976.58498254 -17271976.58498254 -16957204.80408266 0 0 0 0 0 111310657.864428 -16226351.85352323 -16226351.85352323 -16659848.80868303 0 0 0 0 0 112088879.8227634 -15223874.43801557 -15223874.43801557 -16349597.66870205 0 0 0 0 0 110877343.9411697 -14691294.34883196 -14691294.34883196 -16133446.4447257 0 0 0 0 0 111985544.4611913 -14299090.96859179 -14299090.96859179 -15809075.06849299 0 0 0 0 0 112587450.8184078 -13375095.8388259 -13375095.8388259 -15463270.98846332 0 0 0 0 0 110728123.5685826 -12974242.6121035 -12974242.6121035 -15058989.46589638 0 0 0 0 0 111259418.6377411 -12137689.67622553 -12137689.67622553 -14694188.87973205 0 0 0 0 0 111041629.0554412 -11434092.44403579 -11434092.44403579 -14176004.48540667 0 0 0 0 0 112068041.1345713 -11842197.21254753 -11842197.21254753 -14427747.15889163 0 0 0 0 0 111442545.6903365 -10683775.34349239 -10683775.34349239 -13816435.13127046 0 0 0 0 0 111783548.1900755 -9966035.395698724 -9966035.395698724 -13452455.77272867 0 0 0 0 0 112069667.7858302 -9279337.249361912 -9279337.249361912 -13085982.70554521 0 0 0 0 0 112306694.3854268 -8624171.632032685 -8624171.632032685 -12717450.66848751 0 0 0 0 0 111908416.2297769 -8160659.871766239 -8160659.871766239 -12266919.48561055 0 0 0 0 0 112784663.1931361 -8453589.073458692 -8453589.073458692 -12574830.52840596 0 0 0 0 0 112073293.791229 -7578775.016148836 -7578775.016148836 -11915522.98937933 0 0 0 0 0 112200712.9671894 -7025927.616254483 -7025927.616254483 -11566408.03469224 0 0 0 0 0 112294250.759087 -6500937.24047365 -6500937.24047365 -11220955.65480537 0 0 0 0 0 112358126.4797655 -6002097.414462801 -6002097.414462801 -10878906.86581996 0 0 0 0 0 112394999.4381448 -5528825.639735745 -5528825.639735745 -10540989.79325986 0 0 0 0 0 112619924.1190041 -5458208.698712074 -5458208.698712074 -10511732.78526101 0 0 0 0 0 111931996.5562958 -4851840.991317574 -4851840.991317574 -9872588.942803618 0 0 0 0 0 112600224.2354875 -5023311.980707851 -5023311.980707851 -10196142.97720522 0 0 0 0 0 111919211.0359626 -4452780.22855055 -4452780.22855055 -9561155.959333099 0 0 0 0 0 111888349.2936268 -4074707.148317189 -4074707.148317189 -9255150.813103661 0 0 0 0 0 111841193.6016086 -3717407.069130317 -3717407.069130317 -8955495.047877319 0 0 0 0 0 111779833.9087355 -3379409.680194892 -3379409.680194892 -8662461.462088976 0 0 0 0 0 111324281.7859594 -3254307.052848868 -3254307.052848868 -8397529.592309246 0 0 0 0 0 111861484.2980894 -3366701.530785352 -3366701.530785352 -8701853.550788876 0 0 0 0 0 111253018.0495817 -2953039.108818638 -2953039.108818638 -8124951.431067279 0 0 0 0 0 111171727.8679904 -2668100.049732797 -2668100.049732797 -7858654.431107489 0 0 0 0 0 111081508.3605631 -2398652.371596189 -2398652.371596189 -7598833.039447384 0 0 0 0 0 110983527.4953684 -2144017.898018297 -2144017.898018297 -7345154.992082095 0 0 0 0 0 110879055.6842243 -1903666.80340737 -1903666.80340737 -7098047.82094694 0 0 0 0 0 110735802.6155359 -1711601.813133003 -1711601.813133003 -6955085.287106733 0 0 0 0 0 110771588.1088002 -1676333.593235088 -1676333.593235088 -6858298.99203148 0 0 0 0 0 110351042.0475253 -1661098.505596136 -1661098.505596136 -6683046.183190485 0 0 0 0 0 110230768.3733557 -1465846.63589989 -1465846.63589989 -6464100.038369277 0 0 0 0 0 110119853.9060683 -1278193.37546526 -1278193.37546526 -6253408.878998987 0 0 0 0 0 110001388.7745209 -1097915.39775369 -1097915.39775369 -6043963.911098985 0 0 0 0 0 109883021.5986954 -926303.5885566791 -926303.5885566791 -5838255.292191152 0 0 0 0 0 109762208.2646039 -764099.2704104377 -764099.2704104377 -5637925.440448288 0 0 0 0 0 109712164.6431762 -805492.6342008626 -805492.6342008626 -5742728.725284089 0 0 0 0 0 109408604.5617953 -776205.541411126 -776205.541411126 -5510862.850265038 0 0 0 0 0 109290236.1071111 -631226.6181123104 -631226.6181123104 -5326723.933676093 0 0 0 0 0 109172916.7523971 -494037.222095779 -494037.222095779 -5147486.249616189 0 0 0 0 0 109050766.1543257 -364475.3090170186 -364475.3090170186 -4976761.582191579 0 0 0 0 0 108999456.4036257 -403734.4723386305 -403734.4723386305 -5072350.179041411 0 0 0 0 0 108740670.456843 -386089.9021311458 -386089.9021311458 -4865042.282665491 0 0 0 0 0 108638056.0605432 -272650.7758991217 -272650.7758991217 -4695043.629376366 0 0 0 0 0 108517668.933834 -173330.3653532354 -173330.3653532354 -4549785.236029565 0 0 0 0 0 108441974.4772188 -70368.3521034256 -70368.3521034256 -4391538.794964157 0 0 0 0 0 108303280.1525815 -33303.20141071839 -33303.20141071839 -4290403.140333897 0 0 0 0 0 111445623.624549 -12899461.37847399 -12899461.37847399 -15220868.00862209 0 0 0 0 0 -3023832.524688353 10197718.44296989 10197718.44296989 -92584239.18646035 0 0 0 0 0 -2654905.29616073 7422733.192812293 7422733.192812293 -72924582.94013219 0 0 0 0 0 -1850294.309714157 9631541.756024985 9631541.756024985 -76899737.76623482 0 0 0 0 0 152875.4245609361 1023372.998840082 1023372.998840082 -55787399.72631621 0 0 0 0 0 -2173009.431961768 5373438.625197475 5373438.625197475 -60680570.0709573 0 0 0 0 0 -982342.5229964178 1697634.585892532 1697634.585892532 -52920233.80355119 0 0 0 0 0 4778425.467876878 -7141474.837910228 -7141474.837910228 -42625614.86808957 0 0 0 0 0 8365961.474495798 -10589347.21255782 -10589347.21255782 -36882823.53476834 0 0 0 0 0 12518316.93195648 -14296604.92317204 -14296604.92317204 -32128689.33154888 0 0 0 0 0 17373463.52117761 -17811648.34207569 -17811648.34207569 -28287034.05273709 0 0 0 0 0 26254026.79219745 -23766529.41011978 -23766529.41011978 -23640110.51926053 0 0 0 0 0 19160360.38627611 -17448595.1016332 -17448595.1016332 -28815823.99989044 0 0 0 0 0 31800212.32947985 -26215381.45851947 -26215381.45851947 -21864290.69517297 0 0 0 0 0 37528538.14033193 -28308740.8743522 -28308740.8743522 -20567118.79500125 0 0 0 0 0 43316245.44969132 -30015705.49615695 -30015705.49615695 -19687487.38571379 0 0 0 0 0 49085519.99902204 -31321247.41087228 -31321247.41087228 -19121652.64388448 0 0 0 0 0 54750767.65525693 -32240412.18461621 -32240412.18461621 -18803206.92599019 0 0 0 0 0 60257779.39735595 -32800332.85458751 -32800332.85458751 -18668694.71252308 0 0 0 0 0 65556552.41479463 -33029377.38373835 -33029377.38373835 -18666601.94225781 0 0 0 0 0 70619424.31158727 -32957728.75336207 -32957728.75336207 -18747839.65031879 0 0 0 0 0 74816483.55998312 -31783386.28741176 -31783386.28741176 -18749959.43410714 0 0 0 0 0 76299993.5230023 -32381728.91740474 -32381728.91740474 -18915250.9565988 0 0 0 0 0 80525093.99495764 -31750100.95818766 -31750100.95818766 -19041430.34311018 0 0 0 0 0 84463838.98416382 -30955312.06171994 -30955312.06171994 -19154419.07115715 0 0 0 0 0 88114545.31198463 -30019317.44145711 -30019317.44145711 -19235896.65341528 0 0 0 0 0 91433683.27682085 -28613861.8710475 -28613861.8710475 -19160863.84638311 0 0 0 0 0 91565298.75070304 -28939437.32507538 -28939437.32507538 -18807495.8312482 0 0 0 0 0 94365987.0320871 -27499813.26040931 -27499813.26040931 -19151286.9449266 0 0 0 0 0 97042309.51830338 -26331694.23416758 -26331694.23416758 -19095956.15289364 0 0 0 0 0 99476673.67548139 -25123428.38125897 -25123428.38125897 -18992261.31825215 0 0 0 0 0 101677017.4946245 -23893431.53259922 -23893431.53259922 -18843550.84097868 0 0 0 0 0 103657162.6991728 -22657310.84966388 -22657310.84966388 -18650177.90661722 0 0 0 0 0 105434097.7231133 -21424703.69742038 -21424703.69742038 -18416299.36046586 0 0 0 0 0 107463939.9015491 -20735634.40577637 -20735634.40577637 -17952277.91390114 0 0 0 0 0 106307794.8136421 -20091472.02556295 -20091472.02556295 -17972989.98894003 0 0 0 0 0 107676507.5160285 -18931550.69127017 -18931550.69127017 -17678952.37776768 0 0 0 0 0 108887901.9248626 -17797339.28195121 -17797339.28195121 -17356806.97445725 0 0 0 0 0 109954730.5122256 -16697733.18659585 -16697733.18659585 -17003431.16799622 0 0 0 0 0 110887707.3875182 -15642018.27187518 -15642018.27187518 -16633509.5527844 0 0 0 0 0 111681860.4333001 -14622858.29262149 -14622858.29262149 -16240067.85647309 0 0 0 0 0 112777890.75317 -14237823.67429328 -14237823.67429328 -15972227.44920691 0 0 0 0 0 111578943.5820772 -13731219.34229743 -13731219.34229743 -15748026.25725947 0 0 0 0 0 112189465.4713469 -12806311.31270894 -12806311.31270894 -15353073.9288981 0 0 0 0 0 112342431.8226022 -12577537.44740568 -12577537.44740568 -14947146.53823715 0 0 0 0 0 112779861.6221829 -11751075.88102355 -11751075.88102355 -14598147.65600633 0 0 0 0 0 112448611.5016298 -11068976.04132156 -11068976.04132156 -14087953.57414358 0 0 0 0 0 111715275.5908484 -11335489.85517518 -11335489.85517518 -14323713.0213354 0 0 0 0 0 112766820.2800539 -10328043.87262551 -10328043.87262551 -13741489.02101417 0 0 0 0 0 113027629.0567252 -9619540.702818211 -9619540.702818211 -13389907.85546371 0 0 0 0 0 113238152.1499232 -8941989.688883837 -8941989.688883837 -13034047.72866871 0 0 0 0 0 113401246.2684022 -8296730.620242128 -8296730.620242128 -12676813.70808254 0 0 0 0 0 112922207.6030501 -7851432.935372918 -7851432.935372918 -12232824.36801656 0 0 0 0 0 112498277.6811861 -8000643.411897582 -8000643.411897582 -12349918.80693524 0 0 0 0 0 113022244.272559 -7279212.262216838 -7279212.262216838 -11892012.37860859 0 0 0 0 0 113087762.717738 -6735858.004687655 -6735858.004687655 -11552437.975432 0 0 0 0 0 113123464.594328 -6219455.72336376 -6219455.72336376 -11213969.44220499 0 0 0 0 0 113132731.0375563 -5729731.999962565 -5729731.999962565 -10878640.98924243 0 0 0 0 0 113117424.837462 -5265469.264373201 -5265469.264373201 -10547178.26502509 0 0 0 0 0 112407457.8151288 -5080419.238518055 -5080419.238518055 -10208022.92251713 0 0 0 0 0 112562314.497851 -4610455.304002776 -4610455.304002776 -9884584.720892413 0 0 0 0 0 112397905.7423876 -4655690.734765061 -4655690.734765061 -9880955.067735296 0 0 0 0 0 112506364.3353175 -4219295.901282853 -4219295.901282853 -9578024.746788654 0 0 0 0 0 112434967.4743894 -3849732.910864339 -3849732.910864339 -9277155.663073076 0 0 0 0 0 112349791.3602477 -3500445.473784259 -3500445.473784259 -8981617.910273839 0 0 0 0 0 112253413.9374358 -3169710.27665164 -3169710.27665164 -8691198.010002725 0 0 0 0 0 111768560.9486507 -3055346.386692473 -3055346.386692473 -8426468.365156511 0 0 0 0 0 111706422.3026636 -3059567.977192049 -3059567.977192049 -8375329.01167252 0 0 0 0 0 111666046.3992138 -2760950.443425992 -2760950.443425992 -8156654.956305513 0 0 0 0 0 111555480.9755793 -2482841.527470731 -2482841.527470731 -7892688.992147723 0 0 0 0 0 111437902.2081657 -2220071.328212923 -2220071.328212923 -7634736.713932596 0 0 0 0 0 111313847.8657399 -1971860.396587958 -1971860.396587958 -7382959.377409061 0 0 0 0 0 111184614.4811758 -1737873.948538046 -1737873.948538046 -7137570.728967495 0 0 0 0 0 110667534.9441242 -1464739.584473457 -1464739.584473457 -6605117.96976044 0 0 0 0 0 111050642.5463624 -1517243.7909767 -1517243.7909767 -6899643.285824634 0 0 0 0 0 110615145.8548634 -1518021.159352484 -1518021.159352484 -6739094.865725602 0 0 0 0 0 110482074.5644784 -1323708.724772664 -1323708.724772664 -6513206.979787619 0 0 0 0 0 110348921.1843056 -1137272.848252822 -1137272.848252822 -6296686.45132175 0 0 0 0 0 110215600.9172646 -961292.6572863673 -961292.6572863673 -6085676.278733317 0 0 0 0 0 110079960.8764563 -794394.8501100086 -794394.8501100086 -5880778.580980271 0 0 0 0 0 109942864.2036057 -639008.4896458433 -639008.4896458433 -5683963.470560278 0 0 0 0 0 109636044.9925276 -613428.6364783306 -613428.6364783306 -5445887.110677923 0 0 0 0 0 109581626.7143146 -656739.5353689563 -656739.5353689563 -5553448.557973782 0 0 0 0 0 109450275.7123377 -516254.4598265732 -516254.4598265732 -5368577.799482415 0 0 0 0 0 109318365.6891061 -383944.3063845392 -383944.3063845392 -5190896.611730937 0 0 0 0 0 109190897.2285796 -256825.5586601417 -256825.5586601417 -5013608.970514984 0 0 0 0 0 108932433.1080629 -238261.2576678573 -238261.2576678573 -4809851.989250869 0 0 0 0 0 108876304.6749793 -277960.0918268263 -277960.0918268263 -4902479.812135733 0 0 0 0 0 108750278.7750993 -173954.4989935551 -173954.4989935551 -4752709.278957848 0 0 0 0 0 108665479.0200533 -57703.54078406908 -57703.54078406908 -4578082.843205413 0 0 0 0 0 108365454.9076163 -21166.9803484652 -21166.9803484652 -4475083.468433092 0 0 0 0 0 108217128.5732506 17585.58443824419 17585.58443824419 -4373011.012390225 0 0 0 0 0 113097072.4164795 -12488495.18100392 -12488495.18100392 -15106496.30173979 0 0 0 0 0 -2580444.448277488 11395961.87426717 11395961.87426717 -70951610.10045514 0 0 0 0 0 -3412613.71921081 12553372.12601136 12553372.12601136 -87534939.4635054 0 0 0 0 0 -2785511.288323008 7148041.692717764 7148041.692717764 -58724975.26787846 0 0 0 0 0 -2026199.651273533 7552854.281463053 7552854.281463053 -68403797.44942448 0 0 0 0 0 2001050.163924051 -1973162.782520517 -1973162.782520517 -48773202.59846656 0 0 0 0 0 1492988.346849725 -1625983.912645253 -1625983.912645253 -46998394.00742938 0 0 0 0 0 4463824.225635109 -5354420.027393053 -5354420.027393053 -41336473.67258681 0 0 0 0 0 9264909.008246265 -9529869.604442082 -9529869.604442082 -36151380.41589326 0 0 0 0 0 14780413.43651536 -13585971.15315402 -13585971.15315402 -31782598.1856254 0 0 0 0 0 25105367.05240425 -20637133.81566158 -20637133.81566158 -26042662.80812659 0 0 0 0 0 22695366.23552971 -21090245.7064082 -21090245.7064082 -25184070.7266021 0 0 0 0 0 31310337.05083294 -23467271.64730178 -23467271.64730178 -23850811.41472354 0 0 0 0 0 37666417.66055994 -25906308.34503907 -25906308.34503907 -22163069.78796354 0 0 0 0 0 44132808.12144621 -27926680.00593976 -27926680.00593976 -20908835.8338161 0 0 0 0 0 50494915.18866014 -29497895.63311326 -29497895.63311326 -20024518.05092669 0 0 0 0 0 56671757.19684533 -30646262.80434919 -30646262.80434919 -19428281.14197641 0 0 0 0 0 62613204.50365297 -31398984.03326808 -31398984.03326808 -19058416.05972142 0 0 0 0 0 68275031.07526954 -31784297.13008598 -31784297.13008598 -18852820.88842535 0 0 0 0 0 73636465.60319304 -31842251.20005014 -31842251.20005014 -18765883.4450368 0 0 0 0 0 75411042.15556143 -32616288.48180541 -32616288.48180541 -18870300.21200298 0 0 0 0 0 79519390.68938848 -31450225.52258961 -31450225.52258961 -18776638.00116657 0 0 0 0 0 83866100.15613225 -30894212.9851761 -30894212.9851761 -18829695.0465925 0 0 0 0 0 87878232.5356762 -30156330.21981414 -30156330.21981414 -18882504.34215755 0 0 0 0 0 91560521.04723775 -29269625.52307878 -29269625.52307878 -18925579.38279853 0 0 0 0 0 94749930.78658018 -27936929.50769479 -27936929.50769479 -18825129.55593923 0 0 0 0 0 91481385.90353642 -28970892.47064089 -28970892.47064089 -19282138.56889199 0 0 0 0 0 97637270.44699015 -26851859.52181669 -26851859.52181669 -18809295.56666464 0 0 0 0 0 100246924.0828978 -25707730.78625298 -25707730.78625298 -18753748.49348397 0 0 0 0 0 102590795.7192138 -24519884.27389507 -24519884.27389507 -18657535.68119499 0 0 0 0 0 104693109.3151967 -23307889.25054397 -23307889.25054397 -18520221.24193623 0 0 0 0 0 106565910.685525 -22087178.30143418 -22087178.30143418 -18341676.50465456 0 0 0 0 0 108226779.826684 -20869128.76730271 -20869128.76730271 -18123925.21530731 0 0 0 0 0 107022602.2078984 -20201456.05027208 -20201456.05027208 -18141844.04626876 0 0 0 0 0 108882289.9487154 -19568856.23434556 -19568856.23434556 -17711850.84843829 0 0 0 0 0 110126304.3150662 -18421109.02791915 -18421109.02791915 -17439478.43801757 0 0 0 0 0 111215857.5388435 -17299417.32137382 -17299417.32137382 -17138139.18338119 0 0 0 0 0 112143541.1727449 -16216592.96573197 -16216592.96573197 -16819973.55143158 0 0 0 0 0 112939224.23313 -15173873.38612673 -15173873.38612673 -16478914.84146486 0 0 0 0 0 113616693.8428451 -14169701.52807561 -14169701.52807561 -16122734.40232553 0 0 0 0 0 112368409.8997038 -13643652.4290863 -13643652.4290863 -15860818.84380025 0 0 0 0 0 113377915.2771209 -13294752.27964989 -13294752.27964989 -15611649.28931927 0 0 0 0 0 113881421.5926245 -12382363.12095775 -12382363.12095775 -15236444.05166445 0 0 0 0 0 111971962.4437681 -12038990.69794342 -12038990.69794342 -14835330.49144757 0 0 0 0 0 112420291.8853684 -11215518.35818312 -11215518.35818312 -14444797.90809414 0 0 0 0 0 112106286.4343395 -10565996.78820601 -10565996.78820601 -13945953.76110026 0 0 0 0 0 113148288.9873276 -10958051.93092914 -10958051.93092914 -14238322.30633646 0 0 0 0 0 112436036.2554544 -9830137.838554421 -9830137.838554421 -13564406.38077282 0 0 0 0 0 112710557.3444226 -9127077.644608704 -9127077.644608704 -13179448.4074723 0 0 0 0 0 112932322.3337683 -8458413.092305774 -8458413.092305774 -12794975.42656637 0 0 0 0 0 113108834.8604458 -7822409.892879916 -7822409.892879916 -12410783.11074223 0 0 0 0 0 112647933.0001017 -7407902.61920488 -7407902.61920488 -11983337.70142632 0 0 0 0 0 113522408.0468164 -7682742.774547168 -7682742.774547168 -12318912.30764291 0 0 0 0 0 112760365.8970635 -6845094.690977088 -6845094.690977088 -11619654.49935859 0 0 0 0 0 112838984.7585838 -6311128.059814882 -6311128.059814882 -11259484.04880598 0 0 0 0 0 112886481.8428395 -5805380.508571429 -5805380.508571429 -10903787.96195608 0 0 0 0 0 112906585.664442 -5326293.213333568 -5326293.213333568 -10553746.32313781 0 0 0 0 0 112901948.3095743 -4873304.763919729 -4873304.763919729 -10209524.22975825 0 0 0 0 0 113080732.8992997 -4825871.787043126 -4825871.787043126 -10219977.92383503 0 0 0 0 0 112368881.7867468 -4253249.081171986 -4253249.081171986 -9559804.283895565 0 0 0 0 0 113025186.0631182 -4409538.450282802 -4409538.450282802 -9897204.731380029 0 0 0 0 0 112323554.7762158 -3872249.456471099 -3872249.456471099 -9243179.646864776 0 0 0 0 0 112260780.1437001 -3513206.67796007 -3513206.67796007 -8934571.60052922 0 0 0 0 0 112184306.7578988 -3174092.49790734 -3174092.49790734 -8633061.973379662 0 0 0 0 0 112095342.4658722 -2853832.774163667 -2853832.774163667 -8338235.360445749 0 0 0 0 0 111621783.510126 -2757400.358173395 -2757400.358173395 -8094825.94521914 0 0 0 0 0 112145854.337716 -2857443.922886736 -2857443.922886736 -8407053.54398516 0 0 0 0 0 111527083.5945583 -2472307.926200559 -2472307.926200559 -7821035.429258449 0 0 0 0 0 111423854.7111214 -2203240.758353508 -2203240.758353508 -7554293.87570096 0 0 0 0 0 111312926.2613079 -1949384.702868809 -1949384.702868809 -7294837.80765008 0 0 0 0 0 111196076.5031557 -1709819.254425697 -1709819.254425697 -7041347.320121046 0 0 0 0 0 111073137.8990603 -1484226.688330603 -1484226.688330603 -6795906.207178325 0 0 0 0 0 110880815.7785889 -1327391.819109979 -1327391.819109979 -6693236.528650685 0 0 0 0 0 110946657.5925532 -1273297.018016226 -1273297.018016226 -6554913.336548404 0 0 0 0 0 110512895.238103 -1288198.335978534 -1288198.335978534 -6413180.563070622 0 0 0 0 0 110383433.8246431 -1101498.341888939 -1101498.341888939 -6194579.747012885 0 0 0 0 0 110260170.6925432 -921319.225392353 -921319.225392353 -5979281.940225296 0 0 0 0 0 110131055.0114765 -751372.8959380389 -751372.8959380389 -5769618.610464683 0 0 0 0 0 110000405.438255 -592566.8317129072 -592566.8317129072 -5566053.548647544 0 0 0 0 0 109864646.2039328 -444525.6295730005 -444525.6295730005 -5371207.112209635 0 0 0 0 0 109802035.643625 -493164.5534837301 -493164.5534837301 -5490874.692655928 0 0 0 0 0 109509985.5912854 -470643.5728212256 -470643.5728212256 -5258466.641697816 0 0 0 0 0 109382630.1437277 -336206.2658196462 -336206.2658196462 -5076733.293031218 0 0 0 0 0 109255233.4477194 -209748.8600731948 -209748.8600731948 -4901250.257532087 0 0 0 0 0 109126152.103895 -89464.05156026174 -89464.05156026174 -4730472.334129396 0 0 0 0 0 109061044.8514206 -137495.8661530894 -137495.8661530894 -4845360.664844513 0 0 0 0 0 108817568.9845387 -125724.9756473764 -125724.9756473764 -4638244.810902104 0 0 0 0 0 108693494.4227135 -34747.12715111086 -34747.12715111086 -4495914.117797685 0 0 0 0 0 108516679.8600817 15203.07410749737 15203.07410749737 -4482344.653648255 0 0 0 0 0 108639676.4922269 134246.3772414241 134246.3772414241 -4274246.432600031 0 0 0 0 0 108470755.5309852 151727.9896313967 151727.9896313967 -4164319.376181114 0 0 0 0 0 112713824.011917 -11920527.9337881 -11920527.9337881 -14949464.5929513 0 0 0 0 0 -3703587.88244457 14310377.65972815 14310377.65972815 -81383674.39579648 0 0 0 0 0 -409578.3046554691 5314794.621085519 5314794.621085519 -59485100.56908133 0 0 0 0 0 -3010466.203054061 12785797.70022875 12785797.70022875 -66012406.54461292 0 0 0 0 0 -2075235.663551342 5173250.80033889 5173250.80033889 -53349370.02042797 0 0 0 0 0 5207746.840267713 -5344804.885185632 -5344804.885185632 -42058123.24333429 0 0 0 0 0 8918066.527228022 -9587803.375080897 -9587803.375080897 -36000095.47842478 0 0 0 0 0 13562523.26832629 -13669620.60765023 -13669620.60765023 -30787820.14756785 0 0 0 0 0 18842887.99484933 -17538568.95459733 -17538568.95459733 -26849506.77308327 0 0 0 0 0 28360014.70377252 -24037679.47364883 -24037679.47364883 -22858619.38561859 0 0 0 0 0 20727305.43223906 -17349891.02206004 -17349891.02206004 -28197023.73471612 0 0 0 0 0 34258463.9872685 -26595304.59840696 -26595304.59840696 -21126964.29695078 0 0 0 0 0 40319009.34867582 -28740271.41208033 -28740271.41208033 -19929950.64719089 0 0 0 0 0 46409173.03930159 -30417182.25738881 -30417182.25738881 -19152004.53917125 0 0 0 0 0 52404960.05616868 -31648004.04642333 -31648004.04642333 -18685055.69237111 0 0 0 0 0 58246240.53994253 -32467909.73246607 -32467909.73246607 -18463256.89550249 0 0 0 0 0 63880619.58599571 -32904651.25853904 -32904651.25853904 -18414562.85195099 0 0 0 0 0 69263097.29708388 -32992991.79228228 -32992991.79228228 -18484468.03419217 0 0 0 0 0 74372120.78192665 -32772304.70032832 -32772304.70032832 -18616021.98894079 0 0 0 0 0 78666879.86737938 -31613142.1683977 -31613142.1683977 -18762120.86718159 0 0 0 0 0 79908529.75291198 -32044169.50545273 -32044169.50545273 -18998370.26946305 0 0 0 0 0 84083773.17672376 -31280377.54009394 -31280377.54009394 -19122916.88913957 0 0 0 0 0 87948840.62857614 -30356220.8529357 -30356220.8529357 -19222153.00001893 0 0 0 0 0 91502461.05468285 -29301088.64789614 -29301088.64789614 -19281326.52990764 0 0 0 0 0 94569418.55708066 -27832720.55086391 -27832720.55086391 -19278158.14953755 0 0 0 0 0 94919385.3082549 -28259845.38900932 -28259845.38900932 -18940626.0686646 0 0 0 0 0 97379968.61335634 -26633010.93328574 -26633010.93328574 -19224548.15521866 0 0 0 0 0 99927264.00894344 -25390194.20803627 -25390194.20803627 -19119478.47099994 0 0 0 0 0 102221498.2953862 -24124384.93972769 -24124384.93972769 -18970566.49686483 0 0 0 0 0 104281859.0771068 -22843608.84935079 -22843608.84935079 -18777633.01831331 0 0 0 0 0 106126492.240018 -21562565.94954693 -21562565.94954693 -18535794.58763081 0 0 0 0 0 107769768.3731746 -20294306.53003829 -20294306.53003829 -18251802.37268119 0 0 0 0 0 109683157.7992006 -19659811.79411523 -19659811.79411523 -17872578.0982736 0 0 0 0 0 108429572.2753005 -18999129.97990458 -18999129.97990458 -17835040.36606579 0 0 0 0 0 109669321.3551271 -17825933.35350463 -17825933.35350463 -17497392.60223033 0 0 0 0 0 110759498.70465 -16685670.79686847 -16685670.79686847 -17133166.56386238 0 0 0 0 0 111706828.0658975 -15586628.13128278 -15586628.13128278 -16737625.74282687 0 0 0 0 0 112511569.7013367 -14533452.12813616 -14533452.12813616 -16338927.69644755 0 0 0 0 0 113195705.8883683 -13527513.17906238 -13527513.17906238 -15924936.2221022 0 0 0 0 0 114200306.7069491 -13194268.57978564 -13194268.57978564 -15728972.27935567 0 0 0 0 0 112967366.0355064 -12693944.41627732 -12693944.41627732 -15450963.17448277 0 0 0 0 0 113482465.2860932 -11782819.39249119 -11782819.39249119 -15028913.67658609 0 0 0 0 0 113523281.1215848 -11639642.47163451 -11639642.47163451 -14740500.15801144 0 0 0 0 0 113877242.1089273 -10827402.77126355 -10827402.77126355 -14364819.18251264 0 0 0 0 0 113453559.933769 -10198733.35710107 -10198733.35710107 -13873349.0325207 0 0 0 0 0 112797481.4866612 -10428358.56749998 -10428358.56749998 -14050435.18278622 0 0 0 0 0 113700973.6897814 -9472325.959611192 -9472325.959611192 -13503108.31947687 0 0 0 0 0 113893909.0018297 -8780348.837139869 -8780348.837139869 -13131201.919724 0 0 0 0 0 114039371.8907627 -8121770.751147493 -8121770.751147493 -12757115.07344532 0 0 0 0 0 114141612.425366 -7496601.678912096 -7496601.678912096 -12384405.46378314 0 0 0 0 0 113605080.5407843 -7100030.956257699 -7100030.956257699 -11962637.39601569 0 0 0 0 0 113242250.9906974 -7219426.41476036 -7219426.41476036 -12030478.09556857 0 0 0 0 0 113653873.3238888 -6546838.03414932 -6546838.03414932 -11608100.83494703 0 0 0 0 0 113671562.9554592 -6022697.362655285 -6022697.362655285 -11256382.18509977 0 0 0 0 0 113661771.9926711 -5526576.503687831 -5526576.503687831 -10908220.53117084 0 0 0 0 0 113628397.9620739 -5057685.717233929 -5057685.717233929 -10564499.28423129 0 0 0 0 0 113573499.0821144 -4613769.525671115 -4613769.525671115 -10225279.63078408 0 0 0 0 0 112875903.8354053 -4444719.594312935 -4444719.594312935 -9871169.674725998 0 0 0 0 0 112954060.7259371 -4015178.21565568 -4015178.21565568 -9579398.957774943 0 0 0 0 0 112830425.0129715 -4039676.963136971 -4039676.963136971 -9539734.222888077 0 0 0 0 0 112865428.392534 -3643751.004989564 -3643751.004989564 -9269273.646278851 0 0 0 0 0 112764021.8684255 -3292925.353558851 -3292925.353558851 -8964432.737816744 0 0 0 0 0 112651302.5895889 -2961734.124280003 -2961734.124280003 -8665780.311278924 0 0 0 0 0 112528907.7741145 -2648978.213260419 -2648978.213260419 -8373209.892025533 0 0 0 0 0 112029189.4756495 -2562722.067099961 -2562722.067099961 -8129581.359034627 0 0 0 0 0 111996688.8208688 -2551305.936953159 -2551305.936953159 -8050126.827076931 0 0 0 0 0 111904168.0128609 -2284622.685345775 -2284622.685345775 -7858291.657494769 0 0 0 0 0 111772737.0882142 -2022521.732491741 -2022521.732491741 -7593675.281271262 0 0 0 0 0 111636144.85825 -1775294.729642917 -1775294.729642917 -7335153.848668633 0 0 0 0 0 111493582.7795455 -1542464.234959616 -1542464.234959616 -7083822.255665218 0 0 0 0 0 111347518.2327329 -1323500.492082885 -1323500.492082885 -6839159.460265098 0 0 0 0 0 110823185.9734018 -1083031.56720021 -1083031.56720021 -6308656.440520705 0 0 0 0 0 111194832.1817306 -1119326.718927271 -1119326.718927271 -6603865.137383499 0 0 0 0 0 110751458.0321971 -1142430.293835273 -1142430.293835273 -6460366.389537031 0 0 0 0 0 110608920.0320269 -958162.1135081461 -958162.1135081461 -6238171.831586225 0 0 0 0 0 110465576.6088858 -783433.8217693615 -783433.8217693615 -6023903.958714972 0 0 0 0 0 110319769.583653 -619081.9493150857 -619081.9493150857 -5814657.165669207 0 0 0 0 0 110170889.8443172 -466628.8152986916 -466628.8152986916 -5614291.503152153 0 0 0 0 0 110022774.6302841 -324239.6047186998 -324239.6047186998 -5419725.76658274 0 0 0 0 0 109729221.031319 -304235.6892534996 -304235.6892534996 -5181152.183623709 0 0 0 0 0 109661550.0924054 -355106.4093323939 -355106.4093323939 -5303440.749839252 0 0 0 0 0 109521776.5297259 -224619.5215178753 -224619.5215178753 -5120885.09239269 0 0 0 0 0 109382067.0949766 -102000.9599618781 -102000.9599618781 -4944675.367078904 0 0 0 0 0 109243837.5555284 13455.46758510199 13455.46758510199 -4771961.824512386 0 0 0 0 0 109000161.8804678 23725.84625568087 23725.84625568087 -4564629.405242424 0 0 0 0 0 108905557.0731665 -37030.20060903657 -37030.20060903657 -4696055.033844925 0 0 0 0 0 108718253.4637431 33194.14888109587 33194.14888109587 -4572033.818691134 0 0 0 0 0 108810429.756047 170554.2679391675 170554.2679391675 -4319711.85267914 0 0 0 0 0 108493060.8608747 176020.3055779629 176020.3055779629 -4315497.30148094 0 0 0 0 0 108356865.0313092 204368.4312023979 204368.4312023979 -4248033.627835769 0 0 0 0 0 114297835.077743 -11508084.46666977 -11508084.46666977 -14850977.54521243 0 0 0 0 0 -3361029.011833987 13118192.6718127 13118192.6718127 -58718389.90534215 0 0 0 0 0 -4061184.9611088 14950035.72745353 14950035.72745353 -74122422.63095285 0 0 0 0 0 1751034.530482359 1463309.017042023 1463309.017042023 -46758040.54445897 0 0 0 0 0 486260.301185544 967635.1098540609 967635.1098540609 -47421319.83472934 0 0 0 0 0 4646482.6972868 -3909046.802285067 -3909046.802285067 -40611464.42324862 0 0 0 0 0 9986546.784552077 -8676119.888699986 -8676119.888699986 -35040022.13608243 0 0 0 0 0 15927794.22621146 -13127039.19813911 -13127039.19813911 -30511901.50785004 0 0 0 0 0 27199527.41341044 -20812539.62635053 -20812539.62635053 -25329681.0635818 0 0 0 0 0 24564684.31593345 -21122530.83212481 -21122530.83212481 -23671675.83539654 0 0 0 0 0 33822967.44291396 -23801956.86412871 -23801956.86412871 -23129077.25326531 0 0 0 0 0 40649355.86151104 -26325144.26399709 -26325144.26399709 -21487894.76643773 0 0 0 0 0 47468794.11115883 -28343129.05808772 -28343129.05808772 -20305906.40402412 0 0 0 0 0 54067668.93119451 -29858512.826408 -29858512.826408 -19503129.88135884 0 0 0 0 0 60433201.15003015 -30914064.12714905 -30914064.12714905 -18997086.11183845 0 0 0 0 0 66503336.75649889 -31544957.26431268 -31544957.26431268 -18711103.60359451 0 0 0 0 0 72240436.01929387 -31790683.90637952 -31790683.90637952 -18576047.2558418 0 0 0 0 0 77621146.16847737 -31695069.85788757 -31695069.85788757 -18545633.75781175 0 0 0 0 0 79165643.0116393 -32280537.4587965 -32280537.4587965 -18762153.86230961 0 0 0 0 0 83313348.66161695 -31130986.89907217 -31130986.89907217 -18805366.93659783 0 0 0 0 0 87592006.73798855 -30437916.87817783 -30437916.87817783 -18860432.38004555 0 0 0 0 0 91504221.26773866 -29570820.6410756 -29570820.6410756 -18907981.23035926 0 0 0 0 0 95063122.59460504 -28560826.075755 -28560826.075755 -18932923.47266962 0 0 0 0 0 97963966.83571121 -27155199.57312978 -27155199.57312978 -18925426.9983383 0 0 0 0 0 94756337.02074224 -28147997.03748928 -28147997.03748928 -19292121.38685866 0 0 0 0 0 100704410.4047012 -25982869.88992452 -25982869.88992452 -18871249.75383025 0 0 0 0 0 103154326.6037002 -24764501.59417625 -24764501.59417625 -18777865.00801158 0 0 0 0 0 105342118.8626965 -23517861.60853362 -23517861.60853362 -18637351.88078023 0 0 0 0 0 107301189.1993868 -22256765.02688641 -22256765.02688641 -18451690.37663794 0 0 0 0 0 109020338.3652972 -20990618.60692744 -20990618.60692744 -18227200.46671969 0 0 0 0 0 110521071.4053139 -19736727.74144445 -19736727.74144445 -17969850.64071786 0 0 0 0 0 109216479.2382105 -19051824.47926357 -19051824.47926357 -17931614.78900806 0 0 0 0 0 110961313.722777 -18472013.82951772 -18472013.82951772 -17587147.25789524 0 0 0 0 0 112068659.647596 -17311950.56654206 -17311950.56654206 -17271979.19695052 0 0 0 0 0 113024258.9457638 -16184879.59477582 -16184879.59477582 -16931482.38829029 0 0 0 0 0 113817717.2080092 -15107185.3730999 -15107185.3730999 -16582033.32060631 0 0 0 0 0 114488729.7470724 -14068064.04548989 -14068064.04548989 -16205323.74823868 0 0 0 0 0 115063037.8884959 -13074940.0368075 -13074940.0368075 -15809184.84631911 0 0 0 0 0 113782676.0801566 -12559044.78231429 -12559044.78231429 -15509076.00588143 0 0 0 0 0 114696105.8795121 -12257376.33636444 -12257376.33636444 -15333392.62051531 0 0 0 0 0 115100935.901907 -11359014.70915776 -11359014.70915776 -14929299.44291866 0 0 0 0 0 113154218.9751629 -11074448.19006267 -11074448.19006267 -14537662.4342491 0 0 0 0 0 113519857.0062473 -10268064.8225554 -10268064.8225554 -14125577.97721409 0 0 0 0 0 113113868.6709837 -9675145.650719315 -9675145.650719315 -13651697.80694094 0 0 0 0 0 114165721.1636349 -10050017.20722958 -10050017.20722958 -13980973.71121456 0 0 0 0 0 113373996.7531625 -8956244.044705149 -8956244.044705149 -13249093.80596393 0 0 0 0 0 113581609.2857414 -8273113.140262117 -8273113.140262117 -12847860.59474749 0 0 0 0 0 113740823.0297171 -7625490.169760149 -7625490.169760149 -12448221.16493208 0 0 0 0 0 113857218.9520958 -7011808.565837832 -7011808.565837832 -12052598.89687058 0 0 0 0 0 113338873.6855076 -6646580.880215724 -6646580.880215724 -11651527.85110567 0 0 0 0 0 114206785.8952562 -6902723.197060848 -6902723.197060848 -12011416.20929426 0 0 0 0 0 113400428.1327167 -6104203.862146246 -6104203.862146246 -11276958.34088145 0 0 0 0 0 113430685.1349234 -5591741.66256986 -5591741.66256986 -10908847.37019775 0 0 0 0 0 113433436.141862 -5107249.953804772 -5107249.953804772 -10544902.38420915 0 0 0 0 0 113409871.271037 -4650774.820971834 -4650774.820971834 -10190850.50205614 0 0 0 0 0 113366321.3204075 -4218676.435034726 -4218676.435034726 -9841495.759656787 0 0 0 0 0 113499637.3257307 -4194313.215945234 -4194313.215945234 -9891951.935289588 0 0 0 0 0 112767418.1774413 -3657051.026295883 -3657051.026295883 -9214547.735061945 0 0 0 0 0 113409408.0401266 -3798220.843705449 -3798220.843705449 -9564416.564562147 0 0 0 0 0 112689995.5040688 -3296045.835305393 -3296045.835305393 -8896480.946460951 0 0 0 0 0 112597817.8759558 -2956062.878137665 -2956062.878137665 -8586029.873527834 0 0 0 0 0 112493543.6328697 -2635745.564765959 -2635745.564765959 -8283991.301549856 0 0 0 0 0 112378970.4464497 -2333710.510559604 -2333710.510559604 -7988722.624046482 0 0 0 0 0 111888147.3498776 -2266201.007736999 -2266201.007736999 -7769531.839121994 0 0 0 0 0 112397506.7834326 -2354161.32351299 -2354161.32351299 -8087754.139779539 0 0 0 0 0 111771918.5305259 -1997363.567853865 -1997363.567853865 -7495365.961654758 0 0 0 0 0 111647623.5886992 -1744797.630741375 -1744797.630741375 -7229549.548545537 0 0 0 0 0 111517232.7291727 -1506774.454576444 -1506774.454576444 -6971274.74132439 0 0 0 0 0 111382631.9700153 -1282587.943730589 -1282587.943730589 -6718771.522633929 0 0 0 0 0 111243446.0042238 -1072486.119316465 -1072486.119316465 -6475188.962607649 0 0 0 0 0 111009342.5807872 -944040.0423747015 -944040.0423747015 -6405251.192543485 0 0 0 0 0 111101748.7774661 -874960.6782592026 -874960.6782592026 -6238401.027849543 0 0 0 0 0 110657019.9961972 -914497.581509613 -914497.581509613 -6121255.034211578 0 0 0 0 0 110520948.6200167 -736318.5962407429 -736318.5962407429 -5901690.771125395 0 0 0 0 0 110382301.5359671 -569083.7263035745 -569083.7263035745 -5688921.639047989 0 0 0 0 0 110241910.6255997 -412473.0207695281 -412473.0207695281 -5481702.763473495 0 0 0 0 0 110099747.4634876 -266607.6113498496 -266607.6113498496 -5282784.696645622 0 0 0 0 0 109951585.7721329 -131359.3738841177 -131359.3738841177 -5092876.519881007 0 0 0 0 0 109874143.4392194 -188238.4266624622 -188238.4266624622 -5227923.915016997 0 0 0 0 0 109593233.1336767 -172525.456793995 -172525.456793995 -4996533.776674099 0 0 0 0 0 109457809.6171166 -47882.74344478056 -47882.74344478056 -4817148.879559908 0 0 0 0 0 109323318.4756563 69286.17169989453 69286.17169989453 -4642099.735935389 0 0 0 0 0 109187976.7499313 179340.8811580414 179340.8811580414 -4472572.482065014 0 0 0 0 0 109105533.8454381 121620.3384721235 121620.3384721235 -4606439.92507184 0 0 0 0 0 108885815.0474734 132852.1184083344 132852.1184083344 -4389577.950437097 0 0 0 0 0 108666392.811902 211157.1782264988 211157.1782264988 -4306238.934551188 0 0 0 0 0 108593954.701273 335962.0991162813 335962.0991162813 -4036124.795947141 0 0 0 0 0 108776281.4045251 326048.4172821267 326048.4172821267 -4103024.985309153 0 0 0 0 0 113915133.8467811 -10912864.70986673 -10912864.70986673 -14599666.9683283 0 0 0 0 0 -4362079.455866714 14603525.81947763 14603525.81947763 -64989022.06047853 0 0 0 0 0 -1854622.843231999 7789057.2354107 7789057.2354107 -54534758.39575456 0 0 0 0 0 5094888.614362196 -3643743.890044628 -3643743.890044628 -40084949.88820084 0 0 0 0 0 9647127.858290367 -8401716.321879884 -8401716.321879884 -33612040.66141816 0 0 0 0 0 14661036.54867247 -12966806.05822084 -12966806.05822084 -28519055.02283562 0 0 0 0 0 20374934.70596405 -17284697.24715603 -17284697.24715603 -24579153.86590297 0 0 0 0 0 30647541.88013745 -24268029.22844234 -24268029.22844234 -21487286.06076753 0 0 0 0 0 22411180.64135913 -17241051.53026028 -17241051.53026028 -26856136.42130595 0 0 0 0 0 36910591.74363917 -26974293.32920943 -26974293.32920943 -19939887.20961962 0 0 0 0 0 43357469.22821163 -29114565.02391814 -29114565.02391814 -18892337.77106285 0 0 0 0 0 49724965.60330573 -30746755.95569315 -30746755.95569315 -18262002.09676555 0 0 0 0 0 55940006.4232013 -31902004.19143488 -31902004.19143488 -17952271.3514411 0 0 0 0 0 61947602.35684861 -32603732.94314989 -32603732.94314989 -17868235.78890647 0 0 0 0 0 67687989.05016766 -32900290.27487671 -32900290.27487671 -17936448.48456145 0 0 0 0 0 73135168.4063502 -32835322.2254112 -32835322.2254112 -18094952.18915285 0 0 0 0 0 78263575.90277819 -32458839.07827767 -32458839.07827767 -18289938.12730501 0 0 0 0 0 82619387.60569158 -31313745.44562912 -31313745.44562912 -18592236.9169698 0 0 0 0 0 83612195.979739 -31566148.42321976 -31566148.42321976 -18916003.98863207 0 0 0 0 0 87717642.27089113 -30663649.26224996 -30663649.26224996 -19042422.54423269 0 0 0 0 0 91484540.1253356 -29612724.28918929 -29612724.28918929 -19130486.61914676 0 0 0 0 0 94924540.9056143 -28446477.90407319 -28446477.90407319 -19168747.94597392 0 0 0 0 0 97714251.80099319 -26919342.40431716 -26919342.40431716 -19251595.86827233 0 0 0 0 0 98279342.89856593 -27444658.20464595 -27444658.20464595 -18927096.36156677 0 0 0 0 0 100387455.8890206 -25643996.6015106 -25643996.6015106 -19154781.48993857 0 0 0 0 0 102782881.1774667 -24338865.43318345 -24338865.43318345 -19008774.79944434 0 0 0 0 0 104921926.6046444 -23017423.73177137 -23017423.73177137 -18818208.10123543 0 0 0 0 0 106837412.7312642 -21686758.59588182 -21686758.59588182 -18583046.87356809 0 0 0 0 0 108545076.4967481 -20374578.32931238 -20374578.32931238 -18292245.90526219 0 0 0 0 0 110038427.295285 -19086585.05524578 -19086585.05524578 -17962553.0192523 0 0 0 0 0 111822514.8775067 -18510560.49852351 -18510560.49852351 -17677630.19647902 0 0 0 0 0 110484769.7193208 -17836998.30208385 -17836998.30208385 -17584842.29645004 0 0 0 0 0 111594928.9951025 -16656804.64892376 -16656804.64892376 -17206442.56408725 0 0 0 0 0 112556183.3844482 -15518299.72038035 -15518299.72038035 -16803675.30994249 0 0 0 0 0 113381620.2077719 -14424775.49258722 -14424775.49258722 -16372903.31138344 0 0 0 0 0 114055437.0685893 -13393957.32778037 -13393957.32778037 -15951349.07040079 0 0 0 0 0 114630783.6267825 -12402445.02945138 -12402445.02945138 -15518542.71537395 0 0 0 0 0 115543257.4170648 -12110691.95263767 -12110691.95263767 -15390399.05484163 0 0 0 0 0 114284359.8769993 -11624695.34272483 -11624695.34272483 -15070401.89086097 0 0 0 0 0 114704410.0436418 -10731626.30304509 -10731626.30304509 -14624678.36076266 0 0 0 0 0 114635413.929986 -10675869.90516899 -10675869.90516899 -14459623.63827822 0 0 0 0 0 114907771.5565736 -9879077.52689709 -9879077.52689709 -14058123.56758316 0 0 0 0 0 114396319.6218069 -9306799.066597678 -9306799.066597678 -13592583.1165384 0 0 0 0 0 113821362.6741922 -9497253.809104335 -9497253.809104335 -13708320.80162788 0 0 0 0 0 114572115.7641709 -8599824.983380567 -8599824.983380567 -13203584.09716363 0 0 0 0 0 114699598.9698383 -7927930.396746238 -7927930.396746238 -12813197.80357733 0 0 0 0 0 114782628.5931362 -7291511.760911749 -7291511.760911749 -12424080.97589679 0 0 0 0 0 114827506.4464611 -6688232.923858862 -6688232.923858862 -12036875.92738562 0 0 0 0 0 114236887.6886405 -6340746.506368921 -6340746.506368921 -11642526.82493236 0 0 0 0 0 113935029.0927552 -6430143.743705576 -6430143.743705576 -11659797.45449188 0 0 0 0 0 114235189.9175334 -5809554.04369921 -5809554.04369921 -11277656.19405663 0 0 0 0 0 114206655.8981038 -5307156.477300352 -5307156.477300352 -10916253.53837488 0 0 0 0 0 114151812.1894384 -4834009.923699972 -4834009.923699972 -10561965.58653708 0 0 0 0 0 114078197.9496322 -4386453.116566506 -4386453.116566506 -10210413.26198493 0 0 0 0 0 113985434.5780468 -3964182.191972801 -3964182.191972801 -9866315.221942522 0 0 0 0 0 113303407.6136586 -3811232.647150663 -3811232.647150663 -9499683.313118817 0 0 0 0 0 113304673.4023688 -3424616.843567147 -3424616.843567147 -9243398.962665729 0 0 0 0 0 113223633.6334881 -3427087.928358033 -3427087.928358033 -9165483.974336216 0 0 0 0 0 113186426.3744961 -3072562.777305618 -3072562.777305618 -8929696.355561554 0 0 0 0 0 113056788.0077402 -2741313.561639111 -2741313.561639111 -8622985.21221493 0 0 0 0 0 112918393.6951361 -2428853.764964695 -2428853.764964695 -8322699.275696888 0 0 0 0 0 112771271.9768827 -2134780.548633133 -2134780.548633133 -8029965.401963383 0 0 0 0 0 112259070.1138181 -2076160.535123927 -2076160.535123927 -7808858.216932902 0 0 0 0 0 112255582.3858006 -2049380.721130059 -2049380.721130059 -7701737.222828581 0 0 0 0 0 112113041.182742 -1815069.143903753 -1815069.143903753 -7537835.243035526 0 0 0 0 0 111962150.648101 -1569508.011839972 -1569508.011839972 -7273359.522727317 0 0 0 0 0 111807890.131566 -1337853.36518812 -1337853.36518812 -7015227.451252245 0 0 0 0 0 111647987.746849 -1120215.141032716 -1120215.141032716 -6765389.940482089 0 0 0 0 0 111487205.7604164 -916425.5803074812 -916425.5803074812 -6522602.976191416 0 0 0 0 0 110968531.8520374 -697937.5357515892 -697937.5357515892 -5996626.478303325 0 0 0 0 0 111322766.8721277 -725429.3214626699 -725429.3214626699 -6287441.813988551 0 0 0 0 0 110870109.9813948 -770328.0541606393 -770328.0541606393 -6168486.588600019 0 0 0 0 0 110717401.6812352 -598175.7044363962 -598175.7044363962 -5948399.208475707 0 0 0 0 0 110561842.7377294 -436514.6301805209 -436514.6301805209 -5736066.941852967 0 0 0 0 0 110402996.7294371 -286292.3461576509 -286292.3461576509 -5531991.020588847 0 0 0 0 0 110243441.1529902 -147178.0641122959 -147178.0641122959 -5336163.737323532 0 0 0 0 0 110087424.0042957 -14330.84122531812 -14330.84122531812 -5141492.761987356 0 0 0 0 0 109806521.8217741 -1877.880576463144 -1877.880576463144 -4905959.984861452 0 0 0 0 0 109725433.1438357 -59772.1939176564 -59772.1939176564 -5042317.965675755 0 0 0 0 0 109577889.6234531 60994.24096984122 60994.24096984122 -4862548.951833027 0 0 0 0 0 109430645.6035894 174310.721836142 174310.721836142 -4687874.549300133 0 0 0 0 0 109285412.3822164 279989.7979551316 279989.7979551316 -4517735.214988427 0 0 0 0 0 109052647.1677831 283629.5507524451 283629.5507524451 -4308486.359556399 0 0 0 0 0 108949755.1798322 214312.4710610683 214312.4710610683 -4462860.450949113 0 0 0 0 0 108842851.54355 341451.4055409477 341451.4055409477 -4235110.974318741 0 0 0 0 0 108490053.239577 388397.5171564838 388397.5171564838 -4120812.763956825 0 0 0 0 0 108627436.9584275 374481.7307758281 374481.7307758281 -4173277.358622656 0 0 0 0 0 115424357.5224466 -10502135.27114644 -10502135.27114644 -14519064.69217251 0 0 0 0 0 -2882151.147237205 11003689.21439751 11003689.21439751 -49711009.51655003 0 0 0 0 0 1239383.412248356 3445285.291829562 3445285.291829562 -42195313.99905931 0 0 0 0 0 932827.9610810464 2175932.114079063 2175932.114079063 -45039755.59283084 0 0 0 0 0 4683620.81984741 -2544832.131089479 -2544832.131089479 -37947881.3695459 0 0 0 0 0 10375575.49781631 -7793629.544980539 -7793629.544980539 -33062289.51626642 0 0 0 0 0 16748698.71021241 -12700485.93135861 -12700485.93135861 -28347107.73832596 0 0 0 0 0 29380380.32365587 -21024598.46284855 -21024598.46284855 -23994249.29868786 0 0 0 0 0 26554120.66908311 -21121175.12364154 -21121175.12364154 -21306044.97946762 0 0 0 0 0 36678018.30365167 -24192417.25594547 -24192417.25594547 -21885432.02939457 0 0 0 0 0 43900401.96957561 -26742510.16471837 -26742510.16471837 -20364901.54100121 0 0 0 0 0 51020054.40343952 -28737570.34158645 -28737570.34158645 -19316525.93651989 0 0 0 0 0 57873423.17645795 -30183504.46294826 -30183504.46294826 -18658839.12164946 0 0 0 0 0 64410783.98271583 -31121219.69122892 -31121219.69122892 -18287120.42231466 0 0 0 0 0 70598730.29999033 -31610664.58049467 -31610664.58049467 -18116746.4746282 0 0 0 0 0 76378504.19652978 -31694967.32947921 -31694967.32947921 -18080680.2641312 0 0 0 0 0 81741490.99694264 -31441248.29732459 -31441248.29732459 -18133369.13875958 0 0 0 0 0 83019021.19519228 -31810536.53104656 -31810536.53104656 -18486415.44601314 0 0 0 0 0 87202356.73365235 -30681434.04075732 -30681434.04075732 -18657216.16049406 0 0 0 0 0 91378145.58268204 -29846322.22574317 -29846322.22574317 -18723596.96524949 0 0 0 0 0 95164025.94794126 -28848131.38597751 -28848131.38597751 -18771177.86367009 0 0 0 0 0 98571984.02516028 -27723836.53868068 -27723836.53868068 -18787677.11661705 0 0 0 0 0 101169752.9606561 -26247181.5093881 -26247181.5093881 -18882017.69754156 0 0 0 0 0 98041449.61442567 -27193755.97276444 -27193755.97276444 -19152017.61730798 0 0 0 0 0 103737639.1035793 -25000222.87938104 -25000222.87938104 -18798418.05683488 0 0 0 0 0 106009647.6545545 -23718215.53159757 -23718215.53159757 -18665616.04897277 0 0 0 0 0 108037122.6471443 -22418154.09166794 -22418154.09166794 -18483271.63973472 0 0 0 0 0 109839780.1456956 -21101676.80289069 -21101676.80289069 -18250098.87231001 0 0 0 0 0 111394385.489953 -19803062.78768991 -19803062.78768991 -17989731.81278608 0 0 0 0 0 112728395.3527093 -18533782.80738901 -18533782.80738901 -17697784.84687078 0 0 0 0 0 111333271.3672306 -17835630.27556054 -17835630.27556054 -17605170.26581596 0 0 0 0 0 112956801.6155295 -17308411.62481886 -17308411.62481886 -17349381.51963436 0 0 0 0 0 113926850.6618565 -16143631.23980297 -16143631.23980297 -16996793.54747658 0 0 0 0 0 114743254.8757945 -15018420.11170513 -15018420.11170513 -16619766.58044531 0 0 0 0 0 115407645.3876427 -13952429.41611112 -13952429.41611112 -16244248.13153429 0 0 0 0 0 115961930.7493782 -12934507.68470348 -12934507.68470348 -15835516.75469711 0 0 0 0 0 116424317.555181 -11946471.20937312 -11946471.20937312 -15402964.00831074 0 0 0 0 0 115120560.9372454 -11444259.00121598 -11444259.00121598 -15067306.13140248 0 0 0 0 0 115934450.5597596 -11190254.35144546 -11190254.35144546 -14968368.44147905 0 0 0 0 0 116243039.3323456 -10310542.30576374 -10310542.30576374 -14540123.5072889 0 0 0 0 0 114269907.0126277 -10085141.08505043 -10085141.08505043 -14167363.56807306 0 0 0 0 0 114554646.4907719 -9298162.099866532 -9298162.099866532 -13734252.95294482 0 0 0 0 0 114064000.0980391 -8764233.31420722 -8764233.31420722 -13290489.82358017 0 0 0 0 0 115118377.3179113 -9120204.43897729 -9120204.43897729 -13653881.69615305 0 0 0 0 0 114252599.0462372 -8068449.96454451 -8068449.96454451 -12872885.74847758 0 0 0 0 0 114392420.4053853 -7410426.848974676 -7410426.848974676 -12459681.27710972 0 0 0 0 0 114490365.8879603 -6786175.008342922 -6786175.008342922 -12048446.76288476 0 0 0 0 0 114548774.5817509 -6195993.109723609 -6195993.109723609 -11642864.04000881 0 0 0 0 0 113979118.338183 -5879759.875448791 -5879759.875448791 -11271231.60057127 0 0 0 0 0 114836936.4844439 -6117712.381540732 -6117712.381540732 -11653208.48903986 0 0 0 0 0 113990252.3700168 -5361246.768242639 -5361246.768242639 -10890222.05907119 0 0 0 0 0 113974103.5317426 -4871999.719885157 -4871999.719885157 -10515809.40709675 0 0 0 0 0 113933372.1660348 -4410825.013385661 -4410825.013385661 -10147482.54606791 0 0 0 0 0 113868951.2499669 -3977121.027392729 -3977121.027392729 -9789869.595198583 0 0 0 0 0 113787356.1420746 -3567826.043113306 -3567826.043113306 -9438316.234362772 0 0 0 0 0 113876269.3063846 -3566281.50536487 -3566281.50536487 -9528920.451047149 0 0 0 0 0 113127923.9808477 -3065290.293983726 -3065290.293983726 -8838820.17370761 0 0 0 0 0 113752744.9522621 -3191644.298265566 -3191644.298265566 -9198723.294581674 0 0 0 0 0 113019409.8905646 -2725171.306924719 -2725171.306924719 -8520763.171513639 0 0 0 0 0 112899096.1521617 -2405237.186712855 -2405237.186712855 -8210962.902962971 0 0 0 0 0 112768499.3734588 -2104382.142588262 -2104382.142588262 -7909631.260524061 0 0 0 0 0 112629821.7768437 -1821273.991859044 -1821273.991859044 -7615603.087219841 0 0 0 0 0 112124052.091366 -1781990.028899048 -1781990.028899048 -7422123.140660537 0 0 0 0 0 112617197.7548716 -1858373.018863427 -1858373.018863427 -7744840.576357266 0 0 0 0 0 111986393.3222531 -1530742.31043777 -1530742.31043777 -7149965.941226752 0 0 0 0 0 111842715.532085 -1294738.641865754 -1294738.641865754 -6886080.280556058 0 0 0 0 0 111694569.8335477 -1072155.611486748 -1072155.611486748 -6629944.51255923 0 0 0 0 0 111543381.3957478 -863875.6196043629 -863875.6196043629 -6380486.851405217 0 0 0 0 0 111385307.8291074 -670236.8508031472 -670236.8508031472 -6142377.427809507 0 0 0 0 0 111122931.7283957 -566949.1956848183 -566949.1956848183 -6096047.85310677 0 0 0 0 0 111226913.8475473 -488599.9299735379 -488599.9299735379 -5907520.547551508 0 0 0 0 0 110784448.4488905 -543821.0703712123 -543821.0703712123 -5810625.776115482 0 0 0 0 0 110635286.7706624 -379358.0281926218 -379358.0281926218 -5594379.212784481 0 0 0 0 0 110484732.6576092 -225505.07387732 -225505.07387732 -5385112.062233015 0 0 0 0 0 110333889.4625915 -81820.39537598648 -81820.39537598648 -5182447.072949566 0 0 0 0 0 110178321.0703249 50428.9840841869 50428.9840841869 -4989484.489447099 0 0 0 0 0 110022534.2366494 175952.5878547272 175952.5878547272 -4802501.432952713 0 0 0 0 0 109930842.8605764 111346.2483476453 111346.2483476453 -4953170.171011768 0 0 0 0 0 109663525.7511714 120866.1535138183 120866.1535138183 -4723688.566796115 0 0 0 0 0 109519694.7939229 235738.5046153957 235738.5046153957 -4546720.110903019 0 0 0 0 0 109376623.9123284 342720.1015077555 342720.1015077555 -4373887.463898456 0 0 0 0 0 109233946.4778822 443157.0805570245 443157.0805570245 -4209533.842368605 0 0 0 0 0 109145440.1852243 381726.3364330507 381726.3364330507 -4351285.122517111 0 0 0 0 0 108904344.524685 377831.9041324721 377831.9041324721 -4159092.29619184 0 0 0 0 0 108815707.7789673 486623.145187117 486623.145187117 -3970539.136451114 0 0 0 0 0 108735016.635692 526064.1769028169 526064.1769028169 -3892372.529923538 0 0 0 0 0 115045246.0733901 -9882963.690992158 -9882963.690992158 -14173262.96380177 0 0 0 0 0 -4862566.356109416 14902520.5569685 14902520.5569685 -58514115.8513734 0 0 0 0 0 465287.1592410927 6528806.759337203 6528806.759337203 -47499788.96728843 0 0 0 0 0 5621081.571971343 -2091461.731091143 -2091461.731091143 -37267965.98884559 0 0 0 0 0 9887105.341554547 -7166157.560627286 -7166157.560627286 -30173649.40145263 0 0 0 0 0 15884696.06325251 -12338195.25030652 -12338195.25030652 -25207966.58421473 0 0 0 0 0 22107927.43990691 -17064142.82756134 -17064142.82756134 -21606541.65780431 0 0 0 0 0 33053389.73344419 -24632502.13746733 -24632502.13746733 -19657205.77648199 0 0 0 0 0 24181677.33799102 -17130503.72898548 -17130503.72898548 -24775667.93859099 0 0 0 0 0 39843231.91180814 -27330167.50969023 -27330167.50969023 -18238878.11545106 0 0 0 0 0 46658620.90302771 -29460417.53501093 -29460417.53501093 -17410868.33575295 0 0 0 0 0 53270714.75996324 -31055913.76400836 -31055913.76400836 -17033015.31638002 0 0 0 0 0 59696449.94700528 -32099295.96716198 -32099295.96716198 -16935640.62531508 0 0 0 0 0 65850357.37612839 -32661970.56935382 -32661970.56935382 -17033574.60419972 0 0 0 0 0 71681196.15058693 -32797556.12111243 -32797556.12111243 -17242809.68494016 0 0 0 0 0 77161885.90246002 -32563427.31352954 -32563427.31352954 -17509883.5142424 0 0 0 0 0 82256900.04690246 -32017142.83874815 -32017142.83874815 -17781690.76165436 0 0 0 0 0 86667754.33737653 -30889624.66039358 -30889624.66039358 -18227165.4302923 0 0 0 0 0 87398367.7488382 -30944929.99383116 -30944929.99383116 -18660151.25277861 0 0 0 0 0 91407248.76972763 -29907250.85137093 -29907250.85137093 -18795162.81625146 0 0 0 0 0 95054229.80718221 -28733187.87567597 -28733187.87567597 -18877723.05896849 0 0 0 0 0 98349851.55982366 -27460132.35160179 -27460132.35160179 -18900532.54643807 0 0 0 0 0 100854153.8449277 -25882768.75143999 -25882768.75143999 -19076252.51238248 0 0 0 0 0 101624465.6756129 -26505657.49645485 -26505657.49645485 -18762731.68165526 0 0 0 0 0 103363274.5195733 -24535616.0752328 -24535616.0752328 -18939643.39797567 0 0 0 0 0 105584599.4426476 -23178979.55887236 -23178979.55887236 -18760741.84542723 0 0 0 0 0 107562401.5901375 -21814223.00289173 -21814223.00289173 -18529096.32183988 0 0 0 0 0 109324866.8353583 -20460050.52402303 -20460050.52402303 -18258103.70904097 0 0 0 0 0 110882141.2376909 -19119534.86009057 -19119534.86009057 -17922533.86114392 0 0 0 0 0 112215006.1971499 -17822145.27532313 -17822145.27532313 -17554479.29997701 0 0 0 0 0 113871374.4756751 -17298552.06443441 -17298552.06443441 -17366394.51260985 0 0 0 0 0 112455102.1901939 -16621686.44832127 -16621686.44832127 -17223054.21354154 0 0 0 0 0 113430009.4760429 -15442311.50114225 -15442311.50114225 -16808844.43264952 0 0 0 0 0 114257942.2669246 -14318725.46516684 -14318725.46516684 -16371485.31163796 0 0 0 0 0 114950083.4829599 -13244502.67866133 -13244502.67866133 -15926281.06972619 0 0 0 0 0 115518700.9401246 -12220334.14813161 -12220334.14813161 -15474045.10500932 0 0 0 0 0 115988761.1529756 -11241958.99357204 -11241958.99357204 -15013954.52522117 0 0 0 0 0 116798930.6690736 -11001832.48728925 -11001832.48728925 -14965110.44841154 0 0 0 0 0 115523669.5435029 -10530191.40531041 -10530191.40531041 -14606672.15067731 0 0 0 0 0 115848477.0434085 -9660981.103419736 -9660981.103419736 -14141163.50731915 0 0 0 0 0 115677245.2794026 -9687293.87901045 -9687293.87901045 -14102341.72567768 0 0 0 0 0 115867765.9432438 -8912672.370338835 -8912672.370338835 -13680980.42023575 0 0 0 0 0 115273629.5674915 -8399333.530906463 -8399333.530906463 -13247856.8728118 0 0 0 0 0 114779879.9150309 -8550470.899851516 -8550470.899851516 -13299355.77978814 0 0 0 0 0 115379250.1069256 -7716539.881530737 -7716539.881530737 -12843061.5451262 0 0 0 0 0 115441677.8039017 -7069119.889313138 -7069119.889313138 -12437607.64393232 0 0 0 0 0 115464584.553222 -6456875.223717963 -6456875.223717963 -12036539.85115345 0 0 0 0 0 115453910.2290675 -5877783.771695523 -5877783.771695523 -11638100.31003655 0 0 0 0 0 114814399.0510545 -5579612.851643754 -5579612.851643754 -11275384.70526144 0 0 0 0 0 114573336.5167864 -5638132.683053195 -5638132.683053195 -11240391.18547326 0 0 0 0 0 114764767.1359784 -5071940.776005863 -5071940.776005863 -10901590.65498945 0 0 0 0 0 114691138.3587707 -4593375.263601666 -4593375.263601666 -10533716.97887722 0 0 0 0 0 114594846.4447287 -4143429.493771125 -4143429.493771125 -10174135.5746632 0 0 0 0 0 114482163.9721638 -3719175.556488219 -3719175.556488219 -9818514.106976733 0 0 0 0 0 114353196.6476367 -3319826.159136927 -3319826.159136927 -9471428.642050786 0 0 0 0 0 113689129.8311021 -3182661.12920994 -3182661.12920994 -9095049.677341562 0 0 0 0 0 113616534.3811054 -2839301.132961228 -2839301.132961228 -8876148.081666196 0 0 0 0 0 113576102.7033449 -2820643.470932032 -2820643.470932032 -8760331.47908989 0 0 0 0 0 113469708.8328121 -2507892.286373348 -2507892.286373348 -8561114.554135064 0 0 0 0 0 113313869.1058797 -2196498.017984144 -2196498.017984144 -8253927.169493357 0 0 0 0 0 113150688.9975723 -1903690.963706401 -1903690.963706401 -7954036.974965701 0 0 0 0 0 112980044.9860265 -1629349.304046748 -1629349.304046748 -7663346.760859683 0 0 0 0 0 112457301.7046295 -1598421.311886549 -1598421.311886549 -7466818.31904257 0 0 0 0 0 112482942.97521 -1556094.314617019 -1556094.314617019 -7331289.199290111 0 0 0 0 0 112292185.5812532 -1354053.504002973 -1354053.504002973 -7196651.111143424 0 0 0 0 0 112125378.172338 -1123983.076358918 -1123983.076358918 -6932937.384629363 0 0 0 0 0 111956380.9837291 -908413.925575769 -908413.925575769 -6677127.850022852 0 0 0 0 0 111777841.071989 -709831.119875449 -709831.119875449 -6431955.89077075 0 0 0 0 0 111603597.6974456 -522083.8661049276 -522083.8661049276 -6191196.940701514 0 0 0 0 0 111080157.2296105 -327763.2628640546 -327763.2628640546 -5679846.602953143 0 0 0 0 0 111422435.8883505 -347857.3725836106 -347857.3725836106 -5959220.073575522 0 0 0 0 0 110969534.398591 -405102.5175101387 -405102.5175101387 -5859291.01566345 0 0 0 0 0 110804657.2005574 -246863.5106425407 -246863.5106425407 -5643679.430223686 0 0 0 0 0 110638256.6104039 -98247.38643345513 -98247.38643345513 -5435457.035447479 0 0 0 0 0 110469127.9180318 38246.85314221584 38246.85314221584 -5236892.986469889 0 0 0 0 0 110300944.2263061 166294.2747066083 166294.2747066083 -5042685.367218695 0 0 0 0 0 110136154.5466627 287685.0482798918 287685.0482798918 -4852429.172750329 0 0 0 0 0 109869558.8272076 295078.0776657177 295078.0776657177 -4619509.658786593 0 0 0 0 0 109774905.3787466 229440.1717158453 229440.1717158453 -4770957.945513414 0 0 0 0 0 109619860.7192791 340330.8405496766 340330.8405496766 -4593918.379828792 0 0 0 0 0 109465679.4935349 444452.7439756458 444452.7439756458 -4421785.713658998 0 0 0 0 0 109320333.7310467 541266.5726795441 541266.5726795441 -4255584.645292481 0 0 0 0 0 109082923.8431854 541319.2535684922 541319.2535684922 -4053198.910084223 0 0 0 0 0 108986961.9018137 475945.887897446 475945.887897446 -4201014.823121874 0 0 0 0 0 108822983.4174004 560366.5058889018 560366.5058889018 -4029539.970728987 0 0 0 0 0 108619900.6398958 579305.3582569965 579305.3582569965 -3979225.53413089 0 0 0 0 0 116474350.282017 -9476913.639974933 -9476913.639974933 -14109352.33059713 0 0 0 0 0 -3179004.762707808 11474586.65885239 11474586.65885239 -43716210.2181064 0 0 0 0 0 -52833.04227729932 4400091.432341025 4400091.432341025 -38998561.39981961 0 0 0 0 0 5825709.376426024 -1895177.524379101 -1895177.524379101 -35306107.92549596 0 0 0 0 0 11715735.48395618 -7611010.380755243 -7611010.380755243 -29048814.74447864 0 0 0 0 0 17268963.67377758 -12451576.64944744 -12451576.64944744 -24522269.83775983 0 0 0 0 0 32217947.96464833 -21406435.6971917 -21406435.6971917 -22049308.40904052 0 0 0 0 0 28166480.62343558 -21360386.11879515 -21360386.11879515 -18577348.56320778 0 0 0 0 0 39886201.39378513 -24685230.79184074 -24685230.79184074 -20026119.39685592 0 0 0 0 0 47363838.53801461 -27218175.22529412 -27218175.22529412 -18753245.83006265 0 0 0 0 0 54843161.00158569 -29170086.70995902 -29170086.70995902 -17941383.09641169 0 0 0 0 0 61910527.12503299 -30493907.36250819 -30493907.36250819 -17499127.06992332 0 0 0 0 0 68618595.3272336 -31284159.53215002 -31284159.53215002 -17303119.62367599 0 0 0 0 0 74889755.0697986 -31604470.82042798 -31604470.82042798 -17285627.71138448 0 0 0 0 0 80669218.06781211 -31509195.11522389 -31509195.11522389 -17372845.70210174 0 0 0 0 0 85978541.60570525 -31072703.64355307 -31072703.64355307 -17520522.79375749 0 0 0 0 0 86956686.44319391 -31210893.6283747 -31210893.6283747 -18030798.46000619 0 0 0 0 0 91149795.81610352 -30102194.25711211 -30102194.25711211 -18333766.4673016 0 0 0 0 0 95192669.15206277 -29124907.9192734 -29124907.9192734 -18422073.44178656 0 0 0 0 0 98821089.34787485 -27997097.41303139 -27997097.41303139 -18476861.05843816 0 0 0 0 0 102062822.2519234 -26762339.23889945 -26762339.23889945 -18487123.58270662 0 0 0 0 0 104334250.7284324 -25223549.46980808 -25223549.46980808 -18694094.87303321 0 0 0 0 0 101312652.66075 -26116754.31631935 -26116754.31631935 -18857134.30662381 0 0 0 0 0 106713906.6514096 -23906240.82750872 -23906240.82750872 -18583171.07842193 0 0 0 0 0 108812370.0223791 -22571367.11199861 -22571367.11199861 -18415370.77434862 0 0 0 0 0 110654822.3638488 -21227512.30172295 -21227512.30172295 -18197043.83386254 0 0 0 0 0 112280031.9380041 -19875620.26250656 -19875620.26250656 -17922143.3168238 0 0 0 0 0 113666580.6115051 -18555439.84477106 -18555439.84477106 -17631503.39016883 0 0 0 0 0 114830704.2955969 -17279743.60453399 -17279743.60453399 -17305235.89646974 0 0 0 0 0 113356754.9895263 -16571106.18382216 -16571106.18382216 -17167843.48209499 0 0 0 0 0 114857696.1840141 -16096067.14778852 -16096067.14778852 -17001140.50978933 0 0 0 0 0 115685587.9379785 -14934918.8686015 -14934918.8686015 -16615883.60852924 0 0 0 0 0 116351468.4914184 -13832293.89527927 -13832293.89527927 -16218582.23198577 0 0 0 0 0 116900196.2847968 -12776354.15645153 -12776354.15645153 -15802017.48525481 0 0 0 0 0 117343056.6260108 -11763578.24776292 -11763578.24776292 -15363566.2694806 0 0 0 0 0 117695437.9416376 -10793472.94307827 -10793472.94307827 -14910015.78497677 0 0 0 0 0 116376551.1439882 -10306352.48584422 -10306352.48584422 -14540575.01176962 0 0 0 0 0 117086941.0057 -10100879.72948148 -10100879.72948148 -14520303.16909691 0 0 0 0 0 117299933.4077244 -9246380.740272537 -9246380.740272537 -14072798.86049197 0 0 0 0 0 115313848.2849166 -9078622.671239208 -9078622.671239208 -13723467.54043244 0 0 0 0 0 115517529.4878312 -8317790.26450557 -8317790.26450557 -13275091.96754527 0 0 0 0 0 114948655.362941 -7843108.628796252 -7843108.628796252 -12867149.80776014 0 0 0 0 0 116000751.359695 -8178841.623204398 -8178841.623204398 -13260556.53958052 0 0 0 0 0 115067563.1659301 -7174324.825871584 -7174324.825871584 -12439057.36154123 0 0 0 0 0 115143449.4714662 -6541486.494005896 -6541486.494005896 -12014996.91466586 0 0 0 0 0 115180357.6888558 -5943862.424009044 -5943862.424009044 -11596309.16217414 0 0 0 0 0 115182627.537949 -5379763.67845166 -5379763.67845166 -11182576.6484906 0 0 0 0 0 114564832.316769 -5113824.801460328 -5113824.801460328 -10846742.84920162 0 0 0 0 0 115408576.0793646 -5333142.351543953 -5333142.351543953 -11247178.17073082 0 0 0 0 0 114528330.9198758 -4620204.359891454 -4620204.359891454 -10460897.71376626 0 0 0 0 0 114467349.1721493 -4155651.562281457 -4155651.562281457 -10083042.92609481 0 0 0 0 0 114385167.8647889 -3719096.789389229 -3719096.789389229 -9712748.365054926 0 0 0 0 0 114282163.923123 -3309336.237314008 -3309336.237314008 -9353609.662117828 0 0 0 0 0 114164701.06834 -2923557.613221787 -2923557.613221787 -9001712.588568237 0 0 0 0 0 114210385.730072 -2944450.256114922 -2944450.256114922 -9132218.956786579 0 0 0 0 0 113449883.4733432 -2480635.071376634 -2480635.071376634 -8434238.191111974 0 0 0 0 0 114055612.5660224 -2591951.21543081 -2591951.21543081 -8801035.678365031 0 0 0 0 0 113312501.8429297 -2161579.475705803 -2161579.475705803 -8117435.204093915 0 0 0 0 0 113165637.236239 -1862130.362009885 -1862130.362009885 -7809557.150818168 0 0 0 0 0 113010678.0478857 -1581100.954688513 -1581100.954688513 -7510202.396858518 0 0 0 0 0 112848781.1986228 -1317899.041700789 -1317899.041700789 -7220007.984545202 0 0 0 0 0 112330347.9276389 -1306603.562645445 -1306603.562645445 -7054590.952726813 0 0 0 0 0 112804927.7709332 -1371349.332009652 -1371349.332009652 -7379345.180307141 0 0 0 0 0 112172673.5510028 -1073087.725830142 -1073087.725830142 -6786189.251862263 0 0 0 0 0 112010117.8255932 -854564.356276257 -854564.356276257 -6525841.473345976 0 0 0 0 0 111841559.5733178 -650722.0844760813 -650722.0844760813 -6274941.355626109 0 0 0 0 0 111672506.1131315 -461452.9485149372 -461452.9485149372 -6034298.28933436 0 0 0 0 0 111497165.3747923 -284373.2946588245 -284373.2946588245 -5800968.256414655 0 0 0 0 0 111211473.1647176 -204348.6308085684 -204348.6308085684 -5769156.998559685 0 0 0 0 0 111323874.1229783 -117443.5767893068 -117443.5767893068 -5569085.841980162 0 0 0 0 0 110890228.8102731 -181900.0645535553 -181900.0645535553 -5485232.506443722 0 0 0 0 0 110729566.5362874 -31223.42058096713 -31223.42058096713 -5274892.016984981 0 0 0 0 0 110567380.3022315 108974.9370574619 108974.9370574619 -5070658.734471502 0 0 0 0 0 110403420.9759313 238484.5852234106 238484.5852234106 -4875223.853459364 0 0 0 0 0 110240453.5616892 360151.0939382071 360151.0939382071 -4685693.23952234 0 0 0 0 0 110076376.5400416 474329.7916640611 474329.7916640611 -4502849.294511376 0 0 0 0 0 109972030.6311686 402435.9742802718 402435.9742802718 -4667970.79175121 0 0 0 0 0 109717400.3635743 406956.6852675084 406956.6852675084 -4441826.202507094 0 0 0 0 0 109565858.318501 511811.4138221419 511811.4138221419 -4269747.810117025 0 0 0 0 0 109416889.7624472 607834.8845512664 607834.8845512664 -4101142.100645724 0 0 0 0 0 109260829.7618457 696069.285349298 696069.285349298 -3946549.492853455 0 0 0 0 0 109180700.6075613 636956.4105769438 636956.4105769438 -4086755.888924301 0 0 0 0 0 108958871.5597144 636241.7765658647 636241.7765658647 -3884294.373993901 0 0 0 0 0 108867587.7686947 727624.3210107511 727624.3210107511 -3722004.791368214 0 0 0 0 0 116100193.2861011 -8837999.787490049 -8837999.787490049 -13672162.4704278 0 0 0 0 0 -4389564.622160025 13540692.58195859 13540692.58195859 -48388031.6620457 0 0 0 0 0 2151530.98977527 3830991.060212271 3830991.060212271 -39943255.97950482 0 0 0 0 0 10746801.25442564 -6571752.519698278 -6571752.519698278 -24799777.01991153 0 0 0 0 0 2453642.731722831 724614.0627535053 724614.0627535053 -30552001.11200873 0 0 0 0 0 16915228.7479138 -11796539.21541905 -11796539.21541905 -21601470.02453983 0 0 0 0 0 22656314.55165843 -15350044.17830979 -15350044.17830979 -21316968.91113364 0 0 0 0 0 35879323.87972807 -24956745.98193059 -24956745.98193059 -16904673.39580948 0 0 0 0 0 28254384.69878369 -18937118.80220281 -18937118.80220281 -21269000.19943472 0 0 0 0 0 43032031.40200965 -27716252.99227987 -27716252.99227987 -16020948.39578913 0 0 0 0 0 50131863.09659018 -29891487.22239221 -29891487.22239221 -15603989.65669496 0 0 0 0 0 57034690.91497804 -31364207.70687223 -31364207.70687223 -15506936.69899189 0 0 0 0 0 63661655.63982163 -32262416.48919031 -32262416.48919031 -15675735.52345538 0 0 0 0 0 69951942.39545496 -32653308.42567942 -32653308.42567942 -15977241.35163487 0 0 0 0 0 75844111.85759695 -32599437.51399451 -32599437.51399451 -16346495.92268961 0 0 0 0 0 81321705.82108444 -32183192.83128999 -32183192.83128999 -16739060.23546752 0 0 0 0 0 86364216.79706219 -31456424.25088245 -31456424.25088245 -17097929.08880319 0 0 0 0 0 90793263.79133494 -30348808.02794562 -30348808.02794562 -17686112.52211554 0 0 0 0 0 91242055.95716599 -30194299.73691904 -30194299.73691904 -18233503.15025419 0 0 0 0 0 95124530.4758092 -29022830.4002999 -29022830.4002999 -18381827.90347677 0 0 0 0 0 98621840.4647484 -27732032.21611509 -27732032.21611509 -18465419.47358567 0 0 0 0 0 101757462.6155943 -26355214.18530279 -26355214.18530279 -18473543.11414506 0 0 0 0 0 103953952.0295751 -24731990.41585819 -24731990.41585819 -18749094.26360021 0 0 0 0 0 104924146.9299879 -25450067.41825848 -25450067.41825848 -18449493.45612603 0 0 0 0 0 106283329.8257684 -23328604.45778633 -23328604.45778633 -18588060.67014759 0 0 0 0 0 108336693.038196 -21918607.10577922 -21918607.10577922 -18367540.50044911 0 0 0 0 0 110139435.7571521 -20527563.55032072 -20527563.55032072 -18109128.09816223 0 0 0 0 0 111727987.6344429 -19156250.55994067 -19156250.55994067 -17802175.91375222 0 0 0 0 0 113124167.3694838 -17798828.21265562 -17798828.21265562 -17426394.20496669 0 0 0 0 0 114295321.6750812 -16495743.81739187 -16495743.81739187 -17027264.51273946 0 0 0 0 0 115819118.3807825 -16042376.68146587 -16042376.68146587 -16936033.589505 0 0 0 0 0 114333934.7316381 -15358962.20690929 -15358962.20690929 -16748722.21760776 0 0 0 0 0 115172136.6559577 -14194949.34699013 -14194949.34699013 -16306910.09663079 0 0 0 0 0 115864929.7842575 -13076053.94589649 -13076053.94589649 -15842305.77705774 0 0 0 0 0 116430619.9553904 -12022519.77803876 -12022519.77803876 -15378949.95298387 0 0 0 0 0 116891771.9858096 -11018417.90887043 -11018417.90887043 -14906220.56996504 0 0 0 0 0 117262602.2422184 -10059359.97475911 -10059359.97475911 -14419095.62008373 0 0 0 0 0 117963690.9903749 -9869243.148861701 -9869243.148861701 -14450777.69629225 0 0 0 0 0 116683525.0475732 -9416801.545282843 -9416801.545282843 -14059889.82591957 0 0 0 0 0 116913994.8879828 -8576307.081552006 -8576307.081552006 -13578597.52433615 0 0 0 0 0 116640862.3823519 -8687283.929484785 -8687283.929484785 -13674647.15020756 0 0 0 0 0 116749889.4796338 -7939192.990089273 -7939192.990089273 -13237649.14246723 0 0 0 0 0 116081948.654716 -7484653.429366259 -7484653.429366259 -12840671.36277906 0 0 0 0 0 115666807.1757495 -7597562.824154276 -7597562.824154276 -12827902.31578553 0 0 0 0 0 116120070.5406364 -6827556.68679232 -6827556.68679232 -12421823.24148903 0 0 0 0 0 116119183.6384804 -6207195.946806531 -6207195.946806531 -12006258.22030729 0 0 0 0 0 116084513.2642641 -5621426.954377423 -5621426.954377423 -11595225.46297703 0 0 0 0 0 116018290.1646315 -5069807.599247877 -5069807.599247877 -11190255.9742571 0 0 0 0 0 115336599.9210301 -4820288.911870584 -4820288.911870584 -10861631.90219832 0 0 0 0 0 115154476.6708183 -4849195.816536516 -4849195.816536516 -10775833.09765504 0 0 0 0 0 115240952.569731 -4337850.069532041 -4337850.069532041 -10482358.77671829 0 0 0 0 0 115124642.9391232 -3884262.98665567 -3884262.98665567 -10110282.36045468 0 0 0 0 0 114989033.9217095 -3458982.474315872 -3458982.474315872 -9747685.484399283 0 0 0 0 0 114839606.3939664 -3058766.707392638 -3058766.707392638 -9390253.60928306 0 0 0 0 0 114676492.252119 -2683304.338439001 -2683304.338439001 -9042553.888720768 0 0 0 0 0 114032656.6786013 -2561764.745408953 -2561764.745408953 -8659243.371437287 0 0 0 0 0 113890403.3862831 -2261314.565246759 -2261314.565246759 -8478451.076961726 0 0 0 0 0 113888262.5142719 -2222552.709496496 -2222552.709496496 -8326103.173028977 0 0 0 0 0 113716805.1456076 -1951159.659815841 -1951159.659815841 -8164104.83829343 0 0 0 0 0 113536286.9458277 -1660243.788484108 -1660243.788484108 -7858100.4578539 0 0 0 0 0 113349663.1896651 -1387693.712313947 -1387693.712313947 -7560589.089985056 0 0 0 0 0 113158210.4239826 -1132489.539076314 -1132489.539076314 -7272010.865934317 0 0 0 0 0 112625272.8585993 -1129463.270219083 -1129463.270219083 -7103888.556779776 0 0 0 0 0 112680967.0664037 -1071111.391026047 -1071111.391026047 -6938601.164661213 0 0 0 0 0 112441074.6220876 -903088.7270543822 -903088.7270543822 -6836692.839699825 0 0 0 0 0 112255819.5307931 -692802.68205324 -692802.68205324 -6579189.752905839 0 0 0 0 0 112064942.6897246 -498832.9440683721 -498832.9440683721 -6330935.994975147 0 0 0 0 0 111874570.3211109 -316683.8157944819 -316683.8157944819 -6089852.306968004 0 0 0 0 0 111685831.206521 -146181.0430670606 -146181.0430670606 -5854322.184018752 0 0 0 0 0 111163220.4310521 27339.12623702168 27339.12623702168 -5356254.847511566 0 0 0 0 0 111494440.3939847 13614.3823708656 13614.3823708656 -5627515.033940283 0 0 0 0 0 111047684.6162078 -51206.64531126987 -51206.64531126987 -5534999.055026777 0 0 0 0 0 110872255.3670832 94978.19636025009 94978.19636025009 -5327054.427271049 0 0 0 0 0 110693495.2439099 228412.2510045064 228412.2510045064 -5125330.366599041 0 0 0 0 0 110516877.3822489 353520.3990174203 353520.3990174203 -4929405.888161469 0 0 0 0 0 110340465.1742342 470084.7257718864 470084.7257718864 -4739417.984807351 0 0 0 0 0 110168508.3884998 580702.4420358937 580702.4420358937 -4553024.976330494 0 0 0 0 0 109915730.7009658 582805.3037601901 582805.3037601901 -4324879.227301988 0 0 0 0 0 109808796.9163914 510146.3939209298 510146.3939209298 -4490115.128855243 0 0 0 0 0 109647895.7041565 611071.2377668686 611071.2377668686 -4317640.23523998 0 0 0 0 0 109488189.6274069 703992.3026030504 703992.3026030504 -4154270.745262975 0 0 0 0 0 109320004.4442331 782481.2768120434 782481.2768120434 -3997639.41080248 0 0 0 0 0 109091003.9735497 774362.608404636 774362.608404636 -3826372.78606138 0 0 0 0 0 109059857.6856941 750397.1593920576 750397.1593920576 -3906243.665386738 0 0 0 0 0 108755550.6005572 771577.7137952751 771577.7137952751 -3791370.230816532 0 0 0 0 0 117439840.44411 -8440907.723363165 -8440907.723363165 -13626801.64048409 0 0 0 0 0 -2969418.237057075 9975836.05896683 9975836.05896683 -34745010.61698201 0 0 0 0 0 4033176.285779654 -758918.7541405968 -758918.7541405968 -29509094.12775774 0 0 0 0 0 5423823.887359253 140486.9883427348 140486.9883427348 -31357939.78258714 0 0 0 0 0 12170706.37862944 -7304304.163758868 -7304304.163758868 -26023113.09195001 0 0 0 0 0 22569988.30701383 -16900315.98113722 -16900315.98113722 -17827003.85656815 0 0 0 0 0 16078518.9308459 -11202420.82843478 -11202420.82843478 -18152573.95945263 0 0 0 0 0 35172541.02051797 -22173912.40851312 -22173912.40851312 -18840477.99766118 0 0 0 0 0 31587917.62106494 -22450232.68302448 -22450232.68302448 -14934320.2278695 0 0 0 0 0 43084080.30412548 -25281266.19208421 -25281266.19208421 -17640028.70512935 0 0 0 0 0 51174791.6107612 -27828232.35041242 -27828232.35041242 -16743203.49672426 0 0 0 0 0 58897405.28200553 -29625616.33093499 -29625616.33093499 -16260950.52603207 0 0 0 0 0 66192510.42744709 -30790022.80676746 -30790022.80676746 -16059397.564446 0 0 0 0 0 73054377.39199904 -31406992.30284796 -31406992.30284796 -16074502.15031722 0 0 0 0 0 79353892.14987095 -31524325.74189999 -31524325.74189999 -16237379.76317738 0 0 0 0 0 85111553.92247859 -31234208.80905474 -31234208.80905474 -16464771.69703658 0 0 0 0 0 90315157.24890378 -30600900.34130623 -30600900.34130623 -16718099.12449666 0 0 0 0 0 90955488.58167315 -30478701.9351808 -30478701.9351808 -17403970.17034839 0 0 0 0 0 95135854.18161665 -29405492.93120144 -29405492.93120144 -17837822.26608673 0 0 0 0 0 99013569.43710612 -28285037.04363868 -28285037.04363868 -17954758.3934713 0 0 0 0 0 102465599.6562264 -27035541.80398616 -27035541.80398616 -18017335.75568489 0 0 0 0 0 105507933.8864611 -25691913.7261554 -25691913.7261554 -18028774.88837733 0 0 0 0 0 107432629.3636209 -24094581.86579926 -24094581.86579926 -18363532.71320791 0 0 0 0 0 104541494.2423247 -24931465.64232226 -24931465.64232226 -18408592.56180566 0 0 0 0 0 109633471.0233002 -22715913.92852997 -22715913.92852997 -18217617.50712945 0 0 0 0 0 111537693.7973747 -21333127.41616563 -21333127.41616563 -18027853.1648654 0 0 0 0 0 113190676.9591821 -19949317.65051157 -19949317.65051157 -17775405.16196176 0 0 0 0 0 114623893.3244323 -18579506.10819921 -18579506.10819921 -17467777.7079097 0 0 0 0 0 115830225.1423317 -17252058.20356317 -17252058.20356317 -17145503.40010405 0 0 0 0 0 116832388.6794308 -15971947.76051643 -15971947.76051643 -16789094.22157836 0 0 0 0 0 115284773.7233452 -15242403.82849141 -15242403.82849141 -16607673.53998279 0 0 0 0 0 116648682.1252482 -14850330.81213708 -14850330.81213708 -16541641.00474046 0 0 0 0 0 117330509.342641 -13702716.01650784 -13702716.01650784 -16128190.16049201 0 0 0 0 0 117868007.5933602 -12607626.57356588 -12607626.57356588 -15707709.15276557 0 0 0 0 0 118292734.377919 -11562061.18325924 -11562061.18325924 -15260621.34111003 0 0 0 0 0 118627944.1435612 -10564328.17095849 -10564328.17095849 -14795805.20846495 0 0 0 0 0 118872074.30088 -9618497.091381561 -9618497.091381561 -14326170.22452517 0 0 0 0 0 117547860.375946 -9150158.84487523 -9150158.84487523 -13926516.08199949 0 0 0 0 0 118152013.3857672 -8996019.247474536 -8996019.247474536 -13989705.34379422 0 0 0 0 0 118269444.7067375 -8172934.034096259 -8172934.034096259 -13528380.16164562 0 0 0 0 0 116282526.5275032 -8063521.134540655 -8063521.134540655 -13211196.70410599 0 0 0 0 0 116408881.0905984 -7330660.174465777 -7330660.174465777 -12749772.45785586 0 0 0 0 0 115765128.1361963 -6917309.333896159 -6917309.333896159 -12384809.85879716 0 0 0 0 0 116808017.0491488 -7232325.892449347 -7232325.892449347 -12803066.01702866 0 0 0 0 0 115817799.6100755 -6276283.216445681 -6276283.216445681 -11947099.81947635 0 0 0 0 0 115830950.1074142 -5672202.591514856 -5672202.591514856 -11516997.42668245 0 0 0 0 0 115810011.6107074 -5102876.423919449 -5102876.423919449 -11092672.97680432 0 0 0 0 0 115757601.0396607 -4567700.417123518 -4567700.417123518 -10675459.53159605 0 0 0 0 0 115096901.2165336 -4351422.654335171 -4351422.654335171 -10378523.04153633 0 0 0 0 0 115922669.6486902 -4551820.377211954 -4551820.377211954 -10793207.89710553 0 0 0 0 0 115014640.2449934 -3884148.262136455 -3884148.262136455 -9990444.949844314 0 0 0 0 0 114911135.9656279 -3445650.680561721 -3445650.680561721 -9611622.004813081 0 0 0 0 0 114789336.0410158 -3034655.213405126 -3034655.213405126 -9242116.523975242 0 0 0 0 0 114650132.6671997 -2649552.075495829 -2649552.075495829 -8883159.455973754 0 0 0 0 0 114498139.7223973 -2288661.054933097 -2288661.054933097 -8533560.810392024 0 0 0 0 0 114502097.3311162 -2331419.295993172 -2331419.295993172 -8703457.835673535 0 0 0 0 0 113733187.242738 -1904799.03914952 -1904799.03914952 -8002406.901843874 0 0 0 0 0 114318027.7885179 -2001816.120469338 -2001816.120469338 -8373316.679573195 0 0 0 0 0 113568842.9374765 -1607330.848412769 -1607330.848412769 -7688567.573898351 0 0 0 0 0 113396998.7170151 -1328818.31166146 -1328818.31166146 -7384008.648952515 0 0 0 0 0 113218750.6730945 -1068224.797489517 -1068224.797489517 -7088884.17880176 0 0 0 0 0 113035407.717124 -824769.1438444328 -824769.1438444328 -6803102.386297041 0 0 0 0 0 112508507.8427016 -840095.257699775 -840095.257699775 -6666165.000181702 0 0 0 0 0 112963051.1862985 -893752.0426259248 -893752.0426259248 -6991683.959026524 0 0 0 0 0 112334117.3133297 -624901.972267205 -624901.972267205 -6401070.953406948 0 0 0 0 0 112155070.3630092 -424113.5552540923 -424113.5552540923 -6145441.20437816 0 0 0 0 0 111967503.8722686 -241719.2307517478 -241719.2307517478 -5904429.493341394 0 0 0 0 0 111780527.8937033 -71007.31683252956 -71007.31683252956 -5672265.403940336 0 0 0 0 0 111589504.3250848 88384.82329614063 88384.82329614063 -5445364.322446453 0 0 0 0 0 111294823.5377249 158216.3337389764 158216.3337389764 -5423048.525987509 0 0 0 0 0 111397420.2574291 237107.6261829206 237107.6261829206 -5225656.907108348 0 0 0 0 0 110977019.982393 170136.8898271704 170136.8898271704 -5149263.016390729 0 0 0 0 0 110803138.9804355 306195.5639088847 306195.5639088847 -4944561.187993394 0 0 0 0 0 110629656.2666195 432381.6565128105 432381.6565128105 -4747842.672265363 0 0 0 0 0 110455997.8906138 549938.9358847612 549938.9358847612 -4556851.338278143 0 0 0 0 0 110284422.8117908 659773.8778035804 659773.8778035804 -4372667.178059326 0 0 0 0 0 110114113.6791843 763540.2600139161 763540.2600139161 -4193418.650142322 0 0 0 0 0 109997141.4118834 684054.9177911922 684054.9177911922 -4374212.789708286 0 0 0 0 0 109756021.1354917 683894.1365301932 683894.1365301932 -4153073.655612099 0 0 0 0 0 109598749.1945077 777056.3082942175 777056.3082942175 -3990017.412530792 0 0 0 0 0 109447579.8497855 867647.9769981399 867647.9769981399 -3818645.261097381 0 0 0 0 0 109278632.2732064 923039.9849158975 923039.9849158975 -3705488.608698316 0 0 0 0 0 109211487.2990981 868863.4129869769 868863.4129869769 -3832011.474282539 0 0 0 0 0 108927310.9001513 852750.9508117798 852750.9508117798 -3690172.89513253 0 0 0 0 0 109018015.923589 926153.6487889645 926153.6487889645 -3557292.368737506 0 0 0 0 0 117075980.6464818 -7784842.159369703 -7784842.159369703 -13099157.14228852 0 0 0 0 0 -2527186.377155569 11217765.18686165 11217765.18686165 -38755305.80663606 0 0 0 0 0 10124348.23722869 -5575101.05281261 -5575101.05281261 -20167660.93365224 0 0 0 0 0 -2181710.777971077 7634398.989292829 7634398.989292829 -27505498.43086619 0 0 0 0 0 27758719.77879514 -18490651.54236851 -18490651.54236851 -16689749.68176573 0 0 0 0 0 17711824.47828786 -10563695.87046256 -10563695.87046256 -19544449.99475502 0 0 0 0 0 38828035.98382235 -25564928.27390928 -25564928.27390928 -13961652.61439403 0 0 0 0 0 27793460.53758622 -18388331.46357724 -18388331.46357724 -17402627.88893291 0 0 0 0 0 46324485.55451097 -28381423.63865748 -28381423.63865748 -13573249.14760886 0 0 0 0 0 53884895.10763355 -30392753.78769727 -30392753.78769727 -13481325.03650323 0 0 0 0 0 61029915.29436208 -31683260.45316441 -31683260.45316441 -13721527.49555922 0 0 0 0 0 67850830.47328521 -32396274.24803148 -32396274.24803148 -14178421.79228779 0 0 0 0 0 74250846.22963348 -32580104.46211294 -32580104.46211294 -14708952.46693688 0 0 0 0 0 80162489.9186935 -32312746.4313815 -32312746.4313815 -15273471.42295926 0 0 0 0 0 85601485.85101396 -31685912.97034778 -31685912.97034778 -15800227.877209 0 0 0 0 0 90537015.63328087 -30758240.46004725 -30758240.46004725 -16260256.96213829 0 0 0 0 0 94992694.2811514 -29710125.14467452 -29710125.14467452 -16962859.53368267 0 0 0 0 0 95111207.21549213 -29318179.89704824 -29318179.89704824 -17648868.54653891 0 0 0 0 0 98834616.92996871 -28009685.39084697 -28009685.39084697 -17814578.73376959 0 0 0 0 0 102162982.7161524 -26607289.14360822 -26607289.14360822 -17899584.54306976 0 0 0 0 0 105115149.8602498 -25141787.12461368 -25141787.12461368 -17899810.77352205 0 0 0 0 0 106986331.1213066 -23478199.36501128 -23478199.36501128 -18282128.5256363 0 0 0 0 0 108158800.7590169 -24296991.23641716 -24296991.23641716 -17986603.59693506 0 0 0 0 0 109141304.8465387 -22019704.09744096 -22019704.09744096 -18091896.77935406 0 0 0 0 0 111020482.3838372 -20576381.06260077 -20576381.06260077 -17842371.96236674 0 0 0 0 0 112651381.8783433 -19155658.13696666 -19155658.13696666 -17547875.20840266 0 0 0 0 0 114056127.881165 -17758896.38789122 -17758896.38789122 -17197289.07635282 0 0 0 0 0 115261271.421972 -16413271.79375537 -16413271.79375537 -16811999.60362496 0 0 0 0 0 116277571.3246933 -15116199.7889619 -15116199.7889619 -16384088.59204857 0 0 0 0 0 117653624.896638 -14739674.99388142 -14739674.99388142 -16401757.92463461 0 0 0 0 0 116111182.5274265 -14046638.04944881 -14046638.04944881 -16168916.12855479 0 0 0 0 0 116803694.7514535 -12900925.79295344 -12900925.79295344 -15708603.15048911 0 0 0 0 0 117378230.0877731 -11805549.5028369 -11805549.5028369 -15218375.45728245 0 0 0 0 0 117825438.1586014 -10773970.14802167 -10773970.14802167 -14733970.86845503 0 0 0 0 0 118177476.7899608 -9793021.412760144 -9793021.412760144 -14239904.74487089 0 0 0 0 0 118442542.1056462 -8862341.434296571 -8862341.434296571 -13736138.58593787 0 0 0 0 0 119034326.481736 -8725941.647891497 -8725941.647891497 -13853296.79685362 0 0 0 0 0 117756753.4038437 -8291967.494857844 -8291967.494857844 -13432635.49475207 0 0 0 0 0 117892133.9128215 -7487104.889011722 -7487104.889011722 -12944006.43939098 0 0 0 0 0 117523828.6667945 -7679049.537149422 -7679049.537149422 -13174955.15649145 0 0 0 0 0 117555561.5455947 -6960585.370998898 -6960585.370998898 -12727081.00983487 0 0 0 0 0 116820499.4529719 -6565650.455474919 -6565650.455474919 -12371323.72559489 0 0 0 0 0 116483307.3911265 -6640328.38225073 -6640328.38225073 -12293735.87563727 0 0 0 0 0 116792682.5246198 -5937932.157508257 -5937932.157508257 -11943550.47003081 0 0 0 0 0 116732230.6925284 -5346181.180050522 -5346181.180050522 -11519814.45658839 0 0 0 0 0 116641708.8719206 -4789513.041392292 -4789513.041392292 -11102951.72796994 0 0 0 0 0 116522731.3820757 -4266996.830809414 -4266996.830809414 -10693642.67705043 0 0 0 0 0 115803674.1701234 -4065895.400532745 -4065895.400532745 -10403395.12465953 0 0 0 0 0 115679032.6127082 -4065626.175095317 -4065626.175095317 -10266902.74420453 0 0 0 0 0 115664361.6601528 -3610132.666284572 -3610132.666284572 -10021281.49135336 0 0 0 0 0 115507616.3033807 -3182857.085018947 -3182857.085018947 -9647599.029341543 0 0 0 0 0 115335369.9387462 -2782943.688513386 -2782943.688513386 -9283821.453645468 0 0 0 0 0 115150932.7417905 -2408159.30810417 -2408159.30810417 -8927532.407629356 0 0 0 0 0 114955698.2038727 -2057485.800987447 -2057485.800987447 -8581249.2578562 0 0 0 0 0 114334275.8671164 -1950956.708255557 -1950956.708255557 -8194024.148536678 0 0 0 0 0 114125821.2494103 -1693456.184813702 -1693456.184813702 -8052485.346858051 0 0 0 0 0 114160393.2387769 -1635181.904834249 -1635181.904834249 -7864433.982207571 0 0 0 0 0 113927394.4963192 -1404887.778030633 -1404887.778030633 -7740452.098620445 0 0 0 0 0 113723631.406025 -1135021.077685951 -1135021.077685951 -7437530.682615912 0 0 0 0 0 113515603.7067072 -882902.8535267975 -882902.8535267975 -7143756.098567942 0 0 0 0 0 113304331.0712209 -647576.8159210049 -647576.8159210049 -6859150.407762761 0 0 0 0 0 112765076.4198174 -670315.0315763943 -670315.0315763943 -6719861.52807437 0 0 0 0 0 112847670.8614409 -597310.9179042507 -597310.9179042507 -6526826.876964966 0 0 0 0 0 112561865.9315983 -462372.3556039885 -462372.3556039885 -6457592.521948431 0 0 0 0 0 112361083.3772949 -273109.5222444077 -273109.5222444077 -6209686.689403843 0 0 0 0 0 112153969.1079935 -98169.25285513718 -98169.25285513718 -5965865.688347304 0 0 0 0 0 111948250.115003 65049.30895454888 65049.30895454888 -5732736.87970481 0 0 0 0 0 111748549.8958482 220811.4329431221 220811.4329431221 -5502055.865906777 0 0 0 0 0 111224254.094361 375552.3909859341 375552.3909859341 -5013400.549310826 0 0 0 0 0 111545695.8747823 366095.8062415913 366095.8062415913 -5281974.521561022 0 0 0 0 0 111108866.7324135 294411.639821996 294411.639821996 -5203967.802190164 0 0 0 0 0 110920651.7886824 424747.5159929618 424747.5159929618 -5000587.302416099 0 0 0 0 0 110732807.5412626 545827.8866805822 545827.8866805822 -4803254.160683271 0 0 0 0 0 110546691.5999243 658756.4115235986 658756.4115235986 -4611710.909857375 0 0 0 0 0 110364588.1708578 765125.887153871 765125.887153871 -4425427.122250559 0 0 0 0 0 110184713.59502 864068.9069774899 864068.9069774899 -4244865.760313815 0 0 0 0 0 109945844.6094684 860794.4357240091 860794.4357240091 -4020834.967024994 0 0 0 0 0 109825240.2375918 780187.1327935231 780187.1327935231 -4202002.087986554 0 0 0 0 0 109652203.2091806 865013.7198552792 865013.7198552792 -4039144.089251921 0 0 0 0 0 109441686.1004548 936257.3498054537 936257.3498054537 -3881553.620573652 0 0 0 0 0 109260680.8214989 984605.4229771357 984605.4229771357 -3777296.243177432 0 0 0 0 0 109105629.2123799 975746.3623147357 975746.3623147357 -3629782.405701659 0 0 0 0 0 109115527.4599117 982029.7204471534 982029.7204471534 -3636903.599071472 0 0 0 0 0 108879104.131929 974705.7072930014 974705.7072930014 -3615501.290646278 0 0 0 0 0 118322856.1024103 -7398870.788369784 -7398870.788369784 -13069755.29825781 0 0 0 0 0 6669787.94577798 -1680422.718331503 -1680422.718331503 -24814602.38880312 0 0 0 0 0 -1190717.497328721 7762615.767629156 7762615.767629156 -28574596.81355671 0 0 0 0 0 19614741.87121959 -13925113.5647022 -13925113.5647022 -13427467.68954255 0 0 0 0 0 10647004.72600901 -6659479.11480266 -6659479.11480266 -14147602.17110858 0 0 0 0 0 37367841.50840653 -22421439.77272176 -22421439.77272176 -16452565.89514184 0 0 0 0 0 33528341.03307243 -22595493.80723321 -22595493.80723321 -11026293.34265091 0 0 0 0 0 46772639.19531883 -25996183.41946673 -25996183.41946673 -15074688.37493961 0 0 0 0 0 55308868.14765212 -28488811.60517525 -28488811.60517525 -14419569.4137328 0 0 0 0 0 63315442.7781224 -30164498.45096501 -30164498.45096501 -14226442.98537791 0 0 0 0 0 70784215.59620735 -31125452.60071754 -31125452.60071754 -14321406.36931976 0 0 0 0 0 77701523.47606121 -31499600.55803546 -31499600.55803546 -14612777.56773313 0 0 0 0 0 84022005.22458528 -31393541.90528013 -31393541.90528013 -14982366.25144893 0 0 0 0 0 89677017.52920029 -30867342.54703499 -30867342.54703499 -15376365.9474568 0 0 0 0 0 94735877.18476275 -30029599.85082131 -30029599.85082131 -15761347.73347742 0 0 0 0 0 94994922.26743197 -29617825.19456948 -29617825.19456948 -16640662.38478397 0 0 0 0 0 99154176.47233157 -28601275.49688603 -28601275.49688603 -17167703.83587676 0 0 0 0 0 102838289.9472712 -27339298.24274692 -27339298.24274692 -17316711.6834671 0 0 0 0 0 106073743.3933873 -25965842.91821298 -25965842.91821298 -17400410.04058164 0 0 0 0 0 108894276.9497077 -24523518.38350899 -24523518.38350899 -17413456.8855438 0 0 0 0 0 110469923.777145 -22871066.82311439 -22871066.82311439 -17877047.51457599 0 0 0 0 0 107697848.4425294 -23634114.36032628 -23634114.36032628 -17817668.71678869 0 0 0 0 0 112463953.8910036 -21432221.6447646 -21432221.6447646 -17710880.40963237 0 0 0 0 0 114175649.1111199 -20002864.66478229 -20002864.66478229 -17489488.72873569 0 0 0 0 0 115640189.5463056 -18589817.63864615 -18589817.63864615 -17209565.40881574 0 0 0 0 0 116866011.3508044 -17219602.78565345 -17219602.78565345 -16895504.38768605 0 0 0 0 0 117885310.5798099 -15882374.50293307 -15882374.50293307 -16539155.52884148 0 0 0 0 0 118716556.3550213 -14605549.9066395 -14605549.9066395 -16156280.91652042 0 0 0 0 0 117116910.5660954 -13880658.79020423 -13880658.79020423 -15939120.84988131 0 0 0 0 0 118323672.5570117 -13553960.08284533 -13553960.08284533 -15980816.73270113 0 0 0 0 0 118867166.6935815 -12416070.67379775 -12416070.67379775 -15534422.78604841 0 0 0 0 0 119279290.4924689 -11342143.92956676 -11342143.92956676 -15089193.31846004 0 0 0 0 0 119589559.0404607 -10319129.16989171 -10319129.16989171 -14619031.0859152 0 0 0 0 0 119811916.3259724 -9350389.11942929 -9350389.11942929 -14139123.07308366 0 0 0 0 0 119946840.2694553 -8438600.110393696 -8438600.110393696 -13658446.65737397 0 0 0 0 0 118625133.9483625 -7987878.433907368 -7987878.433907368 -13232325.04065463 0 0 0 0 0 119122672.128861 -7886803.965419993 -7886803.965419993 -13381776.46299276 0 0 0 0 0 119148447.4576334 -7098059.538181219 -7098059.538181219 -12909416.10511385 0 0 0 0 0 117174989.4519451 -7042570.843477609 -7042570.843477609 -12629897.18307242 0 0 0 0 0 117225511.3401172 -6341568.264983309 -6341568.264983309 -12160458.17058358 0 0 0 0 0 116512412.8599395 -5990801.769439781 -5990801.769439781 -11843759.61994844 0 0 0 0 0 117541084.1079564 -6284503.059041001 -6284503.059041001 -12282748.47969568 0 0 0 0 0 116500772.4588389 -5380541.96193485 -5380541.96193485 -11401130.9487597 0 0 0 0 0 116453796.5540974 -4807515.375094912 -4807515.375094912 -10967635.93771647 0 0 0 0 0 116376902.4916513 -4268601.340895289 -4268601.340895289 -10541185.71204013 0 0 0 0 0 116273605.1424232 -3763189.959327556 -3763189.959327556 -10123206.16241812 0 0 0 0 0 115574615.6926613 -3595915.232286551 -3595915.232286551 -9868743.542614602 0 0 0 0 0 116378980.9873298 -3777693.978320749 -3777693.978320749 -10293917.41676774 0 0 0 0 0 115448807.9295818 -3156350.975838553 -3156350.975838553 -9481164.691780288 0 0 0 0 0 115304813.7517285 -2744979.249945276 -2744979.249945276 -9103962.725733062 0 0 0 0 0 115145267.8187222 -2360696.311085329 -2360696.311085329 -8737508.691862402 0 0 0 0 0 114971934.1751619 -2001354.550952764 -2001354.550952764 -8381476.868241674 0 0 0 0 0 114787687.9602784 -1665881.210660901 -1665881.210660901 -8035997.950501832 0 0 0 0 0 114751781.6490507 -1729769.905151364 -1729769.905151364 -8244443.457837299 0 0 0 0 0 113978040.4748993 -1340212.427842374 -1340212.427842374 -7545006.178705216 0 0 0 0 0 114540367.9010671 -1423597.141627991 -1423597.141627991 -7917385.964064861 0 0 0 0 0 113788593.4778036 -1064685.184317189 -1064685.184317189 -7235693.557766502 0 0 0 0 0 113593364.2906876 -807518.5143968001 -807518.5143968001 -6936246.041094306 0 0 0 0 0 113393443.9820494 -567740.58079639 -567740.58079639 -6646683.656754062 0 0 0 0 0 113190111.0526299 -344297.6482112036 -344297.6482112036 -6366742.232025058 0 0 0 0 0 112656921.7705298 -384672.5439604493 -384672.5439604493 -6260154.107793297 0 0 0 0 0 113090874.3335844 -428098.0831783222 -428098.0831783222 -6583545.755848915 0 0 0 0 0 112467710.3940471 -188041.8930000475 -188041.8930000475 -5998483.737918178 0 0 0 0 0 112263162.8381024 -12642.49256169078 -12642.49256169078 -5755150.426430524 0 0 0 0 0 112064201.7116321 153293.8523929997 153293.8523929997 -5523368.776136783 0 0 0 0 0 111861887.2509985 305530.7802480062 305530.7802480062 -5298486.251578001 0 0 0 0 0 111662534.4469587 451766.4725615973 451766.4725615973 -5076873.435812543 0 0 0 0 0 111344441.0653149 501813.8960505901 501813.8960505901 -5072348.930419158 0 0 0 0 0 111466984.7856001 590160.9806926084 590160.9806926084 -4861734.698264698 0 0 0 0 0 111039031.0435695 508064.0251773476 508064.0251773476 -4806749.60585346 0 0 0 0 0 110854544.060126 630702.8723940582 630702.8723940582 -4607389.456328009 0 0 0 0 0 110671721.6433128 744720.5872288722 744720.5872288722 -4415818.6462303 0 0 0 0 0 110490723.7491154 850866.2660115694 850866.2660115694 -4230065.790391525 0 0 0 0 0 110312191.877403 950158.4364835632 950158.4364835632 -4049912.737210811 0 0 0 0 0 110135535.8505723 1042590.46509981 1042590.46509981 -3876353.052773119 0 0 0 0 0 110008062.4457833 956557.9476221165 956557.9476221165 -4071073.964257903 0 0 0 0 0 109779218.6789849 949503.7497062861 949503.7497062861 -3849640.981468342 0 0 0 0 0 109610491.3867998 1041300.171351619 1041300.171351619 -3683307.309302511 0 0 0 0 0 109492120.8186636 1112729.712113386 1112729.712113386 -3573864.182706621 0 0 0 0 0 109302688.4100695 1122584.767997322 1122584.767997322 -3496230.361819695 0 0 0 0 0 109066003.003749 1090243.443032232 1090243.443032232 -3384027.272503074 0 0 0 0 0 117967218.253632 -6731923.758233665 -6731923.758233665 -12459829.90601312 0 0 0 0 0 591917.9102157542 2846499.656421229 2846499.656421229 -16908255.62984838 0 0 0 0 0 22081748.95115383 -13873246.20041494 -13873246.20041494 -13915131.78500382 0 0 0 0 0 10861512.94850128 -5630320.265303578 -5630320.265303578 -15800631.34162683 0 0 0 0 0 41862040.2505123 -26288822.18342492 -26288822.18342492 -10520962.49409063 0 0 0 0 0 31547094.25658895 -19246068.87818601 -19246068.87818601 -13670115.82778457 0 0 0 0 0 50062119.66708129 -28987613.53630334 -28987613.53630334 -10590060.54305689 0 0 0 0 0 57861385.34659821 -30867557.67959814 -30867557.67959814 -11053167.52724834 0 0 0 0 0 65268040.95601223 -32014998.98894012 -32014998.98894012 -11729093.61403822 0 0 0 0 0 72261174.94749735 -32518513.13299295 -32518513.13299295 -12501041.09497022 0 0 0 0 0 78716537.36749019 -32442910.83896675 -32442910.83896675 -13297793.60441878 0 0 0 0 0 84637623.48686028 -31932989.80204122 -31932989.80204122 -14047871.0198481 0 0 0 0 0 89990039.26183029 -31084419.29280639 -31084419.29280639 -14710720.75925944 0 0 0 0 0 94801762.60861477 -29967493.41987383 -29967493.41987383 -15269052.42728129 0 0 0 0 0 99220148.55706382 -28936403.58967679 -28936403.58967679 -16093720.45867221 0 0 0 0 0 98982305.8471732 -28301969.65001972 -28301969.65001972 -16921565.36729487 0 0 0 0 0 102530875.6533425 -26873443.95762463 -26873443.95762463 -17105438.6087446 0 0 0 0 0 105661277.429053 -25363360.11988974 -25363360.11988974 -17190765.14230525 0 0 0 0 0 108402090.883238 -23810174.79625442 -23810174.79625442 -17185667.09141305 0 0 0 0 0 109955675.7232772 -22124069.60081118 -22124069.60081118 -17668438.23529696 0 0 0 0 0 111330302.5203058 -23044716.90546172 -23044716.90546172 -17364818.01723651 0 0 0 0 0 111917273.44502 -20626135.47202457 -20626135.47202457 -17454564.3192665 0 0 0 0 0 113612450.9649236 -19150591.87234277 -19150591.87234277 -17177611.98029885 0 0 0 0 0 115061959.0415289 -17710767.11861163 -17710767.11861163 -16849391.15776871 0 0 0 0 0 116286070.7738308 -16317165.5821448 -16317165.5821448 -16478211.10925733 0 0 0 0 0 117318108.5985492 -14973630.08861743 -14973630.08861743 -16058940.05650849 0 0 0 0 0 118165992.1751988 -13691851.70811724 -13691851.70811724 -15613919.84556624 0 0 0 0 0 119384915.5985987 -13379300.88616508 -13379300.88616508 -15737236.3356283 0 0 0 0 0 117803668.2596415 -12697874.77173981 -12697874.77173981 -15469459.30509128 0 0 0 0 0 118357681.5585799 -11571932.82399991 -11571932.82399991 -14986617.74646606 0 0 0 0 0 118795223.4419493 -10509640.12579614 -10509640.12579614 -14492081.96747599 0 0 0 0 0 119125112.3118813 -9506572.682391627 -9506572.682391627 -13990925.4393894 0 0 0 0 0 119361583.7161456 -8558365.506083701 -8558365.506083701 -13484897.77761066 0 0 0 0 0 119518682.0533473 -7665936.148305337 -7665936.148305337 -12974165.80962467 0 0 0 0 0 120003245.8117533 -7582561.214948521 -7582561.214948521 -13177012.29329355 0 0 0 0 0 118735310.2134886 -7168548.433760986 -7168548.433760986 -12733484.86707807 0 0 0 0 0 118781690.8320902 -6401034.248446109 -6401034.248446109 -12240667.1493726 0 0 0 0 0 118326692.2960093 -6668113.76513506 -6668113.76513506 -12606324.42086344 0 0 0 0 0 118282834.4833496 -5983804.165389886 -5983804.165389886 -12152211.62512059 0 0 0 0 0 117486838.1153417 -5648913.187595822 -5648913.187595822 -11843258.9337698 0 0 0 0 0 117227546.54914 -5684935.401132972 -5684935.401132972 -11700151.59919809 0 0 0 0 0 117396631.3934546 -5052438.676088954 -5052438.676088954 -11409516.97899571 0 0 0 0 0 117278460.0456578 -4491799.562271853 -4491799.562271853 -10981387.94541532 0 0 0 0 0 117135400.971075 -3965736.949827787 -3965736.949827787 -10561525.47509819 0 0 0 0 0 116967402.3809536 -3473791.099060739 -3473791.099060739 -10151188.0209226 0 0 0 0 0 116215246.8524055 -3320154.673687213 -3320154.673687213 -9902779.76706009 0 0 0 0 0 116146663.3315261 -3291090.800235597 -3291090.800235597 -9715918.324606368 0 0 0 0 0 116034832.4899971 -2892279.2566262 -2892279.2566262 -9520454.987511294 0 0 0 0 0 115840036.5357265 -2492485.047655525 -2492485.047655525 -9147900.154411869 0 0 0 0 0 115633237.2712963 -2118940.440905079 -2118940.440905079 -8785389.874563396 0 0 0 0 0 115416244.5457602 -1770175.955059849 -1770175.955059849 -8432434.829514354 0 0 0 0 0 115191223.9332922 -1444836.959254696 -1444836.959254696 -8089635.789905631 0 0 0 0 0 114594096.3892653 -1352789.047390841 -1352789.047390841 -7701501.543641068 0 0 0 0 0 114323210.096394 -1137839.52011519 -1137839.52011519 -7600010.728377277 0 0 0 0 0 114392717.4950587 -1060860.165052847 -1060860.165052847 -7377356.187468905 0 0 0 0 0 114101627.9623456 -871307.3566953606 -871307.3566953606 -7292180.118073425 0 0 0 0 0 113876341.5713433 -622808.7155696088 -622808.7155696088 -6994014.283450533 0 0 0 0 0 113648650.6068015 -391296.9001609446 -391296.9001609446 -6705309.103913405 0 0 0 0 0 113419371.8815967 -175917.1391269734 -175917.1391269734 -6426189.866986117 0 0 0 0 0 112875885.733613 -223643.4880269612 -223643.4880269612 -6317138.164771104 0 0 0 0 0 112983990.5140794 -136320.1746100498 -136320.1746100498 -6096316.893171193 0 0 0 0 0 112650520.3566133 -38298.30100371515 -38298.30100371515 -6066152.76742066 0 0 0 0 0 112434518.9209798 132899.0571927924 132899.0571927924 -5824173.519299213 0 0 0 0 0 112218155.665158 288735.31613639 288735.31613639 -5592067.433588138 0 0 0 0 0 112002283.1072323 438720.6399475434 438720.6399475434 -5358243.46504408 0 0 0 0 0 111790650.5740672 580548.0585374244 580548.0585374244 -5134748.808004143 0 0 0 0 0 111277737.4494044 717979.6823536722 717979.6823536722 -4652882.801929361 0 0 0 0 0 111580114.6697556 713483.7448409774 713483.7448409774 -4918856.835742295 0 0 0 0 0 111146109.0999599 626390.9296877648 626390.9296877648 -4864308.612535005 0 0 0 0 0 110948242.4111185 743364.3103820097 743364.3103820097 -4664922.058802005 0 0 0 0 0 110753102.0297968 852534.5378924726 852534.5378924726 -4471849.302601547 0 0 0 0 0 110560540.0260011 954753.6527767082 954753.6527767082 -4284379.008980477 0 0 0 0 0 110371227.220395 1049529.305782665 1049529.305782665 -4103338.472831198 0 0 0 0 0 110185105.200823 1136894.636485514 1136894.636485514 -3928623.641057297 0 0 0 0 0 109959994.2056549 1130441.867804739 1130441.867804739 -3712726.341249565 0 0 0 0 0 109826665.1706678 1043947.830838678 1043947.830838678 -3902876.465409568 0 0 0 0 0 109679499.795404 1134886.522665876 1134886.522665876 -3724928.517005295 0 0 0 0 0 109295301.592605 1130966.100133572 1130966.100133572 -3575650.080273427 0 0 0 0 0 109174579.5204772 1138539.508046986 1138539.508046986 -3499747.984028186 0 0 0 0 0 108987036.6618898 1147131.108665569 1147131.108665569 -3461981.277041068 0 0 0 0 0 119119958.6156063 -6357500.09497876 -6357500.09497876 -12440547.9367949 0 0 0 0 0 223603.1368974106 4140076.211837049 4140076.211837049 -19380937.34938695 0 0 0 0 0 13653025.90174795 -10191990.57771092 -10191990.57771092 -7156399.17140766 0 0 0 0 0 24924875.82817389 -18046407.79874486 -18046407.79874486 -6555261.349815765 0 0 0 0 0 2753231.069310721 -648596.1713087677 -648596.1713087677 -8511866.215564571 0 0 0 0 0 41784661.62570242 -24009930.77423057 -24009930.77423057 -12197162.91255749 0 0 0 0 0 35846510.93109732 -23478594.39030531 -23478594.39030531 -6483896.221005835 0 0 0 0 0 51026602.74612075 -27136622.10369431 -27136622.10369431 -11627561.59566153 0 0 0 0 0 59833483.94976899 -29368393.5614147 -29368393.5614147 -11605718.79714438 0 0 0 0 0 68065595.17489626 -30778975.23132973 -30778975.23132973 -11889900.40128878 0 0 0 0 0 75694137.07501763 -31482747.99470839 -31482747.99470839 -12366618.27304898 0 0 0 0 0 82650972.09035735 -31593758.29567013 -31593758.29567013 -12938487.93670252 0 0 0 0 0 88848282.75221238 -31190483.72645937 -31190483.72645937 -13551919.11029965 0 0 0 0 0 94339219.06995939 -30399341.92872929 -30399341.92872929 -14131175.89911488 0 0 0 0 0 99219405.34360814 -29335700.23455118 -29335700.23455118 -14640338.2029212 0 0 0 0 0 99088825.01278564 -28639621.0326473 -28639621.0326473 -15703305.96285626 0 0 0 0 0 103168295.2517443 -27664856.85282622 -27664856.85282622 -16355751.55135781 0 0 0 0 0 106625422.5248412 -26264381.88656384 -26264381.88656384 -16540515.35535968 0 0 0 0 0 109620959.2149628 -24777936.44905558 -24777936.44905558 -16643728.99535072 0 0 0 0 0 112200806.9851889 -23237606.91032853 -23237606.91032853 -16656826.45082513 0 0 0 0 0 113416111.0958422 -21551782.38903474 -21551782.38903474 -17245166.28125107 0 0 0 0 0 110789500.5957767 -22238616.17816373 -22238616.17816373 -17082994.62404709 0 0 0 0 0 115196786.3791136 -20063395.2993799 -20063395.2993799 -17059200.32424214 0 0 0 0 0 116701690.1884458 -18598410.13147738 -18598410.13147738 -16815810.60662479 0 0 0 0 0 117959897.022099 -17172858.20460836 -17172858.20460836 -16521370.37596934 0 0 0 0 0 119001941.9028601 -15788421.36471659 -15788421.36471659 -16175247.12577911 0 0 0 0 0 119835214.578386 -14459030.14859856 -14459030.14859856 -15803476.13919842 0 0 0 0 0 120494786.5665749 -13193744.31023534 -13193744.31023534 -15396737.20389693 0 0 0 0 0 118849262.5503164 -12472940.43044961 -12472940.43044961 -15148457.93996025 0 0 0 0 0 119907707.5817351 -12212155.98930728 -12212155.98930728 -15296516.06662757 0 0 0 0 0 120304514.0719579 -11106664.97927556 -11106664.97927556 -14839370.14331137 0 0 0 0 0 120587591.9719537 -10057532.49102568 -10057532.49102568 -14370035.82250236 0 0 0 0 0 120774981.423805 -9069602.888844602 -9069602.888844602 -13888449.98160207 0 0 0 0 0 120882598.5396054 -8136814.41290198 -8136814.41290198 -13399758.74467421 0 0 0 0 0 120910752.5775087 -7261944.784503384 -7261944.784503384 -12910193.79482695 0 0 0 0 0 119602905.6161873 -6830189.541011931 -6830189.541011931 -12465314.91999219 0 0 0 0 0 119996821.9650213 -6779538.997640541 -6779538.997640541 -12696780.14244468 0 0 0 0 0 119936307.4947636 -6027686.047696505 -6027686.047696505 -12218470.70544807 0 0 0 0 0 117988276.9163584 -6022632.992830711 -6022632.992830711 -11982230.63475829 0 0 0 0 0 117963351.210538 -5358400.843957413 -5358400.843957413 -11512052.43098385 0 0 0 0 0 117189240.8375679 -5068697.86240185 -5068697.86240185 -11247140.38337508 0 0 0 0 0 118198528.0592168 -5341372.985338541 -5341372.985338541 -11701872.91333237 0 0 0 0 0 117116544.8679033 -4491232.12322315 -4491232.12322315 -10803182.66967814 0 0 0 0 0 117012105.2717214 -3950742.044560849 -3950742.044560849 -10369580.5769746 0 0 0 0 0 116880901.4112497 -3444729.770740109 -3444729.770740109 -9944804.82415507 0 0 0 0 0 116727547.7515087 -2971939.589474792 -2971939.589474792 -9530124.000580719 0 0 0 0 0 115997709.8583298 -2850861.643535924 -2850861.643535924 -9319789.616661182 0 0 0 0 0 116778344.3233989 -3014983.447234795 -3014983.447234795 -9751417.186382929 0 0 0 0 0 115830761.2608648 -2440128.179650557 -2440128.179650557 -8935192.385003531 0 0 0 0 0 115648586.0676812 -2057060.482118554 -2057060.482118554 -8562455.955440957 0 0 0 0 0 115453775.0442527 -1699907.48724266 -1699907.48724266 -8201087.929983042 0 0 0 0 0 115248076.4874767 -1367188.366723978 -1367188.366723978 -7850624.690319875 0 0 0 0 0 115033868.0267306 -1057574.385026037 -1057574.385026037 -7511154.32929217 0 0 0 0 0 114960074.7565914 -1141863.222286628 -1141863.222286628 -7757202.088639203 0 0 0 0 0 114185057.2021979 -788899.15040155 -788899.15040155 -7063624.81639004 0 0 0 0 0 114723630.2418752 -859455.9973178252 -859455.9973178252 -7434970.457800016 0 0 0 0 0 113972148.4831482 -535695.8670353184 -535695.8670353184 -6760687.459750572 0 0 0 0 0 113755173.1449594 -300174.0328253448 -300174.0328253448 -6468095.363725143 0 0 0 0 0 113535205.4295624 -81308.88861550063 -81308.88861550063 -6185606.105804001 0 0 0 0 0 113313126.1371389 121833.831308407 121833.831308407 -5913011.45226219 0 0 0 0 0 112776446.0815137 56778.12317880964 56778.12317880964 -5834727.283087105 0 0 0 0 0 113189284.8842022 24300.72714354207 24300.72714354207 -6156241.99430659 0 0 0 0 0 112574512.893164 234945.5262352689 234945.5262352689 -5582475.846075402 0 0 0 0 0 112358066.3585325 392322.1098910103 392322.1098910103 -5346657.508602643 0 0 0 0 0 112134078.0520931 534300.9599125606 534300.9599125606 -5129830.252586521 0 0 0 0 0 111927781.7314488 677778.2397361064 677778.2397361064 -4907116.924171841 0 0 0 0 0 111719757.9012021 811580.0508416541 811580.0508416541 -4690385.638902719 0 0 0 0 0 111370860.7609885 835203.9505688837 835203.9505688837 -4712874.501209177 0 0 0 0 0 111514507.7257731 935249.9376222811 935249.9376222811 -4481520.285325364 0 0 0 0 0 111082704.5545015 836056.1504257127 836056.1504257127 -4452999.322419222 0 0 0 0 0 110889564.4071681 945838.8707320743 945838.8707320743 -4259909.653399707 0 0 0 0 0 110697245.8130934 1047245.28398434 1047245.28398434 -4074347.510527071 0 0 0 0 0 110509895.3055987 1142575.111699069 1142575.111699069 -3893609.387209094 0 0 0 0 0 110324236.4214705 1230151.283889958 1230151.283889958 -3718583.18762906 0 0 0 0 0 110141844.0502978 1310619.566529678 1310619.566529678 -3549692.589495228 0 0 0 0 0 110005750.7499845 1217833.057575123 1217833.057575123 -3761202.818958671 0 0 0 0 0 109785121.3131485 1210497.144339028 1210497.144339028 -3547179.729533652 0 0 0 0 0 109544889.8145266 1274157.870233534 1274157.870233534 -3400675.069614994 0 0 0 0 0 109447438.7174989 1287977.5959277 1287977.5959277 -3260604.703743308 0 0 0 0 0 109587802.0511028 1293790.623087164 1293790.623087164 -3417772.324532723 0 0 0 0 0 109266141.543469 1305307.732372464 1305307.732372464 -3182305.51006232 0 0 0 0 0 118774701.8760964 -5682716.453637878 -5682716.453637878 -11753616.83043856 0 0 0 0 0 15478575.70435303 -9703983.73718917 -9703983.73718917 -7781933.355692924 0 0 0 0 0 26215302.67884531 -16907303.25715392 -16907303.25715392 -7896748.94269084 0 0 0 0 0 3504380.436860734 -184569.3049637375 -184569.3049637375 -9380869.786364613 0 0 0 0 0 45448712.68529463 -27351134.12540585 -27351134.12540585 -6760121.103329487 0 0 0 0 0 36326936.64467099 -21872405.561768 -21872405.561768 -7864001.612647327 0 0 0 0 0 54030967.21123399 -29899976.44145634 -29899976.44145634 -7464384.186855879 0 0 0 0 0 62164164.38889021 -31541578.85162056 -31541578.85162056 -8478165.154244576 0 0 0 0 0 69801298.76838525 -32408125.26114769 -32408125.26114769 -9619595.419436673 0 0 0 0 0 76888098.62382749 -32575649.21376145 -32575649.21376145 -10734385.86109982 0 0 0 0 0 83392369.56388634 -32231839.07623811 -32231839.07623811 -11772491.81245371 0 0 0 0 0 89259192.47280835 -31481434.87007257 -31481434.87007257 -12696149.24518745 0 0 0 0 0 94483943.3808267 -30390987.90842476 -30390987.90842476 -13472466.44208663 0 0 0 0 0 99116587.41558249 -29033716.22967752 -29033716.22967752 -14123750.42266719 0 0 0 0 0 103465338.6261467 -28055397.98792659 -28055397.98792659 -15061721.2927304 0 0 0 0 0 102882697.5504913 -27181219.55666769 -27181219.55666769 -16028544.94570747 0 0 0 0 0 106219071.5762205 -25624358.88875436 -25624358.88875436 -16231290.67218807 0 0 0 0 0 109124881.1750575 -24012433.78383037 -24012433.78383037 -16319181.27700191 0 0 0 0 0 111639063.9364056 -22382053.01466205 -22382053.01466205 -16306528.15168766 0 0 0 0 0 112841842.6969292 -20683633.31571693 -20683633.31571693 -16915586.53962319 0 0 0 0 0 114398455.4097776 -21689712.76527815 -21689712.76527815 -16604150.46149779 0 0 0 0 0 114604691.1561531 -19151674.56667235 -19151674.56667235 -16674116.10955119 0 0 0 0 0 116102743.348942 -17660637.24606043 -17660637.24606043 -16371878.32558222 0 0 0 0 0 117355365.439594 -16216163.25936483 -16216163.25936483 -16020690.89594955 0 0 0 0 0 118404361.0357461 -14826764.33090978 -14826764.33090978 -15630986.74747346 0 0 0 0 0 119265891.0293103 -13489901.80911873 -13489901.80911873 -15180820.83422409 0 0 0 0 0 119941675.0531093 -12233550.03585516 -12233550.03585516 -14725166.42230072 0 0 0 0 0 121002324.5725159 -11990196.4013901 -11990196.4013901 -14961600.45262776 0 0 0 0 0 119390707.3037068 -11316720.80429833 -11316720.80429833 -14660833.15366774 0 0 0 0 0 119801744.9582815 -10226455.83848953 -10226455.83848953 -14171088.6737464 0 0 0 0 0 120108600.7125085 -9198365.985253088 -9198365.985253088 -13666666.79627444 0 0 0 0 0 120318366.9360642 -8232899.277419177 -8232899.277419177 -13159496.42668524 0 0 0 0 0 120440915.9478113 -7324738.748062062 -7324738.748062062 -12647397.78622812 0 0 0 0 0 120492841.2127967 -6474958.634760386 -6474958.634760386 -12135909.9383652 0 0 0 0 0 120870019.0127894 -6443460.768223832 -6443460.768223832 -12423328.08703861 0 0 0 0 0 119620244.1905379 -6050567.859181261 -6050567.859181261 -11964080.51050734 0 0 0 0 0 119581357.1170354 -5323327.296691878 -5323327.296691878 -11471072.68538804 0 0 0 0 0 119044703.7636439 -5663696.990246508 -5663696.990246508 -11974467.25963267 0 0 0 0 0 118929744.6857922 -5014768.529734286 -5014768.529734286 -11515615.02606757 0 0 0 0 0 118080057.2390249 -4739288.677373198 -4739288.677373198 -11258340.94159323 0 0 0 0 0 117897063.6185779 -4736785.942865527 -4736785.942865527 -11050404.03834355 0 0 0 0 0 117930838.9729299 -4175667.423038064 -4175667.423038064 -10822461.69094758 0 0 0 0 0 117757729.3511509 -3648333.123876413 -3648333.123876413 -10394012.22828048 0 0 0 0 0 117563390.5979225 -3155677.18623633 -3155677.18623633 -9975382.000677666 0 0 0 0 0 117348943.7882125 -2695782.712482729 -2695782.712482729 -9566856.153160026 0 0 0 0 0 116572067.2564132 -2586779.074382271 -2586779.074382271 -9361486.757224089 0 0 0 0 0 116555021.4521745 -2530991.170788298 -2530991.170788298 -9127206.566053905 0 0 0 0 0 116352690.4396881 -2187603.811627039 -2187603.811627039 -8982022.179460932 0 0 0 0 0 116122611.0161813 -1816004.055068052 -1816004.055068052 -8613014.457529468 0 0 0 0 0 115883524.9403983 -1469860.235361015 -1469860.235361015 -8254741.225000225 0 0 0 0 0 115636398.3129761 -1147321.289288668 -1147321.289288668 -7907105.361426473 0 0 0 0 0 115383763.5493521 -848025.9331175714 -848025.9331175714 -7570446.18687438 0 0 0 0 0 114812129.3655734 -769870.6548005686 -769870.6548005686 -7184264.323723312 0 0 0 0 0 114483136.8334276 -596618.6665945279 -596618.6665945279 -7122956.318312618 0 0 0 0 0 114585546.3717047 -501833.6271510319 -501833.6271510319 -6867038.967590062 0 0 0 0 0 114240035.5022834 -352422.3090034561 -352422.3090034561 -6821099.668862783 0 0 0 0 0 113995078.9793594 -125470.8952139639 -125470.8952139639 -6529347.702322183 0 0 0 0 0 113749275.3964977 85156.24216653724 85156.24216653724 -6247501.106826797 0 0 0 0 0 113503435.3939901 280679.0745915179 280679.0745915179 -5975106.337384578 0 0 0 0 0 112958684.530756 210407.7620618783 210407.7620618783 -5895487.720700472 0 0 0 0 0 113090227.0609849 310637.2705617691 310637.2705617691 -5650188.982064624 0 0 0 0 0 112722480.688637 377533.6391383067 377533.6391383067 -5654274.529041293 0 0 0 0 0 112484242.429702 524069.5977538257 524069.5977538257 -5426600.981150654 0 0 0 0 0 112263406.5062951 668396.7599346928 668396.7599346928 -5193320.462952145 0 0 0 0 0 112037926.5570631 804648.0320638455 804648.0320638455 -4968134.715367828 0 0 0 0 0 111815157.8414935 932169.2372942889 932169.2372942889 -4749857.933609502 0 0 0 0 0 111310522.455239 1048161.744198883 1048161.744198883 -4281932.960871355 0 0 0 0 0 111595260.4321873 1049599.775986736 1049599.775986736 -4541758.097833325 0 0 0 0 0 111163449.250165 947342.071073942 947342.071073942 -4511482.717831124 0 0 0 0 0 110957836.5610325 1051442.836511337 1051442.836511337 -4318282.624716053 0 0 0 0 0 110756736.0984684 1149474.641221325 1149474.641221325 -4129754.950431935 0 0 0 0 0 110557944.7300817 1240148.720233126 1240148.720233126 -3948528.478093115 0 0 0 0 0 110362489.1495371 1323770.390260092 1323770.390260092 -3773093.558855494 0 0 0 0 0 110173727.6413506 1400956.044278546 1400956.044278546 -3603488.008864508 0 0 0 0 0 109958596.673483 1389846.600987879 1389846.600987879 -3404816.090020545 0 0 0 0 0 109812432.1247502 1298358.173194887 1298358.173194887 -3600384.035029702 0 0 0 0 0 109673803.8660338 1387925.010010592 1387925.010010592 -3411585.813276493 0 0 0 0 0 109323054.6286753 1339293.752481382 1339293.752481382 -3332246.547786742 0 0 0 0 0 109386711.5996689 1382424.497945833 1382424.497945833 -3230597.167536539 0 0 0 0 0 109101084.6881838 1353756.641386632 1353756.641386632 -3257000.481930729 0 0 0 0 0 119827907.4247255 -5325314.055600696 -5325314.055600696 -11746211.17657189 0 0 0 0 0 5959904.464053974 -5253856.950259872 -5253856.950259872 -364479.8771475544 0 0 0 0 0 17474039.65751743 -13982349.74495271 -13982349.74495271 -834519.2429239079 0 0 0 0 0 28887129.96857023 -20650748.42927794 -20650748.42927794 -1423742.382037449 0 0 0 0 0 45958842.50387497 -25558727.75976658 -25558727.75976658 -7828777.07386209 0 0 0 0 0 39956714.27780993 -25499302.35229426 -25499302.35229426 -1648005.04913569 0 0 0 0 0 55616888.27883883 -28465251.76113905 -28465251.76113905 -8060839.611739096 0 0 0 0 0 64764679.00098952 -30391748.89325364 -30391748.89325364 -8634366.605849938 0 0 0 0 0 73298932.29902583 -31511451.20157333 -31511451.20157333 -9383740.849720076 0 0 0 0 0 80918734.53033057 -31840425.0692011 -31840425.0692011 -10260765.09460619 0 0 0 0 0 87757166.80879599 -31594058.94583705 -31594058.94583705 -11163552.93680693 0 0 0 0 0 93791726.81626411 -30873561.0307448 -30873561.0307448 -11987747.10351053 0 0 0 0 0 99113516.68700111 -29823336.03114436 -29823336.03114436 -12743574.35197303 0 0 0 0 0 103734108.5431014 -28550030.45730024 -28550030.45730024 -13379865.99715294 0 0 0 0 0 103185435.6541541 -27547463.61518179 -27547463.61518179 -14637239.29890534 0 0 0 0 0 107176528.1005811 -26620796.57545829 -26620796.57545829 -15383443.34065827 0 0 0 0 0 110376451.6616209 -25081774.77959083 -25081774.77959083 -15606505.28033529 0 0 0 0 0 113103124.8310426 -23482656.82019072 -23482656.82019072 -15728334.66860154 0 0 0 0 0 115416531.3672311 -21864364.80651648 -21864364.80651648 -15755492.75766493 0 0 0 0 0 116256456.9116683 -20140205.37648459 -20140205.37648459 -16468813.68800255 0 0 0 0 0 113797891.9923321 -20759758.65706083 -20759758.65706083 -16199833.47899391 0 0 0 0 0 117811408.2330132 -18618421.96760169 -18618421.96760169 -16269002.58513757 0 0 0 0 0 119094977.822135 -17135039.31362848 -17135039.31362848 -16008771.76446428 0 0 0 0 0 120157759.6006379 -15700139.87875195 -15700139.87875195 -15692996.94500913 0 0 0 0 0 121019016.7981245 -14313244.27239296 -14313244.27239296 -15322497.56396505 0 0 0 0 0 121662923.1010208 -13005329.77354871 -13005329.77354871 -14941765.86691554 0 0 0 0 0 122144953.1091724 -11759807.39081782 -11759807.39081782 -14520424.97734519 0 0 0 0 0 120467726.9441906 -11043317.2310611 -11043317.2310611 -14247187.43154806 0 0 0 0 0 121367992.1326325 -10854205.96567201 -10854205.96567201 -14511249.37418818 0 0 0 0 0 121624552.3133606 -9781343.889208863 -9781343.889208863 -14039233.65231101 0 0 0 0 0 121778241.3291323 -8769004.885547949 -8769004.885547949 -13559405.45312293 0 0 0 0 0 121846412.9722306 -7817855.764381967 -7817855.764381967 -13069817.47307507 0 0 0 0 0 121842543.522052 -6926424.089158222 -6926424.089158222 -12577171.99022031 0 0 0 0 0 121768960.5216711 -6091419.86840466 -6091419.86840466 -12083492.74423407 0 0 0 0 0 120481939.7821329 -5681412.658034133 -5681412.658034133 -11626791.53214386 0 0 0 0 0 120773946.5277943 -5680501.358718548 -5680501.358718548 -11939991.37937631 0 0 0 0 0 120630873.0116718 -4969147.470819195 -4969147.470819195 -11460963.53367665 0 0 0 0 0 118719094.0343991 -5011667.138852495 -5011667.138852495 -11274795.37361398 0 0 0 0 0 118621847.370224 -4385926.064362421 -4385926.064362421 -10807296.78047139 0 0 0 0 0 117795321.75076 -4155657.300097921 -4155657.300097921 -10597808.48632055 0 0 0 0 0 118780021.6987593 -4407613.98238154 -4407613.98238154 -11063093.28984718 0 0 0 0 0 117663711.1559578 -3613255.756533017 -3613255.756533017 -10156076.2992103 0 0 0 0 0 117505167.03656 -3107281.858769728 -3107281.858769728 -9725460.119044229 0 0 0 0 0 117323417.6225747 -2635254.618440053 -2635254.618440053 -9305956.070403636 0 0 0 0 0 117123438.0544188 -2195547.729223353 -2195547.729223353 -8897811.613017108 0 0 0 0 0 116365814.2503206 -2120082.19570455 -2120082.19570455 -8734859.974608684 0 0 0 0 0 117119573.8589524 -2266642.988630008 -2266642.988630008 -9168778.437500298 0 0 0 0 0 116160579.0599169 -1738784.312111008 -1738784.312111008 -8355326.047528792 0 0 0 0 0 115942650.0329773 -1384776.491777994 -1384776.491777994 -7989457.825488094 0 0 0 0 0 115715051.2654737 -1055319.062387918 -1055319.062387918 -7636161.38220566 0 0 0 0 0 115479310.3658198 -749593.654280175 -749593.654280175 -7293120.832402019 0 0 0 0 0 115236927.5138445 -466560.9196040193 -466560.9196040193 -6962709.302721374 0 0 0 0 0 115128022.3823373 -570042.6661999616 -570042.6661999616 -7244048.509583432 0 0 0 0 0 114354730.6432295 -252902.8569393809 -252902.8569393809 -6560228.036454049 0 0 0 0 0 114868466.3063995 -311730.8303369411 -311730.8303369411 -6927945.690278537 0 0 0 0 0 114120072.7061115 -22308.5740977101 -22308.5740977101 -6265557.015288021 0 0 0 0 0 113883139.5370316 191413.8797992077 191413.8797992077 -5981343.246053652 0 0 0 0 0 113644861.0491857 389451.6051737168 389451.6051737168 -5707526.958686712 0 0 0 0 0 113406127.6287252 572598.0844366987 572598.0844366987 -5443240.963081769 0 0 0 0 0 112867621.3877521 484365.7144796267 484365.7144796267 -5396809.987631831 0 0 0 0 0 113258852.5537439 461807.6216864352 461807.6216864352 -5712242.392978049 0 0 0 0 0 112648921.6772537 641336.8283762663 641336.8283762663 -5154697.806632197 0 0 0 0 0 112419884.9107255 779006.276510929 779006.276510929 -4933941.257081641 0 0 0 0 0 112189313.5455822 911669.7175235297 911669.7175235297 -4717864.79153691 0 0 0 0 0 111969017.879446 1039224.338025289 1039224.338025289 -4502379.556382282 0 0 0 0 0 111752438.7780151 1157926.883460337 1157926.883460337 -4292824.994269318 0 0 0 0 0 111377698.4083373 1156784.42931118 1156784.42931118 -4342182.150168964 0 0 0 0 0 111536951.1279453 1266026.541201782 1266026.541201782 -4093640.147764574 0 0 0 0 0 111106791.6088369 1152782.926342242 1152782.926342242 -4089064.395934592 0 0 0 0 0 110905182.4705736 1249392.045225247 1249392.045225247 -3903842.244588786 0 0 0 0 0 110707107.9773921 1339925.486583172 1339925.486583172 -3724065.211313441 0 0 0 0 0 110512041.1109845 1423139.96513927 1423139.96513927 -3550678.394529992 0 0 0 0 0 110320566.9288743 1498918.795113341 1498918.795113341 -3383594.974176886 0 0 0 0 0 110135278.4152113 1571914.822204134 1571914.822204134 -3212219.162801577 0 0 0 0 0 109979555.6653373 1461906.157018462 1461906.157018462 -3448780.943671592 0 0 0 0 0 109774380.7806045 1457331.530276703 1457331.530276703 -3246658.03300268 0 0 0 0 0 109582360.3319626 1519013.566978523 1519013.566978523 -3122641.046565928 0 0 0 0 0 109363672.4104138 1507761.144928693 1507761.144928693 -3009859.686498921 0 0 0 0 0 109591133.4054628 1520946.471296683 1520946.471296683 -3156127.411188899 0 0 0 0 0 119495127.662966 -4645668.97498031 -4645668.97498031 -10986352.92921965 0 0 0 0 0 7264453.304422007 -5536902.792770854 -5536902.792770854 91595.09860487298 0 0 0 0 0 20629086.98562766 -14467876.94820012 -14467876.94820012 12774.77695027059 0 0 0 0 0 30801697.81834412 -20153025.21676969 -20153025.21676969 -1821210.164251267 0 0 0 0 0 49442285.22819836 -28789953.98253234 -28789953.98253234 -2773240.106940938 0 0 0 0 0 40011362.5092441 -23904278.45841687 -23904278.45841687 -2771419.22453408 0 0 0 0 0 58398665.29389974 -31048530.80050511 -31048530.80050511 -4249231.656159308 0 0 0 0 0 66832431.76812236 -32319562.03975932 -32319562.03975932 -5874624.137333981 0 0 0 0 0 74668679.41195597 -32789044.96004014 -32789044.96004014 -7422624.119467007 0 0 0 0 0 81830687.54629411 -32633152.67616467 -32633152.67616467 -8853728.213399466 0 0 0 0 0 88271139.5837419 -31968367.12044477 -31968367.12044477 -10130206.02492697 0 0 0 0 0 94038273.284315 -30967150.95948195 -30967150.95948195 -11207834.27214083 0 0 0 0 0 99058864.68145175 -29520953.61623146 -29520953.61623146 -12073431.21281679 0 0 0 0 0 103453234.9083761 -28009463.22326888 -28009463.22326888 -12882048.72126556 0 0 0 0 0 107708013.9420292 -27063014.11047906 -27063014.11047906 -13893021.41921566 0 0 0 0 0 106756840.0197559 -25939595.97330745 -25939595.97330745 -14998376.92753844 0 0 0 0 0 109854298.3575993 -24260566.60907407 -24260566.60907407 -15212774.05413592 0 0 0 0 0 112513526.2104076 -22562229.87754093 -22562229.87754093 -15306223.17027167 0 0 0 0 0 114780229.5300709 -20868148.55136532 -20868148.55136532 -15289462.71820307 0 0 0 0 0 115633749.3971644 -19165120.99396798 -19165120.99396798 -16012032.0732389 0 0 0 0 0 117361096.9245093 -20249402.34261971 -20249402.34261971 -15695012.38919422 0 0 0 0 0 117179615.9286274 -17613189.66277438 -17613189.66277438 -15754160.81529292 0 0 0 0 0 118459863.582579 -16123248.34848414 -16123248.34848414 -15438084.58500783 0 0 0 0 0 119517287.6030393 -14686050.57899772 -14686050.57899772 -15069953.26504953 0 0 0 0 0 120383425.8661952 -13302021.8791663 -13302021.8791663 -14659628.6562692 0 0 0 0 0 121076405.6611464 -11986339.83725783 -11986339.83725783 -14197026.10127461 0 0 0 0 0 121586700.2007519 -10757260.96818947 -10757260.96818947 -13726846.97203858 0 0 0 0 0 122490943.4288553 -10587572.25149953 -10587572.25149953 -14075845.14064434 0 0 0 0 0 120859654.704264 -9920155.185044739 -9920155.185044739 -13748140.3854206 0 0 0 0 0 121125166.94131 -8875516.477118313 -8875516.477118313 -13262757.10576739 0 0 0 0 0 121305212.6857549 -7888675.351645981 -7888675.351645981 -12753631.1873873 0 0 0 0 0 121397654.5419618 -6965429.390897217 -6965429.390897217 -12244684.27165712 0 0 0 0 0 121412129.0055656 -6101791.643970008 -6101791.643970008 -11733494.19504845 0 0 0 0 0 121364947.0935722 -5295561.181685131 -5295561.181685131 -11224113.91455455 0 0 0 0 0 121634846.3126014 -5316445.497779128 -5316445.497779128 -11597337.70417227 0 0 0 0 0 120410532.210028 -4944966.137108747 -4944966.137108747 -11128417.89947868 0 0 0 0 0 120289660.9584268 -4260980.345213735 -4260980.345213735 -10640403.08236513 0 0 0 0 0 119677987.9695376 -4670143.458944778 -4670143.458944778 -11280344.23512757 0 0 0 0 0 119496169.9111535 -4058246.138065203 -4058246.138065203 -10820551.87144607 0 0 0 0 0 118600459.4672155 -3840780.806811952 -3840780.806811952 -10619492.49306411 0 0 0 0 0 118491059.4546632 -3801255.891487156 -3801255.891487156 -10347692.25305823 0 0 0 0 0 118395672.4755201 -3312278.473872473 -3312278.473872473 -10185124.85125347 0 0 0 0 0 118170321.0116379 -2819976.528038193 -2819976.528038193 -9760089.954007074 0 0 0 0 0 117929356.2845006 -2360846.45368687 -2360846.45368687 -9345274.842940656 0 0 0 0 0 117672230.832004 -1934061.495527439 -1934061.495527439 -8942072.081905235 0 0 0 0 0 116874752.8963212 -1868775.548164569 -1868775.548164569 -8782944.122140752 0 0 0 0 0 116906763.0203495 -1787063.951185941 -1787063.951185941 -8501370.282942312 0 0 0 0 0 116618886.579341 -1499335.20686917 -1499335.20686917 -8408627.094488185 0 0 0 0 0 116356069.9072107 -1156228.139985752 -1156228.139985752 -8045645.604137733 0 0 0 0 0 116088789.5908523 -838198.100593601 -838198.100593601 -7694248.029543488 0 0 0 0 0 115813295.1417463 -542788.3658136288 -542788.3658136288 -7354362.795795425 0 0 0 0 0 115534091.2475511 -271258.7587283205 -271258.7587283205 -7026966.580647831 0 0 0 0 0 114988335.7544827 -204725.5207676844 -204725.5207676844 -6644644.216101386 0 0 0 0 0 114606312.2578417 -72070.20549758631 -72070.20549758631 -6622889.271224038 0 0 0 0 0 114738507.7208778 39157.51370037887 39157.51370037887 -6335632.967669475 0 0 0 0 0 114343574.5250759 149904.0475141199 149904.0475141199 -6329064.113467779 0 0 0 0 0 114080764.0116628 355338.452720608 355338.452720608 -6045422.340483895 0 0 0 0 0 113819016.8810115 545434.5819688507 545434.5819688507 -5771717.189723976 0 0 0 0 0 113558810.8350074 721462.4931777359 721462.4931777359 -5507603.305719995 0 0 0 0 0 113013674.3853748 628333.473802296 628333.473802296 -5461190.765962369 0 0 0 0 0 113168070.0191771 741297.3173476129 741297.3173476129 -5191652.621378874 0 0 0 0 0 112762948.8767504 772139.117328373 772139.117328373 -5232817.423162607 0 0 0 0 0 112517905.1500082 905672.3696318029 905672.3696318029 -5007722.429549534 0 0 0 0 0 112283749.7931819 1034353.920595758 1034353.920595758 -4782015.048202862 0 0 0 0 0 112050643.5703682 1157083.46324237 1157083.46324237 -4562952.057500181 0 0 0 0 0 111817908.0544091 1269420.460165669 1269420.460165669 -4354363.220420931 0 0 0 0 0 111322540.3596809 1364678.985610332 1364678.985610332 -3902600.711991123 0 0 0 0 0 111590272.9428375 1371518.398029449 1371518.398029449 -4155424.20128004 0 0 0 0 0 111162522.9083083 1256071.589547229 1256071.589547229 -4148079.863906035 0 0 0 0 0 110951345.6718716 1348724.470743328 1348724.470743328 -3960860.40557767 0 0 0 0 0 110743506.3861217 1434367.966641323 1434367.966641323 -3779815.377614037 0 0 0 0 0 110538523.6577309 1513253.843001182 1513253.843001182 -3605612.9800974 0 0 0 0 0 110335593.9798646 1584310.193433725 1584310.193433725 -3438061.082646473 0 0 0 0 0 110108256.744148 1638050.130103289 1638050.130103289 -3275782.325500771 0 0 0 0 0 109927614.7178152 1621433.512449745 1621433.512449745 -3118792.371502509 0 0 0 0 0 109781714.1957964 1532602.155433422 1532602.155433422 -3299306.764260328 0 0 0 0 0 109606888.6936445 1580544.509721477 1580544.509721477 -3150999.704956636 0 0 0 0 0 109201385.5296954 1539290.456378062 1539290.456378062 -3065453.391702875 0 0 0 0 0 109361232.5926868 1570571.311459685 1570571.311459685 -3053864.950175957 0 0 0 0 0 120447396.7932408 -4306844.654702761 -4306844.654702761 -10989024.53220483 0 0 0 0 0 10496842.36394594 -10972675.91873208 -10972675.91873208 8472540.883703236 0 0 0 0 0 20883660.43103694 -17819868.53571358 -17819868.53571358 3967520.256008421 0 0 0 0 0 34201208.10621043 -23753334.34754901 -23753334.34754901 4723547.019734433 0 0 0 0 0 50441046.22855365 -27440570.79509487 -27440570.79509487 -3413452.465919963 0 0 0 0 0 44040647.52568143 -27688375.33875504 -27688375.33875504 3387861.240172352 0 0 0 0 0 60696785.81258848 -30031173.74542667 -30031173.74542667 -4383810.340882355 0 0 0 0 0 70253094.87083367 -31579068.6378186 -31579068.6378186 -5545144.179600306 0 0 0 0 0 78813031.43314041 -32208119.89007255 -32208119.89007255 -6827405.634321795 0 0 0 0 0 86371930.94430654 -32146727.33457559 -32146727.33457559 -8095226.570171935 0 0 0 0 0 93029188.63461173 -31521357.67144991 -31521357.67144991 -9270617.185700005 0 0 0 0 0 98884432.78018036 -30436923.10501846 -30436923.10501846 -10268088.62618163 0 0 0 0 0 103960572.1871649 -29211705.63063352 -29211705.63063352 -11225799.13971794 0 0 0 0 0 108275125.1106921 -27627828.72769519 -27627828.72769519 -11974107.5371395 0 0 0 0 0 107293239.6469812 -26327975.9002055 -26327975.9002055 -13423079.70543172 0 0 0 0 0 111136612.6637505 -25465958.15566345 -25465958.15566345 -14273537.45267493 0 0 0 0 0 114027802.2080651 -23794720.7029034 -23794720.7029034 -14531104.44045116 0 0 0 0 0 116472411.256515 -22099075.06040137 -22099075.06040137 -14674542.15338897 0 0 0 0 0 118511044.1723786 -20407469.02747288 -20407469.02747288 -14710544.82597694 0 0 0 0 0 118971535.930941 -18662026.53924423 -18662026.53924423 -15554356.27990233 0 0 0 0 0 116698633.7992246 -19201666.47436984 -19201666.47436984 -15174172.11014722 0 0 0 0 0 120287877.4949811 -17120653.58245121 -17120653.58245121 -15347452.24673975 0 0 0 0 0 121346196.9420466 -15631581.50540175 -15631581.50540175 -15070607.15164826 0 0 0 0 0 122203346.9596495 -14200309.85321529 -14200309.85321529 -14737344.12465009 0 0 0 0 0 122874520.3124453 -12824759.16947995 -12824759.16947995 -14353686.18651174 0 0 0 0 0 123344717.5606784 -11535020.27070993 -11535020.27070993 -13959381.49012381 0 0 0 0 0 123653665.6344221 -10321592.25298961 -10321592.25298961 -13533774.54011547 0 0 0 0 0 121955762.8367951 -9604505.82119149 -9604505.82119149 -13244263.16463135 0 0 0 0 0 122698347.3413405 -9490496.349071711 -9490496.349071711 -13626062.90408091 0 0 0 0 0 122817758.7605331 -8454588.37521144 -8454588.37521144 -13143202.79741838 0 0 0 0 0 122846439.3757386 -7484129.84890229 -7484129.84890229 -12658935.54410868 0 0 0 0 0 122800912.8125934 -6575218.042421378 -6575218.042421378 -12167270.50035365 0 0 0 0 0 122692384.0315243 -5727290.228166913 -5727290.228166913 -11674168.80520193 0 0 0 0 0 122520972.2478141 -4939366.509214229 -4939366.509214229 -11185230.63082974 0 0 0 0 0 121260489.7329775 -4549270.490283286 -4549270.490283286 -10722186.32388266 0 0 0 0 0 121453679.9515996 -4596889.382312862 -4596889.382312862 -11115855.41249836 0 0 0 0 0 121232766.7551375 -3928566.099088557 -3928566.099088557 -10640751.22004106 0 0 0 0 0 119367395.7910443 -4014419.397899006 -4014419.397899006 -10511018.2837209 0 0 0 0 0 119202762.4290171 -3428276.292827263 -3428276.292827263 -10048404.24631982 0 0 0 0 0 118329260.998685 -3257179.34336546 -3257179.34336546 -9899576.91949988 0 0 0 0 0 119284495.9727368 -3488560.719226449 -3488560.719226449 -10370542.82361872 0 0 0 0 0 118142039.5908471 -2751052.516445501 -2751052.516445501 -9463340.007666796 0 0 0 0 0 117932376.1013139 -2280931.13858182 -2280931.13858182 -9039771.109577954 0 0 0 0 0 117703031.0418423 -1844384.274410896 -1844384.274410896 -8628577.578080317 0 0 0 0 0 117459282.8374559 -1438867.757773684 -1438867.757773684 -8230631.809857792 0 0 0 0 0 116678566.1340712 -1407297.827065781 -1407297.827065781 -8116906.434544028 0 0 0 0 0 117403220.7584235 -1537124.952818019 -1537124.952818019 -8549384.756051397 0 0 0 0 0 116438866.9739598 -1055324.427293744 -1055324.427293744 -7745189.336230856 0 0 0 0 0 116187046.3593589 -731654.8273112068 -731654.8273112068 -7388863.654549291 0 0 0 0 0 115927336.0183748 -431570.2453707479 -431570.2453707479 -7047997.9609201 0 0 0 0 0 115663846.8070381 -153428.9932419946 -153428.9932419946 -6713656.918884313 0 0 0 0 0 115395143.3707759 102839.1736743041 102839.1736743041 -6393008.412676797 0 0 0 0 0 115253992.4347503 -18117.68179459767 -18117.68179459767 -6706927.943263462 0 0 0 0 0 114487568.7939343 265541.6059320145 265541.6059320145 -6037581.653576571 0 0 0 0 0 114973548.2972155 218265.4432267163 218265.4432267163 -6398366.239661844 0 0 0 0 0 114233123.4291173 473674.4492419481 473674.4492419481 -5752639.999164091 0 0 0 0 0 113978152.9883786 665848.3458833545 665848.3458833545 -5478261.7974532 0 0 0 0 0 113723084.9732605 842989.9242882248 842989.9242882248 -5215483.79019795 0 0 0 0 0 113469836.8291541 1005789.098206512 1005789.098206512 -4961959.514055545 0 0 0 0 0 112932320.7355694 894753.3944876321 894753.3944876321 -4948146.014950498 0 0 0 0 0 113298288.0783253 880038.0851456448 880038.0851456448 -5257254.350626908 0 0 0 0 0 112692823.4905207 1028691.688892624 1028691.688892624 -4724177.645288708 0 0 0 0 0 112457852.5370511 1155112.386291865 1155112.386291865 -4506346.941663069 0 0 0 0 0 112218324.8001698 1273247.966564118 1273247.966564118 -4295346.993697524 0 0 0 0 0 111988464.1150398 1386247.986227491 1386247.986227491 -4086987.440998214 0 0 0 0 0 111763829.471676 1489624.808218503 1489624.808218503 -3887560.479550989 0 0 0 0 0 111365856.5905052 1465525.352738505 1465525.352738505 -3962609.187829576 0 0 0 0 0 111538275.8168673 1582438.268453944 1582438.268453944 -3698074.971052289 0 0 0 0 0 111111190.5202831 1456336.67540992 1456336.67540992 -3717924.975856504 0 0 0 0 0 110903759.2657916 1541440.373926579 1541440.373926579 -3539299.47724596 0 0 0 0 0 110699275.6911437 1619839.85781778 1619839.85781778 -3367427.387842998 0 0 0 0 0 110498057.0943309 1691206.678579105 1691206.678579105 -3200538.254109364 0 0 0 0 0 110294689.9992857 1761573.692955928 1761573.692955928 -3036944.106037634 0 0 0 0 0 110141318.7387174 1811498.98978729 1811498.98978729 -2928037.936929565 0 0 0 0 0 109972859.3972327 1693245.156845154 1693245.156845154 -3151992.361530497 0 0 0 0 0 109767648.3216736 1686232.016319426 1686232.016319426 -2930887.48981474 0 0 0 0 0 109650966.113924 1730390.367253383 1730390.367253383 -2809120.70696139 0 0 0 0 0 109486469.2977486 1709244.061302146 1709244.061302146 -2796022.29042699 0 0 0 0 0 120128004.3400038 -3625849.380788553 -3625849.380788553 -10162297.47248254 0 0 0 0 0 11219649.3448917 -11464310.37284857 -11464310.37284857 9075480.913248483 0 0 0 0 0 28805657.32926361 -21561442.01954377 -21561442.01954377 9897852.970766235 0 0 0 0 0 30120351.82378611 -21117143.32326788 -21117143.32326788 2489237.072966014 0 0 0 0 0 53810425.66669755 -30564409.82045327 -30564409.82045327 1188683.864587869 0 0 0 0 0 43532032.69172066 -26032850.18062284 -26032850.18062284 2230243.482392626 0 0 0 0 0 63168208.82285687 -32343702.30264829 -32343702.30264829 -1090592.755837172 0 0 0 0 0 72001951.38196188 -33168385.55887101 -33168385.55887101 -3199138.539563585 0 0 0 0 0 79904341.98224877 -33172174.25617697 -33172174.25617697 -5169174.660732724 0 0 0 0 0 86979906.22686374 -32605585.60941437 -32605585.60941437 -6922092.365261305 0 0 0 0 0 93355106.80323476 -31687709.35552943 -31687709.35552943 -8380753.038044277 0 0 0 0 0 98881676.58471231 -30214462.89706882 -30214462.89706882 -9576819.377970163 0 0 0 0 0 103656810.5651906 -28581735.72608219 -28581735.72608219 -10650706.19933129 0 0 0 0 0 107825354.9432861 -26863493.78184232 -26863493.78184232 -11504120.21279162 0 0 0 0 0 111932900.543268 -25953820.40735089 -25953820.40735089 -12588171.02869644 0 0 0 0 0 110594353.611531 -24567096.55898092 -24567096.55898092 -13814241.61452259 0 0 0 0 0 113401911.130874 -22801823.57867357 -22801823.57867357 -14061777.46416861 0 0 0 0 0 115791807.5673781 -21028079.12027032 -21028079.12027032 -14160997.94246234 0 0 0 0 0 117800420.1830502 -19279733.83540876 -19279733.83540876 -14139396.134352 0 0 0 0 0 118301711.2042311 -17584371.54267229 -17584371.54267229 -14973377.8870337 0 0 0 0 0 120185201.2859797 -18743351.22236691 -18743351.22236691 -14651655.54411 0 0 0 0 0 119620538.6203334 -16024909.89147937 -16024909.89147937 -14709173.72139222 0 0 0 0 0 120697549.2632372 -14528684.37638076 -14528684.37638076 -14371606.42697131 0 0 0 0 0 121546802.8070049 -13105041.35293073 -13105041.35293073 -13994769.38137324 0 0 0 0 0 122206431.9080863 -11758159.60969008 -11758159.60969008 -13582757.73371713 0 0 0 0 0 122725600.2349024 -10477928.0297488 -10477928.0297488 -13118365.10171504 0 0 0 0 0 123087016.7420375 -9281781.815160241 -9281781.815160241 -12634607.90094548 0 0 0 0 0 123837387.346038 -9183042.017495926 -9183042.017495926 -13087913.66375903 0 0 0 0 0 122200370.7577891 -8525271.45716718 -8525271.45716718 -12744964.99961253 0 0 0 0 0 122326777.7402911 -7527909.467486606 -7527909.467486606 -12263425.03472872 0 0 0 0 0 122383469.4458762 -6586982.766070016 -6586982.766070016 -11758789.40887115 0 0 0 0 0 122361001.358579 -5711766.976090244 -5711766.976090244 -11254233.19818447 0 0 0 0 0 122270899.3268013 -4896927.482529189 -4896927.482529189 -10749913.91416414 0 0 0 0 0 122128371.9116132 -4139864.34847524 -4139864.34847524 -10250260.77960427 0 0 0 0 0 122297293.6576 -4209489.464928379 -4209489.464928379 -10703460.44706674 0 0 0 0 0 121104603.816286 -3858979.083954983 -3858979.083954983 -10232108.52322338 0 0 0 0 0 120906494.1002993 -3220295.931281894 -3220295.931281894 -9753471.66797965 0 0 0 0 0 120228698.567624 -3691812.020923276 -3691812.020923276 -10526574.35256139 0 0 0 0 0 119982857.5652675 -3119967.002394915 -3119967.002394915 -10071484.67124287 0 0 0 0 0 119048115.6538176 -2958897.424100686 -2958897.424100686 -9930463.997505311 0 0 0 0 0 119009669.7606778 -2883286.189487803 -2883286.189487803 -9596081.04388842 0 0 0 0 0 118791343.0565984 -2466878.486222843 -2466878.486222843 -9501168.556805102 0 0 0 0 0 118517838.3867765 -2010242.944710576 -2010242.944710576 -9082568.413165662 0 0 0 0 0 118231735.9367034 -1587230.647644797 -1587230.647644797 -8675903.861532897 0 0 0 0 0 117935791.3049951 -1194073.539604045 -1194073.539604045 -8281102.98196506 0 0 0 0 0 117125064.2738925 -1169023.964860209 -1169023.964860209 -8169477.361610513 0 0 0 0 0 117202772.1572217 -1063151.927597301 -1063151.927597301 -7844385.527594071 0 0 0 0 0 116838241.7609943 -830268.9545847212 -830268.9545847212 -7803977.562512253 0 0 0 0 0 116542517.6762123 -519006.7139507213 -519006.7139507213 -7450030.556476921 0 0 0 0 0 116249259.7151665 -230413.5332723664 -230413.5332723664 -7107933.767808581 0 0 0 0 0 115944719.175594 36711.46606598177 36711.46606598177 -6778296.005327932 0 0 0 0 0 115642892.7696137 285756.1135561882 285756.1135561882 -6456153.98981892 0 0 0 0 0 115126700.1344167 342638.3236150421 342638.3236150421 -6083135.272137036 0 0 0 0 0 114693132.4876361 434875.5653654885 434875.5653654885 -6103439.3970006 0 0 0 0 0 114857501.7226473 563943.50148678 563943.50148678 -5782024.543646572 0 0 0 0 0 114413491.7080338 634080.2793846577 634080.2793846577 -5818478.513780565 0 0 0 0 0 114134852.6969849 818335.8849841087 818335.8849841087 -5544331.274971929 0 0 0 0 0 113860050.2106417 987816.5646263144 987816.5646263144 -5281150.109577702 0 0 0 0 0 113579500.1161112 1137432.575282337 1137432.575282337 -5033037.416709285 0 0 0 0 0 113036221.6039186 1021528.727411253 1021528.727411253 -5020341.256201169 0 0 0 0 0 113215152.8696292 1150227.835559717 1150227.835559717 -4723962.66160933 0 0 0 0 0 112781425.3581166 1152357.696975983 1152357.696975983 -4795362.834653264 0 0 0 0 0 112526835.1446564 1271740.64274343 1271740.64274343 -4577094.167510333 0 0 0 0 0 112284368.7369704 1387852.904326567 1387852.904326567 -4357489.986315935 0 0 0 0 0 112042149.0392118 1495317.289721581 1495317.289721581 -4148434.046674718 0 0 0 0 0 111803128.384494 1592022.005391172 1592022.005391172 -3950410.782786847 0 0 0 0 0 111315835.8519644 1667867.898886232 1667867.898886232 -3515699.438330697 0 0 0 0 0 111566729.1254974 1679547.665817642 1679547.665817642 -3759795.048001923 0 0 0 0 0 111144486.1344555 1552500.438135198 1552500.438135198 -3775915.001832524 0 0 0 0 0 110927545.8145399 1632883.446793447 1632883.446793447 -3595932.645623406 0 0 0 0 0 110714708.604639 1706790.802657262 1706790.802657262 -3422919.718946397 0 0 0 0 0 110505406.2635383 1775318.170870458 1775318.170870458 -3255983.636677491 0 0 0 0 0 110319844.7038076 1842555.558967259 1842555.558967259 -3088891.712263018 0 0 0 0 0 109939350.5010177 1830826.814351028 1830826.814351028 -2931919.706739556 0 0 0 0 0 109842977.422897 1808766.203301628 1808766.203301628 -2834578.545556556 0 0 0 0 0 109749594.7533481 1744651.009810471 1744651.009810471 -2985094.234583928 0 0 0 0 0 109512288.5129506 1768743.267226565 1768743.267226565 -2871132.495330225 0 0 0 0 0 109303487.472487 1738637.593802764 1738637.593802764 -2834247.675838382 0 0 0 0 0 120978200.480494 -3308947.202930984 -3308947.202930984 -10174435.68351674 0 0 0 0 0 16618699.45685403 -17725090.84791435 -17725090.84791435 17446936.32053078 0 0 0 0 0 19659057.81482648 -18024472.35052058 -18024472.35052058 8170304.141416016 0 0 0 0 0 37990020.137843 -26606401.34555084 -26606401.34555084 11741138.86709811 0 0 0 0 0 55578794.41719586 -29603774.53606883 -29603774.53606883 966251.8904505904 0 0 0 0 0 48180037.89181791 -30078638.56206992 -30078638.56206992 8459178.661643304 0 0 0 0 0 66605027.86655903 -31823960.29974144 -31823960.29974144 -624922.8597430375 0 0 0 0 0 76185069.10278855 -32799658.4135959 -32799658.4135959 -2435574.609129259 0 0 0 0 0 84639633.21670781 -32916558.78673686 -32916558.78673686 -4206772.599390684 0 0 0 0 0 92024693.02299324 -32393727.41281025 -32393727.41281025 -5858910.134793344 0 0 0 0 0 98467685.17108473 -31288424.09568617 -31288424.09568617 -7236014.512781694 0 0 0 0 0 104105915.9798354 -30044695.7641081 -30044695.7641081 -8471429.43419235 0 0 0 0 0 108786129.1268156 -28420163.22475424 -28420163.22475424 -9612380.670428649 0 0 0 0 0 112767126.2998046 -26552659.56128442 -26552659.56128442 -10453901.23716755 0 0 0 0 0 111388714.3852056 -24949914.00804762 -24949914.00804762 -12052794.35726565 0 0 0 0 0 114987199.7644639 -24202728.87875516 -24202728.87875516 -13037338.85397329 0 0 0 0 0 117570132.5826005 -22415386.91638821 -22415386.91638821 -13329639.94301467 0 0 0 0 0 119713854.5273335 -20634917.61844876 -20634917.61844876 -13490666.98873317 0 0 0 0 0 121453421.6369226 -18881297.68491766 -18881297.68491766 -13536551.04867677 0 0 0 0 0 121534270.5900156 -17130888.87994803 -17130888.87994803 -14510101.64050188 0 0 0 0 0 119465520.4898177 -17583491.36850196 -17583491.36850196 -14016389.3228365 0 0 0 0 0 122622234.7798387 -15571977.17521974 -15571977.17521974 -14286883.39067081 0 0 0 0 0 123449123.706055 -14083927.07310415 -14083927.07310415 -14008877.91748125 0 0 0 0 0 124081735.5066866 -12669526.72355344 -12669526.72355344 -13676856.83964747 0 0 0 0 0 124560253.4794632 -11324713.54988426 -11324713.54988426 -13285353.47957887 0 0 0 0 0 124860303.170726 -10057239.16320337 -10057239.16320337 -12874005.50605623 0 0 0 0 0 125006428.0413444 -8882197.628674777 -8882197.628674777 -12447760.4627775 0 0 0 0 0 123304068.4042393 -8171767.457574944 -8171767.457574944 -12149660.57102717 0 0 0 0 0 123896230.1128536 -8129241.660695781 -8129241.660695781 -12641798.13735007 0 0 0 0 0 123882969.1941452 -7134971.121395267 -7134971.121395267 -12157875.52105312 0 0 0 0 0 123789807.1965365 -6211954.473017608 -6211954.473017608 -11676304.04055257 0 0 0 0 0 123634173.6383377 -5351537.037819733 -5351537.037819733 -11188865.11352056 0 0 0 0 0 123425554.4627838 -4551468.098763851 -4551468.098763851 -10701558.75818201 0 0 0 0 0 123164951.346289 -3810374.299057068 -3810374.299057068 -10220221.13328497 0 0 0 0 0 121938280.3230307 -3441084.895332468 -3441084.895332468 -9757545.419227002 0 0 0 0 0 122036205.8335927 -3535351.041243203 -3535351.041243203 -10229037.97570967 0 0 0 0 0 121742385.900495 -2912255.844738686 -2912255.844738686 -9762905.492840409 0 0 0 0 0 119931368.3649562 -3037311.23780676 -3037311.23780676 -9695382.948040903 0 0 0 0 0 119703920.2858706 -2492449.896512375 -2492449.896512375 -9241702.306515647 0 0 0 0 0 118791122.7049847 -2377804.627897973 -2377804.627897973 -9156162.319405925 0 0 0 0 0 119713039.8169369 -2589559.285445264 -2589559.285445264 -9627594.849951813 0 0 0 0 0 118551398.4724277 -1909507.960315489 -1909507.960315489 -8729121.81930387 0 0 0 0 0 118294484.8223658 -1476005.156017679 -1476005.156017679 -8315008.586887709 0 0 0 0 0 118022058.2336749 -1075357.386117492 -1075357.386117492 -7916134.34353306 0 0 0 0 0 117736988.361876 -705399.7361004672 -705399.7361004672 -7530586.963393603 0 0 0 0 0 116935885.0241685 -717174.4093810245 -717174.4093810245 -7471635.766558687 0 0 0 0 0 117628925.0382101 -831192.0675736013 -831192.0675736013 -7899142.942424706 0 0 0 0 0 116659417.1548112 -398447.8772775311 -398447.8772775311 -7113774.812514881 0 0 0 0 0 116377964.8332968 -105690.4956009913 -105690.4956009913 -6769583.371669322 0 0 0 0 0 116087299.9484202 164610.6680659211 164610.6680659211 -6443805.209366301 0 0 0 0 0 115801053.1581109 418740.9690901416 418740.9690901416 -6116875.172396395 0 0 0 0 0 115515249.7289722 654581.0517366031 654581.0517366031 -5801505.721540296 0 0 0 0 0 115343494.8041932 517054.8568490157 517054.8568490157 -6146183.107412847 0 0 0 0 0 114584676.595775 765096.1232871253 765096.1232871253 -5496938.702728781 0 0 0 0 0 115042125.5762959 728328.8401485903 728328.8401485903 -5848783.329098037 0 0 0 0 0 114312358.2298614 950731.8760555283 950731.8760555283 -5224312.320561046 0 0 0 0 0 114041359.6776772 1121009.211564875 1121009.211564875 -4962823.627736232 0 0 0 0 0 113769850.1722936 1275927.555224149 1275927.555224149 -4711437.484591907 0 0 0 0 0 113500242.8547625 1413662.087825705 1413662.087825705 -4474574.193793783 0 0 0 0 0 112964000.2884809 1281677.484563731 1281677.484563731 -4497775.504576799 0 0 0 0 0 113305236.1465502 1274529.651672166 1274529.651672166 -4793290.723696499 0 0 0 0 0 112713726.4219732 1402410.428341356 1402410.428341356 -4279076.267282257 0 0 0 0 0 112468145.8168044 1513735.005168015 1513735.005168015 -4069256.053958401 0 0 0 0 0 112224567.9960345 1620159.899737654 1620159.899737654 -3862764.05646546 0 0 0 0 0 111986737.6928251 1717084.67860742 1717084.67860742 -3664733.753721819 0 0 0 0 0 111751722.7428495 1804707.067432383 1804707.067432383 -3476727.687381269 0 0 0 0 0 111335653.0374744 1760550.366353361 1760550.366353361 -3574759.751391147 0 0 0 0 0 111520089.249224 1884551.129552225 1884551.129552225 -3295717.907877537 0 0 0 0 0 111098595.2021281 1747284.990630008 1747284.990630008 -3338786.100857108 0 0 0 0 0 110885101.9362511 1820120.51504964 1820120.51504964 -3169131.760793323 0 0 0 0 0 110674883.1779043 1886827.838073502 1886827.838073502 -3008225.443436656 0 0 0 0 0 110469829.3383783 1945807.838218555 1945807.838218555 -2853627.334866613 0 0 0 0 0 110194532.2417518 1994604.526953099 1994604.526953099 -2714776.766197556 0 0 0 0 0 110197418.0873986 1997768.677402902 1997768.677402902 -2764520.489065725 0 0 0 0 0 110077580.11744 1951555.977351012 1951555.977351012 -2747255.329674124 0 0 0 0 0 109755508.0886772 1915688.826118331 1915688.826118331 -2606462.675869198 0 0 0 0 0 109587613.089614 1910523.02313919 1910523.02313919 -2551382.317681087 0 0 0 0 0 120673914.3282382 -2629979.932025062 -2629979.932025062 -9286486.982254721 0 0 0 0 0 18466737.64728448 -17584037.99351647 -17584037.99351647 17812107.15134714 0 0 0 0 0 31175146.45692173 -24518542.28411331 -24518542.28411331 19297322.43624297 0 0 0 0 0 32455630.65189471 -23919007.34751701 -23919007.34751701 9664487.042929238 0 0 0 0 0 58687065.96633859 -32469987.03093753 -32469987.03093753 5042646.775242618 0 0 0 0 0 48760840.85323144 -29162404.39915017 -29162404.39915017 7951582.385770164 0 0 0 0 0 68592981.70614593 -33694888.4015054 -33694888.4015054 2070979.258506176 0 0 0 0 0 77479532.06670155 -33969514.99153757 -33969514.99153757 -571408.8171205319 0 0 0 0 0 85364762.37745297 -33503651.63341203 -33503651.63341203 -2939001.547565867 0 0 0 0 0 92415062.01123081 -32622042.24630377 -32622042.24630377 -4888708.879503244 0 0 0 0 0 98490997.60728246 -31110570.1076451 -31110570.1076451 -6552359.778329584 0 0 0 0 0 103744083.9085783 -29404431.80404624 -29404431.80404624 -7992025.443871362 0 0 0 0 0 108273345.976166 -27556706.85434652 -27556706.85434652 -9124749.871812336 0 0 0 0 0 112128090.8492157 -25588607.41609469 -25588607.41609469 -9990255.237937862 0 0 0 0 0 116034754.1953547 -24751084.3795656 -24751084.3795656 -11197016.37711565 0 0 0 0 0 114321291.7515567 -23125202.23647554 -23125202.23647554 -12530670.00886391 0 0 0 0 0 116835148.1228089 -21261352.98592189 -21261352.98592189 -12788333.75617973 0 0 0 0 0 118943639.4590437 -19417388.43146013 -19417388.43146013 -12886908.19135663 0 0 0 0 0 120674713.8102013 -17631201.63647724 -17631201.63647724 -12863300.97575645 0 0 0 0 0 120823744.3485263 -15948815.06757182 -15948815.06757182 -13808937.25605671 0 0 0 0 0 122847137.3745598 -17181444.07639197 -17181444.07639197 -13480212.71985083 0 0 0 0 0 121918101.5717977 -14392631.51419833 -14392631.51419833 -13535821.47251113 0 0 0 0 0 122797256.8876974 -12901522.92669921 -12901522.92669921 -13177291.39001773 0 0 0 0 0 123424200.132504 -11521105.17490767 -11521105.17490767 -12808508.55535102 0 0 0 0 0 123890702.4491457 -10205717.283058 -10205717.283058 -12393898.96060466 0 0 0 0 0 124233888.8621363 -8964699.16053782 -8964699.16053782 -11929354.8122643 0 0 0 0 0 124437427.2323044 -7814163.425896969 -7814163.425896969 -11452283.28854694 0 0 0 0 0 125036697.4820063 -7788863.691768373 -7788863.691768373 -12005133.04774532 0 0 0 0 0 123408163.5137803 -7143783.608667286 -7143783.608667286 -11658045.13664101 0 0 0 0 0 123407457.0528357 -6190281.544762665 -6190281.544762665 -11176759.06779398 0 0 0 0 0 123339750.2752432 -5304689.85803074 -5304689.85803074 -10687661.03257703 0 0 0 0 0 123208908.9420727 -4481270.893238454 -4481270.893238454 -10193944.28115429 0 0 0 0 0 123020827.3131042 -3717046.998465685 -3717046.998465685 -9701576.162462723 0 0 0 0 0 122786037.6104932 -3012094.793759529 -3012094.793759529 -9216524.175942631 0 0 0 0 0 122858036.9485374 -3128849.44123332 -3128849.44123332 -9748152.309880782 0 0 0 0 0 121702824.055776 -2798737.292366521 -2798737.292366521 -9280486.533557326 0 0 0 0 0 121432075.0974753 -2207400.006139277 -2207400.006139277 -8816105.398554644 0 0 0 0 0 120695094.1937179 -2735794.719150876 -2735794.719150876 -9719019.968918048 0 0 0 0 0 120390150.2577448 -2205234.640919742 -2205234.640919742 -9272781.601044944 0 0 0 0 0 119423749.741764 -2098165.32512464 -2098165.32512464 -9194865.043452289 0 0 0 0 0 119452935.0056592 -1988037.848969459 -1988037.848969459 -8800084.21806336 0 0 0 0 0 119118750.3106891 -1643648.05108207 -1643648.05108207 -8774083.405881166 0 0 0 0 0 118800822.5732577 -1223605.675259442 -1223605.675259442 -8365445.658529665 0 0 0 0 0 118476334.6908123 -835959.0828129953 -835959.0828129953 -7969838.609180202 0 0 0 0 0 118143782.2021153 -478321.5733176949 -478321.5733176949 -7587240.917704677 0 0 0 0 0 117316371.3277152 -497105.1642491128 -497105.1642491128 -7531032.631731116 0 0 0 0 0 117444718.8532528 -364668.3731792929 -364668.3731792929 -7157472.581169123 0 0 0 0 0 116995634.6660255 -192079.3667780786 -192079.3667780786 -7178301.537681826 0 0 0 0 0 116670736.3485128 88767.3732123282 88767.3732123282 -6836591.042534532 0 0 0 0 0 116361359.0613091 351342.8211305901 351342.8211305901 -6503515.171740578 0 0 0 0 0 116035911.2773682 596992.2008995219 596992.2008995219 -6176402.528551101 0 0 0 0 0 115709900.591841 822332.575117135 822332.575117135 -5865632.309940858 0 0 0 0 0 115224797.1542084 869189.4779925643 869189.4779925643 -5501311.280269098 0 0 0 0 0 114746394.8433641 922464.8617788627 922464.8617788627 -5565126.975761658 0 0 0 0 0 114939255.1641728 1066888.931266602 1066888.931266602 -5215181.799043904 0 0 0 0 0 114454839.7955357 1099878.179530687 1099878.179530687 -5291501.560820132 0 0 0 0 0 114160117.3314326 1259557.286790557 1259557.286790557 -5030884.031495386 0 0 0 0 0 113866835.1049858 1403094.96135382 1403094.96135382 -4782022.577339409 0 0 0 0 0 113572078.3516579 1532770.498464221 1532770.498464221 -4546098.198120331 0 0 0 0 0 113037335.9287875 1400239.014296184 1400239.014296184 -4567179.272750172 0 0 0 0 0 113233943.238771 1538767.029934476 1538767.029934476 -4250269.346756186 0 0 0 0 0 112775138.0167717 1516302.038112685 1516302.038112685 -4348013.288173658 0 0 0 0 0 112516861.235952 1625126.767514317 1625126.767514317 -4134304.367638825 0 0 0 0 0 112262763.1623965 1725298.131485544 1725298.131485544 -3925395.666874658 0 0 0 0 0 112012350.996258 1816405.958607263 1816405.958607263 -3727477.41039186 0 0 0 0 0 111766228.0356753 1897845.554113521 1897845.554113521 -3538842.961855603 0 0 0 0 0 111291867.2283571 1957541.790945103 1957541.790945103 -3121041.993743442 0 0 0 0 0 111524789.4266444 1972707.781165053 1972707.781165053 -3356073.859326058 0 0 0 0 0 111108942.2885884 1835212.095448897 1835212.095448897 -3396090.045302498 0 0 0 0 0 110886293.641786 1902765.005698122 1902765.005698122 -3225057.297044114 0 0 0 0 0 110667536.0060564 1963130.509159283 1963130.509159283 -3061876.342450693 0 0 0 0 0 110444207.746738 2013859.113264558 2013859.113264558 -2909606.490559042 0 0 0 0 0 110209082.9172846 2061001.991033792 2061001.991033792 -2758679.678865525 0 0 0 0 0 109969042.9054583 2026871.73221577 2026871.73221577 -2696590.805314471 0 0 0 0 0 109777208.9469639 1982242.42616961 1982242.42616961 -2658881.934260784 0 0 0 0 0 109603018.6827091 1948097.879922119 1948097.879922119 -2663083.862552848 0 0 0 0 0 109399531.3686934 1935078.485003435 1935078.485003435 -2588375.475265934 0 0 0 0 0 121421601.0220581 -2337079.440111892 -2337079.440111892 -9306794.752903318 0 0 0 0 0 18414968.59226199 -20343251.48276246 -20343251.48276246 19665595.1034641 0 0 0 0 0 40826478.09115469 -29472408.90090531 -29472408.90090531 18275795.40317933 0 0 0 0 0 61942996.88537478 -32265574.98961302 -32265574.98961302 5661588.12256527 0 0 0 0 0 52885761.05780624 -32837009.899863 -32837009.899863 13119669.07023356 0 0 0 0 0 72984641.24646072 -33678854.18330755 -33678854.18330755 3114624.693974304 0 0 0 0 0 82486828.52131505 -34028042.27880488 -34028042.27880488 668544.3853263977 0 0 0 0 0 90743096.31030163 -33572800.06427044 -33572800.06427044 -1605285.571778149 0 0 0 0 0 97882984.65486133 -32468724.31569804 -32468724.31569804 -3519806.454183066 0 0 0 0 0 104124739.0831364 -31166310.29882865 -31166310.29882865 -5173923.294972432 0 0 0 0 0 109260437.0508707 -29419950.06880494 -29419950.06880494 -6683268.507942836 0 0 0 0 0 113566886.9312243 -27470903.84554635 -27470903.84554635 -7911963.036325572 0 0 0 0 0 117126814.9395304 -25469925.85062797 -25469925.85062797 -8877892.260868585 0 0 0 0 0 115326304.9899506 -23555426.46135058 -23555426.46135058 -10630640.22896134 0 0 0 0 0 118723647.844756 -22843768.53251781 -22843768.53251781 -11690534.68096785 0 0 0 0 0 120974381.945926 -20953899.44231863 -20953899.44231863 -12008272.48006469 0 0 0 0 0 122786674.7118249 -19096743.87887224 -19096743.87887224 -12185596.00501766 0 0 0 0 0 124223975.6653637 -17298883.56734283 -17298883.56734283 -12240275.39782308 0 0 0 0 0 123940669.9864736 -15547461.04044978 -15547461.04044978 -13335969.98377825 0 0 0 0 0 122073325.8481176 -15916414.24638906 -15916414.24638906 -12736449.95715937 0 0 0 0 0 124798516.7332812 -13975606.08726563 -13975606.08726563 -13096262.59822168 0 0 0 0 0 125387374.9821354 -12519206.35576926 -12519206.35576926 -12832073.25747969 0 0 0 0 0 125800263.1104485 -11138986.27976132 -11138986.27976132 -12495032.21083933 0 0 0 0 0 126087572.0112192 -9813244.500041965 -9813244.500041965 -12104736.25393355 0 0 0 0 0 126213843.0969902 -8588718.393526524 -8588718.393526524 -11694850.45918101 0 0 0 0 0 126199134.4943874 -7456141.965062998 -7456141.965062998 -11274467.95817354 0 0 0 0 0 124506681.4224133 -6756795.951176076 -6756795.951176076 -10975235.96298856 0 0 0 0 0 124961405.845542 -6777724.898954182 -6777724.898954182 -11560031.58971656 0 0 0 0 0 124820910.2394875 -5834674.171777973 -5834674.171777973 -11091429.8177481 0 0 0 0 0 124611957.693603 -4961122.815363044 -4961122.815363044 -10615978.41754803 0 0 0 0 0 124351589.7291671 -4152202.305917466 -4152202.305917466 -10137766.19844943 0 0 0 0 0 124048192.9860861 -3403705.140649193 -3403705.140649193 -9663488.707243282 0 0 0 0 0 123703331.1682091 -2712427.579623452 -2712427.579623452 -9193055.402260935 0 0 0 0 0 122516396.6962794 -2362702.970307628 -2362702.970307628 -8738872.871180363 0 0 0 0 0 122522251.4571268 -2502297.72160713 -2502297.72160713 -9285868.146113949 0 0 0 0 0 122161061.8611173 -1926057.143802388 -1926057.143802388 -8832869.405614369 0 0 0 0 0 120412584.4397509 -2085203.579692259 -2085203.579692259 -8832202.488776349 0 0 0 0 0 120126724.7868042 -1582741.820910172 -1582741.820910172 -8391406.992285719 0 0 0 0 0 119181452.2674137 -1522169.853906111 -1522169.853906111 -8371737.880822484 0 0 0 0 0 120066688.7828484 -1715063.398820138 -1715063.398820138 -8838762.163717441 0 0 0 0 0 118893253.7817559 -1092320.325766914 -1092320.325766914 -7957401.818575222 0 0 0 0 0 118592140.3498121 -697179.4779732301 -697179.4779732301 -7556426.008271996 0 0 0 0 0 118278054.6805847 -334240.1286025703 -334240.1286025703 -7174642.527717423 0 0 0 0 0 117954672.9477845 -110.6707354458728 -110.6707354458728 -6805443.557875508 0 0 0 0 0 117145245.6523296 -49678.23505121945 -49678.23505121945 -6799026.347495456 0 0 0 0 0 117801822.4637142 -149942.2956018873 -149942.2956018873 -7217777.18634575 0 0 0 0 0 116835991.4864015 235884.0977175557 235884.0977175557 -6457169.513311429 0 0 0 0 0 116526753.235378 496350.3200033291 496350.3200033291 -6130362.483759308 0 0 0 0 0 116199927.3246414 736483.4764711772 736483.4764711772 -5819086.6077227 0 0 0 0 0 115899553.721835 972303.958985424 972303.958985424 -5492783.738785145 0 0 0 0 0 115596629.8360216 1183913.245703317 1183913.245703317 -5190997.76842578 0 0 0 0 0 115395133.7958757 1031557.609872259 1031557.609872259 -5565287.336479823 0 0 0 0 0 114648102.1191155 1243750.747621319 1243750.747621319 -4942978.635855891 0 0 0 0 0 115078197.2770716 1217334.216829643 1217334.216829643 -5285166.561455088 0 0 0 0 0 114355425.2987276 1403741.989097513 1403741.989097513 -4687658.998726714 0 0 0 0 0 114068258.0822188 1549969.246262523 1549969.246262523 -4440675.163643549 0 0 0 0 0 113781131.6055971 1682313.488114083 1682313.488114083 -4205112.154293638 0 0 0 0 0 113504017.3663905 1800464.074392128 1800464.074392128 -3980429.614662854 0 0 0 0 0 112972055.5861119 1653738.47493204 1653738.47493204 -4033456.823643272 0 0 0 0 0 113295235.4060089 1654162.040233721 1654162.040233721 -4318914.628476442 0 0 0 0 0 112711423.6443809 1759360.695043481 1759360.695043481 -3824020.521699865 0 0 0 0 0 112458906.2881682 1859084.327511505 1859084.327511505 -3619940.118620961 0 0 0 0 0 112209695.5010455 1950195.784161998 1950195.784161998 -3424001.46033801 0 0 0 0 0 111964650.3929793 2032156.733603532 2032156.733603532 -3237623.927596095 0 0 0 0 0 111721393.1490005 2104966.497427611 2104966.497427611 -3059399.719110206 0 0 0 0 0 111288650.8463087 2041783.577660179 2041783.577660179 -3179138.454516547 0 0 0 0 0 111483226.3184037 2171756.835445255 2171756.835445255 -2887269.674890135 0 0 0 0 0 111068821.0721551 2024350.042757757 2024350.042757757 -2952464.871107028 0 0 0 0 0 110849795.6805571 2084294.131222027 2084294.131222027 -2790624.551201268 0 0 0 0 0 110634227.9761114 2137908.400911567 2137908.400911567 -2635588.136711838 0 0 0 0 0 110415160.4756891 2195222.745124633 2195222.745124633 -2489196.332594674 0 0 0 0 0 110299691.2980533 2206510.820069342 2206510.820069342 -2437218.154160513 0 0 0 0 0 110102815.741468 2182112.861640733 2182112.861640733 -2402568.406255761 0 0 0 0 0 109921257.6701978 2136260.626506758 2136260.626506758 -2369668.089215964 0 0 0 0 0 109719076.6957682 2118252.758366925 2118252.758366925 -2293827.719150634 0 0 0 0 0 121133389.7988857 -1663168.715741795 -1663168.715741795 -8364517.93779824 0 0 0 0 0 25775306.40431685 -24214265.44657725 -24214265.44657725 25670869.6784022 0 0 0 0 0 40604426.77792084 -29423508.33632458 -29423508.33632458 18192694.81113971 0 0 0 0 0 64425864.26235781 -34558333.13324509 -34558333.13324509 8810946.20625831 0 0 0 0 0 56545956.36725299 -33595260.05673957 -33595260.05673957 14517076.04759279 0 0 0 0 0 74498182.24070677 -35092700.60336816 -35092700.60336816 5133348.417949055 0 0 0 0 0 83353859.93149601 -34790961.40290938 -34790961.40290938 1987696.139989473 0 0 0 0 0 91189882.06798054 -33876384.49876993 -33876384.49876993 -628733.2252731291 0 0 0 0 0 97911262.59940362 -32318383.36325957 -32318383.36325957 -2903080.337687066 0 0 0 0 0 103706052.1262057 -30493398.14812894 -30493398.14812894 -4816008.506604621 0 0 0 0 0 108646819.4186915 -28486166.6501885 -28486166.6501885 -6345319.198671724 0 0 0 0 0 112827292.7827182 -26369554.26013079 -26369554.26013079 -7540984.151511235 0 0 0 0 0 116274123.295363 -24191385.41823016 -24191385.41823016 -8457704.70143996 0 0 0 0 0 119999386.6643407 -23455221.41972204 -23455221.41972204 -9670843.036809148 0 0 0 0 0 117944103.9803686 -21590451.33231384 -21590451.33231384 -11116478.8681595 0 0 0 0 0 120146229.9498 -19630005.26242713 -19630005.26242713 -11382017.50712003 0 0 0 0 0 121937613.0672166 -17747744.97217698 -17747744.97217698 -11495047.20074125 0 0 0 0 0 123386710.3838024 -15940372.73254929 -15940372.73254929 -11467625.49209166 0 0 0 0 0 123185498.4150966 -14281505.46157943 -14281505.46157943 -12524083.2152183 0 0 0 0 0 125333822.1101002 -15572431.51953243 -15572431.51953243 -12187947.52445645 0 0 0 0 0 124044854.2910773 -12732303.34030218 -12732303.34030218 -12240980.23185594 0 0 0 0 0 124692970.4911472 -11277231.14675518 -11277231.14675518 -11904237.40615646 0 0 0 0 0 125138220.6633333 -9931473.977307023 -9931473.977307023 -11531769.07451404 0 0 0 0 0 125422868.2067373 -8657447.628821436 -8657447.628821436 -11101615.2679414 0 0 0 0 0 125596102.9613805 -7462979.850490818 -7462979.850490818 -10646427.52781023 0 0 0 0 0 125637592.1034808 -6370004.042047564 -6370004.042047564 -10187232.36464306 0 0 0 0 0 126089068.7147325 -6409636.223700553 -6409636.223700553 -10835767.25352878 0 0 0 0 0 124480044.0336172 -5781972.829492574 -5781972.829492574 -10493133.6936291 0 0 0 0 0 124353491.6666567 -4883598.171549139 -4883598.171549139 -10021852.50909194 0 0 0 0 0 124171246.6422523 -4051235.488702035 -4051235.488702035 -9548718.682070309 0 0 0 0 0 123939172.4689424 -3281878.074903211 -3281878.074903211 -9071521.571788399 0 0 0 0 0 123656886.1196408 -2572238.115308941 -2572238.115308941 -8598497.879457386 0 0 0 0 0 123338823.1667468 -1918956.180615749 -1918956.180615749 -8130496.565556056 0 0 0 0 0 123318420.3966246 -2081829.743398407 -2081829.743398407 -8737832.77983674 0 0 0 0 0 122205372.6933597 -1770840.107412704 -1770840.107412704 -8279882.231549366 0 0 0 0 0 121867170.1375979 -1228041.33115793 -1228041.33115793 -7834188.985773173 0 0 0 0 0 121079063.0174481 -1806999.486064144 -1806999.486064144 -8862281.488106646 0 0 0 0 0 120719655.1843051 -1318785.743176647 -1318785.743176647 -8428991.93546306 0 0 0 0 0 119728540.418784 -1262955.880273516 -1262955.880273516 -8416958.096035317 0 0 0 0 0 119821820.0515141 -1119924.659970862 -1119924.659970862 -7964249.739748884 0 0 0 0 0 119379729.447833 -846509.3953033844 -846509.3953033844 -8007997.681067981 0 0 0 0 0 119020247.6450152 -464439.4930615651 -464439.4930615651 -7613473.313669398 0 0 0 0 0 118663499.0783646 -113968.3369547494 -113968.3369547494 -7234458.808433997 0 0 0 0 0 118294811.1916295 206389.3922822391 206389.3922822391 -6865530.710408366 0 0 0 0 0 117458473.151896 148798.2074719041 148798.2074719041 -6866602.622544441 0 0 0 0 0 117630935.2818894 307373.8778638943 307373.8778638943 -6446888.799530091 0 0 0 0 0 117108169.9931777 422887.7269357528 422887.7269357528 -6526230.854967825 0 0 0 0 0 116756690.1445446 671985.2717817302 671985.2717817302 -6203185.021837398 0 0 0 0 0 116432603.7100409 915632.0296030313 915632.0296030313 -5871393.716246346 0 0 0 0 0 116090451.5434231 1140885.436330881 1140885.436330881 -5552368.546748117 0 0 0 0 0 115750011.484583 1343299.437829084 1343299.437829084 -5254736.586331423 0 0 0 0 0 115290486.2821918 1375514.100025621 1375514.100025621 -4901949.601243274 0 0 0 0 0 114761959.0893992 1384990.517401104 1384990.517401104 -5014390.393679659 0 0 0 0 0 114982601.6852083 1545213.321663665 1545213.321663665 -4633399.007897816 0 0 0 0 0 114455749.6503355 1536437.895053637 1536437.895053637 -4758725.708656042 0 0 0 0 0 114151719.4426936 1674742.365072218 1674742.365072218 -4511119.778258409 0 0 0 0 0 113848710.9969251 1799315.823924531 1799315.823924531 -4275095.592078078 0 0 0 0 0 113547871.7535406 1912700.496064007 1912700.496064007 -4050877.33834218 0 0 0 0 0 113020514.1106747 1764634.896937551 1764634.896937551 -4100875.494205286 0 0 0 0 0 113225956.3759855 1908078.460413036 1908078.460413036 -3766775.570015832 0 0 0 0 0 112747955.4783493 1866302.257441483 1866302.257441483 -3888864.237326376 0 0 0 0 0 112481906.1162389 1960252.678257953 1960252.678257953 -3683331.807319593 0 0 0 0 0 112221076.5862405 2044983.108258487 2044983.108258487 -3487308.240506033 0 0 0 0 0 111963264.8415338 2120321.040378605 2120321.040378605 -3300228.317006893 0 0 0 0 0 111711714.2135466 2189458.509334523 2189458.509334523 -3119979.842241032 0 0 0 0 0 111250392.0558705 2232918.947778429 2232918.947778429 -2720973.636340131 0 0 0 0 0 111466056.1464159 2252343.122628479 2252343.122628479 -2946193.549168853 0 0 0 0 0 111056824.7009545 2104116.895668047 2104116.895668047 -3009556.213782848 0 0 0 0 0 110829214.3695867 2159725.311562166 2159725.311562166 -2846824.790442542 0 0 0 0 0 110606230.0889465 2208946.166696386 2208946.166696386 -2690573.189840124 0 0 0 0 0 110402842.4107163 2258537.782701073 2258537.782701073 -2537634.905851617 0 0 0 0 0 110052334.9181821 2227579.939587644 2227579.939587644 -2375493.352223664 0 0 0 0 0 109889546.0524746 2185183.402291622 2185183.402291622 -2399600.649641766 0 0 0 0 0 109672291.3834743 2156961.143251663 2156961.143251663 -2395167.300658823 0 0 0 0 0 109489048.7539068 2144013.089592353 2144013.089592353 -2328263.40008627 0 0 0 0 0 121779397.0048178 -1396461.536252601 -1396461.536252601 -8391175.608398238 0 0 0 0 0 27713881.47998444 -28662883.60622559 -28662883.60622559 28426120.58052352 0 0 0 0 0 45082466.03618685 -33492407.03537075 -33492407.03537075 22575312.4081136 0 0 0 0 0 69124626.15600371 -35226714.52401448 -35226714.52401448 10383325.88525162 0 0 0 0 0 58897732.59527514 -35985330.02279443 -35985330.02279443 16844628.85168424 0 0 0 0 0 79836518.98038097 -35639209.20664088 -35639209.20664088 6782849.391375436 0 0 0 0 0 89107752.37168531 -35226710.40375598 -35226710.40375598 3676392.851238667 0 0 0 0 0 97141557.6842293 -34108243.79313253 -34108243.79313253 1050076.238559358 0 0 0 0 0 104068182.7975288 -32676313.66478556 -32676313.66478556 -1188609.927127049 0 0 0 0 0 109711940.6094775 -30763704.36102748 -30763704.36102748 -3200615.418552944 0 0 0 0 0 114395612.9236893 -28652602.05057634 -28652602.05057634 -4854596.544347228 0 0 0 0 0 118244249.6596015 -26458956.22173347 -26458956.22173347 -6186092.476763887 0 0 0 0 0 121353476.1339748 -24232049.58572146 -24232049.58572146 -7235568.392967159 0 0 0 0 0 119137566.5505983 -22052819.54030534 -22052819.54030534 -9122310.74826763 0 0 0 0 0 122323624.3858077 -21396408.87121978 -21396408.87121978 -10214577.30644512 0 0 0 0 0 124207409.2690056 -19424780.20982127 -19424780.20982127 -10571019.32005535 0 0 0 0 0 125677534.330512 -17498514.64180057 -17498514.64180057 -10769628.01040617 0 0 0 0 0 126808287.5191196 -15656924.28456779 -15656924.28456779 -10826223.56006551 0 0 0 0 0 126165823.8213548 -13930121.01061089 -13930121.01061089 -12043547.94089933 0 0 0 0 0 124526748.6582566 -14212854.8807839 -14212854.8807839 -11330709.10049926 0 0 0 0 0 126755215.0288153 -12391010.30377027 -12391010.30377027 -11826045.57791643 0 0 0 0 0 127132697.3966597 -10939606.10904067 -10939606.10904067 -11557567.55467461 0 0 0 0 0 127353657.5909807 -9577888.486576 -9577888.486576 -11213247.22635511 0 0 0 0 0 127446209.3782077 -8308884.783998735 -8308884.783998735 -10825802.87518901 0 0 0 0 0 127398156.5453393 -7132151.727088522 -7132151.727088522 -10430830.82945736 0 0 0 0 0 127236997.2814942 -6054427.025589977 -6054427.025589977 -10018163.92597988 0 0 0 0 0 125566394.8919454 -5367334.740045524 -5367334.740045524 -9722207.23548097 0 0 0 0 0 125883883.5698818 -5453401.509625751 -5453401.509625751 -10399745.46776776 0 0 0 0 0 125626364.6928987 -4565803.537055247 -4565803.537055247 -9947104.333745621 0 0 0 0 0 125308161.8311565 -3745416.528210129 -3745416.528210129 -9486216.791145585 0 0 0 0 0 124946219.0594824 -2989680.816209564 -2989680.816209564 -9024755.679270418 0 0 0 0 0 124557957.8108451 -2292488.002387941 -2292488.002387941 -8566413.013170548 0 0 0 0 0 124133295.0606379 -1654446.587039256 -1654446.587039256 -8115252.805069561 0 0 0 0 0 122992259.1519748 -1323153.843330459 -1323153.843330459 -7675369.86203326 0 0 0 0 0 122913700.9785467 -1504293.429284008 -1504293.429284008 -8291502.222363795 0 0 0 0 0 122490713.7268605 -975594.7736093946 -975594.7736093946 -7856285.194883083 0 0 0 0 0 120811941.3434975 -1163204.814168121 -1163204.814168121 -7926577.377648235 0 0 0 0 0 120471892.3190482 -704172.2531210649 -704172.2531210649 -7502886.978622767 0 0 0 0 0 119501373.1279663 -694471.399161772 -694471.399161772 -7550950.751458414 0 0 0 0 0 120346960.7237444 -869755.6871149727 -869755.6871149727 -8008586.247620113 0 0 0 0 0 119168584.8393798 -304235.7073327674 -304235.7073327674 -7152937.577646827 0 0 0 0 0 118829492.9207791 51562.90516561362 51562.90516561362 -6770858.687454395 0 0 0 0 0 118470926.2054022 374532.3269881246 374532.3269881246 -6410418.453564968 0 0 0 0 0 118114652.6252016 673774.6833567568 673774.6833567568 -6058178.001169436 0 0 0 0 0 117293754.2547904 584529.9009467646 584529.9009467646 -6106966.537494469 0 0 0 0 0 117917362.5542439 498437.3442912262 498437.3442912262 -6514070.637554292 0 0 0 0 0 116960078.7247427 838821.7161406076 838821.7161406076 -5780126.903677225 0 0 0 0 0 116628268.009156 1073185.399000793 1073185.399000793 -5472409.36625223 0 0 0 0 0 116281896.2539445 1293755.476884281 1293755.476884281 -5156847.958453504 0 0 0 0 0 115962966.8509443 1505071.049652922 1505071.049652922 -4849951.136950828 0 0 0 0 0 115639947.9292023 1690600.3951363 1690600.3951363 -4563119.405876601 0 0 0 0 0 115410654.5506671 1520849.32051413 1520849.32051413 -4972931.639604217 0 0 0 0 0 114681770.4177706 1699447.603550904 1699447.603550904 -4378776.857062333 0 0 0 0 0 115083091.0976276 1683330.779684559 1683330.779684559 -4703272.891058701 0 0 0 0 0 114370927.7439993 1832913.22451986 1832913.22451986 -4141666.924168587 0 0 0 0 0 114066197.4153166 1956037.093680747 1956037.093680747 -3910711.812021599 0 0 0 0 0 113766229.834824 2066315.488211544 2066315.488211544 -3688810.085974641 0 0 0 0 0 113483464.2638706 2170363.351414099 2170363.351414099 -3475273.799552653 0 0 0 0 0 112954689.94149 2009070.010337195 2009070.010337195 -3559021.276224789 0 0 0 0 0 113259480.2241357 2015569.164723312 2015569.164723312 -3834066.968829803 0 0 0 0 0 112691193.9322586 2103235.524341172 2103235.524341172 -3356622.282084661 0 0 0 0 0 112430716.9159426 2187279.930922843 2187279.930922843 -3163098.976142445 0 0 0 0 0 112173395.9088182 2262300.354689204 2262300.354689204 -2979568.700088366 0 0 0 0 0 111920387.2870026 2329597.422743744 2329597.422743744 -2804162.899103086 0 0 0 0 0 111672680.5026899 2390531.356909477 2390531.356909477 -2635313.815609077 0 0 0 0 0 111225523.9846438 2308925.465243574 2308925.465243574 -2778567.864750443 0 0 0 0 0 111430132.2584951 2445177.107635492 2445177.107635492 -2473066.571484543 0 0 0 0 0 111022058.0954093 2287582.128699134 2287582.128699134 -2561122.912761711 0 0 0 0 0 110797901.1511404 2336030.247244916 2336030.247244916 -2406591.189378207 0 0 0 0 0 110577808.0925242 2379151.699898041 2379151.699898041 -2257640.516407859 0 0 0 0 0 110324306.5004955 2419931.454911698 2419931.454911698 -2126486.298696686 0 0 0 0 0 110196847.3195527 2355692.305927529 2355692.305927529 -2136830.602279178 0 0 0 0 0 110236528.3547615 2362404.149586335 2362404.149586335 -2276650.636576757 0 0 0 0 0 109989051.8202536 2346112.678916822 2346112.678916822 -2093485.519374102 0 0 0 0 0 109778070.0787948 2318634.154060897 2318634.154060897 -2047724.446131712 0 0 0 0 0 121507549.2353771 -730811.7943205945 -730811.7943205945 -7401929.118235406 0 0 0 0 0 33225985.86527464 -31375764.15628192 -31375764.15628192 32025013.40821617 0 0 0 0 0 49498362.05140666 -35288142.7251106 -35288142.7251106 24909555.40655925 0 0 0 0 0 70702092.1141194 -36839100.16663714 -36839100.16663714 12038836.84439253 0 0 0 0 0 64404279.85861936 -37395092.97973862 -37395092.97973862 19128968.14795869 0 0 0 0 0 80778259.46502388 -36562630.50836904 -36562630.50836904 7871680.408828393 0 0 0 0 0 89515975.66979882 -35560140.65396703 -35560140.65396703 4362936.86478574 0 0 0 0 0 97098540.49072267 -33963673.93340187 -33963673.93340187 1409303.815346553 0 0 0 0 0 103547883.3510159 -31936145.76196961 -31936145.76196961 -1066872.943649922 0 0 0 0 0 108966430.4272793 -29724321.05948022 -29724321.05948022 -3090478.964231127 0 0 0 0 0 113503827.1827165 -27401871.16516417 -27401871.16516417 -4693602.669009357 0 0 0 0 0 117251139.8602918 -25044938.82354971 -25044938.82354971 -5930852.929258993 0 0 0 0 0 120322733.7287445 -22709625.29796789 -22709625.29796789 -6854380.560712193 0 0 0 0 0 123832104.773615 -22016505.47839474 -22016505.47839474 -8048764.277920654 0 0 0 0 0 121436640.0875493 -19941307.8133128 -19941307.8133128 -9584539.552376378 0 0 0 0 0 123282617.8240364 -17962232.77087062 -17962232.77087062 -9883517.025051918 0 0 0 0 0 124793057.5835477 -16032226.70470659 -16032226.70470659 -9967281.205424996 0 0 0 0 0 125956666.0011837 -14195925.96492667 -14195925.96492667 -9926812.65795232 0 0 0 0 0 125385723.9141306 -12589839.53360876 -12589839.53360876 -11115889.23459694 0 0 0 0 0 127634280.7256408 -13926019.91937026 -13926019.91937026 -10779359.41014418 0 0 0 0 0 125995851.4256704 -11079136.46340968 -11079136.46340968 -10847804.24407943 0 0 0 0 0 126435663.2591652 -9666702.702555049 -9666702.702555049 -10503944.39191986 0 0 0 0 0 126705692.1726616 -8341002.930622851 -8341002.930622851 -10128187.54403693 0 0 0 0 0 126824847.8480539 -7104818.219329523 -7104818.219329523 -9701529.332710035 0 0 0 0 0 126804827.3599788 -5984202.802348021 -5984202.802348021 -9279445.387346979 0 0 0 0 0 126689252.1683343 -4955831.361768336 -4955831.361768336 -8844579.301096037 0 0 0 0 0 126984664.2700932 -5067560.316550184 -5067560.316550184 -9595810.466841424 0 0 0 0 0 125410178.5458627 -4452952.284037623 -4452952.284037623 -9262659.685818674 0 0 0 0 0 125168095.5023115 -3609843.526436823 -3609843.526436823 -8806436.476877162 0 0 0 0 0 124881029.4012666 -2833074.300775343 -2833074.300775343 -8350642.761738096 0 0 0 0 0 124554485.8604669 -2119935.233602223 -2119935.233602223 -7895789.746914659 0 0 0 0 0 124184397.2683813 -1466527.244818871 -1466527.244818871 -7444259.041327927 0 0 0 0 0 123788386.5178009 -868376.1902910186 -868376.1902910186 -7001063.971605284 0 0 0 0 0 123679723.2182144 -1073915.718535088 -1073915.718535088 -7679033.072531765 0 0 0 0 0 122613507.2265068 -781328.4066070312 -781328.4066070312 -7237344.545400186 0 0 0 0 0 122213507.905114 -287494.6943199725 -287494.6943199725 -6814136.938716912 0 0 0 0 0 121381986.4331886 -910607.294652065 -910607.294652065 -7961887.812966242 0 0 0 0 0 120972968.379684 -465380.1369086588 -465380.1369086588 -7545248.863233017 0 0 0 0 0 119964068.5155154 -457490.5937529843 -457490.5937529843 -7601380.920077234 0 0 0 0 0 120117551.5506756 -283450.9182893662 -283450.9182893662 -7093807.015788591 0 0 0 0 0 119576087.1906492 -79781.94878969587 -79781.94878969587 -7208275.338417086 0 0 0 0 0 119176889.7460616 259792.7847568182 259792.7847568182 -6836204.040561972 0 0 0 0 0 118785246.7445133 570943.2377080584 570943.2377080584 -6473388.860660154 0 0 0 0 0 118388316.2024189 858246.740277708 858246.740277708 -6121421.693321259 0 0 0 0 0 117545291.7130531 766388.5901490535 766388.5901490535 -6175440.355477558 0 0 0 0 0 117760717.5241067 947774.7721683359 947774.7721683359 -5716999.926849746 0 0 0 0 0 117174404.3213654 1011582.647285512 1011582.647285512 -5852813.770298953 0 0 0 0 0 116810007.8517163 1237049.699958807 1237049.699958807 -5539012.811759615 0 0 0 0 0 116456026.0033024 1461580.267827938 1461580.267827938 -5207888.605599375 0 0 0 0 0 116099098.713993 1658214.128084217 1658214.128084217 -4916134.12583409 0 0 0 0 0 115743394.3604812 1830589.332172152 1830589.332172152 -4633038.541028221 0 0 0 0 0 115316545.4150096 1853578.090926772 1853578.090926772 -4296091.192702741 0 0 0 0 0 114759983.4525284 1826000.367446298 1826000.367446298 -4455444.807204271 0 0 0 0 0 114994791.1876421 1996141.789232181 1996141.789232181 -4045414.769460543 0 0 0 0 0 114433373.7752421 1951694.564302954 1951694.564302954 -4213296.744256058 0 0 0 0 0 114114560.6624649 2067832.002277286 2067832.002277286 -3980642.10602419 0 0 0 0 0 113804827.0845545 2175995.918050215 2175995.918050215 -3756956.579828484 0 0 0 0 0 113498546.416888 2272646.475122694 2272646.475122694 -3542843.632735045 0 0 0 0 0 112976670.7219219 2111593.43673263 2111593.43673263 -3623436.710728247 0 0 0 0 0 113201201.8420485 2265738.958501521 2265738.958501521 -3270318.675715885 0 0 0 0 0 112698305.3769283 2199550.150824824 2199550.150824824 -3420365.104182267 0 0 0 0 0 112425999.2080197 2277838.019120347 2277838.019120347 -3226868.005028446 0 0 0 0 0 112158391.2934139 2346843.621931942 2346843.621931942 -3042124.567487653 0 0 0 0 0 111896300.8914085 2409212.676806348 2409212.676806348 -2865045.752741561 0 0 0 0 0 111640695.1375231 2465591.693000141 2465591.693000141 -2694325.053262323 0 0 0 0 0 111192496.1186296 2493945.705911716 2493945.705911716 -2317562.342732105 0 0 0 0 0 111391104.3203413 2515959.615364598 2515959.615364598 -2530595.408095674 0 0 0 0 0 110990075.6941586 2359662.584097722 2359662.584097722 -2617764.558493116 0 0 0 0 0 110760094.3414566 2405383.149541973 2405383.149541973 -2462767.156697396 0 0 0 0 0 110538493.2770457 2448274.815667873 2448274.815667873 -2310904.80067044 0 0 0 0 0 110344002.4119368 2496812.912035035 2496812.912035035 -2154720.130833421 0 0 0 0 0 109929719.2501864 2366229.744287593 2366229.744287593 -2196767.348974112 0 0 0 0 0 110161420.407885 2498283.727844488 2498283.727844488 -1951828.719072091 0 0 0 0 0 109756121.8596971 2358626.014255471 2358626.014255471 -2110825.095335343 0 0 0 0 0 109565456.5052706 2338999.869417979 2338999.869417979 -2074801.11616666 0 0 0 0 0 122053488.0023976 -492270.6438309712 -492270.6438309712 -7433241.626157039 0 0 0 0 0 35618277.75836367 -35113646.66596401 -35113646.66596401 33860657.75900003 0 0 0 0 0 52383426.77056704 -38269478.7441076 -38269478.7441076 26844174.36334204 0 0 0 0 0 76686806.57286897 -37965585.63316546 -37965585.63316546 14235111.82788167 0 0 0 0 0 66142111.07834936 -39323511.12631012 -39323511.12631012 20386305.834358 0 0 0 0 0 87205847.60199328 -37525111.77973432 -37525111.77973432 10064477.51074301 0 0 0 0 0 96166276.30818798 -36338421.73552 -36338421.73552 6503989.776667094 0 0 0 0 0 103809440.9875036 -34609465.32321145 -34609465.32321145 3497476.82780341 0 0 0 0 0 110180316.973196 -32548313.08644607 -32548313.08644607 932041.2865442627 0 0 0 0 0 115277969.245894 -30191297.89036293 -30191297.89036293 -1264004.391884618 0 0 0 0 0 119431614.985422 -27746194.44742409 -27746194.44742409 -3042662.735625777 0 0 0 0 0 122773239.4155003 -25282127.05599834 -25282127.05599834 -4450449.106303344 0 0 0 0 0 125419875.9381864 -22851853.46339542 -22851853.46339542 -5540300.039301566 0 0 0 0 0 122816713.6605324 -20440615.60781929 -20440615.60781929 -7512796.661125581 0 0 0 0 0 125733634.927767 -19890933.33524138 -19890933.33524138 -8660878.396224391 0 0 0 0 0 127249937.712751 -17802329.86837474 -17802329.86837474 -9023788.991620004 0 0 0 0 0 128407308.3928873 -15836265.35479094 -15836265.35479094 -9213286.475543072 0 0 0 0 0 129213047.5692181 -13993417.10178624 -13993417.10178624 -9287069.792723224 0 0 0 0 0 128186844.3049223 -12305393.25352129 -12305393.25352129 -10651724.28661978 0 0 0 0 0 126811362.193768 -12486428.83406776 -12486428.83406776 -9802934.655497612 0 0 0 0 0 128542786.7432411 -10777242.05201597 -10777242.05201597 -10432985.99186129 0 0 0 0 0 128715136.5593457 -9354534.255084226 -9354534.255084226 -10156068.41730398 0 0 0 0 0 128760345.1171031 -8027309.115303051 -8027309.115303051 -9813729.290234033 0 0 0 0 0 128647400.6850758 -6822915.808280754 -6822915.808280754 -9456508.300577926 0 0 0 0 0 128427582.2515425 -5708762.31494932 -5708762.31494932 -9078111.896557709 0 0 0 0 0 128121662.2762053 -4687873.768826442 -4687873.768826442 -8683212.288350279 0 0 0 0 0 126485400.4444471 -4014358.60051454 -4014358.60051454 -8402822.36542435 0 0 0 0 0 126662584.8972411 -4162320.730023766 -4162320.730023766 -9170590.556932669 0 0 0 0 0 126291962.8357789 -3335446.838136386 -3335446.838136386 -8736292.159466673 0 0 0 0 0 125874164.5048297 -2568138.810930456 -2568138.810930456 -8295771.582970874 0 0 0 0 0 125427312.1085044 -1865323.817392863 -1865323.817392863 -7855346.314476393 0 0 0 0 0 124958471.2866363 -1223793.679916148 -1223793.679916148 -7418207.317260477 0 0 0 0 0 124461995.133856 -639201.8833601543 -639201.8833601543 -6991150.283833484 0 0 0 0 0 123371383.8932276 -325461.6331013161 -325461.6331013161 -6570901.067454164 0 0 0 0 0 123212530.8029547 -546247.8921963033 -546247.8921963033 -7253534.329608017 0 0 0 0 0 122733946.7145268 -65753.19030219893 -65753.19030219893 -6839973.74399456 0 0 0 0 0 121131033.6477647 -276168.9355452237 -276168.9355452237 -6984017.357953137 0 0 0 0 0 120741311.0541106 138924.2520950346 138924.2520950346 -6581268.544814874 0 0 0 0 0 119752916.5385016 100868.5784054146 100868.5784054146 -6699558.718747515 0 0 0 0 0 120555707.9091349 -57901.5408594194 -57901.5408594194 -7142198.358140559 0 0 0 0 0 119379527.6393311 449672.5409483435 449672.5409483435 -6322181.451748468 0 0 0 0 0 119002070.7161033 765771.3701861377 765771.3701861377 -5966228.48727209 0 0 0 0 0 118607342.0963276 1050382.002965739 1050382.002965739 -5625766.913939334 0 0 0 0 0 118217653.7814977 1313663.906512452 1313663.906512452 -5292598.941532287 0 0 0 0 0 117401980.6315958 1194813.778518938 1194813.778518938 -5392792.789968441 0 0 0 0 0 117988343.588035 1121624.599262267 1121624.599262267 -5783424.641691496 0 0 0 0 0 117042962.0543573 1419508.740117808 1419508.740117808 -5081226.858045919 0 0 0 0 0 116687411.5698049 1633774.959025473 1633774.959025473 -4781256.954777868 0 0 0 0 0 116348438.6269045 1843858.667641005 1843858.667641005 -4466035.057211764 0 0 0 0 0 115995786.2878452 2015830.530996422 2015830.530996422 -4189898.572918412 0 0 0 0 0 115649677.0437343 2169135.432629501 2169135.432629501 -3928097.470675514 0 0 0 0 0 115394648.8216104 1984886.658588189 1984886.658588189 -4367423.499442502 0 0 0 0 0 114667252.8279533 2120371.449312296 2120371.449312296 -3816035.599309756 0 0 0 0 0 115051967.5904269 2117339.155395456 2117339.155395456 -4121174.805788048 0 0 0 0 0 114350920.330043 2236430.648684693 2236430.648684693 -3591133.780540037 0 0 0 0 0 114039078.3248898 2340660.610859307 2340660.610859307 -3371955.686138469 0 0 0 0 0 113735580.1963714 2437041.087018249 2437041.087018249 -3161743.131582431 0 0 0 0 0 113442456.7942861 2525989.632241062 2525989.632241062 -2958972.728478085 0 0 0 0 0 112922523.2181225 2352545.010501567 2352545.010501567 -3071352.363940198 0 0 0 0 0 113202487.5729603 2361564.272883961 2361564.272883961 -3335133.868404159 0 0 0 0 0 112649403.967369 2429376.612578856 2429376.612578856 -2881875.605366239 0 0 0 0 0 112381445.3421684 2497630.035926485 2497630.035926485 -2702504.613123348 0 0 0 0 0 112117363.1240284 2557959.003740948 2557959.003740948 -2530672.250753684 0 0 0 0 0 111859091.6571287 2611791.785703371 2611791.785703371 -2365637.531075349 0 0 0 0 0 111606794.110159 2659858.861709215 2659858.861709215 -2207580.594069771 0 0 0 0 0 111147266.3732684 2560565.944396793 2560565.944396793 -2373674.919303353 0 0 0 0 0 111360161.8946316 2702163.637204137 2702163.637204137 -2056544.284788721 0 0 0 0 0 110959770.8074879 2537327.994993903 2537327.994993903 -2168651.281931399 0 0 0 0 0 110732093.0498215 2576013.611923888 2576013.611923888 -2026495.758718997 0 0 0 0 0 110505736.9220257 2611777.108481151 2611777.108481151 -1888307.263082771 0 0 0 0 0 110286727.4287424 2638813.453811602 2638813.453811602 -1747183.983018549 0 0 0 0 0 110054290.6623092 2543339.908549123 2543339.908549123 -1816068.981998043 0 0 0 0 0 110125851.1745688 2531922.417043983 2531922.417043983 -1974407.067891989 0 0 0 0 0 109860434.7214504 2515858.873411965 2515858.873411965 -1788390.354914404 0 0 0 0 0 121798220.0236247 162425.3545230361 162425.3545230361 -6404475.561805105 0 0 0 0 0 42552935.72944755 -38382322.52669512 -38382322.52669512 38125231.30171123 0 0 0 0 0 58860164.68961769 -40690358.4086891 -40690358.4086891 30012975.79365844 0 0 0 0 0 77639000.3107422 -39049573.68061046 -39049573.68061046 14895681.88055035 0 0 0 0 0 73160413.34539618 -41320566.10278098 -41320566.10278098 23424782.10255073 0 0 0 0 0 87543594.93579604 -37891307.98856747 -37891307.98856747 10331582.9807831 0 0 0 0 0 96000988.34752591 -36119542.09290825 -36119542.09290825 6489270.4540602 0 0 0 0 0 103198866.5008814 -33891435.24069196 -33891435.24069196 3291844.504760273 0 0 0 0 0 109246982.6254686 -31373545.28184185 -31373545.28184185 690638.8349601413 0 0 0 0 0 114205441.1607066 -28788089.50206763 -28788089.50206763 -1393529.501094052 0 0 0 0 0 118270849.7885757 -26176003.30326687 -26176003.30326687 -3026226.44980031 0 0 0 0 0 121564197.0467612 -23605670.54018759 -23605670.54018759 -4275204.590745226 0 0 0 0 0 124207132.0509626 -21117218.23779853 -21117218.23779853 -5196223.806396239 0 0 0 0 0 127461971.0503528 -20505992.53086369 -20505992.53086369 -6366951.364904119 0 0 0 0 0 124763271.8449372 -18250287.63555477 -18250287.63555477 -7967582.042397518 0 0 0 0 0 126254183.763233 -16220547.68423604 -16220547.68423604 -8259157.434085709 0 0 0 0 0 127450779.7148943 -14265091.46967547 -14265091.46967547 -8336660.168696483 0 0 0 0 0 128314630.3076398 -12436245.13688437 -12436245.13688437 -8303075.76079417 0 0 0 0 0 127410375.7872232 -10892281.71125204 -10892281.71125204 -9600115.835085558 0 0 0 0 0 129739391.0598811 -12266929.10059007 -12266929.10059007 -9254380.384876531 0 0 0 0 0 127793440.5357773 -9421316.322200371 -9421316.322200371 -9337048.299178768 0 0 0 0 0 128025326.1478666 -8034135.88555101 -8034135.88555101 -8999901.695360417 0 0 0 0 0 128085013.3706226 -6769442.557666132 -6769442.557666132 -8638502.189697374 0 0 0 0 0 128020208.8671241 -5609310.46338881 -5609310.46338881 -8251214.269563002 0 0 0 0 0 127844509.5400994 -4550198.964788657 -4550198.964788657 -7850146.432923037 0 0 0 0 0 127585810.304449 -3584283.616865579 -3584283.616865579 -7438295.572899349 0 0 0 0 0 127738765.3568871 -3760961.847376003 -3760961.847376003 -8282709.398699808 0 0 0 0 0 126205903.3694764 -3154239.26797416 -3154239.26797416 -7964641.429580082 0 0 0 0 0 125854208.6051452 -2374435.305561081 -2374435.305561081 -7535806.907957009 0 0 0 0 0 125468123.2612558 -1659984.932731842 -1659984.932731842 -7102996.690159131 0 0 0 0 0 125052101.6240156 -1005292.492018358 -1005292.492018358 -6673394.444341277 0 0 0 0 0 124604276.8117969 -407687.4567979214 -407687.4567979214 -6248285.652835913 0 0 0 0 0 124136832.3575721 134976.4983746285 134976.4983746285 -5833264.260998177 0 0 0 0 0 123945054.1229021 -110788.7700996973 -110788.7700996973 -6578317.842211366 0 0 0 0 0 122929888.4248729 164937.5366081439 164937.5366081439 -6159031.112703598 0 0 0 0 0 122473349.7830479 609649.8262988818 609649.8262988818 -5761383.668618843 0 0 0 0 0 121606076.5739316 -51152.80270268574 -51152.80270268574 -7023094.327097805 0 0 0 0 0 121152206.7973683 350675.1787035755 350675.1787035755 -6626808.703413019 0 0 0 0 0 120131044.6393368 312971.6070183208 312971.6070183208 -6754569.703674952 0 0 0 0 0 120342270.3033643 517097.2244140482 517097.2244140482 -6193592.988467547 0 0 0 0 0 119701783.3412086 646335.4904723362 646335.4904723362 -6385440.042582188 0 0 0 0 0 119272223.9016883 947238.1545166019 947238.1545166019 -6034887.449149898 0 0 0 0 0 118846933.4962439 1224101.802388513 1224101.802388513 -5691777.299543197 0 0 0 0 0 118430170.8183568 1483392.485083831 1483392.485083831 -5354140.166834116 0 0 0 0 0 117591746.7192886 1359335.032446524 1359335.032446524 -5462863.272438862 0 0 0 0 0 117839142.4953599 1556781.332819642 1556781.332819642 -4966708.330839636 0 0 0 0 0 117205610.7750664 1580547.300973077 1580547.300973077 -5150017.451009249 0 0 0 0 0 116836039.7445024 1794361.246171839 1794361.246171839 -4832090.405261565 0 0 0 0 0 116444120.1970009 1979367.014701952 1979367.014701952 -4533301.084642699 0 0 0 0 0 116071973.3639316 2144198.752388861 2144198.752388861 -4258442.320886512 0 0 0 0 0 115701238.4722653 2289593.665271713 2289593.665271713 -3998517.29733133 0 0 0 0 0 115310424.9861046 2302452.921656887 2302452.921656887 -3678752.6457064 0 0 0 0 0 114712766.4444203 2232412.52678197 2232412.52678197 -3889858.003157072 0 0 0 0 0 114975005.2806098 2420304.565046738 2420304.565046738 -3460109.357877843 0 0 0 0 0 114378613.6960571 2340981.982051083 2340981.982051083 -3660478.126240545 0 0 0 0 0 114051412.8566731 2441713.041885438 2441713.041885438 -3439749.233964327 0 0 0 0 0 113735395.1545618 2533464.433905092 2533464.433905092 -3227334.682060241 0 0 0 0 0 113425145.6618546 2615656.247610289 2615656.247610289 -3024047.345960568 0 0 0 0 0 112911971.4866367 2442543.552851144 2442543.552851144 -3135011.819020357 0 0 0 0 0 113150614.2679773 2605218.382030817 2605218.382030817 -2764148.291684039 0 0 0 0 0 112628008.977433 2513927.17836933 2513927.17836933 -2945432.534548508 0 0 0 0 0 112349552.3672366 2575980.179913829 2575980.179913829 -2764665.133759649 0 0 0 0 0 112077347.2269298 2631693.10544466 2631693.10544466 -2591094.335210922 0 0 0 0 0 111812042.0982851 2681492.078691054 2681492.078691054 -2424473.47505642 0 0 0 0 0 111553193.2462914 2725161.374059145 2725161.374059145 -2264910.208525189 0 0 0 0 0 111119046.7626987 2739164.265262535 2739164.265262535 -1912270.638828817 0 0 0 0 0 111300777.8144852 2763227.358556688 2763227.358556688 -2112303.939204921 0 0 0 0 0 110909231.6358635 2600003.028191572 2600003.028191572 -2223332.944559061 0 0 0 0 0 110677049.456296 2634594.64089736 2634594.64089736 -2079468.577455976 0 0 0 0 0 110455751.1318711 2667457.282207819 2667457.282207819 -1938139.925975166 0 0 0 0 0 110266885.1408048 2704910.111269119 2704910.111269119 -1784930.150710373 0 0 0 0 0 109851509.1463022 2554252.814999235 2554252.814999235 -1857691.012032897 0 0 0 0 0 110067115.1267605 2683649.32225629 2683649.32225629 -1599903.935667773 0 0 0 0 0 109632484.0567124 2532564.19615547 2532564.19615547 -1814595.076153514 0 0 0 0 0 122246235.3614595 371280.030983937 371280.030983937 -6438648.732131155 0 0 0 0 0 44388748.04229847 -41573721.72703871 -41573721.72703871 38439222.91300419 0 0 0 0 0 60543825.12952089 -42924392.23634984 -42924392.23634984 30325507.7988664 0 0 0 0 0 85142870.03527534 -40776896.87336196 -40776896.87336196 17864417.36375378 0 0 0 0 0 73876667.11342022 -42451970.70232162 -42451970.70232162 23079781.34688403 0 0 0 0 0 95113874.46148859 -39293843.65434285 -39293843.65434285 13086489.92415293 0 0 0 0 0 103625170.4367835 -37275460.93612629 -37275460.93612629 9106130.789950211 0 0 0 0 0 110647906.9052572 -34894311.85566542 -34894311.85566542 5763472.309546284 0 0 0 0 0 116247990.2681498 -32197326.8576144 -32197326.8576144 2925179.595224965 0 0 0 0 0 120749192.2025544 -29431003.55886004 -29431003.55886004 609642.2101833199 0 0 0 0 0 124322753.7897118 -26671879.63909585 -26671879.63909585 -1244870.397825705 0 0 0 0 0 127118192.8785301 -23967722.04947583 -23967722.04947583 -2700966.74203284 0 0 0 0 0 129253809.7395273 -21370833.2753143 -21370833.2753143 -3817777.31095873 0 0 0 0 0 126275967.6978307 -18740698.9928112 -18740698.9928112 -5851599.452948947 0 0 0 0 0 128956114.8352188 -18292175.15281446 -18292175.15281446 -6996134.454091516 0 0 0 0 0 130092071.3660917 -16137436.51050781 -16137436.51050781 -7371535.840258636 0 0 0 0 0 130900328.0226096 -14150453.85682314 -14150453.85682314 -7570567.470070121 0 0 0 0 0 131385193.9420965 -12316051.69954465 -12316051.69954465 -7659663.860992448 0 0 0 0 0 130031422.864793 -10668005.27999648 -10668005.27999648 -9137385.521410344 0 0 0 0 0 128882160.4716965 -10754408.67972174 -10754408.67972174 -8191026.598507082 0 0 0 0 0 130162365.046181 -9164253.48256891 -9164253.48256891 -8917501.41447854 0 0 0 0 0 130121680.5234221 -7793218.603220467 -7793218.603220467 -8658079.107651096 0 0 0 0 0 129949303.8925505 -6530697.360690766 -6530697.360690766 -8347770.68305785 0 0 0 0 0 129664498.5359191 -5377928.863958753 -5377928.863958753 -8014517.463989659 0 0 0 0 0 129292873.076865 -4324927.708110364 -4324927.708110364 -7657138.054824372 0 0 0 0 0 128852778.3164958 -3365295.431757641 -3365295.431757641 -7284199.619620577 0 0 0 0 0 127257066.7230835 -2704038.834431057 -2704038.834431057 -7024888.514634071 0 0 0 0 0 127301471.0262285 -2914252.686347836 -2914252.686347836 -7879253.418363383 0 0 0 0 0 126829473.2920301 -2140323.979080968 -2140323.979080968 -7468977.071838105 0 0 0 0 0 126323083.7184965 -1432610.795681407 -1432610.795681407 -7052723.76632979 0 0 0 0 0 125797260.5965198 -789194.1451047079 -789194.1451047079 -6637145.313832568 0 0 0 0 0 125253966.3585657 -203657.5958353412 -203657.5958353412 -6226717.849876682 0 0 0 0 0 124693880.012684 327501.5358764025 327501.5358764025 -5826303.02136868 0 0 0 0 0 123656632.0100386 624990.1792753147 624990.1792753147 -5433100.507859295 0 0 0 0 0 123421557.6609994 366791.0719841394 366791.0719841394 -6178350.880607435 0 0 0 0 0 122893104.8296159 799767.3188650853 799767.3188650853 -5788868.163997255 0 0 0 0 0 121371747.6996846 571465.342862913 571465.342862913 -6010002.761485148 0 0 0 0 0 120937187.021734 942493.011115786 942493.011115786 -5630594.43887813 0 0 0 0 0 119938284.8661422 859298.858075691 859298.858075691 -5820185.507751493 0 0 0 0 0 120693417.550873 715386.2462952419 715386.2462952419 -6245478.829886416 0 0 0 0 0 119527950.3134352 1166408.297657843 1166408.297657843 -5468489.044693326 0 0 0 0 0 119113204.4323913 1443718.294667141 1443718.294667141 -5137430.427693665 0 0 0 0 0 118694326.7038698 1696422.072026937 1696422.072026937 -4816168.974595131 0 0 0 0 0 118281834.435227 1929992.658556006 1929992.658556006 -4500059.20915619 0 0 0 0 0 117460101.5191372 1775858.660021216 1775858.660021216 -4662496.26978693 0 0 0 0 0 118009137.9813873 1715247.173456246 1715247.173456246 -5035639.490653886 0 0 0 0 0 117083347.8460504 1982997.650855913 1982997.650855913 -4363498.693535823 0 0 0 0 0 116706390.8907861 2174604.980244777 2174604.980244777 -4063777.880074528 0 0 0 0 0 116347957.8787867 2344788.215904451 2344788.215904451 -3781791.733752046 0 0 0 0 0 115980206.2083507 2489503.775404183 2489503.775404183 -3526368.427255127 0 0 0 0 0 115623924.2744229 2618945.311036377 2618945.311036377 -3284822.817391706 0 0 0 0 0 115333144.8636788 2415400.818245068 2415400.818245068 -3755780.313789425 0 0 0 0 0 114635495.1320079 2523147.509261484 2523147.509261484 -3242269.240152431 0 0 0 0 0 114982626.1166956 2518833.568028367 2518833.568028367 -3534067.270178235 0 0 0 0 0 114306057.2198679 2619251.481942624 2619251.481942624 -3028318.694152442 0 0 0 0 0 113991923.4651185 2710229.291619167 2710229.291619167 -2821387.423184864 0 0 0 0 0 113680875.0286129 2790970.822335136 2790970.822335136 -2622830.932151015 0 0 0 0 0 113375797.2367825 2861742.40520175 2861742.40520175 -2433944.242845621 0 0 0 0 0 112864989.6794434 2674743.304844487 2674743.304844487 -2579232.475087715 0 0 0 0 0 113122196.8669004 2688924.610607093 2688924.610607093 -2827818.168235342 0 0 0 0 0 112585669.2746326 2735715.915045251 2735715.915045251 -2404674.621277572 0 0 0 0 0 112310734.5247807 2788847.807227626 2788847.807227626 -2237636.239964145 0 0 0 0 0 112042120.0685401 2835766.400917106 2835766.400917106 -2077241.125859605 0 0 0 0 0 111780263.5084419 2876963.228191498 2876963.228191498 -1923822.551196168 0 0 0 0 0 111524488.7789917 2912397.555176133 2912397.555176133 -1777693.988624977 0 0 0 0 0 111054727.9921482 2796247.730047569 2796247.730047569 -1966444.387516867 0 0 0 0 0 111274751.434313 2942622.649407836 2942622.649407836 -1638526.427526766 0 0 0 0 0 110883581.426135 2771261.733443447 2771261.733443447 -1774497.818892791 0 0 0 0 0 110653647.9437539 2798874.713560234 2798874.713560234 -1643602.92176689 0 0 0 0 0 110434851.3757748 2820418.429830378 2820418.429830378 -1520657.148110169 0 0 0 0 0 110195204.3113192 2832865.112378776 2832865.112378776 -1419798.095655647 0 0 0 0 0 109927536.0207095 2720147.310844672 2720147.310844672 -1496338.532048713 0 0 0 0 0 110097708.0384897 2761973.575113535 2761973.575113535 -1609634.103269164 0 0 0 0 0 122008677.1149174 1012856.970425455 1012856.970425455 -5378216.272604248 0 0 0 0 0 52823352.96990898 -45444415.74621718 -45444415.74621718 43212339.34100517 0 0 0 0 0 69023106.13641013 -45989292.84722223 -45989292.84722223 34406997.75295749 0 0 0 0 0 85139116.7549575 -41009459.2066783 -41009459.2066783 17171453.79142738 0 0 0 0 0 82867285.36001003 -45140236.42294245 -45140236.42294245 27087076.64130645 0 0 0 0 0 94747496.00416033 -39022481.86130623 -39022481.86130623 12369294.82315639 0 0 0 0 0 102821169.1807065 -36423908.70434304 -36423908.70434304 8321534.922889828 0 0 0 0 0 109493802.8724634 -33548939.92799251 -33548939.92799251 5024156.634413919 0 0 0 0 0 114944282.2022917 -30611751.18985129 -30611751.18985129 2367689.252479606 0 0 0 0 0 119365801.9266277 -27672744.55399096 -27672744.55399096 270745.043693251 0 0 0 0 0 122911359.4934672 -24799568.372034 -24799568.372034 -1354366.074181155 0 0 0 0 0 125714215.5875086 -22043546.0053588 -22043546.0053588 -2582958.873657872 0 0 0 0 0 127888821.1282028 -19433784.70683583 -19433784.70683583 -3481681.092085049 0 0 0 0 0 130820830.2432994 -18916902.59537325 -18916902.59537325 -4659318.848878189 0 0 0 0 0 127861417.3965748 -16521555.70854521 -16521555.70854521 -6286255.352212828 0 0 0 0 0 129036669.0920052 -14430072.12593108 -14430072.12593108 -6531852.174221307 0 0 0 0 0 129882654.7510304 -12477690.07641554 -12477690.07641554 -6625260.850593905 0 0 0 0 0 130428510.9225066 -10688979.78680957 -10688979.78680957 -6612017.699059561 0 0 0 0 0 129229129.8426735 -9206818.284674363 -9206818.284674363 -8002635.552326928 0 0 0 0 0 131617765.8082887 -10613587.36493398 -10613587.36493398 -7643118.774200685 0 0 0 0 0 129395448.3954881 -7766424.817361002 -7766424.817361002 -7738222.23655403 0 0 0 0 0 129410937.3563757 -6449084.276642216 -6449084.276642216 -7429561.338582817 0 0 0 0 0 129280895.7727485 -5248455.54667146 -5248455.54667146 -7094345.884066123 0 0 0 0 0 129045746.798543 -4156285.745168251 -4156285.745168251 -6736685.239681651 0 0 0 0 0 128722257.7928483 -3164062.685775955 -3164062.685775955 -6363650.164556409 0 0 0 0 0 128329180.7201084 -2265557.657651276 -2265557.657651276 -5982514.534062518 0 0 0 0 0 128359764.6180129 -2494645.621721744 -2494645.621721744 -6906808.217075078 0 0 0 0 0 126863324.8565269 -1908326.338223327 -1908326.338223327 -6612716.516028507 0 0 0 0 0 126409977.1643133 -1193249.605538215 -1193249.605538215 -6214963.146110871 0 0 0 0 0 125935706.3656165 -537622.2421160248 -537622.2421160248 -5811979.962891469 0 0 0 0 0 125437366.1502622 57875.91871147485 57875.91871147485 -5413214.253563935 0 0 0 0 0 124917538.4901384 597802.5505141484 597802.5505141484 -5020704.44228073 0 0 0 0 0 124386180.5967891 1085352.838687984 1085352.838687984 -4637709.135246387 0 0 0 0 0 124120436.4743429 803036.7402196638 803036.7402196638 -5442692.875817919 0 0 0 0 0 123158039.4979733 1064547.498294387 1064547.498294387 -5049856.726707237 0 0 0 0 0 122651778.3918225 1460805.914492233 1460805.914492233 -4681925.686113422 0 0 0 0 0 121754337.6377569 767717.0082461212 767717.0082461212 -6051649.94565336 0 0 0 0 0 121260947.4259801 1126744.349073189 1126744.349073189 -5678334.190175768 0 0 0 0 0 120229082.0225618 1044363.386498939 1044363.386498939 -5881271.999694701 0 0 0 0 0 120498544.8870074 1278534.76711341 1278534.76711341 -5266664.501535572 0 0 0 0 0 119769419.9138881 1340305.8055296 1340305.8055296 -5535359.609596851 0 0 0 0 0 119314640.8760806 1605075.690528468 1605075.690528468 -5207079.856129943 0 0 0 0 0 118866973.4636192 1851280.789888418 1851280.789888418 -4880089.432024407 0 0 0 0 0 118423447.4846299 2075291.308059964 2075291.308059964 -4565014.722813212 0 0 0 0 0 117601596.4749509 1927524.070896654 1927524.070896654 -4726550.369374857 0 0 0 0 0 117877727.847859 2139677.862995457 2139677.862995457 -4200158.940158022 0 0 0 0 0 117196704.3538378 2123206.001643255 2123206.001643255 -4423408.916713902 0 0 0 0 0 116802374.8627679 2307111.010168533 2307111.010168533 -4120643.176604558 0 0 0 0 0 116395144.8708657 2463143.78954117 2463143.78954117 -3850056.641435198 0 0 0 0 0 116008502.608566 2600076.733815196 2600076.733815196 -3594692.669755388 0 0 0 0 0 115624763.1415348 2718871.336680007 2718871.336680007 -3355114.870580925 0 0 0 0 0 115281602.2519712 2730481.534685866 2730481.534685866 -3059522.591836632 0 0 0 0 0 114636472.4158188 2619144.815568354 2619144.815568354 -3311788.977076194 0 0 0 0 0 114917476.8500292 2816445.26995438 2816445.26995438 -2862237.61233093 0 0 0 0 0 114298996.1477485 2714247.754439238 2714247.754439238 -3094602.683895295 0 0 0 0 0 113967654.5850477 2798418.148423261 2798418.148423261 -2887133.885699428 0 0 0 0 0 113644275.0097598 2872791.218445391 2872791.218445391 -2687180.793281056 0 0 0 0 0 113329402.1356484 2938247.018165252 2938247.018165252 -2497005.778017309 0 0 0 0 0 112826377.0761739 2752893.572718759 2752893.572718759 -2642398.937121273 0 0 0 0 0 113077713.5669865 2923459.733544993 2923459.733544993 -2254413.614315847 0 0 0 0 0 112537146.168253 2807745.008180396 2807745.008180396 -2466339.560019732 0 0 0 0 0 112254589.9171318 2856333.137457399 2856333.137457399 -2297526.167655684 0 0 0 0 0 111979592.0958744 2899263.338678757 2899263.338678757 -2135441.812326173 0 0 0 0 0 111711445.7564148 2936177.321565278 2936177.321565278 -1980611.578785265 0 0 0 0 0 111450274.9828848 2967497.073433685 2967497.073433685 -1832947.219048188 0 0 0 0 0 111031150.5666532 2968111.042349352 2968111.042349352 -1506402.893108361 0 0 0 0 0 111195926.3301357 2993738.249822024 2993738.249822024 -1692111.293502391 0 0 0 0 0 110815130.4686692 2824707.310657033 2824707.310657033 -1827176.629215505 0 0 0 0 0 110583652.7327846 2849216.37453007 2849216.37453007 -1694708.56499451 0 0 0 0 0 110360875.3870469 2866856.080392653 2866856.080392653 -1571903.859476599 0 0 0 0 0 110131139.1575536 2867546.616825683 2867546.616825683 -1460810.498222572 0 0 0 0 0 109704474.9052066 2725068.143608638 2725068.143608638 -1498974.882966691 0 0 0 0 0 109897639.413278 2832706.466389965 2832706.466389965 -1356218.256588164 0 0 0 0 0 122361203.9318498 1190293.460620575 1190293.460620575 -5414316.216285973 0 0 0 0 0 54305335.96601956 -48016151.55610126 -48016151.55610126 42136193.40336977 0 0 0 0 0 69670407.1619139 -47334020.44228376 -47334020.44228376 33020833.31392571 0 0 0 0 0 94019537.04400942 -43200306.16071952 -43200306.16071952 20776914.18994608 0 0 0 0 0 82658085.11825179 -45429847.09325154 -45429847.09325154 25373004.28808292 0 0 0 0 0 103460728.7149164 -40754299.37916979 -40754299.37916979 15595323.82459871 0 0 0 0 0 111289305.8315762 -37923233.16325661 -37923233.16325661 11361022.77824603 0 0 0 0 0 117408296.2625464 -34814787.15522406 -34814787.15522406 7775625.494524129 0 0 0 0 0 122252305.7218778 -31619147.44388503 -31619147.44388503 4799629.921208521 0 0 0 0 0 126072173.5671463 -28471512.39992511 -28471512.39992511 2416891.029836446 0 0 0 0 0 129016411.3622841 -25423699.15545852 -25423699.15545852 527832.2757593171 0 0 0 0 0 131226431.1929453 -22517830.15421983 -22517830.15421983 -943432.0748317806 0 0 0 0 0 132829533.4362383 -19785866.80571988 -19785866.80571988 -2061681.257658146 0 0 0 0 0 129532091.3168875 -16991546.24276151 -16991546.24276151 -4110882.717209121 0 0 0 0 0 131938960.6207193 -16600611.43865205 -16600611.43865205 -5259656.768116405 0 0 0 0 0 132696853.0874754 -14446601.08854358 -14446601.08854358 -5635156.524054585 0 0 0 0 0 133131500.8271383 -12466359.17249985 -12466359.17249985 -5860539.888932804 0 0 0 0 0 133306292.4753449 -10640903.45692532 -10640903.45692532 -5959891.322340157 0 0 0 0 0 131669825.1584881 -9034490.332950998 -9034490.332950998 -7527724.381309583 0 0 0 0 0 130734599.9217074 -9043695.61903072 -9043695.61903072 -6505724.202074179 0 0 0 0 0 131563423.2846442 -7588896.155230921 -7588896.155230921 -7331128.58375138 0 0 0 0 0 131313107.1528 -6273111.668959417 -6273111.668959417 -7094661.250585093 0 0 0 0 0 130953636.6834136 -5073002.271032881 -5073002.271032881 -6813909.221320003 0 0 0 0 0 130508430.290782 -3981548.685743987 -3981548.685743987 -6505936.403890168 0 0 0 0 0 129995727.2081048 -2992223.52749687 -2992223.52749687 -6176066.37526939 0 0 0 0 0 129431348.4240993 -2098675.24902037 -2098675.24902037 -5834192.641754795 0 0 0 0 0 127876760.6745741 -1457512.594491605 -1457512.594491605 -5600486.005083865 0 0 0 0 0 127814934.732457 -1712147.534234288 -1712147.534234288 -6532089.100602889 0 0 0 0 0 127251481.6765257 -998322.8878199446 -998322.8878199446 -6150410.686640876 0 0 0 0 0 126656286.7331862 -354870.0340397052 -354870.0340397052 -5764152.204448476 0 0 0 0 0 126053913.183672 231372.5003030716 231372.5003030716 -5379817.035375468 0 0 0 0 0 125448605.7642429 762193.8317479017 762193.8317479017 -5000583.105021661 0 0 0 0 0 124827575.3941087 1236803.68408864 1236803.68408864 -4632692.180075886 0 0 0 0 0 123846746.1609489 1521738.694457518 1521738.694457518 -4270069.291923596 0 0 0 0 0 123546106.2116688 1231643.106892122 1231643.106892122 -5069184.283445831 0 0 0 0 0 122972680.2480575 1616168.931994213 1616168.931994213 -4710630.504890436 0 0 0 0 0 121536816.4182824 1376410.026970962 1376410.026970962 -5010901.008570678 0 0 0 0 0 121061945.3722013 1704331.235138404 1704331.235138404 -4658993.171014158 0 0 0 0 0 120061285.5824535 1581713.24412167 1581713.24412167 -4919180.760952052 0 0 0 0 0 120768073.650511 1451278.974642765 1451278.974642765 -5319768.615863181 0 0 0 0 0 119618115.0609738 1850536.507162704 1850536.507162704 -4594317.794792907 0 0 0 0 0 119167312.5258754 2087827.325263621 2087827.325263621 -4290041.012470369 0 0 0 0 0 118728618.1394943 2310331.550415319 2310331.550415319 -3986275.808533479 0 0 0 0 0 118295984.9515673 2511606.558514234 2511606.558514234 -3695242.695161553 0 0 0 0 0 117473991.537148 2333385.7628126 2333385.7628126 -3912569.684547773 0 0 0 0 0 117984653.7521323 2276698.815812945 2276698.815812945 -4266788.255981009 0 0 0 0 0 117077574.3508542 2511867.250898956 2511867.250898956 -3625326.929580596 0 0 0 0 0 116682447.916472 2673299.877502076 2673299.877502076 -3348713.717129653 0 0 0 0 0 116309444.3269776 2814917.966810082 2814917.966810082 -3090087.893378234 0 0 0 0 0 115930090.875613 2934501.08216367 2934501.08216367 -2851995.581961069 0 0 0 0 0 115563660.8054665 3039398.678969364 3039398.678969364 -2629755.102285694 0 0 0 0 0 115241745.2232587 2816919.387719211 2816919.387719211 -3138155.837799965 0 0 0 0 0 114573393.8511219 2904302.868563578 2904302.868563578 -2656597.409028936 0 0 0 0 0 114888310.1834668 2907228.62471439 2907228.62471439 -2933767.455292795 0 0 0 0 0 114241365.2677443 2987007.474984487 2987007.474984487 -2454048.017724495 0 0 0 0 0 113915757.8841807 3058686.2100972 3058686.2100972 -2262096.455777169 0 0 0 0 0 113597283.219297 3121035.24161364 3121035.24161364 -2079632.980560156 0 0 0 0 0 113286007.6771864 3174241.437273607 3174241.437273607 -1906720.677395972 0 0 0 0 0 112786677.5842167 2976706.131033001 2976706.131033001 -2085477.979911088 0 0 0 0 0 113021415.470824 2994360.836160207 2994360.836160207 -2316783.404970045 0 0 0 0 0 112500546.9971018 3022193.319235324 3022193.319235324 -1924259.798241101 0 0 0 0 0 112221545.2475697 3061732.292835383 3061732.292835383 -1769335.557932212 0 0 0 0 0 111949881.8305303 3095875.280847136 3095875.280847136 -1621308.999409042 0 0 0 0 0 111685004.0189613 3124367.64832236 3124367.64832236 -1480489.820059393 0 0 0 0 0 111426613.3696755 3147628.433774816 3147628.433774816 -1346629.321314026 0 0 0 0 0 110947769.3371957 3014989.927525744 3014989.927525744 -1558192.150008952 0 0 0 0 0 111174704.0122897 3166166.08232908 3166166.08232908 -1219243.606070471 0 0 0 0 0 110793895.9205423 2988866.500412031 2988866.500412031 -1381684.751412314 0 0 0 0 0 110565660.4618 3003362.785282413 3003362.785282413 -1265573.626389399 0 0 0 0 0 110348594.2363432 3014525.378484808 3014525.378484808 -1158661.695840892 0 0 0 0 0 110131955.6934957 2994912.664993978 2994912.664993978 -1162954.784740627 0 0 0 0 0 109981939.6389928 2904980.222647956 2904980.222647956 -1225250.009468406 0 0 0 0 0 122140937.7466757 1816159.149378776 1816159.149378776 -4329717.190829343 0 0 0 0 0 64225144.41429285 -52331043.67426224 -52331043.67426224 47338727.40817208 0 0 0 0 0 80045529.59127487 -51038865.93532479 -51038865.93532479 37958773.41365785 0 0 0 0 0 93392116.15653962 -42853358.64996983 -42853358.64996983 19137230.34476545 0 0 0 0 0 92947792.17585784 -48508895.02181381 -48508895.02181381 29922914.42458577 0 0 0 0 0 102394497.1526514 -39779437.80902269 -39779437.80902269 14040443.84150182 0 0 0 0 0 109826575.2064871 -36387662.39942824 -36387662.39942824 9913702.534969116 0 0 0 0 0 115774056.9776366 -32973939.90603898 -32973939.90603898 6597479.81991656 0 0 0 0 0 120571462.8981114 -29617154.85424686 -29617154.85424686 3957512.063033801 0 0 0 0 0 124387631.6427154 -26366462.45336498 -26366462.45336498 1897223.984736971 0 0 0 0 0 127369822.3578557 -23271849.85659914 -23271849.85659914 321715.2255551512 0 0 0 0 0 129645001.7454444 -20367241.22667023 -20367241.22667023 -858797.3864108362 0 0 0 0 0 131331884.7713524 -17669132.2447589 -17669132.2447589 -1717631.670133326 0 0 0 0 0 133934940.2025046 -17242419.27130933 -17242419.27130933 -2888120.80213495 0 0 0 0 0 130730242.8321784 -14723323.22084151 -14723323.22084151 -4524105.326620566 0 0 0 0 0 131546264.0847901 -12628089.77517483 -12628089.77517483 -4763534.064446227 0 0 0 0 0 132050951.1158241 -10709112.05927438 -10709112.05927438 -4867935.7082637 0 0 0 0 0 132303668.1779555 -8958369.736415498 -8958369.736415498 -4859859.652530525 0 0 0 0 0 130840951.2290628 -7536844.78531614 -7536844.78531614 -6324512.725141809 0 0 0 0 0 133272750.367432 -8969213.772556877 -8969213.772556877 -5951713.933604228 0 0 0 0 0 130783409.4745018 -6160775.060359241 -6160775.060359241 -6085639.965879912 0 0 0 0 0 130593148.2370328 -4913824.178900653 -4913824.178900653 -5807123.81513947 0 0 0 0 0 130290690.2618177 -3782342.654409886 -3782342.654409886 -5499122.902809132 0 0 0 0 0 129901063.6683817 -2759045.312802317 -2759045.312802317 -5170901.255351695 0 0 0 0 0 129442289.1720501 -1838007.354978429 -1838007.354978429 -4829241.033279326 0 0 0 0 0 128928495.8514882 -1008711.165122695 -1008711.165122695 -4486636.914989797 0 0 0 0 0 128830007.8268695 -1293543.420628996 -1293543.420628996 -5484791.24876269 0 0 0 0 0 127382973.5547698 -727803.3232300021 -727803.3232300021 -5224913.00760388 0 0 0 0 0 126838692.2053462 -69674.02769694943 -69674.02769694943 -4856562.960495475 0 0 0 0 0 126286503.6502284 527448.9070526101 527448.9070526101 -4488435.537843332 0 0 0 0 0 125714286.1973561 1062318.959020047 1062318.959020047 -4125864.499060299 0 0 0 0 0 125128138.9930691 1545252.352637807 1545252.352637807 -3768779.198269565 0 0 0 0 0 124540690.5947192 1977462.228605727 1977462.228605727 -3421171.419961276 0 0 0 0 0 124208692.9039175 1664356.877327517 1664356.877327517 -4277652.381783313 0 0 0 0 0 123300572.5186945 1912515.458071036 1912515.458071036 -3918651.643266907 0 0 0 0 0 122748821.5344409 2259520.718698524 2259520.718698524 -3585045.941891337 0 0 0 0 0 121830056.8999968 1542204.065223326 1542204.065223326 -5053310.688402358 0 0 0 0 0 121301850.3239525 1858706.092920884 1858706.092920884 -4706478.019135735 0 0 0 0 0 120273415.1017332 1740701.410359711 1740701.410359711 -4981623.390340236 0 0 0 0 0 120587524.6444738 1998718.346070998 1998718.346070998 -4322120.881307391 0 0 0 0 0 119781324.1191309 1995056.588717725 1995056.588717725 -4663250.108996413 0 0 0 0 0 119308100.3612275 2229358.923576387 2229358.923576387 -4354111.086131165 0 0 0 0 0 118837381.0183759 2442167.577524109 2442167.577524109 -4050035.85805656 0 0 0 0 0 118374070.404242 2633497.278814056 2633497.278814056 -3759396.554789543 0 0 0 0 0 117567508.8102328 2463443.473478884 2463443.473478884 -3971779.477043321 0 0 0 0 0 117871962.0179996 2691758.64336708 2691758.64336708 -3417638.9356472 0 0 0 0 0 117146222.3550537 2633293.104465696 2633293.104465696 -3684596.829158016 0 0 0 0 0 116729768.9862522 2784955.992580783 2784955.992580783 -3406904.251322824 0 0 0 0 0 116314851.4804207 2916398.699705355 2916398.699705355 -3157056.24820755 0 0 0 0 0 115918073.8145709 3030925.162994291 3030925.162994291 -2920151.498367622 0 0 0 0 0 115528070.4161174 3127322.10238262 3127322.10238262 -2699982.945706257 0 0 0 0 0 115208496.571461 3126935.779669304 3126935.779669304 -2434985.849652932 0 0 0 0 0 114540774.5493888 2991553.467066692 2991553.467066692 -2723620.983936965 0 0 0 0 0 114839685.2838642 3198276.805290715 3198276.805290715 -2247751.05358771 0 0 0 0 0 114195757.4460637 3066449.935146913 3066449.935146913 -2518948.128961102 0 0 0 0 0 113858966.2733957 3132125.664566741 3132125.664566741 -2325577.041524458 0 0 0 0 0 113530449.6171875 3188910.758200567 3188910.758200567 -2141841.296619829 0 0 0 0 0 113210939.2231387 3237276.082162233 3237276.082162233 -1967914.790725411 0 0 0 0 0 112720807.1261673 3041673.014317071 3041673.014317071 -2146322.265119846 0 0 0 0 0 112983337.7534389 3219617.401665918 3219617.401665918 -1744125.122377112 0 0 0 0 0 112427808.9721935 3082843.489711676 3082843.489711676 -1983365.284680478 0 0 0 0 0 112142968.6738506 3118639.933430833 3118639.933430833 -1826798.571686837 0 0 0 0 0 111865714.3376739 3148592.234661913 3148592.234661913 -1677268.454644515 0 0 0 0 0 111595746.6948416 3173074.026597073 3173074.026597073 -1534973.921826341 0 0 0 0 0 111333241.4489317 3192641.634901731 3192641.634901731 -1399558.851672358 0 0 0 0 0 110929051.3947204 3180173.322258017 3180173.322258017 -1097069.537573254 0 0 0 0 0 111077989.7647986 3207773.384959808 3207773.384959808 -1270675.882501335 0 0 0 0 0 110703953.8612772 3030634.206227476 3030634.206227476 -1431737.373341052 0 0 0 0 0 110458319.727819 3036928.168278363 3036928.168278363 -1314482.845766541 0 0 0 0 0 110209672.924331 3032785.164608732 3032785.164608732 -1199425.325868771 0 0 0 0 0 109995591.2728149 2991302.175757756 2991302.175757756 -1147887.279399258 0 0 0 0 0 109764936.6583967 2925807.243106698 2925807.243106698 -1182171.375735695 0 0 0 0 0 122402299.071484 1960916.947028689 1960916.947028689 -4365481.26194447 0 0 0 0 0 64884060.83303078 -53998157.09149039 -53998157.09149039 44717366.17436334 0 0 0 0 0 79799007.33836071 -51560270.52065198 -51560270.52065198 35109202.57021919 0 0 0 0 0 103603023.3347465 -45439905.65872984 -45439905.65872984 23305582.56282341 0 0 0 0 0 91900742.32060155 -48010358.86973879 -48010358.86973879 26950584.95643499 0 0 0 0 0 112184071.5588625 -41885689.94816702 -41885689.94816702 17787260.5884601 0 0 0 0 0 118825841.557613 -38165873.78906593 -38165873.78906593 13274331.2006771 0 0 0 0 0 124012801.8043522 -34421311.62503571 -34421311.62503571 9550598.178898435 0 0 0 0 0 128078538.6011821 -30781469.74402691 -30781469.74402691 6543272.26010576 0 0 0 0 0 131170280.5161682 -27293362.23056421 -27293362.23056421 4148434.995364619 0 0 0 0 0 133441495.7494488 -24002789.263886 -24002789.263886 2269303.959069515 0 0 0 0 0 135045724.9051799 -20937244.21328093 -20937244.21328093 819307.0606623574 0 0 0 0 0 136109026.7924725 -18109093.22373086 -18109093.22373086 -276777.3126551589 0 0 0 0 0 132532040.8565699 -15184600.1390741 -15184600.1390741 -2317871.59444207 0 0 0 0 0 134633983.4796974 -14893907.91418157 -14893907.91418157 -3475144.7477597 0 0 0 0 0 134994332.6627368 -12742691.18229529 -12742691.18229529 -3864717.217429156 0 0 0 0 0 135087827.3060914 -10775336.79846547 -10775336.79846547 -4100594.97636382 0 0 0 0 0 134966312.6855051 -8983552.089549841 -8983552.089549841 -4207274.141283482 0 0 0 0 0 133075027.9065809 -7442770.965562993 -7442770.965562993 -5853309.017357666 0 0 0 0 0 132350889.5804821 -7364732.648512246 -7364732.648512246 -4762355.134841972 0 0 0 0 0 132741176.1878086 -6056941.991712379 -6056941.991712379 -5688356.070634184 0 0 0 0 0 132299587.9647073 -4800633.321153296 -4800633.321153296 -5476254.807800259 0 0 0 0 0 131773540.475671 -3665244.30202332 -3665244.30202332 -5224150.832109013 0 0 0 0 0 131182086.793635 -2640915.266552015 -2640915.266552015 -4944810.367592117 0 0 0 0 0 130538674.7529663 -1720425.414304154 -1720425.414304154 -4647142.626456798 0 0 0 0 0 129863244.8383383 -896675.399670809 -896675.399670809 -4341503.044402572 0 0 0 0 0 128369767.2339998 -266291.7112215196 -266291.7112215196 -4142208.453644258 0 0 0 0 0 128192030.8053516 -576370.6846682237 -576370.6846682237 -5143553.936189333 0 0 0 0 0 127539159.4689629 74058.47131478004 74058.47131478004 -4790857.905970505 0 0 0 0 0 126873563.015509 664589.8895673543 664589.8895673543 -4441990.314124177 0 0 0 0 0 126205897.5601618 1192276.864464651 1192276.864464651 -4093518.925237456 0 0 0 0 0 125542468.0018009 1666514.182303358 1666514.182303358 -3749299.368645973 0 0 0 0 0 124873196.8874599 2091516.765406027 2091516.765406027 -3414699.940659524 0 0 0 0 0 123950917.7771754 2363476.232305835 2363476.232305835 -3087755.945763598 0 0 0 0 0 123588871.3786576 2042539.847440996 2042539.847440996 -3938045.432666281 0 0 0 0 0 122977063.7051568 2379764.651694759 2379764.651694759 -3612122.819776067 0 0 0 0 0 121629122.3443332 2134933.317482939 2134933.317482939 -3992016.465668889 0 0 0 0 0 121118839.0693952 2420116.550710521 2420116.550710521 -3668859.561156261 0 0 0 0 0 120116661.8485455 2260735.944712523 2260735.944712523 -4001166.953401715 0 0 0 0 0 120776311.5516093 2141793.613486816 2141793.613486816 -4374862.876089946 0 0 0 0 0 119644386.7407693 2489868.34218984 2489868.34218984 -3709216.758383795 0 0 0 0 0 119171569.8923089 2697295.260277781 2697295.260277781 -3425123.193412047 0 0 0 0 0 118711704.9165159 2886576.684853159 2886576.684853159 -3146014.682965499 0 0 0 0 0 118259139.7570806 3055406.658474718 3055406.658474718 -2880187.329918602 0 0 0 0 0 117439797.5723669 2852706.941663047 2852706.941663047 -3148490.544836716 0 0 0 0 0 117918886.7192919 2804706.86035292 2804706.86035292 -3482283.785833041 0 0 0 0 0 117026830.4251934 3002920.94878634 3002920.94878634 -2883683.710357843 0 0 0 0 0 116623027.0913149 3138035.728940386 3138035.728940386 -2629246.31563464 0 0 0 0 0 116234649.2617729 3254325.187335174 3254325.187335174 -2398028.980179125 0 0 0 0 0 115846133.860913 3351659.798720141 3351659.798720141 -2184730.913602911 0 0 0 0 0 115464069.4436713 3430526.566652289 3430526.566652289 -1986555.843699673 0 0 0 0 0 115132725.6508411 3197477.015789728 3197477.015789728 -2508713.515420671 0 0 0 0 0 114487173.3082624 3267195.396860801 3267195.396860801 -2058023.944413497 0 0 0 0 0 114774664.7073461 3269074.566990987 3269074.566990987 -2313141.923080674 0 0 0 0 0 114146416.3557126 3329172.306395661 3329172.306395661 -1874642.158855309 0 0 0 0 0 113814390.797736 3382541.720482768 3382541.720482768 -1700261.648521521 0 0 0 0 0 113491490.7046182 3427836.102028743 3427836.102028743 -1535140.032724609 0 0 0 0 0 113177073.1306168 3465070.216372934 3465070.216372934 -1379470.698728992 0 0 0 0 0 112686536.5339033 3257547.570988686 3257547.570988686 -1589457.194116128 0 0 0 0 0 112899899.1179989 3277101.682474236 3277101.682474236 -1803820.800657613 0 0 0 0 0 112397065.0253406 3289508.813164192 3289508.813164192 -1441064.933338505 0 0 0 0 0 112115628.3844667 3316300.141513702 3316300.141513702 -1299356.498950139 0 0 0 0 0 111841320.7678255 3337567.959635414 3337567.959635414 -1164754.816096146 0 0 0 0 0 111574240.3718423 3353802.87669243 3353802.87669243 -1037138.936371526 0 0 0 0 0 111314197.1428787 3365541.561681221 3365541.561681221 -916360.5613803422 0 0 0 0 0 110829781.8427034 3219436.601631441 3219436.601631441 -1147513.994431894 0 0 0 0 0 111060780.3959019 3373392.944994481 3373392.944994481 -802359.6668144488 0 0 0 0 0 110690259.9936128 3189715.077773691 3189715.077773691 -977747.5637746901 0 0 0 0 0 110454444.4736097 3196748.379974579 3196748.379974579 -866166.3519576254 0 0 0 0 0 110258630.6595914 3176978.795559492 3176978.795559492 -865283.995123396 0 0 0 0 0 110027405.5326582 3098459.95287159 3098459.95287159 -857653.6217923976 0 0 0 0 0 122198552.5539487 2569099.888898815 2569099.888898815 -3265784.252365439 0 0 0 0 0 76584494.62078199 -58767222.66251476 -58767222.66251476 50442268.00441068 0 0 0 0 0 91739735.90909164 -55611657.22220435 -55611657.22220435 40587578.02181121 0 0 0 0 0 102024777.4288605 -44173408.56445044 -44173408.56445044 20398870.82148912 0 0 0 0 0 103623251.4555314 -51580721.77496007 -51580721.77496007 32220923.21165164 0 0 0 0 0 110262122.9610872 -40039286.4031914 -40039286.4031914 15368105.54666174 0 0 0 0 0 116763753.2729846 -36004047.95566771 -36004047.95566771 11283362.32153916 0 0 0 0 0 121949069.8137991 -32117764.19671313 -32117764.19671313 8017275.549437003 0 0 0 0 0 126050799.489076 -28387513.93062388 -28387513.93062388 5464377.722557956 0 0 0 0 0 129216686.5841218 -24867866.8888053 -24867866.8888053 3498598.804193144 0 0 0 0 0 131592172.3926312 -21597332.71187494 -21597332.71187494 2009443.818489595 0 0 0 0 0 133314673.780476 -18588193.59596974 -18588193.59596974 898838.8647118487 0 0 0 0 0 134504303.1238731 -15841726.10888965 -15841726.10888965 93395.6342767301 0 0 0 0 0 136736252.9591565 -15520198.87625841 -15520198.87625841 -1085059.793855707 0 0 0 0 0 133327391.7215726 -12911218.88132817 -12911218.88132817 -2711641.860138913 0 0 0 0 0 133788039.3621056 -10838355.96726895 -10838355.96726895 -2943622.683587349 0 0 0 0 0 133975725.5237 -8959846.355683874 -8959846.355683874 -3046428.762165001 0 0 0 0 0 133948288.6733498 -7261717.477366968 -7261717.477366968 -3044608.189291329 0 0 0 0 0 132226256.0841274 -5919402.442676627 -5919402.442676627 -4597580.77683813 0 0 0 0 0 134674102.9847721 -7359560.991105757 -7359560.991105757 -4210647.251030041 0 0 0 0 0 131962089.6106195 -4612866.195511025 -4612866.195511025 -4383705.435721356 0 0 0 0 0 131587130.4786542 -3435512.08412048 -3435512.08412048 -4133669.501784218 0 0 0 0 0 131122648.5386542 -2376634.594100634 -2376634.594100634 -3857290.146575702 0 0 0 0 0 130590661.1595496 -1426987.414447384 -1426987.414447384 -3563175.653736865 0 0 0 0 0 130009037.0803186 -576757.8393043986 -576757.8393043986 -3259621.326204554 0 0 0 0 0 129381052.5171672 179025.5501422613 179025.5501422613 -2956355.095039781 0 0 0 0 0 129157006.9365045 -160217.9259170875 -160217.9259170875 -4030555.854390922 0 0 0 0 0 127774313.9773942 398172.9547115422 398172.9547115422 -3808154.488367298 0 0 0 0 0 127152761.4698321 993451.7156588215 993451.7156588215 -3470139.598103387 0 0 0 0 0 126522381.0582325 1526229.453412675 1526229.453412675 -3141161.989032331 0 0 0 0 0 125887127.8324827 2003811.528855586 2003811.528855586 -2815305.944976868 0 0 0 0 0 125243476.2035357 2430751.444498927 2430751.444498927 -2495511.048606034 0 0 0 0 0 124609398.7088086 2813368.865345584 2813368.865345584 -2185859.052111357 0 0 0 0 0 124208356.4655277 2465952.007186728 2465952.007186728 -3095071.761293707 0 0 0 0 0 123359348.423251 2703107.942841338 2703107.942841338 -2774730.945707863 0 0 0 0 0 122769658.5341749 3003557.88305893 3003557.88305893 -2476691.504184933 0 0 0 0 0 121837245.3930168 2269577.799440437 2269577.799440437 -4033642.411685254 0 0 0 0 0 121280083.1476446 2545410.634354183 2545410.634354183 -3715338.449601043 0 0 0 0 0 120252972.8121674 2392125.646348383 2392125.646348383 -4063571.963387543 0 0 0 0 0 120614566.1505728 2675224.032033979 2675224.032033979 -3361441.176018095 0 0 0 0 0 119744657.9885675 2612819.843372724 2612819.843372724 -3774479.622171205 0 0 0 0 0 119248814.321151 2812543.547608343 2812543.547608343 -3486281.364165297 0 0 0 0 0 118759476.0938225 2993329.150530691 2993329.150530691 -3207137.891545893 0 0 0 0 0 118280291.7574173 3153739.163490402 3153739.163490402 -2941776.752153937 0 0 0 0 0 117484966.2877611 2963214.443738627 2963214.443738627 -3207108.152223725 0 0 0 0 0 117817287.7413575 3206030.500173403 3206030.500173403 -2627448.919688019 0 0 0 0 0 117059414.1684762 3108048.985027444 3108048.985027444 -2940622.510322657 0 0 0 0 0 116630683.6109745 3232893.859387851 3232893.859387851 -2686974.303563444 0 0 0 0 0 116210642.9954169 3336203.544487698 3336203.544487698 -2459354.347361043 0 0 0 0 0 115796278.0896771 3420943.096118712 3420943.096118712 -2246197.89328845 0 0 0 0 0 115386260.4168321 3489864.093946565 3489864.093946565 -2049297.957154813 0 0 0 0 0 115094680.408174 3488434.760592004 3488434.760592004 -1813110.9279803 0 0 0 0 0 114419200.2873407 3335794.292628354 3335794.292628354 -2120825.621636585 0 0 0 0 0 114728069.6465703 3547937.768201937 3547937.768201937 -1634188.564607077 0 0 0 0 0 114069060.8596451 3392824.107145248 3392824.107145248 -1936389.209081992 0 0 0 0 0 113728477.9689602 3441270.967856126 3441270.967856126 -1760709.833517574 0 0 0 0 0 113396381.8983027 3481253.580624636 3481253.580624636 -1594481.623156407 0 0 0 0 0 113073412.3865505 3513380.545423579 3513380.545423579 -1437560.783581157 0 0 0 0 0 112596829.9826277 3310600.334317413 3310600.334317413 -1647387.518256966 0 0 0 0 0 112868661.1844982 3494479.970166224 3494479.970166224 -1232420.871831063 0 0 0 0 0 112302086.6041658 3338968.000434074 3338968.000434074 -1497384.572146081 0 0 0 0 0 112015481.3698617 3361720.889623688 3361720.889623688 -1354173.92089062 0 0 0 0 0 111736766.1577397 3379215.962206711 3379215.962206711 -1218059.458978997 0 0 0 0 0 111465927.6541122 3391840.255986123 3391840.255986123 -1088893.302492189 0 0 0 0 0 111202925.9259141 3400007.892957088 3400007.892957088 -966418.3607452489 0 0 0 0 0 110814644.7655732 3378008.424967278 3378008.424967278 -694685.0415200876 0 0 0 0 0 110947507.7749864 3404287.729484616 3404287.729484616 -850451.5053087891 0 0 0 0 0 110591025.9200045 3229412.193291595 3229412.193291595 -1028506.277394887 0 0 0 0 0 110379301.4996018 3239966.242984233 3239966.242984233 -912789.2891681048 0 0 0 0 0 110029428.7952001 3169623.88817503 3169623.88817503 -799133.8052282037 0 0 0 0 0 109817238.7541268 3110624.712587903 3110624.712587903 -852335.9165621112 0 0 0 0 0 122373522.2298969 2680150.540436903 2680150.540436903 -3299314.685832609 0 0 0 0 0 76520110.5241548 -59682722.43258546 -59682722.43258546 46394783.32978807 0 0 0 0 0 90559419.95805515 -55229306.55606963 -55229306.55606963 36528396.15753042 0 0 0 0 0 113622146.4538727 -47103555.8157634 -47103555.8157634 25151576.29862095 0 0 0 0 0 101758621.9255515 -50383429.90219796 -50383429.90219796 27884126.06357079 0 0 0 0 0 120670360.5868054 -42484314.10817879 -42484314.10817879 19520953.28263607 0 0 0 0 0 126120929.4248474 -37974332.15054063 -37974332.15054063 14859173.23593237 0 0 0 0 0 130436804.0287116 -33709100.991526 -33709100.991526 11127731.84217683 0 0 0 0 0 133659625.2187082 -29664503.08116792 -29664503.08116792 8151126.224977572 0 0 0 0 0 135968994.6852479 -25891112.54339194 -25891112.54339194 5808092.654917409 0 0 0 0 0 137540172.233878 -22413551.41098777 -22413551.41098777 3985951.03890773 0 0 0 0 0 138532141.7314302 -19238957.56469427 -19238957.56469427 2588219.964003794 0 0 0 0 0 139058787.7432336 -16358849.81871063 -16358849.81871063 1533584.843988054 0 0 0 0 0 135258669.7882054 -13347604.27527756 -13347604.27527756 -471487.6985376769 0 0 0 0 0 137012151.595891 -13164394.4664963 -13164394.4664963 -1660037.696144107 0 0 0 0 0 137005628.232461 -11027911.95388822 -11027911.95388822 -2047901.523286074 0 0 0 0 0 136778067.1435347 -9096852.519648774 -9096852.519648774 -2284848.129536908 0 0 0 0 0 136376122.2934481 -7356389.289900834 -7356389.289900834 -2399834.15069571 0 0 0 0 0 134245929.6416118 -5893388.336090701 -5893388.336090701 -4132552.778308551 0 0 0 0 0 133745304.6687584 -5731509.670520691 -5731509.670520691 -2963079.076769254 0 0 0 0 0 133710655.7468856 -4572384.555258919 -4572384.555258919 -3993339.835973411 0 0 0 0 0 133093580.2621549 -3384862.730441862 -3384862.730441862 -3808114.690174906 0 0 0 0 0 132414315.2080662 -2319259.609643526 -2319259.609643526 -3587074.92420944 0 0 0 0 0 131688925.9297975 -1366102.091129905 -1366102.091129905 -3341295.047311232 0 0 0 0 0 130928115.3506664 -517364.9376614942 -517364.9376614942 -3081365.815274936 0 0 0 0 0 130154118.2922313 239021.8885175658 239021.8885175658 -2813128.648274511 0 0 0 0 0 128726005.6286233 856099.9208069987 856099.9208069987 -2655065.862505168 0 0 0 0 0 128442780.8120985 500500.9942825463 500500.9942825463 -3721383.985440493 0 0 0 0 0 127713051.5959267 1093602.093210659 1093602.093210659 -3405675.196291688 0 0 0 0 0 126984170.1249212 1620115.093121635 1620115.093121635 -3094903.627449808 0 0 0 0 0 126262720.1054227 2092219.996508407 2092219.996508407 -2782856.748871388 0 0 0 0 0 125553450.6327365 2514408.443232649 2514408.443232649 -2474305.618379839 0 0 0 0 0 124841998.0631991 2884987.962072456 2884987.962072456 -2177263.518926355 0 0 0 0 0 123974487.9210954 3146217.382509283 3146217.382509283 -1896018.167491154 0 0 0 0 0 123554162.1859197 2797060.941769073 2797060.941769073 -2791818.454477221 0 0 0 0 0 122911121.6939464 3088848.974163552 3088848.974163552 -2500729.424325246 0 0 0 0 0 121652156.7674586 2844482.234500811 2844482.234500811 -2960650.264325425 0 0 0 0 0 121111382.0734651 3088102.097206369 3088102.097206369 -2670847.393884446 0 0 0 0 0 120118900.0279546 2898673.760918104 2898673.760918104 -3074892.361531499 0 0 0 0 0 120732954.5468643 2791165.536831299 2791165.536831299 -3411827.083995588 0 0 0 0 0 119617956.4559917 3091239.29422249 3091239.29422249 -2811272.067304554 0 0 0 0 0 119124474.4181412 3265152.669942316 3265152.669942316 -2550842.804103497 0 0 0 0 0 118646256.1559409 3422459.660001199 3422459.660001199 -2298525.013440969 0 0 0 0 0 118177993.5609379 3560879.583347205 3560879.583347205 -2058995.119788329 0 0 0 0 0 117375268.7599598 3339996.427416588 3339996.427416588 -2383190.903985897 0 0 0 0 0 117811845.8237914 3295548.336774372 3295548.336774372 -2689006.138012125 0 0 0 0 0 116940277.5434466 3459717.457764284 3459717.457764284 -2146615.091792831 0 0 0 0 0 116523726.2840189 3564310.924005297 3564310.924005297 -1923807.190537322 0 0 0 0 0 116116305.6882016 3650431.308930123 3650431.308930123 -1719621.766802518 0 0 0 0 0 115717719.3110694 3724000.183966505 3724000.183966505 -1525559.620857577 0 0 0 0 0 115337844.2480756 3779570.018276735 3779570.018276735 -1349999.558664053 0 0 0 0 0 115010931.5818928 3552611.901670742 3552611.901670742 -1879254.540939825 0 0 0 0 0 114371908.3704687 3600591.394560031 3600591.394560031 -1460658.122773206 0 0 0 0 0 114636949.6501205 3605671.785894029 3605671.785894029 -1695499.888912768 0 0 0 0 0 114026712.2783314 3645050.838067628 3645050.838067628 -1295309.826207439 0 0 0 0 0 113690546.8947968 3681516.287404831 3681516.287404831 -1138593.779084323 0 0 0 0 0 113364134.5853444 3710517.932838639 3710517.932838639 -990786.200418076 0 0 0 0 0 113046143.2291332 3732524.514431846 3732524.514431846 -851615.5921941277 0 0 0 0 0 112568270.7538301 3518307.910202957 3518307.910202957 -1091917.0077916 0 0 0 0 0 112760458.2028148 3539351.903090389 3539351.903090389 -1289064.838792497 0 0 0 0 0 112276850.3776475 3537455.331097302 3537455.331097302 -957486.3464969636 0 0 0 0 0 111993275.400139 3551394.481111479 3551394.481111479 -829863.0509479821 0 0 0 0 0 111717384.9910393 3560431.886413023 3560431.886413023 -709070.3831320935 0 0 0 0 0 111449152.64543 3564998.416743333 3564998.416743333 -595069.5447521441 0 0 0 0 0 111188280.568325 3565607.709665967 3565607.709665967 -487810.5080500842 0 0 0 0 0 110698682.7075967 3405239.242108257 3405239.242108257 -740880.5914567272 0 0 0 0 0 110934490.9539422 3562810.905688573 3562810.905688573 -387550.7507140411 0 0 0 0 0 110577689.5277278 3374889.14396905 3374889.14396905 -586505.0891563904 0 0 0 0 0 110283704.1412915 3362614.037789403 3362614.037789403 -514942.8669987206 0 0 0 0 0 110105366.1421908 3291498.954146574 3291498.954146574 -557107.8107350756 0 0 0 0 0 110265529.509469 3354722.645570661 3354722.645570661 -583364.7836383724 0 0 0 0 0 122185725.6564583 3268986.454293774 3268986.454293774 -2192151.441035208 0 0 0 0 0 89956383.31816204 -64699305.56305932 -64699305.56305932 52501612.58498625 0 0 0 0 0 104578997.5030694 -59536265.52196223 -59536265.52196223 42425656.45319463 0 0 0 0 0 111036421.4244225 -44712403.296882 -44712403.296882 21408682.76877473 0 0 0 0 0 115941616.2828993 -54597211.99593197 -54597211.99593197 34321219.10655677 0 0 0 0 0 118001483.9470472 -39865399.05766716 -39865399.05766716 16344898.51351239 0 0 0 0 0 123574035.9036278 -35307183.28179765 -35307183.28179765 12388529.22639861 0 0 0 0 0 127974745.4870383 -30962066.76812889 -30962066.76812889 9298200.655309964 0 0 0 0 0 131324814.4740059 -26905570.04857369 -26905570.04857369 6920289.643911478 0 0 0 0 0 133786806.6259879 -23179499.11236832 -23179499.11236832 5093879.823085246 0 0 0 0 0 135526374.6884993 -19791305.96999232 -19791305.96999232 3718729.865292411 0 0 0 0 0 136683305.6658743 -16726953.59723871 -16726953.59723871 2691684.84185256 0 0 0 0 0 137372503.4372537 -13969418.89090421 -13969418.89090421 1945448.742921936 0 0 0 0 0 139219086.0042066 -13760127.22061277 -13760127.22061277 755018.9906860781 0 0 0 0 0 135656382.4561276 -11093364.96964761 -11093364.96964761 -845287.8830515365 0 0 0 0 0 135767590.8402244 -9063320.87812637 -9063320.87812637 -1069200.270363164 0 0 0 0 0 135649235.9065735 -7243173.583625358 -7243173.583625358 -1172801.939414963 0 0 0 0 0 135353630.8385504 -5612114.920629592 -5612114.920629592 -1182771.172388132 0 0 0 0 0 133399482.9129996 -4356941.839596529 -4356941.839596529 -2822225.410021461 0 0 0 0 0 135839134.7223106 -5795439.261653315 -5795439.261653315 -2419158.049362657 0 0 0 0 0 132940819.7929279 -3125162.507076886 -3125162.507076886 -2637299.70352869 0 0 0 0 0 132394150.0713254 -2023815.437868683 -2023815.437868683 -2420591.646038766 0 0 0 0 0 131781019.8659071 -1040634.83892057 -1040634.83892057 -2180381.410073986 0 0 0 0 0 131118530.7519341 -165801.1832268202 -165801.1832268202 -1926346.725544548 0 0 0 0 0 130422975.402725 610160.9619317701 610160.9619317701 -1666806.502623744 0 0 0 0 0 129693692.3617635 1297436.219042767 1297436.219042767 -1407055.645866275 0 0 0 0 0 129361986.797098 909837.2815471394 909837.2815471394 -2541856.763231908 0 0 0 0 0 128041197.6896061 1453896.627787238 1453896.627787238 -2355976.54532119 0 0 0 0 0 127351829.5818348 1989083.069114254 1989083.069114254 -2064410.081095356 0 0 0 0 0 126653557.3862073 2460157.458949559 2460157.458949559 -1780866.309649968 0 0 0 0 0 125959698.701498 2880063.668112708 2880063.668112708 -1498862.844799336 0 0 0 0 0 125263236.3454182 3251073.824526941 3251073.824526941 -1223531.16923171 0 0 0 0 0 124579351.8832893 3575059.243257344 3575059.243257344 -963653.610606394 0 0 0 0 0 124140651.4659271 3208630.645423012 3208630.645423012 -1898631.663940701 0 0 0 0 0 123342521.327108 3436574.943970442 3436574.943970442 -1622688.294701124 0 0 0 0 0 122718295.4305516 3690692.630878534 3690692.630878534 -1363172.252552706 0 0 0 0 0 121779095.2854165 2946539.405216707 2946539.405216707 -2999629.554790434 0 0 0 0 0 121196909.590569 3181539.09346114 3181539.09346114 -2714108.591070953 0 0 0 0 0 120183046.5367553 3000009.97854035 3000009.97854035 -3134228.260627902 0 0 0 0 0 120576584.8684779 3301851.026389761 3301851.026389761 -2398524.356946317 0 0 0 0 0 119653872.6652987 3184463.265522112 3184463.265522112 -2869922.904171844 0 0 0 0 0 119141174.8729397 3354306.056189633 3354306.056189633 -2607393.80149262 0 0 0 0 0 118637316.463022 3504265.518480803 3504265.518480803 -2356196.999978423 0 0 0 0 0 118145561.3060959 3635054.340653155 3635054.340653155 -2117033.542241289 0 0 0 0 0 117362198.0985927 3424359.159562424 3424359.159562424 -2440444.918150432 0 0 0 0 0 117721930.9755009 3682094.195438406 3682094.195438406 -1832009.454629092 0 0 0 0 0 116922122.7345753 3538053.684115028 3538053.684115028 -2201741.519529633 0 0 0 0 0 116485193.5353145 3633625.775708993 3633625.775708993 -1979657.955305937 0 0 0 0 0 116062442.4482074 3712569.517097097 3712569.517097097 -1775407.366435007 0 0 0 0 0 115646931.7190559 3779711.18893826 3779711.18893826 -1581769.861070356 0 0 0 0 0 115231694.0451824 3831461.543334534 3831461.543334534 -1412289.734349278 0 0 0 0 0 114957246.5824238 3826568.020123205 3826568.020123205 -1185419.019866418 0 0 0 0 0 114274329.7760547 3653560.103980993 3653560.103980993 -1519980.718312399 0 0 0 0 0 114592128.824963 3871556.876929752 3871556.876929752 -1020864.887224846 0 0 0 0 0 113920962.7965685 3693629.267213943 3693629.267213943 -1353607.373672405 0 0 0 0 0 113577780.741459 3725759.694765012 3725759.694765012 -1195705.486284866 0 0 0 0 0 113244182.3651021 3750442.768625113 3750442.768625113 -1046726.454628672 0 0 0 0 0 112919622.7398665 3768322.496040941 3768322.496040941 -906340.3924266455 0 0 0 0 0 112456303.1645725 3559914.44962144 3559914.44962144 -1146959.850378881 0 0 0 0 0 112735618.4453506 3748418.217748941 3748418.217748941 -719974.0792237632 0 0 0 0 0 112160608.9185189 3575180.633794731 3575180.633794731 -1010912.351158593 0 0 0 0 0 111873062.5765266 3585406.765083937 3585406.765083937 -881715.6540983279 0 0 0 0 0 111593848.229828 3590983.806261615 3590983.806261615 -759367.9284780964 0 0 0 0 0 111322826.661106 3592162.85200935 3592162.85200935 -643741.4289150012 0 0 0 0 0 111059759.8345082 3589249.53428545 3589249.53428545 -534604.7840715165 0 0 0 0 0 110688681.5266288 3557501.069757184 3557501.069757184 -292509.4464500218 0 0 0 0 0 110804557.8949325 3582720.100277972 3582720.100277972 -432135.769480306 0 0 0 0 0 110455821.8412509 3405697.225860404 3405697.225860404 -636770.5112994169 0 0 0 0 0 110262641.2356705 3410889.94733088 3410889.94733088 -547861.1255728903 0 0 0 0 0 109852827.3899142 3296521.0302886 3296521.0302886 -537502.3224520182 0 0 0 0 0 110042983.4458011 3357154.752795343 3357154.752795343 -487655.1991365836 0 0 0 0 0 122279718.32674 3345932.865143353 3345932.865143353 -2221892.346547282 0 0 0 0 0 89082265.67389929 -64804949.5722017 -64804949.5722017 47328071.49365085 0 0 0 0 0 102154632.0798822 -58079715.06232544 -58079715.06232544 36705066.91130336 0 0 0 0 0 123377547.3371519 -48313501.00299538 -48313501.00299538 26989500.52880902 0 0 0 0 0 112449079.0420501 -50654814.32613107 -50654814.32613107 27955925.9750425 0 0 0 0 0 128722923.669424 -42437994.15930588 -42437994.15930588 20655989.88783003 0 0 0 0 0 133269912.2047346 -37373164.37728642 -37373164.37728642 16110156.96535939 0 0 0 0 0 136600979.6853313 -32627402.20985577 -32627402.20985577 12491927.06322183 0 0 0 0 0 138888685.3805539 -28249630.19672432 -28249630.19672432 9641863.78796551 0 0 0 0 0 140389112.422142 -24269332.25932754 -24269332.25932754 7412854.27817479 0 0 0 0 0 141257653.7867438 -20673124.16353501 -20673124.16353501 5688234.431693309 0 0 0 0 0 141652697.8465725 -17446092.66487275 -17446092.66487275 4368314.082925679 0 0 0 0 0 141655848.3778073 -14557777.84170622 -14557777.84170622 3369073.86549912 0 0 0 0 0 137686994.9231252 -11496623.01495671 -11496623.01495671 1418588.106703436 0 0 0 0 0 139086684.0894665 -11422111.33003984 -11422111.33003984 197062.8037631889 0 0 0 0 0 138728444.136692 -9325115.543214515 -9325115.543214515 -184804.1558551709 0 0 0 0 0 138198506.0484268 -7448774.401564686 -7448774.401564686 -423467.0808964261 0 0 0 0 0 137534847.2548619 -5776642.09101937 -5776642.09101937 -549470.2353124334 0 0 0 0 0 135197475.9817199 -4397898.786836757 -4397898.786836757 -2364607.037896598 0 0 0 0 0 134913257.0034193 -4156805.340699463 -4156805.340699463 -1123196.232339855 0 0 0 0 0 134476912.8905403 -3149396.224545375 -3149396.224545375 -2253639.502603681 0 0 0 0 0 133700594.6491134 -2035531.014946761 -2035531.014946761 -2099930.113878954 0 0 0 0 0 132882100.7475379 -1044294.829376825 -1044294.829376825 -1914267.599621367 0 0 0 0 0 132036840.3658679 -164505.5213345603 -164505.5213345603 -1707321.763528118 0 0 0 0 0 131171587.3310164 611418.8546371877 611418.8546371877 -1489273.641455464 0 0 0 0 0 130308901.9157957 1299581.02881398 1299581.02881398 -1261865.914399876 0 0 0 0 0 128951003.0277106 1903607.082802023 1903607.082802023 -1147434.277062957 0 0 0 0 0 128572715.4247159 1509819.219396678 1509819.219396678 -2267623.47674094 0 0 0 0 0 127775812.6935111 2036534.783270369 2036534.783270369 -1997699.093454435 0 0 0 0 0 126989530.8978584 2504421.738297651 2504421.738297651 -1730769.37234883 0 0 0 0 0 126220062.2147314 2920094.122790586 2920094.122790586 -1462565.033955431 0 0 0 0 0 125464695.3365907 3285978.295400589 3285978.295400589 -1198357.077824953 0 0 0 0 0 124718465.3885757 3604316.307473955 3604316.307473955 -950079.0927976347 0 0 0 0 0 123905786.0871414 3856711.410287193 3856711.410287193 -717323.8511919938 0 0 0 0 0 123453937.3156863 3491443.542993063 3491443.542993063 -1633497.189969837 0 0 0 0 0 122783928.3827755 3739081.171725773 3739081.171725773 -1380275.996894752 0 0 0 0 0 121610555.1649776 3501858.760818909 3501858.760818909 -1921319.379755186 0 0 0 0 0 121044063.0996298 3704941.287488955 3704941.287488955 -1669943.192188306 0 0 0 0 0 120055716.8821706 3486112.664546233 3486112.664546233 -2147712.581551712 0 0 0 0 0 120623717.3745014 3384492.469708276 3384492.469708276 -2445956.286388609 0 0 0 0 0 119536374.7198814 3645899.621724968 3645899.621724968 -1907691.357888359 0 0 0 0 0 119029756.5760724 3790952.039141866 3790952.039141866 -1672311.161154874 0 0 0 0 0 118536094.1583317 3917453.26575448 3917453.26575448 -1447572.100898339 0 0 0 0 0 118054614.9451507 4026806.866783235 4026806.866783235 -1235750.741665136 0 0 0 0 0 117271242.8257512 3789269.418939909 3789269.418939909 -1615299.245730435 0 0 0 0 0 117665229.8079746 3748402.205467368 3748402.205467368 -1890075.624917311 0 0 0 0 0 116826804.565184 3879246.237699944 3879246.237699944 -1409813.890754765 0 0 0 0 0 116397566.2706931 3953825.593191071 3953825.593191071 -1217435.162629199 0 0 0 0 0 115975573.1074324 4014338.673855813 4014338.673855813 -1035142.104774652 0 0 0 0 0 115567478.3999635 4065060.037790352 4065060.037790352 -861575.4171467444 0 0 0 0 0 115191571.0970291 4110410.669348023 4110410.669348023 -705200.638160562 0 0 0 0 0 114851370.3859968 3875818.997843754 3875818.997843754 -1244204.207282088 0 0 0 0 0 114233838.3558604 3907573.199167812 3907573.199167812 -864800.673278673 0 0 0 0 0 114474249.4305238 3914597.083429079 3914597.083429079 -1078291.790510993 0 0 0 0 0 113885298.2784435 3935442.150201214 3935442.150201214 -717760.9567188477 0 0 0 0 0 113546331.6911001 3955919.13351771 3955919.13351771 -579397.973540603 0 0 0 0 0 113216748.3026667 3969818.394516916 3969818.394516916 -449013.210107843 0 0 0 0 0 112896822.5264505 3977730.273829411 3977730.273829411 -326086.1090321942 0 0 0 0 0 112433795.0692243 3759256.479453516 3759256.479453516 -594696.4261816362 0 0 0 0 0 112605490.5162583 3780627.295742181 3780627.295742181 -773036.0689214905 0 0 0 0 0 112140547.9786509 3765380.586227154 3765380.586227154 -475216.7742203628 0 0 0 0 0 111855762.1027598 3766992.969829454 3766992.969829454 -362177.7499360072 0 0 0 0 0 111579231.1439751 3764385.374877785 3764385.374877785 -255336.0734965771 0 0 0 0 0 111310575.4365767 3757781.923431435 3757781.923431435 -154652.3762004364 0 0 0 0 0 111049867.1744735 3747641.296438327 3747641.296438327 -59774.29022013558 0 0 0 0 0 110550135.3852557 3572972.587940935 3572972.587940935 -336511.7851190309 0 0 0 0 0 110794439.2849258 3735467.366440383 3735467.366440383 27759.57132623079 0 0 0 0 0 110465168.3886716 3548887.745003407 3548887.745003407 -207599.5245886624 0 0 0 0 0 110310119.6222026 3521382.573851494 3521382.573851494 -164217.1961513605 0 0 0 0 0 110107571.2022144 3475596.496521292 3475596.496521292 -234291.7459691959 0 0 0 0 0 122105905.2500183 3912996.290921528 3912996.290921528 -1116974.118439531 0 0 0 0 0 103973261.6944022 -70170364.33521315 -70170364.33521315 53425775.3528739 0 0 0 0 0 117239197.6049971 -63005488.9171032 -63005488.9171032 42973526.6860522 0 0 0 0 0 119511037.5888151 -44824602.4186557 -44824602.4186557 21427088.78206463 0 0 0 0 0 125087565.9671712 -54315511.38822528 -54315511.38822528 33756450.02228626 0 0 0 0 0 125556033.9834128 -39330684.37813301 -39330684.37813301 16909006.59861495 0 0 0 0 0 130265087.2761752 -34191395.38876174 -34191395.38876174 13315433.51391316 0 0 0 0 0 133788108.0163125 -29452226.73188201 -29452226.73188201 10519923.92073727 0 0 0 0 0 136311201.1789903 -25177132.90357545 -25177132.90357545 8375128.316342054 0 0 0 0 0 138040752.952696 -21323803.1569268 -21323803.1569268 6713846.051838464 0 0 0 0 0 139129343.7383236 -17878239.07461437 -17878239.07461437 5461423.737987434 0 0 0 0 0 139712174.918174 -14805083.72146766 -14805083.72146766 4518079.322176669 0 0 0 0 0 139911545.6112323 -12074530.38989569 -12074530.38989569 3831775.326248626 0 0 0 0 0 141365684.6368976 -11979574.00928017 -11979574.00928017 2625785.360207617 0 0 0 0 0 137700314.1430987 -9288499.410680063 -9288499.410680063 1065628.893682916 0 0 0 0 0 137476431.9657557 -7322553.91775326 -7322553.91775326 849289.3861459629 0 0 0 0 0 137067449.3236467 -5574816.288128022 -5574816.288128022 739457.244557037 0 0 0 0 0 136516525.278204 -4024910.442004353 -4024910.442004353 710664.7556409762 0 0 0 0 0 134360142.0593601 -2860929.104335387 -2860929.104335387 -1011117.569329985 0 0 0 0 0 136770908.532934 -4289359.087130883 -4289359.087130883 -589059.9310372464 0 0 0 0 0 133721094.4412181 -1709655.951780066 -1709655.951780066 -860214.6628766013 0 0 0 0 0 133017020.2277161 -688316.1913895955 -688316.1913895955 -681291.5686117414 0 0 0 0 0 132268086.422236 216346.6420929372 216346.6420929372 -483065.1268173307 0 0 0 0 0 131486690.0251029 1014685.157124236 1014685.157124236 -274104.9000558709 0 0 0 0 0 130688399.3762469 1717433.656972643 1717433.656972643 -61695.43505112272 0 0 0 0 0 129870464.9554666 2334138.681789996 2334138.681789996 151554.1987572446 0 0 0 0 0 129441452.3353607 1906850.862234466 1906850.862234466 -1032488.140591799 0 0 0 0 0 128194506.7457675 2440059.745043169 2440059.745043169 -895065.5278753826 0 0 0 0 0 127435900.8529232 2909118.750538862 2909118.750538862 -654537.6592880178 0 0 0 0 0 126683126.8863821 3320947.038670093 3320947.038670093 -413839.1809711338 0 0 0 0 0 125938782.6993425 3683901.33834237 3683901.33834237 -179119.8943046347 0 0 0 0 0 125201646.9906089 3999526.311402002 3999526.311402002 44567.72344319798 0 0 0 0 0 124478912.876589 4270701.55285514 4270701.55285514 256652.8922556573 0 0 0 0 0 123989398.294603 3880192.123294931 3880192.123294931 -713295.0858918473 0 0 0 0 0 123243041.4682898 4100983.952125875 4100983.952125875 -484317.1247244902 0 0 0 0 0 122592722.9057754 4312122.302244353 4312122.302244353 -262927.0642976738 0 0 0 0 0 121661057.0161199 3571473.054612766 3571473.054612766 -1956723.19568264 0 0 0 0 0 121060018.6731899 3765515.081175717 3765515.081175717 -1709053.846768069 0 0 0 0 0 120061143.4935926 3559847.927613258 3559847.927613258 -2200033.896786036 0 0 0 0 0 120485905.1811305 3878162.120836789 3878162.120836789 -1434926.157529244 0 0 0 0 0 119517078.4622138 3715705.914687903 3715705.914687903 -1960292.668359563 0 0 0 0 0 118989657.8689239 3853990.909969627 3853990.909969627 -1724736.594311874 0 0 0 0 0 118473886.5216601 3974144.513813774 3974144.513813774 -1500922.602485203 0 0 0 0 0 117971714.3290499 4076473.530788464 4076473.530788464 -1289301.212378503 0 0 0 0 0 117201541.2962075 3846451.687567893 3846451.687567893 -1670406.125741773 0 0 0 0 0 117586661.9311954 4120003.562212194 4120003.562212194 -1035526.813827899 0 0 0 0 0 116747694.7380681 3930496.937639466 3930496.937639466 -1463938.345611276 0 0 0 0 0 116305351.3595942 4001229.18465651 4001229.18465651 -1272117.021146594 0 0 0 0 0 115882493.7631903 4062800.922309228 4062800.922309228 -1089526.519135844 0 0 0 0 0 115463742.609774 4110595.698973775 4110595.698973775 -917803.3266487819 0 0 0 0 0 115057755.5798377 4145375.045197322 4145375.045197322 -761045.8817147861 0 0 0 0 0 114808661.3189434 4144274.209748578 4144274.209748578 -551972.4731768471 0 0 0 0 0 114108254.1965723 3945623.14213274 3945623.14213274 -920678.8731014138 0 0 0 0 0 114436220.4190948 4170130.04413756 4170130.04413756 -407326.1815117021 0 0 0 0 0 113752923.9357906 3969049.338450166 3969049.338450166 -772271.1242288067 0 0 0 0 0 113408249.0445711 3985440.426883339 3985440.426883339 -632487.3462990838 0 0 0 0 0 113073550.7666845 3995502.11649164 3995502.11649164 -500701.9489271743 0 0 0 0 0 112748827.70877 4000070.576879845 4000070.576879845 -376615.5835882311 0 0 0 0 0 112300566.8033061 3787925.830959199 3787925.830959199 -646044.7782509124 0 0 0 0 0 112585175.9280212 3980233.432066784 3980233.432066784 -210645.14465297 0 0 0 0 0 112004487.6674978 3790877.924565096 3790877.924565096 -525069.9722044007 0 0 0 0 0 111717142.9589759 3789530.3250485 3789530.3250485 -410631.3879633888 0 0 0 0 0 111438361.8954578 3784084.817103813 3784084.817103813 -302389.451779159 0 0 0 0 0 111168053.244653 3774781.761176363 3774781.761176363 -200257.7283731146 0 0 0 0 0 110905938.2926358 3761969.22731215 3761969.22731215 -103867.1185598266 0 0 0 0 0 110550355.4322313 3721175.205349072 3721175.205349072 106654.2261681138 0 0 0 0 0 110654838.7769795 3746916.146661816 3746916.146661816 -13384.17300875371 0 0 0 0 0 110305176.0154686 3561197.947651478 3561197.947651478 -249797.3274553386 0 0 0 0 0 110093320.7895653 3527522.533968683 3527522.533968683 -187343.0112197355 0 0 0 0 0 109885076.9640699 3460687.025843883 3460687.025843883 -192760.3298719938 0 0 0 0 0 122129178.3347936 3954196.384043673 3954196.384043673 -1139417.539529999 0 0 0 0 0 101883608.6747302 -69073514.17357975 -69073514.17357975 47279206.63290732 0 0 0 0 0 116450759.1619497 -62627526.07317853 -62627526.07317853 38759867.92916455 0 0 0 0 0 131568282.2710211 -47444568.6298865 -47444568.6298865 26089076.00165117 0 0 0 0 0 122408343.1445514 -49523516.96755154 -49523516.96755154 27021615.69643801 0 0 0 0 0 126104103.5914676 -55701326.09399634 -55701326.09399634 32739339.57516589 0 0 0 0 0 136656143.1298633 -41756142.09896806 -41756142.09896806 21210073.08620609 0 0 0 0 0 140112819.8732066 -36238336.12074392 -36238336.12074392 17060130.44827968 0 0 0 0 0 142323855.7873847 -31139994.02235016 -31139994.02235016 13707313.17752481 0 0 0 0 0 143670756.5986743 -26551024.11780686 -26551024.11780686 11067170.69505351 0 0 0 0 0 144380176.1712925 -22459089.86898436 -22459089.86898436 9000777.09029291 0 0 0 0 0 144562843.0041811 -18822390.60410728 -18822390.60410728 7401859.579365128 0 0 0 0 0 144370692.0172661 -15586714.41404563 -15586714.41404563 6162765.047429718 0 0 0 0 0 143876783.9101985 -12725544.59488256 -12725544.59488256 5222059.697315117 0 0 0 0 0 139799746.5441286 -9655975.0674174 -9655975.0674174 3343188.486314481 0 0 0 0 0 140849293.7800506 -9686508.060042327 -9686508.060042327 2088514.307967615 0 0 0 0 0 140162601.4172032 -7652488.730542475 -7652488.730542475 1715445.897200115 0 0 0 0 0 139349678.7194131 -5850761.321809218 -5850761.321809218 1472600.087200177 0 0 0 0 0 138444249.1277804 -4258810.326247055 -4258810.326247055 1330442.575185154 0 0 0 0 0 135933657.1977255 -2968940.412652479 -2968940.412652479 -561586.5887919138 0 0 0 0 0 135854999.8532625 -2653921.287782626 -2653921.287782626 743355.020722837 0 0 0 0 0 135045620.8625194 -1798634.100946648 -1798634.100946648 -482921.6015241366 0 0 0 0 0 134126680.2589908 -762672.0616531912 -762672.0616531912 -364996.0974875313 0 0 0 0 0 133184098.3696337 150992.9788051824 150992.9788051824 -219523.9229767944 0 0 0 0 0 132232260.8256304 955723.9788015982 955723.9788015982 -55789.17424987331 0 0 0 0 0 131280701.379068 1662134.354280757 1662134.354280757 117509.2974114575 0 0 0 0 0 130338745.132489 2280925.772815085 2280925.772815085 299630.8594522633 0 0 0 0 0 129053540.7656351 2875180.968578674 2875180.968578674 361599.7082447718 0 0 0 0 0 128584200.7330398 2439512.313680765 2439512.313680765 -802860.1709550414 0 0 0 0 0 127733699.785672 2906283.95531996 2906283.95531996 -582394.051357187 0 0 0 0 0 126900349.7809369 3317495.095722968 3317495.095722968 -359507.2217072084 0 0 0 0 0 126088080.5274692 3676062.287877213 3676062.287877213 -138008.4471548807 0 0 0 0 0 125291988.3017077 3986910.420170976 3986910.420170976 74705.81525399898 0 0 0 0 0 124518016.0801199 4256720.1734715 4256720.1734715 275504.830217874 0 0 0 0 0 123773367.6202228 4504553.510317867 4504553.510317867 458352.4108958914 0 0 0 0 0 123279114.3831965 4119055.883225998 4119055.883225998 -487974.2231184635 0 0 0 0 0 122587747.7369456 4325132.931748523 4325132.931748523 -272946.6815195112 0 0 0 0 0 121508058.2085269 4104713.796389469 4104713.796389469 -885373.0783242297 0 0 0 0 0 120914734.9777853 4265344.173577091 4265344.173577091 -673254.8455791563 0 0 0 0 0 119940851.2767426 4027354.123876345 4027354.123876345 -1214406.651168228 0 0 0 0 0 120468487.2576678 3932038.348840243 3932038.348840243 -1477136.370031449 0 0 0 0 0 119409809.712401 4159192.083701141 4159192.083701141 -998676.0031304598 0 0 0 0 0 118889542.1723966 4273331.394452067 4273331.394452067 -792580.8965779829 0 0 0 0 0 118384848.4850447 4371456.06699011 4371456.06699011 -594619.4914451257 0 0 0 0 0 117891954.6501192 4451704.663970888 4451704.663970888 -414430.3931106187 0 0 0 0 0 117126212.7576131 4198131.731811309 4198131.731811309 -845002.9215243739 0 0 0 0 0 117484864.185279 4163274.574742245 4163274.574742245 -1089292.783574671 0 0 0 0 0 116678317.8249973 4262654.28367277 4262654.28367277 -666834.224284053 0 0 0 0 0 116245676.7653332 4316634.313493438 4316634.313493438 -500908.2674071125 0 0 0 0 0 115819576.2169441 4359344.143767658 4359344.143767658 -340492.3570915998 0 0 0 0 0 115412624.9936536 4390890.625083264 4390890.625083264 -193474.5773704573 0 0 0 0 0 115017514.906137 4415043.299711727 4415043.299711727 -54149.11665764496 0 0 0 0 0 114668053.5317952 4174515.642885623 4174515.642885623 -606136.719625323 0 0 0 0 0 114074492.2990897 4188643.70929624 4188643.70929624 -271174.5607408652 0 0 0 0 0 114289402.9558197 4196226.917352353 4196226.917352353 -460158.5768957851 0 0 0 0 0 113723543.1288971 4200239.585342508 4200239.585342508 -143435.9695061026 0 0 0 0 0 113382665.9918467 4205649.086055399 4205649.086055399 -23087.00600866191 0 0 0 0 0 113051890.8574968 4205503.868055888 4205503.868055888 90122.34192607836 0 0 0 0 0 112731584.8392456 4200400.535723623 4200400.535723623 195861.6528811592 0 0 0 0 0 112282521.4938281 3978395.10522967 3978395.10522967 -100736.6539486129 0 0 0 0 0 112434933.9470541 3999598.242358297 3999598.242358297 -259656.3695510042 0 0 0 0 0 111989096.6271767 3972723.090095261 3972723.090095261 3500.981914635219 0 0 0 0 0 111704284.6292805 3963072.012784028 3963072.012784028 101938.8114905047 0 0 0 0 0 111427921.1052597 3949690.695733729 3949690.695733729 194510.5513986779 0 0 0 0 0 111159581.6933377 3932869.772701508 3932869.772701508 282345.1059549238 0 0 0 0 0 110900134.522775 3913196.526709007 3913196.526709007 365418.5747646393 0 0 0 0 0 110409082.6865715 3730563.896725422 3730563.896725422 66219.92978123095 0 0 0 0 0 110648315.1577335 3890243.891732326 3890243.891732326 444322.8112911298 0 0 0 0 0 110359719.7539829 3702809.719454843 3702809.719454843 170727.4044963098 0 0 0 0 0 110179909.0519834 3651467.615109858 3651467.615109858 121523.2153630338 0 0 0 0 0 121957794.378882 4493243.904807559 4493243.904807559 -53874.15859741544 0 0 0 0 0 118796620.5500133 -74514761.30228147 -74514761.30228147 53436611.63202167 0 0 0 0 0 130213429.0342487 -66742947.96323732 -66742947.96323732 43240444.91952381 0 0 0 0 0 128129811.3041657 -43962031.50906303 -43962031.50906303 21941739.07341247 0 0 0 0 0 135707761.0596496 -52542227.83870402 -52542227.83870402 31400806.61401447 0 0 0 0 0 126871859.4507964 -56261380.46234932 -56261380.46234932 32764618.13803309 0 0 0 0 0 133084840.4753867 -38084924.17327112 -38084924.17327112 17544231.05829101 0 0 0 0 0 136740386.5080804 -32557373.95402963 -32557373.95402963 14280554.70132237 0 0 0 0 0 139251741.8740542 -27611120.03466736 -27611120.03466736 11762252.87369799 0 0 0 0 0 140919382.0856415 -23242029.97548553 -23242029.97548553 9858553.241631469 0 0 0 0 0 141918234.4888336 -19319362.52847707 -19319362.52847707 8364243.347799077 0 0 0 0 0 142345530.1560065 -15879371.13862938 -15879371.13862938 7222327.696395139 0 0 0 0 0 142372347.611416 -12849656.47149673 -12849656.47149673 6371449.822926997 0 0 0 0 0 142102784.9814934 -10184850.16567783 -10184850.16567783 5745751.341850086 0 0 0 0 0 143165634.8200946 -10203357.51853153 -10203357.51853153 4519722.74263567 0 0 0 0 0 139445492.1274277 -7519119.293910877 -7519119.293910877 3009181.259709087 0 0 0 0 0 138905645.5523893 -5633639.605236017 -5633639.605236017 2795180.750629504 0 0 0 0 0 138224363.7974406 -3973606.435969721 -3973606.435969721 2673210.173546545 0 0 0 0 0 137437923.8490182 -2514714.581843807 -2514714.581843807 2621328.67291721 0 0 0 0 0 135111169.7684008 -1443446.15361793 -1443446.15361793 821800.2675746843 0 0 0 0 0 137473743.3838693 -2854519.351557595 -2854519.351557595 1266674.435833558 0 0 0 0 0 134307543.1683014 -376958.5176480738 -376958.5176480738 933615.7102738915 0 0 0 0 0 133460355.4393786 561196.3715216756 561196.3715216756 1069545.320461778 0 0 0 0 0 132588584.4237912 1385408.194207848 1385408.194207848 1220774.657311209 0 0 0 0 0 131701626.6891098 2106621.658216027 2106621.658216027 1380549.220176955 0 0 0 0 0 130810019.097635 2735507.425718565 2735507.425718565 1542612.661032068 0 0 0 0 0 129915214.2003166 3281272.21310458 3281272.21310458 1705363.403951557 0 0 0 0 0 129406217.8153085 2822008.791147043 2822008.791147043 481921.6063912504 0 0 0 0 0 128227739.7020958 3342873.817779808 3342873.817779808 560387.0406808821 0 0 0 0 0 127411002.9326893 3748709.482058408 3748709.482058408 756158.7071201687 0 0 0 0 0 126613435.5025775 4105498.070105895 4105498.070105895 949686.8156799637 0 0 0 0 0 125828556.9717627 4413448.965924009 4413448.965924009 1137636.049966324 0 0 0 0 0 125059690.619692 4676852.735178893 4676852.735178893 1314164.234353072 0 0 0 0 0 124310747.5623148 4902654.841772726 4902654.841772726 1481923.337392473 0 0 0 0 0 123766181.3326468 4488090.86801687 4488090.86801687 467830.4760426412 0 0 0 0 0 123084113.9744505 4705025.830569801 4705025.830569801 649646.5755651083 0 0 0 0 0 122412332.4257614 4875601.683666614 4875601.683666614 830792.2988468974 0 0 0 0 0 121486751.1094462 4137685.558776172 4137685.558776172 -913634.7347762175 0 0 0 0 0 120867422.3553978 4294453.667829532 4294453.667829532 -704884.5419335036 0 0 0 0 0 119892992.4525795 4075329.697520772 4075329.697520772 -1259273.018718538 0 0 0 0 0 120339728.6103625 4404764.16990235 4404764.16990235 -473293.0972526783 0 0 0 0 0 119337201.6644741 4201641.645382714 4201641.645382714 -1044976.89040678 0 0 0 0 0 118797976.8535469 4310192.163811045 4310192.163811045 -839417.7573528128 0 0 0 0 0 118271311.3618803 4402755.310181889 4402755.310181889 -643014.7958627141 0 0 0 0 0 117764223.7430646 4477736.002684403 4477736.002684403 -462670.893582303 0 0 0 0 0 117012420.153568 4236446.67981149 4236446.67981149 -898258.2322000763 0 0 0 0 0 117412956.7789263 4518459.324052188 4518459.324052188 -241127.7673111885 0 0 0 0 0 116553598.6973713 4296829.888842121 4296829.888842121 -719871.0317530727 0 0 0 0 0 116108326.7523603 4344784.350425632 4344784.350425632 -552872.3223446544 0 0 0 0 0 115677979.9076868 4384065.976295835 4384065.976295835 -391142.1405223721 0 0 0 0 0 115259866.5668751 4412258.838596159 4412258.838596159 -244513.5450197418 0 0 0 0 0 114855423.0330148 4432010.097572631 4432010.097572631 -104428.5215796863 0 0 0 0 0 114632157.8241877 4431274.927529753 4431274.927529753 77940.06582124777 0 0 0 0 0 113922215.0372027 4210753.432539922 4210753.432539922 -322593.3680670702 0 0 0 0 0 114257777.9319028 4440274.384238624 4440274.384238624 201743.1145325769 0 0 0 0 0 113566417.5085056 4218634.403498556 4218634.403498556 -193471.8176098475 0 0 0 0 0 113221749.1793877 4220739.250498203 4220739.250498203 -71781.15916600058 0 0 0 0 0 112887955.1557162 4217685.114359873 4217685.114359873 42659.45781157672 0 0 0 0 0 112564171.7731934 4209393.865053414 4209393.865053414 149941.7555294528 0 0 0 0 0 112130695.0075426 3995037.420800035 3995037.420800035 -148351.6687284325 0 0 0 0 0 112419792.7168941 4190446.561667708 4190446.561667708 294979.7542940777 0 0 0 0 0 111835224.8774176 3986443.880376607 3986443.880376607 -42605.51856650718 0 0 0 0 0 111548916.7265103 3974205.936400964 3974205.936400964 57253.26744017925 0 0 0 0 0 111271700.3878528 3958604.663375268 3958604.663375268 151171.9145995585 0 0 0 0 0 111003673.8233972 3940388.294222099 3940388.294222099 240012.8356285757 0 0 0 0 0 110746076.1618058 3920144.782303647 3920144.782303647 324044.8975069211 0 0 0 0 0 110388856.2809099 3857497.552026643 3857497.552026643 493718.5096563122 0 0 0 0 0 110508207.2798814 3903699.10151987 3903699.10151987 402561.2103366281 0 0 0 0 0 110154765.114586 3699818.10424574 3699818.10424574 145827.4254295037 0 0 0 0 0 109907715.0179914 3632893.45492478 3632893.45492478 161149.4886904157 0 0 0 0 0 121915246.2560513 4501230.77784464 4501230.77784464 -69474.42242775466 0 0 0 0 0 116274381.6395074 -73046851.71699397 -73046851.71699397 46337627.33028433 0 0 0 0 0 127557368.905893 -65058341.06685641 -65058341.06685641 37919536.03342798 0 0 0 0 0 140599131.3794913 -47049160.00972363 -47049160.00972363 26981810.46820359 0 0 0 0 0 132377988.8645855 -49336139.68147139 -49336139.68147139 26606544.9342754 0 0 0 0 0 138219159.4657553 -58652615.36628982 -58652615.36628982 35850912.23398714 0 0 0 0 0 144349879.6807052 -40618960.64918309 -40618960.64918309 21957586.39922744 0 0 0 0 0 146391524.4147862 -34636536.86684088 -34636536.86684088 18000553.59219198 0 0 0 0 0 147489090.0073109 -29321196.63947564 -29321196.63947564 14893376.7571099 0 0 0 0 0 147950434.4899324 -24626011.3655969 -24626011.3655969 12472045.75453074 0 0 0 0 0 147886499.257295 -20514443.76542477 -20514443.76542477 10606088.34992834 0 0 0 0 0 147407990.655484 -16872351.88785612 -16872351.88785612 9108388.179656044 0 0 0 0 0 146662181.4202789 -13682065.83386631 -13682065.83386631 7962861.486437508 0 0 0 0 0 145713165.7146296 -10890510.09884402 -10890510.09884402 7088376.348275484 0 0 0 0 0 141587482.8999906 -7848266.968596711 -7848266.968596711 5292050.079628178 0 0 0 0 0 142292896.1528986 -7982692.357015254 -7982692.357015254 4004887.060953142 0 0 0 0 0 141303596.1142857 -6030665.905048089 -6030665.905048089 3638226.722082367 0 0 0 0 0 140233225.4338327 -4317646.20697281 -4317646.20697281 3387241.249695106 0 0 0 0 0 139110529.6193271 -2816029.294771141 -2816029.294771141 3225934.890344239 0 0 0 0 0 136460630.3050108 -1617951.011998277 -1617951.011998277 1263026.20995667 0 0 0 0 0 136575092.9401959 -1234887.332956383 -1234887.332956383 2622543.896875975 0 0 0 0 0 135422618.864702 -531277.7248390162 -531277.7248390162 1305131.762617281 0 0 0 0 0 134375562.630063 422882.3060224375 422882.3060224375 1382406.169459835 0 0 0 0 0 133326680.9706439 1258865.395782961 1258865.395782961 1483226.140498163 0 0 0 0 0 132283013.9629633 1988369.885502185 1988369.885502185 1599896.016974146 0 0 0 0 0 131256463.7216829 2623725.419959616 2623725.419959616 1725319.82295122 0 0 0 0 0 130248553.5554183 3174822.173376057 3174822.173376057 1857505.443617777 0 0 0 0 0 129030500.9871493 3754577.753851008 3754577.753851008 1861736.60663363 0 0 0 0 0 128489459.0268653 3290451.950001614 3290451.950001614 658710.7890422243 0 0 0 0 0 127596346.3995628 3700703.412932333 3700703.412932333 833171.5352596265 0 0 0 0 0 126724645.0845916 4055637.355755555 4055637.355755555 1010234.462984428 0 0 0 0 0 125878350.1731131 4362727.289334928 4362727.289334928 1184007.574971459 0 0 0 0 0 125056683.1672339 4625327.359212114 4625327.359212114 1348459.20531464 0 0 0 0 0 124261392.5940178 4849189.505486882 4849189.505486882 1506453.911278903 0 0 0 0 0 123581486.3713938 5093561.258970906 5093561.258970906 1639833.925512529 0 0 0 0 0 123037118.1266892 4685689.178465905 4685689.178465905 651562.712969315 0 0 0 0 0 122330877.79982 4853523.21385367 4853523.21385367 826340.7425978906 0 0 0 0 0 121343540.4171512 4647681.159827216 4647681.159827216 139197.8746488779 0 0 0 0 0 120738163.6107394 4775859.436683355 4775859.436683355 317625.1304649313 0 0 0 0 0 119780699.752429 4523366.704733024 4523366.704733024 -278655.3036868239 0 0 0 0 0 120264683.6885782 4428374.988304192 4428374.988304192 -507496.9921495375 0 0 0 0 0 119236966.759115 4625609.273961299 4625609.273961299 -93443.41071525025 0 0 0 0 0 118707656.944984 4712833.902504452 4712833.902504452 87785.05734712687 0 0 0 0 0 118195534.9015941 4783041.146995987 4783041.146995987 251000.4192401352 0 0 0 0 0 117693720.6649339 4836822.03520277 4836822.03520277 401655.5399944991 0 0 0 0 0 116947962.2344437 4572884.141004849 4572884.141004849 -78860.37109499604 0 0 0 0 0 117271477.9919641 4540111.415495284 4540111.415495284 -289661.6291866988 0 0 0 0 0 116496672.6950296 4615277.532682995 4615277.532682995 73151.36008223332 0 0 0 0 0 116057796.6482985 4647347.384259764 4647347.384259764 216134.3665419202 0 0 0 0 0 115633240.0586614 4670409.326658329 4670409.326658329 349879.1194452022 0 0 0 0 0 115221091.544467 4684115.406336051 4684115.406336051 474831.5925747192 0 0 0 0 0 114821482.6031864 4690005.046135425 4690005.046135425 592042.9237895574 0 0 0 0 0 114463972.760819 4444337.029056952 4444337.029056952 28861.84128415369 0 0 0 0 0 113894790.9596149 4442773.591637689 4442773.591637689 317584.7594370245 0 0 0 0 0 114085024.8138316 4449750.776284176 4449750.776284176 154026.8632252297 0 0 0 0 0 113542695.5781536 4439395.830782956 4439395.830782956 425988.0187716742 0 0 0 0 0 113201380.3442022 4430872.597242482 4430872.597242482 527917.8606978923 0 0 0 0 0 112870511.182662 4417546.19941366 4417546.19941366 623284.912784386 0 0 0 0 0 112550307.1455593 4399795.304074178 4399795.304074178 711484.1701646995 0 0 0 0 0 112117248.7428565 4176973.165685355 4176973.165685355 388976.9130735231 0 0 0 0 0 112251157.4891812 4196899.296957995 4196899.296957995 250404.7240835341 0 0 0 0 0 111824155.1086596 4159961.428462933 4159961.428462933 477773.0935229693 0 0 0 0 0 111540218.4958678 4139724.899730178 4139724.899730178 560843.1072452568 0 0 0 0 0 111264903.4445334 4116530.646510038 4116530.646510038 638585.8560843588 0 0 0 0 0 110998575.0314708 4090827.643881561 4090827.643881561 711922.0002323296 0 0 0 0 0 110742351.1813584 4063216.872345127 4063216.872345127 772853.6335897377 0 0 0 0 0 110351041.5343012 3905817.500492624 3905817.500492624 458302.9992112336 0 0 0 0 0 110526994.3574088 4023138.290066357 4023138.290066357 795028.6488024039 0 0 0 0 0 110210041.3354742 3834308.841708712 3834308.841708712 494052.4118208344 0 0 0 0 0 121760121.6922078 5019238.260934432 5019238.260934432 1001578.067110067 0 0 0 0 0 133995927.0723334 -78373331.83374935 -78373331.83374935 52329754.68312971 0 0 0 0 0 143240902.5678511 -69287232.76282896 -69287232.76282896 43151717.30643397 0 0 0 0 0 136410394.6386496 -42877541.10499907 -42877541.10499907 21834996.3982766 0 0 0 0 0 145231734.8536127 -52367814.24170622 -52367814.24170622 31183078.14699915 0 0 0 0 0 136141692.0280918 -57309984.1715601 -57309984.1715601 33247729.29905992 0 0 0 0 0 140273346.8159043 -36315103.44701859 -36315103.44701859 18142655.9082569 0 0 0 0 0 142735730.6327209 -30570257.05270421 -30570257.05270421 15246246.61585074 0 0 0 0 0 144267332.4100311 -25538144.1412666 -25538144.1412666 13054598.22832925 0 0 0 0 0 145100504.6868149 -21096596.53523871 -21096596.53523871 11338574.64953887 0 0 0 0 0 145312792.3119068 -17217877.68031704 -17217877.68031704 10009164.83231952 0 0 0 0 0 145133535.354282 -13837423.05428197 -13837423.05428197 9001734.941520434 0 0 0 0 0 144647540.3865039 -10891755.03288468 -10891755.03288468 8246136.71091793 0 0 0 0 0 143934923.8294976 -8327176.025410413 -8327176.025410413 7678396.713163389 0 0 0 0 0 144619939.7532598 -8454764.546588482 -8454764.546588482 6429165.581273154 0 0 0 0 0 140889007.9423025 -5802661.141193469 -5802661.141193469 4971800.371011887 0 0 0 0 0 140054950.561466 -4014581.415380517 -4014581.415380517 4754212.765056841 0 0 0 0 0 139123425.9670615 -2453860.503511221 -2453860.503511221 4614556.294191348 0 0 0 0 0 138123150.8287848 -1094035.790585728 -1094035.790585728 4534719.628313105 0 0 0 0 0 135658513.2901385 -114509.8562479917 -114509.8562479917 2662874.811055541 0 0 0 0 0 137956065.1923761 -1502345.008594746 -1502345.008594746 3134406.418402911 0 0 0 0 0 134707103.9911774 864237.4459517839 864237.4459517839 2731315.42791233 0 0 0 0 0 133734096.2558213 1718044.302421026 1718044.302421026 2819493.613349043 0 0 0 0 0 132753621.7303639 2461343.295570522 2461343.295570522 2920164.362078896 0 0 0 0 0 131775182.4422437 3105484.099129475 3105484.099129475 3027504.511165536 0 0 0 0 0 130802190.2452948 3660428.16892765 3660428.16892765 3135105.664321869 0 0 0 0 0 129844112.8548883 4139054.796551523 4139054.796551523 3242289.023212737 0 0 0 0 0 129261384.4122351 3650624.623467113 3650624.623467113 1988614.340202832 0 0 0 0 0 128153193.2408146 4160467.851383016 4160467.851383016 2010856.698459525 0 0 0 0 0 127293021.0723655 4511737.826636266 4511737.826636266 2157612.969859889 0 0 0 0 0 126453952.8181068 4812971.552640639 4812971.552640639 2302671.269761168 0 0 0 0 0 125636602.9114781 5069662.746331912 5069662.746331912 2439557.971802263 0 0 0 0 0 124841308.6178669 5286048.534820726 5286048.534820726 2568615.343162816 0 0 0 0 0 124069425.7434918 5467395.561423611 5467395.561423611 2689927.440953711 0 0 0 0 0 123491993.6289018 5038488.210115535 5038488.210115535 1655861.064004623 0 0 0 0 0 122872090.2562308 5253579.547136123 5253579.547136123 1787899.921238881 0 0 0 0 0 122183878.5231992 5386225.380132902 5386225.380132902 1925786.36356858 0 0 0 0 0 121259712.9726277 4648783.199224064 4648783.199224064 118651.4436338616 0 0 0 0 0 120627253.9031787 4772720.530453246 4772720.530453246 293739.52467263 0 0 0 0 0 119679764.0426386 4544024.637181679 4544024.637181679 -316832.2454707389 0 0 0 0 0 120147354.8339091 4882731.165654408 4882731.165654408 488739.2767708386 0 0 0 0 0 119115495.4111712 4640956.15711884 4640956.15711884 -132932.4119114357 0 0 0 0 0 118567430.5901442 4724081.898606848 4724081.898606848 46338.69436076943 0 0 0 0 0 118035864.7172732 4788515.354867632 4788515.354867632 209539.7704291105 0 0 0 0 0 117524870.3200354 4838812.099676688 4838812.099676688 359818.8047732254 0 0 0 0 0 116794789.9462553 4589771.056366087 4589771.056366087 -126967.1404423678 0 0 0 0 0 117210636.9627174 4880432.288632353 4880432.288632353 548395.3251340885 0 0 0 0 0 116333408.9709209 4627954.635129302 4627954.635129302 25496.92639967948 0 0 0 0 0 115886760.7223032 4656237.432886856 4656237.432886856 169198.9629005123 0 0 0 0 0 115454160.0336629 4674862.824431007 4674862.824431007 304025.593337671 0 0 0 0 0 115036024.9739574 4685439.362748672 4685439.362748672 429711.3288575261 0 0 0 0 0 114631878.3747746 4688518.579735151 4688518.579735151 547734.6238886155 0 0 0 0 0 114434486.7908551 4689262.527061015 4689262.527061015 701961.1074690124 0 0 0 0 0 113718147.6014403 4448935.908496551 4448935.908496551 271234.5868737113 0 0 0 0 0 114059541.3889521 4682425.391397242 4682425.391397242 804518.7919237167 0 0 0 0 0 113363163.6271512 4442564.387645299 4442564.387645299 380968.2707384796 0 0 0 0 0 113019526.645648 4431352.386571592 4431352.386571592 484135.5175518307 0 0 0 0 0 112687437.447709 4415746.465045043 4415746.465045043 580857.8525404328 0 0 0 0 0 112365763.0876201 4395654.296199173 4395654.296199173 670396.0941669864 0 0 0 0 0 111947816.7162025 4180854.798512985 4180854.798512985 345886.6322648805 0 0 0 0 0 112239564.9040511 4378537.962770714 4378537.962770714 794267.7276230794 0 0 0 0 0 111654037.5045837 4161654.377732025 4161654.377732025 435953.5398422127 0 0 0 0 0 111369678.9491736 4139239.929738141 4139239.929738141 520482.9180337732 0 0 0 0 0 111094685.8606439 4114154.694872121 4114154.694872121 599614.6672280109 0 0 0 0 0 110829437.4868239 4087281.815108481 4087281.815108481 674124.8844472207 0 0 0 0 0 110585523.0257199 4059467.317845381 4059467.317845381 739312.8737838038 0 0 0 0 0 110179573.4528762 3946500.198747557 3946500.198747557 789688.3980512851 0 0 0 0 0 110342770.087154 4029057.14893242 4029057.14893242 774986.8565215863 0 0 0 0 0 109932072.3830706 3802289.488678757 3802289.488678757 561991.8267324644 0 0 0 0 0 121648526.2912149 4994759.819027765 4994759.819027765 991223.068914764 0 0 0 0 0 130561592.1602415 -76200370.22368394 -76200370.22368394 44945744.0380738 0 0 0 0 0 137735795.7648232 -64830195.43874722 -64830195.43874722 38479167.01256027 0 0 0 0 0 149787103.4263415 -46027833.07782096 -46027833.07782096 27083010.2933832 0 0 0 0 0 140999208.0446366 -49073768.29521711 -49073768.29521711 26060427.07059658 0 0 0 0 0 145620643.2057793 -61224680.53640211 -61224680.53640211 35165682.80651513 0 0 0 0 0 151299728.3851832 -38897504.07436773 -38897504.07436773 22532879.46628255 0 0 0 0 0 151986909.3474952 -32647301.87693311 -32647301.87693311 18864930.70184092 0 0 0 0 0 152104079.7463 -27227418.59666307 -27227418.59666307 16063527.01310476 0 0 0 0 0 151662337.9054353 -22530421.42568498 -22530421.42568498 13883703.51118413 0 0 0 0 0 150841054.3636472 -18437175.36964908 -18437175.36964908 12164885.97356226 0 0 0 0 0 149774321.7446764 -14859474.73408172 -14859474.73408172 10806342.78990623 0 0 0 0 0 148531506.8684224 -11766054.69273408 -11766054.69273408 9768486.563455269 0 0 0 0 0 147168580.1222595 -9084051.478882631 -9084051.478882631 8965355.940677229 0 0 0 0 0 143044318.1950153 -6096658.886025456 -6096658.886025456 7254130.409277118 0 0 0 0 0 143421874.3002947 -6329556.643195657 -6329556.643195657 5935372.022284199 0 0 0 0 0 142156554.8552698 -4477114.488381039 -4477114.488381039 5570964.204732168 0 0 0 0 0 140856639.2123049 -2863896.347200069 -2863896.347200069 5307499.342314687 0 0 0 0 0 139541757.9902411 -1461483.545017149 -1461483.545017149 5123382.157726454 0 0 0 0 0 136786959.8744788 -354976.6116560907 -354976.6116560907 3096022.624946302 0 0 0 0 0 137078851.088695 89258.02854215565 89258.02854215565 4499686.373408586 0 0 0 0 0 135618789.4556882 645828.1206943004 645828.1206943004 3097511.216243392 0 0 0 0 0 134463230.7319449 1517551.549120122 1517551.549120122 3129720.489319582 0 0 0 0 0 133322368.9019164 2274035.571485662 2274035.571485662 3183146.404262082 0 0 0 0 0 132199981.3970628 2928263.294749141 2928263.294749141 3249667.502368042 0 0 0 0 0 131108643.6455187 3492495.566180577 3492495.566180577 3322901.084471816 0 0 0 0 0 130048554.5273381 3977935.553905988 3977935.553905988 3401161.271272797 0 0 0 0 0 128903664.0776674 4548393.256917231 4548393.256917231 3344454.994684286 0 0 0 0 0 128300492.6574757 4060612.186593064 4060612.186593064 2114834.612250271 0 0 0 0 0 127369274.9419874 4413738.437032141 4413738.437032141 2243211.012596524 0 0 0 0 0 126468038.2640809 4717576.736817763 4717576.736817763 2370905.629711794 0 0 0 0 0 125598594.3645794 4975257.571503742 4975257.571503742 2494588.545607196 0 0 0 0 0 124758354.9621952 5192437.996146099 5192437.996146099 2612333.559615008 0 0 0 0 0 123945934.4295073 5373550.819770287 5373550.819770287 2724114.057000307 0 0 0 0 0 123321296.584482 5617161.275512865 5617161.275512865 2803231.120596761 0 0 0 0 0 122748619.727308 5196770.901080486 5196770.901080486 1796984.314271086 0 0 0 0 0 122030829.7844604 5327229.894340138 5327229.894340138 1929281.122928161 0 0 0 0 0 121129177.6024088 5138685.107406849 5138685.107406849 1158952.985652653 0 0 0 0 0 120512390.1595736 5235417.112280969 5235417.112280969 1305316.779305837 0 0 0 0 0 119578933.3794669 4973409.07478204 4973409.07478204 651638.239365528 0 0 0 0 0 120016715.4753882 4878281.356261416 4878281.356261416 460531.1104292723 0 0 0 0 0 119024876.9019337 5048625.698439637 5048625.698439637 812261.8350748757 0 0 0 0 0 118489397.0646838 5108699.14271611 5108699.14271611 957267.7190709675 0 0 0 0 0 117969811.1578753 5151549.200226553 5151549.200226553 1086160.482413508 0 0 0 0 0 117463279.9073278 5181909.084565886 5181909.084565886 1211669.834334484 0 0 0 0 0 116740434.5095936 4911285.715856423 4911285.715856423 681611.5411645425 0 0 0 0 0 117028900.121825 4878543.920584227 4878543.920584227 506196.8886540989 0 0 0 0 0 116284657.7898085 4932453.189586296 4932453.189586296 807292.9512333926 0 0 0 0 0 115843984.9056362 4944318.281272555 4944318.281272555 924709.0455042854 0 0 0 0 0 115416807.5112304 4948118.137886208 4948118.137886208 1033801.988003971 0 0 0 0 0 115003578.3972028 4944426.487220845 4944426.487220845 1135224.630043044 0 0 0 0 0 114603834.9823299 4934072.736498282 4934072.736498282 1229706.102518661 0 0 0 0 0 114241068.7994913 4684912.085163464 4684912.085163464 658704.9957102612 0 0 0 0 0 113696445.9672786 4670127.132824892 4670127.132824892 899983.0863453567 0 0 0 0 0 113863304.933645 4675391.367480624 4675391.367480624 762426.967650783 0 0 0 0 0 113344628.453275 4652952.271553254 4652952.271553254 989241.2089012804 0 0 0 0 0 113004379.1412961 4631544.229110959 4631544.229110959 1072395.760898733 0 0 0 0 0 112674885.9256547 4606050.924567845 4606050.924567845 1148937.765959052 0 0 0 0 0 112355864.7658609 4576929.01481442 4576929.01481442 1219929.496531585 0 0 0 0 0 111938366.5287624 4354124.429641057 4354124.429641057 872583.2435511912 0 0 0 0 0 112054629.5403644 4372063.916862933 4372063.916862933 754676.3561844872 0 0 0 0 0 111646825.9649328 4326797.738072943 4326797.738072943 945756.1942382575 0 0 0 0 0 111364539.2708246 4296708.226925944 4296708.226925944 1013478.475673052 0 0 0 0 0 111091449.9374406 4264413.098390802 4264413.098390802 1075225.535562246 0 0 0 0 0 110831910.6988125 4228134.77361024 4228134.77361024 1131776.017166188 0 0 0 0 0 110585015.601079 4192215.932124251 4192215.932124251 1163530.219809594 0 0 0 0 0 110207738.7508375 4000823.455413155 4000823.455413155 829575.6022314097 0 0 0 0 0 110378813.1308618 4110565.874480874 4110565.874480874 979604.8248334316 0 0 0 0 0 121515711.9438568 5494278.595685628 5494278.595685628 2055197.446926856 0 0 0 0 0 149703100.0912591 -81009113.67683977 -81009113.67683977 50915955.58796609 0 0 0 0 0 144521736.3080372 -64985292.84257326 -64985292.84257326 38560676.87290499 0 0 0 0 0 144787812.4083193 -40918833.88197274 -40918833.88197274 21800557.69247593 0 0 0 0 0 155689375.3576981 -52283252.41985539 -52283252.41985539 31640509.06104218 0 0 0 0 0 153144278.4175322 -62199784.51904929 -62199784.51904929 35512382.16670103 0 0 0 0 0 146898323.269073 -34145557.05796628 -34145557.05796628 18663454.22472021 0 0 0 0 0 148183248.973942 -28305521.39420031 -28305521.39420031 16208104.18982512 0 0 0 0 0 148719207.4035347 -23245431.09823919 -23245431.09823919 14307995.46099817 0 0 0 0 0 148722011.9823606 -18852717.93342983 -18852717.93342983 12840483.41208269 0 0 0 0 0 148260751.0463829 -15055933.23381567 -15055933.23381567 11690492.28412831 0 0 0 0 0 147495423.2618001 -11790118.53328629 -11790118.53328629 10812153.07650131 0 0 0 0 0 146531598.6446713 -8962396.059783 -8962396.059783 10138945.98706867 0 0 0 0 0 145409539.5036997 -6520962.29013034 -6520962.29013034 9617444.774451135 0 0 0 0 0 145724631.0914179 -6760460.621209326 -6760460.621209326 8346051.24875595 0 0 0 0 0 142029325.6569051 -4159261.396271019 -4159261.396271019 6939391.027208302 0 0 0 0 0 140928246.8352141 -2481213.223772561 -2481213.223772561 6711646.352103304 0 0 0 0 0 139770865.1079342 -1029121.12929571 -1029121.12929571 6549489.327143618 0 0 0 0 0 138580584.3565822 226052.4391698411 226052.4391698411 6436830.900308495 0 0 0 0 0 136008957.6018 1116689.581546202 1116689.581546202 4496594.304048054 0 0 0 0 0 138227028.9201711 -243740.2331676706 -243740.2331676706 5000174.549236733 0 0 0 0 0 134927005.4882227 2005662.515083045 2005662.515083045 4515956.569174699 0 0 0 0 0 133842510.2515378 2774001.067460314 2774001.067460314 4552523.195662186 0 0 0 0 0 132767750.582158 3436651.778580745 3436651.778580745 4599163.994385498 0 0 0 0 0 131713041.2753826 4006202.011882028 4006202.011882028 4648886.91967708 0 0 0 0 0 130675108.7893275 4491164.341617136 4491164.341617136 4700274.824748681 0 0 0 0 0 129660418.5315935 4903884.785353134 4903884.785353134 4750980.392123724 0 0 0 0 0 129015796.8278725 4391833.702730658 4391833.702730658 3479582.009356822 0 0 0 0 0 127982395.4552229 4897042.694718762 4897042.694718762 3441588.10083156 0 0 0 0 0 127083677.6184057 5192035.07387237 5192035.07387237 3539389.880402741 0 0 0 0 0 126214872.263857 5441822.109424365 5441822.109424365 3633635.426551315 0 0 0 0 0 125369734.0783375 5649120.371436408 5649120.371436408 3718368.548415575 0 0 0 0 0 124553067.8891499 5821476.447757566 5821476.447757566 3799233.582925596 0 0 0 0 0 123764977.4325739 5962225.332784125 5962225.332784125 3874867.519218074 0 0 0 0 0 123162916.808067 5523267.032069287 5523267.032069287 2829118.700083143 0 0 0 0 0 122597012.1869089 5738614.025408491 5738614.025408491 2907801.60802857 0 0 0 0 0 121896271.1691149 5835190.908191208 5835190.908191208 3003863.321750578 0 0 0 0 0 120985878.1711209 5110043.006893865 5110043.006893865 1144584.836079852 0 0 0 0 0 120347290.7597536 5204061.585691556 5204061.585691556 1287152.497042358 0 0 0 0 0 119426012.3026705 4964810.936777401 4964810.936777401 620917.2618634282 0 0 0 0 0 119914980.3204176 5314433.53627462 5314433.53627462 1443925.123278673 0 0 0 0 0 118855642.3353456 5037574.709751047 5037574.709751047 777976.1302710574 0 0 0 0 0 118304031.7666413 5092472.242912401 5092472.242912401 924200.1482021858 0 0 0 0 0 117769638.6330385 5131203.127311805 5131203.127311805 1053285.020238369 0 0 0 0 0 117257442.6941017 5160493.297768235 5160493.297768235 1175958.700829122 0 0 0 0 0 116551339.2494004 4906071.938283945 4906071.938283945 640018.4589628979 0 0 0 0 0 116977343.8243083 5202677.513010443 5202677.513010443 1327054.200155286 0 0 0 0 0 116088832.2429437 4923803.779271634 4923803.779271634 766387.1663959674 0 0 0 0 0 115641629.8032842 4932722.553958821 4932722.553958821 884143.6109391205 0 0 0 0 0 115209722.5557742 4933563.050647282 4933563.050647282 994237.9197735131 0 0 0 0 0 114792728.8705411 4927373.763198282 4927373.763198282 1096498.298216139 0 0 0 0 0 114390304.796397 4914875.769426074 4914875.769426074 1191693.329383352 0 0 0 0 0 114217256.3914728 4918010.196422232 4918010.196422232 1317530.179369956 0 0 0 0 0 113498040.2110352 4660538.092108308 4660538.092108308 859169.95210823 0 0 0 0 0 113843173.778422 4896764.245843439 4896764.245843439 1398944.102325155 0 0 0 0 0 113145074.4969975 4641168.927984549 4641168.927984549 949538.6616542855 0 0 0 0 0 112803701.6484099 4617647.433267067 4617647.433267067 1033974.953649558 0 0 0 0 0 112474104.306541 4590141.82443965 4590141.82443965 1112022.572199942 0 0 0 0 0 112155367.1911482 4559347.77214943 4559347.77214943 1184263.935017319 0 0 0 0 0 111753462.9736842 4345774.376892852 4345774.376892852 834051.8744185033 0 0 0 0 0 112046703.4981923 4544869.593238206 4544869.593238206 1286652.814484138 0 0 0 0 0 111461917.935966 4316610.807125608 4316610.807125608 908515.1434304471 0 0 0 0 0 111179818.2374726 4284503.564729868 4284503.564729868 977675.149179092 0 0 0 0 0 110906010.9157567 4249137.934951355 4249137.934951355 1041344.141559675 0 0 0 0 0 110631408.7513769 4209393.432496141 4209393.432496141 1099144.951711674 0 0 0 0 0 110386456.4465568 4171586.517533068 4171586.517533068 1156178.585308071 0 0 0 0 0 109954312.9387246 3972360.853026324 3972360.853026324 996791.9195153102 0 0 0 0 0 110190433.264111 4084471.02391228 4084471.02391228 1156191.806039258 0 0 0 0 0 121338764.8369639 5433663.872056562 5433663.872056562 2054077.9761759 0 0 0 0 0 144316267.0721593 -77571585.18626751 -77571585.18626751 42407193.49280776 0 0 0 0 0 158443130.0915106 -69263789.19718213 -69263789.19718213 41149262.66277504 0 0 0 0 0 157200539.5486074 -43793212.4064364 -43793212.4064364 26715254.51598633 0 0 0 0 0 149787874.6330837 -46263598.87014856 -46263598.87014856 25263238.00034883 0 0 0 0 0 148025226.6982578 -54897144.73246574 -54897144.73246574 29104381.10957916 0 0 0 0 0 157357093.2719304 -36557715.57896266 -36557715.57896266 22792229.87944331 0 0 0 0 0 156911542.026687 -30308578.20449948 -30308578.20449948 19650886.58234316 0 0 0 0 0 156012136.2306184 -24918297.87426164 -24918297.87426164 17183770.49375253 0 0 0 0 0 154774146.5200539 -20274952.82433797 -20274952.82433797 15254724.6680188 0 0 0 0 0 153283986.6002179 -16284961.28747917 -16284961.28747917 13734749.92985983 0 0 0 0 0 151672563.9654944 -12837305.2504324 -12837305.2504324 12522182.52386438 0 0 0 0 0 149978928.2425931 -9875378.740431612 -9875378.740431612 11583062.64996021 0 0 0 0 0 148243640.4367951 -7326868.79327609 -7326868.79327609 10842418.94930102 0 0 0 0 0 144175507.9992395 -4416469.173854159 -4416469.173854159 9212055.383700818 0 0 0 0 0 144236465.5345438 -4747027.715318869 -4747027.715318869 7866754.243816597 0 0 0 0 0 142729960.835939 -3006353.689635551 -3006353.689635551 7499232.536707981 0 0 0 0 0 141230606.8104846 -1502606.701663358 -1502606.701663358 7219947.598319184 0 0 0 0 0 139752026.6651138 -204941.7979460543 -204941.7979460543 7009068.046092284 0 0 0 0 0 136923598.5629026 811307.149604678 811307.149604678 4922719.352696788 0 0 0 0 0 137376370.7150071 1309387.719236518 1309387.719236518 6360392.774866911 0 0 0 0 0 135643684.9889547 1723712.808933426 1723712.808933426 4878734.509933718 0 0 0 0 0 134392233.406219 2510814.580361404 2510814.580361404 4862417.418159273 0 0 0 0 0 133175419.9931535 3189786.504395541 3189786.504395541 4863760.158420783 0 0 0 0 0 131990019.1241703 3770633.183803617 3770633.183803617 4876478.931399344 0 0 0 0 0 130847057.3942598 4267346.090409918 4267346.090409918 4894699.312366995 0 0 0 0 0 129745298.3684177 4689417.971730719 4689417.971730719 4917825.964671757 0 0 0 0 0 128676481.0840536 5253446.367694221 5253446.367694221 4800798.772373602 0 0 0 0 0 128019964.8938498 4745650.702838677 4745650.702838677 3555660.826065717 0 0 0 0 0 127061617.3361855 5047121.519449404 5047121.519449404 3632616.118615863 0 0 0 0 0 126137024.2596014 5300555.08823065 5300555.08823065 3711314.617086987 0 0 0 0 0 125255266.1833455 5512798.189063209 5512798.189063209 3783793.324777529 0 0 0 0 0 124400075.324578 5687165.5339202 5687165.5339202 3853772.889126799 0 0 0 0 0 123576104.8134971 5829179.079349325 5829179.079349325 3919537.840115362 0 0 0 0 0 123004439.9914944 6074146.842318881 6074146.842318881 3943926.972598289 0 0 0 0 0 122409928.0625224 5644804.897443838 5644804.897443838 2926726.821679013 0 0 0 0 0 121685630.736301 5741511.445266414 5741511.445266414 3017079.877670297 0 0 0 0 0 120869887.4200592 5579388.561504681 5579388.561504681 2173242.975277242 0 0 0 0 0 120244341.11171 5645823.455918224 5645823.455918224 2283609.2825396 0 0 0 0 0 119336271.4290617 5377787.415817172 5377787.415817172 1580522.056915093 0 0 0 0 0 119730770.3702221 5279742.893517028 5279742.893517028 1423434.52252323 0 0 0 0 0 118776900.9488974 5426366.286166711 5426366.286166711 1703584.434928168 0 0 0 0 0 118234601.6782598 5457872.63403591 5457872.63403591 1813473.577022669 0 0 0 0 0 117710535.6000075 5476606.334741149 5476606.334741149 1913114.114074571 0 0 0 0 0 117203782.1365043 5486642.207345395 5486642.207345395 2009133.128358603 0 0 0 0 0 116503633.7011422 5211895.706711723 5211895.706711723 1432525.172724044 0 0 0 0 0 116760141.2617774 5177723.878695962 5177723.878695962 1292733.190451742 0 0 0 0 0 116047028.2674588 5213365.704228684 5213365.704228684 1531443.87521003 0 0 0 0 0 115605278.1034263 5206750.760991097 5206750.760991097 1622961.701903209 0 0 0 0 0 115178387.9822311 5193223.713420267 5193223.713420267 1707453.310750768 0 0 0 0 0 114766037.265209 5173434.817361481 5173434.817361481 1785170.241705522 0 0 0 0 0 114367553.3648969 5148148.041104875 5148148.041104875 1856961.264184764 0 0 0 0 0 114001554.6184181 4896679.248208318 4896679.248208318 1280503.621899193 0 0 0 0 0 113481222.7066448 4870906.774576322 4870906.774576322 1474268.408034829 0 0 0 0 0 113626185.733563 4873484.386419722 4873484.386419722 1362963.749857394 0 0 0 0 0 113131123.7666861 4841168.545576106 4841168.545576106 1544159.495007726 0 0 0 0 0 112793064.3180393 4807789.753194523 4807789.753194523 1607985.570643488 0 0 0 0 0 112465646.7398841 4771007.336162951 4771007.336162951 1666354.045129211 0 0 0 0 0 112148827.4877352 4731558.003652852 4731558.003652852 1720326.467065258 0 0 0 0 0 111747650.1381615 4510510.930156842 4510510.930156842 1349066.042982381 0 0 0 0 0 111847089.4630565 4525954.983859194 4525954.983859194 1251791.385707157 0 0 0 0 0 111458334.8329477 4473550.323175032 4473550.323175032 1407183.690437018 0 0 0 0 0 111178434.5580308 4434121.258900549 4434121.258900549 1461663.31616441 0 0 0 0 0 110905839.4759639 4393424.499729181 4393424.499729181 1513867.731920062 0 0 0 0 0 110647762.4969704 4353747.057976957 4353747.057976957 1554211.761373869 0 0 0 0 0 110417545.946431 4268403.389827132 4268403.389827132 1340169.924241778 0 0 0 0 0 110211233.324596 4157931.828908375 4157931.828908375 1231624.208059262 0 0 0 0 0 121219407.5412415 5909901.415807824 5909901.415807824 3091373.319091029 0 0 0 0 0 165279049.1152201 -82696651.25354221 -82696651.25354221 48318634.3436329 0 0 0 0 0 152192033.9721701 -65830291.11143707 -65830291.11143707 34907108.840275 0 0 0 0 0 152010500.0023633 -38310303.42917614 -38310303.42917614 21875880.53535818 0 0 0 0 0 164683496.6154948 -49885687.55578878 -49885687.55578878 31269493.74945522 0 0 0 0 0 165045444.4538576 -59113485.70526921 -59113485.70526921 36000301.51182637 0 0 0 0 0 152812869.7735293 -31576914.37509916 -31576914.37509916 19226250.16994488 0 0 0 0 0 152983608.9934042 -25770703.61707182 -25770703.61707182 17191541.27873185 0 0 0 0 0 152584972.6814954 -20797494.27536112 -20797494.27536112 15607500.66845627 0 0 0 0 0 151793970.6788172 -16537867.07884479 -16537867.07884479 14375010.46853673 0 0 0 0 0 150707864.4036577 -12884151.91086967 -12884151.91086967 13400694.88177291 0 0 0 0 0 149420658.8143487 -9761594.827458534 -9761594.827458534 12635205.80112052 0 0 0 0 0 148010665.3844583 -7086294.099286239 -7086294.099286239 12034233.54807066 0 0 0 0 0 146522050.0398247 -4792545.74047761 -4792545.74047761 11548909.59421957 0 0 0 0 0 146491168.3226483 -5135318.577196847 -5135318.577196847 10254807.62624981 0 0 0 0 0 142871722.2116679 -2605342.459929856 -2605342.459929856 8897054.923065213 0 0 0 0 0 141533273.4707574 -1047560.091285138 -1047560.091285138 8652867.475972457 0 0 0 0 0 140176534.1454368 289177.7933041321 289177.7933041321 8461857.716338579 0 0 0 0 0 138819268.6878877 1435806.633481352 1435806.633481352 8309890.94318384 0 0 0 0 0 136172713.1922109 2241419.326465701 2241419.326465701 6308771.41716141 0 0 0 0 0 138299975.0435143 912479.3061407375 912479.3061407375 6850374.81192051 0 0 0 0 0 134977310.4181253 3041399.160278311 3041399.160278311 6276339.997733432 0 0 0 0 0 133800743.3674726 3726677.484146665 3726677.484146665 6256674.02022745 0 0 0 0 0 132646503.0297998 4310759.390294988 4310759.390294988 6245528.458454704 0 0 0 0 0 131526304.7614764 4806760.499035928 4806760.499035928 6238450.03998406 0 0 0 0 0 130435996.0323925 5225458.443969088 5225458.443969088 6230970.506906363 0 0 0 0 0 129376437.2892449 5575627.364048644 5575627.364048644 6230452.251829955 0 0 0 0 0 128680492.9788682 5047009.933196863 5047009.933196863 4944370.796128328 0 0 0 0 0 127718804.4108353 5545291.215758064 5545291.215758064 4848198.323297438 0 0 0 0 0 126794113.7052588 5790482.369125376 5790482.369125376 4895360.019819077 0 0 0 0 0 125903831.5707548 5990888.710652043 5990888.710652043 4933616.779372767 0 0 0 0 0 125037109.3364429 6153475.549057149 6153475.549057149 4967624.367564388 0 0 0 0 0 124205046.5069101 6285121.433267722 6285121.433267722 5002602.821819024 0 0 0 0 0 123405268.9270473 6388181.154521571 6388181.154521571 5032410.037098698 0 0 0 0 0 122784499.6664347 5942517.262971444 5942517.262971444 3980289.452975919 0 0 0 0 0 122270212.6488006 6160451.229478337 6160451.229478337 4004939.808037658 0 0 0 0 0 121562322.0850676 6224142.626666638 6224142.626666638 4058138.222315274 0 0 0 0 0 120671254.3818936 5517706.854269536 5517706.854269536 2167662.047727908 0 0 0 0 0 120028266.4629394 5582630.938501862 5582630.938501862 2274894.144139772 0 0 0 0 0 119136822.7251418 5341514.757384996 5341514.757384996 1554992.437906337 0 0 0 0 0 119639615.0423494 5696817.850271168 5696817.850271168 2393251.089524666 0 0 0 0 0 118563318.2169939 5386443.800242741 5386443.800242741 1679735.713666425 0 0 0 0 0 118010159.3903892 5416080.600524731 5416080.600524731 1788492.643977806 0 0 0 0 0 117477037.1152929 5433166.224338491 5433166.224338491 1886843.255409508 0 0 0 0 0 116964354.0436198 5440761.144493793 5440761.144493793 1982681.190884501 0 0 0 0 0 116283070.8491946 5184994.761570517 5184994.761570517 1398083.43681747 0 0 0 0 0 116716296.954033 5485694.693373739 5485694.693373739 2092678.845612366 0 0 0 0 0 115821428.147411 5183807.426384872 5183807.426384872 1497593.072930333 0 0 0 0 0 115376137.0249793 5175162.992053204 5175162.992053204 1589725.231633293 0 0 0 0 0 114946448.8905589 5159728.505523992 5159728.505523992 1674822.121136685 0 0 0 0 0 114532148.0543514 5138260.730283394 5138260.730283394 1753246.729718847 0 0 0 0 0 114132685.5426974 5111535.56113586 5111535.56113586 1825701.568189422 0 0 0 0 0 113982590.9649542 5118003.111307153 5118003.111307153 1922841.276941916 0 0 0 0 0 113263766.2423657 4845922.627125051 4845922.627125051 1439276.499145844 0 0 0 0 0 113610640.6499807 5083629.53213883 5083629.53213883 1983211.78205855 0 0 0 0 0 112913801.907811 4814591.052071863 4814591.052071863 1510295.688380487 0 0 0 0 0 112575965.8478143 4779682.615374673 4779682.615374673 1575497.668412735 0 0 0 0 0 112249660.5171317 4741621.737049845 4741621.737049845 1635070.707733133 0 0 0 0 0 111934458.8831509 4701055.436963939 4701055.436963939 1689908.141816765 0 0 0 0 0 111549048.7307672 4490222.668664635 4490222.668664635 1315386.929600371 0 0 0 0 0 111842605.697662 4690082.99486493 4690082.99486493 1770601.850121219 0 0 0 0 0 111260675.3182066 4452279.732567043 4452279.732567043 1374429.984214498 0 0 0 0 0 110982545.9912506 4412455.943869972 4412455.943869972 1429609.674763205 0 0 0 0 0 110716290.129902 4372969.160137381 4372969.160137381 1482456.204172143 0 0 0 0 0 110471072.981576 4335156.813897647 4335156.813897647 1527644.535488629 0 0 0 0 0 110183455.9976133 4238036.137384673 4238036.137384673 1576021.46572763 0 0 0 0 0 109945658.501024 4119628.45052093 4119628.45052093 1369241.866892993 0 0 0 0 0 120989277.1082583 5816116.861389657 5816116.861389657 3100071.812051772 0 0 0 0 0 158199919.8209528 -78351453.19071174 -78351453.19071174 39442584.1448395 0 0 0 0 0 170657890.9312316 -69902666.76873338 -69902666.76873338 39534489.71109053 0 0 0 0 0 163672927.7453999 -41075812.62161177 -41075812.62161177 26533603.69282094 0 0 0 0 0 158116964.1127394 -43160931.61926064 -43160931.61926064 24508300.70992885 0 0 0 0 0 157306619.1381564 -52728590.95104676 -52728590.95104676 28338801.85085661 0 0 0 0 0 162559135.093293 -33860761.53715716 -33860761.53715716 23096957.03495922 0 0 0 0 0 161028552.8099403 -27690751.06396374 -27690751.06396374 20416258.63099321 0 0 0 0 0 159228069.3673275 -22428364.77061104 -22428364.77061104 18303822.47736992 0 0 0 0 0 157259506.8179359 -17938604.8387624 -17938604.8387624 16634438.5728506 0 0 0 0 0 155189373.0349205 -14109237.38289185 -14109237.38289185 15310567.43742694 0 0 0 0 0 153092986.3447022 -10832387.65232387 -10832387.65232387 14242409.75873631 0 0 0 0 0 151009437.6121777 -8033544.696358987 -8033544.696358987 13392550.8939126 0 0 0 0 0 148949434.0635913 -5643676.408266223 -5643676.408266223 12709055.61032957 0 0 0 0 0 144982573.726857 -2831564.203361771 -2831564.203361771 11152463.06732618 0 0 0 0 0 144749633.5582704 -3251002.193845209 -3251002.193845209 9785222.551585073 0 0 0 0 0 143037248.2704311 -1632978.976617785 -1632978.976617785 9410195.19817126 0 0 0 0 0 141368033.4668688 -246468.3821760677 -246468.3821760677 9110311.002059316 0 0 0 0 0 139748716.9268661 941716.5835098908 941716.5835098908 8867695.656162949 0 0 0 0 0 136880655.444417 1872219.861732219 1872219.861732219 6729630.306268585 0 0 0 0 0 137476081.1701852 2417029.724026809 2417029.724026809 8187013.81977581 0 0 0 0 0 135506212.1852646 2696604.280908605 2696604.280908605 6637195.45165511 0 0 0 0 0 134180964.745717 3403291.76653057 3403291.76653057 6567449.829521905 0 0 0 0 0 132900456.6517786 4004873.177266537 4004873.177266537 6514427.524521246 0 0 0 0 0 131666291.2895629 4515528.099321713 4515528.099321713 6471246.386985258 0 0 0 0 0 130483618.6221376 4946772.906050746 4946772.906050746 6434758.401476707 0 0 0 0 0 129352445.8790194 5311562.273709852 5311562.273709852 6403133.026013059 0 0 0 0 0 128359602.5632447 5868339.810882454 5868339.810882454 6226060.058266773 0 0 0 0 0 127660921.7060004 5347697.102247157 5347697.102247157 4969148.9347545 0 0 0 0 0 126682710.0150844 5599452.479926237 5599452.479926237 4998428.524365864 0 0 0 0 0 125746231.7650266 5806394.27612821 5806394.27612821 5023313.559910107 0 0 0 0 0 124850020.8712539 5973986.469667276 5973986.469667276 5045319.836912114 0 0 0 0 0 123986645.1087147 6110515.857558105 6110515.857558105 5067739.408672388 0 0 0 0 0 123158575.2011372 6217265.272927619 6217265.272927619 5087544.895218861 0 0 0 0 0 122637934.7345927 6465965.298053266 6465965.298053266 5057658.643193183 0 0 0 0 0 122026828.3237103 6030679.407348645 6030679.407348645 4034612.001639462 0 0 0 0 0 121300487.6293216 6096220.102529013 6096220.102529013 4082335.277208868 0 0 0 0 0 120565934.6237925 5964890.602062338 5964890.602062338 3171719.597463765 0 0 0 0 0 119935646.6674659 6003398.205071594 6003398.205071594 3248206.290326384 0 0 0 0 0 119056374.9080451 5734078.153560292 5734078.153560292 2490904.45626455 0 0 0 0 0 119411507.0715856 5633664.966191616 5633664.966191616 2377761.533889186 0 0 0 0 0 118492637.9724999 5754769.056438997 5754769.056438997 2576507.111646077 0 0 0 0 0 117948569.1915333 5763045.058461446 5763045.058461446 2653464.648835368 0 0 0 0 0 117423445.587472 5760583.980528547 5760583.980528547 2723720.15486086 0 0 0 0 0 116917145.6666159 5749427.837723481 5749427.837723481 2787771.35027293 0 0 0 0 0 116242902.4579033 5475969.546126451 5475969.546126451 2171656.843095027 0 0 0 0 0 116468697.6302861 5437483.415465714 5437483.415465714 2067309.40851081 0 0 0 0 0 115786064.3537799 5458662.256740609 5458662.256740609 2242679.650465332 0 0 0 0 0 115345546.3553 5435237.62785041 5435237.62785041 2308662.836458907 0 0 0 0 0 114920558.1828147 5406013.688451181 5406013.688451181 2368553.813858049 0 0 0 0 0 114510461.3611361 5371604.544986797 5371604.544986797 2422769.043450257 0 0 0 0 0 114114666.4958352 5332703.149509669 5332703.149509669 2471858.587417848 0 0 0 0 0 113747341.0681942 5080082.175089693 5080082.175089693 1892401.983284001 0 0 0 0 0 113251136.0861511 5045557.89816374 5045557.89816374 2038447.659744344 0 0 0 0 0 113375565.7244225 5044493.068743198 5044493.068743198 1953649.583599889 0 0 0 0 0 112904128.4769423 5004228.241749876 5004228.241749876 2088724.459762416 0 0 0 0 0 112568673.3925668 4959869.713055545 4959869.713055545 2133503.797947694 0 0 0 0 0 112244514.3204101 4913095.319674694 4913095.319674694 2174090.324760405 0 0 0 0 0 111931124.6014727 4864373.989445842 4864373.989445842 2211236.236171088 0 0 0 0 0 111546313.4215613 4646581.632638619 4646581.632638619 1816645.958839444 0 0 0 0 0 111629931.0983115 4658543.367994573 4658543.367994573 1741178.691620287 0 0 0 0 0 111259842.1903103 4601160.593156612 4601160.593156612 1859201.381389608 0 0 0 0 0 110982731.5456638 4554899.828383358 4554899.828383358 1897690.103503705 0 0 0 0 0 110718100.090259 4505316.123837752 4505316.123837752 1924827.316222059 0 0 0 0 0 110450080.2944516 4451410.934216613 4451410.934216613 1899755.055361451 0 0 0 0 0 110207807.6715006 4305931.925008146 4305931.925008146 1631486.184317026 0 0 0 0 0 110356004.1361343 4391516.179580797 4391516.179580797 1673549.217205321 0 0 0 0 0 120880367.6671226 6268426.993117856 6268426.993117856 4104873.02896949 0 0 0 0 0 180909576.6549205 -83012139.62333171 -83012139.62333171 45509078.84313765 0 0 0 0 0 168432101.0569725 -68293669.84993348 -68293669.84993348 35305994.56442484 0 0 0 0 0 158333649.5071711 -35358334.6349057 -35358334.6349057 21917484.33863499 0 0 0 0 0 171037052.9189524 -45976023.01335844 -45976023.01335844 29501622.98828482 0 0 0 0 0 172377700.4399356 -56242392.713622 -56242392.713622 34433860.28022251 0 0 0 0 0 157969750.6228896 -28695704.86517868 -28695704.86517868 19853799.95122137 0 0 0 0 0 157073368.2126822 -23049370.79011332 -23049370.79011332 18238045.41968032 0 0 0 0 0 155817396.8196602 -18257544.80314612 -18257544.80314612 16964156.22316866 0 0 0 0 0 154315213.6665841 -14188580.97472897 -14188580.97472897 15948467.77354805 0 0 0 0 0 152650760.0862387 -10728863.79485863 -10728863.79485863 15129248.58174795 0 0 0 0 0 150896052.5589007 -7790149.01756521 -7790149.01756521 14464256.03429179 0 0 0 0 0 149095782.2316021 -5290482.855643022 -5290482.855643022 13917891.07378308 0 0 0 0 0 147280471.8660911 -3165011.795700387 -3165011.795700387 13454403.05669691 0 0 0 0 0 146935244.5435475 -3600998.73558571 -3600998.73558571 12144218.50417339 0 0 0 0 0 143426914.3557386 -1156690.701674822 -1156690.701674822 10831095.24819372 0 0 0 0 0 141880544.8508513 272885.0349282408 272885.0349282408 10564347.11626027 0 0 0 0 0 140353349.9913514 1491924.795816258 1491924.795816258 10338280.67060006 0 0 0 0 0 138854804.8682334 2528950.158865325 2528950.158865325 10142135.63730392 0 0 0 0 0 136158738.3430595 3255369.573587354 3255369.573587354 8084002.815892627 0 0 0 0 0 138183020.5565471 1958503.769559416 1958503.769559416 8667617.589293038 0 0 0 0 0 134870392.8556451 3967361.973530321 3967361.973530321 7997749.0673508 0 0 0 0 0 133614304.6473916 4570767.411539457 4570767.411539457 7919741.314737754 0 0 0 0 0 132397323.2213493 5079242.059192909 5079242.059192909 7853243.718614494 0 0 0 0 0 131226616.3446184 5506636.623267516 5506636.623267516 7789626.12737944 0 0 0 0 0 130095714.3010686 5862162.828710513 5862162.828710513 7728705.872651036 0 0 0 0 0 129008770.4014846 6156894.526742024 6156894.526742024 7671448.504458756 0 0 0 0 0 128267247.4651496 5614555.50922944 5614555.50922944 6377118.773365674 0 0 0 0 0 127377188.5607579 6110079.622304447 6110079.622304447 6222061.369495735 0 0 0 0 0 126431973.1124843 6304844.397344138 6304844.397344138 6211966.268527339 0 0 0 0 0 125523896.5006484 6461173.451151196 6461173.451151196 6195851.719825326 0 0 0 0 0 124645222.5743576 6583570.783135043 6583570.783135043 6184053.970863003 0 0 0 0 0 123804943.1685454 6678606.75433901 6678606.75433901 6172143.889864343 0 0 0 0 0 122997265.0429104 6747124.06189255 6747124.06189255 6157987.546289802 0 0 0 0 0 122363186.7178969 6297673.455707455 6297673.455707455 5105119.20752135 0 0 0 0 0 121898415.3570522 6519858.082784441 6519858.082784441 5074107.934326586 0 0 0 0 0 121187164.476107 6553750.0027258 6553750.0027258 5085047.179010496 0 0 0 0 0 120321141.564097 5872219.209092929 5872219.209092929 3176089.508261239 0 0 0 0 0 119682329.4675186 5912304.234860866 5912304.234860866 3245096.821698127 0 0 0 0 0 118815098.3508691 5668515.318776894 5668515.318776894 2477825.372791506 0 0 0 0 0 119328094.9902301 6029879.468341788 6029879.468341788 3319243.290382404 0 0 0 0 0 118241042.1097741 5687815.361399475 5687815.361399475 2561855.853048884 0 0 0 0 0 117689263.927558 5695062.073256924 5695062.073256924 2637625.210913893 0 0 0 0 0 117158587.1942806 5692204.408343906 5692204.408343906 2706992.605907194 0 0 0 0 0 116648178.182107 5680135.301113756 5680135.301113756 2770708.505751252 0 0 0 0 0 115992916.4723651 5426829.290880064 5426829.290880064 2145390.169920401 0 0 0 0 0 116429611.0110469 5729337.502654986 5729337.502654986 2843703.916590411 0 0 0 0 0 115534656.9111938 5408587.153594631 5408587.153594631 2216782.235991247 0 0 0 0 0 115092550.1423756 5383995.382327169 5383995.382327169 2283019.180647235 0 0 0 0 0 114666673.3204894 5353817.292453889 5353817.292453889 2343382.003139363 0 0 0 0 0 114256396.5687796 5318604.78491328 5318604.78491328 2398108.180681959 0 0 0 0 0 113861165.9993889 5279032.146526635 5279032.146526635 2447763.259558707 0 0 0 0 0 113732637.1757688 5289824.833614959 5289824.833614959 2516040.392352999 0 0 0 0 0 113017065.8557276 5005377.148091706 5005377.148091706 2009783.947468169 0 0 0 0 0 113363972.7805645 5243567.940038314 5243567.940038314 2555583.901375209 0 0 0 0 0 112670984.597728 4963105.192475302 4963105.192475302 2061110.002688467 0 0 0 0 0 112337371.0002868 4917910.619240312 4917910.619240312 2107157.365608595 0 0 0 0 0 112015326.3609114 4870384.20591277 4870384.20591277 2148604.297371764 0 0 0 0 0 111704368.240932 4821030.85799765 4821030.85799765 2186448.862300789 0 0 0 0 0 111335814.0019496 4614209.580275856 4614209.580275856 1788335.865729715 0 0 0 0 0 111628378.3290661 4814054.510109239 4814054.510109239 2244503.489345484 0 0 0 0 0 111051664.3200774 4568503.574833976 4568503.574833976 1831644.691304525 0 0 0 0 0 110781632.2185352 4522254.716649311 4522254.716649311 1871810.392546428 0 0 0 0 0 110529543.0063823 4476287.532549521 4476287.532549521 1902101.586754003 0 0 0 0 0 110293932.2686122 4436011.15055243 4436011.15055243 1914213.473219026 0 0 0 0 0 109929217.0533155 4257541.574321939 4257541.574321939 1755785.522313485 0 0 0 0 0 110123894.4031917 4360820.511673116 4360820.511673116 1903590.772662367 0 0 0 0 0 120603544.735542 6142090.438771736 6142090.438771736 4124202.656134489 0 0 0 0 0 174243761.3446771 -78877998.63205552 -78877998.63205552 35957889.69913308 0 0 0 0 0 169618268.8222733 -58519861.45308351 -58519861.45308351 30108478.8073902 0 0 0 0 0 183981051.2261987 -70899180.67512633 -70899180.67512633 37800206.07629745 0 0 0 0 0 169141551.6281712 -37803609.40012459 -37803609.40012459 26144720.13225993 0 0 0 0 0 164813915.4160186 -48416221.4270753 -48416221.4270753 26799940.96930531 0 0 0 0 0 164965400.1998866 -39473045.9316484 -39473045.9316484 24218367.46143487 0 0 0 0 0 166835613.4065739 -30805536.30661859 -30805536.30661859 23404564.83693407 0 0 0 0 0 164319958.6097881 -24862614.44772609 -24862614.44772609 21201905.40669185 0 0 0 0 0 161730383.9564537 -19828692.62897312 -19828692.62897312 19445490.04220028 0 0 0 0 0 159132429.9734907 -15564286.68062134 -15564286.68062134 18035786.92168337 0 0 0 0 0 156562477.503237 -11948818.87492823 -11948818.87492823 16896091.54539574 0 0 0 0 0 154058792.0068961 -8878598.082725467 -8878598.082725467 15960577.44914676 0 0 0 0 0 151639120.7779791 -6271111.292471205 -6271111.292471205 15191875.00122746 0 0 0 0 0 149304940.9820866 -4058427.684477309 -4058427.684477309 14550101.95420194 0 0 0 0 0 145474495.1432223 -1360958.251540875 -1360958.251540875 13063109.86753154 0 0 0 0 0 144980574.3327357 -1856937.699616806 -1856937.699616806 11678502.41325357 0 0 0 0 0 143096819.5628178 -370104.9942850529 -370104.9942850529 11291892.26714545 0 0 0 0 0 141287217.1105005 896731.9488984895 896731.9488984895 10966026.31234028 0 0 0 0 0 139553886.4786452 1974692.132160546 1974692.132160546 10686645.88309045 0 0 0 0 0 136675093.7957302 2825928.459943637 2825928.459943637 8499528.486737248 0 0 0 0 0 137395123.6842263 3408745.660781159 3408745.660781159 9969833.458475024 0 0 0 0 0 135224627.7762416 3563200.060398086 3563200.060398086 8357812.064083545 0 0 0 0 0 133837504.3906901 4188586.874861507 4188586.874861507 8235187.935859655 0 0 0 0 0 132511776.8847399 4718673.252295873 4718673.252295873 8124869.166258045 0 0 0 0 0 131244266.3882252 5163392.955591592 5163392.955591592 8027896.347022545 0 0 0 0 0 130035184.5796993 5534338.147556357 5534338.147556357 7936997.600647069 0 0 0 0 0 128882419.8618952 5842512.219653296 5842512.219653296 7854716.084897471 0 0 0 0 0 127964775.0013403 6396701.218125243 6396701.218125243 7612984.41809207 0 0 0 0 0 127230307.916351 5865475.294439815 5865475.294439815 6353154.533994565 0 0 0 0 0 126241578.4342969 6070395.973180144 6070395.973180144 6328649.432721179 0 0 0 0 0 125295615.3375603 6233131.150262882 6233131.150262882 6299820.031976776 0 0 0 0 0 124393116.9901522 6363581.391404087 6363581.391404087 6270831.218649074 0 0 0 0 0 123525663.6491335 6464334.967421346 6464334.967421346 6248846.622524949 0 0 0 0 0 122698853.2098869 6539180.47061928 6539180.47061928 6223690.96507439 0 0 0 0 0 122227185.0070542 6793176.832492081 6793176.832492081 6137404.38034716 0 0 0 0 0 121605493.9387622 6355143.636300883 6355143.636300883 5115857.230839158 0 0 0 0 0 120880597.1365107 6392632.162945432 6392632.162945432 5121106.717110583 0 0 0 0 0 120225164.475175 6295243.284365171 6295243.284365171 4145902.87012146 0 0 0 0 0 119587840.980131 6308581.341796424 6308581.341796424 4186408.447867732 0 0 0 0 0 118742139.0975111 6039320.956518536 6039320.956518536 3379007.979219671 0 0 0 0 0 119059544.3054151 5935732.176142036 5935732.176142036 3318791.713667514 0 0 0 0 0 118178085.0210104 6036803.99334311 6036803.99334311 3430409.195601894 0 0 0 0 0 117634274.4405424 6024012.608543833 6024012.608543833 3475458.00205879 0 0 0 0 0 117111205.1285201 6002046.797861628 6002046.797861628 3514809.317895561 0 0 0 0 0 116607462.6123308 5972505.509542888 5972505.509542888 3548495.109654946 0 0 0 0 0 115959291.9428271 5702653.157327297 5702653.157327297 2894254.416515443 0 0 0 0 0 116156872.9440818 5659663.479416574 5659663.479416574 2825954.335257021 0 0 0 0 0 115504546.6986416 5668867.051879536 5668867.051879536 2938834.628734655 0 0 0 0 0 115067123.8395884 5630329.108029356 5630329.108029356 2979398.363363961 0 0 0 0 0 114645446.1764058 5586986.689289941 5586986.689289941 3014955.966148718 0 0 0 0 0 114238997.6952912 5539431.604610223 5539431.604610223 3045926.606440749 0 0 0 0 0 113847140.5122774 5488285.922662203 5488285.922662203 3072612.302712207 0 0 0 0 0 113480338.9798816 5235654.495923746 5235654.495923746 2492535.147786397 0 0 0 0 0 113008020.406206 5194365.762127258 5194365.762127258 2590798.862981062 0 0 0 0 0 113113335.2599069 5188980.279075306 5188980.279075306 2532776.495336727 0 0 0 0 0 112664935.7955362 5142665.255861214 5142665.255861214 2621416.282651537 0 0 0 0 0 112333421.2486933 5088587.539828626 5088587.539828626 2648027.294074104 0 0 0 0 0 112013101.7043166 5032771.366785175 5032771.366785175 2671241.744856248 0 0 0 0 0 111703881.7835374 4975572.567495699 4975572.567495699 2691613.129972064 0 0 0 0 0 111335669.1192356 4762255.349083952 4762255.349083952 2273548.103146912 0 0 0 0 0 111403978.6452939 4769919.112802376 4769919.112802376 2220829.992189397 0 0 0 0 0 111053246.6900246 4708586.45033999 4708586.45033999 2298460.086219074 0 0 0 0 0 110786088.139961 4652482.560518482 4652482.560518482 2318875.968724446 0 0 0 0 0 110518887.0141888 4596691.179704731 4596691.179704731 2301709.371519987 0 0 0 0 0 110349686.1263777 4515303.079057642 4515303.079057642 2185241.950822467 0 0 0 0 0 110173133.8954457 4434411.360050782 4434411.360050782 2040816.841002582 0 0 0 0 0 120504859.4398663 6570430.03319268 6570430.03319268 5091682.728170631 0 0 0 0 0 198071555.6987779 -82500652.14744863 -82500652.14744863 42318846.77391581 0 0 0 0 0 182857420.1235875 -62108037.71815889 -62108037.71815889 35752082.62004633 0 0 0 0 0 175677726.0260638 -65713870.91567517 -65713870.91567517 29940520.63149692 0 0 0 0 0 163830880.8365678 -31957929.59098159 -31957929.59098159 22204293.23142742 0 0 0 0 0 179768931.2860757 -51728737.03845543 -51728737.03845543 32625778.17097568 0 0 0 0 0 176735792.3379783 -42109091.20653535 -42109091.20653535 28806858.17355207 0 0 0 0 0 162284866.6585862 -25577077.66063922 -25577077.66063922 20644240.6629454 0 0 0 0 0 160439616.8224805 -20202880.45819003 -20202880.45819003 19396147.88975416 0 0 0 0 0 158400388.5614894 -15678357.76425792 -15678357.76425792 18385990.36275924 0 0 0 0 0 156265669.9260269 -11860896.35400737 -11860896.35400737 17557517.4296833 0 0 0 0 0 154092609.1040504 -8635596.135771049 -8635596.135771049 16866264.49456443 0 0 0 0 0 151924618.1435864 -5910464.275207805 -5910464.275207805 16280265.90466946 0 0 0 0 0 149788031.6127619 -3606623.613269307 -3606623.613269307 15772066.40158302 0 0 0 0 0 147699274.6029022 -1660568.738150127 -1660568.738150127 15325034.35892395 0 0 0 0 0 147075705.3211073 -2177145.122289347 -2177145.122289347 14001398.02208513 0 0 0 0 0 143707205.1055809 171501.025395182 171501.025395182 12726225.66430931 0 0 0 0 0 141984483.5951631 1470801.050958123 1470801.050958123 12430376.68528132 0 0 0 0 0 140313390.9596296 2570034.295069894 2570034.295069894 12165462.28006759 0 0 0 0 0 138699917.4881671 3498079.313189195 3498079.313189195 11924145.19247706 0 0 0 0 0 135980365.8903962 4152350.432529877 4152350.432529877 9815674.862737915 0 0 0 0 0 137897858.9561888 2890385.709387897 2890385.709387897 10442518.57361044 0 0 0 0 0 134617803.228846 4780164.647562805 4780164.647562805 9673637.329926562 0 0 0 0 0 133301971.6387749 5305879.253245305 5305879.253245305 9540690.70015097 0 0 0 0 0 132038910.8651116 5744951.922929095 5744951.922929095 9416004.392736247 0 0 0 0 0 130828372.6622973 6107519.616384323 6107519.616384323 9295163.570729867 0 0 0 0 0 129668105.0190845 6404619.134350589 6404619.134350589 9178446.143896816 0 0 0 0 0 128558174.6838294 6645284.096889487 6645284.096889487 9064049.601558778 0 0 0 0 0 127783452.8396588 6095118.596743267 6095118.596743267 7774590.545587087 0 0 0 0 0 126963684.4362339 6587727.159176702 6587727.159176702 7551013.167960969 0 0 0 0 0 126005569.4286644 6739064.815868489 6739064.815868489 7484925.294340773 0 0 0 0 0 125085524.5678201 6854926.699233492 6854926.699233492 7420199.61830853 0 0 0 0 0 124200720.8884145 6941615.845782567 6941615.845782567 7362788.25775005 0 0 0 0 0 123357025.661623 7002555.385489669 7002555.385489669 7304007.19067689 0 0 0 0 0 122547682.3323213 7040197.807903048 7040197.807903048 7244138.801661813 0 0 0 0 0 121905412.6926706 6589853.803390252 6589853.803390252 6197524.438491976 0 0 0 0 0 121486493.5792284 6817941.296015184 6817941.296015184 6110471.746366739 0 0 0 0 0 120776092.4497795 6825192.797118284 6825192.797118284 6079972.329215494 0 0 0 0 0 119934452.8108743 6169978.073204478 6169978.073204478 4159937.606549958 0 0 0 0 0 119297217.2932429 6186027.437578046 6186027.437578046 4198345.853924593 0 0 0 0 0 118464113.5237105 5945422.724580656 5945422.724580656 3375777.746986103 0 0 0 0 0 118981475.3038543 6308130.566586736 6308130.566586736 4218752.903243999 0 0 0 0 0 117893224.4427458 5943509.54827779 5943509.54827779 3425556.666673996 0 0 0 0 0 117345242.6291361 5931336.290391505 5931336.290391505 3469283.633878605 0 0 0 0 0 116818977.2952314 5910074.362284762 5910074.362284762 3507410.781333033 0 0 0 0 0 116313215.3706848 5880755.413537903 5880755.413537903 3540467.973235625 0 0 0 0 0 115684058.7076283 5632334.640145424 5632334.640145424 2877387.277405174 0 0 0 0 0 116122346.0076035 5935833.298851458 5935833.298851458 3577304.414704334 0 0 0 0 0 115230678.9095809 5598748.877272228 5598748.877272228 2920953.139345211 0 0 0 0 0 114793420.9685492 5560028.803088297 5560028.803088297 2961719.170877222 0 0 0 0 0 114372620.9749055 5516598.334143737 5516598.334143737 2997594.064038945 0 0 0 0 0 113967592.2880784 5469098.482845846 5469098.482845846 3028852.189534297 0 0 0 0 0 113577750.5975295 5418074.634495768 5418074.634495768 3055923.591565726 0 0 0 0 0 113469322.923982 5434042.444617487 5434042.444617487 3095348.136685351 0 0 0 0 0 112759726.2537968 5139488.774056388 5139488.774056388 2568721.403848222 0 0 0 0 0 113105045.0474753 5377154.929543063 5377154.929543063 3114214.383273567 0 0 0 0 0 112418582.1609145 5087380.972585746 5087380.972585746 2600453.40698717 0 0 0 0 0 112089707.372026 5033122.481040806 5033122.481040806 2627769.025552016 0 0 0 0 0 111772510.6860231 4977136.586152375 4977136.586152375 2651677.30859284 0 0 0 0 0 111466318.1924682 4919796.91394612 4919796.91394612 2672680.369615128 0 0 0 0 0 111113609.4851488 4717046.371774166 4717046.371774166 2251172.291412846 0 0 0 0 0 111405160.2354154 4916958.175438117 4916958.175438117 2708795.193910971 0 0 0 0 0 110830676.3619528 4661786.99334884 4661786.99334884 2277038.805572095 0 0 0 0 0 110560268.9287569 4606231.028226193 4606231.028226193 2302370.202277616 0 0 0 0 0 110312862.8878946 4559786.496043306 4559786.496043306 2322061.885108876 0 0 0 0 0 110111480.7435635 4481532.141405422 4481532.141405422 2265978.324457166 0 0 0 0 0 109910858.289739 4387933.464429079 4387933.464429079 2175195.337088892 0 0 0 0 0 120186499.4743808 6412652.879941795 6412652.879941795 5122351.231536779 0 0 0 0 0 185872846.5183069 -75243339.24198121 -75243339.24198121 31520217.42591955 0 0 0 0 0 176813319.5574635 -53638190.38056792 -53638190.38056792 28455956.88640185 0 0 0 0 0 196234047.807186 -69495445.19043942 -69495445.19043942 37029564.11540946 0 0 0 0 0 173511891.863102 -34222820.35081102 -34222820.35081102 26045460.59326111 0 0 0 0 0 172813499.8953161 -43925512.57337068 -43925512.57337068 26036247.88843057 0 0 0 0 0 170700282.4116939 -35507346.47839033 -35507346.47839033 24133181.35203854 0 0 0 0 0 170139322.8925756 -27543936.19079194 -27543936.19079194 23854126.94172827 0 0 0 0 0 166791034.7137319 -21922213.08531213 -21922213.08531213 22082874.91159323 0 0 0 0 0 163538283.7298505 -17195967.14610158 -17195967.14610158 20645920.14323184 0 0 0 0 0 160409473.1680704 -13213645.06678182 -13213645.06678182 19467690.69147134 0 0 0 0 0 157419866.9942006 -9853563.734223783 -9853563.734223783 18489781.41015441 0 0 0 0 0 154580237.6581153 -7015218.45573184 -7015218.45573184 17665559.34424864 0 0 0 0 0 151883737.5165093 -4617516.981810475 -4617516.981810475 16963295.25841531 0 0 0 0 0 149338148.4752236 -2590977.927851655 -2590977.927851655 16351077.70543733 0 0 0 0 0 145676686.8572432 -17077.30471715335 -17077.30471715335 14927509.14933653 0 0 0 0 0 144949287.1905873 -580752.4428369835 -580752.4428369835 13534575.43723818 0 0 0 0 0 142927013.4051137 772924.1812936181 772924.1812936181 13129928.71487924 0 0 0 0 0 141007548.4934591 1919154.402429706 1919154.402429706 12773719.33127873 0 0 0 0 0 139187357.6179286 2887960.995683556 2887960.995683556 12455204.709906 0 0 0 0 0 136319009.9538202 3665964.149065094 3665964.149065094 10227157.56819189 0 0 0 0 0 137148419.5994622 4279205.186705163 4279205.186705163 11701023.89073415 0 0 0 0 0 134814969.7326675 4320462.052494132 4320462.052494132 10033675.85938052 0 0 0 0 0 133384578.3810119 4870158.120790969 4870158.120790969 9856684.811273627 0 0 0 0 0 132025370.0685222 5330495.293376253 5330495.293376253 9694429.761422038 0 0 0 0 0 130733977.5131013 5712443.700102441 5712443.700102441 9540995.653433122 0 0 0 0 0 129507900.0245887 6027245.967830288 6027245.967830288 9396412.073751505 0 0 0 0 0 128343685.9753553 6283822.900701193 6283822.900701193 9258204.816052981 0 0 0 0 0 127498172.7518826 6834610.500497339 6834610.500497339 8947635.413317503 0 0 0 0 0 126739673.8451411 6299842.752408031 6299842.752408031 7696421.06459465 0 0 0 0 0 125743238.7537671 6460232.453246902 6460232.453246902 7616218.089001019 0 0 0 0 0 124792701.5825195 6585440.137196478 6585440.137196478 7535277.001491325 0 0 0 0 0 123891298.6797543 6682151.578167037 6682151.578167037 7460760.800310348 0 0 0 0 0 123027983.461534 6751563.699506855 6751563.699506855 7391588.503584783 0 0 0 0 0 122204085.8835072 6796752.059703128 6796752.059703128 7322869.944271555 0 0 0 0 0 121778113.8148596 7057607.655708372 7057607.655708372 7179283.845487774 0 0 0 0 0 121151050.6530097 6619770.910945997 6619770.910945997 6164704.863567181 0 0 0 0 0 120430807.9188468 6632072.318190469 6632072.318190469 6128475.114681574 0 0 0 0 0 119849286.3497677 6573051.698458846 6573051.698458846 5096184.93811889 0 0 0 0 0 119216356.5262755 6562379.583873428 6562379.583873428 5097240.621908531 0 0 0 0 0 118398629.0937533 6296483.535943208 6296483.535943208 4243979.380630334 0 0 0 0 0 118680781.0007765 6187718.232350042 6187718.232350042 4225947.58835482 0 0 0 0 0 117836912.8199926 6273988.1817665 6273988.1817665 4262475.023247244 0 0 0 0 0 117296433.4352896 6242269.558259961 6242269.558259961 4275562.062542759 0 0 0 0 0 116777038.760626 6202843.617124176 6202843.617124176 4284204.327559497 0 0 0 0 0 116277191.4403478 6156961.935918856 6156961.935918856 4288848.918362753 0 0 0 0 0 115656203.860167 5893180.512236181 5893180.512236181 3599168.51550925 0 0 0 0 0 115827379.156114 5844861.884603374 5844861.884603374 3568561.196111503 0 0 0 0 0 115205588.7444179 5845071.533129352 5845071.533129352 3618080.252933952 0 0 0 0 0 114772429.749106 5792888.284661651 5792888.284661651 3633424.918972674 0 0 0 0 0 114355385.5978734 5736919.263027567 5736919.263027567 3644976.193611014 0 0 0 0 0 113953833.6521887 5677685.004707661 5677685.004707661 3652949.915165625 0 0 0 0 0 113567090.1528594 5615696.726227804 5615696.726227804 3657627.202504727 0 0 0 0 0 113202467.9445984 5364086.853998259 5364086.853998259 3079078.049994899 0 0 0 0 0 112753704.0106313 5318003.16546917 5318003.16546917 3129566.201962234 0 0 0 0 0 112841116.0840415 5307513.565760512 5307513.565760512 3098499.720330202 0 0 0 0 0 112415039.3175617 5256982.741359967 5256982.741359967 3141282.249201338 0 0 0 0 0 112088241.457475 5194421.061336217 5194421.061336217 3150038.843417102 0 0 0 0 0 111772749.197359 5130625.784401393 5130625.784401393 3156457.501744715 0 0 0 0 0 111468149.9562089 5065943.225576222 5065943.225576222 3160639.90585576 0 0 0 0 0 111116369.629857 4856966.166536842 4856966.166536842 2722710.442355306 0 0 0 0 0 111170191.34423 4861032.077798206 4861032.077798206 2690569.261206853 0 0 0 0 0 110835694.5893117 4794633.264128502 4794633.264128502 2735372.276490227 0 0 0 0 0 110586209.5100962 4748000.144504645 4748000.144504645 2749055.216744655 0 0 0 0 0 110353704.6603088 4657285.734338591 4657285.734338591 2606702.67216225 0 0 0 0 0 110164543.3958087 4565689.935880627 4565689.935880627 2473201.075877937 0 0 0 0 0 120095449.5891768 6817536.124763224 6817536.124763224 6046227.964676196 0 0 0 0 0 210510480.3283499 -79330829.00539415 -79330829.00539415 38007853.50889213 0 0 0 0 0 190946717.0797527 -57409054.61913771 -57409054.61913771 34550071.5300625 0 0 0 0 0 186108431.0631335 -60270557.74668933 -60270557.74668933 28579564.41038384 0 0 0 0 0 168356967.9884812 -28336869.43080819 -28336869.43080819 22718647.03535457 0 0 0 0 0 185772745.7304673 -47024424.65958635 -47024424.65958635 31266884.2242521 0 0 0 0 0 181230491.0759689 -37928966.65576877 -37928966.65576877 28273620.2039766 0 0 0 0 0 165748212.7452434 -22342600.6765321 -22342600.6765321 21587019.37858915 0 0 0 0 0 163045120.9827369 -17332239.79860589 -17332239.79860589 20653336.77654691 0 0 0 0 0 160333233.4063166 -13131765.02605376 -13131765.02605376 19867182.75988143 0 0 0 0 0 157658655.8202988 -9605361.292673927 -9605361.292673927 19191036.48306132 0 0 0 0 0 155051800.1494984 -6641971.793802597 -6641971.793802597 18598529.04796923 0 0 0 0 0 152533216.9669807 -4149424.368953274 -4149424.368953274 18068758.79869677 0 0 0 0 0 150116852.4223413 -2053381.21645698 -2053381.21645698 17586501.70549983 0 0 0 0 0 147805524.9380317 -291862.2919757573 -291862.2919757573 17142926.1200152 0 0 0 0 0 146937500.6159917 -878271.3287797251 -878271.3287797251 15815558.45714118 0 0 0 0 0 143730207.6775842 1369548.126615985 1369548.126615985 14568403.88388344 0 0 0 0 0 141863299.4309743 2537212.070824345 2537212.070824345 14238189.40312174 0 0 0 0 0 140077955.5083549 3518798.451423947 3518798.451423947 13931318.5958569 0 0 0 0 0 138373852.5532895 4340937.468575214 4340937.468575214 13641388.5517754 0 0 0 0 0 135660135.168537 4934145.825612799 4934145.825612799 11492048.55016343 0 0 0 0 0 137463808.6285532 3705019.365990749 3705019.365990749 12166589.45847627 0 0 0 0 0 134236850.2275357 5480220.511177337 5480220.511177337 11293708.38397468 0 0 0 0 0 132875806.1213608 5932961.793262602 5932961.793262602 11104184.33392247 0 0 0 0 0 131577447.6022471 6305287.287574404 6305287.287574404 10921083.0973802 0 0 0 0 0 130339328.8823684 6608150.614884523 6608150.614884523 10743425.34065417 0 0 0 0 0 129159881.8165464 6851282.464144296 6851282.464144296 10569757.5294523 0 0 0 0 0 128037510.2647456 7041282.376497705 7041282.376497705 10397519.76000751 0 0 0 0 0 127241559.1245532 6490274.917508298 6490274.917508298 9123686.413333258 0 0 0 0 0 126487344.3785871 6982812.049251082 6982812.049251082 8829424.094150139 0 0 0 0 0 125520316.1341656 7094434.971885717 7094434.971885717 8713232.813552929 0 0 0 0 0 124596932.1280005 7174757.768338866 7174757.768338866 8602479.163493523 0 0 0 0 0 123711232.5939358 7228107.51623235 7228107.51623235 8497651.406827228 0 0 0 0 0 122867152.754452 7258647.369753026 7258647.369753026 8392164.750453198 0 0 0 0 0 122061100.133293 7268701.733750722 7268701.733750722 8288157.292190541 0 0 0 0 0 121415822.2302132 6820481.05772351 6820481.05772351 7252451.653510865 0 0 0 0 0 121040006.6359203 7056395.520214255 7056395.520214255 7110492.123217615 0 0 0 0 0 120333902.8533 7039954.353926698 7039954.353926698 7038931.787325669 0 0 0 0 0 119524183.4495895 6418458.107070907 6418458.107070907 5120841.467740498 0 0 0 0 0 118890072.2131262 6411394.63333487 6411394.63333487 5118767.515925328 0 0 0 0 0 118089481.3526589 6176916.540322416 6176916.540322416 4250478.738495629 0 0 0 0 0 118610928.8920729 6540859.519465886 6540859.519465886 5093916.914677982 0 0 0 0 0 117523575.4330176 6155682.819847966 6155682.819847966 4267849.331957472 0 0 0 0 0 116981394.3341059 6125545.593774703 6125545.593774703 4279422.448230795 0 0 0 0 0 116461075.9851181 6087744.078280241 6087744.078280241 4286822.889472002 0 0 0 0 0 115961765.0910024 6043466.889142998 6043466.889142998 4290460.166241875 0 0 0 0 0 115360006.6528634 5802502.676759285 5802502.676759285 3591515.290121569 0 0 0 0 0 115796980.9707208 6105257.702042216 6105257.702042216 4289582.213529726 0 0 0 0 0 114912256.174369 5755366.403548761 5755366.403548761 3608913.515343895 0 0 0 0 0 114481118.4653804 5704000.394935116 5704000.394935116 3624148.582910217 0 0 0 0 0 114066511.8309101 5648873.264218507 5648873.264218507 3635717.017634124 0 0 0 0 0 113667846.8008324 5590515.515915751 5590515.515915751 3643784.483831834 0 0 0 0 0 113284385.9004867 5529452.549721283 5529452.549721283 3648607.173657096 0 0 0 0 0 113194569.5131511 5551398.109452889 5551398.109452889 3659117.683485792 0 0 0 0 0 112493156.7273412 5248763.997806052 5248763.997806052 3114430.249505392 0 0 0 0 0 112835701.187634 5485140.97896683 5485140.97896683 3657619.218854499 0 0 0 0 0 112157642.1174247 5188029.710363621 5188029.710363621 3126850.982536215 0 0 0 0 0 111834395.3999629 5125849.827653843 5125849.827653843 3136209.775296598 0 0 0 0 0 111522944.1576127 5062657.503642617 5062657.503642617 3142885.430107886 0 0 0 0 0 111222579.9295629 4998783.330983192 4998783.330983192 3147468.038515169 0 0 0 0 0 110882809.6448301 4800404.336315514 4800404.336315514 2705254.830608168 0 0 0 0 0 111173766.73337 5000359.337384813 5000359.337384813 3163775.543756559 0 0 0 0 0 110595606.7959076 4736166.034999974 4736166.034999974 2715721.085737219 0 0 0 0 0 110324338.2705741 4679483.66343802 4679483.66343802 2754467.625138725 0 0 0 0 0 110101216.1024644 4603716.562915747 4603716.562915747 2711123.133938004 0 0 0 0 0 109884655.522826 4512964.808451962 4512964.808451962 2606704.820056189 0 0 0 0 0 119743150.7374564 6629182.540848348 6629182.540848348 6089467.582095671 0 0 0 0 0 201831765.5950345 -74576819.36121173 -74576819.36121173 29121602.74917988 0 0 0 0 0 182696658.3224549 -49122653.67889838 -49122653.67889838 26450869.82224778 0 0 0 0 0 199054617.7341747 -62350823.06549838 -62350823.06549838 32922196.55319329 0 0 0 0 0 176787291.407758 -30420081.42619389 -30420081.42619389 26141318.60572103 0 0 0 0 0 178851065.8378259 -39377163.19611667 -39377163.19611667 25236242.29834679 0 0 0 0 0 175404234.4631478 -31285591.78635133 -31285591.78635133 24288721.76932478 0 0 0 0 0 172511474.8742578 -24177595.64246935 -24177595.64246935 24450557.21132377 0 0 0 0 0 168474868.030506 -18965513.39664094 -18965513.39664094 23061131.49633304 0 0 0 0 0 164679929.5823949 -14601089.44792855 -14601089.44792855 21904781.10078386 0 0 0 0 0 161123155.3705136 -10938839.74933808 -10938839.74933808 20925613.22590163 0 0 0 0 0 157795280.4933009 -7861309.731226156 -7861309.731226156 20083218.48786377 0 0 0 0 0 154687732.6965639 -5271351.391628806 -5271351.391628806 19346758.66546082 0 0 0 0 0 151783270.8702836 -3092525.207240529 -3092525.207240529 18693143.19081169 0 0 0 0 0 149074908.3269379 -1258583.587358022 -1258583.587358022 18104894.42516506 0 0 0 0 0 145605493.6103223 1187595.594428629 1187595.594428629 16730893.63317728 0 0 0 0 0 144678479.1019199 568425.0394464307 568425.0394464307 15339175.98827007 0 0 0 0 0 142551655.7978941 1788146.116689812 1788146.116689812 14911255.6428069 0 0 0 0 0 140549303.4840063 2814977.080466223 2814977.080466223 14521652.1672065 0 0 0 0 0 138666868.0628959 3677907.22933088 3677907.22933088 14161498.76422126 0 0 0 0 0 135832732.6260127 4391857.449436542 4391857.449436542 11901697.88723116 0 0 0 0 0 136750769.8248557 5027221.14656984 5027221.14656984 13365475.10812363 0 0 0 0 0 134289788.7497205 4966530.067105855 4966530.067105855 11655339.71368486 0 0 0 0 0 132830627.065961 5444956.406944691 5444956.406944691 11424832.51109529 0 0 0 0 0 131451094.7176255 5840425.988937831 5840425.988937831 11206625.45921509 0 0 0 0 0 130146964.2309195 6164818.846656851 6164818.846656851 10998493.07315647 0 0 0 0 0 128914676.9164562 6427944.345989604 6427944.345989604 10798542.32295182 0 0 0 0 0 127748597.3704876 6637741.058507865 6637741.058507865 10606237.86960944 0 0 0 0 0 126970843.8424249 7188129.619247917 7188129.619247917 10224500.07965353 0 0 0 0 0 126192638.0214647 6650352.264046479 6650352.264046479 8989655.286474049 0 0 0 0 0 125195634.5924593 6774070.488930934 6774070.488930934 8856673.003832512 0 0 0 0 0 124248649.6592086 6866149.972114016 6866149.972114016 8728099.168602459 0 0 0 0 0 123351476.1359917 6931189.151312654 6931189.151312654 8607866.188501775 0 0 0 0 0 122494720.1771695 6971818.559622867 6971818.559622867 8493671.388726259 0 0 0 0 0 121679182.6278854 6991437.379579994 6991437.379579994 8379026.93366317 0 0 0 0 0 121296671.4018011 7261284.136646583 7261284.136646583 8180127.16606544 0 0 0 0 0 120668614.1687644 6826345.839419623 6826345.839419623 7177189.247584892 0 0 0 0 0 119956788.4596616 6816747.981849236 6816747.981849236 7100343.864342062 0 0 0 0 0 119442664.7469941 6797089.064023602 6797089.064023602 6012494.131427843 0 0 0 0 0 118814234.4956706 6765579.091883937 6765579.091883937 5977225.936422731 0 0 0 0 0 118030591.5730939 6508730.956905103 6508730.956905103 5084722.213127808 0 0 0 0 0 118279071.1043356 6392255.419213385 6392255.419213385 5113395.493045087 0 0 0 0 0 117473071.3885193 6467466.517225167 6467466.517225167 5069752.697807669 0 0 0 0 0 116937709.0508603 6418839.536080382 6418839.536080382 5051483.965360881 0 0 0 0 0 116423682.6070316 6364002.662292513 6364002.662292513 5030319.034948203 0 0 0 0 0 115930150.6996559 6303842.910690041 6303842.910690041 5006181.737243322 0 0 0 0 0 115335761.6837092 6048488.735808799 6048488.735808799 4284474.022001776 0 0 0 0 0 115482698.9986924 5993531.800941178 5993531.800941178 4290310.120270212 0 0 0 0 0 114891065.0426456 5987746.291708223 5987746.291708223 4277927.949051768 0 0 0 0 0 114463692.5029629 5923682.283947906 5923682.283947906 4268724.524540205 0 0 0 0 0 114052569.6721028 5856650.776100125 5856650.776100125 4256739.115658932 0 0 0 0 0 113657050.0065279 5787207.910522537 5787207.910522537 4242228.773422033 0 0 0 0 0 113276459.6762272 5715769.480774581 5715769.480774581 4225328.93850527 0 0 0 0 0 112915501.4937935 5466103.065560628 5466103.065560628 3650433.052241046 0 0 0 0 0 112489804.1384485 5417300.068958508 5417300.068958508 3653532.395802894 0 0 0 0 0 112560525.9812846 5400832.271763736 5400832.271763736 3649296.856782124 0 0 0 0 0 112156422.3718154 5348157.294547689 5348157.294547689 3647041.134910695 0 0 0 0 0 111834969.4116583 5278084.094577881 5278084.094577881 3638406.247833637 0 0 0 0 0 111524947.2521705 5207542.149497314 5207542.149497314 3627670.084462821 0 0 0 0 0 111225513.9048312 5136997.436957455 5136997.436957455 3615023.32292036 0 0 0 0 0 110887628.0504855 4934612.773588899 4934612.773588899 3167171.104636358 0 0 0 0 0 110932346.2639366 4934858.173977564 4934858.173977564 3150451.621595807 0 0 0 0 0 110599032.0083295 4872234.639144099 4872234.639144099 3184624.911359653 0 0 0 0 0 110374280.213457 4798878.927928677 4798878.927928677 3032136.37768842 0 0 0 0 0 110141723.9367273 4696434.466806551 4696434.466806551 2903022.465062414 0 0 0 0 0 119658964.5310662 7010700.91917944 7010700.91917944 6966731.453068898 0 0 0 0 0 226400383.8000146 -77168329.57774833 -77168329.57774833 33646054.06406348 0 0 0 0 0 209577850.7772687 -63477217.15555917 -63477217.15555917 31211917.1615024 0 0 0 0 0 195321731.3669519 -51001126.9180748 -51001126.9180748 30732182.65440098 0 0 0 0 0 193778787.0055867 -52749590.48736517 -52749590.48736517 26134499.39993854 0 0 0 0 0 171854401.1102882 -24625404.88463826 -24625404.88463826 23429684.23372482 0 0 0 0 0 190142018.2765016 -41565420.72341328 -41565420.72341328 29418214.42826239 0 0 0 0 0 184342236.9491858 -33344964.91836593 -33344964.91836593 27818354.03203706 0 0 0 0 0 168328794.018079 -19106666.70954232 -19106666.70954232 22673054.0080224 0 0 0 0 0 164913938.5545874 -14511073.98387495 -14511073.98387495 21999312.30693959 0 0 0 0 0 161637347.5186656 -10674524.43931787 -10674524.43931787 21390955.21240425 0 0 0 0 0 158514417.771177 -7466406.247617217 -7466406.247617217 20831690.40517066 0 0 0 0 0 155552140.0251963 -4780266.639729158 -4780266.639729158 20309678.87609413 0 0 0 0 0 152750207.625445 -2531184.761471851 -2531184.761471851 19816736.20217322 0 0 0 0 0 150110231.6013321 -647756.9877494973 -647756.9877494973 19345884.86733398 0 0 0 0 0 147624155.5568309 927919.7901829047 927919.7901829047 18894554.53360086 0 0 0 0 0 146548994.7432592 284519.0604510583 284519.0604510583 17570045.64643788 0 0 0 0 0 143517101.0448386 2428196.176503781 2428196.176503781 16341881.97848774 0 0 0 0 0 141537032.5081324 3466993.638628893 3466993.638628893 15974564.72944575 0 0 0 0 0 139664962.808514 4334579.162009443 4334579.162009443 15620848.17022497 0 0 0 0 0 137892853.7116611 5055494.565036962 5055494.565036962 15280485.15188615 0 0 0 0 0 135206918.3284039 5596894.946464805 5596894.946464805 13100903.22309905 0 0 0 0 0 136896609.2485901 4400537.724623764 4400537.724623764 13825852.31507607 0 0 0 0 0 133740002.9825365 6066901.71512142 6066901.71512142 12846102.44816398 0 0 0 0 0 132347239.0619765 6451217.648836144 6451217.648836144 12599111.20651326 0 0 0 0 0 131025420.3249666 6762285.303768875 6762285.303768875 12358589.68915009 0 0 0 0 0 129772227.8710281 7010480.471929362 7010480.471929362 12124956.80095556 0 0 0 0 0 128582095.2884314 7203114.598265952 7203114.598265952 11894216.4605056 0 0 0 0 0 127458206.4610804 7350946.007226404 7350946.007226404 11663849.9653065 0 0 0 0 0 126645834.4477678 6799824.734084749 6799824.734084749 10415314.31278254 0 0 0 0 0 125953892.822956 7296942.074354419 7296942.074354419 10056096.66378377 0 0 0 0 0 124985353.7217811 7373301.923184283 7373301.923184283 9892481.113780456 0 0 0 0 0 124064079.7440688 7421746.267341128 7421746.267341128 9734217.634175213 0 0 0 0 0 123182797.1957644 7446138.33570861 7446138.33570861 9582041.509125102 0 0 0 0 0 122344254.5196808 7449949.583986593 7449949.583986593 9432003.947011421 0 0 0 0 0 121545268.1987342 7436090.481168756 7436090.481168756 9285619.110710969 0 0 0 0 0 120900646.7254222 6992199.504993361 6992199.504993361 8266227.711804287 0 0 0 0 0 120564952.8821892 7237526.118684574 7237526.118684574 8069534.070828411 0 0 0 0 0 119866070.8205261 7200458.566009228 7200458.566009228 7958513.655270844 0 0 0 0 0 119087198.9424451 6613553.416948355 6613553.416948355 6049472.290626536 0 0 0 0 0 118460402.3997317 6587269.61611372 6587269.61611372 6010599.483111649 0 0 0 0 0 117694153.8037385 6362846.941048307 6362846.941048307 5102484.161419694 0 0 0 0 0 118214021.9897627 6724675.359750067 6724675.359750067 5939314.63591505 0 0 0 0 0 117135697.8829434 6324628.770135787 6324628.770135787 5086050.396889171 0 0 0 0 0 116600981.0062531 6278974.419010663 6278974.419010663 5065824.358228341 0 0 0 0 0 116088252.6164424 6226874.343528521 6226874.343528521 5043006.644230169 0 0 0 0 0 115596829.3904401 6169378.241779177 6169378.241779177 5017770.292199516 0 0 0 0 0 115022447.1456719 5938273.776618034 5938273.776618034 4285941.855935758 0 0 0 0 0 115456235.6439218 6239014.740576521 6239014.740576521 4979222.665607037 0 0 0 0 0 114581721.387468 5879266.255118321 5879266.255118321 4277743.473809178 0 0 0 0 0 114157754.7104118 5816914.185829893 5816914.185829893 4268049.626193547 0 0 0 0 0 113750517.4862978 5751609.01278917 5751609.01278917 4255808.053243003 0 0 0 0 0 113359137.5936665 5683859.998255677 5683859.998255677 4241144.263052978 0 0 0 0 0 112982956.7813124 5614094.424140721 5614094.424140721 4224228.84210478 0 0 0 0 0 112910148.3846383 5642694.491058152 5642694.491058152 4206127.766829609 0 0 0 0 0 112218858.7004585 5333995.996265776 5333995.996265776 3645497.369852957 0 0 0 0 0 112557524.3736511 5568333.633631253 5568333.633631253 4184985.340317273 0 0 0 0 0 111889779.838697 5265953.488462145 5265953.488462145 3639255.19863094 0 0 0 0 0 111572959.4958983 5196987.881379971 5196987.881379971 3630835.098620874 0 0 0 0 0 111268104.5366503 5127437.547999431 5127437.547999431 3620632.625747942 0 0 0 0 0 110974658.7158637 5057953.184189038 5057953.184189038 3608537.973850362 0 0 0 0 0 110654507.1987595 4872592.291140108 4872592.291140108 3153521.52356199 0 0 0 0 0 110936040.9375932 5067039.581798078 5067039.581798078 3600956.936029138 0 0 0 0 0 110413705.7008688 4820163.515356975 4820163.515356975 3156388.42181557 0 0 0 0 0 110063915.6498292 4723154.059388084 4723154.059388084 3221111.465034992 0 0 0 0 0 109847858.4728837 4621698.319309782 4621698.319309782 3039911.828938526 0 0 0 0 0 119278318.3490317 6793972.74817434 6793972.74817434 7022412.689215735 0 0 0 0 0 213546296.7674389 -71175089.07121775 -71175089.07121775 24763915.79928584 0 0 0 0 0 202372093.129091 -60125940.85913053 -60125940.85913053 26024844.95006789 0 0 0 0 0 188587257.2154449 -42859376.09975645 -42859376.09975645 26034530.81127207 0 0 0 0 0 209535743.4320557 -55429812.73386582 -55429812.73386582 31589804.4427299 0 0 0 0 0 178952927.2549845 -26506733.68441999 -26506733.68441999 26405144.04498577 0 0 0 0 0 183718346.6164305 -34125021.09397716 -34125021.09397716 25455645.69043478 0 0 0 0 0 178884522.7678308 -26915434.51475733 -26915434.51475733 24892215.23163482 0 0 0 0 0 173988231.406062 -20815020.69468718 -20815020.69468718 25186280.5126123 0 0 0 0 0 169415362.5948529 -16069134.55254825 -16069134.55254825 24133787.29247721 0 0 0 0 0 165201077.7233413 -12103905.34365612 -12103905.34365612 23214105.42003158 0 0 0 0 0 161316035.0161681 -8785426.843542198 -8785426.843542198 22398308.35780432 0 0 0 0 0 157733874.9769658 -6004023.591522784 -6004023.591522784 21663203.01675215 0 0 0 0 0 154427800.3301026 -3671591.820243948 -3671591.820243948 20993064.39594172 0 0 0 0 0 151372882.5792659 -1714979.560591521 -1714979.560591521 20373829.17008898 0 0 0 0 0 148549133.7092305 -73953.30492098126 -73953.30492098126 19796374.63723407 0 0 0 0 0 145288419.5929792 2244462.71322777 2244462.71322777 18456944.03106664 0 0 0 0 0 144193943.3028981 1581832.687148545 1581832.687148545 17078930.89400527 0 0 0 0 0 141993109.5418434 2670822.13782295 2670822.13782295 16621959.8485385 0 0 0 0 0 139935591.8257543 3583091.727666527 3583091.727666527 16195730.26628895 0 0 0 0 0 138013306.0110386 4344384.421378229 4344384.421378229 15791842.28659819 0 0 0 0 0 135231335.6331529 5002947.136040769 5002947.136040769 13509964.24480989 0 0 0 0 0 136217704.7823889 5651586.607592424 5651586.607592424 14950793.38134829 0 0 0 0 0 133664137.216982 5502609.220347407 5502609.220347407 13211090.08003568 0 0 0 0 0 132189609.4726871 5914274.720252932 5914274.720252932 12925958.50431712 0 0 0 0 0 130801481.8089712 6250371.522207464 6250371.522207464 12652638.51338881 0 0 0 0 0 129492249.4056811 6521435.378619388 6521435.378619388 12390490.87883726 0 0 0 0 0 128260464.0022464 6736889.611285294 6736889.611285294 12137408.54203171 0 0 0 0 0 127100171.9024827 6903720.596665542 6903720.596665542 11888186.99369245 0 0 0 0 0 126387358.3358439 7458331.233383674 7458331.233383674 11440229.28547901 0 0 0 0 0 125599751.4947375 6923657.559369493 6923657.559369493 10227880.40373873 0 0 0 0 0 124608471.0083095 7014159.830297936 7014159.830297936 10047592.42260821 0 0 0 0 0 123669698.8152667 7076119.376971082 7076119.376971082 9873813.067959378 0 0 0 0 0 122782422.3924002 7113836.143554318 7113836.143554318 9706223.22047505 0 0 0 0 0 121937041.1909828 7129964.734779124 7129964.734779124 9545886.951997882 0 0 0 0 0 121130525.1887467 7126657.626706935 7126657.626706935 9389185.858467486 0 0 0 0 0 120788306.5762193 7406648.702687234 7406648.702687234 9135659.740049331 0 0 0 0 0 120163784.821559 6977184.502479642 6977184.502479642 8150257.569390751 0 0 0 0 0 119463167.2633124 6948569.977595041 6948569.977595041 8033164.742782439 0 0 0 0 0 119012409.9439481 6970730.351268868 6970730.351268868 6896526.970791621 0 0 0 0 0 118391532.5371859 6921207.070260189 6921207.070260189 6825623.7853615 0 0 0 0 0 117640274.0183464 6675248.164259462 6675248.164259462 5896023.730050565 0 0 0 0 0 117858233.2763462 6550786.638398156 6550786.638398156 5969003.647470982 0 0 0 0 0 117089679.3014867 6618270.990189469 6618270.990189469 5849456.504994186 0 0 0 0 0 116561259.0977985 6555150.672618501 6555150.672618501 5800953.696742824 0 0 0 0 0 116054568.7712072 6486931.775970672 6486931.775970672 5750641.267543526 0 0 0 0 0 115568726.4608313 6414387.632347672 6414387.632347672 5698406.109604513 0 0 0 0 0 115001524.808718 6170050.935524544 6170050.935524544 4948243.611794985 0 0 0 0 0 115126004.8063213 6107300.408876604 6107300.408876604 4989849.207623105 0 0 0 0 0 114563861.1771685 6098287.51913798 6098287.51913798 4916997.183650739 0 0 0 0 0 114143348.9518693 6023828.561101655 6023828.561101655 4883609.494393123 0 0 0 0 0 113739242.5236925 5947302.188528905 5947302.188528905 4848750.661223887 0 0 0 0 0 113350706.4225071 5869040.24282438 5869040.24282438 4812296.189309044 0 0 0 0 0 112977124.342176 5789470.611121183 5789470.611121183 4774386.395640474 0 0 0 0 0 112621282.0259923 5542699.959671283 5542699.959671283 4205126.036067148 0 0 0 0 0 112217764.8094062 5492977.664001665 5492977.664001665 4162175.043341855 0 0 0 0 0 112273424.7117269 5470013.931796748 5470013.931796748 4183963.080124142 0 0 0 0 0 111890529.1762705 5416914.568542945 5416914.568542945 4137786.179394655 0 0 0 0 0 111575243.5776141 5340383.962404137 5340383.962404137 4111803.834771925 0 0 0 0 0 111271394.7801218 5263882.480639782 5263882.480639782 4083746.244370165 0 0 0 0 0 110978156.3945448 5188140.525113598 5188140.525113598 4053311.253167131 0 0 0 0 0 110667045.0425268 4993711.99771273 4993711.99771273 3606561.20398013 0 0 0 0 0 110691551.6270399 4989395.881299371 4989395.881299371 3595057.873991774 0 0 0 0 0 110329597.9384717 4923089.270442756 4923089.270442756 3632239.361342138 0 0 0 0 0 110108544.3976762 4802493.435256232 4802493.435256232 3321667.662116404 0 0 0 0 0 110252243.5548429 4880289.281051448 4880289.281051448 3425587.009750161 0 0 0 0 0 119199499.6477855 7152640.737760918 7152640.737760918 7848505.195839987 0 0 0 0 0 240124601.9260684 -72461044.36449723 -72461044.36449723 29751227.48169171 0 0 0 0 0 222227680.842773 -62051446.7900659 -62051446.7900659 29565668.09935866 0 0 0 0 0 200636273.6635801 -45518423.54693609 -45518423.54693609 30685475.92637681 0 0 0 0 0 199770086.5792616 -46918524.56493741 -46918524.56493741 25608515.36335403 0 0 0 0 0 174338134.2409228 -20924144.59795512 -20924144.59795512 24382505.14880999 0 0 0 0 0 192868842.2717861 -36310274.78588305 -36310274.78588305 29126239.17069561 0 0 0 0 0 186169111.1576356 -28842368.00753514 -28842368.00753514 27941042.66186739 0 0 0 0 0 170068101.4415483 -15947972.67241046 -15947972.67241046 23893675.67775557 0 0 0 0 0 166075207.0637591 -11807507.22498089 -11807507.22498089 23412877.78157615 0 0 0 0 0 162345752.3953468 -8358143.25108821 -8358143.25108821 22935374.13256751 0 0 0 0 0 158867261.3706945 -5480960.623666209 -5480960.623666209 22458620.91288552 0 0 0 0 0 155626602.9428749 -3079937.170339837 -3079937.170339837 21982869.16013632 0 0 0 0 0 152608682.0878366 -1075642.298248058 -1075642.298248058 21508022.46990255 0 0 0 0 0 149800110.3488522 596615.8692732512 596615.8692732512 21034942.08579746 0 0 0 0 0 147186139.0654465 1990099.80278633 1990099.80278633 20562797.29060309 0 0 0 0 0 145936672.40837 1301827.424974052 1301827.424974052 19254019.51174719 0 0 0 0 0 143090785.1508206 3342817.900398567 3342817.900398567 18031677.93792176 0 0 0 0 0 141027359.2272662 4257372.830178591 4257372.830178591 17620071.10624574 0 0 0 0 0 139090848.5789754 5015272.16455541 5015272.16455541 17218467.00585734 0 0 0 0 0 137272486.8138057 5640500.201261955 5640500.201261955 16826316.8059644 0 0 0 0 0 134634934.5709129 6141565.059180663 6141565.059180663 14631439.34709485 0 0 0 0 0 136215083.6500652 4977367.320601641 4977367.320601641 15408136.7754216 0 0 0 0 0 133140596.2089203 6540882.59248691 6540882.59248691 14319913.04599643 0 0 0 0 0 131729275.7085786 6862770.102799644 6862770.102799644 14016347.83429612 0 0 0 0 0 130395893.9719089 7118810.632002971 7118810.632002971 13723304.8031683 0 0 0 0 0 129137938.2874516 7317482.455540944 7317482.455540944 13433081.21987473 0 0 0 0 0 127950840.848918 7467785.949406487 7467785.949406487 13146333.51502971 0 0 0 0 0 126825885.5617487 7576373.951133807 7576373.951133807 12864502.95534637 0 0 0 0 0 126004559.6570197 7030077.819920653 7030077.819920653 11642886.13524063 0 0 0 0 0 125371883.6519948 7532522.85324317 7532522.85324317 11225131.2992718 0 0 0 0 0 124408168.9745053 7577695.635864402 7577695.635864402 11014648.92803143 0 0 0 0 0 123494141.5751383 7598189.006909631 7598189.006909631 10809361.0564544 0 0 0 0 0 122621072.0907494 7596841.408125401 7596841.408125401 10613485.96394993 0 0 0 0 0 121791023.603177 7578235.176087591 7578235.176087591 10420809.04621379 0 0 0 0 0 121003114.6034265 7543870.379265202 7543870.379265202 10232237.25664333 0 0 0 0 0 120364423.6519141 7107295.956742788 7107295.956742788 9235883.116809864 0 0 0 0 0 120065804.902059 7363157.795653651 7363157.795653651 8984587.943342425 0 0 0 0 0 119377260.0468268 7308756.497410172 7308756.497410172 8836137.374511732 0 0 0 0 0 118632235.641026 6760289.863372887 6760289.863372887 6944825.95188896 0 0 0 0 0 118015252.8503401 6717178.911249673 6717178.911249673 6869975.421224708 0 0 0 0 0 117282219.7692641 6505314.348866434 6505314.348866434 5924845.804537616 0 0 0 0 0 117798918.5164433 6863948.231617473 6863948.231617473 6752776.806540045 0 0 0 0 0 116732397.0625901 6452301.00314136 6452301.00314136 5876514.329129157 0 0 0 0 0 116206700.7805033 6393070.159752318 6393070.159752318 5825832.5251636 0 0 0 0 0 115703254.1976204 6328734.46217925 6328734.46217925 5773706.854864231 0 0 0 0 0 115221147.6736182 6259910.675407904 6259910.675407904 5720196.007753013 0 0 0 0 0 114674174.1156132 6040988.418935925 6040988.418935925 4958768.710248604 0 0 0 0 0 115102542.9185978 6338208.337331962 6338208.337331962 5644473.79333816 0 0 0 0 0 114241349.9457875 5971750.899863474 5971750.899863474 4925879.284913998 0 0 0 0 0 113825758.1488748 5899923.104228548 5899923.104228548 4891809.501277791 0 0 0 0 0 113426602.8337568 5825891.617742431 5825891.617742431 4856393.380154709 0 0 0 0 0 113043385.0636428 5750131.414432571 5750131.414432571 4819514.935498312 0 0 0 0 0 112675258.388109 5673009.39829133 5673009.39829133 4781309.413514608 0 0 0 0 0 112617821.8411475 5708915.414699667 5708915.414699667 4735228.072496804 0 0 0 0 0 111938696.5706091 5396352.719369135 5396352.719369135 4161120.118172906 0 0 0 0 0 112272028.0422967 5627679.809328418 5627679.809328418 4695059.71635415 0 0 0 0 0 111616528.8823836 5321947.144505753 5321947.144505753 4136781.476890576 0 0 0 0 0 111306533.0067107 5246986.820274478 5246986.820274478 4111031.984907144 0 0 0 0 0 111008609.6468809 5171534.930310844 5171534.930310844 4083644.983913939 0 0 0 0 0 110722005.2871277 5096312.927970055 5096312.927970055 4054380.012975506 0 0 0 0 0 110415424.9875285 4924332.771636729 4924332.771636729 3577645.156303121 0 0 0 0 0 110698030.1386269 5113180.607830212 5113180.607830212 4032350.913200187 0 0 0 0 0 110198551.1946162 4887415.405609735 4887415.405609735 3602061.047965904 0 0 0 0 0 109805645.59924 4729555.732197756 4729555.732197756 3490615.050099971 0 0 0 0 0 109984149.4173073 4819807.998964706 4819807.998964706 3656868.168960176 0 0 0 0 0 118795677.561202 6908437.355183685 6908437.355183685 7917204.471140978 0 0 0 0 0 228155996.2662451 -66838664.13394567 -66838664.13394567 21051540.37033082 0 0 0 0 0 214942689.9673069 -58588099.08267181 -58588099.08267181 23856144.61650008 0 0 0 0 0 193261153.4469225 -37062255.93201152 -37062255.93201152 25755296.70686611 0 0 0 0 0 210967331.409577 -48616889.83901273 -48616889.83901273 29450094.87849283 0 0 0 0 0 180118684.5551095 -22679350.55769462 -22679350.55769462 26958324.52930165 0 0 0 0 0 186836748.5500135 -29206962.1508146 -29206962.1508146 25789429.24088463 0 0 0 0 0 181104369.2619638 -22731832.43666214 -22731832.43666214 25681971.90202265 0 0 0 0 0 174644864.2465445 -17564429.24174422 -17564429.24174422 26085490.72516232 0 0 0 0 0 169677823.9721078 -13307735.75210238 -13307735.75210238 25293200.50456497 0 0 0 0 0 165159526.7943968 -9757402.689784678 -9757402.689784678 24558643.8391051 0 0 0 0 0 161042237.1118538 -6791360.285524771 -6791360.285524771 23868994.93611273 0 0 0 0 0 157282524.0035728 -4310776.111718663 -4310776.111718663 23214887.14254902 0 0 0 0 0 153842647.1165696 -2234871.348912745 -2234871.348912745 22590414.49380033 0 0 0 0 0 150689286.6333855 -497511.2621591681 -497511.2621591681 21990345.71346338 0 0 0 0 0 147793057.3550594 955517.243091178 955517.243091178 21412744.80700234 0 0 0 0 0 144750746.590681 3149616.286987759 3149616.286987759 20090692.02524939 0 0 0 0 0 143515845.1229241 2454003.454848622 2454003.454848622 18738334.78019449 0 0 0 0 0 141268972.9026152 3417542.442426595 3417542.442426595 18248093.61015383 0 0 0 0 0 139181161.8146096 4219614.759391044 4219614.759391044 17780272.0756862 0 0 0 0 0 137239775.2201808 4885476.969367309 4885476.969367309 17331220.33912255 0 0 0 0 0 134533038.696959 5501089.776419182 5501089.776419182 15040964.68893834 0 0 0 0 0 135564772.4485331 6152890.931352708 6152890.931352708 16443591.93624156 0 0 0 0 0 132955974.5366607 5931117.692946506 5931117.692946506 14689539.91578053 0 0 0 0 0 131475523.1390321 6280998.5828151 6280998.5828151 14351208.86697028 0 0 0 0 0 130086642.0957669 6562883.463716046 6562883.463716046 14025364.98950315 0 0 0 0 0 128783578.2076029 6786725.422142856 6786725.422142856 13711441.1321558 0 0 0 0 0 127562028.7785464 6959997.261284159 6959997.261284159 13402719.09541345 0 0 0 0 0 126411970.0592735 7090433.635664009 7090433.635664009 13102036.85626131 0 0 0 0 0 125759892.1796243 7649757.841713064 7649757.841713064 12594642.49101676 0 0 0 0 0 124968708.5371928 7121566.290657746 7121566.290657746 11408112.67008195 0 0 0 0 0 123989308.4424671 7183035.552130208 7183035.552130208 11182209.30023082 0 0 0 0 0 123062852.8050225 7218548.73532578 7218548.73532578 10963139.49376647 0 0 0 0 0 122188041.8160299 7232168.054739905 7232168.054739905 10750151.28828578 0 0 0 0 0 121354875.1122103 7226437.541774642 7226437.541774642 10548350.4918078 0 0 0 0 0 120565284.9307732 7205217.740669817 7205217.740669817 10349248.24189262 0 0 0 0 0 120258794.4344167 7496199.554509574 7496199.554509574 10041699.03674884 0 0 0 0 0 119641692.9504344 7074659.39371895 7074659.39371895 9079193.119234065 0 0 0 0 0 118954113.6937814 7030067.237228972 7030067.237228972 8924081.637916774 0 0 0 0 0 118561542.0576403 7095538.334036343 7095538.334036343 7742207.532477586 0 0 0 0 0 117949320.3872794 7030410.158021539 7030410.158021539 7637199.005288044 0 0 0 0 0 117232803.8670987 6799362.053015077 6799362.053015077 6677394.555419188 0 0 0 0 0 117422314.5863304 6664999.660737827 6664999.660737827 6795135.894323633 0 0 0 0 0 116690357.2756558 6728515.587419349 6728515.587419349 6599817.824511755 0 0 0 0 0 116170672.7624499 6652926.452419666 6652926.452419666 6521840.044594981 0 0 0 0 0 115672638.7017671 6573152.324898133 6573152.324898133 6443146.549537396 0 0 0 0 0 115195691.2144172 6490088.6601545 6490088.6601545 6363796.957713471 0 0 0 0 0 114655494.9151845 6258981.144757801 6258981.144757801 5588901.480197432 0 0 0 0 0 114759656.6626079 6187470.035671934 6187470.035671934 5665242.158634397 0 0 0 0 0 114226060.3984664 6177702.692842275 6177702.692842275 5533083.044753549 0 0 0 0 0 113813441.6586325 6094468.31543937 6094468.31543937 5476641.047012522 0 0 0 0 0 113417291.0912126 6009856.780810719 6009856.780810719 5419470.349706175 0 0 0 0 0 113036689.9034605 5924212.35424191 5924212.35424191 5361733.356207914 0 0 0 0 0 112670915.8324824 5837854.677736597 5837854.677736597 5303559.44972262 0 0 0 0 0 112321455.3274262 5594841.022413571 5594841.022413571 4741856.707904235 0 0 0 0 0 111939145.8464011 5545967.835872941 5545967.835872941 4654120.713175208 0 0 0 0 0 111981279.2376214 5515959.796234622 5515959.796234622 4701459.930200074 0 0 0 0 0 111618711.429746 5463967.028766464 5463967.028766464 4612419.053768016 0 0 0 0 0 111310236.0139233 5381721.863367209 5381721.863367209 4569990.029775647 0 0 0 0 0 111013270.1510718 5299772.455344136 5299772.455344136 4525683.416583134 0 0 0 0 0 110724719.7530281 5220988.774386448 5220988.774386448 4476471.864190751 0 0 0 0 0 110430654.5750659 5048846.973970089 5048846.973970089 4020948.061206009 0 0 0 0 0 110433769.007088 5021475.239834595 5021475.239834595 4020186.032638927 0 0 0 0 0 110243751.8605439 4987487.424963049 4987487.424963049 3961326.193640375 0 0 0 0 0 110022113.8135018 4895676.250095351 4895676.250095351 3764316.510238541 0 0 0 0 0 118721227.8976326 7245096.073953818 7245096.073953818 8690323.02248713 0 0 0 0 0 251402448.8048756 -67515721.27796224 -67515721.27796224 24019748.76974325 0 0 0 0 0 235551898.5209935 -59538463.07702675 -59538463.07702675 27277326.15360434 0 0 0 0 0 216190956.3789525 -49077423.065704 -49077423.065704 25040573.58620276 0 0 0 0 0 202296677.1651519 -38878891.33031829 -38878891.33031829 29149684.2704863 0 0 0 0 0 204061373.6100861 -39314029.83038466 -39314029.83038466 25543215.32580774 0 0 0 0 0 175839424.8128324 -17385498.36943656 -17385498.36943656 25478206.69900729 0 0 0 0 0 194180054.040796 -31033091.73260184 -31033091.73260184 28787040.36213585 0 0 0 0 0 186890494.4243366 -24458076.42039945 -24458076.42039945 28238983.12963574 0 0 0 0 0 171010346.5272943 -12957945.82769019 -12957945.82769019 25199744.57348514 0 0 0 0 0 166577091.8108891 -9281790.203677187 -9281790.203677187 24860973.76137367 0 0 0 0 0 162505710.9773328 -6224690.563377338 -6224690.563377338 24474173.35682523 0 0 0 0 0 158763042.5266171 -3679853.899734582 -3679853.899734582 24050198.72688405 0 0 0 0 0 155318953.841493 -1560766.120664107 -1560766.120664107 23597756.13093559 0 0 0 0 0 152145612.5730086 203630.2540738466 203630.2540738466 23124143.54851675 0 0 0 0 0 149218955.4050219 1671191.495156185 1671191.495156185 22635885.14261984 0 0 0 0 0 146517169.9498993 2890640.639835638 2890640.639835638 22135236.402574 0 0 0 0 0 145127348.8819446 2169813.992876234 2169813.992876234 20852449.16567099 0 0 0 0 0 142475566.1912359 4112115.890952189 4112115.890952189 19627032.17791102 0 0 0 0 0 140357676.9411187 4908650.457865713 4908650.457865713 19170204.66675957 0 0 0 0 0 138382987.505015 5564834.792972313 5564834.792972313 18719585.24635722 0 0 0 0 0 136538797.7046261 6101762.959633947 6101762.959633947 18276102.91113399 0 0 0 0 0 133959366.4442068 6569174.838247834 6569174.838247834 16069277.7911239 0 0 0 0 0 135431750.8795299 5435294.921786572 5435294.921786572 16898604.35583815 0 0 0 0 0 132450702.7467323 6904445.580770683 6904445.580770683 15704491.21008949 0 0 0 0 0 131033207.3439508 7171077.969908661 7171077.969908661 15353033.55322778 0 0 0 0 0 129700745.4355585 7378037.655005202 7378037.655005202 15005695.80757585 0 0 0 0 0 128447887.9110979 7533473.037401496 7533473.037401496 14661103.12755155 0 0 0 0 0 127265262.6138152 7645538.7542478 7645538.7542478 14324340.57328347 0 0 0 0 0 126149570.5975645 7720479.592965838 7720479.592965838 13994558.62647247 0 0 0 0 0 125330399.3384952 7184523.523353246 7184523.523353246 12808216.07054932 0 0 0 0 0 124752301.9786937 7693715.000638378 7693715.000638378 12331733.13428945 0 0 0 0 0 123798065.9018548 7711801.150314365 7711801.150314365 12075278.07276423 0 0 0 0 0 122894942.685882 7707951.353928773 7707951.353928773 11825489.85686763 0 0 0 0 0 122034072.5437291 7685794.790337437 7685794.790337437 11586657.791955 0 0 0 0 0 121217507.5074336 7647390.79476505 7647390.79476505 11353194.65352883 0 0 0 0 0 120442023.9951617 7595917.141792653 7595917.141792653 11125714.87688367 0 0 0 0 0 119813244.9882984 7169179.676298602 7169179.676298602 10156285.99793555 0 0 0 0 0 119547944.4721245 7436481.564527038 7436481.564527038 9853359.142065175 0 0 0 0 0 118871855.7985243 7367604.945403839 7367604.945403839 9668808.277164958 0 0 0 0 0 118160562.5880369 6858895.221176468 6858895.221176468 7803402.149854559 0 0 0 0 0 117555094.7233079 6801681.158577285 6801681.158577285 7694060.976149665 0 0 0 0 0 116856332.3413654 6605572.609945511 6605572.609945511 6717797.824873601 0 0 0 0 0 117366231.7863512 6958829.527957788 6958829.527957788 7532474.283792851 0 0 0 0 0 116317393.22472 6540131.87722848 6540131.87722848 6637866.864750296 0 0 0 0 0 115801674.4272692 6469655.587942005 6469655.587942005 6557530.573714412 0 0 0 0 0 115308847.3389852 6394883.618005882 6394883.618005882 6476867.127965035 0 0 0 0 0 114837479.3907857 6316680.627592757 6316680.627592757 6395885.651568117 0 0 0 0 0 114317322.6259589 6111846.548710063 6111846.548710063 5608352.78991051 0 0 0 0 0 114738649.3974426 6404434.360788108 6404434.360788108 6284034.853476995 0 0 0 0 0 113893370.4359728 6033959.185053258 6033959.185053258 5551466.401638873 0 0 0 0 0 113486906.2670556 5954171.550541479 5954171.550541479 5493718.65223517 0 0 0 0 0 113096820.6133441 5872899.525224171 5872899.525224171 5435764.461849019 0 0 0 0 0 112722453.7828097 5790492.443472544 5790492.443472544 5377357.631607014 0 0 0 0 0 112362992.4806229 5707282.194891187 5707282.194891187 5318537.897750047 0 0 0 0 0 112319234.8565468 5751098.080317356 5751098.080317356 5245170.307788231 0 0 0 0 0 111654121.4652717 5436626.942868484 5436626.942868484 4660202.795190522 0 0 0 0 0 111980963.6393401 5664156.937267399 5664156.937267399 5186572.583185159 0 0 0 0 0 111339256.2014284 5356972.57330767 5356972.57330767 4618304.861716853 0 0 0 0 0 111036013.9646197 5276904.249033734 5276904.249033734 4575730.714636147 0 0 0 0 0 110744892.5853799 5195971.576596072 5195971.576596072 4532118.052457116 0 0 0 0 0 110464805.9647484 5114865.56648112 5114865.56648112 4486356.224132018 0 0 0 0 0 110175381.912856 4955351.476482037 4955351.476482037 4006224.737529052 0 0 0 0 0 110452705.2370079 5143823.447445447 5143823.447445447 4430007.922645037 0 0 0 0 0 109949432.9945695 4891118.616838152 4891118.616838152 4034857.179857435 0 0 0 0 0 109750929.842223 4807228.500995268 4807228.500995268 3933496.716282262 0 0 0 0 0 118300135.922021 6975736.355052799 6975736.355052799 8771921.491120473 0 0 0 0 0 243393071.0582336 -63586373.26375426 -63586373.26375426 17258738.75759791 0 0 0 0 0 223149101.7221197 -51853943.54628392 -51853943.54628392 20896567.48032731 0 0 0 0 0 223598297.6839894 -50579450.90389103 -50579450.90389103 27841052.55655926 0 0 0 0 0 195910504.6573547 -31230754.65001524 -31230754.65001524 26140474.58310727 0 0 0 0 0 212864257.9373215 -41291027.24310348 -41291027.24310348 29001585.83739454 0 0 0 0 0 180388318.7929809 -19013966.32510437 -19013966.32510437 27672713.55484311 0 0 0 0 0 188714516.6583788 -24389813.22082362 -24389813.22082362 26518793.89140555 0 0 0 0 0 182275244.4268152 -18736834.51133957 -18736834.51133957 26693476.73329172 0 0 0 0 0 174566196.3606322 -14494722.87660225 -14494722.87660225 27093673.9793533 0 0 0 0 0 169335581.6014004 -10735121.32946541 -10735121.32946541 26507272.70537178 0 0 0 0 0 164621180.0759062 -7601292.174785056 -7601292.174785056 25914257.51999715 0 0 0 0 0 160357229.6203247 -4985803.204309292 -4985803.204309292 25317558.96762887 0 0 0 0 0 156490252.2824494 -2800360.583720286 -2800360.583720286 24719028.09930615 0 0 0 0 0 152974427.6814456 -973900.8932512256 -973900.8932512256 24121473.83237779 0 0 0 0 0 149768871.5375014 552254.3126167443 552254.3126167443 23527602.08254907 0 0 0 0 0 146840917.6529179 1826576.260467776 1826576.260467776 22938717.68202908 0 0 0 0 0 144016188.9416624 3901628.501562284 3901628.501562284 21629337.50147763 0 0 0 0 0 142672526.9508759 3183387.583917518 3183387.583917518 20306815.3992269 0 0 0 0 0 140405558.6230733 4027182.059515894 4027182.059515894 19780253.7392323 0 0 0 0 0 138308494.6376242 4727129.067857897 4727129.067857897 19270756.69628923 0 0 0 0 0 136365965.5573403 5304819.112022532 5304819.112022532 18776173.43071201 0 0 0 0 0 133746624.9171759 5886533.637293812 5886533.637293812 16481560.94623564 0 0 0 0 0 134815648.6589814 6537619.147686348 6537619.147686348 17840041.93601623 0 0 0 0 0 132172986.568113 6253669.763068993 6253669.763068993 16078790.70037794 0 0 0 0 0 130700122.466726 6548482.925508304 6548482.925508304 15689320.02104546 0 0 0 0 0 129321048.2796378 6782619.969878747 6782619.969878747 15317397.78680626 0 0 0 0 0 128031990.8469644 6964336.457083648 6964336.457083648 14952214.4339739 0 0 0 0 0 126826495.2284939 7101652.790688139 7101652.790688139 14594026.34600631 0 0 0 0 0 125695169.1014413 7200439.044841428 7200439.044841428 14243474.53177033 0 0 0 0 0 125095946.1189973 7765359.89225408 7765359.89225408 13679076.45404796 0 0 0 0 0 124308823.6078116 7247642.487439036 7247642.487439036 12528566.28783979 0 0 0 0 0 123344800.1615404 7283804.168321447 7283804.168321447 12257202.88657801 0 0 0 0 0 122434774.7636364 7296939.670429926 7296939.670429926 11993499.70050813 0 0 0 0 0 121577917.4384895 7290718.329434429 7290718.329434429 11736802.94399362 0 0 0 0 0 120760871.7794972 7267765.807991076 7267765.807991076 11493649.89344947 0 0 0 0 0 119985418.5812766 7229916.965534548 7229916.965534548 11257057.43291712 0 0 0 0 0 119712014.4034583 7532918.053267091 7532918.053267091 10896953.29167813 0 0 0 0 0 119106250.7424999 7121465.687463466 7121465.687463466 9961472.741926303 0 0 0 0 0 118433833.1667868 7063821.307613308 7063821.307613308 9770237.610239385 0 0 0 0 0 118094411.6209981 7173916.334461744 7173916.334461744 8550337.706470473 0 0 0 0 0 117494006.6954135 7095933.941581204 7095933.941581204 8412515.718632082 0 0 0 0 0 116810404.405536 6881627.082739439 6881627.082739439 7425417.994959471 0 0 0 0 0 116974714.6851215 6737012.228204004 6737012.228204004 7584975.690083597 0 0 0 0 0 116277995.7242912 6799695.749918575 6799695.749918575 7318833.675983638 0 0 0 0 0 115768301.0674522 6713503.923149798 6713503.923149798 7212025.189406707 0 0 0 0 0 115280577.5414815 6624218.125892567 6624218.125892567 7105845.379798729 0 0 0 0 0 114813816.0847743 6532620.952583726 6532620.952583726 7000645.018443953 0 0 0 0 0 114300327.3998177 6316640.309095929 6316640.309095929 6204572.076847469 0 0 0 0 0 114386229.507846 6235617.327171874 6235617.327171874 6314685.797870073 0 0 0 0 0 113879878.4079882 6227338.487513087 6227338.487513087 6125139.801192253 0 0 0 0 0 113476253.0247286 6136881.703678009 6136881.703678009 6046272.506114529 0 0 0 0 0 113088816.9942434 6045605.060876777 6045605.060876777 5967644.046118181 0 0 0 0 0 112716832.7009698 5953880.676434031 5953880.676434031 5889441.800831553 0 0 0 0 0 112359481.6961758 5862011.584123692 5862011.584123692 5811827.425141385 0 0 0 0 0 112017652.1572391 5623598.640864659 5623598.640864659 5259528.29879072 0 0 0 0 0 111655529.9935649 5577288.499679685 5577288.499679685 5128106.184076716 0 0 0 0 0 111685804.3942183 5539713.242783314 5539713.242783314 5200437.556173229 0 0 0 0 0 111342371.5762091 5490501.096679779 5490501.096679779 5070058.088130731 0 0 0 0 0 111041166.5979039 5403490.338487796 5403490.338487796 5013832.156702486 0 0 0 0 0 110751391.1901426 5317448.427804943 5317448.427804943 4959593.731949241 0 0 0 0 0 110470553.7420406 5230963.121842737 5230963.121842737 4893194.731833984 0 0 0 0 0 110217032.4616778 5080645.680280059 5080645.680280059 4419078.541952149 0 0 0 0 0 110184990.0253124 5035532.814505572 5035532.814505572 4431300.262689468 0 0 0 0 0 109997535.2872357 4978240.364746885 4978240.364746885 4235750.041837283 0 0 0 0 0 118228728.1095499 7290971.671755644 7290971.671755644 9488333.743907847 0 0 0 0 0 267951024.3329863 -62059265.55421986 -62059265.55421986 19755865.38261443 0 0 0 0 0 242565205.2696188 -51989751.74801136 -51989751.74801136 18565206.19300286 0 0 0 0 0 236367804.9588301 -52668913.4871207 -52668913.4871207 24938137.37014215 0 0 0 0 0 216119848.9130819 -41462303.54112613 -41462303.54112613 23903174.07453042 0 0 0 0 0 202993816.5713755 -32972609.71517655 -32972609.71517655 29016964.02416063 0 0 0 0 0 205928220.9039301 -33013194.69568323 -33013194.69568323 25664425.89090474 0 0 0 0 0 176474561.0437481 -14061440.59082046 -14061440.59082046 26696698.09680507 0 0 0 0 0 194304751.3800944 -26047222.12723402 -26047222.12723402 28981810.83301314 0 0 0 0 0 186648161.5026448 -20329092.9729507 -20329092.9729507 28821216.09319985 0 0 0 0 0 171234673.2198103 -10188606.68854823 -10188606.68854823 26560638.5817102 0 0 0 0 0 166486600.6874273 -6974810.107480548 -6974810.107480548 26313646.90228124 0 0 0 0 0 162174931.8570171 -4304173.38462678 -4304173.38462678 25981962.9402139 0 0 0 0 0 158251793.8390907 -2083173.858604852 -2083173.858604852 25582754.16339228 0 0 0 0 0 154672063.9418696 -236381.2613146919 -236381.2613146919 25133728.53832153 0 0 0 0 0 151399003.247694 1298534.249385759 1298534.249385759 24647426.04217893 0 0 0 0 0 148402110.4852491 2572836.238177268 2572836.238177268 24133690.50926802 0 0 0 0 0 145650046.3413838 3628581.012332921 3628581.012332921 23600362.91969708 0 0 0 0 0 144158596.7888855 2888802.900469032 2888802.900469032 22354856.09858783 0 0 0 0 0 141700675.0409805 4737309.359584425 4737309.359584425 21124114.20718796 0 0 0 0 0 139554394.3870074 5425250.868202523 5425250.868202523 20621569.62648408 0 0 0 0 0 137562198.0583654 5987832.134835423 5987832.134835423 20122356.18740768 0 0 0 0 0 135709766.780333 6444558.858786046 6444558.858786046 19628794.08672568 0 0 0 0 0 133202066.2315654 6887768.861972216 6887768.861972216 17415975.2315368 0 0 0 0 0 134563325.1797349 5778996.260751317 5778996.260751317 18296157.30388581 0 0 0 0 0 131691908.9276473 7166016.704430336 7166016.704430336 17005242.63277607 0 0 0 0 0 130277877.2258268 7382403.759293431 7382403.759293431 16601817.82930116 0 0 0 0 0 128953671.7492514 7545300.982095427 7545300.982095427 16201459.90338546 0 0 0 0 0 127710916.1724067 7662974.710393373 7662974.710393373 15807664.07620453 0 0 0 0 0 126542539.7454034 7742167.491211574 7742167.491211574 15421135.63024062 0 0 0 0 0 125440068.5760983 7789040.492032818 7789040.492032818 15049832.27917723 0 0 0 0 0 124629987.7045254 7266764.470378974 7266764.470378974 13906438.35886126 0 0 0 0 0 124100831.0604013 7783283.721374224 7783283.721374224 13370765.76680285 0 0 0 0 0 123160832.6835444 7778524.115690687 7778524.115690687 13070318.73374862 0 0 0 0 0 122272988.2405261 7754454.347433563 7754454.347433563 12778141.15756784 0 0 0 0 0 121425186.6792012 7713544.512746297 7713544.512746297 12501173.87424015 0 0 0 0 0 120624617.0086146 7660325.739779803 7660325.739779803 12228826.42745772 0 0 0 0 0 119867547.8676592 7594865.920796788 7594865.920796788 11963427.1996455 0 0 0 0 0 119252631.7518566 7180357.44723874 7180357.44723874 11025190.29891474 0 0 0 0 0 119015869.3343884 7460197.666955572 7460197.666955572 10673454.06144416 0 0 0 0 0 118354324.1826443 7379444.378298084 7379444.378298084 10454590.51482984 0 0 0 0 0 117678971.82412 6913436.429039992 6913436.429039992 8623013.632345213 0 0 0 0 0 117086744.545754 6844389.480011154 6844389.480011154 8480324.83485109 0 0 0 0 0 116420724.4347337 6666149.364886254 6666149.364886254 7476894.302242627 0 0 0 0 0 116922158.4351883 7012881.979934029 7012881.979934029 8275899.972456079 0 0 0 0 0 115892570.9279478 6590234.620224721 6590234.620224721 7367920.596333735 0 0 0 0 0 115388995.3437413 6510265.509254282 6510265.509254282 7258828.760531449 0 0 0 0 0 114908046.5818063 6427167.223911653 6427167.223911653 7150376.889256027 0 0 0 0 0 114448029.6556368 6341326.84250105 6341326.84250105 7043063.018269811 0 0 0 0 0 113954105.2545248 6152361.587230075 6152361.587230075 6233453.839382195 0 0 0 0 0 114366640.3589672 6439180.69030906 6439180.69030906 6896475.02413828 0 0 0 0 0 113540120.36024 6067303.077984448 6067303.077984448 6152729.334309782 0 0 0 0 0 113143381.9044982 5981035.977462108 5981035.977462108 6072463.745022991 0 0 0 0 0 112762983.348622 5893867.205581539 5893867.205581539 5992725.004705104 0 0 0 0 0 112398075.509492 5806134.910951867 5806134.910951867 5913482.684033711 0 0 0 0 0 112047854.4216917 5718110.028682077 5718110.028682077 5834826.553415823 0 0 0 0 0 112016031.7180374 5770221.002657897 5770221.002657897 5734675.186933658 0 0 0 0 0 111366747.8258019 5455943.627276764 5455943.627276764 5141494.915437413 0 0 0 0 0 111685885.5568835 5678839.942358249 5678839.942358249 5658324.545483781 0 0 0 0 0 111060181.8749709 5372559.975529566 5372559.975529566 5082761.365812897 0 0 0 0 0 110765664.9210581 5290157.087176986 5290157.087176986 5025004.257280733 0 0 0 0 0 110491232.2745444 5210520.596865087 5210520.596865087 4969973.72463812 0 0 0 0 0 110247373.9017157 5141076.506842606 5141076.506842606 4910563.234828205 0 0 0 0 0 109925310.6612615 4965566.153365723 4965566.153365723 4431132.094679095 0 0 0 0 0 110187580.4521648 5145832.376398862 5145832.376398862 4854372.851037866 0 0 0 0 0 109687659.5255031 4881585.567906322 4881585.567906322 4379790.874866796 0 0 0 0 0 117795156.9861252 6997656.846830835 6997656.846830835 9583107.424363682 0 0 0 0 0 251169241.1584955 -53365527.68538551 -53365527.68538551 11898784.95831818 0 0 0 0 0 251345383.4582149 -53021296.84698507 -53021296.84698507 21425465.16476095 0 0 0 0 0 227971465.4034283 -42143566.51541715 -42143566.51541715 21932046.75840014 0 0 0 0 0 224056522.8228693 -42597030.22750504 -42597030.22750504 26585092.6944945 0 0 0 0 0 197148252.6458218 -25822451.86727259 -25822451.86727259 26763713.54341975 0 0 0 0 0 212571596.7419309 -34411200.82139065 -34411200.82139065 28202038.58565798 0 0 0 0 0 179870605.3540952 -15595057.07867282 -15595057.07867282 28550613.15968171 0 0 0 0 0 189384197.7554629 -19912462.02990377 -19912462.02990377 27461537.36715054 0 0 0 0 0 182484638.6411268 -15043131.21890036 -15043131.21890036 27847070.18514779 0 0 0 0 0 173846096.8958385 -11664450.36939354 -11664450.36939354 28187012.60488822 0 0 0 0 0 168469822.8150416 -8393429.611759305 -8393429.611759305 27750546.21850248 0 0 0 0 0 163651811.2979425 -5665737.903473624 -5665737.903473624 27257233.69710736 0 0 0 0 0 159319436.5903668 -3388110.349264919 -3388110.349264919 26722496.31308943 0 0 0 0 0 155407406.281465 -1485484.464813854 -1485484.464813854 26156714.15235816 0 0 0 0 0 151866307.4281647 103922.8497232004 103922.8497232004 25569748.64044912 0 0 0 0 0 148651394.1766293 1431023.013108721 1431023.013108721 24969348.13013007 0 0 0 0 0 145724775.9554727 2537672.679380379 2537672.679380379 24361963.65737997 0 0 0 0 0 143118516.0036423 4501003.886977703 4501003.886977703 23055612.3433037 0 0 0 0 0 141697471.0132375 3773077.97784171 3773077.97784171 21779408.48800352 0 0 0 0 0 139432975.3335952 4506700.791252407 4506700.791252407 21216111.39795145 0 0 0 0 0 137345447.1624907 5112568.740747967 5112568.740747967 20665000.96671855 0 0 0 0 0 135417751.6421504 5610279.191057264 5610279.191057264 20126035.28842365 0 0 0 0 0 132890102.6709858 6164767.533551392 6164767.533551392 17828652.71017313 0 0 0 0 0 133986224.8263944 6811481.396776564 6811481.396776564 19143614.2792587 0 0 0 0 0 131330703.5286555 6475052.807291248 6475052.807291248 17377910.5972542 0 0 0 0 0 129875704.859352 6722378.208285643 6722378.208285643 16945450.25623326 0 0 0 0 0 128515509.2373504 6914467.820250275 6914467.820250275 16524470.12920816 0 0 0 0 0 127247469.8832933 7059472.436377814 7059472.436377814 16110471.29413254 0 0 0 0 0 126062006.0981953 7165565.590925413 7165565.590925413 15706906.16504258 0 0 0 0 0 124953410.8418678 7237316.24156546 7237316.24156546 15309334.67897096 0 0 0 0 0 124403401.000719 7809309.651003846 7809309.651003846 14690001.89169289 0 0 0 0 0 123626494.4474962 7305321.041749019 7305321.041749019 13581602.40036464 0 0 0 0 0 122681636.0193679 7320029.850686633 7320029.850686633 13266725.09594461 0 0 0 0 0 121791207.1952248 7314434.809110689 7314434.809110689 12960499.52834076 0 0 0 0 0 120953007.7061409 7292173.857600509 7292173.857600509 12664006.60425219 0 0 0 0 0 120154723.7719653 7254404.801694553 7254404.801694553 12382729.20751287 0 0 0 0 0 119400280.4790697 7205026.335997185 7205026.335997185 12107594.72593585 0 0 0 0 0 119153641.99308 7520517.525363737 7520517.525363737 11700214.42683047 0 0 0 0 0 118561988.1120879 7120985.587708597 7120985.587708597 10794769.32696622 0 0 0 0 0 117907067.9882758 7052862.257661877 7052862.257661877 10569431.08357591 0 0 0 0 0 117614783.9132047 7208039.612742014 7208039.612742014 9315606.322541961 0 0 0 0 0 117026615.9434308 7119597.788926662 7119597.788926662 9147554.800515661 0 0 0 0 0 116376985.25103 6925370.314802433 6925370.314802433 8140557.378468101 0 0 0 0 0 116518506.6780981 6768845.720434593 6768845.720434593 8341060.257782483 0 0 0 0 0 115855600.4897252 6833453.532566751 6833453.532566751 8004054.793762966 0 0 0 0 0 115357545.0869408 6738863.557480372 6738863.557480372 7869605.884425399 0 0 0 0 0 114881128.2428519 6642076.202661745 6642076.202661745 7737628.695623655 0 0 0 0 0 114425360.8950987 6543677.69153002 6543677.69153002 7607852.872953647 0 0 0 0 0 113938217.0333761 6344333.941947907 6344333.941947907 6793462.792093152 0 0 0 0 0 114007827.1800912 6253378.431083839 6253378.431083839 6936872.064150117 0 0 0 0 0 113527427.2066522 6248559.168424086 6248559.168424086 6691687.351869993 0 0 0 0 0 113133499.5510378 6152263.320021879 6152263.320021879 6591246.800282404 0 0 0 0 0 112755597.8744264 6055741.103507344 6055741.103507344 6492108.590446979 0 0 0 0 0 112392872.0113693 5959268.055384598 5959268.055384598 6394268.528621977 0 0 0 0 0 112044564.0141004 5863076.993576458 5863076.993576458 6297814.936404604 0 0 0 0 0 111711569.4720917 5630054.516096889 5630054.516096889 5756878.720706069 0 0 0 0 0 111368423.5881424 5587969.745635557 5587969.745635557 5582397.410951368 0 0 0 0 0 111388218.2348988 5542155.59317077 5542155.59317077 5679737.48896441 0 0 0 0 0 111063010.2228046 5497885.702760589 5497885.702760589 5506642.269962713 0 0 0 0 0 110770200.9106294 5407896.287137921 5407896.287137921 5431536.305366665 0 0 0 0 0 110494143.2238622 5319654.97111365 5319654.97111365 5341226.730615114 0 0 0 0 0 110246862.1329878 5228357.606179575 5228357.606179575 5240741.424660586 0 0 0 0 0 109957611.8422502 5075676.981495364 5075676.981495364 4718370.453762825 0 0 0 0 0 110033212.5023022 5082829.201389533 5082829.201389533 4825392.919612502 0 0 0 0 0 117725799.945366 7292725.424505942 7292725.424505942 10242263.51951493 0 0 0 0 0 273519965.839381 -52672044.2101661 -52672044.2101661 17478340.86407731 0 0 0 0 0 243110475.2651577 -42156055.37529601 -42156055.37529601 19060304.19546042 0 0 0 0 0 235459533.7350442 -43405578.37779272 -43405578.37779272 24572936.87350684 0 0 0 0 0 217315898.1451596 -34056061.67312026 -34056061.67312026 24407579.06539687 0 0 0 0 0 202339836.137499 -27282263.37994252 -27282263.37994252 28996255.17611383 0 0 0 0 0 206478466.8229116 -26796362.13913651 -26796362.13913651 26379128.15408731 0 0 0 0 0 176329224.2729169 -11019114.35257851 -11019114.35257851 27987702.85959316 0 0 0 0 0 193405785.9890034 -21392479.78078082 -21392479.78078082 29428325.88610509 0 0 0 0 0 185574062.9184992 -16520533.38499185 -16520533.38499185 29589196.84426535 0 0 0 0 0 170820887.708276 -7685225.077354917 -7685225.077354917 27937698.62216596 0 0 0 0 0 165873455.252673 -4917020.704135506 -4917020.704135506 27741352.45797768 0 0 0 0 0 161416601.9838233 -2616147.937146802 -2616147.937146802 27431232.54866586 0 0 0 0 0 157386444.2845113 -703510.871612535 -703510.871612535 27034308.76528335 0 0 0 0 0 153732047.5547255 886174.2069966634 886174.2069966634 26572531.34153045 0 0 0 0 0 150410314.7682036 2206409.775843257 2206409.775843257 26062102.54011033 0 0 0 0 0 147383841.8626871 3300933.52746984 3300933.52746984 25516843.11770499 0 0 0 0 0 144617641.6001872 4206083.409561557 4206083.409561557 24946062.27353901 0 0 0 0 0 143054331.4997884 3459314.630574286 3459314.630574286 23751074.72324507 0 0 0 0 0 140784714.5178991 5219430.151110447 5219430.151110447 22508517.66784581 0 0 0 0 0 138631798.4174485 5807590.969153582 5807590.969153582 21959873.40975022 0 0 0 0 0 136640822.5582398 6285636.670579717 6285636.670579717 21413474.3232989 0 0 0 0 0 134797018.9540344 6670537.549590014 6670537.549590014 20872423.57655446 0 0 0 0 0 132378811.9514202 7102912.126941486 7102912.126941486 18672564.45719603 0 0 0 0 0 133633904.1789252 6015602.804839254 6015602.804839254 19598924.73642757 0 0 0 0 0 130877363.3875281 7329875.305060433 7329875.305060433 18211448.62144911 0 0 0 0 0 129473869.2832673 7501295.650907619 7501295.650907619 17756643.24639946 0 0 0 0 0 128163686.4992526 7625459.571035793 7625459.571035793 17307449.09844131 0 0 0 0 0 126938339.421577 7711170.445306627 7711170.445306627 16868283.40738593 0 0 0 0 0 125790067.3177654 7763338.126936785 7763338.126936785 16438172.56377439 0 0 0 0 0 124707625.5902853 7787703.10157532 7787703.10157532 16028221.5058515 0 0 0 0 0 123908218.6608567 7280221.226045175 7280221.226045175 14930621.88512885 0 0 0 0 0 123425436.0158139 7805472.766925259 7805472.766925259 14339404.53920349 0 0 0 0 0 122503801.4066492 7781896.950962613 7781896.950962613 13997261.95556423 0 0 0 0 0 121633907.7684202 7741913.323436745 7741913.323436745 13666601.12434956 0 0 0 0 0 120806071.1766593 7687921.88576739 7687921.88576739 13351866.69408685 0 0 0 0 0 120023245.8343385 7621197.185787089 7621197.185787089 13044774.5772272 0 0 0 0 0 119283911.569453 7545615.029725911 7545615.029725911 12747115.4691913 0 0 0 0 0 118685362.0570336 7144647.103521731 7144647.103521731 11842074.10368173 0 0 0 0 0 118473621.3042595 7437023.655046972 7437023.655046972 11442043.52362093 0 0 0 0 0 117828775.1287471 7347890.170982863 7347890.170982863 11191918.54161204 0 0 0 0 0 117188175.4776045 6924823.479404035 6924823.479404035 9401198.158647131 0 0 0 0 0 116610347.6404465 6846626.630437722 6846626.630437722 9227294.896437662 0 0 0 0 0 115977441.0699826 6688690.384870922 6688690.384870922 8202966.509405979 0 0 0 0 0 116467538.6082298 7027090.514201788 7027090.514201788 8983917.815231288 0 0 0 0 0 115462598.2787185 6604434.726654595 6604434.726654595 8064719.643394653 0 0 0 0 0 114971389.9439845 6517070.779352359 6517070.779352359 7927877.480564977 0 0 0 0 0 114502788.1847435 6427180.35043614 6427180.35043614 7792997.788739407 0 0 0 0 0 114054541.4305163 6335398.525840499 6335398.525840499 7660509.935866633 0 0 0 0 0 113586625.8769116 6163828.19788063 6163828.19788063 6832011.01700485 0 0 0 0 0 113989016.7366314 6443997.504459536 6443997.504459536 7480193.05122213 0 0 0 0 0 113183294.6286733 6073170.770893064 6073170.770893064 6728508.226904416 0 0 0 0 0 112797007.8995662 5981822.340660183 5981822.340660183 6626480.846191036 0 0 0 0 0 112426722.1617869 5890100.934515029 5890100.934515029 6525882.917348085 0 0 0 0 0 112071704.6340645 5798237.780083128 5798237.780083128 6426735.66904853 0 0 0 0 0 111731073.9083786 5706558.33591067 5706558.33591067 6329119.164104723 0 0 0 0 0 111709822.4513175 5767436.888950559 5767436.888950559 6203073.340498723 0 0 0 0 0 111077476.7078978 5454626.453151225 5454626.453151225 5603332.883390861 0 0 0 0 0 111388202.3197988 5672467.857069917 5672467.857069917 6109607.811825298 0 0 0 0 0 110778981.1622535 5367525.56634155 5367525.56634155 5527306.296201747 0 0 0 0 0 110489383.1811729 5280093.899976269 5280093.899976269 5451131.733629476 0 0 0 0 0 110227964.2385617 5201498.374526502 5201498.374526502 5390245.69664777 0 0 0 0 0 109987858.809593 5127129.042303642 5127129.042303642 5295358.732355045 0 0 0 0 0 109635618.3859058 4946150.323011888 4946150.323011888 4893283.90227103 0 0 0 0 0 109869153.7323441 5093164.977661582 5093164.977661582 5238721.119504528 0 0 0 0 0 117284960.9566349 6977988.203361392 6977988.203361392 10349809.68270374 0 0 0 0 0 257394943.1789082 -46313167.48563085 -46313167.48563085 9767806.784043359 0 0 0 0 0 244220689.8554673 -41437106.35341432 -41437106.35341432 18819956.1576886 0 0 0 0 0 228858417.5867523 -34273487.4824257 -34273487.4824257 22332767.43823279 0 0 0 0 0 222734032.2689317 -34986358.12263998 -34986358.12263998 26334872.13055555 0 0 0 0 0 197192022.29308 -20766735.16885603 -20766735.16885603 27736295.85816783 0 0 0 0 0 210921031.2332358 -27957262.66703139 -27957262.66703139 28229466.36816448 0 0 0 0 0 178679946.2292303 -12478501.03344935 -12478501.03344935 29540358.98462944 0 0 0 0 0 189046313.0540528 -15799165.86399981 -15799165.86399981 28608378.57565771 0 0 0 0 0 181866655.49184 -11697083.80148312 -11697083.80148312 29103352.89774937 0 0 0 0 0 172581898.358829 -9115351.868244143 -9115351.868244143 29328950.07997701 0 0 0 0 0 167164263.250958 -6310710.730309199 -6310710.730309199 28992607.29521504 0 0 0 0 0 162326205.911605 -3968265.19271253 -3968265.19271253 28563326.5389369 0 0 0 0 0 157986782.0456909 -2010171.467330209 -2010171.467330209 28063596.1769929 0 0 0 0 0 154083548.8760422 -372597.3656443696 -372597.3656443696 27509894.7491702 0 0 0 0 0 150562030.6883112 996505.9245751754 996505.9245751754 26919394.2255345 0 0 0 0 0 147374766.6086378 2139632.945068147 2139632.945068147 26303286.9094623 0 0 0 0 0 144479859.2457462 3092900.595390423 3092900.595390423 25672083.52065925 0 0 0 0 0 142082888.3835808 4952271.072511277 4952271.072511277 24362110.21069151 0 0 0 0 0 140611276.3258421 4224635.957645538 4224635.957645538 23142179.92643402 0 0 0 0 0 138369469.5464417 4857866.844765957 4857866.844765957 22541707.60218858 0 0 0 0 0 136308336.386783 5379041.746654822 5379041.746654822 21949559.26676336 0 0 0 0 0 134409360.3011358 5805155.054114809 5805155.054114809 21367658.25101878 0 0 0 0 0 131983482.4078193 6342243.774817234 6342243.774817234 19085019.05527123 0 0 0 0 0 133087213.2531362 6976350.904824382 6976350.904824382 20343189.11490807 0 0 0 0 0 130444451.8298118 6602695.897029462 6602695.897029462 18591543.94551681 0 0 0 0 0 129012127.3264809 6807201.933844344 6807201.933844344 18112699.10897082 0 0 0 0 0 127681161.1178546 6963295.348844375 6963295.348844375 17641500.34696182 0 0 0 0 0 126438190.8192074 7077825.728678699 7077825.728678699 17183260.90213579 0 0 0 0 0 125277063.7813218 7156559.774349845 7156559.774349845 16735364.36210039 0 0 0 0 0 124192426.5014972 7205910.094536526 7205910.094536526 16298561.97611491 0 0 0 0 0 123690928.3789408 7786453.95025423 7786453.95025423 15625274.24839712 0 0 0 0 0 122928699.4648028 7298703.73529147 7298703.73529147 14563506.51976399 0 0 0 0 0 122006679.5785116 7296606.985552564 7296606.985552564 14208032.46499402 0 0 0 0 0 121139012.9672358 7276594.555289028 7276594.555289028 13862878.08849709 0 0 0 0 0 120322744.712913 7241361.556557134 7241361.556557134 13527684.63566914 0 0 0 0 0 119545374.3272435 7193153.004010546 7193153.004010546 13210750.46479765 0 0 0 0 0 118811761.1795497 7133720.18529937 7133720.18529937 12903032.68134195 0 0 0 0 0 118587308.521669 7461027.849250531 7461027.849250531 12446558.75420685 0 0 0 0 0 118014362.7546611 7076018.407767433 7076018.407767433 11577459.92826557 0 0 0 0 0 117376831.2545335 7000328.393265168 7000328.393265168 11319748.16221862 0 0 0 0 0 117126500.24249 7200997.534931402 7200997.534931402 10040009.84458242 0 0 0 0 0 116553133.8136921 7104521.04953365 7104521.04953365 9842664.613427753 0 0 0 0 0 115934833.8415569 6931002.630884913 6931002.630884913 8816934.667209772 0 0 0 0 0 116056932.2157892 6762903.829768743 6762903.829768743 9056830.336187033 0 0 0 0 0 115426247.7182372 6832051.217112944 6832051.217112944 8653975.86013275 0 0 0 0 0 114940528.5861921 6730821.869336147 6730821.869336147 8493937.462387837 0 0 0 0 0 114476603.0047255 6628539.689702667 6628539.689702667 8337915.269537036 0 0 0 0 0 114032618.4863914 6524837.269964152 6524837.269964152 8184586.81783889 0 0 0 0 0 113571205.0400406 6343608.311027448 6343608.311027448 7354781.109348715 0 0 0 0 0 113626369.8944923 6242154.069265923 6242154.069265923 7530477.357664629 0 0 0 0 0 113170922.894912 6242861.320687633 6242861.320687633 7231571.675408026 0 0 0 0 0 112787333.41905 6142181.642521082 6142181.642521082 7110731.907021266 0 0 0 0 0 112419468.6562811 6041688.812228502 6041688.812228502 6992076.756948899 0 0 0 0 0 112066480.2528534 5941671.356737941 5941671.356737941 6875620.197900318 0 0 0 0 0 111727703.0644641 5842403.17396238 5842403.17396238 6761346.469509763 0 0 0 0 0 111404011.8474984 5615180.237200807 5615180.237200807 6232885.080597312 0 0 0 0 0 111079212.7529359 5578235.435308604 5578235.435308604 6017394.582747826 0 0 0 0 0 111089626.5827231 5524271.088005599 5524271.088005599 6138363.313596538 0 0 0 0 0 110782052.129853 5484691.389293063 5484691.389293063 5925792.790612324 0 0 0 0 0 110493949.6969305 5391242.109688756 5391242.109688756 5836306.02285378 0 0 0 0 0 110237441.3986602 5306728.522690183 5306728.522690183 5649233.209227191 0 0 0 0 0 110004486.8961748 5200631.996475025 5200631.996475025 5375758.592946975 0 0 0 0 0 109843334.1347689 5106219.677634668 5106219.677634668 5121206.738071776 0 0 0 0 0 117216535.5041046 7253545.952194476 7253545.952194476 10949257.39831089 0 0 0 0 0 283538431.0221909 -44437016.82210916 -44437016.82210916 15256036.52283302 0 0 0 0 0 262872223.0369688 -39424619.06145396 -39424619.06145396 19243760.3926701 0 0 0 0 0 241104548.2560647 -32983540.50328827 -32983540.50328827 19886491.99417558 0 0 0 0 0 232982453.2923938 -34415930.53299873 -34415930.53299873 23440006.69102363 0 0 0 0 0 216625047.994979 -27096448.70406572 -27096448.70406572 25356822.70790596 0 0 0 0 0 200609644.6648051 -22054477.79718165 -22054477.79718165 29427304.37920129 0 0 0 0 0 205662009.6005103 -21130116.87517984 -21130116.87517984 27511066.35831288 0 0 0 0 0 175510110.1841201 -8298586.898397725 -8298586.898397725 29309476.42774583 0 0 0 0 0 191639651.5629428 -17161946.21267354 -17161946.21267354 30152934.60174395 0 0 0 0 0 183808190.1854245 -13096700.98937221 -13096700.98937221 30517258.56906594 0 0 0 0 0 169858575.0893252 -5476151.446155635 -5476151.446155635 29294755.75067362 0 0 0 0 0 164811424.0402961 -3128496.756828923 -3128496.756828923 29111050.73639913 0 0 0 0 0 160289146.928135 -1173968.054652805 -1173968.054652805 28798031.79726593 0 0 0 0 0 156219981.1150341 452624.9935536764 452624.9935536764 28384292.13320113 0 0 0 0 0 152546605.9697813 1805622.706040965 1805622.706040965 27896977.13162906 0 0 0 0 0 149220077.6208695 2928598.647541018 2928598.647541018 27354644.96418189 0 0 0 0 0 146199299.8507646 3859042.462976227 3859042.462976227 26772662.69069815 0 0 0 0 0 143448290.2208064 4628067.695407655 4628067.695407655 26164669.7521142 0 0 0 0 0 141844645.9225772 3885694.889423301 3885694.889423301 25030990.15641675 0 0 0 0 0 139755957.7673251 5564303.321375229 5564303.321375229 23771981.52460639 0 0 0 0 0 137615584.9469447 6062926.801206155 6062926.801206155 23178586.04789342 0 0 0 0 0 135642725.0375496 6465889.56369014 6465889.56369014 22587256.5756204 0 0 0 0 0 133821494.6557718 6787255.480721517 6787255.480721517 22002591.19115245 0 0 0 0 0 131493560.6632354 7215584.017545175 7215584.017545175 19826748.46589923 0 0 0 0 0 132658408.0542268 6149558.487940392 6149558.487940392 20795793.16883089 0 0 0 0 0 130010598.7918046 7398064.748200034 7398064.748200034 19316916.0548059 0 0 0 0 0 128630840.4002891 7531845.756275887 7531845.756275887 18812214.46028119 0 0 0 0 0 127342351.2439819 7625511.085673887 7625511.085673887 18322700.95998609 0 0 0 0 0 126140175.3423477 7684406.778482525 7684406.778482525 17842423.21071617 0 0 0 0 0 125014570.3415129 7714529.674381934 7714529.674381934 17375849.7119391 0 0 0 0 0 123958407.3412965 7718984.195439641 7718984.195439641 16921493.96228248 0 0 0 0 0 123176787.7472418 7230670.522872327 7230670.522872327 15878686.48254434 0 0 0 0 0 122734608.4688413 7765668.535742384 7765668.535742384 15234464.70917611 0 0 0 0 0 121833236.649886 7727213.672775871 7727213.672775871 14854293.84212957 0 0 0 0 0 120985039.3141041 7675010.922446985 7675010.922446985 14488031.58617993 0 0 0 0 0 120175899.2261065 7609425.528124794 7609425.528124794 14140928.40892821 0 0 0 0 0 119415156.1721017 7534262.546567144 7534262.546567144 13800613.70135032 0 0 0 0 0 118696597.4722467 7449946.458671613 7449946.458671613 13464900.20998872 0 0 0 0 0 118120582.6118548 7066310.882864065 7066310.882864065 12604099.26531745 0 0 0 0 0 117926005.7072 7371045.104520472 7371045.104520472 12159220.25519957 0 0 0 0 0 117299024.0454888 7275645.856263683 7275645.856263683 11879894.67455074 0 0 0 0 0 116694556.022428 6897338.790942816 6897338.790942816 10136125.84379531 0 0 0 0 0 116131940.3520245 6811605.194717752 6811605.194717752 9932531.905106932 0 0 0 0 0 115530003.4117609 6675396.428702312 6675396.428702312 8892712.124470972 0 0 0 0 0 116007444.482839 7004886.216086917 7004886.216086917 9648669.651998494 0 0 0 0 0 115028850.8601372 6584962.011640422 6584962.011640422 8726394.244139042 0 0 0 0 0 114551621.5537665 6491898.803915911 6491898.803915911 8562568.147268519 0 0 0 0 0 114095090.7772973 6397041.510222116 6397041.510222116 8403443.520741949 0 0 0 0 0 113659974.7226332 6300828.285173204 6300828.285173204 8247305.646120644 0 0 0 0 0 113216797.8923527 6147944.346391771 6147944.346391771 7402770.368559586 0 0 0 0 0 113608033.606487 6420668.743025608 6420668.743025608 8034504.185559248 0 0 0 0 0 112824886.0122512 6053144.170308863 6053144.170308863 7277531.152734589 0 0 0 0 0 112449329.4177665 5958078.268983326 5958078.268983326 7154842.062234251 0 0 0 0 0 112089609.7686893 5863008.426012944 5863008.426012944 7034461.35332292 0 0 0 0 0 111744850.3541011 5768251.952678399 5768251.952678399 6916416.882769551 0 0 0 0 0 111414242.4535633 5673949.991021256 5673949.991021256 6800537.025745912 0 0 0 0 0 111402203.3772458 5743959.133974855 5743959.133974855 6649540.130464956 0 0 0 0 0 110786932.8322874 5433798.443706539 5433798.443706539 6045359.994685492 0 0 0 0 0 111089327.8313066 5646429.726895742 5646429.726895742 6540530.920328364 0 0 0 0 0 110495245.3906646 5343142.261560708 5343142.261560708 5953230.148979518 0 0 0 0 0 110206756.0736888 5252174.483107685 5252174.483107685 5861988.84666733 0 0 0 0 0 109945099.1563553 5165652.207210298 5165652.207210298 5806245.418520263 0 0 0 0 0 109766715.3694135 5097471.041660586 5097471.041660586 5637493.895615027 0 0 0 0 0 109574363.5526575 5001972.026234951 5001972.026234951 5403443.464898924 0 0 0 0 0 116772117.4851508 6918655.864769016 6918655.864769016 11069372.80183024 0 0 0 0 0 262417397.2056347 -37341235.63635918 -37341235.63635918 6179519.737398881 0 0 0 0 0 246247925.2431397 -34018146.05898768 -34018146.05898768 12873979.24440073 0 0 0 0 0 247284206.1445249 -33838302.28772924 -33838302.28772924 21936401.21842815 0 0 0 0 0 227277068.7946691 -26320723.73970982 -26320723.73970982 24203442.25926173 0 0 0 0 0 219864561.2305414 -27786386.65656215 -27786386.65656215 26599891.27904097 0 0 0 0 0 196135091.4639252 -16206487.93680474 -16206487.93680474 28964024.64063828 0 0 0 0 0 208147944.9166114 -22143289.29613655 -22143289.29613655 28792880.19956912 0 0 0 0 0 176933278.6537071 -9707282.522186613 -9707282.522186613 30605695.59229679 0 0 0 0 0 187822022.6803046 -12133117.88051474 -12133117.88051474 29884357.1385413 0 0 0 0 0 180538735.5971929 -8748317.821106734 -8748317.821106734 30403020.76775277 0 0 0 0 0 170870238.9023781 -6875401.924460822 -6875401.924460822 30484001.99977795 0 0 0 0 0 165494753.4160719 -4505842.319099385 -4505842.319099385 30205015.51975374 0 0 0 0 0 160705862.2469139 -2520651.283773835 -2520651.283773835 29806224.95676817 0 0 0 0 0 156417585.9748576 -855957.8904547174 -855957.8904547174 29317543.08089625 0 0 0 0 0 152568115.6982454 538197.3577068716 538197.3577068716 28761454.11151862 0 0 0 0 0 149102885.1176827 1705463.37964542 1705463.37964542 28156653.50048035 0 0 0 0 0 145971823.3723306 2681856.78968812 2681856.78968812 27519051.20484466 0 0 0 0 0 143134670.099254 3496376.190697638 3496376.190697638 26858853.34273688 0 0 0 0 0 140936335.8708995 5260895.049301828 5260895.049301828 25540880.98519494 0 0 0 0 0 139439138.7829526 4543513.433266798 4543513.433266798 24388725.05973387 0 0 0 0 0 137236848.9642684 5086934.14000895 5086934.14000895 23750510.9034207 0 0 0 0 0 135216217.2110981 5532927.669890541 5532927.669890541 23118547.17124796 0 0 0 0 0 133357397.7663742 5895754.146734499 5895754.146734499 22496209.72486587 0 0 0 0 0 131036049.2661713 6425733.934643587 6425733.934643587 20242182.32691699 0 0 0 0 0 132134500.405201 7040118.050627673 7040118.050627673 21428637.65054579 0 0 0 0 0 129531403.6158288 6643881.092438208 6643881.092438208 19703506.72904948 0 0 0 0 0 128129271.1775042 6811611.126628511 6811611.126628511 19181183.0700321 0 0 0 0 0 126827368.3311065 6936090.895798139 6936090.895798139 18667329.32103596 0 0 0 0 0 125614625.3709964 7024815.320344072 7024815.320344072 18167403.02613538 0 0 0 0 0 124484692.8170137 7081748.009910179 7081748.009910179 17678075.30616614 0 0 0 0 0 123427083.894824 7113910.557750184 7113910.557750184 17209073.43250824 0 0 0 0 0 122964745.4045564 7702479.363513717 7702479.363513717 16483407.147893 0 0 0 0 0 122222016.4677187 7233714.386937018 7233714.386937018 15474097.50060316 0 0 0 0 0 121326274.3717725 7218114.423092533 7218114.423092533 15079360.1689954 0 0 0 0 0 120481559.0298711 7186525.707386877 7186525.707386877 14697950.7847039 0 0 0 0 0 119689163.3296954 7142285.422003748 7142285.422003748 14328948.99309853 0 0 0 0 0 118936810.8069918 7085776.077706261 7085776.077706261 13977734.9726031 0 0 0 0 0 118226780.2850331 7021411.003382132 7021411.003382132 13640340.00323368 0 0 0 0 0 118018203.037952 7359850.640756802 7359850.640756802 13137546.27502714 0 0 0 0 0 117467314.0932386 6991028.908818942 6991028.908818942 12306876.383729 0 0 0 0 0 116847539.4666003 6909602.260825311 6909602.260825311 12020307.64672282 0 0 0 0 0 116632782.4783416 7154848.072091294 7154848.072091294 10718302.32024059 0 0 0 0 0 116073161.7880031 7052145.946152011 7052145.946152011 10494222.51097582 0 0 0 0 0 115487777.2732898 6902076.323043188 6902076.323043188 9456210.959189991 0 0 0 0 0 115593098.7943356 6721820.141315227 6721820.141315227 9736680.579498947 0 0 0 0 0 114992903.2073695 6797466.973647162 6797466.973647162 9266911.789343769 0 0 0 0 0 114520382.7073997 6692038.488114927 6692038.488114927 9084753.334331781 0 0 0 0 0 114068919.951701 6585079.300289935 6585079.300289935 8904683.306166807 0 0 0 0 0 113637644.0936867 6477925.34179284 6477925.34179284 8729362.602299783 0 0 0 0 0 113201550.0914342 6316202.25043061 6316202.25043061 7887490.887510517 0 0 0 0 0 113244264.4745106 6203903.38023119 6203903.38023119 8094735.610942999 0 0 0 0 0 112812318.655219 6212004.045578701 6212004.045578701 7744267.623497946 0 0 0 0 0 112439378.650386 6108103.689249662 6108103.689249662 7603970.004038393 0 0 0 0 0 112081936.0242418 6004879.862159605 6004879.862159605 7466730.3794264 0 0 0 0 0 111739247.9806643 5902490.4077575 5902490.4077575 7332559.699652569 0 0 0 0 0 111410163.6516407 5801114.36934392 5801114.36934392 7201541.089639953 0 0 0 0 0 111096838.9357652 5580480.468308903 5580480.468308903 6687190.522366415 0 0 0 0 0 110788533.095223 5549620.540130191 5549620.540130191 6434420.592457632 0 0 0 0 0 110791776.549128 5487939.465077742 5487939.465077742 6576296.813810397 0 0 0 0 0 110497652.5128779 5454882.965128748 5454882.965128748 6331353.528469129 0 0 0 0 0 110203210.9220459 5362965.273107117 5362965.273107117 6210518.52289809 0 0 0 0 0 109943914.5561606 5240792.653681017 5240792.653681017 5868807.052856498 0 0 0 0 0 109758087.5077477 5139174.229074997 5139174.229074997 5608535.952690165 0 0 0 0 0 116703863.7371026 7176239.030958015 7176239.030958015 11610150.3997175 0 0 0 0 0 290611022.2805941 -35100697.86447769 -35100697.86447769 12187102.49808318 0 0 0 0 0 267848529.6260953 -32754474.09902116 -32754474.09902116 18311708.12079233 0 0 0 0 0 238007363.9748663 -25294635.44512346 -25294635.44512346 21637576.00970841 0 0 0 0 0 229540321.3027835 -27253988.18866494 -27253988.18866494 25321158.09085625 0 0 0 0 0 214708581.9458835 -20777943.04221531 -20777943.04221531 26941149.57504531 0 0 0 0 0 197986722.2622049 -17397843.04903538 -17397843.04903538 30213957.15700945 0 0 0 0 0 203688923.4259443 -16121651.52160133 -16121651.52160133 28952963.40969919 0 0 0 0 0 174120493.7868459 -5929478.214168279 -5929478.214168279 30615789.82377269 0 0 0 0 0 189180744.1682048 -13429538.79884134 -13429538.79884134 31086707.11152609 0 0 0 0 0 181491851.2529217 -10101526.35033791 -10101526.35033791 31548875.33556478 0 0 0 0 0 168435355.3191088 -3578996.220103114 -3578996.220103114 30596314.06775647 0 0 0 0 0 163378398.729886 -1616596.964078901 -1616596.964078901 30396880.46162996 0 0 0 0 0 158861128.0735069 20358.98088021255 20358.98088021255 30057106.3440962 0 0 0 0 0 154806154.6021541 1387075.118002304 1387075.118002304 29615895.75315681 0 0 0 0 0 151160865.2866756 2524753.670696415 2524753.670696415 29093668.53966211 0 0 0 0 0 147867927.3022505 3470755.048641009 3470755.048641009 28514928.74093158 0 0 0 0 0 144885224.6102706 4254991.554635543 4254991.554635543 27895231.10924243 0 0 0 0 0 142175444.8732161 4902962.425709598 4902962.425709598 27248441.81200356 0 0 0 0 0 140555725.9335136 4174615.930077738 4174615.930077738 26186932.68460274 0 0 0 0 0 138636976.0255647 5778438.368983983 5778438.368983983 24908128.08557526 0 0 0 0 0 136526705.9482653 6198489.141844394 6198489.141844394 24272936.64703573 0 0 0 0 0 134586124.4920584 6535677.585116056 6535677.585116056 23640052.92468803 0 0 0 0 0 132799410.0230906 6803000.648937596 6803000.648937596 23013250.96385357 0 0 0 0 0 130566847.7250744 7234291.62637966 7234291.62637966 20865477.55968735 0 0 0 0 0 131645901.7636045 6188098.868528633 6188098.868528633 21884295.45669874 0 0 0 0 0 129108066.3071307 7378352.320186248 7378352.320186248 20312937.14611932 0 0 0 0 0 127755966.0418588 7481582.894537192 7481582.894537192 19771580.90165531 0 0 0 0 0 126498227.0180501 7550080.885028485 7550080.885028485 19242050.84634537 0 0 0 0 0 125323926.8408721 7587122.749659542 7587122.749659542 18723867.2530936 0 0 0 0 0 124222944.1357014 7598722.3466711 7598722.3466711 18222604.1236112 0 0 0 0 0 123195159.4825393 7588912.000811703 7588912.000811703 17734142.8050167 0 0 0 0 0 122439218.0507139 7123140.935087381 7123140.935087381 16750999.31230412 0 0 0 0 0 122032727.6863039 7667813.939119894 7667813.939119894 16053750.79331709 0 0 0 0 0 121155062.7026503 7618982.605282113 7618982.605282113 15641293.58541249 0 0 0 0 0 120329656.7685368 7557497.43588346 7557497.43588346 15241678.87020979 0 0 0 0 0 119546727.6095857 7485050.905939947 7485050.905939947 14861617.17032442 0 0 0 0 0 118805567.1623334 7402641.072830969 7402641.072830969 14487815.29686816 0 0 0 0 0 118109694.2379663 7314391.582213119 7314391.582213119 14123420.09470594 0 0 0 0 0 117556482.1921701 6947959.726995457 6947959.726995457 13306240.94167712 0 0 0 0 0 117375655.9817529 7264882.730789478 7264882.730789478 12823130.69253286 0 0 0 0 0 116767414.8636258 7166318.255566834 7166318.255566834 12518842.04968246 0 0 0 0 0 116197516.129382 6832048.480518535 6832048.480518535 10826905.90835601 0 0 0 0 0 115651491.115061 6741478.224210612 6741478.224210612 10595841.70292907 0 0 0 0 0 115080559.7495624 6628683.672234142 6628683.672234142 9542229.094511844 0 0 0 0 0 115542343.7761371 6947040.129254228 6947040.129254228 10273529.40120757 0 0 0 0 0 114594153.7798156 6533519.235092155 6533519.235092155 9350646.308838638 0 0 0 0 0 114130021.3722006 6436594.018163861 6436594.018163861 9162795.870358385 0 0 0 0 0 113688074.7449968 6338554.40553273 6338554.40553273 8980524.00984958 0 0 0 0 0 113266244.0719914 6239683.225603536 6239683.225603536 8801931.206371246 0 0 0 0 0 112846807.9977541 6106469.127720268 6106469.127720268 7945211.04189257 0 0 0 0 0 113225377.1843536 6370735.031816592 6370735.031816592 8557821.767753795 0 0 0 0 0 112466222.5949296 6008781.524759669 6008781.524759669 7799338.665399367 0 0 0 0 0 112101980.1806446 5911207.595170113 5911207.595170113 7656887.069282537 0 0 0 0 0 111753105.5212318 5814004.056225579 5814004.056225579 7517690.76651259 0 0 0 0 0 111418783.7972597 5717358.721504387 5717358.721504387 7381566.559456791 0 0 0 0 0 111098287.9361272 5621551.451826887 5621551.451826887 7248575.018683068 0 0 0 0 0 111094008.3492882 5701006.43597138 5701006.43597138 7073281.808098213 0 0 0 0 0 110498393.64523 5396661.588196121 5396661.588196121 6468377.383534441 0 0 0 0 0 110790220.8774708 5602378.266528662 5602378.266528662 6947773.75123721 0 0 0 0 0 110221701.3290477 5308496.046928577 5308496.046928577 6364411.817029299 0 0 0 0 0 109970055.5665617 5223757.241146223 5223757.241146223 6253450.205044316 0 0 0 0 0 109686363.5938018 5135692.517942023 5135692.517942023 6170948.707456835 0 0 0 0 0 109495098.0747388 5040460.720946684 5040460.720946684 5878331.367605128 0 0 0 0 0 116259255.6158591 6823365.070911416 6823365.070911416 11742379.00416126 0 0 0 0 0 268891770.964752 -28602014.92325268 -28602014.92325268 3980472.402422351 0 0 0 0 0 250048832.0300473 -27836825.91816338 -27836825.91816338 12431573.44639429 0 0 0 0 0 237090662.1809378 -24770506.84367451 -24770506.84367451 21086643.48686805 0 0 0 0 0 223777988.4130632 -20057045.17670626 -20057045.17670626 25555250.37811916 0 0 0 0 0 215959404.0294425 -21665277.64919029 -21665277.64919029 27841816.39988961 0 0 0 0 0 194149443.4974886 -12227781.18696799 -12227781.18696799 30330663.53656509 0 0 0 0 0 204516830.7878193 -17145153.37682328 -17145153.37682328 29844104.70154721 0 0 0 0 0 174745916.424223 -7307174.464242597 -7307174.464242597 31699752.72819129 0 0 0 0 0 185866353.7785822 -8961664.96038579 -8961664.96038579 31204626.92232483 0 0 0 0 0 178629094.5061052 -6221688.74680774 -6221688.74680774 31685593.16674742 0 0 0 0 0 168800014.432768 -4957887.734621217 -4957887.734621217 31615560.08501017 0 0 0 0 0 163543311.0630983 -2983249.461132136 -2983249.461132136 31355221.23804897 0 0 0 0 0 158855378.7945518 -1320449.301334042 -1320449.301334042 30963047.11612578 0 0 0 0 0 154665054.2479549 76768.77472378992 76768.77472378992 30465997.56608526 0 0 0 0 0 150906594.4816248 1251533.858381406 1251533.858381406 29896052.13527145 0 0 0 0 0 147527492.7058696 2238069.416382873 2238069.416382873 29270105.58104578 0 0 0 0 0 144478329.1754825 3065441.644644884 3065441.644644884 28605681.11479779 0 0 0 0 0 141717821.7151721 3757678.16170334 3757678.16170334 27916969.92720538 0 0 0 0 0 139706075.510436 5435791.654495192 5435791.654495192 26585569.63664829 0 0 0 0 0 138204198.9719227 4737338.241440844 4737338.241440844 25511570.57302044 0 0 0 0 0 136054721.1225308 5201468.970079405 5201468.970079405 24837132.84707438 0 0 0 0 0 134084675.0434027 5581766.22953556 5581766.22953556 24168473.12746008 0 0 0 0 0 132274116.0632607 5890466.264634138 5890466.264634138 23508309.1237259 0 0 0 0 0 130061124.685844 6420613.817736091 6420613.817736091 21289456.61056595 0 0 0 0 0 131142777.6691127 7010625.090437023 7010625.090437023 22399920.76252529 0 0 0 0 0 128593803.3234495 6601884.8990059 6601884.8990059 20710549.44995726 0 0 0 0 0 127229606.7669384 6737832.034846916 6737832.034846916 20143408.73158753 0 0 0 0 0 125960751.9469552 6837370.334251219 6837370.334251219 19595214.05751855 0 0 0 0 0 124783300.8533873 6905474.025320955 6905474.025320955 19058044.62147988 0 0 0 0 0 123686264.0146275 6947046.000202591 6947046.000202591 18536981.88121223 0 0 0 0 0 122661788.5737486 6964738.747000823 6964738.747000823 18030736.27485611 0 0 0 0 0 122230857.6961637 7560979.020253921 7560979.020253921 17260366.49096865 0 0 0 0 0 121512540.8699525 7114100.058469448 7114100.058469448 16309767.89608551 0 0 0 0 0 120643210.5455187 7088393.323600847 7088393.323600847 15878784.83044431 0 0 0 0 0 119825323.1965193 7049239.324032302 7049239.324032302 15464486.86088434 0 0 0 0 0 119057030.4495626 6998195.204058402 6998195.204058402 15064162.44640759 0 0 0 0 0 118330829.9145075 6938583.73282633 6938583.73282633 14683971.31478196 0 0 0 0 0 117644936.8524508 6869993.104947321 6869993.104947321 14312187.32500549 0 0 0 0 0 117451283.3409382 7220873.197561302 7220873.197561302 13772819.5425202 0 0 0 0 0 116921451.9623493 6867749.299281854 6867749.299281854 12981195.61966518 0 0 0 0 0 116318408.3716326 6782482.369506645 6782482.369506645 12669449.25204697 0 0 0 0 0 116136259.9653828 7072843.449977772 7072843.449977772 11352909.77873135 0 0 0 0 0 115593773.5717475 6966259.217744695 6966259.217744695 11102744.88088564 0 0 0 0 0 115038315.9046511 6840172.13118528 6840172.13118528 10056177.79446338 0 0 0 0 0 115129014.8391768 6647263.386955419 6647263.386955419 10371634.25323738 0 0 0 0 0 114557866.0354941 6732574.217210607 6732574.217210607 9846062.479510622 0 0 0 0 0 114099019.3787906 6623568.435615019 6623568.435615019 9638919.017572673 0 0 0 0 0 113661117.9015335 6514311.685699949 6514311.685699949 9437161.590226481 0 0 0 0 0 113242708.2391839 6405140.409034944 6405140.409034944 9241545.101484168 0 0 0 0 0 112830725.4296949 6263787.057624213 6263787.057624213 8391382.177064495 0 0 0 0 0 112863102.1374363 6140466.68835727 6140466.68835727 8628350.421046961 0 0 0 0 0 112453002.1917966 6157268.919386811 6157268.919386811 8228846.825234144 0 0 0 0 0 112091206.291185 6051495.213428725 6051495.213428725 8070410.638990129 0 0 0 0 0 111744555.4509829 5946638.96423078 5946638.96423078 7915870.704071511 0 0 0 0 0 111412216.8917798 5842950.083593497 5842950.083593497 7765101.743175488 0 0 0 0 0 111093415.4182054 5740537.241123952 5740537.241123952 7617956.137359747 0 0 0 0 0 110790893.9719438 5526769.81260762 5526769.81260762 7118681.267405432 0 0 0 0 0 110498319.0106192 5504891.414124429 5504891.414124429 6826759.912154509 0 0 0 0 0 110495515.7373877 5433297.050184401 5433297.050184401 6991800.086954658 0 0 0 0 0 110225645.1534857 5406899.858184226 5406899.858184226 6713734.184387556 0 0 0 0 0 109912235.2638817 5303073.364543614 5303073.364543614 6584380.854548652 0 0 0 0 0 109799305.2863601 5239904.440685387 5239904.440685387 6284002.651780387 0 0 0 0 0 109660495.5620132 5168928.460922214 5168928.460922214 6070075.168434649 0 0 0 0 0 116190316.4680958 7062962.568787685 7062962.568787685 12221320.70105003 0 0 0 0 0 296546694.920109 -25297446.791683 -25297446.791683 10709447.53148038 0 0 0 0 0 273737263.3771934 -25392002.83544233 -25392002.83544233 17305962.2924585 0 0 0 0 0 252892103.1711307 -22570503.37826161 -22570503.37826161 20741297.88959607 0 0 0 0 0 234308523.718605 -17751584.29206102 -17751584.29206102 24647615.97295942 0 0 0 0 0 223797122.8575853 -20230250.01457857 -20230250.01457857 25668444.91091486 0 0 0 0 0 211526254.3479312 -15534273.92841989 -15534273.92841989 28470306.54695585 0 0 0 0 0 194710546.2516726 -13393719.15059347 -13393719.15059347 31252418.16463527 0 0 0 0 0 200743677.9101678 -11915404.23707319 -11915404.23707319 30417430.76345541 0 0 0 0 0 172265021.605622 -3924819.289286872 -3924819.289286872 31861853.35179951 0 0 0 0 0 186201503.1436805 -10227763.42460227 -10227763.42460227 32140012.71917392 0 0 0 0 0 178758318.591417 -7549983.050970752 -7549983.050970752 32617844.49158489 0 0 0 0 0 166640893.8196755 -1997354.06521095 -1997354.06521095 31806154.14005217 0 0 0 0 0 161645515.1379441 -383931.7680104038 -383931.7680104038 31568040.19922533 0 0 0 0 0 157185874.3728554 970444.5681140752 970444.5681140752 31192386.98676365 0 0 0 0 0 153197624.2015302 2104285.233279903 2104285.233279903 30712155.16437163 0 0 0 0 0 149617880.0288141 3052221.917965345 3052221.917965345 30152118.38582739 0 0 0 0 0 146391539.3981311 3841644.488662118 3841644.488662118 29533768.59702057 0 0 0 0 0 143472241.500354 4497428.303273568 4497428.303273568 28876511.7024803 0 0 0 0 0 140824323.7953184 5040389.138895835 5040389.138895835 28192916.88679863 0 0 0 0 0 139210861.4940631 4335197.257392398 4335197.257392398 27214209.63673053 0 0 0 0 0 137450351.6321772 5870933.874317865 5870933.874317865 25914106.00483074 0 0 0 0 0 135384662.6550114 6223065.724838367 6223065.724838367 25240441.75257289 0 0 0 0 0 133488165.9781269 6504821.552708554 6504821.552708554 24569672.98222866 0 0 0 0 0 131742502.3744929 6726893.546953233 6726893.546953233 23906245.09768963 0 0 0 0 0 129610648.1455504 7167729.707336317 7167729.707336317 21797781.81227018 0 0 0 0 0 130607496.7351303 6138542.340157853 6138542.340157853 22859537.72384404 0 0 0 0 0 128189154.8507654 7281702.801697093 7281702.801697093 21207798.90372223 0 0 0 0 0 126868654.6997811 7359989.68553505 7359989.68553505 20633415.73221584 0 0 0 0 0 125643448.8380222 7406755.850156266 7406755.850156266 20065424.70698741 0 0 0 0 0 124498628.169533 7427552.721846058 7427552.721846058 19515838.88509743 0 0 0 0 0 123430711.0642367 7425648.738695242 7425648.738695242 18980803.09138348 0 0 0 0 0 122431598.9902903 7405405.104733591 7405405.104733591 18462408.541158 0 0 0 0 0 121703693.8575289 6963670.517133479 6963670.517133479 17542115.20616978 0 0 0 0 0 121326169.1066833 7517736.264164465 7517736.264164465 16799655.67492096 0 0 0 0 0 120474923.7122583 7461510.726341885 7461510.726341885 16355854.46471928 0 0 0 0 0 119674395.9011355 7394203.399318733 7394203.399318733 15927297.70148281 0 0 0 0 0 118915885.4966568 7317456.537925059 7317456.537925059 15515381.03032718 0 0 0 0 0 118201375.1786026 7233074.286756051 7233074.286756051 15112280.57641573 0 0 0 0 0 117528407.7286466 7142934.441289715 7142934.441289715 14722005.06203426 0 0 0 0 0 116998562.0530878 6794376.154971526 6794376.154971526 13948799.3428099 0 0 0 0 0 116827631.5393605 7123578.820465229 7123578.820465229 13437241.94002844 0 0 0 0 0 116238912.2079325 7021856.827524836 7021856.827524836 13104285.75101691 0 0 0 0 0 115703700.4237286 6733055.101299259 6733055.101299259 11471963.43821549 0 0 0 0 0 115174365.6131744 6639445.804525656 6639445.804525656 11214948.71901057 0 0 0 0 0 114632328.9815791 6551073.760741909 6551073.760741909 10152883.41879412 0 0 0 0 0 115078508.8057197 6857980.258110221 6857980.258110221 10858009.79625533 0 0 0 0 0 114160343.1543376 6452787.021869797 6452787.021869797 9937218.357317083 0 0 0 0 0 113711226.2014091 6353831.168270399 6353831.168270399 9728624.291013654 0 0 0 0 0 113283212.6303174 6254019.247279068 6254019.247279068 9523845.2256379 0 0 0 0 0 112874831.6298474 6153855.047468013 6153855.047468013 9324082.025449689 0 0 0 0 0 112477866.0042176 6040976.409865594 6040976.409865594 8458025.059558284 0 0 0 0 0 112843095.2701223 6296267.255225945 6296267.255225945 9050432.651157338 0 0 0 0 0 112109197.9178476 5941715.840943649 5941715.840943649 8292890.525188033 0 0 0 0 0 111756388.3884423 5842839.28158296 5842839.28158296 8131911.746373987 0 0 0 0 0 111418520.4610196 5744550.74627385 5744550.74627385 7974983.345080815 0 0 0 0 0 111094759.7202087 5647055.894623406 5647055.894623406 7822073.877539847 0 0 0 0 0 110784454.7063053 5550501.445429415 5550501.445429415 7672834.844347953 0 0 0 0 0 110787001.1168607 5639566.751369919 5639566.751369919 7473906.409284589 0 0 0 0 0 110210023.6827891 5341321.87104938 5341321.87104938 6867787.83837154 0 0 0 0 0 110492267.3371827 5540519.732905996 5540519.732905996 7332108.780256169 0 0 0 0 0 109942669.4456475 5252953.266017287 5252953.266017287 6751345.819464403 0 0 0 0 0 109734578.9353488 5192135.444515704 5192135.444515704 6646026.493832849 0 0 0 0 0 109568667.812995 5133962.116106886 5133962.116106886 6578167.075617728 0 0 0 0 0 109409108.1369476 5059140.831875547 5059140.831875547 6352734.187049222 0 0 0 0 0 115751094.2154288 6694335.108224222 6694335.108224222 12365461.4566642 0 0 0 0 0 272117763.8910335 -18713066.51741321 -18713066.51741321 2175651.844296307 0 0 0 0 0 255436554.8678598 -20102642.18874293 -20102642.18874293 10570904.94327183 0 0 0 0 0 241865865.4763631 -20292656.74517753 -20292656.74517753 16965275.01348367 0 0 0 0 0 231011110.6394908 -17997091.01865945 -17997091.01865945 23952460.12648965 0 0 0 0 0 219766984.7723266 -14022359.77253555 -14022359.77253555 27863832.55680722 0 0 0 0 0 211057506.628731 -16196988.78352342 -16196988.78352342 28807778.1357611 0 0 0 0 0 191435180.5257259 -8871815.907495091 -8871815.907495091 31700304.90797663 0 0 0 0 0 200294215.0054413 -12877471.81468947 -12877471.81468947 30958665.98901365 0 0 0 0 0 172226807.0859563 -5283574.257264949 -5283574.257264949 32774889.75955792 0 0 0 0 0 183338263.2799247 -6296433.330071877 -6296433.330071877 32491612.35590166 0 0 0 0 0 176263015.9196877 -4120202.964876998 -4120202.964876998 32895067.67506323 0 0 0 0 0 166467316.1138442 -3366213.531583952 -3366213.531583952 32688300.55109226 0 0 0 0 0 161363746.4077857 -1740805.449621503 -1740805.449621503 32419719.66498503 0 0 0 0 0 156830229.1266626 -367611.6543945473 -367611.6543945473 32008234.8309759 0 0 0 0 0 152777494.2195909 794485.4287751998 794485.4287751998 31491923.5335006 0 0 0 0 0 149141614.6517237 1775532.134391434 1775532.134391434 30899360.38882422 0 0 0 0 0 145871433.0708017 2603431.642631289 2603431.642631289 30249637.10274827 0 0 0 0 0 142923418.5403062 3300824.525356895 3300824.525356895 29557294.49807622 0 0 0 0 0 140255247.7218272 3886852.089300824 3886852.089300824 28839709.66841457 0 0 0 0 0 138415328.2043519 5487212.236029777 5487212.236029777 27493888.66736603 0 0 0 0 0 136927169.5478184 4814774.530829989 4814774.530829989 26505987.2613617 0 0 0 0 0 134841002.1911711 5210795.880196213 5210795.880196213 25798573.15027187 0 0 0 0 0 132930314.6689277 5535293.425757431 5535293.425757431 25096216.53621089 0 0 0 0 0 131175767.97354 5798541.883487194 5798541.883487194 24402305.48318743 0 0 0 0 0 129069809.0173173 6334479.551315517 6334479.551315517 22227140.49786344 0 0 0 0 0 130130784.5799923 6897965.782456557 6897965.782456557 23257455.46197135 0 0 0 0 0 127648174.5088362 6485115.742899561 6485115.742899561 21609662.92105667 0 0 0 0 0 126326429.0373107 6596777.815185035 6596777.815185035 21007782.58891957 0 0 0 0 0 125093271.3706101 6676178.76996795 6676178.76996795 20429959.31487837 0 0 0 0 0 123951893.9263637 6727882.677752792 6727882.677752792 19860154.52773885 0 0 0 0 0 122890653.9868524 6756413.708179113 6756413.708179113 19306800.54321482 0 0 0 0 0 121900079.2175927 6765090.361575291 6765090.361575291 18770338.31547289 0 0 0 0 0 121497181.8644096 7369307.911523877 7369307.911523877 17958369.47252899 0 0 0 0 0 120806386.5997544 6945378.447546387 6945378.447546387 17066806.51041153 0 0 0 0 0 119964416.53364 6913299.227960261 6913299.227960261 16607027.59409172 0 0 0 0 0 119173161.3635815 6868701.611909709 6868701.611909709 16162753.1829514 0 0 0 0 0 118429455.5700301 6814941.971717554 6814941.971717554 15736144.93913228 0 0 0 0 0 117728673.2300767 6752253.983815287 6752253.983815287 15324158.50059354 0 0 0 0 0 117065948.2558222 6682140.243802639 6682140.243802639 14923893.54787426 0 0 0 0 0 116891208.6626217 7048377.519279504 7048377.519279504 14353111.78388642 0 0 0 0 0 116384141.4390125 6711670.884287888 6711670.884287888 13598268.94632044 0 0 0 0 0 115798716.188707 6625092.836594103 6625092.836594103 13267978.25110062 0 0 0 0 0 115640619.5646277 6957357.812283109 6957357.812283109 11940074.34319596 0 0 0 0 0 115114282.6737564 6848816.597653612 6848816.597653612 11667745.1280356 0 0 0 0 0 114589621.494711 6748840.293479004 6748840.293479004 10619287.95227502 0 0 0 0 0 114667640.2000132 6542771.450014569 6542771.450014569 10967067.47238667 0 0 0 0 0 114123009.6815022 6638633.514779062 6638633.514779062 10384744.10551495 0 0 0 0 0 113678322.202235 6528144.505526331 6528144.505526331 10156605.72855952 0 0 0 0 0 113254368.2463638 6417972.05557489 6417972.05557489 9935100.25323309 0 0 0 0 0 112849697.0123177 6308203.969271644 6308203.969271644 9720201.451524151 0 0 0 0 0 112460709.3126619 6188008.835759723 6188008.835759723 8865270.656172052 0 0 0 0 0 112484617.3566227 6053436.071780121 6053436.071780121 9129944.563482489 0 0 0 0 0 112094715.3585967 6080465.605700132 6080465.605700132 8684994.742225293 0 0 0 0 0 111744316.3178147 5973910.783979873 5973910.783979873 8509661.183225898 0 0 0 0 0 111408622.5370332 5868532.606415659 5868532.606415659 8339203.376887491 0 0 0 0 0 111086869.661609 5764414.362750434 5764414.362750434 8173027.902819929 0 0 0 0 0 110778219.7304333 5661850.235768128 5661850.235768128 8011171.348918624 0 0 0 0 0 110486508.9521649 5455043.280261671 5455043.280261671 7527274.601759374 0 0 0 0 0 110211754.4866227 5441744.586897462 5441744.586897462 7202667.443875405 0 0 0 0 0 110199932.2558564 5360561.935713418 5360561.935713418 7384664.781321257 0 0 0 0 0 109945559.0952889 5348012.585509351 5348012.585509351 7029650.024839543 0 0 0 0 0 109755808.2541704 5259080.444714478 5259080.444714478 6824128.225578375 0 0 0 0 0 109558325.9629204 5180703.527342956 5180703.527342956 6553065.230179057 0 0 0 0 0 115680310.6894738 6918602.098513305 6918602.098513305 12786123.57196146 0 0 0 0 0 297163783.8613994 -16323831.08064035 -16323831.08064035 7851499.304588265 0 0 0 0 0 276117372.9378541 -17941124.79434881 -17941124.79434881 15800734.01518799 0 0 0 0 0 259194106.1269091 -17721241.70769484 -17721241.70769484 20651442.53944931 0 0 0 0 0 241677600.1020357 -15007724.54158659 -15007724.54158659 22627319.81962349 0 0 0 0 0 227669759.397176 -11794355.77289568 -11794355.77289568 27055211.90687283 0 0 0 0 0 217514920.5009761 -14632406.42107631 -14632406.42107631 27709154.95492864 0 0 0 0 0 207543691.4923252 -11028544.3696391 -11028544.3696391 30240821.98324582 0 0 0 0 0 190978677.2987482 -10011834.26908197 -10011834.26908197 32360057.24574244 0 0 0 0 0 197160897.8818903 -8385597.694360133 -8385597.694360133 31917173.36123465 0 0 0 0 0 170041481.0106926 -2279416.079455523 -2279416.079455523 33009553.07426531 0 0 0 0 0 182845850.2652056 -7546652.163488541 -7546652.163488541 33215631.84991478 0 0 0 0 0 175731143.3705117 -5435129.382315142 -5435129.382315142 33659969.79130913 0 0 0 0 0 164554911.1119001 -727479.6332665846 -727479.6332665846 32896779.63791652 0 0 0 0 0 159679077.9112306 584468.4925125526 584468.4925125526 32608838.26253954 0 0 0 0 0 155333095.0911038 1688784.473407549 1688784.473407549 32185500.64995569 0 0 0 0 0 151445877.2469804 2619142.875867136 2619142.875867136 31663908.81160439 0 0 0 0 0 147961790.1467512 3399953.48103633 3399953.48103633 31063420.21651129 0 0 0 0 0 144825481.2504252 4053348.399217619 4053348.399217619 30405601.57013781 0 0 0 0 0 141990674.0908047 4599047.341626869 4599047.341626869 29712822.80579187 0 0 0 0 0 139421565.9355757 5052454.480279114 5052454.480279114 28995755.79380562 0 0 0 0 0 137832525.6683913 4377498.81686942 4377498.81686942 28107727.14039576 0 0 0 0 0 136217505.687853 5852080.413287413 5852080.413287413 26787350.77467865 0 0 0 0 0 134206896.7466246 6147183.110626501 6147183.110626501 26079842.65204201 0 0 0 0 0 132362379.0568705 6382775.69785777 6382775.69785777 25376588.709144 0 0 0 0 0 130666277.6111181 6567257.895778559 6567257.895778559 24682547.77667492 0 0 0 0 0 128640814.6258848 7024033.106870544 7024033.106870544 22618921.3356523 0 0 0 0 0 129561533.99267 6008896.801475113 6008896.801475113 23719819.06968986 0 0 0 0 0 127257800.4710886 7113800.935320056 7113800.935320056 21998858.3483563 0 0 0 0 0 125971027.9745781 7171286.781898591 7171286.781898591 21394376.41524883 0 0 0 0 0 124780500.7886832 7201845.077818 7201845.077818 20795988.97177834 0 0 0 0 0 123672384.0111508 7210200.216001441 7210200.216001441 20215358.41491942 0 0 0 0 0 122638580.7193225 7200090.794017306 7200090.794017306 19653116.47649059 0 0 0 0 0 121672475.1202639 7173392.57162503 7173392.57162503 19107925.04291356 0 0 0 0 0 120973965.2472595 6756449.877402386 6756449.877402386 18251601.55580761 0 0 0 0 0 120619767.521505 7320097.387667119 7320097.387667119 17471238.3494908 0 0 0 0 0 119796449.6925865 7259569.561981087 7259569.561981087 16999775.60503652 0 0 0 0 0 119021291.985885 7189951.61437823 7189951.61437823 16544660.94342958 0 0 0 0 0 118291402.6978442 7112173.33795958 7112173.33795958 16105055.77589821 0 0 0 0 0 117601906.9878238 7027729.009268234 7027729.009268234 15678573.63621128 0 0 0 0 0 116952692.1088131 6938499.588045029 6938499.588045029 15273099.85602612 0 0 0 0 0 116440063.4449235 6604694.588458509 6604694.588458509 14535867.1449074 0 0 0 0 0 116283142.5658749 6948448.776632071 6948448.776632071 13995315.3416682 0 0 0 0 0 115712845.1037007 6847291.676753391 6847291.676753391 13643463.85700191 0 0 0 0 0 115211788.2073511 6602535.831934024 6602535.831934024 12070780.64421517 0 0 0 0 0 114700751.6879609 6507441.626908571 6507441.626908571 11789835.5045695 0 0 0 0 0 114186891.3388419 6444128.446997537 6444128.446997537 10724289.0510425 0 0 0 0 0 114615974.5278116 6738940.358489624 6738940.358489624 11401670.38221547 0 0 0 0 0 113730162.4391848 6345310.266148451 6345310.266148451 10488819.72871104 0 0 0 0 0 113296009.9330173 6245499.253410839 6245499.253410839 10256903.00510134 0 0 0 0 0 112882232.3102653 6145326.938801591 6145326.938801591 10031203.94278994 0 0 0 0 0 112487270.9013113 6045045.638964034 6045045.638964034 9812248.565008363 0 0 0 0 0 112111736.5238229 5953315.93932238 5953315.93932238 8941112.865486449 0 0 0 0 0 112462742.2551731 6198952.686893977 6198952.686893977 9511488.321180416 0 0 0 0 0 111755126.9436851 5853598.547046096 5853598.547046096 8757705.421571877 0 0 0 0 0 111413855.6572642 5754508.82546778 5754508.82546778 8579411.864792956 0 0 0 0 0 111087079.7126432 5656208.943063575 5656208.943063575 8406089.295338597 0 0 0 0 0 110774026.4796822 5558885.072970274 5558885.072970274 8237601.396548259 0 0 0 0 0 110474071.8671038 5462719.29288363 5462719.29288363 8073593.146539241 0 0 0 0 0 110481702.1847113 5560768.43193023 5560768.43193023 7853760.982644822 0 0 0 0 0 109915737.6578118 5267150.461153995 5267150.461153995 7244271.166944605 0 0 0 0 0 110194818.5948729 5462160.738461951 5462160.738461951 7696409.279547323 0 0 0 0 0 109679948.8149489 5192076.822355977 5192076.822355977 7141850.03143153 0 0 0 0 0 109485125.8806945 5127423.797026999 5127423.797026999 7001029.242379273 0 0 0 0 0 109314652.8765626 5051516.336544422 5051516.336544422 6817804.803369266 0 0 0 0 0 115246849.4236122 6535408.695136019 6535408.695136019 12941562.01414047 0 0 0 0 0 276443513.8257089 -10822584.73397967 -10822584.73397967 -599235.8112211764 0 0 0 0 0 255234061.3915362 -12236827.17773427 -12236827.17773427 11916935.8216521 0 0 0 0 0 243556282.7040625 -13257384.81758436 -13257384.81758436 17742335.54421872 0 0 0 0 0 240859051.5410222 -15360974.98665662 -15360974.98665662 22530062.39607734 0 0 0 0 0 223710858.9237371 -12477233.68393177 -12477233.68393177 26451365.69389695 0 0 0 0 0 214224529.5313092 -9645955.199548101 -9645955.199548101 29618290.01592987 0 0 0 0 0 205799412.5021637 -11836521.88607288 -11836521.88607288 30364798.07212884 0 0 0 0 0 188196002.1000804 -6091761.663087786 -6091761.663087786 33032637.92657824 0 0 0 0 0 195712259.4051035 -9389748.980511229 -9389748.980511229 32246273.71440092 0 0 0 0 0 169469096.6450243 -3627981.271784039 -3627981.271784039 33786395.90154751 0 0 0 0 0 180388525.9215075 -4121170.324148067 -4121170.324148067 33690321.57993974 0 0 0 0 0 173560038.1455301 -2426480.110128392 -2426480.110128392 33995540.7786492 0 0 0 0 0 163940606.12705 -2084182.897944336 -2084182.897944336 33670296.11355194 0 0 0 0 0 159044312.3075119 -768546.3436362526 -768546.3436362526 33369820.95745138 0 0 0 0 0 154687872.6273259 354591.4655938443 354591.4655938443 32931532.40116851 0 0 0 0 0 150800822.2868541 1309171.01866872 1309171.01866872 32385762.83717738 0 0 0 0 0 147308712.7288877 2122797.063346 2122797.063346 31765832.878549 0 0 0 0 0 144167395.2135738 2814324.09728452 2814324.09728452 31088667.31755868 0 0 0 0 0 141334702.7336833 3400296.301788367 3400296.301788367 30368874.73117035 0 0 0 0 0 138769469.9636741 3895977.72993738 3895977.72993738 29624515.83945901 0 0 0 0 0 137086000.9102822 5426622.273988711 5426622.273988711 28264880.04113603 0 0 0 0 0 135626376.1401552 4786232.10440244 4786232.10440244 27369970.25929561 0 0 0 0 0 133611762.7376395 5124579.258657886 5124579.258657886 26632701.7936074 0 0 0 0 0 131767005.1934935 5402388.369487163 5402388.369487163 25900950.87714877 0 0 0 0 0 130073399.8666531 5627693.029129798 5627693.029129798 25178545.75951504 0 0 0 0 0 128071771.7690515 6174173.30375082 6174173.30375082 23055365.72132827 0 0 0 0 0 129104042.007887 6707381.331531739 6707381.331531739 24000114.66929528 0 0 0 0 0 126693992.0021363 6299424.1951921 6299424.1951921 22406355.0977826 0 0 0 0 0 125415376.2314364 6391904.116882543 6391904.116882543 21776004.77707591 0 0 0 0 0 124227300.6271217 6456282.309577624 6456282.309577624 21165829.76103153 0 0 0 0 0 123127778.7048043 6497420.888469194 6497420.888469194 20568563.27441779 0 0 0 0 0 122103183.1886669 6517789.228910075 6517789.228910075 19988373.11840038 0 0 0 0 0 121147521.013185 6520350.213182123 6520350.213182123 19426365.70381179 0 0 0 0 0 120768284.4540344 7132913.797808073 7132913.797808073 18578999.58253786 0 0 0 0 0 120107011.4067997 6733111.344497156 6733111.344497156 17748626.12373587 0 0 0 0 0 119293959.1639972 6697297.460156405 6697297.460156405 17262577.77867183 0 0 0 0 0 118530225.0952443 6651037.025555262 6651037.025555262 16793087.22811516 0 0 0 0 0 117812081.0270078 6595877.727972786 6595877.727972786 16340130.57834825 0 0 0 0 0 117136183.7530053 6533491.038278594 6533491.038278594 15903565.16699604 0 0 0 0 0 116497896.6930819 6463016.310406877 6463016.310406877 15477074.55910716 0 0 0 0 0 116336862.0033637 6844532.87302669 6844532.87302669 14881991.2059372 0 0 0 0 0 115847278.5017906 6522777.516801699 6522777.516801699 14167144.18599689 0 0 0 0 0 115282121.2414513 6436194.433673661 6436194.433673661 13811683.06272825 0 0 0 0 0 115148291.1519801 6811693.085987521 6811693.085987521 12483237.26459458 0 0 0 0 0 114640088.1952125 6703167.959043218 6703167.959043218 12187806.14426259 0 0 0 0 0 114141816.2890866 6628896.948150847 6628896.948150847 11140674.53215979 0 0 0 0 0 114209892.0402733 6409386.125471173 6409386.125471173 11517951.97283548 0 0 0 0 0 113690502.9490225 6518219.878300703 6518219.878300703 10884890.37643389 0 0 0 0 0 113261092.5627945 6408113.088504137 6408113.088504137 10637659.5281276 0 0 0 0 0 112851325.4955213 6298378.676869628 6298378.676869628 10398192.47096048 0 0 0 0 0 112460016.2471908 6189134.164210699 6189134.164210699 10165890.97072173 0 0 0 0 0 112092854.6319558 6090576.356736991 6090576.356736991 9308956.393823368 0 0 0 0 0 112110191.1579785 5944893.86753118 5944893.86753118 9599633.48727484 0 0 0 0 0 111738907.4037549 5983191.599523609 5983191.599523609 9112360.165261226 0 0 0 0 0 111400050.7581044 5876978.277661009 5876978.277661009 8921611.146809544 0 0 0 0 0 111075441.914528 5772074.349042783 5772074.349042783 8736168.307650359 0 0 0 0 0 110764377.7699839 5668664.568238386 5668664.568238386 8556120.051834356 0 0 0 0 0 110465905.7370171 5567049.183646478 5567049.183646478 8380559.696845745 0 0 0 0 0 110185906.5475646 5368066.539314141 5368066.539314141 7913858.251308612 0 0 0 0 0 109915212.4723378 5363205.716337723 5363205.716337723 7527821.561357236 0 0 0 0 0 109911846.2441777 5274242.598182907 5274242.598182907 7756234.447988586 0 0 0 0 0 109693092.1757632 5278442.389468944 5278442.389468944 7316435.737095485 0 0 0 0 0 109489304.4339933 5178771.522762585 5178771.522762585 7032767.438455264 0 0 0 0 0 115174290.6694502 6742995.111297959 6742995.111297959 13299972.73950848 0 0 0 0 0 303569235.925897 -7613450.456817048 -7613450.456817048 7603531.127580657 0 0 0 0 0 276547422.7907625 -6634471.580235104 -6634471.580235104 11590826.10139399 0 0 0 0 0 256767625.0540848 -12239387.0969881 -12239387.0969881 21405688.24646504 0 0 0 0 0 264512663.2540673 -11097512.7992365 -11097512.7992365 14895768.16455991 0 0 0 0 0 234533708.7087317 -8850262.014141278 -8850262.014141278 25617332.95698759 0 0 0 0 0 220814802.78453 -8015970.049636154 -8015970.049636154 28454265.88529674 0 0 0 0 0 211587739.6935611 -10333322.0859164 -10333322.0859164 29446916.56684768 0 0 0 0 0 202891865.1461327 -7481241.660326751 -7481241.660326751 31842454.09273621 0 0 0 0 0 186914137.5459801 -7237237.848853832 -7237237.848853832 33496632.08218892 0 0 0 0 0 193112383.8916827 -5556844.957916515 -5556844.957916515 33318862.40826283 0 0 0 0 0 167553368.172524 -981768.9477953427 -981768.9477953427 34027535.97270693 0 0 0 0 0 179248267.1838365 -5365349.987189901 -5365349.987189901 34256032.03097771 0 0 0 0 0 172508022.7842993 -3737099.637732122 -3737099.637732122 34630563.31531561 0 0 0 0 0 162246059.1067475 249838.0850222585 249838.0850222585 33845701.81878314 0 0 0 0 0 157540175.6508924 1296970.767440756 1296970.767440756 33499490.13631568 0 0 0 0 0 153344561.7729042 2188889.382836543 2188889.382836543 33029187.05157973 0 0 0 0 0 149594147.4971187 2943619.746301038 2943619.746301038 32462061.04712702 0 0 0 0 0 146229980.1623727 3581692.086659892 3581692.086659892 31820242.97775659 0 0 0 0 0 143201954.6874404 4120060.893091186 4120060.893091186 31127524.7381035 0 0 0 0 0 140467587.4765839 4573356.382748368 4573356.382748368 30403027.6528614 0 0 0 0 0 137989463.5874357 4951973.97014151 4951973.97014151 29657021.76102937 0 0 0 0 0 136439936.7807698 4313178.492779814 4313178.492779814 28866141.49033216 0 0 0 0 0 134956584.3231308 5732830.940725244 5732830.940725244 27528013.55128718 0 0 0 0 0 133009765.3112823 5980842.585986193 5980842.585986193 26791855.80494128 0 0 0 0 0 131224840.783376 6178752.976004655 6178752.976004655 26062205.329809 0 0 0 0 0 129584407.5832211 6333169.248509542 6333169.248509542 25342202.443372 0 0 0 0 0 127660161.10254 6811147.051851637 6811147.051851637 23339091.59955755 0 0 0 0 0 128515416.7401597 5808146.135586211 5808146.135586211 24469819.40243787 0 0 0 0 0 126322425.4189749 6882614.800922141 6882614.800922141 22691508.71029888 0 0 0 0 0 125078019.8683891 6924593.789651189 6924593.789651189 22055725.45912558 0 0 0 0 0 123924819.776492 6943247.81472954 6943247.81472954 21429687.72500553 0 0 0 0 0 122853124.8425884 6944409.26672233 6944409.26672233 20826270.79369622 0 0 0 0 0 121854088.3301761 6928689.471668391 6928689.471668391 20240615.65987649 0 0 0 0 0 120921476.7366605 6898754.166170804 6898754.166170804 19672621.09308037 0 0 0 0 0 120254464.1450498 6507649.363551458 6507649.363551458 18882222.68153934 0 0 0 0 0 119920818.2756854 7080882.136446682 7080882.136446682 18067550.10382186 0 0 0 0 0 119124820.6330424 7019232.774391787 7019232.774391787 17573449.36754945 0 0 0 0 0 118376581.5667708 6949222.484923983 6949222.484923983 17095671.58734413 0 0 0 0 0 117672491.55004 6872475.727965523 6872475.727965523 16633769.51980448 0 0 0 0 0 117009778.4926689 6789985.254381723 6789985.254381723 16188703.38058573 0 0 0 0 0 116382375.0680046 6702708.853860189 6702708.853860189 15765548.11359509 0 0 0 0 0 115893485.2250054 6387022.013301881 6387022.013301881 15073119.8599973 0 0 0 0 0 115751094.5693453 6746563.235765056 6746563.235765056 14503693.16208688 0 0 0 0 0 115198569.1882602 6644328.404446472 6644328.404446472 14125975.96010994 0 0 0 0 0 114728180.8980667 6443041.131987926 6443041.131987926 12622208.79406125 0 0 0 0 0 114233055.5617724 6348501.686699583 6348501.686699583 12321461.64100821 0 0 0 0 0 113745172.1348306 6311193.629088286 6311193.629088286 11257594.15444609 0 0 0 0 0 114156817.9922196 6593497.236802554 6593497.236802554 11902999.81932511 0 0 0 0 0 113305168.9385116 6212813.763712546 6212813.763712546 10999460.00082879 0 0 0 0 0 112885871.6355956 6113699.494465421 6113699.494465421 10747614.11059262 0 0 0 0 0 112486134.6070174 6014458.606355493 6014458.606355493 10503427.63118091 0 0 0 0 0 112105012.0022752 5915297.157790397 5915297.157790397 10266712.33858069 0 0 0 0 0 111749867.288004 5845202.023938527 5845202.023938527 9393420.301341776 0 0 0 0 0 112086180.6453138 6080742.949958098 6080742.949958098 9940677.627528444 0 0 0 0 0 111405354.624721 5746158.171596417 5746158.171596417 9193289.740737373 0 0 0 0 0 111075684.5674998 5647864.219658078 5647864.219658078 8999011.69218082 0 0 0 0 0 110760007.636694 5550553.714195434 5550553.714195434 8810784.785984617 0 0 0 0 0 110457627.26998 5454414.865698222 5454414.865698222 8627908.653298099 0 0 0 0 0 110169136.090669 5359789.836030909 5359789.836030909 8450208.089731462 0 0 0 0 0 110180206.0783016 5466534.266952691 5466534.266952691 8212396.152785385 0 0 0 0 0 109642915.4122176 5188658.240160513 5188658.240160513 7604234.850963723 0 0 0 0 0 109901232.8852493 5368131.839280564 5368131.839280564 8038005.760550089 0 0 0 0 0 109413852.0851953 5107511.144467034 5107511.144467034 7479904.812853968 0 0 0 0 0 109219918.7840106 5038440.291260736 5038440.291260736 7297588.159432582 0 0 0 0 0 114753920.04114 6349103.244737123 6349103.244737123 13465388.81112786 0 0 0 0 0 280046597.2961453 -485513.1781907896 -485513.1781907896 5317531.745362696 0 0 0 0 0 275634514.7735707 -6164407.482854006 -6164407.482854006 11282634.96158478 0 0 0 0 0 242001390.9852356 -9808886.100237301 -9808886.100237301 17917370.94907317 0 0 0 0 0 255502681.8506071 -5844297.803175715 -5844297.803175715 18583136.69009028 0 0 0 0 0 228434861.2309806 -8557650.614666298 -8557650.614666298 23843281.92042295 0 0 0 0 0 216337044.3680061 -7646051.624952473 -7646051.624952473 27223577.94196759 0 0 0 0 0 208181961.0676651 -6304581.027472953 -6304581.027472953 30999350.770277 0 0 0 0 0 200358576.3709653 -8307381.765060605 -8307381.765060605 31793025.73336313 0 0 0 0 0 184576298.4325456 -3883897.773282872 -3883897.773282872 34240330.02101169 0 0 0 0 0 190887187.3256054 -6576133.56296679 -6576133.56296679 33478345.50245142 0 0 0 0 0 166558153.3423752 -2322227.256067744 -2322227.256067744 34699022.15561703 0 0 0 0 0 177141644.2948314 -2398691.541849737 -2398691.541849737 34766309.04634666 0 0 0 0 0 170621450.0440819 -1117815.62210697 -1117815.62210697 34947591.31309202 0 0 0 0 0 161300547.1446123 -1101315.993443485 -1101315.993443485 34534990.50112038 0 0 0 0 0 156634446.4595268 -47960.80497273018 -47960.80497273018 34192990.52872463 0 0 0 0 0 152486812.2404335 856476.6537551502 856476.6537551502 33715274.49563199 0 0 0 0 0 148775945.1738994 1636956.492180731 1636956.492180731 33139249.34171893 0 0 0 0 0 145442971.3175384 2308146.720608332 2308146.720608332 32489844.57898583 0 0 0 0 0 142445002.2634745 2884445.57203164 2884445.57203164 31783154.07949093 0 0 0 0 0 139735211.5486537 3377899.455589329 3377899.455589329 31038293.72284934 0 0 0 0 0 137279800.3062384 3797971.507045596 3797971.507045596 30270432.46466256 0 0 0 0 0 135737084.0742409 5265962.069934197 5265962.069934197 28899081.45292657 0 0 0 0 0 134318665.188862 4662530.592576571 4662530.592576571 28102430.69529209 0 0 0 0 0 132381243.4411308 4953230.66791214 4953230.66791214 27339931.24559592 0 0 0 0 0 130606808.7494776 5192786.838947216 5192786.838947216 26583665.86949933 0 0 0 0 0 128978474.5784756 5388108.303217344 5388108.303217344 25838542.22209452 0 0 0 0 0 127076940.620565 5947398.577588797 5947398.577588797 23772757.46294605 0 0 0 0 0 128074396.0671389 6450872.489371788 6450872.489371788 24638757.90569523 0 0 0 0 0 125745766.4051233 6053393.124121212 6053393.124121212 23100556.84652049 0 0 0 0 0 124515384.6964175 6132310.066977873 6132310.066977873 22446218.00911783 0 0 0 0 0 123374417.2743992 6187566.932743687 6187566.932743687 21811166.70557681 0 0 0 0 0 122314788.4757661 6221136.937384947 6221136.937384947 21188520.81269912 0 0 0 0 0 121328364.6139469 6236462.283956641 6236462.283956641 20584961.13912132 0 0 0 0 0 120408339.612861 6236141.930502465 6236141.930502465 20000667.03203361 0 0 0 0 0 120048942.4604006 6856920.69216959 6856920.69216959 19122848.5461482 0 0 0 0 0 119418594.0728419 6482092.693602731 6482092.693602731 18355521.69422018 0 0 0 0 0 118634836.9206482 6445360.151413768 6445360.151413768 17846239.9406425 0 0 0 0 0 117899021.5181953 6399362.757899793 6399362.757899793 17354668.82641569 0 0 0 0 0 117207437.8699548 6345485.488264563 6345485.488264563 16880299.65898355 0 0 0 0 0 116556090.6269991 6284499.817529404 6284499.817529404 16421801.02366266 0 0 0 0 0 115943419.5924051 6217622.281861889 6217622.281861889 15978060.4673591 0 0 0 0 0 115787092.4020295 6609824.301148805 6609824.301148805 15355696.81924384 0 0 0 0 0 115321475.0740705 6305574.250359019 6305574.250359019 14682860.30391673 0 0 0 0 0 114779558.2207766 6224065.854169477 6224065.854169477 14310932.27657527 0 0 0 0 0 114661073.6314469 6638492.829106783 6638492.829106783 12978370.95603715 0 0 0 0 0 114170375.2042724 6531109.481991086 6531109.481991086 12664992.83862119 0 0 0 0 0 113699508.9936377 6483775.078170395 6483775.078170395 11620545.33810454 0 0 0 0 0 113760396.8439635 6251892.33122285 6251892.33122285 12027476.53028127 0 0 0 0 0 113263464.9407066 6374359.136577247 6374359.136577247 11347418.27888455 0 0 0 0 0 112848751.7506598 6265684.707634114 6265684.707634114 11083119.7016207 0 0 0 0 0 112453071.9252649 6157367.63402434 6157367.63402434 10826710.88440819 0 0 0 0 0 112075442.7826026 6049935.476019156 6049935.476019156 10578433.55054764 0 0 0 0 0 111728831.614587 5973384.497630189 5973384.497630189 9722303.67420553 0 0 0 0 0 111741130.5869884 5816548.773858991 5816548.773858991 10037299.79888802 0 0 0 0 0 111387003.7353308 5867200.237177896 5867200.237177896 9510692.407821083 0 0 0 0 0 111059636.5922641 5762308.967015472 5762308.967015472 9305613.165995667 0 0 0 0 0 110746162.9432943 5658924.722022516 5658924.722022516 9106609.467524586 0 0 0 0 0 110446066.2495638 5556996.700485471 5556996.700485471 8913440.665376507 0 0 0 0 0 110157179.7595754 5458732.914252216 5458732.914252216 8722924.732698767 0 0 0 0 0 109890101.7044675 5269749.578854402 5269749.578854402 8280912.590050633 0 0 0 0 0 109626595.1325039 5266428.59671439 5266428.59671439 7866331.767823304 0 0 0 0 0 109658198.7395177 5193235.270535011 5193235.270535011 8121067.530617966 0 0 0 0 0 109403006.0154785 5173540.288985251 5173540.288985251 7518170.543499827 0 0 0 0 0 114678354.9053441 6544003.763809518 6544003.763809518 13768335.83826374 0 0 0 0 0 264155505.6264511 -802817.300489199 -802817.300489199 12824099.01486281 0 0 0 0 0 241834760.068237 -5221951.80722524 -5221951.80722524 23907795.90558107 0 0 0 0 0 255456564.3273277 -5375968.492448119 -5375968.492448119 18447485.43105739 0 0 0 0 0 228742337.4825953 -5358004.734100039 -5358004.734100039 28516751.54006962 0 0 0 0 0 213712387.3478139 -4451516.589765944 -4451516.589765944 29950262.02467137 0 0 0 0 0 207189482.1210915 -7020829.440913286 -7020829.440913286 31105305.58502721 0 0 0 0 0 197959129.1929397 -4616552.702281612 -4616552.702281612 33362045.61398523 0 0 0 0 0 182702955.8537231 -5030453.419811096 -5030453.419811096 34564199.25772537 0 0 0 0 0 188751413.1544474 -3376104.048840724 -3376104.048840724 34540460.40492175 0 0 0 0 0 164874704.5420391 -6710.128183436279 -6710.128183436279 34891128.45971172 0 0 0 0 0 175488145.9174066 -3646191.225132957 -3646191.225132957 35198454.07662012 0 0 0 0 0 169186614.6180888 -2431309.562237369 -2431309.562237369 35493564.21151587 0 0 0 0 0 159795219.4631027 951431.4696207793 951431.4696207793 34636834.431389 0 0 0 0 0 155286450.1414355 1777747.324229635 1777747.324229635 34232845.76272035 0 0 0 0 0 151273842.5300761 2487036.854350314 2487036.854350314 33712016.07866561 0 0 0 0 0 147678748.7615873 3094506.964872578 3094506.964872578 33101263.41872909 0 0 0 0 0 144454553.7106563 3613038.838465292 3613038.838465292 32419592.49753582 0 0 0 0 0 141550717.2655325 4057914.334136053 4057914.334136053 31698558.65289735 0 0 0 0 0 138926380.529922 4434936.737936064 4434936.737936064 30948366.01272381 0 0 0 0 0 136547452.0021239 4751958.491412234 4751958.491412234 30178449.25437817 0 0 0 0 0 135050077.4577787 4154084.153722506 4154084.153722506 29489622.51093451 0 0 0 0 0 133684041.6183817 5524453.215366353 5524453.215366353 28137442.36193835 0 0 0 0 0 131807427.0449212 5734794.350206734 5734794.350206734 27378749.08349586 0 0 0 0 0 130087248.8076449 5902845.338272284 5902845.338272284 26627425.80182195 0 0 0 0 0 128507998.2965688 6034161.40043278 6034161.40043278 25890080.53020872 0 0 0 0 0 126679164.8934959 6536120.892174638 6536120.892174638 23956072.5346404 0 0 0 0 0 127481653.8818396 5542806.972507341 5542806.972507341 25104050.64295593 0 0 0 0 0 125387111.2985106 6591594.292202049 6591594.292202049 23278237.97446661 0 0 0 0 0 124186763.9149901 6623309.740728685 6623309.740728685 22616590.56066135 0 0 0 0 0 123075823.5820262 6637162.470423575 6637162.470423575 21973324.72067495 0 0 0 0 0 122043287.1916706 6634308.779644114 6634308.779644114 21349448.07615933 0 0 0 0 0 121081115.8063447 6616851.195900675 6616851.195900675 20744555.87359801 0 0 0 0 0 120182835.6137996 6586964.468785911 6586964.468785911 20158495.70019115 0 0 0 0 0 119548747.8395994 6222404.311920651 6222404.311920651 19435110.19655338 0 0 0 0 0 119231607.6668824 6804995.915087895 6804995.915087895 18591079.53040101 0 0 0 0 0 118464433.9847119 6744420.807433561 6744420.807433561 18077112.4962255 0 0 0 0 0 117743552.9041211 6676552.710552067 6676552.710552067 17580389.09316532 0 0 0 0 0 117065674.1646607 6602518.661726181 6602518.661726181 17100189.5760042 0 0 0 0 0 116427446.6922105 6523551.90930133 6523551.90930133 16637221.23722301 0 0 0 0 0 115825202.8575431 6439397.961870829 6439397.961870829 16197891.65397616 0 0 0 0 0 115364588.2482087 6144326.058899662 6144326.058899662 15551782.22079482 0 0 0 0 0 115220985.6922254 6513535.730234919 6513535.730234919 14953176.95208866 0 0 0 0 0 114690183.9403635 6417451.146703534 6417451.146703534 14563942.22943988 0 0 0 0 0 114252023.4896293 6258846.452782819 6258846.452782819 13126825.6032632 0 0 0 0 0 113773117.7233158 6165799.607891578 6165799.607891578 12806718.94669006 0 0 0 0 0 113310286.3080586 6154757.504818518 6154757.504818518 11748787.47277758 0 0 0 0 0 113702707.130823 6423172.420259026 6423172.420259026 12361629.35731308 0 0 0 0 0 112886783.7202804 6057810.536828223 6057810.536828223 11471288.55853988 0 0 0 0 0 112482152.760884 5960631.061380683 5960631.061380683 11201847.59724715 0 0 0 0 0 112096938.7172153 5863473.408258997 5863473.408258997 10940826.90917278 0 0 0 0 0 111729486.5446799 5766619.023164179 5766619.023164179 10687938.90125138 0 0 0 0 0 111393425.9295872 5718406.747395541 5718406.747395541 9814981.119425744 0 0 0 0 0 111714725.6480206 5943494.283858623 5943494.283858623 10338038.48431094 0 0 0 0 0 111060869.5930991 5620982.516874481 5620982.516874481 9599477.172009591 0 0 0 0 0 110742770.1428963 5524410.735027472 5524410.735027472 9390642.789216753 0 0 0 0 0 110437985.2797194 5428808.257962521 5428808.257962521 9188292.388058806 0 0 0 0 0 110146218.799122 5334655.740342705 5334655.740342705 8992409.239577446 0 0 0 0 0 109874017.6412212 5242887.644821961 5242887.644821961 8801583.173551854 0 0 0 0 0 109884311.5342728 5358642.088935447 5358642.088935447 8529969.395214958 0 0 0 0 0 109438191.597379 5113052.226766699 5113052.226766699 7900288.450055195 0 0 0 0 0 109655881.5678481 5262137.148935228 5262137.148935228 8325423.541680069 0 0 0 0 0 109141738.9903152 5018998.797962002 5018998.797962002 7844765.614984746 0 0 0 0 0 114268911.0663816 6139189.034522275 6139189.034522275 13943692.30424903 0 0 0 0 0 237072074.3472621 -5151142.578617965 -5151142.578617965 22552861.2231552 0 0 0 0 0 246100579.7133391 202129.0150765982 202129.0150765982 19858814.40096476 0 0 0 0 0 217420610.2229333 -3348245.446806694 -3348245.446806694 26927077.41327642 0 0 0 0 0 215755510.277793 -5582225.488048975 -5582225.488048975 30739683.93482348 0 0 0 0 0 202075407.0961979 -3184519.080410295 -3184519.080410295 32408521.0997173 0 0 0 0 0 195036383.0524446 -5616044.874181214 -5616044.874181214 33337240.92877133 0 0 0 0 0 180724273.6189479 -2173477.917102127 -2173477.917102127 35318566.71944367 0 0 0 0 0 185947306.3889163 -4349995.495633801 -4349995.495633801 34567352.75014821 0 0 0 0 0 163576615.2480966 -1345716.075331933 -1345716.075331933 35488946.5980752 0 0 0 0 0 173695410.8327166 -1098118.861208553 -1098118.861208553 35679093.96186501 0 0 0 0 0 167539584.0680896 -155023.1904466185 -155023.1904466185 35726752.4256897 0 0 0 0 0 158605627.8443981 -394968.5055171024 -394968.5055171024 35265373.54358036 0 0 0 0 0 154196884.9747383 434504.6338358764 434504.6338358764 34871560.28777115 0 0 0 0 0 150262170.7800738 1161336.747850304 1161336.747850304 34355143.41501027 0 0 0 0 0 146739946.5398663 1795422.717423969 1795422.717423969 33744903.89852008 0 0 0 0 0 143580392.7985197 2349163.231512776 2349163.231512776 33065645.27696425 0 0 0 0 0 140725795.8124703 2831932.231859376 2831932.231859376 32332278.00996076 0 0 0 0 0 138142512.2182963 3248338.642164159 3248338.642164159 31565801.03218416 0 0 0 0 0 135803665.3528914 3605540.980262627 3605540.980262627 30778350.91133563 0 0 0 0 0 134385569.6930848 5017675.340619132 5017675.340619132 29398971.60065059 0 0 0 0 0 133018666.2169116 4454941.195278022 4454941.195278022 28704419.70212248 0 0 0 0 0 131161173.0466223 4707161.127080766 4707161.127080766 27921604.5785373 0 0 0 0 0 129460537.2296589 4916282.384538626 4916282.384538626 27146430.57156354 0 0 0 0 0 127899650.7542897 5085999.043458655 5085999.043458655 26380658.23672211 0 0 0 0 0 126096120.631706 5662968.62605104 5662968.62605104 24385806.95080418 0 0 0 0 0 127052335.0066187 6133791.291362699 6133791.291362699 25169122.81659248 0 0 0 0 0 124813310.5007099 5756473.530327308 5756473.530327308 23698148.32073453 0 0 0 0 0 123632860.9265833 5826764.831086389 5826764.831086389 23022613.95364046 0 0 0 0 0 122536923.9741372 5875034.729009177 5875034.729009177 22361398.46298397 0 0 0 0 0 121518639.9651712 5904782.933925075 5904782.933925075 21719150.3966185 0 0 0 0 0 120570636.2010824 5918407.503714752 5918407.503714752 21096836.00706129 0 0 0 0 0 119686422.6442583 5918087.286970499 5918087.286970499 20494354.92311367 0 0 0 0 0 119343043.9119783 6546498.776234897 6546498.776234897 19591104.95780493 0 0 0 0 0 118744331.0022537 6197049.461347606 6197049.461347606 18887890.64230565 0 0 0 0 0 117990114.9985506 6161869.253924641 6161869.253924641 18359288.70947611 0 0 0 0 0 117282270.3661207 6118202.710624204 6118202.710624204 17848902.86664487 0 0 0 0 0 116616956.3447281 6067154.016180702 6067154.016180702 17356049.94491846 0 0 0 0 0 115990398.865593 6009836.833820012 6009836.833820012 16880125.98818226 0 0 0 0 0 115400193.3455864 5947481.430027417 5947481.430027417 16422214.71413057 0 0 0 0 0 115246480.347151 6351032.547799237 6351032.547799237 15771951.56201181 0 0 0 0 0 114810499.3634611 6068388.748966734 6068388.748966734 15151301.96869819 0 0 0 0 0 114288613.3461007 5988490.874552926 5988490.874552926 14754082.94543422 0 0 0 0 0 114181337.3258774 6441029.590306161 6441029.590306161 13430330.8114274 0 0 0 0 0 113708119.5543262 6336537.081019958 6336537.081019958 13097595.51896431 0 0 0 0 0 113262220.3949962 6315288.211004061 6315288.211004061 12060940.61153954 0 0 0 0 0 113317230.2459998 6071131.869143233 6071131.869143233 12496328.01187844 0 0 0 0 0 112842440.8686692 6208817.357057323 6208817.357057323 11772499.73374784 0 0 0 0 0 112442342.4736616 6102449.872275196 6102449.872275196 11491678.15590366 0 0 0 0 0 112060958.5133988 5996958.555052035 5996958.555052035 11220396.0020244 0 0 0 0 0 111696944.301793 5892378.854356217 5892378.854356217 10957820.32111479 0 0 0 0 0 111369924.5624084 5838205.110290395 5838205.110290395 10105328.24368556 0 0 0 0 0 111378672.1828213 5670292.993964102 5670292.993964102 10443053.02610156 0 0 0 0 0 111040102.2469327 5734124.033463388 5734124.033463388 9880286.691503812 0 0 0 0 0 110724335.3160578 5631440.471678773 5631440.471678773 9662675.240966052 0 0 0 0 0 110421528.9223554 5530130.717671132 5530130.717671132 9449723.03874048 0 0 0 0 0 110133534.5696461 5429988.049410955 5429988.049410955 9244652.360466223 0 0 0 0 0 109851994.2823836 5340563.199682075 5340563.199682075 9025690.639152929 0 0 0 0 0 109587763.0631042 5159189.178130112 5159189.178130112 8622963.858348342 0 0 0 0 0 109355693.7492411 5119658.386093821 5119658.386093821 8310639.090137357 0 0 0 0 0 109409833.1521247 5098999.302879651 5098999.302879651 8490034.548575886 0 0 0 0 0 109239253.3167223 5088491.764259463 5088491.764259463 7931782.022346706 0 0 0 0 0 114190035.3217191 6320759.018533399 6320759.018533399 14188544.36274635 0 0 0 0 0 228894636.3646418 357615.8964779781 357615.8964779781 25247329.11297137 0 0 0 0 0 224264786.9824384 -3658828.6442544 -3658828.6442544 28528473.76989987 0 0 0 0 0 208042056.101104 -1663964.37814828 -1663964.37814828 30614237.64267542 0 0 0 0 0 203641123.5607329 -4426570.298276015 -4426570.298276015 33231981.87389718 0 0 0 0 0 193034082.2544581 -2670179.055644867 -2670179.055644867 34538534.01538481 0 0 0 0 0 178276049.4166229 -3299881.196147115 -3299881.196147115 35475323.87313054 0 0 0 0 0 184181129.4344924 -1785142.948660117 -1785142.948660117 35678122.24049167 0 0 0 0 0 162092991.4809621 676050.506817732 676050.506817732 35587534.36693378 0 0 0 0 0 171761538.5800526 -2379162.985336909 -2379162.985336909 36019367.17275141 0 0 0 0 0 165858901.7237295 -1468157.591001116 -1468157.591001116 36212913.26393362 0 0 0 0 0 157261754.6577126 1403215.649646423 1403215.649646423 35258336.73500247 0 0 0 0 0 152981401.7309651 2045607.140159067 2045607.140159067 34799248.19549554 0 0 0 0 0 149160368.7672789 2603192.484619502 2603192.484619502 34229427.46255182 0 0 0 0 0 145737325.2307815 3087346.419113523 3087346.419113523 33573624.88855977 0 0 0 0 0 142665776.3113229 3514218.949122876 3514218.949122876 32865078.4763799 0 0 0 0 0 139893829.8601687 3883487.675111222 3883487.675111222 32122522.54596234 0 0 0 0 0 137385958.8107828 4197390.869530852 4197390.869530852 31351322.73446021 0 0 0 0 0 135113204.6332791 4465427.797267222 4465427.797267222 30561943.33669117 0 0 0 0 0 133678880.3726414 3912718.493594498 3912718.493594498 29979687.2867002 0 0 0 0 0 132414820.1128773 5238876.754636657 5238876.754636657 28619120.59281297 0 0 0 0 0 130612288.5913815 5419329.094320123 5419329.094320123 27843154.22522789 0 0 0 0 0 128961476.6019346 5564254.879042338 5564254.879042338 27077433.18663135 0 0 0 0 0 127444289.0204968 5678534.318561142 5678534.318561142 26329454.15994694 0 0 0 0 0 125704219.6365246 6204295.741032813 6204295.741032813 24464422.99959239 0 0 0 0 0 126460318.8595045 5221871.395360188 5221871.395360188 25630967.30536113 0 0 0 0 0 124460419.4963901 6249934.643456514 6249934.643456514 23762752.29611648 0 0 0 0 0 123310219.2909091 6278735.107871659 6278735.107871659 23085137.0811248 0 0 0 0 0 122242122.9298802 6290258.256778969 6290258.256778969 22426396.23879994 0 0 0 0 0 121249212.4498986 6286899.221511522 6286899.221511522 21787085.26068675 0 0 0 0 0 120324135.9172887 6270664.045267159 6270664.045267159 21167347.80855697 0 0 0 0 0 119460587.0142357 6243373.106671766 6243373.106671766 20567124.77828703 0 0 0 0 0 118860219.7739957 5905743.619714576 5905743.619714576 19911472.27378718 0 0 0 0 0 118556003.2056273 6497021.4882572 6497021.4882572 19042824.56524564 0 0 0 0 0 117817798.1777185 6439748.014637853 6439748.014637853 18512743.41052853 0 0 0 0 0 117124506.6674965 6375833.425556732 6375833.425556732 18000574.65095016 0 0 0 0 0 116472215.9402817 6306414.506761169 6306414.506761169 17506039.91821615 0 0 0 0 0 115858093.4070486 6232637.215009911 6232637.215009911 17030436.76445577 0 0 0 0 0 115280955.7931127 6155481.307062699 6155481.307062699 16572119.27022166 0 0 0 0 0 114844577.7190667 5880045.319114347 5880045.319114347 15981734.07282415 0 0 0 0 0 114705914.5009746 6260413.391129008 6260413.391129008 15353306.58473105 0 0 0 0 0 114194182.1020194 6169431.342321563 6169431.342321563 14951728.12235367 0 0 0 0 0 113785343.673184 6051714.004040674 6051714.004040674 13585986.92197592 0 0 0 0 0 113323378.476145 5961374.559904469 5961374.559904469 13248989.1036423 0 0 0 0 0 112884850.0617653 5976753.029966602 5976753.029966602 12197832.95104124 0 0 0 0 0 113258404.9766084 6231090.004941772 6231090.004941772 12777932.41024857 0 0 0 0 0 112476260.8903053 5882559.478882113 5882559.478882113 11904335.32546248 0 0 0 0 0 112086700.908643 5788486.336867866 5788486.336867866 11619586.05237087 0 0 0 0 0 111715603.2213355 5694509.308010211 5694509.308010211 11343025.32211536 0 0 0 0 0 111361881.7110184 5600907.34097172 5600907.34097172 11075421.40229485 0 0 0 0 0 111043447.5452741 5574678.977669975 5574678.977669975 10205930.95186048 0 0 0 0 0 111349371.8727723 5788944.434097029 5788944.434097029 10703785.66752999 0 0 0 0 0 110722690.6523699 5479782.418288977 5479782.418288977 9976278.984067837 0 0 0 0 0 110415553.7704015 5385431.586796824 5385431.586796824 9754128.282779757 0 0 0 0 0 110120824.3579067 5291444.779889164 5291444.779889164 9538785.651597986 0 0 0 0 0 109829622.9927233 5196706.332078629 5196706.332078629 9330611.910928525 0 0 0 0 0 109571832.1615814 5113459.329686133 5113459.329686133 9151635.441356938 0 0 0 0 0 109580666.6704202 5232450.413690447 5232450.413690447 8782346.005822308 0 0 0 0 0 109357909.8926132 5119592.532428774 5119592.532428774 8311150.555054672 0 0 0 0 0 109045126.8620297 4985325.438004594 4985325.438004594 8339115.960981636 0 0 0 0 0 113794808.211559 5907661.308420372 5907661.308420372 14372890.7164892 0 0 0 0 0 214885342.5097497 259702.3359638655 259702.3359638655 28821122.64838861 0 0 0 0 0 210897011.6669627 -2749315.40268477 -2749315.40268477 31558781.74491511 0 0 0 0 0 196521197.1152863 -1256026.611843739 -1256026.611843739 33107897.03530798 0 0 0 0 0 188929868.0277511 -3072740.511798774 -3072740.511798774 34338647.83168993 0 0 0 0 0 176664256.4176612 -902174.4081183196 -902174.4081183196 36213450.69573583 0 0 0 0 0 181410570.7296455 -2770292.529528135 -2770292.529528135 35609896.20314895 0 0 0 0 0 160545126.1374196 -648402.1367688389 -648402.1367688389 36125760.88284101 0 0 0 0 0 170211396.8257106 -184296.5598207238 -184296.5598207238 36384378.59091385 0 0 0 0 0 164399708.7496876 483295.3720213449 483295.3720213449 36337638.63945232 0 0 0 0 0 155911740.9679375 62443.78819015553 62443.78819015553 35839351.99359314 0 0 0 0 0 151754280.0149259 714803.0347308714 714803.0347308714 35395817.29896766 0 0 0 0 0 148041497.4040405 1290796.210138024 1290796.210138024 34840732.19919524 0 0 0 0 0 144731346.3604229 1805476.779598565 1805476.779598565 34197147.81104256 0 0 0 0 0 141737027.4127799 2267809.072326629 2267809.072326629 33489024.14331087 0 0 0 0 0 139023694.8748856 2673218.513343022 2673218.513343022 32735339.85405415 0 0 0 0 0 136574217.6657049 3024509.106310428 3024509.106310428 31952706.91636091 0 0 0 0 0 134361992.6167459 3332529.099713143 3332529.099713143 31150589.75670639 0 0 0 0 0 133047268.4197917 4695909.219955767 4695909.219955767 29770376.40085087 0 0 0 0 0 131736254.238374 4175355.048872239 4175355.048872239 29178615.87523647 0 0 0 0 0 129961931.6018675 4396692.108440323 4396692.108440323 28380973.95447156 0 0 0 0 0 128335565.873199 4581840.829050072 4581840.829050072 27591077.8652414 0 0 0 0 0 126842089.4457165 4731417.053797092 4731417.053797092 26808940.45014156 0 0 0 0 0 125131426.9518271 5330264.873779741 5330264.873779741 24898704.37398957 0 0 0 0 0 126044660.6948633 5765575.714157329 5765575.714157329 25591233.90225824 0 0 0 0 0 123904448.1487516 5416243.728253849 5416243.728253849 24193385.65506008 0 0 0 0 0 122770986.7048951 5480324.607523175 5480324.607523175 23497513.09116557 0 0 0 0 0 121720096.2739816 5525680.320706912 5525680.320706912 22820279.39088477 0 0 0 0 0 120743083.3323716 5554694.340831883 5554694.340831883 22163082.54899218 0 0 0 0 0 119833321.1629916 5569321.895969055 5569321.895969055 21526253.85238884 0 0 0 0 0 118984691.3984966 5571458.946149481 5571458.946149481 20909736.15185474 0 0 0 0 0 118653145.1607156 6206627.98392392 6206627.98392392 19986364.12270442 0 0 0 0 0 118087090.8191912 5883005.923741214 5883005.923741214 19347685.02524644 0 0 0 0 0 117362494.9938143 5851311.293694487 5851311.293694487 18803147.43813279 0 0 0 0 0 116682437.3032279 5811901.819603449 5811901.819603449 18277456.8084738 0 0 0 0 0 116043491.1135746 5765924.134493669 5765924.134493669 17770268.06079881 0 0 0 0 0 115442004.5811294 5714479.836496443 5714479.836496443 17280676.34155286 0 0 0 0 0 114875334.7477831 5658310.863275431 5658310.863275431 16808626.67880104 0 0 0 0 0 114727215.5995317 6073406.635057842 6073406.635057842 16132963.67138193 0 0 0 0 0 114312165.5939884 5807827.243978565 5807827.243978565 15556805.05156011 0 0 0 0 0 113809207.7861599 5733441.213380657 5733441.213380657 15145930.68955969 0 0 0 0 0 113711132.6220827 6221724.736941971 6221724.736941971 13834035.22652577 0 0 0 0 0 113254862.7238843 6120455.430335919 6120455.430335919 13488522.4808328 0 0 0 0 0 112833503.0511716 6126859.858849093 6126859.858849093 12463723.90480578 0 0 0 0 0 112885323.2903527 5870849.905219695 5870849.905219695 12921207.95427224 0 0 0 0 0 112428891.0863674 6023561.517110181 6023561.517110181 12158872.62876684 0 0 0 0 0 112043574.6074176 5920966.917234926 5920966.917234926 11864327.98462331 0 0 0 0 0 111676392.253384 5819174.593398649 5819174.593398649 11579497.52896388 0 0 0 0 0 111326076.4629733 5718516.692631452 5718516.692631452 11304167.26560353 0 0 0 0 0 111017130.8066854 5686710.920101079 5686710.920101079 10458220.67157158 0 0 0 0 0 111024015.1852868 5507987.97996031 5507987.97996031 10816547.29366967 0 0 0 0 0 110699296.1375857 5585657.359865233 5585657.359865233 10221955.04963013 0 0 0 0 0 110394923.2100028 5485634.38915576 5485634.38915576 9993973.286536193 0 0 0 0 0 110100242.3257103 5387840.486595926 5387840.486595926 9770320.181959098 0 0 0 0 0 109811707.2709711 5294003.473926776 5294003.473926776 9542013.525477454 0 0 0 0 0 109554665.852333 5173500.383386035 5173500.383386035 9177102.477019919 0 0 0 0 0 109339437.2234591 5018898.875265764 5018898.875265764 8878114.992827645 0 0 0 0 0 109206561.314813 5060393.101973363 5060393.101973363 8773784.057320468 0 0 0 0 0 109082831.1166222 5021472.728874879 5021472.728874879 8385537.280652144 0 0 0 0 0 113712854.2913008 6076996.304742348 6076996.304742348 14561691.19171988 0 0 0 0 0 204029191.9095345 371751.0418091135 371751.0418091135 31813711.72855799 0 0 0 0 0 195431417.8365126 -3194589.317812685 -3194589.317812685 34670569.21733125 0 0 0 0 0 200199718.3556187 -2534463.042999818 -2534463.042999818 34128568.48308346 0 0 0 0 0 187483347.7161257 -1345476.728883814 -1345476.728883814 35697966.49186604 0 0 0 0 0 174534267.2307373 -2200533.622543734 -2200533.622543734 36358647.66074055 0 0 0 0 0 179299791.9749281 -610761.4838465999 -610761.4838465999 36394198.22208957 0 0 0 0 0 159240178.6401165 1075957.117162924 1075957.117162924 36107641.25569142 0 0 0 0 0 168263101.7233918 -1517956.948593354 -1517956.948593354 36813845.03950226 0 0 0 0 0 162593641.0917886 -858871.9363142843 -858871.9363142843 36833263.87625555 0 0 0 0 0 154710927.2760467 1634614.728878459 1634614.728878459 35707891.39806533 0 0 0 0 0 150659960.9719999 2123822.730606331 2123822.730606331 35199869.61366501 0 0 0 0 0 147039007.9277514 2551669.276126455 2551669.276126455 34568881.05865337 0 0 0 0 0 143806550.3235322 2951572.776107129 2951572.776107129 33888523.88678462 0 0 0 0 0 140888171.2650373 3307189.543958264 3307189.543958264 33164443.75519282 0 0 0 0 0 138248854.9642516 3610905.56756595 3610905.56756595 32402981.63110999 0 0 0 0 0 135864089.9874541 3872821.470843802 3872821.470843802 31610612.71056699 0 0 0 0 0 133705112.9699145 4112476.065750747 4112476.065750747 30820137.92348155 0 0 0 0 0 132330966.4033891 3603020.973017466 3603020.973017466 30340350.9845754 0 0 0 0 0 131160032.2714982 4886604.878149913 4886604.878149913 28976829.36665661 0 0 0 0 0 129435344.3750209 5044489.289089777 5044489.289089777 28188812.8467994 0 0 0 0 0 127855559.41324 5173462.724857155 5173462.724857155 27417310.0618537 0 0 0 0 0 126397559.4679626 5275923.378519375 5275923.378519375 26663458.13379653 0 0 0 0 0 124749366.8126812 5826373.287161997 5826373.287161997 24864001.15829168 0 0 0 0 0 125459717.546735 4854455.725474627 4854455.725474627 26052046.3015295 0 0 0 0 0 123556615.6926299 5869903.823420402 5869903.823420402 24153085.43315419 0 0 0 0 0 122452669.1812951 5896973.0294506 5896973.0294506 23462670.50910289 0 0 0 0 0 121427858.2773934 5909248.379292368 5909248.379292368 22792584.20414165 0 0 0 0 0 120474787.1314872 5908247.771178432 5908247.771178432 22142278.26530981 0 0 0 0 0 119586770.913517 5895745.39528253 5895745.39528253 21511848.6003073 0 0 0 0 0 118757836.0437272 5873303.12624551 5873303.12624551 20901437.64796371 0 0 0 0 0 118191678.8703876 5562692.367088434 5562692.367088434 20313270.65966943 0 0 0 0 0 117896930.5355275 6161671.187799861 6161671.187799861 19424831.73730046 0 0 0 0 0 117187708.9848325 6109670.840353876 6109670.840353876 18882158.71087963 0 0 0 0 0 116521642.8122562 6051702.602837345 6051702.602837345 18358236.68594787 0 0 0 0 0 115895071.5048772 5988812.088799625 5988812.088799625 17851187.51156919 0 0 0 0 0 115305709.7510961 5922133.101403905 5922133.101403905 17361876.72893981 0 0 0 0 0 114749940.1120632 5851493.50830875 5851493.50830875 16891672.32389714 0 0 0 0 0 114340177.1754788 5596281.94236557 5596281.94236557 16349799.2553816 0 0 0 0 0 114206025.5279645 5989277.841873392 5989277.841873392 15705036.75429789 0 0 0 0 0 113711847.4718007 5902986.148570199 5902986.148570199 15291637.84240833 0 0 0 0 0 113330208.1258687 5824302.385065544 5824302.385065544 13998768.10186986 0 0 0 0 0 112885540.9239004 5738548.93269607 5738548.93269607 13645605.08163593 0 0 0 0 0 112469266.2391541 5779722.039314966 5779722.039314966 12607299.21340863 0 0 0 0 0 112823204.7013421 6019839.618311724 6019839.618311724 13154176.5040668 0 0 0 0 0 112075523.5683282 5689538.352742183 5689538.352742183 12300515.26849553 0 0 0 0 0 111700361.8817181 5599368.879866261 5599368.879866261 12000465.6954411 0 0 0 0 0 111343602.9797079 5509428.195370221 5509428.195370221 11710120.70237805 0 0 0 0 0 111003147.09863 5420046.66864389 5420046.66864389 11429436.7495215 0 0 0 0 0 110701057.5854598 5415865.915256806 5415865.915256806 10566244.1159564 0 0 0 0 0 110991407.9226953 5619022.162821736 5619022.162821736 11037978.16355655 0 0 0 0 0 110392168.228822 5324438.483281096 5324438.483281096 10323879.84242441 0 0 0 0 0 110097354.0039612 5234493.551633003 5234493.551633003 10091379.17791586 0 0 0 0 0 109821146.6268155 5146475.358720004 5146475.358720004 9864622.205400832 0 0 0 0 0 109557270.9256877 5058694.721105391 5058694.721105391 9628939.674043877 0 0 0 0 0 109326931.0278233 5031476.003125982 5031476.003125982 9473253.162289942 0 0 0 0 0 109278721.201376 5086634.002908883 5086634.002908883 9159722.217564035 0 0 0 0 0 109093361.381142 4961110.435032247 4961110.435032247 8732579.846504297 0 0 0 0 0 108916498.5877231 4906828.219435481 4906828.219435481 8731608.67336347 0 0 0 0 0 113333852.6079596 5657818.497641888 5657818.497641888 14752810.66820367 0 0 0 0 0 189622767.0114154 -898353.5492317993 -898353.5492317993 34818907.26605968 0 0 0 0 0 194112850.8470167 573471.2707685662 573471.2707685662 34083728.45165668 0 0 0 0 0 185364884.5641483 -2216972.767822519 -2216972.767822519 35435974.23034494 0 0 0 0 0 172564056.3850939 -55362.25364435236 -55362.25364435236 36760515.10889056 0 0 0 0 0 177767917.1378372 -1951996.089865544 -1951996.089865544 36427135.98547792 0 0 0 0 0 157616473.9787916 -228391.319855972 -228391.319855972 36571990.49590931 0 0 0 0 0 166736937.7204018 397920.4671644982 397920.4671644982 36906929.79787147 0 0 0 0 0 161231663.5230741 739692.3382610036 739692.3382610036 36619531.84943633 0 0 0 0 0 153239490.7759963 314056.4121754593 314056.4121754593 36246195.45229704 0 0 0 0 0 149316426.6394066 811581.2357743771 811581.2357743771 35760830.09265263 0 0 0 0 0 145894163.6633659 1261802.820375097 1261802.820375097 35165211.59233597 0 0 0 0 0 142755863.3160717 1694487.225809063 1694487.225809063 34490082.21168378 0 0 0 0 0 139918508.2455966 2075652.624637883 2075652.624637883 33767983.67799425 0 0 0 0 0 137364154.0325363 2418703.150699109 2418703.150699109 32998623.00577279 0 0 0 0 0 135074291.9379208 2725092.219061757 2725092.219061757 32201060.44451623 0 0 0 0 0 132941529.8301234 2997378.469333515 2997378.469333515 31393224.05604189 0 0 0 0 0 131730406.2838003 4309693.428368184 4309693.428368184 30016305.22424336 0 0 0 0 0 130482870.7336268 3833938.788814798 3833938.788814798 29529169.80445883 0 0 0 0 0 128791868.0997445 4032250.074930757 4032250.074930757 28721898.09012358 0 0 0 0 0 127243043.5180277 4198168.332617178 4198168.332617178 27919229.8993986 0 0 0 0 0 125816033.9882571 4334731.601987597 4334731.601987597 27128362.84991376 0 0 0 0 0 124192229.3593435 4957296.51874617 4957296.51874617 25311678.70623656 0 0 0 0 0 125056958.5557338 5352218.611799353 5352218.611799353 25901960.82315093 0 0 0 0 0 123019239.9236394 5038204.10114266 5038204.10114266 24586709.24004081 0 0 0 0 0 121934257.444161 5100429.658637248 5100429.658637248 23879263.00090333 0 0 0 0 0 120927489.3389429 5145897.050570244 5145897.050570244 23190982.3035274 0 0 0 0 0 119991320.1303233 5176714.86120668 5176714.86120668 22523089.62573807 0 0 0 0 0 119119305.9821936 5194667.378934752 5194667.378934752 21875979.63900062 0 0 0 0 0 118305689.0490288 5201309.233122449 5201309.233122449 21249451.31508088 0 0 0 0 0 117982735.4439492 5842221.736825635 5842221.736825635 20310815.46245758 0 0 0 0 0 117449515.6064739 5544497.720264397 5544497.720264397 19736776.19110546 0 0 0 0 0 116753956.7919493 5518145.12284099 5518145.12284099 19180043.38802291 0 0 0 0 0 116101393.1029833 5484756.887377851 5484756.887377851 18642498.18413058 0 0 0 0 0 115488018.8960536 5445397.032059059 5445397.032059059 18123904.52520979 0 0 0 0 0 114910170.3986021 5400928.01365199 5400928.01365199 17622683.38509008 0 0 0 0 0 114367060.6248142 5351744.183360336 5351744.183360336 17137962.74616856 0 0 0 0 0 114219066.4227609 5777879.718679711 5777879.718679711 16449773.00472724 0 0 0 0 0 113826493.7652484 5529407.553208456 5529407.553208456 15913515.81609113 0 0 0 0 0 113342141.0429724 5460991.271746605 5460991.271746605 15492931.76848999 0 0 0 0 0 113251840.0331799 5982854.084051696 5982854.084051696 14196692.45656361 0 0 0 0 0 112813903.1244947 5886988.714347914 5886988.714347914 13839688.77639068 0 0 0 0 0 112413522.0636009 5919901.925998505 5919901.925998505 12826057.59367083 0 0 0 0 0 112463646.188202 5651655.794349905 5651655.794349905 13306261.86594602 0 0 0 0 0 112024083.958214 5821068.615355971 5821068.615355971 12507729.59470316 0 0 0 0 0 111653554.1158938 5722964.570204848 5722964.570204848 12200723.30232261 0 0 0 0 0 111300651.3128656 5626077.055544495 5626077.055544495 11904523.34812845 0 0 0 0 0 110963748.1336344 5530181.063221278 5530181.063221278 11618036.31292009 0 0 0 0 0 110671633.0189384 5520683.232914126 5520683.232914126 10781119.50285191 0 0 0 0 0 110677900.6020628 5331329.180500085 5331329.180500085 11158083.33627057 0 0 0 0 0 110365304.6266012 5423526.112955173 5423526.112955173 10533179.00315925 0 0 0 0 0 110073337.9214316 5327176.204058765 5327176.204058765 10290742.11775396 0 0 0 0 0 109795462.6805211 5231041.936918858 5231041.936918858 10057393.25387863 0 0 0 0 0 109506774.4104451 5132225.570628482 5132225.570628482 9845554.575973306 0 0 0 0 0 109355044.9704211 5039120.434547261 5039120.434547261 9485365.489617636 0 0 0 0 0 109220443.8948539 5010478.836277097 5010478.836277097 9112230.99071534 0 0 0 0 0 109077813.8602373 5022718.192678954 5022718.192678954 8952913.97637577 0 0 0 0 0 113248308.910726 5815874.026081107 5815874.026081107 14889320.32352804 0 0 0 0 0 190084982.602423 -1818503.248481443 -1818503.248481443 35017098.48805422 0 0 0 0 0 181965938.7392584 -318579.1078096879 -318579.1078096879 36112577.62245835 0 0 0 0 0 171031263.6930505 -1550641.903350224 -1550641.903350224 36938137.52721249 0 0 0 0 0 175132093.8248865 167004.602855813 167004.602855813 36848399.65267032 0 0 0 0 0 156378933.3507699 1260582.442037984 1260582.442037984 36461972.82839575 0 0 0 0 0 164294877.5679214 -803095.3558334986 -803095.3558334986 37317917.1008821 0 0 0 0 0 159346076.0707557 -319560.4670569109 -319560.4670569109 37015766.34805863 0 0 0 0 0 152166309.5292614 1680200.666711596 1680200.666711596 36002846.61824586 0 0 0 0 0 148340229.4017243 2009609.061551273 2009609.061551273 35395397.51764773 0 0 0 0 0 144963276.1890843 2383881.473358398 2383881.473358398 34751429.33087812 0 0 0 0 0 141894775.5109895 2719252.512806263 2719252.512806263 34072659.86652125 0 0 0 0 0 139140848.7510136 2998665.574390044 2998665.574390044 33307860.15753801 0 0 0 0 0 136640503.4185946 3244265.128966224 3244265.128966224 32515378.78144763 0 0 0 0 0 134382173.1925553 3498391.537065139 3498391.537065139 31767825.95602316 0 0 0 0 0 132321668.5229357 3693605.719433398 3693605.719433398 30950572.14561487 0 0 0 0 0 131022382.8120998 3232773.938393758 3232773.938393758 30577657.01248499 0 0 0 0 0 129930459.2624373 4478937.214872289 4478937.214872289 29214878.9076817 0 0 0 0 0 128284761.3884542 4620819.041193666 4620819.041193666 28421747.46736781 0 0 0 0 0 126776098.1318612 4738712.515973657 4738712.515973657 27647584.52125499 0 0 0 0 0 125377699.8654146 4832308.398182472 4832308.398182472 26882512.60816289 0 0 0 0 0 123819944.6274545 5412761.421624081 5412761.421624081 25167642.45251924 0 0 0 0 0 124495686.0594272 4453410.39019649 4453410.39019649 26373178.64462895 0 0 0 0 0 122676938.4579168 5456027.399696338 5456027.399696338 24449871.91644071 0 0 0 0 0 121618995.2779456 5484897.768098671 5484897.768098671 23752896.53674807 0 0 0 0 0 120636920.3438558 5500416.890613634 5500416.890613634 23075610.72815021 0 0 0 0 0 119723368.9879376 5504112.896570537 5504112.896570537 22418408.87119251 0 0 0 0 0 118872032.0475091 5497434.094447259 5497434.094447259 21781274.08918146 0 0 0 0 0 118077267.1125166 5481725.533347567 5481725.533347567 21164315.8226897 0 0 0 0 0 117545288.5741145 5198064.237868299 5198064.237868299 20643430.05860006 0 0 0 0 0 117256898.4279654 5803675.249820287 5803675.249820287 19739765.5162286 0 0 0 0 0 116576401.6120713 5758667.705575574 5758667.705575574 19187586.74368307 0 0 0 0 0 115937395.4881724 5708316.594049335 5708316.594049335 18654086.886563 0 0 0 0 0 115335800.2370512 5653684.562696178 5653684.562696178 18139381.9375778 0 0 0 0 0 114770001.0652394 5594529.895564076 5594529.895564076 17641150.61865335 0 0 0 0 0 114238362.1942687 5533751.205783084 5533751.205783084 17171583.69278915 0 0 0 0 0 113849356.0945542 5294391.884550603 5294391.884550603 16665074.31692416 0 0 0 0 0 113716921.9570861 5699547.485671475 5699547.485671475 16009199.92950532 0 0 0 0 0 113242856.1156588 5619086.578039329 5619086.578039329 15584315.91241402 0 0 0 0 0 112888475.6228681 5580225.524777488 5580225.524777488 14367238.58747305 0 0 0 0 0 112463610.2720311 5499681.153574026 5499681.153574026 14000572.81872378 0 0 0 0 0 112064184.3960181 5565752.972874815 5565752.972874815 12978330.15213422 0 0 0 0 0 112398518.9753723 5791349.653659661 5791349.653659661 13490730.94112992 0 0 0 0 0 111685494.5056244 5480710.40660527 5480710.40660527 12657185.01014915 0 0 0 0 0 111324915.8892584 5395579.730057146 5395579.730057146 12344052.57779735 0 0 0 0 0 110981470.0017735 5310335.219262806 5310335.219262806 12042183.26365382 0 0 0 0 0 110653882.936196 5225792.853867039 5225792.853867039 11750262.05190274 0 0 0 0 0 110366951.1527319 5243163.061753618 5243163.061753618 10895481.37541389 0 0 0 0 0 110641869.6028782 5435213.611607533 5435213.611607533 11341105.73335102 0 0 0 0 0 110069924.2133234 5155530.975088911 5155530.975088911 10641633.70351554 0 0 0 0 0 109785165.6707118 5068313.500286168 5068313.500286168 10397114.67872704 0 0 0 0 0 109519429.4321758 4982816.670305657 4982816.670305657 10161940.69887176 0 0 0 0 0 109300412.8789252 4933150.88174377 4933150.88174377 9966374.429790758 0 0 0 0 0 109159658.427506 4929594.424478657 4929594.424478657 9843969.553272383 0 0 0 0 0 108998681.3582702 4892183.070762444 4892183.070762444 9530034.107021648 0 0 0 0 0 108794748.4926201 4809744.761617098 4809744.761617098 9148008.461872917 0 0 0 0 0 112888184.3526684 5391688.621066068 5391688.621066068 15087829.82846585 0 0 0 0 0 185751438.6466976 645680.9161171332 645680.9161171332 35468332.63614893 0 0 0 0 0 181997780.6268723 -1481190.692093775 -1481190.692093775 36076352.35008619 0 0 0 0 0 168870067.2572211 430671.8729932968 430671.8729932968 37075601.18961659 0 0 0 0 0 174605933.159956 -1229090.184710648 -1229090.184710648 36899648.92250453 0 0 0 0 0 154862878.5311982 -56820.91552775831 -56820.91552775831 36791477.02527221 0 0 0 0 0 163680310.0163881 274524.955618392 274524.955618392 37152105.15681771 0 0 0 0 0 157822454.1470648 965882.1430929601 965882.1430929601 36898631.92017943 0 0 0 0 0 150552239.5421887 387587.5055315163 387587.5055315163 36492182.98166598 0 0 0 0 0 147060108.9145731 761292.1679164593 761292.1679164593 35935901.68134467 0 0 0 0 0 143806936.7471892 1133228.209412886 1133228.209412886 35319861.80276223 0 0 0 0 0 140896288.2282506 1483364.097897893 1483364.097897893 34623906.34899093 0 0 0 0 0 138202243.9609881 1815827.901417439 1815827.901417439 33926575.33149619 0 0 0 0 0 135834675.1075846 2102156.44075401 2102156.44075401 33139124.78757051 0 0 0 0 0 133571157.2807406 2365087.450765592 2365087.450765592 32307837.2778183 0 0 0 0 0 131576534.0072414 2601367.969150749 2601367.969150749 31513036.01591616 0 0 0 0 0 130447327.5339252 3871585.750150085 3871585.750150085 30143425.3664754 0 0 0 0 0 129265714.4043258 3441049.042299472 3441049.042299472 29760048.55389028 0 0 0 0 0 127657491.225255 3621775.815084777 3621775.815084777 28947507.64123382 0 0 0 0 0 126182189.9918618 3773833.505731019 3773833.505731019 28139840.64881758 0 0 0 0 0 124820269.621636 3906568.851174595 3906568.851174595 27352301.89669356 0 0 0 0 0 123282711.3826656 4551010.177529702 4551010.177529702 25620996.02736889 0 0 0 0 0 124096665.2404957 4907875.991480246 4907875.991480246 26119459.93768106 0 0 0 0 0 122162806.5685606 4630505.073888838 4630505.073888838 24887483.75694202 0 0 0 0 0 121125299.2956009 4693374.099789069 4693374.099789069 24171936.37860051 0 0 0 0 0 120161885.1456518 4741391.879672123 4741391.879672123 23476960.92883687 0 0 0 0 0 119265704.2583769 4776285.228406399 4776285.228406399 22802636.09260019 0 0 0 0 0 118430766.9939791 4799545.751399511 4799545.751399511 22149197.58701643 0 0 0 0 0 117651341.7860032 4812548.248173225 4812548.248173225 21516569.41851595 0 0 0 0 0 117334096.7953129 5458089.155050833 5458089.155050833 20567461.88110258 0 0 0 0 0 116833537.052883 5186093.825792788 5186093.825792788 20057623.26900528 0 0 0 0 0 116166412.2117636 5166627.989257623 5166627.989257623 19492054.38308131 0 0 0 0 0 115540193.8856878 5140676.485878903 5140676.485878903 18945837.53750059 0 0 0 0 0 114951538.2291763 5108573.728497191 5108573.728497191 18417441.90308201 0 0 0 0 0 114397185.3927356 5071873.527822068 5071873.527822068 17908637.57547458 0 0 0 0 0 113870367.6585964 5026895.386951513 5026895.386951513 17413668.26256692 0 0 0 0 0 113726765.3089658 5466159.477763275 5466159.477763275 16720642.35624112 0 0 0 0 0 113353973.8025149 5233796.369664091 5233796.369664091 16224159.3279961 0 0 0 0 0 112892860.5454238 5173454.647142526 5173454.647142526 15793617.41066965 0 0 0 0 0 112808209.0341239 5728042.065368133 5728042.065368133 14512699.69259478 0 0 0 0 0 112385700.7207407 5638423.319278564 5638423.319278564 14146033.51406639 0 0 0 0 0 112004761.7204376 5697061.752955317 5697061.752955317 13148477.27586254 0 0 0 0 0 112056354.5278801 5418310.105185435 5418310.105185435 13650157.65017941 0 0 0 0 0 111630207.8841801 5603689.562495534 5603689.562495534 12818250.75017695 0 0 0 0 0 111273782.9009151 5511190.109801928 5511190.109801928 12502336.03607754 0 0 0 0 0 110934777.8921588 5419716.109492647 5419716.109492647 12196516.33112403 0 0 0 0 0 110610807.2096125 5329113.810663296 5329113.810663296 11900391.9033552 0 0 0 0 0 110334236.2540904 5341095.798272075 5341095.798272075 11073960.03357873 0 0 0 0 0 110340506.0780447 5141713.172107946 5141713.172107946 11467888.04456644 0 0 0 0 0 110039549.5677353 5247555.052485548 5247555.052485548 10815010.56766011 0 0 0 0 0 109758909.0004605 5153779.407934193 5153779.407934193 10565225.24426716 0 0 0 0 0 109490244.9944818 5068320.184482254 5068320.184482254 10292423.94371578 0 0 0 0 0 109273328.8581266 4984913.901628044 4984913.901628044 9935312.523141814 0 0 0 0 0 109101632.982448 4956100.297468342 4956100.297468342 9628122.46213099 0 0 0 0 0 108943554.6609905 4912498.642430971 4912498.642430971 9324759.427366722 0 0 0 0 0 112797773.5022918 5539560.288506385 5539560.288506385 15171725.37892987 0 0 0 0 0 178149093.6162707 696730.8903084204 696730.8903084204 36427478.14637903 0 0 0 0 0 168015449.4181115 -1070886.650912431 -1070886.650912431 37391937.97567721 0 0 0 0 0 171358930.2121064 847106.2446637934 847106.2446637934 36946021.82224438 0 0 0 0 0 153735934.7716049 1340655.035190096 1340655.035190096 36717283.92643885 0 0 0 0 0 159604141.6226046 542112.7724517782 542112.7724517782 37330106.64603687 0 0 0 0 0 159043975.0819767 -380930.1666289163 -380930.1666289163 37207855.82206732 0 0 0 0 0 149659703.7188783 1432578.53737228 1432578.53737228 35993457.12325928 0 0 0 0 0 146081304.1340069 1820643.884555717 1820643.884555717 35483126.2356098 0 0 0 0 0 142938209.3534841 2113835.516981266 2113835.516981266 34770213.55126429 0 0 0 0 0 140055195.0584339 2391322.80537241 2391322.80537241 34090301.95725466 0 0 0 0 0 137432749.2041609 2581109.87473974 2581109.87473974 33305883.324056 0 0 0 0 0 135061227.1092737 2856927.196838856 2856927.196838856 32588246.8388349 0 0 0 0 0 132938370.3784492 3050918.046992524 3050918.046992524 31774115.87775722 0 0 0 0 0 130984576.7989469 3229304.051755578 3229304.051755578 30968642.34285678 0 0 0 0 0 129756414.2461264 2814457.720855999 2814457.720855999 30695223.88173112 0 0 0 0 0 128734414.4522873 4025222.251223281 4025222.251223281 29339338.72583501 0 0 0 0 0 127168244.2755231 4158332.082542406 4158332.082542406 28552044.82529219 0 0 0 0 0 125727525.9004233 4268888.035496217 4268888.035496217 27771369.86544343 0 0 0 0 0 124396660.1927419 4361512.866974268 4361512.866974268 27003161.03208204 0 0 0 0 0 122915839.7194915 4968658.980926932 4968658.980926932 25379299.16698808 0 0 0 0 0 123562272.4769072 4020774.268240782 4020774.268240782 26586992.49635029 0 0 0 0 0 121824246.730457 5015225.391242423 5015225.391242423 24659288.6398481 0 0 0 0 0 120812301.2557018 5048432.966015497 5048432.966015497 23959679.86163351 0 0 0 0 0 119872368.8659366 5069516.232179422 5069516.232179422 23279378.20698288 0 0 0 0 0 118997696.8928633 5079838.19970874 5079838.19970874 22619012.24211793 0 0 0 0 0 118182380.1268677 5080846.825580498 5080846.825580498 21978928.15103494 0 0 0 0 0 117421037.243035 5073470.293229197 5073470.293229197 21359164.51203109 0 0 0 0 0 116922652.4446711 4816327.79740907 4816327.79740907 20904540.02983835 0 0 0 0 0 116638090.7924787 5427492.85166855 5427492.85166855 19990177.52992415 0 0 0 0 0 115985489.3320643 5391048.053670634 5391048.053670634 19431975.1657103 0 0 0 0 0 115372723.7543182 5349464.982603851 5349464.982603851 18893037.11214905 0 0 0 0 0 114796023.15963 5303308.768099477 5303308.768099477 18372104.36036019 0 0 0 0 0 114254356.4796906 5254560.436197679 5254560.436197679 17879120.98584177 0 0 0 0 0 113741730.665758 5198911.516886781 5198911.516886781 17400037.26642965 0 0 0 0 0 113373114.1470986 4976120.657746209 4976120.657746209 16936997.64699261 0 0 0 0 0 113242745.7765189 5392627.439310724 5392627.439310724 16263638.11684062 0 0 0 0 0 112790093.3612574 5322175.771057217 5322175.771057217 15829623.19148744 0 0 0 0 0 112459686.8230567 5320773.533242906 5320773.533242906 14692213.60053997 0 0 0 0 0 112053056.9255785 5247538.683552455 5247538.683552455 14315194.0500585 0 0 0 0 0 111670854.9499849 5337910.731321318 5337910.731321318 13311607.58584635 0 0 0 0 0 111984451.3030722 5548577.411505202 5548577.411505202 13786257.66013893 0 0 0 0 0 111308100.8149623 5259129.518711147 5259129.518711147 12977518.39320869 0 0 0 0 0 110961943.0717441 5179488.296222419 5179488.296222419 12650708.39033548 0 0 0 0 0 110629633.788729 5099310.914316805 5099310.914316805 12339443.72267682 0 0 0 0 0 110313725.4445279 5019841.078404165 5019841.078404165 12038949.65187443 0 0 0 0 0 110040872.9622325 5057897.295182192 5057897.295182192 11194823.35928289 0 0 0 0 0 110301041.3296606 5239089.184532803 5239089.184532803 11614344.69880355 0 0 0 0 0 109754773.0764275 4974387.187278215 4974387.187278215 10931160.86113188 0 0 0 0 0 109478347.7363867 4890374.029523872 4890374.029523872 10674949.31916943 0 0 0 0 0 109243094.4120561 4827222.20153189 4827222.20153189 10461008.69595293 0 0 0 0 0 109050806.2895613 4805052.941569186 4805052.941569186 10252697.00112287 0 0 0 0 0 108869144.8707865 4757394.912249873 4757394.912249873 9945416.378593354 0 0 0 0 0 108698796.1312679 4715098.78146048 4715098.78146048 9647387.846466875 0 0 0 0 0 112458044.743838 5112789.103065763 5112789.103065763 15379165.12149187 0 0 0 0 0 164539480.3603791 921791.5929105934 921791.5929105934 37464907.2396773 0 0 0 0 0 151371732.1922801 150485.4724633708 150485.4724633708 37039357.21452564 0 0 0 0 0 162898895.5851383 -734312.0018675717 -734312.0018675717 37466474.45593262 0 0 0 0 0 155086539.0929417 560153.6477584558 560153.6477584558 37295408.09703367 0 0 0 0 0 148263172.8300674 513952.4257195725 513952.4257195725 36481954.5077277 0 0 0 0 0 145172133.6685692 619442.3940832531 619442.3940832531 35875358.57197306 0 0 0 0 0 141879901.0891872 870297.0989840046 870297.0989840046 35349959.14283164 0 0 0 0 0 138986278.3138366 1216038.510022696 1216038.510022696 34692913.51548742 0 0 0 0 0 136561278.7363121 1600863.379472855 1600863.379472855 33907034.12025803 0 0 0 0 0 134446938.1767866 1675462.420241304 1675462.420241304 33038048.86930716 0 0 0 0 0 132136376.9364199 1947056.560334563 1947056.560334563 32330291.09802432 0 0 0 0 0 130246854.1667344 2164277.827719803 2164277.827719803 31514846.75617211 0 0 0 0 0 129204514.5826412 3390059.224361253 3390059.224361253 30153611.89928083 0 0 0 0 0 128094056.472885 3006863.828254293 3006863.828254293 29876452.69655621 0 0 0 0 0 126566137.7265538 3175320.335638522 3175320.335638522 29060341.12296858 0 0 0 0 0 125161445.8459594 3323219.948723146 3323219.948723146 28260409.73725129 0 0 0 0 0 123866826.1826174 3451249.560101433 3451249.560101433 27470641.07750358 0 0 0 0 0 122407897.3862817 4118174.565929315 4118174.565929315 25832684.98973445 0 0 0 0 0 123173779.7504978 4438311.970530678 4438311.970530678 26240418.0440564 0 0 0 0 0 121338235.6456623 4199346.762459187 4199346.762459187 25096852.76005032 0 0 0 0 0 120346623.1390213 4265203.342053754 4265203.342053754 24379185.35335038 0 0 0 0 0 119425457.116435 4317729.902063979 4317729.902063979 23682076.66664405 0 0 0 0 0 118568580.150671 4358647.799257423 4358647.799257423 23005385.05811789 0 0 0 0 0 117769355.2527823 4389010.34479431 4389010.34479431 22349536.471296 0 0 0 0 0 117022972.0846416 4409691.484719848 4409691.484719848 21714328.88589848 0 0 0 0 0 116708991.7463227 5058625.18820279 5058625.18820279 20759311.17663436 0 0 0 0 0 116240521.0095653 4812030.155984328 4812030.155984328 20313031.96503788 0 0 0 0 0 115600977.0746064 4800637.016385933 4800637.016385933 19741495.55477034 0 0 0 0 0 114999953.3343711 4782709.131946784 4782709.131946784 19188837.62568896 0 0 0 0 0 114435777.4112161 4759638.124040114 4759638.124040114 18656541.88964394 0 0 0 0 0 113900063.1832036 4726782.744274324 4726782.744274324 18134220.4668594 0 0 0 0 0 113390614.3375117 4688607.04034162 4688607.04034162 17639268.20689144 0 0 0 0 0 113248749.327474 5137257.128905558 5137257.128905558 16930698.19218558 0 0 0 0 0 112901599.0709371 4926430.466576657 4926430.466576657 16491110.44746674 0 0 0 0 0 112459427.0133617 4875664.802917114 4875664.802917114 16052305.9858349 0 0 0 0 0 112376965.4074214 5459942.057008025 5459942.057008025 14785460.9956028 0 0 0 0 0 111971980.9524187 5377640.049649663 5377640.049649663 14405348.77207109 0 0 0 0 0 111606053.4165109 5459976.005586033 5459976.005586033 13431464.18757984 0 0 0 0 0 111663576.585186 5173197.397753654 5173197.397753654 13951131.14038588 0 0 0 0 0 111247728.7538236 5373550.611870172 5373550.611870172 13091073.03306174 0 0 0 0 0 110905059.0889751 5287954.686282407 5287954.686282407 12768706.01585965 0 0 0 0 0 110578819.8773019 5202167.03283872 5202167.03283872 12455282.50479013 0 0 0 0 0 110267462.8061252 5117048.063332397 5117048.063332397 12151758.17050638 0 0 0 0 0 110004969.4491562 5149586.33412877 5149586.33412877 11337850.20529503 0 0 0 0 0 110012122.8901754 4940924.015506111 4940924.015506111 11747102.70360585 0 0 0 0 0 109721725.0067718 5060524.790363068 5060524.790363068 11070661.66839653 0 0 0 0 0 109446200.4713521 4973967.377863464 4973967.377863464 10811118.94959231 0 0 0 0 0 109199041.5025409 4902465.648329054 4902465.648329054 10440712.5746373 0 0 0 0 0 108996447.1084392 4839120.703272058 4839120.703272058 10087631.81815187 0 0 0 0 0 108819362.6551363 4791686.240542208 4791686.240542208 9774191.445222046 0 0 0 0 0 112362699.4598478 5251574.224393268 5251574.224393268 15413293.60678801 0 0 0 0 0 154953874.7309567 520657.6657668996 520657.6657668996 36860436.69580782 0 0 0 0 0 151116641.4822519 580743.6229608492 580743.6229608492 36303402.42632009 0 0 0 0 0 159193792.8749777 643892.7921213071 643892.7921213071 37450003.63045239 0 0 0 0 0 157879499.2578299 -560285.8043001614 -560285.8043001614 37546488.34784155 0 0 0 0 0 147222343.129496 1319310.789305512 1319310.789305512 36133026.13044007 0 0 0 0 0 143901095.8709679 1534504.781186979 1534504.781186979 35535986.58189794 0 0 0 0 0 140911117.0794983 1769901.950158538 1769901.950158538 34696633.30327163 0 0 0 0 0 138446479.9563341 1780094.0270172 1780094.0270172 33848667.19913407 0 0 0 0 0 135724748.7388994 2253623.618826015 2253623.618826015 33455036.45913471 0 0 0 0 0 133598434.462432 2387691.538638453 2387691.538638453 32515604.44002794 0 0 0 0 0 131536608.0629973 2562356.390180842 2562356.390180842 31665042.60139925 0 0 0 0 0 129689498.3271288 2717793.108679495 2717793.108679495 30872760.96955316 0 0 0 0 0 128553834.9275348 2353990.473564736 2353990.473564736 30699558.92107935 0 0 0 0 0 127580852.8934131 3537048.13617524 3537048.13617524 29357136.28031933 0 0 0 0 0 126089809.6533418 3664488.192577659 3664488.192577659 28575433.9401494 0 0 0 0 0 124716361.3744079 3773856.803636579 3773856.803636579 27796954.1922215 0 0 0 0 0 123448515.8140377 3868662.188106756 3868662.188106756 27032429.5801585 0 0 0 0 0 122046368.0145873 4503009.137779457 4503009.137779457 25503731.32917613 0 0 0 0 0 122669071.7373828 3566552.148240452 3566552.148240452 26709085.84260438 0 0 0 0 0 121002955.4065592 4554417.205999803 4554417.205999803 24786286.49224571 0 0 0 0 0 120035363.596698 4593588.849706871 4593588.849706871 24087904.15715566 0 0 0 0 0 119136538.0500752 4621761.408819455 4621761.408819455 23407487.64971996 0 0 0 0 0 118299837.9474025 4640707.212236085 4640707.212236085 22748155.38288401 0 0 0 0 0 117519493.8251786 4650792.039957933 4650792.039957933 22108797.19929802 0 0 0 0 0 116790551.4735058 4652874.257659366 4652874.257659366 21489386.93467419 0 0 0 0 0 116325094.7062963 4421738.583857787 4421738.583857787 21099759.78451455 0 0 0 0 0 116042135.8166216 5037312.891786077 5037312.891786077 20179041.07048813 0 0 0 0 0 115416684.2429834 5010357.427127679 5010357.427127679 19617961.36331369 0 0 0 0 0 114828670.5481526 4978203.840928576 4978203.840928576 19076390.82402134 0 0 0 0 0 114278159.2868452 4942150.233059522 4942150.233059522 18557785.62983788 0 0 0 0 0 113754274.4641672 4899773.999641045 4899773.999641045 18062279.59997089 0 0 0 0 0 113256739.4681055 4850679.139352626 4850679.139352626 17575225.24623655 0 0 0 0 0 112915963.8793032 4650203.276401126 4650203.276401126 17168345.00591125 0 0 0 0 0 112785138.616464 5075785.329563949 5075785.329563949 16473888.89765093 0 0 0 0 0 112352214.0897799 5014573.122360997 5014573.122360997 16032837.75043722 0 0 0 0 0 112046225.60203 5049162.750789856 5049162.750789856 14972336.55714268 0 0 0 0 0 111655705.7363027 4983786.114548812 4983786.114548812 14587368.12652307 0 0 0 0 0 111294283.0588166 5100481.105526458 5100481.105526458 13601530.48500552 0 0 0 0 0 111586302.8716751 5295033.692676447 5295033.692676447 14034854.92180092 0 0 0 0 0 110944333.5698218 5028149.806637488 5028149.806637488 13258321.31045932 0 0 0 0 0 110610674.5545771 4953332.993403316 4953332.993403316 12920777.56383744 0 0 0 0 0 110288361.9435293 4878259.058676488 4878259.058676488 12600591.27886292 0 0 0 0 0 109983716.446689 4804172.538252328 4804172.538252328 12294239.71254857 0 0 0 0 0 109723304.6716518 4861839.443530907 4861839.443530907 11464961.20465139 0 0 0 0 0 109969209.2110125 5032339.875370302 5032339.875370302 11858108.05453021 0 0 0 0 0 109445412.0279648 4782230.397713793 4782230.397713793 11192390.25791007 0 0 0 0 0 109175889.6747766 4706246.921899227 4706246.921899227 10935213.98826124 0 0 0 0 0 108956560.8494703 4658157.65224112 4658157.65224112 10734164.83755978 0 0 0 0 0 108764741.9249654 4628049.759024475 4628049.759024475 10425985.73134 0 0 0 0 0 108587757.8141868 4598456.131376816 4598456.131376816 10089389.81385829 0 0 0 0 0 112042959.7081408 4822826.941178766 4822826.941178766 15625934.82701481 0 0 0 0 0 152720894.5068748 -492794.7750478559 -492794.7750478559 37002822.62250918 0 0 0 0 0 148419652.7873597 947135.0663585543 947135.0663585543 36789566.04691464 0 0 0 0 0 155086014.5252038 609003.9328011256 609003.9328011256 37071040.8014841 0 0 0 0 0 146998561.6133168 103278.5404345115 103278.5404345115 36332021.73212574 0 0 0 0 0 143520030.8859798 258647.91848311 258647.91848311 35866486.49806044 0 0 0 0 0 140544140.2697918 352369.816540552 352369.816540552 35191947.15970347 0 0 0 0 0 136743525.1370189 1631348.705626056 1631348.705626056 34416973.46534883 0 0 0 0 0 136221218.6938687 1188962.086019609 1188962.086019609 33454603.43889229 0 0 0 0 0 132705802.3673422 1320883.145911532 1320883.145911532 33025939.08750966 0 0 0 0 0 130742820.88894 1502964.115851806 1502964.115851806 32172954.62076437 0 0 0 0 0 128996685.262342 1696180.897558517 1696180.897558517 31395541.6878093 0 0 0 0 0 128014211.6400314 2879993.355201013 2879993.355201013 30050518.82105255 0 0 0 0 0 126969299.8693058 2543529.31083086 2543529.31083086 29883164.31125647 0 0 0 0 0 125518994.6829666 2705098.161993782 2705098.161993782 29073757.65042094 0 0 0 0 0 124187271.3754431 2848352.036770544 2848352.036770544 28280322.19192743 0 0 0 0 0 122956203.9759169 2979049.754410933 2979049.754410933 27498434.6555865 0 0 0 0 0 121567701.9197041 3666408.579768874 3666408.579768874 25957160.45807014 0 0 0 0 0 122285509.9322485 3950310.483136813 3950310.483136813 26276939.48913722 0 0 0 0 0 120546700.3724205 3750711.957982831 3750711.957982831 25222193.35372004 0 0 0 0 0 119600271.2374714 3821154.080851422 3821154.080851422 24505978.32045332 0 0 0 0 0 118720535.329752 3880412.260338401 3880412.260338401 23810967.30445372 0 0 0 0 0 117900929.6937231 3928936.092161326 3928936.092161326 23135406.24385855 0 0 0 0 0 117136011.8691324 3967472.597234192 3967472.597234192 22480566.20526025 0 0 0 0 0 116421708.4969123 3996866.798193558 3996866.798193558 21846216.39170936 0 0 0 0 0 116108763.0382771 4647919.966558411 4647919.966558411 20889708.17489112 0 0 0 0 0 115671581.6755551 4426096.494521908 4426096.494521908 20505414.57777494 0 0 0 0 0 115058381.8413558 4423553.052633304 4423553.052633304 19930831.88132772 0 0 0 0 0 114481229.8936739 4414790.888528515 4414790.888528515 19375473.06130892 0 0 0 0 0 113936619.8252513 4396388.118204246 4396388.118204246 18834841.7731167 0 0 0 0 0 113418971.7185879 4371410.746278241 4371410.746278241 18312368.35253429 0 0 0 0 0 112932756.1071862 4344520.057126406 4344520.057126406 17820701.53442363 0 0 0 0 0 112787563.6735595 4800056.772368048 4800056.772368048 17096384.13924462 0 0 0 0 0 112466488.7130183 4609827.649354969 4609827.649354969 16708630.53482688 0 0 0 0 0 112044192.0919538 4568853.724017526 4568853.724017526 16263238.22136318 0 0 0 0 0 111958456.6818068 5179687.230081658 5179687.230081658 15016146.36641485 0 0 0 0 0 111569364.6239459 5106442.134596306 5106442.134596306 14625903.63682279 0 0 0 0 0 111222489.0142864 5214385.691863319 5214385.691863319 13674352.56292451 0 0 0 0 0 111282100.0813486 4918740.051253899 4918740.051253899 14214256.47760835 0 0 0 0 0 110877826.0969867 5134675.16899824 5134675.16899824 13329619.78411303 0 0 0 0 0 110548393.0147939 5055544.839292735 5055544.839292735 13001741.62592512 0 0 0 0 0 110233787.0690545 4975147.551498314 4975147.551498314 12684748.76567527 0 0 0 0 0 109933978.3427148 4895327.264719108 4895327.264719108 12372152.15046187 0 0 0 0 0 109684145.2229556 4948333.81662489 4948333.81662489 11576743.13371651 0 0 0 0 0 109694650.6506568 4731225.652502913 4731225.652502913 11996398.59741393 0 0 0 0 0 109408257.91238 4867215.553635783 4867215.553635783 11306379.98572759 0 0 0 0 0 109137499.6291135 4792017.591549126 4792017.591549126 11023918.97237825 0 0 0 0 0 108891390.9502962 4700516.261963893 4700516.261963893 10546220.88721402 0 0 0 0 0 108694054.9646265 4659705.330533854 4659705.330533854 10191808.52919643 0 0 0 0 0 111942823.1512153 4953640.82379794 4953640.82379794 15611012.71749597 0 0 0 0 0 150930253.3291421 719129.9717006808 719129.9717006808 36786461.0881163 0 0 0 0 0 149170502.8323089 -318601.7670815127 -318601.7670815127 36644394.35241582 0 0 0 0 0 145256100.2595161 1065902.289117215 1065902.289117215 36033930.25491184 0 0 0 0 0 141962120.2381741 1243108.437230137 1243108.437230137 35392346.73863305 0 0 0 0 0 138968234.0902049 1311368.40848026 1311368.40848026 34855274.35338423 0 0 0 0 0 138091060.4317419 558650.9649134497 558650.9649134497 34253409.55707645 0 0 0 0 0 134591879.4984047 1462982.896483262 1462982.896483262 33872529.82313431 0 0 0 0 0 132124939.1723718 1925494.062639323 1925494.062639323 32282690.53195481 0 0 0 0 0 134294415.472831 1476005.899646206 1476005.899646206 32864774.04895233 0 0 0 0 0 130207919.486799 2024527.620730356 2024527.620730356 31430491.08248219 0 0 0 0 0 128454922.1162524 2191148.3880109 2191148.3880109 30703876.48693666 0 0 0 0 0 127414161.6323888 1870078.89733771 1870078.89733771 30591437.87227194 0 0 0 0 0 126472289.5366855 3025721.815989283 3025721.815989283 29277191.25530559 0 0 0 0 0 125054419.1412296 3149535.97129079 3149535.97129079 28503779.41632225 0 0 0 0 0 123750417.7953869 3261218.62188918 3261218.62188918 27731128.47032034 0 0 0 0 0 122546132.5490746 3363762.90736889 3363762.90736889 26976920.69088507 0 0 0 0 0 121210379.456944 4020875.309821258 4020875.309821258 25547424.20396728 0 0 0 0 0 121815548.6664495 3097508.527519725 3097508.527519725 26741573.49632703 0 0 0 0 0 120214312.8409136 4078434.763489415 4078434.763489415 24835410.13109562 0 0 0 0 0 119290228.1412076 4125325.676617553 4125325.676617553 24140685.89334241 0 0 0 0 0 118431381.8158804 4162888.990449202 4162888.990449202 23465347.25925494 0 0 0 0 0 117631309.0979593 4191510.627254376 4191510.627254376 22810242.48599795 0 0 0 0 0 116884589.5720169 4211466.955009497 4211466.955009497 22174562.16611309 0 0 0 0 0 116187045.5126661 4223973.412794541 4223973.412794541 21558553.17449733 0 0 0 0 0 115753525.2942719 4018116.701653646 4018116.701653646 21232177.64721279 0 0 0 0 0 115470037.1659321 4636785.898712953 4636785.898712953 20309600.38363486 0 0 0 0 0 114870371.7897706 4620263.870144872 4620263.870144872 19748646.14460511 0 0 0 0 0 114307601.4762312 4597706.289384624 4597706.289384624 19211679.57924287 0 0 0 0 0 113776387.8997645 4570062.49908419 4570062.49908419 18693623.11858509 0 0 0 0 0 113269906.0286913 4534434.21493511 4534434.21493511 18190013.7276518 0 0 0 0 0 112794638.0336615 4495300.737252545 4495300.737252545 17695185.22477585 0 0 0 0 0 112479476.5928232 4316762.531494077 4316762.531494077 17346505.49968796 0 0 0 0 0 112346432.223531 4749910.501515797 4749910.501515797 16636244.04127814 0 0 0 0 0 111931616.4150874 4700044.714168086 4700044.714168086 16194760.8176289 0 0 0 0 0 111647705.6665622 4768159.202354326 4768159.202354326 15214012.10461553 0 0 0 0 0 111273186.2531437 4711816.942241767 4711816.942241767 14819629.8899369 0 0 0 0 0 110930192.8381476 4854401.491819421 4854401.491819421 13852352.39487338 0 0 0 0 0 111201895.1585066 5033089.850500703 5033089.850500703 14244503.91478612 0 0 0 0 0 110595467.0251192 4788555.714276854 4788555.714276854 13495426.51978127 0 0 0 0 0 110270641.6361058 4719035.542625366 4719035.542625366 13153076.48933889 0 0 0 0 0 109958460.3981111 4648188.36170985 4648188.36170985 12827879.65569878 0 0 0 0 0 109666027.9492951 4579881.844021932 4579881.844021932 12519773.77879986 0 0 0 0 0 109417139.8669811 4658855.445958855 4658855.445958855 11707300.92138929 0 0 0 0 0 109647545.7247142 4817543.194840868 4817543.194840868 12072082.4721708 0 0 0 0 0 109156087.9341041 4588246.976801328 4588246.976801328 11429476.93340518 0 0 0 0 0 108906018.8061594 4512234.379720444 4512234.379720444 11139299.63147697 0 0 0 0 0 108653377.1156091 4500758.044990654 4500758.044990654 10924429.9280394 0 0 0 0 0 108482436.0462637 4469345.714968765 4469345.714968765 10539218.64492173 0 0 0 0 0 111644151.9161147 4525445.652657975 4525445.652657975 15830861.26869826 0 0 0 0 0 147054196.5958306 696897.2884519461 696897.2884519461 36415634.8686394 0 0 0 0 0 145513801.0173184 -238085.002187233 -238085.002187233 36155546.02339982 0 0 0 0 0 142278158.3727572 -211937.9560912037 -211937.9560912037 35658448.34002975 0 0 0 0 0 139378837.7475741 -166680.282773012 -166680.282773012 35057665.4763153 0 0 0 0 0 136374592.8584186 1185210.491610429 1185210.491610429 34313903.2082218 0 0 0 0 0 135575884.740231 566428.8180293308 566428.8180293308 33586631.9024819 0 0 0 0 0 131100079.719068 805556.7588122105 805556.7588122105 32665110.56039473 0 0 0 0 0 133213570.7544509 589203.9518948201 589203.9518948201 33313050.24737129 0 0 0 0 0 129374076.8222246 1125633.360238693 1125633.360238693 31986930.50194427 0 0 0 0 0 127905814.8699069 1268683.806922755 1268683.806922755 31100054.60065653 0 0 0 0 0 126879106.5523673 2358627.692023232 2358627.692023232 29838813.59154908 0 0 0 0 0 125883844.9968428 2065468.764346293 2065468.764346293 29785712.41273216 0 0 0 0 0 124525271.3622143 2216459.978472613 2216459.978472613 28993585.82993832 0 0 0 0 0 123271652.3511123 2359582.095303232 2359582.095303232 28209371.61315724 0 0 0 0 0 122092497.1552518 2495894.971875184 2495894.971875184 27439009.61225941 0 0 0 0 0 120762911.4831904 3200962.45837813 3200962.45837813 25996853.95906141 0 0 0 0 0 121436754.7433099 3451495.330431461 3451495.330431461 26235120.27879749 0 0 0 0 0 119790498.8825999 3289478.145119213 3289478.145119213 25267562.72796902 0 0 0 0 0 118888043.0775961 3366891.193530805 3366891.193530805 24557846.73136431 0 0 0 0 0 118047626.9060119 3434218.288405094 3434218.288405094 23867405.63688612 0 0 0 0 0 117263115.7243216 3491389.012331483 3491389.012331483 23196778.06758567 0 0 0 0 0 116531832.3631005 3538874.87391585 3538874.87391585 22546316.9656623 0 0 0 0 0 115848294.626626 3577881.193527104 3577881.193527104 21915835.44029864 0 0 0 0 0 115534383.1845163 4229787.701361718 4229787.701361718 20962171.40152565 0 0 0 0 0 115127446.469989 4031985.294894029 4031985.294894029 20638100.2210641 0 0 0 0 0 114540209.486535 4039411.195694994 4039411.195694994 20063696.71889608 0 0 0 0 0 113984281.3218257 4036829.353621008 4036829.353621008 19501235.04944048 0 0 0 0 0 113456708.1303106 4024967.909087434 4024967.909087434 18962404.64909151 0 0 0 0 0 112961094.8852145 4011759.899790078 4011759.899790078 18446863.10493237 0 0 0 0 0 112499563.2373046 3996618.067933655 3996618.067933655 17954057.14888457 0 0 0 0 0 112346085.9572693 4457591.800827672 4457591.800827672 17217886.37574429 0 0 0 0 0 112051114.5889098 4287912.648534005 4287912.648534005 16881040.84848817 0 0 0 0 0 111645881.5429368 4256430.572465902 4256430.572465902 16431147.08542186 0 0 0 0 0 111554823.5855934 4891127.395286626 4891127.395286626 15206838.87598497 0 0 0 0 0 111182453.3618613 4826978.585185211 4826978.585185211 14810751.3189355 0 0 0 0 0 110855702.2077841 4960934.533519796 4960934.533519796 13875945.42576385 0 0 0 0 0 110915492.303271 4655266.490672672 4655266.490672672 14436547.12083933 0 0 0 0 0 110524060.8703372 4890218.388332773 4890218.388332773 13539842.13186377 0 0 0 0 0 110204403.1722225 4815143.759626465 4815143.759626465 13207834.92821449 0 0 0 0 0 109900077.172706 4739027.66836565 4739027.66836565 12881204.79242529 0 0 0 0 0 109612258.7458027 4666106.465088022 4666106.465088022 12563560.54442573 0 0 0 0 0 109373129.8710457 4740509.478010156 4740509.478010156 11782343.53700995 0 0 0 0 0 109388039.8684387 4513510.981868359 4513510.981868359 12215424.43755279 0 0 0 0 0 109116554.7492406 4663857.706422367 4663857.706422367 11505570.94484865 0 0 0 0 0 108862278.7188122 4578277.362893038 4578277.362893038 11335163.83458499 0 0 0 0 0 108709107.4706981 4491784.285258993 4491784.285258993 10923016.87730164 0 0 0 0 0 108558158.5145437 4509156.325458658 4509156.325458658 10603185.23580539 0 0 0 0 0 111538768.5449421 4648777.667187719 4648777.667187719 15770998.82713524 0 0 0 0 0 143602011.6213066 657473.9555096073 657473.9555096073 35885959.37732419 0 0 0 0 0 140662752.6859708 658435.6609405846 658435.6609405846 35310893.7296038 0 0 0 0 0 137965967.4289574 672575.8528769143 672575.8528769143 34693537.65473188 0 0 0 0 0 136748451.693852 -72858.60179297571 -72858.60179297571 34295364.68134709 0 0 0 0 0 134418118.0220627 1131383.245649847 1131383.245649847 33564369.46214639 0 0 0 0 0 130687524.4801084 1198936.550826666 1198936.550826666 31752070.0990591 0 0 0 0 0 132486424.4468497 1217136.241585872 1217136.241585872 32725053.65506741 0 0 0 0 0 128969267.8309291 1450359.78572304 1450359.78572304 31043452.11785524 0 0 0 0 0 127227487.022181 1755099.085550594 1755099.085550594 30645658.30011046 0 0 0 0 0 126399278.2405008 1352695.008977636 1352695.008977636 30406124.57201239 0 0 0 0 0 125410632.6156337 2495367.353343743 2495367.353343743 29111089.91849803 0 0 0 0 0 124071611.8731261 2621633.110358753 2621633.110358753 28341774.2801244 0 0 0 0 0 122833461.3187127 2743046.808993604 2743046.808993604 27589359.39367306 0 0 0 0 0 121685136.571259 2853341.690312814 2853341.690312814 26846332.17906987 0 0 0 0 0 120410240.9245679 3527183.876594405 3527183.876594405 25514744.70351005 0 0 0 0 0 120995533.4795009 2620318.194543528 2620318.194543528 26693437.07674074 0 0 0 0 0 119460298.606943 3592857.286919704 3592857.286919704 24811323.7341838 0 0 0 0 0 118578964.8932938 3649483.812298445 3649483.812298445 24124054.99730605 0 0 0 0 0 117758213.8268921 3697584.886459975 3697584.886459975 23457516.80007509 0 0 0 0 0 116992735.3494087 3736002.103195889 3736002.103195889 22809072.22501193 0 0 0 0 0 116278660.8754183 3766848.737741674 3766848.737741674 22180143.49985275 0 0 0 0 0 115611300.8915997 3790542.886802073 3790542.886802073 21570662.26064293 0 0 0 0 0 115208380.654708 3608970.628508284 3608970.628508284 21305147.98230062 0 0 0 0 0 114922620.9107452 4229532.921728477 4229532.921728477 20384665.39312143 0 0 0 0 0 114349286.0617548 4223187.451532817 4223187.451532817 19826527.37607034 0 0 0 0 0 113805809.649194 4210819.296400154 4210819.296400154 19303007.23550103 0 0 0 0 0 113292192.9934112 4189156.288503907 4189156.288503907 18774330.64625964 0 0 0 0 0 112806810.5640524 4163608.648962446 4163608.648962446 18267133.67938923 0 0 0 0 0 112353316.3254752 4138308.640831001 4138308.640831001 17774224.40175618 0 0 0 0 0 112065505.4783693 3980765.585111367 3980765.585111367 17476617.66034252 0 0 0 0 0 111925937.9960337 4419831.53132189 4419831.53132189 16759878.35377583 0 0 0 0 0 111528607.5449381 4380165.034774663 4380165.034774663 16318325.36144246 0 0 0 0 0 111264355.7005882 4479433.732031213 4479433.732031213 15413302.78377052 0 0 0 0 0 110904784.8410383 4432373.980013714 4432373.980013714 15014357.06199645 0 0 0 0 0 110577269.8649173 4599797.762726871 4599797.762726871 14068111.42701778 0 0 0 0 0 110830293.2859276 4763269.697740349 4763269.697740349 14426035.5159479 0 0 0 0 0 110253948.704307 4538446.509538935 4538446.509538935 13699070.74902895 0 0 0 0 0 109940491.4492043 4474177.538951752 4474177.538951752 13355887.18174587 0 0 0 0 0 109643599.4521703 4410829.481859285 4410829.481859285 13027099.69837765 0 0 0 0 0 109359841.6178459 4349274.57181788 4349274.57181788 12713494.22165149 0 0 0 0 0 109120611.9655115 4446771.439606912 4446771.439606912 11918976.71217618 0 0 0 0 0 109336980.1001299 4594898.032384382 4594898.032384382 12257971.30587416 0 0 0 0 0 108865087.3476259 4380269.863067988 4380269.863067988 11638610.52909163 0 0 0 0 0 108637621.2270045 4324760.390083196 4324760.390083196 11363602.39075968 0 0 0 0 0 108512475.460671 4335428.401731661 4335428.401731661 11291263.26996485 0 0 0 0 0 108379309.2104567 4319227.723859631 4319227.723859631 10980966.48941574 0 0 0 0 0 111261640.719613 4221708.045790828 4221708.045790828 15994569.00554762 0 0 0 0 0 135451491.3174055 639167.5765337622 639167.5765337622 34013957.03122357 0 0 0 0 0 134362106.4399994 -14785.46527951026 -14785.46527951026 33602283.86994038 0 0 0 0 0 129447341.182013 649200.0638695605 649200.0638695605 32314268.24678979 0 0 0 0 0 132179311.2041498 1874.977353528669 1874.977353528669 32833119.91145485 0 0 0 0 0 127945210.5585355 969416.2201447419 969416.2201447419 31542698.12175192 0 0 0 0 0 127621302.3945758 821254.9264667651 821254.9264667651 30582894.77784321 0 0 0 0 0 125821221.3603948 1797652.749422031 1797652.749422031 29606900.89467069 0 0 0 0 0 124924263.5678963 1537383.343523848 1537383.343523848 29642590.52595563 0 0 0 0 0 123619893.5611492 1714948.836271749 1714948.836271749 28839720.52371601 0 0 0 0 0 122389869.7573211 1871979.363528229 1871979.363528229 28056241.44855313 0 0 0 0 0 121258470.426295 2007575.365025565 2007575.365025565 27293042.88508552 0 0 0 0 0 119997772.854129 2726236.394952214 2726236.394952214 25958487.43122983 0 0 0 0 0 120624180.1051812 2943290.773939941 2943290.773939941 26118284.74894601 0 0 0 0 0 119072916.8194676 2821552.904642619 2821552.904642619 25238791.1595209 0 0 0 0 0 118210805.3827073 2907610.385121895 2907610.385121895 24539025.35663114 0 0 0 0 0 117405373.3908063 2983643.318410337 2983643.318410337 23856769.20199508 0 0 0 0 0 116656669.9854359 3049638.631591307 3049638.631591307 23194199.33885372 0 0 0 0 0 115957444.7968233 3107031.757957533 3107031.757957533 22550783.2071963 0 0 0 0 0 115303026.324803 3156217.6952816 3156217.6952816 21926799.52336711 0 0 0 0 0 114986484.2732506 3807558.084691398 3807558.084691398 20980120.7837682 0 0 0 0 0 114608654.4059215 3632939.837794288 3632939.837794288 20714276.11493013 0 0 0 0 0 114044503.9687736 3649949.802757083 3649949.802757083 20142309.67613032 0 0 0 0 0 113507163.801308 3651401.283067551 3651401.283067551 19572184.90238662 0 0 0 0 0 112998504.3482735 3649886.061609399 3649886.061609399 19048550.66248794 0 0 0 0 0 112530270.7466497 3650213.562285574 3650213.562285574 18536918.74250393 0 0 0 0 0 112088708.5704584 3648383.22269761 3648383.22269761 18043661.38808137 0 0 0 0 0 111927088.1363464 4113491.592444853 4113491.592444853 17301134.12468535 0 0 0 0 0 111654737.5331194 3961800.216295286 3961800.216295286 17009386.45468626 0 0 0 0 0 111265388.2010075 3939451.565405824 3939451.565405824 16557021.12322645 0 0 0 0 0 111166337.5768622 4595345.868204186 4595345.868204186 15360128.46680966 0 0 0 0 0 110811133.9105193 4541248.758490824 4541248.758490824 14961551.88513464 0 0 0 0 0 110500990.1700642 4700822.846034654 4700822.846034654 14061227.35629722 0 0 0 0 0 110563283.8694295 4384991.646388644 4384991.646388644 14625986.93021588 0 0 0 0 0 110182231.4624626 4635589.310680266 4635589.310680266 13717302.94311607 0 0 0 0 0 109873677.4349859 4565434.886325954 4565434.886325954 13376347.72124407 0 0 0 0 0 109579851.8212436 4497513.383186159 4497513.383186159 13047374.99518751 0 0 0 0 0 109301835.7003149 4431544.887734703 4431544.887734703 12726647.59155273 0 0 0 0 0 109071276.2338917 4523722.497458586 4523722.497458586 11958565.69122986 0 0 0 0 0 109089628.6671715 4288815.026535186 4288815.026535186 12405812.46327647 0 0 0 0 0 108823052.6914279 4455267.287202372 4455267.287202372 11653344.99489137 0 0 0 0 0 108635663.0818105 4391664.462452292 4391664.462452292 11383432.88908664 0 0 0 0 0 108423488.3454314 4327115.029854008 4327115.029854008 10991648.96870774 0 0 0 0 0 111151691.9291009 4338451.986497365 4338451.986497365 15892814.45041685 0 0 0 0 0 133339957.1628876 636560.8375980733 636560.8375980733 33217584.16074366 0 0 0 0 0 129103081.8855587 765048.6670833377 765048.6670833377 31191691.92341085 0 0 0 0 0 130332849.7516998 84886.85169292528 84886.85169292528 31897236.3397099 0 0 0 0 0 131076427.9450838 609512.890497781 609512.890497781 32576813.01541806 0 0 0 0 0 126580396.6979184 988213.131143536 988213.131143536 30883208.96117965 0 0 0 0 0 125256600.0906233 970728.9244719149 970728.9244719149 30247313.3210586 0 0 0 0 0 124412596.2757182 1943403.530302157 1943403.530302157 28838018.59340066 0 0 0 0 0 123147692.1809997 2093727.199796454 2093727.199796454 28120891.90569572 0 0 0 0 0 121959256.3086401 2228135.478203222 2228135.478203222 27383798.46337202 0 0 0 0 0 120863111.310999 2334184.578961041 2334184.578961041 26623959.73896794 0 0 0 0 0 119648427.933644 3027505.719199052 3027505.719199052 25410208.24296189 0 0 0 0 0 120217281.5242737 2138281.717923486 2138281.717923486 26567089.18327354 0 0 0 0 0 118743520.0542872 3103771.182130024 3103771.182130024 24720625.32765481 0 0 0 0 0 117901784.9025967 3171658.792746942 3171658.792746942 24045705.14152605 0 0 0 0 0 117116257.1421295 3228463.588634684 3228463.588634684 23387408.74029501 0 0 0 0 0 116385108.7852698 3278226.423410686 3278226.423410686 22749033.09174402 0 0 0 0 0 115702404.4795725 3320681.756211116 3320681.756211116 22129731.95279214 0 0 0 0 0 115063674.8879889 3355998.167465792 3355998.167465792 21529396.72531359 0 0 0 0 0 114689945.2726605 3197739.638509925 3197739.638509925 21322546.09173169 0 0 0 0 0 114400770.6851473 3818504.001879835 3818504.001879835 20408094.95268455 0 0 0 0 0 113851740.3254786 3823175.141218784 3823175.141218784 19862337.92129023 0 0 0 0 0 113324745.767621 3818283.113064922 3818283.113064922 19345862.7854714 0 0 0 0 0 112830407.3461144 3802582.697482012 3802582.697482012 18800807.51366422 0 0 0 0 0 112370082.1369231 3793529.076345363 3793529.076345363 18300327.65057801 0 0 0 0 0 111937168.3715574 3782393.651610699 3782393.651610699 17814992.66471471 0 0 0 0 0 111670945.6141699 3642542.487216202 3642542.487216202 17562440.07069397 0 0 0 0 0 111524735.1642666 4086303.155080079 4086303.155080079 16844115.83221382 0 0 0 0 0 111143280.4111816 4056884.496393071 4056884.496393071 16404894.37690342 0 0 0 0 0 110897162.7570935 4185023.159103604 4185023.159103604 15575025.80148406 0 0 0 0 0 110551971.2212919 4146897.586573588 4146897.586573588 15171175.00213309 0 0 0 0 0 110236895.3662776 4334364.776309323 4334364.776309323 14247128.39801375 0 0 0 0 0 110476133.4589579 4486735.179800943 4486735.179800943 14577833.5226947 0 0 0 0 0 109924973.3148352 4279757.918537999 4279757.918537999 13878705.70754714 0 0 0 0 0 109624813.4443027 4224918.978468223 4224918.978468223 13533720.23741922 0 0 0 0 0 109340367.1671242 4168708.429126589 4168708.429126589 13198881.02608125 0 0 0 0 0 109065265.0711488 4114145.75453202 4114145.75453202 12877688.96628648 0 0 0 0 0 108825030.6357505 4224447.616145238 4224447.616145238 12100783.24154435 0 0 0 0 0 109034457.7891191 4366670.198740693 4366670.198740693 12416179.33696483 0 0 0 0 0 108590029.9835305 4169882.816918189 4169882.816918189 11820339.62793988 0 0 0 0 0 108381758.2152429 4139214.297730172 4139214.297730172 11563721.38169204 0 0 0 0 0 108270709.9821262 4152525.191975128 4152525.191975128 11384903.73817598 0 0 0 0 0 110895900.4424592 3913972.427753723 3913972.427753723 16120033.29880774 0 0 0 0 0 128347703.7091632 68308.65579828394 68308.65579828394 31586428.72095072 0 0 0 0 0 129298994.0755535 439457.1657252089 439457.1657252089 31844418.43735759 0 0 0 0 0 126802176.2637521 49678.04052002299 49678.04052002299 30687770.6743973 0 0 0 0 0 126255598.8751423 895052.5629125262 895052.5629125262 29840320.20897454 0 0 0 0 0 124808833.4572896 1284105.878577962 1284105.878577962 29266659.14324999 0 0 0 0 0 124077862.5779679 1080961.422579202 1080961.422579202 29379639.73195421 0 0 0 0 0 122793417.4581055 1225191.05691366 1225191.05691366 28578221.2165097 0 0 0 0 0 121598563.5033264 1351698.93577622 1351698.93577622 27802398.02443597 0 0 0 0 0 120503642.0297856 1507524.295877327 1507524.295877327 27098931.93450358 0 0 0 0 0 119275982.9763649 2248791.318932599 2248791.318932599 25848941.34084494 0 0 0 0 0 119853994.8225993 2433590.645418997 2433590.645418997 25936518.77101639 0 0 0 0 0 118392467.2047134 2354468.38873471 2354468.38873471 25141909.17384344 0 0 0 0 0 117562537.6198152 2447392.778706871 2447392.778706871 24453929.70545992 0 0 0 0 0 116797622.4699758 2530882.201935438 2530882.201935438 23784049.98508428 0 0 0 0 0 116081863.2602327 2607497.31543518 2607497.31543518 23131398.38244478 0 0 0 0 0 115412995.6575349 2675382.345576958 2675382.345576958 22497721.67714899 0 0 0 0 0 114785945.6752425 2735284.565144253 2735284.565144253 21883078.7075206 0 0 0 0 0 114465448.568597 3384468.254335437 3384468.254335437 20947100.86218549 0 0 0 0 0 114115448.0550879 3232174.472003246 3232174.472003246 20737527.40751516 0 0 0 0 0 113573825.3842246 3256091.904806829 3256091.904806829 20164715.28414785 0 0 0 0 0 113056855.0931014 3265043.804929304 3265043.804929304 19597739.0462139 0 0 0 0 0 112569542.2010292 3279233.68201171 3279233.68201171 19094642.12898505 0 0 0 0 0 112121002.3541045 3291831.185684569 3291831.185684569 18581620.32808689 0 0 0 0 0 111696531.0940135 3299593.256854218 3299593.256854218 18086472.79252135 0 0 0 0 0 111528414.8826685 3768238.965470143 3768238.965470143 17345811.9655512 0 0 0 0 0 111276286.8762715 3633196.694713946 3633196.694713946 17096589.23020491 0 0 0 0 0 110902156.6405105 3619884.302291266 3619884.302291266 16643824.19445227 0 0 0 0 0 110794100.2317819 4294539.473832719 4294539.473832719 15479967.59672872 0 0 0 0 0 110455231.2657611 4249706.419662323 4249706.419662323 15081344.27590289 0 0 0 0 0 110157517.8493196 4431036.195795804 4431036.195795804 14212066.59326445 0 0 0 0 0 110223050.7080036 4106414.183698555 4106414.183698555 14778477.03724162 0 0 0 0 0 109848209.622901 4371815.4574592 4371815.4574592 13860534.12863463 0 0 0 0 0 109553475.6042912 4310995.077006573 4310995.077006573 13517843.73201521 0 0 0 0 0 109271547.8939744 4251629.164426863 4251629.164426863 13185115.09718315 0 0 0 0 0 109003120.200927 4192536.051150253 4192536.051150253 12864451.33042151 0 0 0 0 0 108772935.1365438 4297606.89850229 4297606.89850229 12113933.0843308 0 0 0 0 0 108798753.3106214 4056263.834670284 4056263.834670284 12559913.35383763 0 0 0 0 0 108541291.6123502 4244732.390741412 4244732.390741412 11792747.49155274 0 0 0 0 0 108329109.4007677 4167870.523481516 4167870.523481516 11402919.90956706 0 0 0 0 0 110781573.9598248 4024398.235760532 4024398.235760532 15978689.94048478 0 0 0 0 0 127706564.5310388 510873.2731481611 510873.2731481611 31064428.84760274 0 0 0 0 0 126240919.6058009 518694.6597384791 518694.6597384791 30276809.74021571 0 0 0 0 0 125385074.2958143 289582.903740319 289582.903740319 30366268.2952289 0 0 0 0 0 124387582.8999906 539676.1867875488 539676.1867875488 29892161.82444758 0 0 0 0 0 123526872.192745 1471622.444393809 1471622.444393809 28614575.59908651 0 0 0 0 0 122279541.6493434 1595927.05776515 1595927.05776515 27899194.56053268 0 0 0 0 0 121132891.4824529 1705650.497264348 1705650.497264348 27091194.0523291 0 0 0 0 0 120089756.8077844 1815262.318508568 1815262.318508568 26330074.41220395 0 0 0 0 0 118928992.3310319 2528822.24040912 2528822.24040912 25239624.91808163 0 0 0 0 0 119508212.8206026 1654583.044928777 1654583.044928777 26382321.2976367 0 0 0 0 0 118064149.7045284 2619939.748084067 2619939.748084067 24576823.17548808 0 0 0 0 0 117256234.4595276 2691067.044128108 2691067.044128108 23906032.24235485 0 0 0 0 0 116507635.6146711 2759979.809583881 2759979.809583881 23259181.80710318 0 0 0 0 0 115809127.4475106 2821827.777234766 2821827.777234766 22634262.17893108 0 0 0 0 0 115156085.4988605 2876415.527731615 2876415.527731615 22027129.54944031 0 0 0 0 0 114544404.601538 2923746.553909228 2923746.553909228 21439476.13163745 0 0 0 0 0 114197412.0760081 2787209.1191176 2787209.1191176 21287939.25308735 0 0 0 0 0 113905534.7652014 3406171.404296888 3406171.404296888 20384436.21268038 0 0 0 0 0 113377722.7705959 3420653.115060696 3420653.115060696 19850633.28992473 0 0 0 0 0 112867097.5213163 3423406.801433195 3423406.801433195 19329948.30576274 0 0 0 0 0 112394040.1744066 3422568.060863865 3422568.060863865 18792124.55467943 0 0 0 0 0 111956228.8227825 3427081.904580086 3427081.904580086 18298211.46539197 0 0 0 0 0 111541230.680232 3426425.768871098 3426425.768871098 17817641.94570832 0 0 0 0 0 111295599.5749403 3303345.164691947 3303345.164691947 17607666.51734359 0 0 0 0 0 111142294.5468859 3751298.501331863 3751298.501331863 16892007.63877712 0 0 0 0 0 110776077.9273198 3731433.629022875 3731433.629022875 16454361.67454051 0 0 0 0 0 110546065.0561986 3886332.666944242 3886332.666944242 15699739.88706457 0 0 0 0 0 110213914.7627339 3856199.470573489 3856199.470573489 15292770.27284815 0 0 0 0 0 109909283.3076158 4063233.27247651 4063233.27247651 14397167.95977872 0 0 0 0 0 110132800.9391541 4203300.912280485 4203300.912280485 14697094.08147061 0 0 0 0 0 109610555.3488601 4019181.82923726 4019181.82923726 14031759.75993039 0 0 0 0 0 109323024.0907709 3972129.922122563 3972129.922122563 13678910.65903651 0 0 0 0 0 109050344.5698512 3923067.117058004 3923067.117058004 13340388.37058033 0 0 0 0 0 108786425.5971601 3876181.142339992 3876181.142339992 13012942.01381935 0 0 0 0 0 108536382.3334861 3993532.680715658 3993532.680715658 12248701.27610479 0 0 0 0 0 108738840.5725668 4129910.035801709 4129910.035801709 12558412.04186573 0 0 0 0 0 108311186.6946904 3942620.975290779 3942620.975290779 11989560.97496595 0 0 0 0 0 108160706.3504724 3970590.661645689 3970590.661645689 11760445.84981243 0 0 0 0 0 110547312.3595528 3603779.935078738 3603779.935078738 16208393.11073129 0 0 0 0 0 125081331.3753889 383443.4192114632 383443.4192114632 29382043.41243896 0 0 0 0 0 123954889.5557929 833526.7319888296 833526.7319888296 28999741.95222237 0 0 0 0 0 123222222.5217574 650690.0131354921 650690.0131354921 29011596.43588003 0 0 0 0 0 122000779.9086452 722952.5046727044 722952.5046727044 28236368.47693588 0 0 0 0 0 120889086.74274 798466.9503185055 798466.9503185055 27541008.3048736 0 0 0 0 0 119773208.5838197 976036.6938863063 976036.6938863063 26900724.32110563 0 0 0 0 0 118605477.300966 1780327.736289039 1780327.736289039 25680859.81912851 0 0 0 0 0 119137123.5582026 1929511.816250452 1929511.816250452 25709271.06205177 0 0 0 0 0 117731490.1541095 1894080.550463704 1894080.550463704 24974277.58846133 0 0 0 0 0 116952817.6227563 1987910.88695779 1987910.88695779 24308879.67515766 0 0 0 0 0 116223454.0890249 2081104.28524206 2081104.28524206 23651636.18871489 0 0 0 0 0 115538159.4865108 2168683.683119095 2168683.683119095 23012094.69785623 0 0 0 0 0 114898320.5542263 2246819.77496011 2246819.77496011 22391681.93798215 0 0 0 0 0 114293249.4436726 2316567.919182365 2316567.919182365 21790204.12699635 0 0 0 0 0 113971191.2395867 2962247.502573914 2962247.502573914 20866926.62305505 0 0 0 0 0 113647986.1349209 2831127.085395467 2831127.085395467 20710554.37876232 0 0 0 0 0 113127218.320589 2865460.054100814 2865460.054100814 20143724.1262674 0 0 0 0 0 112638588.6643923 2888478.866432097 2888478.866432097 19590498.37587667 0 0 0 0 0 112166694.870023 2913001.577485091 2913001.577485091 19086517.38100722 0 0 0 0 0 111731975.5973794 2933763.552848183 2933763.552848183 18577778.93509814 0 0 0 0 0 111324614.4205266 2951533.703624927 2951533.703624927 18089621.36071748 0 0 0 0 0 111149120.2408404 3422755.402045812 3422755.402045812 17353472.21479834 0 0 0 0 0 110915992.2182118 3303377.094850801 3303377.094850801 17144239.1427077 0 0 0 0 0 110556290.1242626 3299824.426881463 3299824.426881463 16695164.34614955 0 0 0 0 0 110438878.8574088 3989969.16527748 3989969.16527748 15566567.69272293 0 0 0 0 0 110113003.6247201 3953920.348233471 3953920.348233471 15167684.83300404 0 0 0 0 0 109824595.1884714 4155535.322811082 4155535.322811082 14325988.76715957 0 0 0 0 0 109897402.8327347 3824072.069853922 3824072.069853922 14898926.36170173 0 0 0 0 0 109530297.9331011 4105962.677199624 4105962.677199624 13971038.04211869 0 0 0 0 0 109247964.4679362 4054300.388154613 4054300.388154613 13635041.09730124 0 0 0 0 0 108976938.7451892 4001785.988068747 4001785.988068747 13293728.9911346 0 0 0 0 0 108715369.7974248 3951605.690151207 3951605.690151207 12962726.34749097 0 0 0 0 0 108482510.4996793 4066271.084483965 4066271.084483965 12275722.80221043 0 0 0 0 0 108525999.9467962 3828318.982143552 3828318.982143552 12694714.66607307 0 0 0 0 0 108237754.1867388 3990391.064037953 3990391.064037953 11785476.53271297 0 0 0 0 0 110428824.0688757 3708629.844005221 3708629.844005221 16030508.70616825 0 0 0 0 0 124428141.1710382 448902.0293708366 448902.0293708366 29709818.40098319 0 0 0 0 0 123836362.6636371 83776.41357071718 83776.41357071718 29226337.94978899 0 0 0 0 0 122717163.0551336 1003692.970457359 1003692.970457359 28383555.62704299 0 0 0 0 0 121480510.1876174 1090674.173385985 1090674.173385985 27694110.14281275 0 0 0 0 0 120367115.2230465 1177352.942932101 1177352.942932101 26769453.00081795 0 0 0 0 0 119390923.1685307 1211402.288237359 1211402.288237359 25941083.134765 0 0 0 0 0 118248014.9367159 2050909.219673471 2050909.219673471 25030872.13515293 0 0 0 0 0 118831225.9344413 1191852.646608487 1191852.646608487 26181160.51796501 0 0 0 0 0 117413834.3729798 2132822.531424068 2132822.531424068 24374352.68186836 0 0 0 0 0 116646601.3022625 2215822.820996273 2215822.820996273 23713498.97762115 0 0 0 0 0 115932661.2152112 2296378.485934836 2296378.485934836 23077749.7990397 0 0 0 0 0 115264363.7705735 2370890.085447546 2370890.085447546 22470576.09869456 0 0 0 0 0 114639587.9973674 2438544.018055414 2438544.018055414 21881649.3265674 0 0 0 0 0 114051557.6087651 2491655.541109643 2491655.541109643 21300134.18061011 0 0 0 0 0 113734748.328109 2378249.785643146 2378249.785643146 21205917.34155895 0 0 0 0 0 113435463.5075711 2995742.917659758 2995742.917659758 20313948.88767266 0 0 0 0 0 112928030.569109 3021118.181011227 3021118.181011227 19786865.29465968 0 0 0 0 0 112441727.9954331 3039224.197732366 3039224.197732366 19276291.60217514 0 0 0 0 0 111985333.7831836 3050519.63445504 3050519.63445504 18754752.5617462 0 0 0 0 0 111563971.4599514 3062084.538704505 3062084.538704505 18257803.47845796 0 0 0 0 0 111165479.107108 3072320.227581122 3072320.227581122 17784439.68248415 0 0 0 0 0 110939091.402281 2965188.123238184 2965188.123238184 17615302.08753842 0 0 0 0 0 110777873.3496019 3415994.549588945 3415994.549588945 16904470.20853196 0 0 0 0 0 110426262.354746 3405905.077823679 3405905.077823679 16470297.26416788 0 0 0 0 0 110210628.3197905 3584808.239503287 3584808.239503287 15787901.04024216 0 0 0 0 0 109890906.2301285 3563823.173510614 3563823.173510614 15382268.77201911 0 0 0 0 0 109595886.6908439 3790912.821869984 3790912.821869984 14519434.12091964 0 0 0 0 0 109802035.8270688 3917045.168822113 3917045.168822113 14783875.71579477 0 0 0 0 0 109309288.3698794 3755672.504553236 3755672.504553236 14151321.79551636 0 0 0 0 0 109035536.2053862 3716015.030079222 3716015.030079222 13792306.66657278 0 0 0 0 0 108786371.7880623 3677557.784245041 3677557.784245041 13455885.33366623 0 0 0 0 0 108526215.442594 3652507.945854697 3652507.945854697 13131325.45669427 0 0 0 0 0 108291528.2585371 3754140.122556529 3754140.122556529 12338363.99288471 0 0 0 0 0 108474889.5244697 3885335.273596421 3885335.273596421 12691738.45555101 0 0 0 0 0 108070390.5773835 3783072.013715345 3783072.013715345 12173814.1071719 0 0 0 0 0 110215172.1245707 3292874.459103297 3292874.459103297 16261770.03397646 0 0 0 0 0 123197118.1092434 431512.3969607367 431512.3969607367 28840146.59889117 0 0 0 0 0 122568224.7802609 106771.0967843268 106771.0967843268 28570340.31559907 0 0 0 0 0 121381345.1755687 130882.906914297 130882.906914297 27835601.02018454 0 0 0 0 0 120281560.6751129 162107.8831815284 162107.8831815284 27188559.8032942 0 0 0 0 0 118907464.0872566 791520.4063016126 791520.4063016126 26613897.88415246 0 0 0 0 0 117940738.4139652 1325363.274223638 1325363.274223638 25405371.36433063 0 0 0 0 0 118450529.4827638 1457383.269762444 1457383.269762444 25411177.11150518 0 0 0 0 0 117111944.4857872 1447594.053541661 1447594.053541661 24742721.1241418 0 0 0 0 0 116389141.9818841 1538001.043580482 1538001.043580482 24097633.77662915 0 0 0 0 0 115680239.700242 1646191.251907555 1646191.251907555 23458316.90371756 0 0 0 0 0 115027436.7634162 1740115.673645935 1740115.673645935 22833640.10564914 0 0 0 0 0 114399070.0861625 1822751.398094542 1822751.398094542 22236701.58623355 0 0 0 0 0 113839164.547346 1901397.11297109 1901397.11297109 21658146.8870054 0 0 0 0 0 113504485.968998 2546372.700645768 2546372.700645768 20744343.94904213 0 0 0 0 0 113202019.6950087 2434072.782104162 2434072.782104162 20638010.24041214 0 0 0 0 0 112703878.3496296 2481175.976251449 2481175.976251449 20087998.51837973 0 0 0 0 0 112231917.5453284 2515544.879344739 2515544.879344739 19544378.49435331 0 0 0 0 0 111784309.9908913 2546720.790704989 2546720.790704989 19029941.62056098 0 0 0 0 0 111364287.6541158 2578767.536115806 2578767.536115806 18536627.21818142 0 0 0 0 0 110972556.7243178 2606461.109470604 2606461.109470604 18055738.56796673 0 0 0 0 0 110788781.1306579 3079209.276385509 3079209.276385509 17326901.26554376 0 0 0 0 0 110573790.7060664 2974842.397918436 2974842.397918436 17156148.00825317 0 0 0 0 0 110227804.8032481 2980661.403248406 2980661.403248406 16711759.69436809 0 0 0 0 0 110099042.0707128 3683704.217356893 3683704.217356893 15620533.55135597 0 0 0 0 0 109785607.012641 3657192.631687052 3657192.631687052 15223515.3101256 0 0 0 0 0 109506373.6191704 3878311.904356423 3878311.904356423 14412090.45716732 0 0 0 0 0 109586821.4395196 3540706.813335678 3540706.813335678 14988297.1104035 0 0 0 0 0 109226277.7440249 3837320.899606931 3837320.899606931 14055292.15235962 0 0 0 0 0 108957208.0020766 3791292.240647316 3791292.240647316 13706980.92874625 0 0 0 0 0 108695936.470189 3756998.565262611 3756998.565262611 13337426.78262399 0 0 0 0 0 108451888.4194571 3710238.622948991 3710238.622948991 13001161.57529039 0 0 0 0 0 108231984.5220335 3800483.801333054 3800483.801333054 12574329.47486754 0 0 0 0 0 108273171.9351076 3596399.4495476 3596399.4495476 12767772.84402826 0 0 0 0 0 108055277.4778995 3712908.821527321 3712908.821527321 12074529.98596336 0 0 0 0 0 110092529.5346477 3392944.8290019 3392944.8290019 16049962.57844369 0 0 0 0 0 121974778.5792451 469121.6907433903 469121.6907433903 28128717.25596694 0 0 0 0 0 120812934.5833832 492028.815961692 492028.815961692 27426682.01785607 0 0 0 0 0 119703055.3967876 520261.1347338561 520261.1347338561 26808551.29336939 0 0 0 0 0 119278965.6164579 198577.2193679171 198577.2193679171 26165347.66142924 0 0 0 0 0 118612226.0815963 887730.7928064115 887730.7928064115 25689175.41882767 0 0 0 0 0 117602549.1589814 1567099.273919075 1567099.273919075 24713655.53125549 0 0 0 0 0 118095849.4951568 747173.3173909094 747173.3173909094 25662577.07051265 0 0 0 0 0 116809331.96411 1660559.874175416 1660559.874175416 24140244.07374084 0 0 0 0 0 116078412.6744251 1755732.139685648 1755732.139685648 23469009.34667166 0 0 0 0 0 115390500.915276 1846858.025336977 1846858.025336977 22855083.77262184 0 0 0 0 0 114752927.668216 1939447.980102421 1939447.980102421 22283074.67616492 0 0 0 0 0 114146580.42579 1993397.730426093 1993397.730426093 21681662.58342004 0 0 0 0 0 113590254.6949 2073188.692225878 2073188.692225878 21125645.898523 0 0 0 0 0 113292029.5612735 1977866.128575047 1977866.128575047 21079660.20917661 0 0 0 0 0 112986800.0996048 2590874.679982323 2590874.679982323 20204494.69041856 0 0 0 0 0 112504957.3334135 2627481.686043348 2627481.686043348 19686776.80454637 0 0 0 0 0 112040389.6230906 2655290.482210527 2655290.482210527 19173237.49168706 0 0 0 0 0 111600926.7352342 2680336.650309723 2680336.650309723 18672067.34955185 0 0 0 0 0 111192880.5648342 2701075.588513942 2701075.588513942 18182956.67745988 0 0 0 0 0 110809760.1821117 2722209.615188412 2722209.615188412 17718322.80535575 0 0 0 0 0 110600957.2282865 2629928.65151669 2629928.65151669 17587689.79413028 0 0 0 0 0 110431960.5520301 3082307.039051972 3082307.039051972 16883711.29956161 0 0 0 0 0 110093895.3720064 3082070.987448436 3082070.987448436 16454697.36552265 0 0 0 0 0 109891350.7415204 3283167.314830452 3283167.314830452 15843269.79582373 0 0 0 0 0 109583730.0151715 3271174.637642517 3271174.637642517 15439024.80018506 0 0 0 0 0 109296164.9414452 3515838.001360635 3515838.001360635 14608341.88302488 0 0 0 0 0 109487264.111901 3629315.910793693 3629315.910793693 14840125.38925485 0 0 0 0 0 109018383.2353083 3487519.618967948 3487519.618967948 14240555.1475569 0 0 0 0 0 108747353.0417338 3456383.328593421 3456383.328593421 13887750.20358413 0 0 0 0 0 108499142.2006785 3432301.179059213 3432301.179059213 13564618.70174933 0 0 0 0 0 108314329.6774457 3457068.294522127 3457068.294522127 13235664.12989374 0 0 0 0 0 108065635.2928117 3533224.329820191 3533224.329820191 12501228.4783867 0 0 0 0 0 108232029.0094913 3639828.212432668 3639828.212432668 12920492.11609383 0 0 0 0 0 107966483.0996502 3571063.804495835 3571063.804495835 12510080.0072917 0 0 0 0 0 109899556.3310014 2983045.148645558 2983045.148645558 16282215.30935413 0 0 0 0 0 118865276.5388914 424627.3507037953 424627.3507037953 26147452.4085461 0 0 0 0 0 118364682.914765 138258.3862904901 138258.3862904901 25827476.48094229 0 0 0 0 0 117242095.2927571 894973.0158641649 894973.0158641649 25091658.07653847 0 0 0 0 0 117780320.8104023 994577.1708481337 994577.1708481337 25035751.39836973 0 0 0 0 0 116602205.0505199 1038316.957657983 1038316.957657983 24482055.59287404 0 0 0 0 0 115899498.2500573 1127456.8217667 1127456.8217667 23825311.92254226 0 0 0 0 0 115216466.2619431 1194740.910808566 1194740.910808566 23214477.33894617 0 0 0 0 0 114530514.0430445 1268165.712599036 1268165.712599036 22620799.23272986 0 0 0 0 0 113969993.9832568 1388649.916697002 1388649.916697002 22089672.1692665 0 0 0 0 0 113393157.2322483 1503262.509775858 1503262.509775858 21471897.36878293 0 0 0 0 0 113060263.7553898 2136535.087540881 2136535.087540881 20580257.41549171 0 0 0 0 0 112781883.2364006 2043905.476847895 2043905.476847895 20524250.90686607 0 0 0 0 0 112303855.7381304 2096456.844159297 2096456.844159297 19974152.07268322 0 0 0 0 0 111848221.8136561 2143375.918145759 2143375.918145759 19450095.59207701 0 0 0 0 0 111417696.8504912 2185279.535414607 2185279.535414607 18945482.60436079 0 0 0 0 0 111017633.8622468 2228060.885586916 2228060.885586916 18462457.71680462 0 0 0 0 0 110638708.300269 2266114.691496674 2266114.691496674 17987628.17103293 0 0 0 0 0 110447241.7676034 2738933.070019277 2738933.070019277 17268252.1061037 0 0 0 0 0 110249440.9918478 2648998.978063177 2648998.978063177 17134759.61022501 0 0 0 0 0 109916337.9663524 2664069.148420995 2664069.148420995 16696026.24106675 0 0 0 0 0 109775545.0467754 3377643.341822116 3377643.341822116 15643061.91578237 0 0 0 0 0 109474089.2782794 3360624.91447071 3360624.91447071 15249464.31538857 0 0 0 0 0 109203237.0355633 3599232.79194727 3599232.79194727 14472506.23898557 0 0 0 0 0 109291595.6654594 3257294.550358556 3257294.550358556 15047440.47468922 0 0 0 0 0 108931251.9076152 3567450.975507243 3567450.975507243 14117482.49398116 0 0 0 0 0 108662189.2900372 3536798.002432329 3536798.002432329 13776417.08748568 0 0 0 0 0 108397594.6407937 3472076.113234121 3472076.113234121 13255291.11769561 0 0 0 0 0 108185369.0509219 3471269.071473893 3471269.071473893 12807896.10670955 0 0 0 0 0 108023333.82036 3587009.954553153 3587009.954553153 12524029.46178161 0 0 0 0 0 109772962.137882 3078839.859346346 3078839.859346346 16039071.08277918 0 0 0 0 0 117995174.9304114 426526.7010056351 426526.7010056351 25429315.31355909 0 0 0 0 0 116972454.7539621 991754.8597118448 991754.8597118448 24239440.86989142 0 0 0 0 0 117472660.9131095 168403.0595194302 168403.0595194302 25194275.44244464 0 0 0 0 0 116252552.6109465 1270138.166673068 1270138.166673068 23906389.14786415 0 0 0 0 0 115558403.3157465 1351150.445463399 1351150.445463399 23316622.75290249 0 0 0 0 0 114884275.6290086 1426930.939518986 1426930.939518986 22728257.04297074 0 0 0 0 0 114264958.8392771 1432621.699798376 1432621.699798376 21972065.96109475 0 0 0 0 0 113687636.1142575 1567356.38988579 1567356.38988579 21434925.69682765 0 0 0 0 0 113146597.6742198 1661674.138063733 1661674.138063733 20897277.14985191 0 0 0 0 0 112872091.9370547 1587620.993689884 1587620.993689884 20906451.78282429 0 0 0 0 0 112565912.2489734 2190690.796065503 2190690.796065503 20054136.17693172 0 0 0 0 0 112098524.0231397 2238698.233220129 2238698.233220129 19548117.17288518 0 0 0 0 0 111653944.4952267 2278431.432324857 2278431.432324857 19049624.10603582 0 0 0 0 0 111233917.146675 2310445.774429623 2310445.774429623 18546711.81961782 0 0 0 0 0 110842066.2791414 2345937.192521143 2345937.192521143 18075984.13219035 0 0 0 0 0 110472954.5357554 2376806.267298562 2376806.267298562 17620722.63152611 0 0 0 0 0 110281071.727056 2298958.828970347 2298958.828970347 17527583.43044039 0 0 0 0 0 110104106.9460521 2751888.619758007 2751888.619758007 16832218.67203894 0 0 0 0 0 109778811.3042434 2761281.157437142 2761281.157437142 16409472.89388929 0 0 0 0 0 109587891.165606 2982511.043493532 2982511.043493532 15866968.82167575 0 0 0 0 0 109291623.4932086 2979186.884424767 2979186.884424767 15465175.38546964 0 0 0 0 0 109012867.2466431 3242109.739963042 3242109.739963042 14668304.32055599 0 0 0 0 0 109187097.3022425 3341560.136881487 3341560.136881487 14863798.58134693 0 0 0 0 0 108750783.5693355 3227412.106756907 3227412.106756907 14305155.80620456 0 0 0 0 0 108490365.1026721 3186191.990919606 3186191.990919606 13897704.801753 0 0 0 0 0 108223882.8592931 3269395.053544234 3269395.053544234 13618725.72505623 0 0 0 0 0 108036567.3909959 3313867.755877362 3313867.755877362 13194233.09840752 0 0 0 0 0 107859279.3996243 3331604.218347087 3331604.218347087 12799686.36497501 0 0 0 0 0 109600407.4214567 2675629.378091408 2675629.378091408 16271523.34311407 0 0 0 0 0 116566897.0535675 885511.0398982087 885511.0398982087 24636692.59746851 0 0 0 0 0 117085449.4971062 447694.5767667656 447694.5767667656 24829068.61502808 0 0 0 0 0 116220393.088167 660908.34989477 660908.34989477 24049938.55971899 0 0 0 0 0 115515073.9697309 658367.5143424262 658367.5143424262 23552853.54865606 0 0 0 0 0 114844260.4579589 654154.4554143656 654154.4554143656 22854063.32823388 0 0 0 0 0 114021338.3683627 993544.0691302222 993544.0691302222 22462997.60526896 0 0 0 0 0 113492074.5682797 1044705.531117679 1044705.531117679 21756294.06848374 0 0 0 0 0 112980205.7338309 1118209.869326346 1118209.869326346 21209684.63789585 0 0 0 0 0 112642207.2336704 1735848.681320162 1735848.681320162 20380199.0865957 0 0 0 0 0 112384889.062342 1660556.093432891 1660556.093432891 20368344.76337029 0 0 0 0 0 111931365.6882876 1722211.494367732 1722211.494367732 19832119.91347507 0 0 0 0 0 111492600.8961247 1777132.980907088 1777132.980907088 19310881.55238646 0 0 0 0 0 111073221.8369486 1834417.466016636 1834417.466016636 18831753.57944278 0 0 0 0 0 110688385.9846194 1883968.236848675 1883968.236848675 18352896.18116552 0 0 0 0 0 110324093.4085127 1931557.846172534 1931557.846172534 17887468.09131103 0 0 0 0 0 110124247.2946199 2403512.474535737 2403512.474535737 17179905.79315895 0 0 0 0 0 109942375.8532523 2327188.402068017 2327188.402068017 17081859.30500519 0 0 0 0 0 109621821.6469355 2351318.571941241 2351318.571941241 16650070.28488743 0 0 0 0 0 109468218.4125788 3073076.114053343 3073076.114053343 15637031.10402361 0 0 0 0 0 109177665.8787281 3065012.021384459 3065012.021384459 15244768.42322092 0 0 0 0 0 108914010.2519532 3322150.795198109 3322150.795198109 14494449.18573315 0 0 0 0 0 109009566.1978716 2974705.747847928 2974705.747847928 15077482.48816311 0 0 0 0 0 108663291.0902446 3298907.954244201 3298907.954244201 14158416.7137202 0 0 0 0 0 108403958.7114353 3249215.654742641 3249215.654742641 13928747.9648956 0 0 0 0 0 108075812.9187994 3264200.58063244 3264200.58063244 13122295.9195579 0 0 0 0 0 108254428.1355284 3167677.57697285 3167677.57697285 13508328.87726899 0 0 0 0 0 107910859.9320035 3325514.656033389 3325514.656033389 12772848.80120519 0 0 0 0 0 109470107.0153075 2767679.848142261 2767679.848142261 16000008.62583613 0 0 0 0 0 116672223.4679401 180418.825334555 180418.825334555 24396554.83325378 0 0 0 0 0 115863675.2204057 860161.4677524724 860161.4677524724 23806078.20030066 0 0 0 0 0 115174339.401435 876369.6941164995 876369.6941164995 23248272.46102279 0 0 0 0 0 114498558.625074 847457.8416874565 847457.8416874565 22673853.49334079 0 0 0 0 0 114229550.391497 674026.4910192899 674026.4910192899 22105497.50195878 0 0 0 0 0 113773189.6222304 1092277.004858461 1092277.004858461 21714680.73053178 0 0 0 0 0 113252284.8523573 1196171.557893688 1196171.557893688 21214697.3757496 0 0 0 0 0 112740147.1518753 1269266.82034004 1269266.82034004 20636977.12010042 0 0 0 0 0 112477171.0895371 1210737.951384887 1210737.951384887 20694032.70156092 0 0 0 0 0 112169168.7157221 1798825.152680254 1798825.152680254 19871480.44620124 0 0 0 0 0 111723332.8236139 1858569.053600451 1858569.053600451 19373990.20498706 0 0 0 0 0 111291914.23477 1911343.77725064 1911343.77725064 18891096.69967306 0 0 0 0 0 110886736.4942188 1953488.03453283 1953488.03453283 18406786.59230146 0 0 0 0 0 110510113.1353362 1996534.829949406 1996534.829949406 17937129.80007154 0 0 0 0 0 110155361.6377354 2038363.796414348 2038363.796414348 17494851.34658844 0 0 0 0 0 109978270.8003533 1973717.899300907 1973717.899300907 17436824.88286845 0 0 0 0 0 109793901.5827196 2425877.580407764 2425877.580407764 16751893.00540618 0 0 0 0 0 109480972.589814 2444817.822265338 2444817.822265338 16336849.66864207 0 0 0 0 0 109299971.7163674 2683965.599810982 2683965.599810982 15860572.96765267 0 0 0 0 0 109013942.5583342 2690040.268936212 2690040.268936212 15463554.9205502 0 0 0 0 0 108742154.7184976 2968557.650627659 2968557.650627659 14698685.34838715 0 0 0 0 0 108900795.7788662 3055574.800164713 3055574.800164713 14863377.03481796 0 0 0 0 0 108485484.1109025 2953920.030144162 2953920.030144162 14330591.15236752 0 0 0 0 0 108254314.5698756 2935964.601918795 2935964.601918795 13986253.56177774 0 0 0 0 0 107941090.5893537 3045798.515084484 3045798.515084484 13513530.53338913 0 0 0 0 0 108108938.8522549 3003111.510436907 3003111.510436907 13835106.70323528 0 0 0 0 0 107781995.8279288 3092503.781089731 3092503.781089731 13149631.39014624 0 0 0 0 0 109317469.261759 2371697.072768957 2371697.072768957 16231399.14079252 0 0 0 0 0 116297436.6989415 398818.4850627635 398818.4850627635 24221655.11740578 0 0 0 0 0 115914169.8568687 156311.1280324504 156311.1280324504 23828081.45371868 0 0 0 0 0 115197028.7572556 141805.8284548114 141805.8284548114 23229929.07542536 0 0 0 0 0 114524712.8186796 134776.6068846832 134776.6068846832 22714492.29679213 0 0 0 0 0 113958847.3397197 761173.479811204 761173.479811204 22210124.22720135 0 0 0 0 0 113639539.9814229 583227.5305229989 583227.5305229989 21922853.97257787 0 0 0 0 0 113109529.0693677 626657.8020204373 626657.8020204373 21442112.61620791 0 0 0 0 0 112564147.2280619 716653.5120455207 716653.5120455207 20973457.12794326 0 0 0 0 0 112252062.2905765 1347454.128420563 1347454.128420563 20151820.47165288 0 0 0 0 0 112013870.0189544 1290858.456926585 1290858.456926585 20178111.58976644 0 0 0 0 0 111580881.8706268 1361298.433164898 1361298.433164898 19657145.58128737 0 0 0 0 0 111142580.6560444 1428847.701136034 1428847.701136034 19151622.05868528 0 0 0 0 0 110746170.8841082 1486452.472267362 1486452.472267362 18676121.93366372 0 0 0 0 0 110383581.7038491 1545294.931261784 1545294.931261784 18213093.8350871 0 0 0 0 0 110024914.9764749 1605399.161858883 1605399.161858883 17757333.80294556 0 0 0 0 0 109818999.2671156 2073878.093632952 2073878.093632952 17064053.19999402 0 0 0 0 0 109652531.9881699 2010609.709640651 2010609.709640651 16999894.71662101 0 0 0 0 0 109344008.5879686 2043559.827417256 2043559.827417256 16575952.23174825 0 0 0 0 0 109176204.0265733 2771431.111195437 2771431.111195437 15602649.03781803 0 0 0 0 0 108895746.4945495 2772830.031783756 2772830.031783756 15215730.75735936 0 0 0 0 0 108643035.7243666 3041409.449836296 3041409.449836296 14497732.31517597 0 0 0 0 0 108742014.0705865 2694574.287058255 2694574.287058255 15079519.41919038 0 0 0 0 0 108399525.8804101 3021784.943159095 3021784.943159095 14155986.11848609 0 0 0 0 0 108184235.1082018 2995777.215340514 2995777.215340514 13801590.6811962 0 0 0 0 0 107809057.8097188 3050169.700765123 3050169.700765123 13071776.84233974 0 0 0 0 0 107992689.7505024 3006185.636877316 3006185.636877316 13442617.21083247 0 0 0 0 0 109183485.4616747 2460807.066896905 2460807.066896905 15934547.65221002 0 0 0 0 0 115546618.7818408 368201.1884470814 368201.1884470814 23596843.10301793 0 0 0 0 0 114865132.8221415 342762.2242489656 342762.2242489656 23005300.04067108 0 0 0 0 0 114197809.4806234 336613.6041529442 336613.6041529442 22451492.13727793 0 0 0 0 0 113904911.066776 153555.7101516425 153555.7101516425 22116044.40958806 0 0 0 0 0 113398275.6022743 747581.7577644542 747581.7577644542 21535813.31385256 0 0 0 0 0 112843533.716566 808858.7901272416 808858.7901272416 20985994.03872962 0 0 0 0 0 112334735.8783167 815255.1035316093 815255.1035316093 20294847.56722928 0 0 0 0 0 112104335.7001362 856812.6347967989 856812.6347967989 20480237.95267605 0 0 0 0 0 111798843.6113527 1422415.103254854 1422415.103254854 19668096.95207285 0 0 0 0 0 111369005.0745927 1498085.650725636 1498085.650725636 19178967.84617758 0 0 0 0 0 110949585.2868603 1548550.497724648 1548550.497724648 18697260.68344166 0 0 0 0 0 110560698.9305375 1598463.964184572 1598463.964184572 18226775.32000896 0 0 0 0 0 110199294.4499391 1657127.03206091 1657127.03206091 17768374.68688421 0 0 0 0 0 109855072.8362854 1707120.529532617 1707120.529532617 17343080.55094384 0 0 0 0 0 109692719.5269374 1655114.836669279 1655114.836669279 17318036.22224899 0 0 0 0 0 109501208.0289954 2105538.745629461 2105538.745629461 16645105.78252403 0 0 0 0 0 109199946.5768561 2134299.54200057 2134299.54200057 16239500.07393038 0 0 0 0 0 109027398.4717583 2389108.017126015 2389108.017126015 15826384.21472009 0 0 0 0 0 108750632.058769 2403954.769182555 2403954.769182555 15434770.51106016 0 0 0 0 0 108480366.979477 2695806.329695015 2695806.329695015 14703031.49773688 0 0 0 0 0 108629367.4902725 2771682.89634376 2771682.89634376 14835732.61602589 0 0 0 0 0 108231931.8681218 2692218.827056207 2692218.827056207 14337778.90398421 0 0 0 0 0 108033316.6041383 2715447.099203247 2715447.099203247 14036705.30941764 0 0 0 0 0 107704207.9162163 2837617.92470997 2837617.92470997 13454960.50328196 0 0 0 0 0 107849364.6132681 2769439.771453034 2769439.771453034 13765876.77582606 0 0 0 0 0 109049325.5841009 2072725.212972641 2072725.212972641 16164488.48006692 0 0 0 0 0 113638500.8654543 316914.914476237 316914.914476237 21879947.20754508 0 0 0 0 0 113345168.7231162 146958.9366097487 146958.9366097487 21657720.66987584 0 0 0 0 0 112781294.0660584 157603.8043686982 157603.8043686982 21069101.5896532 0 0 0 0 0 112126079.5093442 498967.3070356053 498967.3070356053 20704401.40755381 0 0 0 0 0 111877890.2899067 955712.3175715017 955712.3175715017 19816105.10883758 0 0 0 0 0 111671349.9216415 962749.826772402 962749.826772402 19932106.83892041 0 0 0 0 0 111221986.813128 1007889.922291444 1007889.922291444 19421165.36032119 0 0 0 0 0 110832137.3097242 1070440.177944842 1070440.177944842 18963824.12429782 0 0 0 0 0 110442749.9224679 1156923.165584964 1156923.165584964 18497879.16038778 0 0 0 0 0 110092745.9891074 1219710.033944316 1219710.033944316 18039476.54307382 0 0 0 0 0 109739288.7261678 1289667.300873338 1289667.300873338 17598562.5273062 0 0 0 0 0 109531453.0118728 1750995.270416595 1750995.270416595 16922426.30680412 0 0 0 0 0 109380568.9284724 1700507.897044815 1700507.897044815 16890903.64593594 0 0 0 0 0 109080707.7912973 1741986.145346117 1741986.145346117 16475152.56553094 0 0 0 0 0 108899867.1086653 2473721.427580005 2473721.427580005 15542943.85966261 0 0 0 0 0 108628681.7689444 2484725.245110394 2484725.245110394 15163797.97176426 0 0 0 0 0 108375232.9034334 2768341.350634589 2768341.350634589 14477115.84521684 0 0 0 0 0 108485352.4710125 2416545.296807256 2416545.296807256 15056236.82270331 0 0 0 0 0 108130971.2736649 2764616.193761402 2764616.193761402 14122308.92385167 0 0 0 0 0 107929656.0795704 2755263.3266432 2755263.3266432 13713016.72532855 0 0 0 0 0 107724573.2507865 2778510.128979379 2778510.128979379 13350196.0419914 0 0 0 0 0 108912495.3221151 2158791.900533349 2158791.900533349 15844604.59108987 0 0 0 0 0 113068028.5921725 331054.2307271847 331054.2307271847 21331926.34420678 0 0 0 0 0 112504341.0278845 324645.3589116687 324645.3589116687 20836224.39877722 0 0 0 0 0 111885534.1985135 538470.4493236482 538470.4493236482 19914554.63600935 0 0 0 0 0 112259721.3951399 164694.7197181231 164694.7197181231 20381153.97834467 0 0 0 0 0 111685880.8677957 658069.2357214234 658069.2357214234 20149462.32711406 0 0 0 0 0 111448439.0836412 1110426.562498479 1110426.562498479 19538629.1439295 0 0 0 0 0 111029811.213576 1123136.799050085 1123136.799050085 18962513.99766074 0 0 0 0 0 110626048.2849297 1189471.652425856 1189471.652425856 18450132.95681233 0 0 0 0 0 110256311.8330624 1267895.86894498 1267895.86894498 18048737.37628889 0 0 0 0 0 109904941.8293362 1328538.308482302 1328538.308482302 17569203.78066968 0 0 0 0 0 109571958.3239486 1383601.022026393 1383601.022026393 17169802.03385064 0 0 0 0 0 109428295.0494774 1344248.981940376 1344248.981940376 17173596.98494613 0 0 0 0 0 109226227.5996859 1793263.460440976 1793263.460440976 16515656.27468164 0 0 0 0 0 108934177.5318094 1830002.376901052 1830002.376901052 16118897.70197169 0 0 0 0 0 108769371.0198783 2098314.523993237 2098314.523993237 15765854.02151101 0 0 0 0 0 108502159.1013 2121261.989849724 2121261.989849724 15380176.50281432 0 0 0 0 0 108230934.3909655 2423969.089150956 2423969.089150956 14682858.95875483 0 0 0 0 0 108369427.4467877 2491996.536906582 2491996.536906582 14794949.72182435 0 0 0 0 0 107996676.8262748 2432273.579921983 2432273.579921983 14328280.29318167 0 0 0 0 0 107788037.3339736 2469589.122019032 2469589.122019032 14025477.65382886 0 0 0 0 0 107628764.5990413 2570328.853256362 2570328.853256362 13721843.58542624 0 0 0 0 0 108795473.8953726 1779108.502723687 1779108.502723687 16072500.64770731 0 0 0 0 0 111796861.7712817 129341.3123040389 129341.3123040389 20167124.2921304 0 0 0 0 0 112037543.0131329 252672.1987814307 252672.1987814307 20342853.50871789 0 0 0 0 0 111487460.78052 598225.5413282956 598225.5413282956 19523619.55880731 0 0 0 0 0 110914002.4578071 713518.1924505726 713518.1924505726 19254289.9732842 0 0 0 0 0 110539644.4544049 793997.7752971536 793997.7752971536 18729708.00429035 0 0 0 0 0 110153497.1881146 835364.9677238784 835364.9677238784 18247231.1250691 0 0 0 0 0 109812007.3207456 878713.9537691955 878713.9537691955 17852780.57524664 0 0 0 0 0 109502671.6811906 962012.3035403609 962012.3035403609 17439169.06055718 0 0 0 0 0 109263814.3150136 1439583.232234126 1439583.232234126 16762070.17489641 0 0 0 0 0 109122410.070382 1398380.917666283 1398380.917666283 16756500.04309286 0 0 0 0 0 108831572.2614005 1447423.794793733 1447423.794793733 16351461.99424575 0 0 0 0 0 108638779.8771852 2180356.723866216 2180356.723866216 15460334.95809837 0 0 0 0 0 108376426.2591153 2200428.964119168 2200428.964119168 15086431.23787498 0 0 0 0 0 108121845.8394338 2496676.80513318 2496676.80513318 14441527.81094018 0 0 0 0 0 108240878.0847373 2142516.299023174 2142516.299023174 15009621.80025418 0 0 0 0 0 107885256.0652788 2505323.639438745 2505323.639438745 14069965.39689902 0 0 0 0 0 107652136.1618662 2487923.298433317 2487923.298433317 13576834.87035449 0 0 0 0 0 108656425.0046108 1862339.188596524 1862339.188596524 15733403.24588879 0 0 0 0 0 111558589.6262694 279606.1481179196 279606.1481179196 19833547.62172581 0 0 0 0 0 111249467.9346813 649768.1815344556 649768.1815344556 19586298.67318104 0 0 0 0 0 110703878.7357038 847499.5316919241 847499.5316919241 18767885.75218557 0 0 0 0 0 111050980.0788522 553384.1427639733 553384.1427639733 19024713.42109286 0 0 0 0 0 110345911.3708388 915744.3494233151 915744.3494233151 18323304.56250552 0 0 0 0 0 109974188.8076247 955148.7536939832 955148.7536939832 17919956.1243317 0 0 0 0 0 109625778.5700438 970129.2486053659 970129.2486053659 17333241.91673862 0 0 0 0 0 109314145.5777223 1068111.857026015 1068111.857026015 16958336.82657398 0 0 0 0 0 109178121.7363782 1044316.754229052 1044316.754229052 17009290.41436224 0 0 0 0 0 108966142.1924713 1488629.380295262 1488629.380295262 16364951.61380946 0 0 0 0 0 108683090.9422134 1533090.781962638 1533090.781962638 15978592.80160428 0 0 0 0 0 108525511.0578354 1812263.480768714 1812263.480768714 15681767.99985422 0 0 0 0 0 108269493.052594 1844323.965757348 1844323.965757348 15302725.4485021 0 0 0 0 0 108000410.3522044 2154668.162266674 2154668.162266674 14639076.65947812 0 0 0 0 0 108124485.1739912 2213722.91202702 2213722.91202702 14731829.17581216 0 0 0 0 0 107766335.717901 2151839.557356415 2151839.557356415 14257853.91980967 0 0 0 0 0 107561769.94478 2303952.064959128 2303952.064959128 13967542.63028277 0 0 0 0 0 108553553.0504925 1491454.299086707 1491454.299086707 15958026.13023586 0 0 0 0 0 111318554.0373845 129030.8926752195 129030.8926752195 19533604.70909459 0 0 0 0 0 110693542.3512846 459951.474692829 459951.474692829 18857977.13747939 0 0 0 0 0 110916735.6561856 592434.5383629692 592434.5383629692 19129073.6072619 0 0 0 0 0 110312991.5803444 470199.3699792793 470199.3699792793 18460346.57877621 0 0 0 0 0 109936634.2180522 470966.4098265734 470966.4098265734 17950508.28541184 0 0 0 0 0 109526278.884887 621193.4212871729 621193.4212871729 17704845.48372883 0 0 0 0 0 109251349.182433 684198.1385775328 684198.1385775328 17229142.68470948 0 0 0 0 0 109010973.0051451 1136598.201831459 1136598.201831459 16577671.85825345 0 0 0 0 0 108882468.3025223 1108037.7780272 1108037.7780272 16597605.42042567 0 0 0 0 0 108588765.4937026 1164580.776417715 1164580.776417715 16203406.72603367 0 0 0 0 0 108391776.8294351 1891787.75482077 1891787.75482077 15353709.58685139 0 0 0 0 0 108137198.9333251 1920858.234311438 1920858.234311438 14971255.40988014 0 0 0 0 0 107893710.0925741 2227285.89097705 2227285.89097705 14416718.40145336 0 0 0 0 0 108010761.6545494 1879453.760541369 1879453.760541369 14939667.32424234 0 0 0 0 0 107680578.3794434 2214036.164102873 2214036.164102873 14147422.68684726 0 0 0 0 0 107540247.5745921 2136047.075981718 2136047.075981718 13772547.08653917 0 0 0 0 0 108413817.0806602 1570678.019956279 1570678.019956279 15602536.08047757 0 0 0 0 0 111086312.8692161 252660.8087798733 252660.8087798733 19377697.56885901 0 0 0 0 0 110505676.6612416 574610.0968568493 574610.0968568493 18631830.02898561 0 0 0 0 0 110892653.7028488 127708.5621983547 127708.5621983547 19084540.041327 0 0 0 0 0 110125374.7603152 588771.2615527582 588771.2615527582 18200359.87360737 0 0 0 0 0 109808619.3764481 532501.4214407118 532501.4214407118 17974675.01408919 0 0 0 0 0 109338931.8637249 672109.392971908 672109.392971908 17107269.087307 0 0 0 0 0 109610341.6715569 463182.4652066794 463182.4652066794 17356917.52894775 0 0 0 0 0 109070671.3018435 774341.4468200085 774341.4468200085 16728447.9902501 0 0 0 0 0 108945287.3512025 770885.4361406005 770885.4361406005 16811198.55993645 0 0 0 0 0 108722058.8345489 1201138.717824008 1201138.717824008 16200222.74168727 0 0 0 0 0 108443362.3904178 1241971.663467896 1241971.663467896 15816928.81846112 0 0 0 0 0 108296438.2940361 1530845.046797852 1530845.046797852 15575842.33576129 0 0 0 0 0 108035290.3511936 1589296.92365027 1589296.92365027 15219617.51826728 0 0 0 0 0 107791896.5580151 1884417.101280755 1884417.101280755 14566619.27846937 0 0 0 0 0 107902323.9461919 1942691.160850378 1942691.160850378 14672274.59948887 0 0 0 0 0 107580714.1065612 1897775.565442569 1897775.565442569 14275238.24678057 0 0 0 0 0 107491298.9326971 2021962.711983504 2021962.711983504 14149491.23024944 0 0 0 0 0 108332333.3063862 1213008.44440191 1213008.44440191 15825510.13144415 0 0 0 0 0 110504081.2197921 116396.6503467799 116396.6503467799 18665059.11549195 0 0 0 0 0 110702892.1681292 237963.7701665253 237963.7701665253 18900080.78319063 0 0 0 0 0 110125110.7271965 120847.7268876057 120847.7268876057 18244660.90789995 0 0 0 0 0 109747915.0647874 112895.1555712888 112895.1555712888 17756822.17997745 0 0 0 0 0 109284305.2067954 365841.2034212586 365841.2034212586 17444697.48202806 0 0 0 0 0 109520691.4436723 230650.6193805108 230650.6193805108 17722435.46934603 0 0 0 0 0 108997879.2409229 439944.8358057636 439944.8358057636 17004100.31482948 0 0 0 0 0 108779507.3320321 867618.3764037098 867618.3764037098 16406576.623734 0 0 0 0 0 108644150.3516572 827110.9030678199 827110.9030678199 16395766.24943124 0 0 0 0 0 108374832.7114931 894296.1073816109 894296.1073816109 16036464.07036728 0 0 0 0 0 108153403.8184515 1613341.503898164 1613341.503898164 15216659.08008426 0 0 0 0 0 107902722.7216785 1628965.412054801 1628965.412054801 14800610.78232795 0 0 0 0 0 107693660.1368032 1954528.067322055 1954528.067322055 14357107.76042991 0 0 0 0 0 107799158.790333 1620571.665058259 1620571.665058259 14821903.73513316 0 0 0 0 0 107467165.4107314 1950451.840893082 1950451.840893082 13948411.62066639 0 0 0 0 0 108189195.9101157 1292041.992361143 1292041.992361143 15454468.66174799 0 0 0 0 0 110307841.9878836 233574.6154407909 233574.6154407909 18455121.4666595 0 0 0 0 0 109945976.0057931 234750.3406923517 234750.3406923517 18017876.01309623 0 0 0 0 0 109627477.2252174 205550.8531139929 205550.8531139929 17565761.8058458 0 0 0 0 0 109343428.0830146 209056.9553497358 209056.9553497358 17133743.95858754 0 0 0 0 0 109105067.3943255 438806.8174757131 438806.8174757131 16909236.67636635 0 0 0 0 0 108841401.4397773 522490.7522584132 522490.7522584132 16585707.4769166 0 0 0 0 0 108704374.908291 470253.3920553909 470253.3920553909 16549970.89413815 0 0 0 0 0 108489408.12659 907414.4481577043 907414.4481577043 15977633.77102617 0 0 0 0 0 108231216.6807563 970116.8007221067 970116.8007221067 15652469.57207124 0 0 0 0 0 108084509.2802784 1250979.769287165 1250979.769287165 15423230.5133259 0 0 0 0 0 107824565.369201 1482799.324302314 1482799.324302314 15069710.8167082 0 0 0 0 0 107587631.0953147 1620680.720672241 1620680.720672241 14491865.00789635 0 0 0 0 0 107695373.432699 1690237.395673281 1690237.395673281 14672244.20613201 0 0 0 0 0 107429916.9239467 1714092.80025029 1714092.80025029 14307051.04450824 0 0 0 0 0 108141112.1095579 957865.2055741219 957865.2055741219 15689162.91637241 0 0 0 0 0 109251664.7985578 208601.6635045686 208601.6635045686 17271938.38052988 0 0 0 0 0 109088595.3058246 107628.5778509764 107628.5778509764 17037812.32801183 0 0 0 0 0 108778098.1378096 112623.297233158 112623.297233158 16675472.27209147 0 0 0 0 0 108542558.6094298 559827.3054312336 559827.3054312336 16125944.82656226 0 0 0 0 0 108415926.202024 554410.2943483951 554410.2943483951 16221073.90861022 0 0 0 0 0 108191749.3833872 660952.5925832307 660952.5925832307 15899450.81056481 0 0 0 0 0 107957919.0744489 1331373.403932539 1331373.403932539 15169038.7758295 0 0 0 0 0 107837631.6803713 1256173.295393838 1256173.295393838 14909591.80319904 0 0 0 0 0 107658008.4050843 1419260.757432092 1419260.757432092 14560297.5827199 0 0 0 0 0 107476104.3210311 1679501.738097605 1679501.738097605 14190767.28991692 0 0 0 0 0 108004939.9590262 1028626.320358564 1028626.320358564 15321574.18081694 0 0 0 0 0 108947897.6161075 198437.1174764155 198437.1174764155 16800373.36547757 0 0 0 0 0 108620274.0031375 215247.2534362031 215247.2534362031 16418902.26525485 0 0 0 0 0 108483553.3099242 136677.0286239528 136677.0286239528 16300935.94198612 0 0 0 0 0 108257413.4238722 594377.0155664562 594377.0155664562 15712199.63361687 0 0 0 0 0 108037585.379271 748631.0582370609 748631.0582370609 15510016.45053251 0 0 0 0 0 107927264.5859262 1011906.168016736 1011906.168016736 15360059.39265124 0 0 0 0 0 107767798.6889668 1187177.058041746 1187177.058041746 15137271.99589577 0 0 0 0 0 107589226.4971971 1322191.815346488 1322191.815346488 14839630.36695917 0 0 0 0 0 107390431.1083381 1411463.833523038 1411463.833523038 14480705.86341421 0 0 0 0 0 107952758.8909784 715068.2512951159 715068.2512951159 15519564.62407247 0 0 0 0 0 108336475.6236479 232504.9338606544 232504.9338606544 16062253.28922009 0 0 0 0 0 108169037.1291723 510609.2135758937 510609.2135758937 15944268.55518496 0 0 0 0 0 108025210.3848555 425291.6236610328 425291.6236610328 15601855.39142501 0 0 0 0 0 107774692.6657687 1073268.018082311 1073268.018082311 14899489.16081562 0 0 0 0 0 107605457.5648918 1167014.287772863 1167014.287772863 14600758.72828242 0 0 0 0 0 107429622.2384555 1314806.123139744 1314806.123139744 14301741.9406451 0 0 0 0 0 107807445.9835485 796752.6791035801 796752.6791035801 15149605.34635318 0 0 0 0 0 108194133.3360978 140285.6698726605 140285.6698726605 15801196.29422921 0 0 0 0 0 107905068.770041 498003.3820238063 498003.3820238063 15454431.90123362 0 0 0 0 0 107732790.4760714 803952.9533604111 803952.9533604111 15240427.814441 0 0 0 0 0 107546854.9502769 972680.282244091 972680.282244091 14959624.38659402 0 0 0 0 0 107359360.7750273 1108042.753525686 1108042.753525686 14623649.13063919 0 0 0 0 0 107779927.175174 420386.2843648414 420386.2843648414 15292705.30835814 0 0 0 0 0 108077955.4266637 208240.3965018721 208240.3965018721 15707710.2049947 0 0 0 0 0 107938342.3662688 117393.5038783708 117393.5038783708 15478352.01750779 0 0 0 0 0 107567205.1773652 829344.4041551313 829344.4041551313 14694975.38745818 0 0 0 0 0 107377264.2763595 973464.2576629891 973464.2576629891 14393395.43519697 0 0 0 0 0 107668266.6893586 489427.0073875521 489427.0073875521 15160628.48598915 0 0 0 0 0 107804574.4814512 194275.6095123012 194275.6095123012 15355123.87234072 0 0 0 0 0 107514094.6704166 666002.0179078301 666002.0179078301 15037661.08278773 0 0 0 0 0 107322900.6201859 794797.1270455003 794797.1270455003 14688345.36505865 0 0 0 0 0 107535817.0294024 423530.5556796814 423530.5556796814 14788731.03762504 0 0 0 0 0 107667836.1577662 103684.5983735274 103684.5983735274 15114166.30859486 0 0 0 0 0 107332126.1111164 647419.5629823537 647419.5629823537 14434632.05133912 0 0 0 0 0 107471699.348186 394664.4608298379 394664.4608298379 14967159.54745664 0 0 0 0 0 107549396.9857063 173778.6259125854 173778.6259125854 15024719.97256679 0 0 0 0 0 107300074.4462137 475632.5169298069 475632.5169298069 14737056.43253671 0 0 0 0 0 107437457.9387135 102244.034544063 102244.034544063 14822524.37606505 0 0 0 0 0 107332340.9561858 360010.7058650573 360010.7058650573 14519283.67579903 0 0 0 0 0 107359026.7065722 155793.9288455527 155793.9288455527 14676467.36541498 0 0 0 0 0 107278328.6526648 147535.0166952867 147535.0166952867 14727163.81035844 0 0 0 0 0 </DataArray>
      </CellData>
      <PointData>
        <DataArray type="Int64" IdType="1" Name="vtkOriginalPointIds" format="ascii" RangeMin="0" RangeMax="7057">57 1 6974 58 432 6788 56 59 6033 7048 426 55 6815 60 388 7018 4205 4455 61 6920 54 4204 382 62 6917 6772 4202 7029 4626 63 4206 53 4207 4203 4627 4628 4500 4200 4201 6895 64 6837 52 4198 6836 6771 356 6991 65 66 4540 377 4197 4199 6834 3721 399 67 2848 51 4035 5842 2847 4181 6883 6921 4600 68 69 344 6849 4499 3694 6728 2283 3175 4601 4604 70 2526 50 4034 2011 2614 6831 4105 4602 4603 400 6932 4147 3693 3692 6830 1934 6827 7013 4605 71 2227 49 6733 1814 3709 4104 3177 3449 6564 6870 4927 7031 72 73 6871 350 7037 4146 3691 3690 1935 1808 6814 6910 336 74 6010 48 6739 1664 6825 3137 2835 5931 3134 6090 4135 4133 5012 75 76 77 359 5013 4579 4578 4577 3151 3193 4526 1648 4078 5872 6980 6994 78 1665 47 4044 1563 6809 2834 2642 2639 2638 2640 4112 4111 4113 6292 6840 6890 4208 422 6940 3701 3149 3150 3671 6738 1523 4756 5998 6957 79 6803 46 6742 1467 4286 2833 2641 2367 2366 5900 3483 3522 6133 3718 5856 3975 4167 327 80 5760 6979 4573 3148 2826 5860 6027 1524 1424 3302 3447 6995 81 6802 45 4253 1390 4285 3301 4688 1993 1930 1929 3482 6095 3157 3156 3158 3974 6886 4162 6521 82 83 361 340 4574 3317 2825 2635 2894 3194 6741 1339 3720 2769 6232 4081 6891 84 1391 44 6833 4055 1303 6798 4478 2540 1992 1828 1827 3942 6051 2558 2559 3973 6211 4093 6709 4362 6990 85 86 321 6942 4194 4546 5017 2633 2634 2895 3672 6818 1282 5036 5893 2871 2870 4164 5169 87 6795 43 4066 6819 1230 4474 3880 3879 4632 1826 1732 5995 1996 1997 5714 6188 3360 5819 5777 3593 4163 6644 5170 4195 4067 3135 2631 2632 5978 6075 6748 1283 1186 4471 1730 2816 2815 6851 88 6793 42 3136 4592 1050 4473 4470 5060 2299 1825 1731 1729 1893 3018 6113 5754 5687 2817 3082 3592 6356 3719 363 5171 89 90 6841 420 4315 4449 2630 2039 5761 5653 3471 3472 4591 1038 4472 1609 2305 2306 6914 404 91 1141 41 5840 6750 1013 6791 2831 2682 2681 5855 5132 1608 5904 6018 3954 1901 1902 3081 3540 6347 2850 2849 6952 3178 4155 6958 4972 92 93 314 5594 6842 3795 4456 2038 2007 2214 3001 3470 6749 4593 1004 4889 1526 2254 5709 4973 4980 94 6786 40 5468 4594 925 4373 2830 2683 3274 4564 5251 1525 5567 5792 1649 1650 2230 6322 6328 5775 2520 2629 3186 4082 4183 6757 407 95 96 4981 331 6929 3794 3113 2563 2005 2006 3000 3469 3505 6725 1005 917 3202 1489 3072 6301 3179 7045 6894 348 97 6784 39 2004 4595 902 4372 2832 4562 4563 4866 1591 1486 1484 1483 1487 6030 6063 3538 2013 2012 2014 5101 3187 6404 3762 3761 4040 4982 6605 6959 98 6683 7025 4161 3147 2564 2008 1834 5726 3937 6064 6767 4598 4596 885 4371 1488 6218 3561 3929 6987 6899 4430 406 99 100 6873 903 38 1833 4597 864 6776 4379 5883 2051 1865 1864 1485 1422 1421 5888 3936 3935 2454 1813 1812 5795 6003 4024 6393 2884 2883 5762 5969 3777 312 101 6904 4412 5670 4977 3300 5906 1667 5975 6020 2625 6740 3708 2296 860 3714 5212 6199 3562 5545 3776 4157 4431 7043 6963 102 6775 37 1666 4261 773 4289 3713 5493 1925 1866 2956 4958 1314 1313 5563 3002 3003 4753 1748 1747 5740 2765 6385 3297 2656 2655 2657 5914 3406 7003 6778 4187 103 104 365 7033 375 4237 3828 3827 4447 4978 5711 1600 1787 1922 2624 2924 3706 6744 769 3712 4960 6141 4754 6333 3407 4432 6811 5196 105 2298 36 1597 6745 763 6773 3095 2538 1926 5190 6013 4959 1302 1300 1298 1297 5835 2595 1746 1564 1565 2248 5258 5054 2364 2363 5691 3404 3405 3774 3673 4186 6857 411 106 6868 4142 3155 2948 5600 4949 1595 1599 1889 1923 2781 2925 3707 770 761 3711 4961 6080 4827 3064 6185 7008 6948 6684 6770 35 4238 1596 6813 745 4288 3094 2539 2673 4348 4566 1402 1301 1299 1200 1199 2983 5640 1427 1428 2137 2469 3969 6308 1946 1945 1947 3008 3966 6161 3140 5538 3198 5948 3922 7056 107 108 319 5523 7028 4239 7050 2842 2353 1899 1594 1530 5490 5279 3448 6176 6195 6732 4658 743 3715 4565 5973 3442 3074 3965 5617 4138 7004 109 746 34 6780 5859 4659 733 6746 4885 2674 4347 5629 3362 6144 2710 4775 1041 1040 5791 1310 1311 5565 4930 3075 5321 6297 1807 1887 3007 3501 2989 6140 2582 2583 5885 3921 3190 5303 5304 110 323 6909 2843 6968 2354 1900 1598 1529 1439 6009 6065 6139 3961 3521 4063 2055 731 4682 3932 5721 1189 3995 3375 3191 6897 371 111 6736 33 4154 5550 4271 726 4683 4681 4337 3804 2747 2980 4569 6079 5089 1035 1033 1031 1190 1640 5167 3997 3996 6305 1806 1644 5558 3919 6103 2988 5852 2388 2387 5592 2661 2662 3765 3769 5302 6824 5316 112 5449 7032 4153 6058 3829 5173 2722 5055 1438 1382 3010 5744 5492 2532 2976 4064 6730 724 4341 3941 1030 1138 6285 3897 3192 6893 412 2206 32 3299 1496 6805 718 6731 4338 3805 2436 2435 5827 6077 5207 1184 1034 1032 933 5168 4479 3999 3998 4001 2735 1643 1468 5905 5976 1572 5073 5697 1915 1916 2269 2618 5536 3766 5301 6821 5398 6993 113 418 5133 3176 5264 4411 4481 5951 5056 1380 1381 2148 2150 2256 2531 5778 6721 725 717 4340 6022 932 5907 6267 5698 3767 4103 5325 4254 114 6729 31 2951 2147 4727 711 4343 4339 5229 2036 2035 5541 2759 1619 1618 5233 4970 911 5939 4002 4000 5257 6274 5285 1342 1343 1345 1347 1364 1668 1419 1669 2268 2617 3103 5463 3768 6820 3679 3677 7051 325 115 117 118 373 116 5331 5328 5399 6854 3746 2952 2950 3296 5879 5057 1379 1335 5586 2149 2151 2257 2533 6756 4729 4726 707 4342 5204 910 2764 5623 1425 6498 3676 5326 5599 5356 119 712 30 2585 5252 4728 702 6727 4554 2530 1928 1803 1647 1621 1620 3312 4971 2698 897 4439 4003 4004 6261 1843 1250 1251 1344 1346 1348 1365 1498 1420 5256 5192 3104 4038 6491 6769 3773 3678 2863 5327 6844 6943 5329 5357 120 121 338 368 6949 4091 3747 5080 2584 5627 3374 5418 1333 1334 5996 2456 5283 3080 6369 6714 3689 2057 701 4555 1623 896 5964 1143 1497 1904 2862 6855 7054 5359 122 6726 29 2228 6074 4277 700 4831 4830 5037 1927 1802 1645 1622 5871 5960 4684 5082 895 6180 6207 6223 5467 1006 1144 5514 5180 1547 4769 5802 5483 1641 5508 6472 6477 6482 1809 4349 4214 6586 2680 2867 5330 4114 4115 4116 5358 6863 414 6816 4476 6276 5081 2229 2115 2113 2111 1332 1249 5880 3948 6109 6000 6360 4017 3132 3686 6713 698 3696 1624 882 881 1007 1642 1704 2679 6941 6953 6889 123 2295 28 4139 2116 3946 6782 696 6723 3330 2528 2069 4929 1646 5639 3905 4408 3345 923 894 5540 2743 5522 908 909 2728 4415 5824 4482 3883 5479 2117 1801 6465 3605 3604 5476 1702 1705 3772 6581 2678 5532 3908 3142 3141 5875 5466 4074 4075 5360 5361 124 6938 4184 3164 3958 6268 5032 2114 2112 1407 1248 1183 5611 3027 3947 6327 5487 2789 3131 6712 699 695 3695 1741 880 878 4442 1960 1703 2359 7005 6901 125 6720 27 3163 2958 3527 4854 693 4833 3083 2529 5298 3894 1933 2424 2931 4406 3252 2086 4871 876 874 872 871 5967 4413 3862 5462 3304 2964 1962 6408 1961 3982 3097 2483 1701 1448 2749 6806 3663 2391 2358 3907 2667 5776 2668 2844 3047 6231 6982 3484 4144 346 318 5149 3145 6265 5034 5033 5035 2708 4957 1182 1181 1269 3026 6246 2246 2220 2626 3411 6706 4853 692 4832 2018 879 877 4414 2245 5502 1977 7020 126 694 26 3144 4956 6186 4855 691 6717 3084 3215 4436 4437 5913 2425 5602 6115 6062 4331 4457 875 873 856 855 5994 3861 3308 3305 2965 2479 2478 6395 5280 5085 2792 1742 1397 1396 5503 6560 5100 5253 1976 5497 2315 2314 2669 3046 3990 6170 3138 4127 5365 6407 127 128 129 5370 417 6817 5150 3146 2943 2942 6272 5262 4954 4955 5799 1158 1180 2776 3499 5051 2219 1957 5655 6724 4940 4938 690 3687 2919 6295 1537 5997 6430 5699 1975 2846 358 130 6716 25 2944 3874 6164 4939 689 4068 3216 4300 3450 4012 6481 2920 3477 4314 3814 3815 6288 4896 4905 852 851 1743 3860 3307 3306 5061 3037 3038 5276 6370 3334 3333 5433 1307 1306 6556 4545 3356 2500 1895 1894 1896 5290 3048 6286 6290 2400 3133 6005 5366 6867 6965 6807 131 132 5382 6850 4102 3343 3342 2356 1990 2223 6156 3873 5636 1156 1157 5309 3500 3964 2731 1956 1855 2289 6699 3971 2527 688 3688 3475 4898 4897 4401 3563 1308 1974 2399 4089 7057 385 133 6715 24 5308 3504 6132 4282 687 4298 6040 2911 2910 6476 4465 3476 4313 2907 2906 5683 3361 4899 2709 849 848 6017 3863 5063 5062 3567 3549 3550 3336 6365 3335 4661 5432 1178 1179 6800 4544 2806 2719 1680 1679 5496 5291 6282 3533 5414 2383 5934 4770 4087 4086 5405 4108 6916 5381 134 367 6931 4101 3539 4842 1988 1989 3497 6138 2779 1155 1025 5717 5310 6081 6107 5437 1728 1853 6173 3970 3682 6704 685 4299 4306 6254 4900 4402 3409 6796 5273 2381 4088 7023 429 135 2198 23 1987 2993 3396 6702 684 6677 5108 2620 2566 2565 5539 5448 3915 2752 2429 2675 2677 4901 4902 846 845 6035 6289 6311 6325 6340 6355 6362 3408 5511 4527 2729 1133 1134 1326 4543 2967 2966 3889 1536 1533 5518 6106 3532 3261 2457 2382 2380 5899 3899 3744 3742 3741 4145 5402 6934 6790 136 6398 7038 6225 6227 6447 5274 1781 5597 6117 3939 2594 1024 1002 5917 6036 2209 5794 1590 1727 1854 6152 3681 3680 686 683 4061 1692 3031 6255 6281 6041 6537 5266 2348 5319 6972 2 6676 22 1780 2994 1506 4287 681 4309 3061 2619 1982 1724 1691 5520 5591 1949 2030 2676 3030 4903 4904 844 842 840 2143 5512 850 5507 2234 5510 4528 857 4633 1131 1132 5461 6799 4542 4541 5993 5267 1509 1452 1453 6098 3507 3260 2692 5234 2346 2345 3898 3743 3740 3739 5401 5379 5378 5380 137 5086 4025 3204 3585 6444 1782 1673 2176 6097 3940 5259 1001 1000 1021 1328 1330 1398 1589 5551 6119 5423 3035 3675 6701 680 4059 1689 5392 6120 838 5665 5384 1555 2347 5836 7027 682 21 1672 4559 1504 6761 679 6675 3327 5007 1981 1723 1690 1687 1686 1740 5277 3478 3479 6050 847 843 841 839 836 834 832 830 828 826 5738 824 1129 1130 3379 6797 4085 3844 3843 3901 4621 1451 1395 5519 4422 4421 5469 4384 4423 2341 2340 4809 5271 3737 3736 3738 6912 5377 424 138 330 6880 3203 3162 5460 6238 6436 1560 5837 5526 5816 5499 998 999 1327 1329 1331 1399 5732 6060 5422 3034 3033 6758 2068 678 4060 1688 6172 1744 837 822 5464 5921 6014 2344 6674 20 1559 3370 1505 4933 677 4582 4580 2410 2032 5254 3350 1577 1576 5725 5278 6076 6116 854 853 4662 6502 2062 835 833 831 829 827 825 820 823 819 5605 6794 4084 2869 2542 2977 3920 5965 1394 1292 5417 2761 3255 3257 3468 6183 2339 2338 5678 3745 3735 3734 6822 5375 5376 139 5087 6885 4136 3161 2814 3498 4021 6433 1546 5471 2163 5524 996 997 5686 2750 4812 4755 1538 2767 6001 5421 2403 3032 6700 4932 676 4581 4895 5005 862 4841 821 2541 5220 2342 5613 6673 19 1461 994 1539 4934 675 4583 3054 2411 2685 5810 5115 1493 1492 5892 6034 2775 5495 861 2714 4297 5642 4301 1051 4657 2060 4649 1289 4697 768 2067 767 2162 6520 3655 2868 2488 5525 5870 3349 1264 1241 1239 1240 3256 3258 6134 5287 2336 2335 5300 5299 3732 3733 5374 381 140 5297 4678 4679 6999 2812 2813 4020 6431 1462 1337 1235 1046 993 995 3410 6453 6467 5575 2053 1540 5857 5659 2213 2402 6698 4936 4935 673 4685 5123 890 889 5745 4887 2487 1383 5286 2337 2255 18 1338 990 1541 4894 672 6672 5088 2686 3290 4438 2957 1393 1268 1168 1163 1161 916 4906 4296 3401 3402 3435 6334 4651 4650 4407 4324 6320 759 4888 758 6516 4212 3656 6634 2444 2443 5438 2075 1259 1226 1225 5465 3910 3957 5983 3357 2333 2334 5482 3731 3730 7039 5372 141 402 4674 4677 2811 2376 5431 6427 3503 2270 1236 1047 1003 989 5787 6443 4033 3602 6484 5825 1542 1544 1725 1983 5782 3415 6694 674 671 4058 1502 915 1020 3952 3332 2486 2074 2332 3902 5373 6671 17 6206 984 1543 4893 669 4311 3292 3291 4419 5116 1585 1392 1267 1167 1162 1160 1159 5485 3399 3400 3434 3951 6448 4652 6329 3386 3367 3962 739 4446 738 740 5620 6747 4512 2083 2081 2077 2076 5307 1224 1223 5546 5849 5958 3358 2452 2331 5436 5453 3728 3729 142 5371 4672 4673 4675 6829 2375 2301 5671 6224 6217 4360 1516 6187 6353 983 2174 6434 3564 3560 4302 2037 1583 1545 1726 1984 2623 3028 3206 4892 668 4057 1503 5305 4291 6099 6296 4510 3348 2330 5544 6951 670 16 6201 981 4680 6692 667 6670 3293 4630 1940 1721 1586 4848 4845 1169 4849 2396 2397 3250 3398 5912 5971 6049 6376 2901 5666 2903 2904 3963 730 6338 729 5619 6808 4513 4511 2082 2079 2078 5553 5773 1221 1220 1222 3881 5924 3359 5268 2329 2343 3154 3727 6856 143 354 342 4946 4676 6939 2386 2300 2267 3071 3486 3488 3490 4365 4366 6346 980 5815 6425 3559 3558 5916 4019 4498 4774 1985 1986 2798 3029 6690 4979 666 4388 6616 6121 3249 2748 1324 4509 4536 2327 2553 6663 15 3492 979 3869 4838 665 4394 4393 5494 1938 1722 1924 4847 4846 4264 6588 4273 4318 3248 5728 2099 3903 5818 2572 2573 2575 2577 5618 6277 721 5144 720 2166 6859 4514 6703 4508 2080 2963 4521 5735 1218 1219 3378 5877 4469 5652 2326 2328 2547 3153 4148 5368 144 4622 6828 7035 5984 5481 1921 2144 3385 3487 3489 3491 3541 6336 2093 978 982 6417 3557 3311 5952 6512 3870 2786 2501 5146 3638 3639 6689 2070 664 3667 6639 3251 3247 2172 5140 4507 3324 2325 3152 2285 14 5681 3493 977 3535 4837 663 6659 3050 2515 1939 5634 4270 3779 3778 3780 5986 3781 4440 2398 2098 2097 5715 1786 2173 2574 2576 2578 2979 6258 715 5141 714 5521 5576 2658 6496 4209 4196 4505 3325 1217 1216 5501 5781 3392 3884 6038 2323 5416 3368 5369 416 145 396 6936 4011 4010 5933 1920 1800 5587 5749 4643 4788 3494 5447 6319 5383 975 6399 5311 3310 3099 3098 6026 6045 2799 3111 6566 6574 6668 4840 4836 662 3666 6263 6351 3246 2171 2726 3195 2091 2324 3751 6658 13 4008 3495 976 3536 4839 661 4316 3049 2516 2517 4269 3341 2897 3433 5992 2886 2885 6344 2231 1785 1617 1569 1568 5120 5016 2724 2725 6239 5143 708 5142 703 704 2135 2389 2647 4506 3753 6464 3346 1215 1214 2133 2753 3391 6023 2322 2321 5588 3752 6839 5367 146 4548 7041 4168 4009 4007 5750 1798 1796 1795 1891 4789 3912 3911 3988 6299 974 973 6384 3565 3309 2612 2611 2613 5040 5038 6555 4062 2616 6638 3661 697 660 3669 2875 4625 4624 5708 5145 2649 5231 5386 710 12 4006 3987 5779 5039 4307 659 6655 4829 2518 2874 4268 3340 2560 5786 5408 2015 2597 2981 4910 1693 1579 1437 1436 5894 5014 2751 3052 3545 6221 634 5452 635 2134 2136 2390 2648 2651 2866 4210 6456 1212 1213 2590 2991 5731 5275 2277 2320 5878 5364 343 147 352 6766 6280 6251 3063 1799 1797 1628 1627 4791 4790 6110 4443 6284 5712 971 972 5829 5831 6343 2265 2264 6066 6539 6550 5584 2286 2615 2971 3659 6633 658 4567 2395 6317 3534 1495 629 2650 1211 6896 7010 6653 11 7055 4005 6266 2249 6546 6667 657 4568 3051 2880 6240 4629 5102 2094 5488 1830 1841 2784 4015 2065 2064 4962 1378 1377 5015 3452 3053 3526 6249 1631 630 623 5582 5385 2783 6260 6203 2652 3126 4211 6452 1210 5428 3369 3918 5982 2132 2276 6637 5352 5353 5363 148 4730 6619 4100 3166 6253 3062 3011 5138 1511 1510 6087 6104 1637 6136 2760 969 970 1844 3066 3972 6326 1811 1810 2998 6015 2207 1790 2224 2782 3523 3660 2071 656 4052 1675 6307 2445 5946 624 3057 1208 2179 10 6202 5446 2601 5439 6632 655 6651 3201 3210 5103 1881 1676 1615 1613 1612 5704 4016 6324 2066 5610 5863 1194 1193 5974 3520 5106 6226 5435 568 637 569 6178 6209 6242 3989 6213 6781 6789 6785 1207 1209 5771 5915 5962 2130 2131 2807 5350 5351 5362 149 4731 4733 6955 3165 2665 3506 3906 4525 3344 1309 1195 1029 992 988 986 967 968 4757 4701 3067 6318 3543 1700 1357 5891 5662 1571 1789 5296 3960 6215 6627 4850 654 4259 1616 2990 2446 2175 5651 6779 1206 7015 6503 9 6143 966 3068 1455 4851 653 5105 5104 4260 5484 1879 1878 1614 1482 1481 5746 6271 5019 2712 3877 5111 760 555 6105 6179 6197 2142 566 567 6159 2593 3517 5505 3529 3511 6774 5269 3700 5281 1204 5515 3914 5459 2128 2129 5528 6908 5349 5348 415 150 380 4732 3167 2664 2309 5928 6086 4823 4822 1196 1039 1015 991 987 985 965 5861 5846 3994 3992 6302 5660 1355 1356 1359 1375 1570 5789 6167 6196 2961 5806 775 652 3588 5282 5018 2713 5677 6124 3710 1205 776 8 6853 2589 964 3993 1454 4312 651 6424 2797 2440 1965 1880 3366 5041 1371 1370 1514 6245 3956 3278 3878 5112 551 552 5472 3377 5579 564 565 5548 3516 6092 3036 5413 2536 2537 6423 2824 2140 1202 1203 2120 2122 2124 2127 2374 6783 5346 5347 5355 151 4484 6864 4243 5943 2308 1905 1706 5953 5434 1284 1227 4664 6039 2040 5970 5205 963 2772 6128 6182 6269 2232 1353 1354 1358 1360 1376 3015 6083 3467 2405 2960 3211 6609 650 3586 5044 3280 3279 554 3519 3645 2119 6416 7 6848 1588 962 6212 5445 4022 649 3983 2796 2437 1966 5654 5748 5042 1257 1256 6230 4703 3955 5244 5533 548 549 553 557 559 561 563 5624 5950 3013 4965 2225 2226 2535 6768 3887 2805 1201 1192 5555 2121 2123 2125 5506 5344 5343 5345 334 152 425 7006 4242 4241 2355 1942 1824 1663 1550 1423 1323 5932 4425 4535 4435 6053 3934 960 5821 5808 2221 5454 1351 1352 5766 4736 1411 1412 6029 5407 2222 2404 2962 3632 6606 648 3587 5043 3841 4428 556 4964 3886 5812 6400 6 6718 1587 959 5864 5874 6646 647 4433 5263 2438 2439 2953 5989 1409 1019 1018 2180 6208 4399 1697 546 547 5705 4870 558 560 562 627 5645 3006 2217 5589 2218 2534 3124 6418 4611 5442 1175 1191 3380 5876 2126 2318 5500 5342 5341 5354 153 6624 6925 4240 4029 6082 2349 5947 1850 1549 1456 1573 4424 4404 3416 3262 5784 5830 958 961 1277 1279 1349 1350 2933 4737 3331 1512 1513 5648 2210 2211 5574 6046 6597 1136 646 4434 6151 4986 4987 2084 1954 4950 3909 7002 1290 5 7047 4028 4654 956 1281 1709 4868 645 6368 4911 2441 2442 5680 4382 6166 927 533 5843 5242 2746 544 545 2745 4869 4480 5644 5295 1140 1270 1474 1476 1955 1558 5663 3125 6765 4951 2092 1152 1174 2164 3381 5918 2319 2548 3096 5339 6903 5340 154 6961 430 4235 4236 4027 6037 4377 6160 5801 4655 1574 1683 2691 4403 3234 2694 2434 954 957 1276 1278 1280 1317 5832 4641 4640 5478 1707 1708 1711 1815 5798 5954 3453 3646 4867 644 4912 4383 5626 542 5322 1777 1150 5394 6361 0 3852 4656 955 1316 1710 6594 643 4914 2999 2581 2918 3817 4381 5260 527 528 532 535 537 543 5245 4427 3853 3315 3876 5294 1274 1401 1475 1535 3403 1736 6762 6764 3705 5249 1148 1151 5593 3628 6571 2730 2549 2660 6760 374 5338 155 309 4234 6946 4026 3850 3848 3847 5887 5235 1684 1839 4333 3276 2915 2571 953 952 4750 2736 4668 1580 1418 4642 3298 2699 2033 1971 5656 1712 1816 2208 2506 3105 3647 2085 642 4913 2720 539 541 3313 5590 1149 6580 2197 308 386 3851 2938 6373 4746 5489 6589 641 6332 4915 2937 3816 4368 5241 524 525 531 534 536 538 5853 6148 3943 3316 3314 2974 1639 1417 5529 5208 1737 6759 1884 4080 3703 1271 1146 1147 1361 6559 6567 3629 6569 3118 3183 5336 5337 156 307 6763 7026 3849 3749 3172 2939 1903 1840 5635 4389 3277 4725 5404 950 951 4334 4332 6256 4748 4745 4744 2700 2505 2504 3326 4524 1972 1973 2287 2627 5716 6635 4989 640 4552 522 540 550 2975 2499 6552 4032 6323 306 4276 6892 2357 5288 4747 2717 4991 505 4553 3819 3818 5240 1440 520 523 5396 5395 1883 5470 5121 2177 4821 3944 6312 6279 1842 1699 3364 5909 2742 1885 6405 2497 3704 3338 1145 1049 6551 6553 4036 3117 3116 6591 6593 7044 5334 157 305 355 5424 3748 3171 2940 1912 1936 2160 4475 5759 3857 949 948 6235 3813 3811 3810 5527 4825 2702 2701 4844 4045 4496 3594 2512 5004 2628 3119 3668 6577 4990 501 4551 521 749 750 3542 6401 4714 5450 5335 6315 304 4229 5685 3865 2912 2802 5504 502 4561 4549 4550 5387 518 519 6250 4391 4390 5628 5122 5090 6189 6273 6300 4013 6291 5166 3553 3591 5320 5065 2498 4671 2820 4670 5206 1037 1048 5980 4037 3337 2645 2644 4065 4092 326 158 303 6861 4699 3683 3842 1937 2019 5724 4327 3858 1435 947 946 6241 3812 3092 3090 2913 2704 2703 5317 6565 6572 6348 3595 5456 3339 3120 3648 6631 1473 499 500 1886 1890 751 752 6354 3699 4713 2659 6930 504 302 394 4749 6247 2706 3642 496 503 507 6294 5388 516 517 4785 4786 3822 3820 3821 5427 1517 1515 5926 3395 3073 5409 6363 6383 6367 5066 3574 2821 6391 3698 2288 1017 1036 6547 5023 4712 5250 2467 2643 3189 4305 159 6874 7001 4182 4120 4444 2311 2312 2898 4310 3859 4669 945 944 1745 4686 3091 3089 3088 2705 3106 6505 3590 2800 6358 4056 4547 3649 4942 6630 5473 494 497 5411 509 4778 753 754 3087 4079 5022 3188 506 301 6812 2822 4687 4792 6603 495 4916 508 511 513 515 6298 4779 3823 2954 2923 5664 4909 4908 5886 3900 2995 2470 2471 5633 2787 6375 6386 3575 6753 6388 6755 938 1016 1312 5942 5024 2468 2465 2466 5601 4188 413 160 7046 6846 6971 2495 2496 5755 4369 6419 2088 943 942 6264 3630 3619 4835 4793 3107 3622 6501 2161 479 6596 6598 6614 6621 6625 3384 492 493 6310 4364 510 4777 756 757 2473 6752 5224 4189 1447 300 335 4219 6944 6494 4794 1242 1888 4363 5457 512 514 526 6309 6321 4776 2696 2695 3270 5172 4907 5805 5071 1958 1959 2472 2475 2477 2790 6711 6751 5226 930 1185 937 6536 6540 5184 5182 2463 2464 2865 6843 4304 161 4226 4220 2550 2551 2896 6403 4367 4992 941 529 5851 6500 6509 6513 6526 6542 6543 5684 473 474 476 478 5710 2152 5702 490 491 5306 4826 3808 2723 4780 1026 1042 2474 913 2462 6950 7022 4917 299 4218 4217 2774 6528 481 4695 3806 6102 5480 928 934 1416 4782 3005 2690 2689 5820 3913 1243 1261 1389 1501 5585 3938 2476 2636 5632 6359 5227 5225 929 907 6531 5188 5185 5183 5181 2371 5535 5809 5314 372 162 4275 298 2818 2819 5774 4294 4295 4993 449 450 452 5854 893 5834 2170 3621 469 470 472 475 477 480 483 485 487 489 6378 4696 3809 2945 4865 4781 1043 1260 5477 912 2362 3807 4216 391 3212 454 5826 482 4694 2914 5919 4864 935 1246 6339 6350 4783 2433 2432 5255 1372 1245 1388 1499 5817 5990 6056 2773 3112 3702 6349 5228 901 1228 906 5902 5187 5186 5189 2317 2370 3383 6996 5313 163 297 2854 2887 3231 4293 6507 447 448 451 453 456 458 460 462 467 468 471 6248 2212 4923 940 484 486 488 498 6392 6412 4693 2580 4862 4784 5415 5175 3930 6517 2361 4124 5723 4215 4255 296 6860 455 464 5031 4691 2451 4863 1410 1247 1385 2178 6371 3004 2250 1694 1507 1384 5537 1500 1581 5669 3009 6078 3473 3474 6707 914 884 900 6519 5703 3893 5211 2459 2242 2316 3143 4123 5312 164 2888 3229 4292 1566 445 446 5941 4344 2167 457 459 461 463 466 5578 6377 4925 4924 4922 4921 4278 5649 530 570 2199 4692 3023 2450 4861 6380 5176 2982 6100 4023 5667 6907 2935 295 316 6933 4097 5236 465 3775 4690 2449 5125 4860 1386 1518 5790 3544 5070 2216 1685 1520 2587 6043 1582 1695 1862 2302 2809 3670 4072 6341 868 883 1044 3616 6511 3892 5822 2240 2241 2845 4125 6777 165 320 3230 5210 5074 443 444 5764 4249 4248 4345 1137 5509 5003 706 5668 6012 6578 4926 6602 3228 3226 5030 2139 571 572 6422 6428 4689 2448 4858 6390 6647 5028 6123 3253 7030 5614 294 4156 4098 4346 1244 3225 3603 2431 4859 4857 1519 1713 2600 3115 6445 6415 2290 6665 6666 4610 1696 1856 2291 2808 3239 6708 6705 859 867 5713 6487 3060 5010 5474 2238 2239 5673 5200 5199 5203 166 7011 4290 2284 441 442 2145 5050 3577 3268 3267 6495 4997 4995 1674 5828 3017 6557 4047 6601 3227 3224 4280 5029 573 574 1291 4787 3024 2447 3323 3652 6645 1858 6697 3058 6919 2430 293 6461 4279 6411 1831 3223 3242 2252 5232 1715 1714 2282 3114 3651 3977 6640 6662 4322 4323 2959 1857 5581 3382 6696 6695 1177 818 858 2259 6478 5009 2458 3059 2236 2237 2543 5927 5201 5198 410 167 5406 439 440 5727 4247 3578 3269 3266 2873 4998 4996 1882 1832 2021 2562 2909 4046 6604 4883 3222 5641 1325 575 576 6438 3991 3025 5554 1717 3662 1860 1859 5165 2715 1848 292 390 4179 2872 2020 3221 3568 2251 1719 1716 5549 3372 6617 6623 3978 6257 4320 4321 4609 1863 2524 6688 6691 5163 5164 814 817 5720 6470 3601 5008 2235 3875 1995 5606 5850 7042 5202 5197 168 437 438 886 4477 3580 3579 5991 3265 2741 5002 4999 5000 2022 2561 2908 3782 4274 6146 4884 2771 6504 5021 577 578 6449 6458 3569 5910 1718 6626 1861 5534 812 5223 4110 1847 291 4272 435 2740 5517 3209 3570 5956 1720 2280 6047 6611 4053 2514 6628 4051 4319 2523 2261 1980 6687 5158 5162 2525 810 813 931 6459 3599 3600 5988 1836 5222 1994 3387 3389 6922 366 169 436 6548 6734 4380 4386 4387 6021 4758 2739 3199 5001 5963 4266 4263 6085 5239 1829 5770 2414 2770 3784 5020 579 580 777 4458 3571 4663 5572 5410 2485 6685 811 1818 4109 1849 290 311 434 2738 3770 3432 3572 1970 1952 5985 3953 6205 2513 1821 3122 4050 4325 2522 2521 5736 5157 5155 5154 808 809 5734 6454 3597 3598 4945 1951 1835 1776 2637 3388 3783 6792 170 2271 4370 3581 2891 5813 2010 3868 5333 2737 5757 3826 5426 3205 5516 3347 1611 1783 1943 2412 5785 4378 728 581 582 6471 4459 4416 4560 5804 1822 6314 5159 2247 1817 4152 1953 289 433 4245 2394 2876 5949 4813 5119 2023 3556 3796 6193 936 1632 3121 6649 6652 3129 3130 3685 5156 920 806 807 5742 6439 3596 3040 5692 5898 1774 5694 1775 3393 6612 6882 171 6984 4246 6599 2890 2422 2009 1779 5807 4759 1567 2663 3825 6237 2697 5109 1491 1575 1784 1944 2413 2889 6397 4571 583 584 6479 6492 3322 3320 2791 2763 4070 6304 6432 2365 2281 288 389 6379 1950 1534 6514 4814 2509 2507 3554 6595 922 921 5608 3123 4326 3697 3664 3684 4069 5160 804 805 888 6210 3615 3039 2718 5151 1772 1773 6171 6130 6194 4985 310 172 3566 2892 2423 2073 1778 1610 1508 1479 1478 3446 6216 2947 2588 1472 1490 5945 6007 2415 2416 6466 4531 2072 585 586 1638 4815 3321 3109 2801 3925 6682 5161 4876 6154 2508 287 4265 3759 5763 1471 4532 3650 3108 5630 3555 6175 899 898 5911 3926 6654 6678 6679 6680 6681 802 803 5751 6190 3839 4875 2602 1969 1770 1771 2141 4077 4702 4140 4984 173 3273 3272 5547 4852 1733 1548 1480 1404 1403 6054 4516 4515 4715 1406 5772 3933 6055 2417 2418 2893 4530 4529 587 588 6518 6533 3620 5107 3633 5977 2096 800 5390 3793 7016 3110 286 4221 4222 2168 1288 6413 6541 3627 5903 4042 6157 778 779 781 6019 905 5583 2297 5577 5261 801 2202 6153 3837 3838 2603 2061 1769 1768 6089 6112 4076 3791 6902 174 408 3282 4426 4501 1906 1870 5612 4497 1305 1304 5622 4570 3318 1165 1405 2996 3931 5690 2419 2420 5811 4335 591 589 590 5753 2768 6544 6549 6587 783 798 799 4359 3792 3653 285 315 7009 5793 1287 3583 5701 6554 6576 6592 764 765 780 782 785 787 789 791 793 795 5672 6127 3835 3836 3840 5284 4760 1765 1767 5093 3790 4244 3789 6804 175 4223 4450 2684 2313 1907 2955 6382 4468 1232 1126 3365 5064 1124 1164 1698 2997 6101 5137 2421 2480 3077 4303 4385 592 593 596 598 1234 5674 1630 784 797 5689 6259 5604 6562 284 4262 6962 1118 5847 3582 600 2727 5124 747 748 5767 4575 2169 786 788 790 792 794 796 6088 3834 3833 5737 6233 3329 1763 1764 6052 5092 3787 349 3788 176 6642 4533 2653 2401 5700 4467 4466 1315 1231 1125 1116 1115 1119 2455 3424 3425 6155 2482 2481 3076 3576 6406 6024 594 595 597 599 602 604 741 5420 815 2165 5131 7024 5621 283 392 3771 1117 5848 4405 601 606 734 742 5765 4330 4329 4576 1275 5568 2146 4494 5930 816 5858 3832 3831 5631 1766 1761 1762 1991 5147 3431 3786 4988 6905 177 7049 2921 2670 2671 4994 3240 4317 4502 1941 6270 1107 1106 5743 6057 3426 3524 6191 5270 3093 6389 6442 2707 1052 616 5647 3390 5580 603 605 735 6129 865 5873 1759 608 282 6636 3168 4522 3981 6396 1629 607 610 1477 5862 3800 3798 3799 4493 4491 4490 5936 2090 866 5095 3444 3830 6204 1758 1760 5869 5966 3429 3430 4130 178 409 4224 2922 5059 5058 3237 3238 6044 4336 5556 4410 1099 1098 3441 6145 3979 3980 6330 6410 6372 5049 1625 1054 1053 2118 6455 6468 6402 5596 4768 5923 5676 891 5696 1757 609 281 3674 3169 2693 6214 1056 4766 611 5937 4740 3801 2946 2902 5603 4492 4489 4487 4486 4928 892 2987 3443 5783 2453 1756 5557 5425 3427 3428 5739 6686 179 4225 6489 3802 3217 3218 5972 3439 3440 3824 4361 1086 1085 5756 4834 6243 6219 5084 5047 5046 5048 1058 1055 5455 6446 4030 4031 4767 4763 2721 4741 2905 918 1010 1755 7034 612 280 6927 3755 3754 4445 2063 1057 4764 613 6440 4739 4738 2579 2409 2407 5542 4488 3867 3866 5595 919 2986 3485 6158 4873 1735 2755 2757 2864 3750 6923 180 313 333 6497 2029 2028 5733 3437 3438 3496 3917 6150 1083 1081 1078 1075 5091 1272 5083 2711 5045 1060 1059 1273 6437 3589 3070 6435 6441 4762 4761 6451 2406 1008 2985 1754 614 279 6847 3756 3797 5148 1073 5419 4765 615 2205 3617 3041 2490 2408 2048 2762 5400 3328 2059 1022 1009 6070 6114 4874 1657 1734 2756 2861 5741 6810 4976 181 4227 4667 2027 2025 2024 3373 5968 6091 6122 2050 1082 1080 1077 1074 1071 1069 1067 1065 1062 1061 2754 6420 3618 3069 2608 2609 4953 4952 939 5693 2047 5643 5979 5780 617 278 4284 4283 4441 1096 1072 6394 4724 618 6457 3606 3042 5758 5769 2046 5838 3846 3263 1176 1023 1027 5616 2596 1636 1656 2034 3412 3413 4177 405 182 393 6937 2304 2026 1838 1837 5768 2087 4843 4637 1100 1084 5191 2089 5096 1070 1068 1066 1064 1063 5430 6381 4807 4824 2607 2266 6460 6483 4723 5209 6469 2045 5839 3445 5796 619 277 4083 3259 4872 1097 1079 4805 4720 620 622 3607 3608 4648 2049 2044 5393 5011 3319 5117 1028 1153 5615 1634 1635 6006 6096 3414 4143 4944 183 4228 4623 4392 5072 1465 1336 1229 1121 1112 1105 1104 6200 6236 6283 6313 5248 2716 5179 1076 1087 6198 4806 4804 2610 2253 2196 2484 4721 4718 2058 5443 2043 1413 1415 6137 7000 621 276 3244 3243 3245 2203 6337 4803 4719 625 6475 3609 3610 5961 4931 2042 2949 5247 5118 5006 1154 1252 1458 1593 5944 3923 3502 6165 6918 184 364 347 6947 4117 4615 4614 1459 1322 1197 1120 1111 1110 5844 5747 3551 3530 3573 6357 6366 6342 1088 1089 1633 6181 4802 4795 2195 2194 6488 6490 4717 4716 6485 2041 1414 1457 3525 626 275 2927 2926 5719 6163 5561 4799 4722 628 2258 3611 4517 3864 5293 1877 5625 3845 5246 1254 1253 5675 1592 1845 5646 3101 3102 4132 6801 185 7017 6664 4665 4572 1521 1460 5896 3397 5213 1127 1128 5845 3552 3079 3078 5706 4018 4448 1626 1090 1091 6177 4800 4796 2426 2193 2192 2489 4975 4974 633 4918 1875 3014 5682 4131 631 274 4166 2837 2310 1823 4772 3085 4798 4711 632 6493 4518 3044 2930 2233 1876 1873 1871 1262 1255 5552 5999 1846 1963 2385 3100 5722 4185 186 6719 3760 2838 1551 1522 2215 5889 5214 2744 1187 1188 2978 4771 2605 2604 2606 3967 6352 5098 1092 1093 6174 4963 4797 5451 2191 2190 6499 6508 4710 5230 6506 1874 6093 3508 6985 636 273 4128 2360 2095 1677 5920 3065 4801 4708 638 709 4519 3043 2929 2928 5136 1872 1387 1263 1265 5884 3949 1964 2368 2785 3173 4213 187 322 379 6966 3184 2839 1552 5935 6126 5216 5215 5332 1285 1286 5788 4773 2243 2244 2777 3968 5099 5097 1094 1095 1166 5938 4808 2460 2189 2188 2491 4709 4706 2056 4520 2936 6125 6147 639 272 4886 5940 4698 1678 4941 6111 3928 4707 705 6524 3623 3045 5458 4538 4539 5193 5052 1266 1340 2591 3019 2369 5800 3174 4090 6878 188 4230 4233 3185 3417 1749 5752 6244 5217 5218 1368 1366 1367 1443 1804 1805 5718 6084 6414 6421 1102 1101 1103 5866 3927 6072 4983 2187 2186 6510 6563 4705 4704 6525 5513 3945 6168 713 271 3419 6071 1751 1750 1445 3481 3294 6570 716 2204 3624 4374 4537 3264 5865 5053 4943 1341 1431 2592 3020 6228 6262 6278 5139 189 395 4231 6858 3418 5922 1752 2461 6287 6335 5324 5323 1441 1442 1444 1578 2992 6031 3480 3976 6426 6486 1108 1109 5688 2766 3895 6059 2185 2184 2492 5803 6579 723 4464 3295 5823 3984 7007 719 270 3420 6220 5530 1913 1446 2794 2984 3626 722 6527 4461 3241 2503 2031 1869 5243 1433 1432 5707 3021 3022 3985 4048 6888 362 190 4267 4232 6970 3584 3421 3528 1914 5814 3363 6364 6374 4014 2972 5657 1469 5607 5959 5272 2428 5661 4398 6429 1113 1114 1170 1258 6048 4948 2183 2182 5650 3394 6515 4647 6529 1867 3456 3459 727 269 3422 6275 2275 2273 1470 2793 3436 3625 732 737 4462 3055 2502 1948 1868 1449 1434 5571 3924 3454 3455 3986 4049 6710 191 6960 6976 6558 4126 3423 3546 2274 2569 2788 3086 6387 4612 4613 5562 1561 5573 5318 2201 2427 3235 4397 1135 1122 1123 1171 5569 6032 2778 2181 2159 2493 2934 4646 2054 4463 1584 3457 5833 736 4 6622 5987 6303 6316 2567 1562 2795 6025 6523 744 6582 3643 3056 5491 2052 5152 1450 1463 6016 6067 4828 3458 5981 5114 192 268 428 4460 6978 3547 3548 2568 2570 3016 3855 6229 3871 4937 1662 1658 1660 1791 2200 5881 4395 3236 2970 5391 1172 1173 5897 5178 5177 2157 2158 2494 3518 4645 4644 6573 5153 3460 4134 755 267 4193 4150 6345 4357 1659 5901 5440 6522 762 2272 3644 4409 4534 5292 3856 1464 1553 1655 5841 4666 3461 7021 193 266 384 4099 4149 2823 5679 4356 6234 2511 2379 1911 1910 5389 1661 1792 5560 3916 3612 3303 3882 4856 1237 1238 1320 3371 2155 2156 5444 3959 6192 6618 772 4504 5174 3462 328 4141 766 265 6875 4151 6409 4352 5219 6450 5570 3635 771 6584 4503 3289 3285 3283 2968 1554 1651 6142 3854 3464 3463 194 264 5429 7014 6911 4350 3872 3232 2654 2510 2378 2377 5403 3896 1793 1794 1967 2672 3613 5076 5075 1408 1318 1319 1321 2153 2154 5729 6135 6169 2917 6530 6532 6590 1653 6981 6900 774 263 6826 4353 4351 2732 5078 1373 3634 863 870 4631 3286 3284 2969 1819 1652 1753 5882 3466 3465 5068 5067 195 353 262 4599 4106 3233 3197 2851 5486 2860 3890 5890 2734 1908 1909 1968 6462 5077 2263 2101 2100 5094 1362 1363 1494 3012 6068 3451 2780 2916 4308 2262 4400 1654 6986 869 398 4653 6973 2733 5079 1374 3636 887 6607 3288 3287 5531 4751 1820 5658 6222 6293 3537 3716 6877 360 196 261 260 4165 5475 3763 3764 5129 3891 5237 2840 2836 5238 2303 2899 5195 5194 2103 2102 5559 4880 4878 1429 5498 6004 5289 1932 2598 6535 4617 4616 4041 2108 904 259 339 5397 3275 1430 4618 924 6610 3640 3641 4752 2260 2109 5929 3531 6306 3717 4071 5069 197 258 403 6865 7019 4137 6835 5127 7012 3726 3722 4890 3351 2900 6480 6474 2105 2104 2586 4881 4879 4877 1527 5867 5543 1892 1931 2599 4620 4619 1012 6629 2110 926 257 3355 2107 1528 4376 1011 1139 3657 6656 6661 6641 2292 2294 2552 5695 4180 6832 198 256 6823 6924 329 5128 6838 4891 5026 3352 3353 4358 2545 2106 5598 5895 4882 4919 1605 1601 1603 1606 1788 5638 6620 5441 4375 6162 6613 2293 1014 255 5126 6906 5025 2544 1602 3510 1045 6184 6650 3658 4043 5135 5134 2384 6331 6615 337 199 254 253 252 5130 6545 370 5027 6928 3354 3614 6473 5113 2546 3376 4920 2941 1898 1897 4810 1604 1607 5730 5957 3637 3220 3885 6131 4418 2519 6992 1142 251 4171 2853 4743 3509 1198 6149 3515 3514 6643 6648 4054 2852 3724 4252 6913 200 250 7036 249 317 4073 4107 4969 3196 2932 6008 6028 2351 2350 5609 5412 1681 1682 2138 4947 3219 2882 6252 1294 4417 3654 1233 248 6954 4429 3170 4734 6094 1293 1296 3513 3128 3127 6669 6657 3723 4251 6866 201 247 246 6935 6872 4967 4966 3281 4420 2828 2827 2829 3271 4735 1851 1852 6585 3950 2881 2758 4558 4557 6108 3725 1295 245 7052 4121 2279 3254 1369 6069 3512 2804 2803 2810 4354 4172 401 202 369 6538 419 4968 4122 4818 4816 3159 3160 5564 6118 2278 2554 6583 6575 2688 2687 6002 4556 4639 4173 1400 244 6915 5315 5908 1426 6042 4638 2003 2307 6660 4355 4250 203 243 242 241 324 4819 4817 4129 3207 3208 4159 4396 2555 2877 3904 5265 2017 1979 4634 1532 4742 6926 6988 1466 240 6862 2879 1919 1531 1557 2001 2002 2841 6754 6722 345 204 239 4820 6983 6879 4039 4158 4160 4636 2878 3213 6568 2352 2016 1978 1671 1670 1739 1556 238 4635 1918 4608 1738 2000 6600 6534 4607 4606 205 376 237 5566 6608 6956 6869 6463 3214 3631 6561 5221 2666 4584 1917 5925 1998 6998 4495 332 4096 2392 6011 1999 5868 4258 4257 397 6887 206 236 235 234 5637 421 4281 4094 4095 4589 4586 4585 4700 2393 2973 2372 3888 233 4178 2621 6073 2373 2646 4256 4176 207 6743 232 231 6989 6881 4590 4588 4587 4191 3200 2622 4328 2556 4483 230 341 3139 4485 2557 6061 4175 357 208 229 7040 6945 6852 4190 3665 4660 3803 2855 2857 228 6693 3785 2859 2856 3758 4174 209 423 5797 351 4192 6737 4523 3181 3757 6997 2858 227 7053 6876 3180 5110 4169 6884 210 226 225 224 6967 223 378 4119 4118 6977 3182 6735 4811 4452 383 211 222 221 4170 6964 6969 6898 220 6845 4453 4451 212 219 387 4454 5955 427 213 218 431 217 6787 214 6975 216 215 3 </DataArray>
        <DataArray type="UInt8" Name="vtkGhostType" format="ascii" RangeMin="0" RangeMax="0">0 0 0 0 0 0 0 0 0 0 0 0 0 0 0 0 0 0 0 0 0 0 0 0 0 0 0 0 0 0 0 0 0 0 0 0 0 0 0 0 0 0 0 0 0 0 0 0 0 0 0 0 0 0 0 0 0 0 0 0 0 0 0 0 0 0 0 0 0 0 0 0 0 0 0 0 0 0 0 0 0 0 0 0 0 0 0 0 0 0 0 0 0 0 0 0 0 0 0 0 0 0 0 0 0 0 0 0 0 0 0 0 0 0 0 0 0 0 0 0 0 0 0 0 0 0 0 0 0 0 0 0 0 0 0 0 0 0 0 0 0 0 0 0 0 0 0 0 0 0 0 0 0 0 0 0 0 0 0 0 0 0 0 0 0 0 0 0 0 0 0 0 0 0 0 0 0 0 0 0 0 0 0 0 0 0 0 0 0 0 0 0 0 0 0 0 0 0 0 0 0 0 0 0 0 0 0 0 0 0 0 0 0 0 0 0 0 0 0 0 0 0 0 0 0 0 0 0 0 0 0 0 0 0 0 0 0 0 0 0 0 0 0 0 0 0 0 0 0 0 0 0 0 0 0 0 0 0 0 0 0 0 0 0 0 0 0 0 0 0 0 0 0 0 0 0 0 0 0 0 0 0 0 0 0 0 0 0 0 0 0 0 0 0 0 0 0 0 0 0 0 0 0 0 0 0 0 0 0 0 0 0 0 0 0 0 0 0 0 0 0 0 0 0 0 0 0 0 0 0 0 0 0 0 0 0 0 0 0 0 0 0 0 0 0 0 0 0 0 0 0 0 0 0 0 0 0 0 0 0 0 0 0 0 0 0 0 0 0 0 0 0 0 0 0 0 0 0 0 0 0 0 0 0 0 0 0 0 0 0 0 0 0 0 0 0 0 0 0 0 0 0 0 0 0 0 0 0 0 0 0 0 0 0 0 0 0 0 0 0 0 0 0 0 0 0 0 0 0 0 0 0 0 0 0 0 0 0 0 0 0 0 0 0 0 0 0 0 0 0 0 0 0 0 0 0 0 0 0 0 0 0 0 0 0 0 0 0 0 0 0 0 0 0 0 0 0 0 0 0 0 0 0 0 0 0 0 0 0 0 0 0 0 0 0 0 0 0 0 0 0 0 0 0 0 0 0 0 0 0 0 0 0 0 0 0 0 0 0 0 0 0 0 0 0 0 0 0 0 0 0 0 0 0 0 0 0 0 0 0 0 0 0 0 0 0 0 0 0 0 0 0 0 0 0 0 0 0 0 0 0 0 0 0 0 0 0 0 0 0 0 0 0 0 0 0 0 0 0 0 0 0 0 0 0 0 0 0 0 0 0 0 0 0 0 0 0 0 0 0 0 0 0 0 0 0 0 0 0 0 0 0 0 0 0 0 0 0 0 0 0 0 0 0 0 0 0 0 0 0 0 0 0 0 0 0 0 0 0 0 0 0 0 0 0 0 0 0 0 0 0 0 0 0 0 0 0 0 0 0 0 0 0 0 0 0 0 0 0 0 0 0 0 0 0 0 0 0 0 0 0 0 0 0 0 0 0 0 0 0 0 0 0 0 0 0 0 0 0 0 0 0 0 0 0 0 0 0 0 0 0 0 0 0 0 0 0 0 0 0 0 0 0 0 0 0 0 0 0 0 0 0 0 0 0 0 0 0 0 0 0 0 0 0 0 0 0 0 0 0 0 0 0 0 0 0 0 0 0 0 0 0 0 0 0 0 0 0 0 0 0 0 0 0 0 0 0 0 0 0 0 0 0 0 0 0 0 0 0 0 0 0 0 0 0 0 0 0 0 0 0 0 0 0 0 0 0 0 0 0 0 0 0 0 0 0 0 0 0 0 0 0 0 0 0 0 0 0 0 0 0 0 0 0 0 0 0 0 0 0 0 0 0 0 0 0 0 0 0 0 0 0 0 0 0 0 0 0 0 0 0 0 0 0 0 0 0 0 0 0 0 0 0 0 0 0 0 0 0 0 0 0 0 0 0 0 0 0 0 0 0 0 0 0 0 0 0 0 0 0 0 0 0 0 0 0 0 0 0 0 0 0 0 0 0 0 0 0 0 0 0 0 0 0 0 0 0 0 0 0 0 0 0 0 0 0 0 0 0 0 0 0 0 0 0 0 0 0 0 0 0 0 0 0 0 0 0 0 0 0 0 0 0 0 0 0 0 0 0 0 0 0 0 0 0 0 0 0 0 0 0 0 0 0 0 0 0 0 0 0 0 0 0 0 0 0 0 0 0 0 0 0 0 0 0 0 0 0 0 0 0 0 0 0 0 0 0 0 0 0 0 0 0 0 0 0 0 0 0 0 0 0 0 0 0 0 0 0 0 0 0 0 0 0 0 0 0 0 0 0 0 0 0 0 0 0 0 0 0 0 0 0 0 0 0 0 0 0 0 0 0 0 0 0 0 0 0 0 0 0 0 0 0 0 0 0 0 0 0 0 0 0 0 0 0 0 0 0 0 0 0 0 0 0 0 0 0 0 0 0 0 0 0 0 0 0 0 0 0 0 0 0 0 0 0 0 0 0 0 0 0 0 0 0 0 0 0 0 0 0 0 0 0 0 0 0 0 0 0 0 0 0 0 0 0 0 0 0 0 0 0 0 0 0 0 0 0 0 0 0 0 0 0 0 0 0 0 0 0 0 0 0 0 0 0 0 0 0 0 0 0 0 0 0 0 0 0 0 0 0 0 0 0 0 0 0 0 0 0 0 0 0 0 0 0 0 0 0 0 0 0 0 0 0 0 0 0 0 0 0 0 0 0 0 0 0 0 0 0 0 0 0 0 0 0 0 0 0 0 0 0 0 0 0 0 0 0 0 0 0 0 0 0 0 0 0 0 0 0 0 0 0 0 0 0 0 0 0 0 0 0 0 0 0 0 0 0 0 0 0 0 0 0 0 0 0 0 0 0 0 0 0 0 0 0 0 0 0 0 0 0 0 0 0 0 0 0 0 0 0 0 0 0 0 0 0 0 0 0 0 0 0 0 0 0 0 0 0 0 0 0 0 0 0 0 0 0 0 0 0 0 0 0 0 0 0 0 0 0 0 0 0 0 0 0 0 0 0 0 0 0 0 0 0 0 0 0 0 0 0 0 0 0 0 0 0 0 0 0 0 0 0 0 0 0 0 0 0 0 0 0 0 0 0 0 0 0 0 0 0 0 0 0 0 0 0 0 0 0 0 0 0 0 0 0 0 0 0 0 0 0 0 0 0 0 0 0 0 0 0 0 0 0 0 0 0 0 0 0 0 0 0 0 0 0 0 0 0 0 0 0 0 0 0 0 0 0 0 0 0 0 0 0 0 0 0 0 0 0 0 0 0 0 0 0 0 0 0 0 0 0 0 0 0 0 0 0 0 0 0 0 0 0 0 0 0 0 0 0 0 0 0 0 0 0 0 0 0 0 0 0 0 0 0 0 0 0 0 0 0 0 0 0 0 0 0 0 0 0 0 0 0 0 0 0 0 0 0 0 0 0 0 0 0 0 0 0 0 0 0 0 0 0 0 0 0 0 0 0 0 0 0 0 0 0 0 0 0 0 0 0 0 0 0 0 0 0 0 0 0 0 0 0 0 0 0 0 0 0 0 0 0 0 0 0 0 0 0 0 0 0 0 0 0 0 0 0 0 0 0 0 0 0 0 0 0 0 0 0 0 0 0 0 0 0 0 0 0 0 0 0 0 0 0 0 0 0 0 0 0 0 0 0 0 0 0 0 0 0 0 0 0 0 0 0 0 0 0 0 0 0 0 0 0 0 0 0 0 0 0 0 0 0 0 0 0 0 0 0 0 0 0 0 0 0 0 0 0 0 0 0 0 0 0 0 0 0 0 0 0 0 0 0 0 0 0 0 0 0 0 0 0 0 0 0 0 0 0 0 0 0 0 0 0 0 0 0 0 0 0 0 0 0 0 0 0 0 0 0 0 0 0 0 0 0 0 0 0 0 0 0 0 0 0 0 0 0 0 0 0 0 0 0 0 0 0 0 0 0 0 0 0 0 0 0 0 0 0 0 0 0 0 0 0 0 0 0 0 0 0 0 0 0 0 0 0 0 0 0 0 0 0 0 0 0 0 0 0 0 0 0 0 0 0 0 0 0 0 0 0 0 0 0 0 0 0 0 0 0 0 0 0 0 0 0 0 0 0 0 0 0 0 0 0 0 0 0 0 0 0 0 0 0 0 0 0 0 0 0 0 0 0 0 0 0 0 0 0 0 0 0 0 0 0 0 0 0 0 0 0 0 0 0 0 0 0 0 0 0 0 0 0 0 0 0 0 0 0 0 0 0 0 0 0 0 0 0 0 0 0 0 0 0 0 0 0 0 0 0 0 0 0 0 0 0 0 0 0 0 0 0 0 0 0 0 0 0 0 0 0 0 0 0 0 0 0 0 0 0 0 0 0 0 0 0 0 0 0 0 0 0 0 0 0 0 0 0 0 0 0 0 0 0 0 0 0 0 0 0 0 0 0 0 0 0 0 0 0 0 0 0 0 0 0 0 0 0 0 0 0 0 0 0 0 0 0 0 0 0 0 0 0 0 0 0 0 0 0 0 0 0 0 0 0 0 0 0 0 0 0 0 0 0 0 0 0 0 0 0 0 0 0 0 0 0 0 0 0 0 0 0 0 0 0 0 0 0 0 0 0 0 0 0 0 0 0 0 0 0 0 0 0 0 0 0 0 0 0 0 0 0 0 0 0 0 0 0 0 0 0 0 0 0 0 0 0 0 0 0 0 0 0 0 0 0 0 0 0 0 0 0 0 0 0 0 0 0 0 0 0 0 0 0 0 0 0 0 0 0 0 0 0 0 0 0 0 0 0 0 0 0 0 0 0 0 0 0 0 0 0 0 0 0 0 0 0 0 0 0 0 0 0 0 0 0 0 0 0 0 0 0 0 0 0 0 0 0 0 0 0 0 0 0 0 0 0 0 0 0 0 0 0 0 0 0 0 0 0 0 0 0 0 0 0 0 0 0 0 0 0 0 0 0 0 0 0 0 0 0 0 0 0 0 0 0 0 0 0 0 0 0 0 0 0 0 0 0 0 0 0 0 0 0 0 0 0 0 0 0 0 0 0 0 0 0 0 0 0 0 0 0 0 0 0 0 0 0 0 0 0 0 0 0 0 0 0 0 0 0 0 0 0 0 0 0 0 0 0 0 0 0 0 0 0 0 0 0 0 0 0 0 0 0 0 0 0 0 0 0 0 0 0 0 0 0 0 0 0 0 0 0 0 0 0 0 0 0 0 0 0 0 0 0 0 0 0 0 0 0 0 0 0 0 0 0 0 0 0 0 0 0 0 0 0 0 0 0 0 0 0 0 0 0 0 0 0 0 0 0 0 0 0 0 0 0 0 0 0 0 0 0 0 0 0 0 0 0 0 0 0 0 0 0 0 0 0 0 0 0 0 0 0 0 0 0 0 0 0 0 0 0 0 0 0 0 0 0 0 0 0 0 0 0 0 0 0 0 0 0 0 0 0 0 0 0 0 0 0 0 0 0 0 0 0 0 0 0 0 0 0 0 0 0 0 0 0 0 0 0 0 0 0 0 0 0 0 0 0 0 0 0 0 0 0 0 0 0 0 0 0 0 0 0 0 0 0 0 0 0 0 0 0 0 0 0 0 0 0 0 0 0 0 0 0 0 0 0 0 0 0 0 0 0 0 0 0 0 0 0 0 0 0 0 0 0 0 0 0 0 0 0 0 0 0 0 0 0 0 0 0 0 0 0 0 0 0 0 0 0 0 0 0 0 0 0 0 0 0 0 0 0 0 0 0 0 0 0 0 0 0 0 0 0 0 0 0 0 0 0 0 0 0 0 0 0 0 0 0 0 0 0 0 0 0 0 0 0 0 0 0 0 0 0 0 0 0 0 0 0 0 0 0 0 0 0 0 0 0 0 0 0 0 0 0 0 0 0 0 0 0 0 0 0 0 0 0 0 0 0 0 0 0 0 0 0 0 0 0 0 0 0 0 0 0 0 0 0 0 0 0 0 0 0 0 0 0 0 0 0 0 0 0 0 0 0 0 0 0 0 0 0 0 0 0 0 0 0 0 0 0 0 0 0 0 0 0 0 0 0 0 0 0 0 0 0 0 0 0 0 0 0 0 0 0 0 0 0 0 0 0 0 0 0 0 0 0 0 0 0 0 0 0 0 0 0 0 0 0 0 0 0 0 0 0 0 0 0 0 0 0 0 0 0 0 0 0 0 0 0 0 0 0 0 0 0 0 0 0 0 0 0 0 0 0 0 0 0 0 0 0 0 0 0 0 0 0 0 0 0 0 0 0 0 0 0 0 0 0 0 0 0 0 0 0 0 0 0 0 0 0 0 0 0 0 0 0 0 0 0 0 0 0 0 0 0 0 0 0 0 0 0 0 0 0 0 0 0 0 0 0 0 0 0 0 0 0 0 0 0 0 0 0 0 0 0 0 0 0 0 0 0 0 0 0 0 0 0 0 0 0 0 0 0 0 0 0 0 0 0 0 0 0 0 0 0 0 0 0 0 0 0 0 0 0 0 0 0 0 0 0 0 0 0 0 0 0 0 0 0 0 0 0 0 0 0 0 0 0 0 0 0 0 0 0 0 0 0 0 0 0 0 0 0 0 0 0 0 0 0 0 0 0 0 0 0 0 0 0 0 0 0 0 0 0 0 0 0 0 0 0 0 0 0 0 0 0 0 0 0 0 0 0 0 0 0 0 0 0 0 0 0 0 0 0 0 0 0 0 0 0 0 0 0 0 0 0 0 0 0 0 0 0 0 0 0 0 0 0 0 0 0 0 0 0 0 0 0 0 0 0 0 0 0 0 0 0 0 0 0 0 0 0 0 0 0 0 0 0 0 0 0 0 0 0 0 0 0 0 0 0 0 0 0 0 0 0 0 0 0 0 0 0 0 0 0 0 0 0 0 0 0 0 0 0 0 0 0 0 0 0 0 0 0 0 0 0 0 0 0 0 0 0 0 0 0 0 0 0 0 0 0 0 0 0 0 0 0 0 0 0 0 0 0 0 0 0 0 0 0 0 0 0 0 0 0 0 0 0 0 0 0 0 0 0 0 0 0 0 0 0 0 0 0 0 0 0 0 0 0 0 0 0 0 0 0 0 0 0 0 0 0 0 0 0 0 0 0 0 0 0 0 0 0 0 0 0 0 0 0 0 0 0 0 0 0 0 0 0 0 0 0 0 0 0 0 0 0 0 0 0 0 0 0 0 0 0 0 0 0 0 0 0 0 0 0 0 0 0 0 0 0 0 0 0 0 0 0 0 0 0 0 0 0 0 0 0 0 0 0 0 0 0 0 0 0 0 0 0 0 0 0 0 0 0 0 0 0 0 0 0 0 0 0 0 0 0 0 0 0 0 0 0 0 0 0 0 0 0 0 0 0 0 0 0 0 0 0 0 0 0 0 0 0 0 0 0 0 0 0 0 0 0 0 0 0 0 0 0 0 0 0 0 0 0 0 0 0 0 0 0 0 0 0 0 0 0 0 0 0 0 0 0 0 0 0 0 0 0 0 0 0 0 0 0 0 0 0 0 0 0 0 0 0 0 0 0 0 0 0 0 0 0 0 0 0 0 0 0 0 0 0 0 0 0 0 0 0 0 0 0 0 0 0 0 0 0 0 0 0 0 0 0 0 0 0 0 0 0 0 0 0 0 0 0 0 0 0 0 0 0 0 0 0 0 0 0 0 0 0 0 0 0 0 0 0 0 0 0 0 0 0 0 0 0 0 0 0 0 0 0 0 0 0 0 0 0 0 0 0 0 0 0 0 0 0 0 0 0 0 0 0 0 0 0 0 0 0 0 0 0 0 0 0 0 0 0 0 0 0 0 0 0 0 0 0 0 0 0 0 0 0 0 0 0 0 0 0 0 0 0 0 0 0 0 0 0 0 0 0 0 0 0 0 0 0 0 0 0 0 0 0 0 0 0 0 0 0 0 0 0 0 0 0 0 0 0 0 0 0 0 0 0 0 0 0 0 0 0 0 0 0 0 0 0 0 0 0 0 0 0 0 0 0 0 0 0 0 0 0 0 0 0 0 0 0 0 0 0 0 0 0 0 0 0 0 0 0 0 0 0 0 0 0 0 0 0 0 0 0 0 0 0 0 0 0 0 0 0 0 0 0 0 0 0 0 0 0 0 0 0 0 0 0 0 0 0 0 0 0 0 0 0 0 0 0 0 0 0 0 0 0 0 0 0 0 0 0 0 0 0 0 0 0 0 0 0 0 0 0 0 0 0 0 0 0 0 0 0 0 0 0 0 0 0 0 0 0 0 0 0 0 0 0 0 0 0 0 0 0 0 0 0 0 0 0 0 0 0 0 0 0 0 0 0 0 0 0 0 0 0 0 0 0 0 0 0 0 0 0 0 0 0 0 0 0 0 0 0 0 0 0 0 0 0 0 0 0 0 0 0 0 0 0 0 0 0 0 0 0 0 0 0 0 0 0 0 0 0 0 0 0 0 0 0 0 0 0 0 0 0 0 0 0 0 0 0 0 0 0 0 0 0 0 0 0 0 0 0 0 0 0 0 0 0 0 0 0 0 0 0 0 0 0 0 0 0 0 0 0 0 0 0 0 0 0 0 0 0 0 0 0 0 0 0 0 0 0 0 0 0 0 0 0 0 0 0 0 0 0 0 0 0 0 0 0 0 0 0 0 0 0 0 0 0 0 0 0 0 0 0 0 0 0 0 0 0 0 0 0 0 0 0 0 0 0 0 0 0 0 0 0 0 0 0 0 0 0 0 0 0 0 0 0 0 0 0 0 0 0 0 0 0 0 0 0 0 0 0 0 0 0 0 0 0 0 0 0 0 0 0 0 0 0 0 0 0 0 0 0 0 0 0 0 0 0 0 0 0 0 0 0 0 0 0 0 0 0 0 0 0 0 0 0 0 0 0 0 0 0 0 0 0 0 0 0 0 0 0 0 0 0 0 0 0 0 0 0 0 0 0 0 0 0 0 0 0 0 0 0 0 0 0 0 0 0 0 0 0 0 0 0 0 0 0 0 0 0 0 0 0 0 0 0 0 0 0 0 0 0 0 0 0 0 0 0 0 0 0 0 0 0 0 0 0 0 0 0 0 0 0 0 0 0 0 0 0 0 0 0 0 0 0 0 0 0 0 0 0 0 0 0 0 0 0 0 0 0 0 0 0 0 0 0 0 0 0 0 0 0 0 0 0 0 0 0 0 0 0 0 0 0 0 0 0 0 0 0 0 0 0 0 0 0 0 0 0 0 0 0 0 0 0 0 0 0 0 0 0 0 0 0 0 0 0 0 0 0 0 0 0 0 0 0 0 0 0 0 0 0 0 0 0 0 0 0 0 0 0 0 0 0 0 0 0 0 0 0 0 0 0 0 0 0 0 0 0 0 0 0 0 0 0 0 0 0 0 0 0 0 0 0 0 0 0 0 0 0 0 0 0 0 0 0 0 0 0 0 0 0 0 0 0 0 0 0 0 0 0 0 0 0 0 0 0 0 0 0 0 0 0 0 0 0 0 0 0 0 0 0 0 0 0 0 0 0 0 0 0 0 0 0 0 0 0 0 0 0 0 0 0 0 0 0 0 0 0 0 0 0 0 0 0 0 0 0 0 0 0 0 0 0 0 0 0 0 0 0 0 0 0 0 0 0 0 0 0 0 0 0 0 0 0 0 0 0 0 0 0 0 0 0 0 0 0 0 0 0 0 0 0 0 0 0 0 0 0 0 0 0 0 0 0 0 0 0 0 0 0 0 0 0 0 0 0 0 0 0 0 0 0 0 0 0 0 0 0 0 0 0 0 0 0 0 0 0 0 0 0 0 0 0 0 0 0 0 0 0 0 0 0 0 0 0 0 0 0 0 0 0 0 0 0 0 0 0 0 0 0 0 0 0 0 0 0 0 0 0 0 0 0 0 0 0 0 0 0 0 0 0 0 0 0 0 0 0 0 0 0 0 0 0 0 0 0 0 0 0 0 0 0 0 0 0 0 0 0 0 0 0 0 0 0 0 0 0 0 0 0 0 0 0 0 0 0 0 0 0 0 0 0 0 0 0 0 0 0 0 0 0 0 0 0 0 0 0 0 0 0 0 0 0 0 0 0 0 0 0 0 0 0 0 0 0 0 0 0 0 0 0 0 0 0 0 0 0 0 0 0 0 0 0 0 0 0 0 0 0 0 0 0 0 0 0 0 0 0 0 0 0 0 0 0 0 0 0 0 0 0 0 0 0 0 0 0 0 0 0 0 0 0 0 0 0 0 0 0 0 0 0 0 0 0 0 0 0 0 0 0 0 0 0 0 0 0 0 0 0 0 0 0 0 0 0 0 0 0 0 0 0 0 0 0 0 0 0 0 0 0 0 0 0 0 0 0 0 0 0 0 0 0 0 0 0 0 0 0 0 0 0 0 0 0 0 0 0 0 0 0 0 0 0 0 0 0 0 0 0 0 0 0 0 0 0 0 0 0 0 0 0 0 0 0 0 0 0 0 0 0 0 0 0 0 0 0 0 0 0 0 0 0 0 0 0 0 0 0 0 0 0 0 0 0 0 0 0 0 0 0 0 0 0 0 0 0 0 0 0 0 0 0 0 0 0 0 0 0 0 0 0 0 0 0 0 0 0 0 0 0 0 0 0 0 0 0 0 0 0 0 0 0 0 0 0 0 0 0 0 0 0 0 0 0 0 0 0 0 0 0 0 0 0 0 0 0 0 0 0 0 0 0 0 0 0 0 0 0 0 0 0 0 0 0 0 0 0 0 0 0 0 0 0 0 0 0 0 0 0 0 0 0 0 0 0 0 0 0 0 0 0 0 0 0 0 0 0 0 0 0 0 0 0 0 0 0 0 0 0 0 0 0 0 0 0 0 0 0 0 0 0 0 0 0 0 0 0 0 0 0 0 0 0 0 0 0 0 0 0 0 0 0 0 0 0 0 0 0 0 0 0 0 0 0 0 0 0 0 0 0 0 0 0 0 0 0 0 0 0 0 0 0 0 0 0 0 0 0 0 0 0 0 0 0 0 0 0 0 0 0 0 0 0 0 0 0 0 0 0 0 0 0 0 0 0 0 0 0 0 0 0 0 0 0 0 0 0 0 0 0 0 0 0 0 0 0 0 0 0 0 0 0 0 0 0 0 0 0 0 0 0 0 0 0 0 0 0 0 0 0 0 0 0 0 0 0 0 0 0 0 0 0 0 0 0 0 0 0 0 0 0 0 0 0 0 0 0 0 0 0 0 0 0 0 0 0 0 0 0 0 0 0 0 0 0 0 0 0 0 0 0 0 0 0 0 0 0 0 0 0 0 0 0 0 0 0 0 0 0 0 0 0 0 0 0 0 0 0 0 0 0 0 0 0 0 0 0 0 0 0 0 0 0 0 0 0 0 0 0 0 0 0 0 0 0 0 0 0 0 0 0 0 0 0 0 0 0 0 0 0 0 0 0 0 0 0 0 0 0 0 0 0 0 0 0 0 0 0 0 0 0 0 0 0 0 0 0 0 0 0 0 0 0 0 0 0 0 0 0 0 0 0 0 0 0 0 0 0 0 0 0 0 0 0 0 0 0 0 0 0 0 0 0 0 0 0 0 0 0 0 0 0 0 0 0 0 0 0 0 0 0 0 0 0 0 0 0 0 0 0 0 0 0 0 0 0 0 0 0 0 0 0 0 0 0 0 0 0 0 0 0 0 0 0 0 0 0 0 0 0 0 0 0 0 0 0 0 0 0 0 0 0 0 0 0 0 0 0 0 0 0 0 0 0 0 0 0 0 0 0 0 0 0 0 0 0 0 0 0 0 0 0 0 0 0 0 0 0 0 0 0 0 0 0 0 0 0 0 0 0 0 0 0 0 0 0 0 0 0 0 0 0 0 0 0 0 0 0 0 0 0 0 0 0 0 0 0 0 0 0 0 0 0 0 0 0 0 0 0 0 0 0 0 0 0 0 0 0 0 0 0 0 0 0 0 0 0 0 0 0 0 0 0 0 0 0 0 0 0 0 0 0 0 0 0 0 0 0 0 0 0 0 0 0 0 0 0 0 0 0 0 0 0 0 0 0 0 0 0 0 0 0 0 0 0 0 0 0 0 0 0 0 0 0 0 0 0 0 0 0 0 0 0 0 0 0 0 0 0 0 0 0 0 0 0 0 0 0 0 0 0 0 0 0 0 0 0 0 0 0 0 0 0 0 0 0 0 0 0 0 0 0 0 0 0 0 0 0 0 0 0 0 0 0 0 0 0 0 0 0 0 0 0 0 0 0 0 0 0 0 0 0 0 0 0 0 0 0 0 0 0 0 0 0 0 0 0 0 0 0 0 0 0 0 0 0 0 0 0 0 0 0 0 0 0 0 0 0 0 0 0 0 0 0 0 0 0 0 0 0 0 0 0 0 0 0 0 0 0 0 0 0 0 0 0 0 0 0 0 0 0 0 0 0 0 0 0 0 0 0 0 0 0 0 0 0 0 0 0 0 0 0 0 0 0 0 0 0 0 0 0 0 0 0 0 0 0 0 0 0 0 0 0 0 0 0 0 0 0 0 0 0 0 0 0 0 0 0 0 0 0 0 0 0 0 0 0 0 0 0 0 0 0 0 0 0 0 0 0 0 0 0 0 0 0 0 0 0 0 0 0 0 0 0 0 0 0 0 0 0 0 0 0 0 0 0 0 0 0 0 0 0 0 0 0 0 0 0 0 0 0 0 0 0 0 0 0 0 0 0 0 0 0 0 0 0 0 0 0 0 0 0 0 0 0 0 0 0 0 0 0 0 0 0 0 0 0 0 0 0 0 0 0 0 0 0 0 0 0 0 0 0 0 0 0 0 0 0 0 0 0 0 0 0 0 0 0 0 0 0 0 0 0 0 0 0 0 0 0 0 0 0 0 0 0 0 0 0 0 0 0 0 0 0 0 0 0 0 0 0 0 0 0 0 0 0 0 0 0 0 0 0 0 0 0 0 0 0 0 0 0 0 0 0 0 0 0 0 0 0 0 0 0 0 0 0 0 0 0 0 0 0 0 0 0 0 0 0 0 0 0 0 0 0 0 0 0 0 0 0 0 0 0 0 0 0 0 0 0 0 0 0 0 0 0 0 0 0 0 0 0 0 0 0 0 0 0 0 0 0 0 0 0 0 0 0 0 0 0 0 0 0 0 0 0 0 0 0 0 0 0 0 0 0 0 0 0 0 0 0 0 0 0 0 0 0 0 0 0 0 0 0 0 0 0 0 0 0 0 0 0 0 0 0 0 0 0 0 0 0 0 0 0 0 0 0 0 0 0 0 0 0 0 0 0 0 0 0 0 0 0 0 0 0 0 0 0 0 0 0 0 0 0 0 0 0 0 0 0 0 0 0 0 0 0 0 0 0 0 0 0 0 0 0 0 0 0 0 0 0 0 0 0 0 0 0 0 0 0 0 0 0 0 0 0 0 0 0 0 0 0 0 0 0 0 0 0 0 0 0 0 0 0 0 0 0 0 0 0 0 0 0 0 0 0 0 0 0 0 0 0 0 0 0 0 0 0 0 0 0 0 0 0 0 0 0 0 0 0 0 0 0 0 0 0 0 0 0 0 0 0 0 0 0 0 0 0 0 0 0 0 0 0 0 0 0 0 0 0 0 0 0 0 0 0 0 0 0 0 0 0 0 0 0 0 0 0 0 0 0 0 0 0 0 0 0 0 0 0 0 0 0 0 0 0 0 0 0 0 0 0 0 0 0 0 0 0 0 0 0 0 0 0 0 0 0 0 0 0 0 0 0 0 0 0 0 0 0 0 0 0 0 0 0 0 0 0 0 0 0 0 0 0 0 0 0 0 0 0 0 0 0 0 0 0 0 0 0 0 0 0 0 0 0 0 0 0 0 0 0 0 0 0 0 0 0 0 0 0 0 0 0 0 0 0 0 0 0 0 0 0 0 0 0 0 0 0 0 0 0 0 0 0 0 0 0 0 0 0 0 0 0 0 0 0 0 0 0 0 0 0 0 0 0 0 0 0 0 0 0 0 0 0 0 0 0 0 0 0 0 0 0 0 0 0 0 0 0 0 0 0 0 0 0 0 0 0 0 0 0 0 0 0 0 0 0 0 0 0 0 0 0 0 0 0 0 0 0 0 0 0 0 0 0 0 0 0 0 0 0 0 0 0 0 0 0 0 0 0 0 0 0 0 0 0 0 0 0 0 0 0 0 0 0 0 0 0 0 0 0 0 0 0 0 0 0 0 0 0 0 0 0 0 0 0 0 0 0 0 0 0 0 0 0 0 0 0 0 0 0 0 0 0 0 0 0 0 0 0 0 0 0 0 0 0 0 0 0 0 0 0 0 0 0 0 0 0 0 0 0 0 0 0 0 0 0 0 0 0 0 0 0 0 0 0 0 0 0 0 0 0 0 0 0 0 0 0 0 0 0 0 0 0 0 0 0 0 0 0 0 0 0 0 0 0 0 0 0 0 0 0 0 0 0 0 0 0 0 0 0 0 0 0 0 0 0 0 0 0 0 0 0 0 0 0 0 0 0 0 0 0 0 0 0 0 0 0 0 0 0 0 0 0 0 0 0 0 0 0 0 0 0 0 0 0 0 0 0 0 0 0 0 0 0 0 0 0 0 0 0 0 0 0 0 0 0 0 0 0 0 0 0 0 0 0 0 0 0 0 0 0 0 0 0 0 0 0 0 0 0 0 0 0 0 0 0 0 0 0 0 0 0 0 0 0 0 0 0 0 0 0 0 0 0 0 0 0 0 0 0 0 0 0 0 0 0 0 0 0 0 0 0 0 0 0 0 0 0 0 0 0 0 0 0 0 0 0 0 0 0 0 0 0 0 0 0 0 0 0 0 0 0 0 0 0 0 0 0 0 0 0 0 0 0 0 0 0 0 0 0 0 0 0 0 0 0 0 0 0 0 0 0 0 0 0 0 0 0 0 0 0 0 0 0 0 0 0 0 0 0 0 0 0 0 0 0 0 0 0 0 0 0 0 0 0 0 0 0 0 0 0 0 0 0 0 0 0 0 0 0 0 0 0 0 0 0 0 0 0 0 0 0 0 0 0 0 0 0 0 0 0 0 0 0 0 0 0 0 0 0 0 0 0 0 0 0 0 0 0 0 0 0 0 0 0 0 0 0 0 0 0 0 0 0 0 0 0 0 0 0 0 0 0 0 0 0 0 0 0 0 0 0 0 0 0 0 0 0 0 0 0 0 0 0 0 0 0 0 0 0 0 0 0 0 0 0 0 0 0 0 0 0 0 0 0 0 0 0 0 0 0 0 0 0 0 0 0 0 0 0 0 0 0 0 0 0 0 0 0 0 0 0 0 0 0 0 0 0 0 0 0 0 0 0 0 0 0 0 0 0 0 0 0 0 0 0 0 0 0 0 0 0 0 0 0 0 0 0 0 0 0 0 0 0 0 0 0 0 0 0 0 0 0 0 0 0 0 0 0 0 0 0 0 0 0 0 0 0 0 0 0 0 0 0 0 0 0 0 0 0 0 0 0 0 0 0 0 0 0 0 0 0 0 0 0 0 0 0 0 0 0 0 0 0 0 0 0 0 0 0 0 0 0 0 0 0 0 0 0 0 0 0 0 0 0 0 0 0 0 0 0 0 0 0 0 0 0 0 0 0 0 0 0 0 0 0 0 0 0 0 0 0 0 0 0 0 0 0 0 0 0 0 0 0 0 0 0 0 0 0 0 0 0 0 0 0 0 0 0 0 0 0 0 0 0 0 0 0 0 0 0 0 0 0 0 0 0 0 0 0 0 0 0 0 0 0 0 0 0 0 0 0 0 0 0 0 0 0 0 0 0 0 0 0 0 0 0 0 0 0 0 0 0 0 0 0 0 0 0 0 0 0 0 0 0 0 0 0 0 0 </DataArray>
      </PointData>
    </Piece>
  </UnstructuredGrid>
</VTKFile>
