<?xml version="1.0"?>
<VTKFile type="UnstructuredGrid" version="2.2">
  <UnstructuredGrid>
    <Piece NumberOfPoints="60" NumberOfCells="20">
      <Points>
        <DataArray type="Float64" NumberOfComponents="3" format="ascii">0.6649999999989591 -2.406143753531767e-17 0 0.9999999999999999 -3.9888378707731e-17 0 0.7120860473825432 0.2857129206375195 0 1 -1.169724146093436e-18 0 0.9999999999999999 0.499999999998694 0 0.7120860473825432 0.2857129206375195 0 0.664999999998959 -2.241577663387767e-18 0 0.7120860473825434 0.2857129206375195 0 0.4802408687832743 0.1819440162619868 0 0.33 -1.53224942450773e-17 0 0.6649999999989589 -2.540120274599389e-17 0 0.4802408687832743 0.1819440162619868 0 1 0.499999999998694 0 0.6492432260951949 0.6624668562888789 0 0.7120860473825432 0.2857129206375194 0 0.7120860473825437 0.2857129206375196 0 0.4607730582016282 0.3906619234225344 0 0.4802408687832743 0.1819440162619867 0 0.2333452383332417 0.2333452372498797 0 0.3299999999999999 -2.663752839931532e-17 0 0.4802408687832744 0.1819440162619868 0 1 0.499999999998694 0 0.9999999999999999 0.9999999999999999 0 0.6492432260951947 0.6624668562888786 0 0.6492432260951951 0.662466856288879 0 0.4607730582016282 0.3906619234225345 0 0.7120860473825434 0.2857129206375194 0 0.4607730582016283 0.3906619234225345 0 0.2333452383332416 0.2333452372498797 0 0.4802408687832743 0.1819440162619867 0 1 1 0 0.5000000000020591 0.9999999999999999 0 0.6492432260951947 0.6624668562888786 0 0.2908264624533338 0.7254034792111056 0 0.4607730582016282 0.3906619234225344 0 0.6492432260951949 0.6624668562888788 0 0.1959439281524296 0.4796741652015041 0 0.2333452383332416 0.2333452372498797 0 0.4607730582016282 0.3906619234225343 0 0.5000000000020592 1 0 0.2908264624533337 0.7254034792111054 0 0.6492432260951949 0.6624668562888786 0 0.1959439281524296 0.4796741652015041 0 0.4607730582016282 0.3906619234225344 0 0.2908264624533336 0.7254034792111054 0 -3.683662597221097e-18 0.33 0 0.2333452383332417 0.2333452372498797 0 0.1959439281524295 0.4796741652015039 0 0.5000000000020592 1 0 -4.325141434911452e-17 0.9999999999999999 0 0.2908264624533337 0.7254034792111052 0 -1.552109218999548e-17 0.6650000000010196 0 0.1959439281524295 0.4796741652015039 0 0.2908264624533337 0.7254034792111054 0 -1.650150289718935e-17 0.6650000000010196 0 -2.735573034003759e-17 0.33 0 0.1959439281524295 0.4796741652015038 0 -2.449207667726095e-17 1 0 -4.060228024229193e-17 0.6650000000010193 0 0.2908264624533337 0.7254034792111052 0 </DataArray>
      </Points>
      <Cells>
        <DataArray type="Int32" Name="connectivity" format="ascii">0 1 2 3 4 5 6 7 8 9 10 11 12 13 14 15 16 17 18 19 20 21 22 23 24 25 26 27 28 29 30 31 32 33 34 35 36 37 38 39 40 41 42 43 44 45 46 47 48 49 50 51 52 53 54 55 56 57 58 59 </DataArray>
        <DataArray type="Int32" Name="offsets" format="ascii">3 6 9 12 15 18 21 24 27 30 33 36 39 42 45 48 51 54 57 60 </DataArray>
        <DataArray type="Int8" Name="types" format="ascii">69 69 69 69 69 69 69 69 69 69 69 69 69 69 69 69 69 69 69 69 </DataArray>
      </Cells>
      <CellData>
        <DataArray type="UInt8" Name="vtkGhostType" format="ascii" RangeMin="0" RangeMax="1">0 0 0 0 0 0 0 0 0 0 0 0 0 0 0 0 0 0 0 0 </DataArray>
        <DataArray type="Int64" IdType="1" Name="vtkOriginalCellIds" format="ascii" RangeMin="0" RangeMax="19">0 1 2 3 4 5 6 7 8 9 10 11 12 13 14 15 16 17 18 19 </DataArray>
      </CellData>
      <PointData Tensors="stress" Vectors="von_mises_stress">
        <DataArray type="Int64" IdType="1" Name="vtkOriginalPointIds" format="ascii" RangeMin="0" RangeMax="59">0 1 2 3 4 5 6 7 8 9 10 11 12 13 14 15 16 17 18 19 20 21 22 23 24 25 26 27 28 29 30 31 32 33 34 35 36 37 38 39 40 41 42 43 44 45 46 47 48 49 50 51 52 53 54 55 56 57 58 59 </DataArray>
        <DataArray type="UInt8" Name="vtkGhostType" format="ascii" RangeMin="0" RangeMax="0">0 0 0 0 0 0 0 0 0 0 0 0 0 0 0 0 0 0 0 0 0 0 0 0 0 0 0 0 0 0 0 0 0 0 0 0 0 0 0 0 0 0 0 0 0 0 0 0 0 0 0 0 0 0 0 0 0 0 0 0 </DataArray>
        <DataArray type="Float64" Name="stress" format="ascii" NumberOfComponents="9">51586455.13498927 -4283141.927469283 -4283141.927469283 6210280.903224709 0 0 0 0 0 77955674.08583462 2723361.660430014 2723361.660430014 7990814.827113464 0 0 0 0 0 66663172.46614457 -22668411.24833054 -22668411.24833054 -7427299.841634745 0 0 0 0 0 64536987.35080603 -2318748.167509414 -2318748.167509414 2799469.872279327 0 0 0 0 0 100042857.0292378 -13047538.95323793 -13047538.95323793 -2876706.356621663 0 0 0 0 0 78963513.56811216 -18057428.91135507 -18057428.91135507 -2709706.237220685 0 0 0 0 0 32198362.45363804 -5350519.940807535 -5350519.940807535 1338084.92638978 0 0 0 0 0 87818556.05147962 -22748374.01622907 -22748374.01622907 -1573297.58670843 0 0 0 0 0 52574338.63759253 -26817578.53864683 -26817578.53864683 -9866417.599151807 0 0 0 0 0 -9429491.628287343 -4477639.809423462 -4477639.809423462 -42314653.76370168 0 0 0 0 0 51573129.80867428 3057510.104232313 3057510.104232313 12968658.44932537 0 0 0 0 0 32119186.81623009 -31389543.01977789 -31389543.01977789 -5688502.987027747 0 0 0 0 0 95275533.36334997 -10954672.82851197 -10954672.82851197 -3171502.022051872 0 0 0 0 0 108716399.8415501 -8570022.725455338 -8570022.725455338 -14773680.92928366 0 0 0 0 0 87957618.34913081 -21267632.19316191 -21267632.19316191 -7779007.381198594 0 0 0 0 0 82914466.52875417 -19017233.896569 -19017233.896569 -4256269.857400548 0 0 0 0 0 101133277.9291023 -24051184.76631695 -24051184.76631695 -24521240.86931375 0 0 0 0 0 62618098.24889298 -35147357.01083222 -35147357.01083222 -12407170.22347667 0 0 0 0 0 55265757.62021095 -31277800.58608054 -31277800.58608054 14076474.88125257 0 0 0 0 0 -29375628.91925226 18887395.82974714 18887395.82974714 -102209972.9670763 0 0 0 0 0 51274400.99902948 -38739739.95634533 -38739739.95634533 -2180635.350562951 0 0 0 0 0 93384778.87893088 -12173080.93855354 -12173080.93855354 -6702453.63558721 0 0 0 0 0 105957312.6005312 -2496851.62069008 -2496851.62069008 -5903577.772151047 0 0 0 0 0 112382357.547274 -6107570.314848491 -6107570.314848491 -9338209.017317209 0 0 0 0 0 119172116.1402568 -6053595.842190209 -6053595.842190209 -10803402.43843042 0 0 0 0 0 109221269.2996595 -17937438.90368245 -17937438.90368245 -16347058.87225106 0 0 0 0 0 75936184.77504219 -24171865.98270577 -24171865.98270577 -12348626.27347331 0 0 0 0 0 135007723.0231385 -28047530.19665304 -28047530.19665304 -15599482.62059204 0 0 0 0 0 55008956.53205714 -26834853.50747313 -26834853.50747313 -10184554.98230975 0 0 0 0 0 47949009.9240085 -35683380.18981738 -35683380.18981738 -16821790.31039554 0 0 0 0 0 105591682.4667581 -2590033.339007705 -2590033.339007705 -5109363.618432615 0 0 0 0 0 110949960.8840237 4447365.182230009 4447365.182230009 9978.615789119756 0 0 0 0 0 110501096.1711625 -5154052.669976446 -5154052.669976446 -10978803.39844002 0 0 0 0 0 123335424.2497814 9843510.188996157 9843510.188996157 5277099.864016818 0 0 0 0 0 117848666.3051804 -16996019.84904116 -16996019.84904116 -20153187.93946055 0 0 0 0 0 111704405.8388003 -4688234.765281945 -4688234.765281945 -12102044.43923756 0 0 0 0 0 151485177.9096876 11328916.52034613 11328916.52034613 13295499.49475071 0 0 0 0 0 106220735.563397 -55041316.20681419 -55041316.20681419 28296141.6289371 0 0 0 0 0 113096250.7485158 -14523062.88998659 -14523062.88998659 -46736024.74866937 0 0 0 0 0 108894911.3941466 4225944.616240375 4225944.616240375 -488552.527292906 0 0 0 0 0 121451188.7131233 7625677.852123443 7625677.852123443 2103391.403163004 0 0 0 0 0 112342675.0812381 -4533026.076200539 -4533026.076200539 -10015953.96801567 0 0 0 0 0 145056821.2853217 5206585.790605216 5206585.790605216 8695991.324862111 0 0 0 0 0 115828361.9386767 -17130796.79832031 -17130796.79832031 -20438506.51187501 0 0 0 0 0 122019945.9840132 9785913.712515322 9785913.712515322 5134469.566403511 0 0 0 0 0 312213605.2053201 -39637941.58985785 -39637941.58985785 30116541.11192413 0 0 0 0 0 112434566.0580319 -77268170.27668323 -77268170.27668323 27028338.07178092 0 0 0 0 0 120829642.6196168 18203179.39340507 18203179.39340507 10260265.83062447 0 0 0 0 0 109302444.4643997 5237066.447526637 5237066.447526637 -3051494.70941964 0 0 0 0 0 108358625.2997989 2573089.056967165 2573089.056967165 21580427.92870747 0 0 0 0 0 115695231.4217296 6416771.955772435 6416771.955772435 6955504.088258635 0 0 0 0 0 120967250.8855841 6052079.918146054 6052079.918146054 38072073.50657427 0 0 0 0 0 143124998.9636576 1332647.00534788 1332647.00534788 12462072.56228063 0 0 0 0 0 116025598.7289519 10339939.70062244 10339939.70062244 3605283.601006937 0 0 0 0 0 109919952.5156268 1594436.522202344 1594436.522202344 33229381.96438379 0 0 0 0 0 221660275.5533743 -6337070.767886187 -6337070.767886187 27341863.45017005 0 0 0 0 0 134588272.6113262 3248252.134049719 3248252.134049719 30889937.47984311 0 0 0 0 0 103126452.1658766 -1053901.770705273 -1053901.770705273 13007186.70818014 0 0 0 0 0 119442362.2134871 3080984.638472738 3080984.638472738 25966080.67931583 0 0 0 0 0 119482936.3383504 9531379.391002266 9531379.391002266 15191117.48736155 0 0 0 0 0 </DataArray>
        <DataArray type="Float64" Name="von_mises_stress" format="ascii" NumberOfComponents="3">48552915.14202278 0 0 72378276.44467145 0 0 78416891.60724996 0 0 62615222.45104291 0 0 103845591.022613 0 0 85663898.51642345 0 0 32145902.65040408 0 0 96654133.76505621 0 0 73503560.76861754 0 0 27671187.63659903 0 0 36096297.99087875 0 0 58676121.3039882 0 0 98497107.2032901 0 0 117262034.7344088 0 0 98423955.7515762 0 0 90506879.1719095 0 0 121815672.540902 0 0 90580196.12797748 0 0 57857164.64023009 0 0 65463963.36298053 0 0 71982172.0961269 0 0 98831838.10799612 0 0 108904355.7031846 0 0 117722499.2020714 0 0 124188856.5059228 0 0 121926260.7557247 0 0 91248123.07517652 0 0 149357376.8437864 0 0 75551348.69481361 0 0 82322246.89859164 0 0 108242732.9427676 0 0 110885427.4235844 0 0 116503422.9780802 0 0 120054509.5475496 0 0 130921944.1640943 0 0 118036177.3987296 0 0 137570746.2717275 0 0 120796852.541443 0 0 138457119.5822095 0 0 109245098.7752131 0 0 120834805.8093514 0 0 117434661.1176917 0 0 140330439.7081339 0 0 128113738.838221 0 0 119413276.1627837 0 0 301751305.9498708 0 0 148283081.0184754 0 0 104102690.3850062 0 0 110891650.4227992 0 0 98937487.95509538 0 0 112802504.1746322 0 0 106464373.2612085 0 0 136836371.4815038 0 0 114943592.398986 0 0 97135793.97405612 0 0 209162621.4691829 0 0 121968640.849189 0 0 97014549.31749599 0 0 108751157.3322572 0 0 113562172.4589719 0 0 </DataArray>
      </PointData>
    </Piece>
  </UnstructuredGrid>
</VTKFile>
