<?xml version="1.0"?>
<VTKFile type="UnstructuredGrid" version="2.2">
  <UnstructuredGrid>
    <Piece NumberOfPoints="750" NumberOfCells="250">
      <Points>
        <DataArray type="Float64" NumberOfComponents="3" format="ascii">0.100000000000416 1 0 9.542080092254412e-18 1 0 0.07242270094929616 0.9287161546587119 0 1.560150154043339e-18 1 0 -1.560150154043339e-18 0.9042857142860056 0 0.07242270094929616 0.9287161546587119 0 0.1504496488130522 0.920529655141281 0 0.100000000000416 1 0 0.07242270094929615 0.9287161546587119 0 1.560150154043339e-18 0.9042857142860055 0 0.08949214017397381 0.8499193320747834 0 0.07242270094929616 0.9287161546587119 0 0.2000000000008322 1 0 0.100000000000416 1 0 0.1504496488130522 0.9205296551412809 0 0.08949214017397381 0.8499193320747833 0 0.1504496488130522 0.9205296551412812 0 0.07242270094929615 0.9287161546587119 0 1.927864805481964e-18 0.9042857142860055 0 -1.927864805481964e-18 0.808571428572008 0 0.08949214017397381 0.8499193320747832 0 0.2000000000008322 1 0 0.1504496488130522 0.9205296551412812 0 0.2499721953899355 0.9185928771799158 0 0.1985034546041365 0.8442209309262434 0 0.1504496488130522 0.9205296551412812 0 0.08949214017397379 0.8499193320747832 0 1.927864805481964e-18 0.8085714285720079 0 0.07981914983884167 0.7551853746230651 0 0.08949214017397381 0.8499193320747832 0 0.3000000000012483 1 0 0.2000000000008322 1 0 0.2499721953899355 0.9185928771799158 0 0.2499721953899355 0.9185928771799159 0 0.1504496488130522 0.9205296551412812 0 0.1985034546041365 0.8442209309262433 0 0.1985034546041365 0.8442209309262434 0 0.08949214017397383 0.8499193320747834 0 0.1647172437488297 0.7772037251192008 0 1.719486532321706e-18 0.8085714285720079 0 -1.719486532321706e-18 0.7128571428580416 0 0.07981914983884167 0.7551853746230649 0 0.08949214017397381 0.8499193320747833 0 0.07981914983884168 0.7551853746230651 0 0.1647172437488297 0.7772037251192008 0 0.3498228780409011 0.9196059643157828 0 0.3000000000012484 1 0 0.2499721953899355 0.9185928771799158 0 0.2499721953899355 0.9185928771799159 0 0.1985034546041365 0.8442209309262435 0 0.2982782210027112 0.8494663949677288 0 0.1985034546041365 0.8442209309262434 0 0.1647172437488297 0.777203725119201 0 0.2569918719072125 0.7888812511490499 0 0.07981914983884167 0.755185374623065 0 7.1538221068411e-18 0.7128571428580416 0 0.07928054189815228 0.6639934880868407 0 0.07981914983884167 0.755185374623065 0 0.1576018681684929 0.6958879033414609 0 0.1647172437488297 0.7772037251192008 0 0.4000000000016644 1 0 0.3000000000012484 1 0 0.3498228780409011 0.9196059643157827 0 0.3498228780409011 0.9196059643157828 0 0.2499721953899355 0.918592877179916 0 0.2982782210027111 0.8494663949677288 0 0.2982782210027112 0.8494663949677289 0 0.1985034546041365 0.8442209309262435 0 0.2569918719072125 0.7888812511490499 0 0.1647172437488297 0.7772037251192009 0 0.2419461962682328 0.7223495853541094 0 0.2569918719072125 0.7888812511490499 0 1.707883688867638e-18 0.7128571428580415 0 -1.707883688867638e-18 0.6171428571437531 0 0.07928054189815228 0.6639934880868407 0 0.07981914983884167 0.755185374623065 0 0.0792805418981523 0.6639934880868409 0 0.1576018681684929 0.6958879033414607 0 0.1576018681684929 0.6958879033414608 0 0.2419461962682328 0.7223495853541094 0 0.1647172437488297 0.7772037251192008 0 0.4000000000016644 1 0 0.3498228780409012 0.9196059643157829 0 0.4518775995084198 0.9201756490083463 0 0.3498228780409011 0.9196059643157828 0 0.2982782210027112 0.849466394967729 0 0.3974942312260538 0.8548415168737088 0 0.334473259867368 0.7636851317483528 0 0.2982782210027112 0.849466394967729 0 0.2569918719072125 0.7888812511490499 0 0.2419461962682328 0.7223495853541093 0 0.334473259867368 0.763685131748353 0 0.2569918719072125 0.7888812511490499 0 1.707883688867638e-18 0.6171428571437529 0 0.07947867006665031 0.569287927425995 0 0.07928054189815228 0.6639934880868407 0 0.1576018681684929 0.6958879033414608 0 0.0792805418981523 0.6639934880868409 0 0.1512795608247463 0.6093594627734519 0 0.1576018681684929 0.6958879033414608 0 0.2341354436318248 0.6391200624061725 0 0.2419461962682328 0.7223495853541092 0 0.5000000000020587 1 0 0.4000000000016645 1 0 0.4518775995084198 0.9201756490083463 0 0.4518775995084199 0.9201756490083464 0 0.3498228780409012 0.9196059643157829 0 0.3974942312260538 0.8548415168737088 0 0.2982782210027112 0.8494663949677289 0 0.334473259867368 0.763685131748353 0 0.3974942312260538 0.8548415168737088 0 0.318778831313966 0.6664952828410462 0 0.334473259867368 0.763685131748353 0 0.2419461962682328 0.7223495853541092 0 1.712151821491122e-18 0.6171428571437529 0 -1.712151821491122e-18 0.5214285714291635 0 0.07947867006665031 0.5692879274259948 0 0.07928054189815228 0.6639934880868408 0 0.07947867006665033 0.569287927425995 0 0.1512795608247463 0.6093594627734519 0 0.2341354436318248 0.6391200624061724 0 0.1576018681684929 0.6958879033414609 0 0.1512795608247463 0.6093594627734519 0 0.2341354436318248 0.6391200624061724 0 0.318778831313966 0.6664952828410463 0 0.2419461962682328 0.7223495853541092 0 0.5501260307078503 0.9157080124274182 0 0.5000000000020588 1 0 0.4518775995084198 0.9201756490083463 0 0.4982783550718213 0.828329071072998 0 0.4518775995084199 0.9201756490083465 0 0.3974942312260538 0.8548415168737088 0 0.334473259867368 0.7636851317483528 0 0.4270018182274792 0.774845510303258 0 0.3974942312260538 0.8548415168737088 0 0.4034544631785332 0.6976365327000738 0 0.334473259867368 0.763685131748353 0 0.3187788313139659 0.6664952828410461 0 0.07947867006665031 0.5692879274259949 0 7.199699001926701e-18 0.5214285714291635 0 0.07539619258341246 0.4768398233222965 0 0.1512795608247463 0.609359462773452 0 0.07947867006665033 0.569287927425995 0 0.1430235002041239 0.5157881957117131 0 0.2175071670521008 0.5477913784569416 0 0.2341354436318248 0.6391200624061725 0 0.1512795608247463 0.6093594627734519 0 0.2341354436318248 0.6391200624061724 0 0.3009805024027954 0.574124405453795 0 0.3187788313139659 0.6664952828410461 0 0.6000000000013869 1 0 0.5000000000020588 1 0 0.5501260307078502 0.9157080124274181 0 0.5501260307078503 0.9157080124274182 0 0.4518775995084199 0.9201756490083465 0 0.4982783550718212 0.8283290710729979 0 0.4270018182274792 0.7748455103032579 0 0.4982783550718213 0.8283290710729981 0 0.3974942312260538 0.8548415168737088 0 0.4034544631785332 0.6976365327000738 0 0.4270018182274792 0.774845510303258 0 0.3344732598673679 0.7636851317483527 0 0.3874961043363944 0.6045058593620658 0 0.4034544631785332 0.6976365327000739 0 0.3187788313139659 0.6664952828410461 0 1.624205945531439e-18 0.5214285714291634 0 -1.624205945531439e-18 0.4257142857145927 0 0.07539619258341246 0.4768398233222965 0 0.07947867006665031 0.5692879274259949 0 0.07539619258341247 0.4768398233222966 0 0.1430235002041239 0.5157881957117131 0 0.2175071670521008 0.5477913784569416 0 0.1512795608247463 0.6093594627734521 0 0.1430235002041239 0.5157881957117131 0 0.2175071670521008 0.5477913784569416 0 0.3009805024027954 0.574124405453795 0 0.2341354436318248 0.6391200624061723 0 0.3009805024027954 0.5741244054537948 0 0.3874961043363945 0.6045058593620659 0 0.3187788313139659 0.6664952828410461 0 0.6000000000013869 1 0 0.5501260307078504 0.9157080124274183 0 0.6547996067305861 0.9007657125087726 0 0.5501260307078503 0.9157080124274182 0 0.4982783550718213 0.8283290710729981 0 0.5904037090299777 0.8429143001748771 0 0.4270018182274792 0.7748455103032579 0 0.4913158036241169 0.7286208351528236 0 0.4982783550718212 0.8283290710729979 0 0.4034544631785332 0.6976365327000738 0 0.4913158036241169 0.7286208351528236 0 0.4270018182274791 0.7748455103032578 0 0.4745187976266661 0.6356120108154575 0 0.4034544631785332 0.6976365327000739 0 0.3874961043363944 0.6045058593620657 0 0.07539619258341246 0.4768398233222965 0 6.643433168181237e-18 0.4257142857145927 0 0.0801784059973176 0.3963300372632158 0 0.1430235002041239 0.5157881957117132 0 0.07539619258341247 0.4768398233222966 0 0.1336105784902603 0.4361702689152495 0 0.2005261160939736 0.4579553459022219 0 0.2175071670521008 0.5477913784569416 0 0.1430235002041239 0.5157881957117131 0 0.2845914509445011 0.4848763822704991 0 0.3009805024027954 0.5741244054537948 0 0.2175071670521008 0.5477913784569415 0 0.3009805024027954 0.5741244054537948 0 0.370652546593246 0.5134749221234859 0 0.3874961043363944 0.6045058593620657 0 0.7000000000006934 1 0 0.600000000001387 1 0 0.6547996067305861 0.9007657125087726 0 0.6547996067305862 0.9007657125087727 0 0.5501260307078504 0.9157080124274183 0 0.5904037090299777 0.8429143001748771 0 0.4982783550718213 0.828329071072998 0 0.5766230053207846 0.7565871944151591 0 0.5904037090299777 0.8429143001748771 0 0.4982783550718213 0.828329071072998 0 0.4913158036241169 0.7286208351528236 0 0.5766230053207846 0.7565871944151589 0 0.4745187976266661 0.6356120108154575 0 0.4913158036241169 0.7286208351528236 0 0.4034544631785331 0.6976365327000736 0 0.4575639698313757 0.5427700263992947 0 0.4745187976266662 0.6356120108154576 0 0.3874961043363944 0.6045058593620657 0 1.72722572933646e-18 0.4257142857145927 0 -1.72722572933646e-18 0.3300000000000001 0 0.0801784059973176 0.3963300372632158 0 0.07539619258341246 0.4768398233222965 0 0.08017840599731761 0.3963300372632159 0 0.1336105784902603 0.4361702689152495 0 0.2005261160939736 0.4579553459022219 0 0.1430235002041239 0.5157881957117132 0 0.1336105784902603 0.4361702689152495 0 0.2845914509445011 0.4848763822704991 0 0.2175071670521008 0.5477913784569416 0 0.2005261160939736 0.4579553459022219 0 0.2845914509445011 0.4848763822704991 0 0.370652546593246 0.5134749221234858 0 0.3009805024027953 0.5741244054537948 0 0.370652546593246 0.5134749221234858 0 0.4575639698313758 0.5427700263992948 0 0.3874961043363944 0.6045058593620657 0 0.7543567317552734 0.9205245603072643 0 0.7000000000006935 1 0 0.6547996067305861 0.9007657125087726 0 0.6561937267356622 0.795248704204671 0 0.6547996067305863 0.9007657125087728 0 0.5904037090299777 0.8429143001748771 0 0.5766230053207846 0.756587194415159 0 0.6561937267356623 0.7952487042046711 0 0.5904037090299777 0.8429143001748771 0 0.4913158036241168 0.7286208351528235 0 0.5631276294601404 0.6660590632334468 0 0.5766230053207845 0.7565871944151589 0 0.4745187976266661 0.6356120108154575 0 0.5631276294601404 0.6660590632334468 0 0.4913158036241168 0.7286208351528234 0 0.544952063405022 0.5736116874732444 0 0.4745187976266662 0.6356120108154576 0 0.4575639698313756 0.5427700263992946 0 1.72722572933646e-18 0.33 0 0.08541028510984704 0.318755522614832 0 0.0801784059973176 0.3963300372632158 0 0.0801784059973176 0.3963300372632158 0 0.1640593670304531 0.3719448045044552 0 0.1336105784902603 0.4361702689152495 0 0.1640593670304531 0.3719448045044551 0 0.2005261160939736 0.457955345902222 0 0.1336105784902603 0.4361702689152495 0 0.2845914509445011 0.4848763822704991 0 0.2005261160939736 0.457955345902222 0 0.2643248175403595 0.3987638367146988 0 0.3539299266139261 0.4249789751401974 0 0.370652546593246 0.5134749221234858 0 0.2845914509445011 0.4848763822704991 0 0.370652546593246 0.5134749221234858 0 0.4393289521925455 0.4527926137698597 0 0.4575639698313756 0.5427700263992947 0 0.7999999999999998 1 0 0.7000000000006935 1 0 0.7543567317552733 0.9205245603072642 0 0.7543567317552734 0.9205245603072643 0 0.6547996067305863 0.9007657125087728 0 0.7337357535262906 0.8320636705966576 0 0.6547996067305862 0.9007657125087727 0 0.6561937267356623 0.7952487042046711 0 0.7337357535262906 0.8320636705966576 0 0.6531478674937994 0.703048518595867 0 0.6561937267356623 0.7952487042046711 0 0.5766230053207845 0.7565871944151589 0 0.5631276294601404 0.6660590632334467 0 0.6531478674937995 0.7030485185958671 0 0.5766230053207845 0.7565871944151589 0 0.544952063405022 0.5736116874732444 0 0.5631276294601405 0.6660590632334468 0 0.474518797626666 0.6356120108154574 0 0.5264916765173424 0.482014321273292 0 0.5449520634050221 0.5736116874732444 0 0.4575639698313756 0.5427700263992946 0 0.08541028510984704 0.318755522614832 0 0.1640593670304531 0.3719448045044552 0 0.08017840599731758 0.3963300372632158 0 0.2005261160939736 0.4579553459022219 0 0.1640593670304531 0.3719448045044552 0 0.2643248175403595 0.3987638367146988 0 0.3539299266139261 0.4249789751401974 0 0.2845914509445012 0.4848763822704992 0 0.2643248175403595 0.3987638367146988 0 0.3539299266139261 0.4249789751401974 0 0.4393289521925455 0.4527926137698597 0 0.3706525465932459 0.5134749221234858 0 0.4393289521925454 0.4527926137698597 0 0.5264916765173424 0.4820143212732921 0 0.4575639698313756 0.5427700263992947 0 0.7999999999999998 1 0 0.7543567317552735 0.9205245603072644 0 0.8469936203174669 0.9266230858766439 0 0.7543567317552734 0.9205245603072643 0 0.7337357535262908 0.8320636705966579 0 0.8112077680726292 0.8636996853073268 0 0.6561937267356622 0.795248704204671 0 0.7394722959461436 0.7432808756465733 0 0.7337357535262906 0.8320636705966576 0 0.6531478674937994 0.703048518595867 0 0.7394722959461436 0.7432808756465733 0 0.6561937267356621 0.7952487042046709 0 0.5631276294601404 0.6660590632334467 0 0.6374023867008555 0.6062433927835131 0 0.6531478674937993 0.7030485185958669 0 0.544952063405022 0.5736116874732444 0 0.6374023867008555 0.6062433927835131 0 0.5631276294601403 0.6660590632334465 0 0.5264916765173424 0.482014321273292 0 0.6148622751988871 0.5113105424968967 0 0.5449520634050219 0.5736116874732444 0 0.08541028510984704 0.318755522614832 0 0.1650000004123211 0.2857883830108112 0 0.1640593670304531 0.3719448045044551 0 0.1640593670304531 0.3719448045044551 0 0.2462583128866442 0.3160366088760196 0 0.2643248175403595 0.3987638367146988 0 0.336583731672659 0.336790903594801 0 0.3539299266139261 0.4249789751401974 0 0.2643248175403595 0.3987638367146988 0 0.3539299266139261 0.4249789751401974 0 0.4214663514838096 0.3644860395280299 0 0.4393289521925454 0.4527926137698596 0 0.4393289521925454 0.4527926137698597 0 0.507573578000972 0.3921138040433801 0 0.5264916765173424 0.482014321273292 0 0.8999999999995836 1 0 0.7999999999999999 1 0 0.8469936203174669 0.9266230858766439 0 0.8469936203174671 0.926623085876644 0 0.7543567317552735 0.9205245603072644 0 0.8112077680726292 0.8636996853073268 0 0.7337357535262907 0.8320636705966578 0 0.8192566252644852 0.7890860954018276 0 0.8112077680726292 0.8636996853073268 0 0.7394722959461435 0.7432808756465732 0 0.8192566252644852 0.7890860954018276 0 0.7337357535262906 0.8320636705966576 0 0.6531478674937994 0.703048518595867 0 0.7391175425538949 0.6347508717092359 0 0.7394722959461434 0.7432808756465731 0 0.6531478674937994 0.703048518595867 0 0.6374023867008555 0.6062433927835131 0 0.7391175425538947 0.6347508717092357 0 0.544952063405022 0.5736116874732444 0 0.6148622751988871 0.5113105424968968 0 0.6374023867008553 0.6062433927835129 0 0.5264916765173424 0.482014321273292 0 0.5953929619415563 0.4201954588069572 0 0.6148622751988869 0.5113105424968967 0 0.1640593670304531 0.3719448045044551 0 0.1650000004123211 0.2857883830108112 0 0.2462583128866442 0.3160366088760195 0 0.2462583128866442 0.3160366088760196 0 0.336583731672659 0.3367909035948011 0 0.2643248175403595 0.3987638367146988 0 0.336583731672659 0.336790903594801 0 0.4214663514838096 0.3644860395280299 0 0.353929926613926 0.4249789751401973 0 0.4393289521925454 0.4527926137698597 0 0.4214663514838096 0.3644860395280299 0 0.507573578000972 0.39211380404338 0 0.5264916765173424 0.482014321273292 0 0.5075735780009721 0.3921138040433801 0 0.5953929619415561 0.4201954588069571 0 0.8999999999995836 1 0 0.8469936203174672 0.9266230858766441 0 0.9267949192429045 0.9267949192429457 0 0.9016961094996303 0.8502010143542412 0 0.8469936203174672 0.9266230858766441 0 0.8112077680726292 0.8636996853073268 0 0.8192566252644851 0.7890860954018275 0 0.9016961094996304 0.8502010143542413 0 0.8112077680726292 0.8636996853073268 0 0.7394722959461435 0.7432808756465732 0 0.8288651147231507 0.6986797578104891 0 0.819256625264485 0.7890860954018274 0 0.7391175425538948 0.6347508717092358 0 0.8288651147231507 0.6986797578104891 0 0.7394722959461434 0.7432808756465731 0 0.6374023867008554 0.606243392783513 0 0.7022966507855876 0.5383879929024823 0 0.7391175425538947 0.6347508717092357 0 0.6374023867008554 0.606243392783513 0 0.6148622751988871 0.5113105424968968 0 0.7022966507855873 0.5383879929024821 0 0.614862275198887 0.5113105424968967 0 0.5953929619415563 0.4201954588069572 0 0.6812846140658224 0.4460449155380938 0 0.1650000004123211 0.2857883830108111 0 0.2333452383332417 0.2333452372498797 0 0.2462583128866442 0.3160366088760195 0 0.2462583128866442 0.3160366088760196 0 0.3251853837111932 0.241899025735952 0 0.3365837316726589 0.336790903594801 0 0.336583731672659 0.336790903594801 0 0.4070425547868018 0.2792204871458517 0 0.4214663514838095 0.3644860395280298 0 0.507573578000972 0.3921138040433801 0 0.4214663514838096 0.3644860395280299 0 0.4889892423409982 0.3038076761812549 0 0.5953929619415562 0.4201954588069572 0 0.5075735780009721 0.3921138040433801 0 0.5758076666280337 0.329609255978541 0 1 1 0 0.8999999999995837 1 0 0.9267949192429045 0.9267949192429457 0 0.8469936203174671 0.926623085876644 0 0.9016961094996304 0.8502010143542413 0 0.9267949192429045 0.9267949192429457 0 0.9016961094996303 0.8502010143542412 0 0.8192566252644852 0.7890860954018276 0 0.9105973158643605 0.7479451577286276 0 0.8192566252644851 0.7890860954018275 0 0.8288651147231507 0.6986797578104891 0 0.9105973158643605 0.7479451577286276 0 0.8337113423576482 0.599696008751001 0 0.8288651147231507 0.6986797578104891 0 0.7391175425538947 0.6347508717092357 0 0.7391175425538948 0.6347508717092358 0 0.7022966507855876 0.5383879929024823 0 0.7760953731342628 0.5499323499660973 0 0.7022966507855875 0.5383879929024822 0 0.6148622751988871 0.5113105424968968 0 0.6812846140658224 0.4460449155380938 0 0.5953929619415562 0.4201954588069572 0 0.664913753004849 0.3577436960937129 0 0.6812846140658224 0.4460449155380938 0 0.2333452383332417 0.2333452372498797 0 0.3251853837111932 0.241899025735952 0 0.2462583128866442 0.3160366088760196 0 0.336583731672659 0.336790903594801 0 0.3251853837111933 0.241899025735952 0 0.4070425547868017 0.2792204871458516 0 0.4214663514838095 0.3644860395280298 0 0.4070425547868018 0.2792204871458517 0 0.4889892423409982 0.3038076761812549 0 0.5758076666280338 0.329609255978541 0 0.5075735780009721 0.3921138040433801 0 0.4889892423409982 0.3038076761812549 0 0.5953929619415562 0.4201954588069572 0 0.575807666628034 0.3296092559785411 0 0.6649137530048488 0.3577436960937128 0 1 0.8999999999997368 0 1 1 0 0.9267949192429045 0.9267949192429457 0 0.9016961094996303 0.8502010143542412 0 1 0.8999999999997369 0 0.9267949192429045 0.9267949192429457 0 1 0.7999999999994734 0 0.9016961094996304 0.8502010143542413 0 0.9105973158643605 0.7479451577286276 0 0.8288651147231506 0.698679757810489 0 0.913766045698899 0.6497040788065255 0 0.9105973158643605 0.7479451577286276 0 0.8337113423576482 0.599696008751001 0 0.913766045698899 0.6497040788065255 0 0.8288651147231505 0.6986797578104889 0 0.8337113423576482 0.599696008751001 0 0.7391175425538949 0.6347508717092359 0 0.7760953731342628 0.5499323499660973 0 0.7022966507855875 0.5383879929024822 0 0.7640906286465549 0.472719329826164 0 0.7760953731342628 0.5499323499660973 0 0.7022966507855875 0.5383879929024822 0 0.6812846140658226 0.4460449155380939 0 0.7640906286465546 0.4727193298261639 0 0.6649137530048489 0.3577436960937128 0 0.7509658875245232 0.3837908847455452 0 0.6812846140658224 0.4460449155380938 0 0.2333452383332417 0.2333452372498797 0 0.2857883835188696 0.1649999995323379 0 0.3251853837111932 0.241899025735952 0 0.4070425547868018 0.2792204871458516 0 0.3251853837111933 0.241899025735952 0 0.4035780772005115 0.2107049125168711 0 0.4889892423409983 0.3038076761812549 0 0.4070425547868018 0.2792204871458517 0 0.4711446762158893 0.2206591250799017 0 0.5533431996705069 0.2396037875864198 0 0.575807666628034 0.329609255978541 0 0.4889892423409982 0.3038076761812549 0 0.6649137530048489 0.3577436960937128 0 0.575807666628034 0.3296092559785411 0 0.6436084351024099 0.2642353864160775 0 1 0.7999999999994734 0 1 0.8999999999997369 0 0.9016961094996302 0.8502010143542411 0 1 0.69999999999921 0 1 0.7999999999994735 0 0.9105973158643605 0.7479451577286276 0 0.9137660456988989 0.6497040788065254 0 1 0.6999999999992101 0 0.9105973158643605 0.7479451577286276 0 0.9143104164701789 0.5502457745878089 0 0.913766045698899 0.6497040788065255 0 0.8337113423576481 0.5996960087510009 0 0.8396680954092651 0.504123702910957 0 0.8337113423576483 0.5996960087510012 0 0.7760953731342628 0.5499323499660973 0 0.7640906286465547 0.472719329826164 0 0.8396680954092652 0.504123702910957 0 0.7760953731342628 0.5499323499660974 0 0.6812846140658225 0.4460449155380939 0 0.7509658875245232 0.3837908847455452 0 0.7640906286465546 0.4727193298261639 0 0.6649137530048489 0.3577436960937128 0 0.7333924436513716 0.2993780895277814 0 0.750965887524523 0.3837908847455451 0 0.3251853837111932 0.241899025735952 0 0.2857883835188696 0.1649999995323379 0 0.3648957752756741 0.1555527535917359 0 0.3251853837111932 0.241899025735952 0 0.3648957752756742 0.1555527535917359 0 0.4035780772005115 0.2107049125168711 0 0.4711446762158894 0.2206591250799017 0 0.4070425547868018 0.2792204871458516 0 0.4035780772005115 0.2107049125168711 0 0.5533431996705069 0.2396037875864198 0 0.4889892423409983 0.3038076761812549 0 0.4711446762158893 0.2206591250799017 0 0.6436084351024101 0.2642353864160775 0 0.575807666628034 0.3296092559785411 0 0.5533431996705068 0.2396037875864198 0 0.6649137530048489 0.3577436960937128 0 0.6436084351024102 0.2642353864160776 0 0.7333924436513714 0.2993780895277813 0 1 0.5999999999989468 0 1 0.6999999999992101 0 0.9137660456988987 0.6497040788065253 0 1 0.5999999999989468 0 0.913766045698899 0.6497040788065255 0 0.9143104164701787 0.5502457745878088 0 0.9143104164701789 0.5502457745878089 0 0.8337113423576483 0.5996960087510012 0 0.839668095409265 0.5041237029109569 0 0.8342331509598676 0.4140361328938087 0 0.8396680954092652 0.504123702910957 0 0.7640906286465546 0.4727193298261639 0 0.7509658875245231 0.3837908847455452 0 0.8342331509598677 0.4140361328938088 0 0.7640906286465546 0.4727193298261639 0 0.7509658875245231 0.3837908847455452 0 0.7333924436513716 0.2993780895277814 0 0.8263642252375107 0.323507212697176 0 0.2857883835188696 0.1649999995323379 0 0.3187555227447488 0.08541028462499077 0 0.3648957752756741 0.1555527535917359 0 0.3648957752756742 0.1555527535917359 0 0.4407949288198665 0.150333809495205 0 0.4035780772005115 0.2107049125168711 0 0.4407949288198665 0.150333809495205 0 0.4711446762158895 0.2206591250799017 0 0.4035780772005115 0.2107049125168711 0 0.5533431996705069 0.2396037875864198 0 0.4711446762158895 0.2206591250799017 0 0.5280186054746174 0.1570647193166024 0 0.6436084351024101 0.2642353864160775 0 0.553343199670507 0.2396037875864198 0 0.6132366197634967 0.1702836711304234 0 0.7333924436513715 0.2993780895277814 0 0.6436084351024102 0.2642353864160776 0 0.7180649979298036 0.1971965142701444 0 1 0.4999999999986943 0 1 0.5999999999989468 0 0.9143104164701787 0.5502457745878088 0 0.9163687097940949 0.4515076337505133 0 0.914310416470179 0.5502457745878089 0 0.839668095409265 0.5041237029109569 0 0.9163687097940949 0.4515076337505133 0 0.8396680954092652 0.504123702910957 0 0.8342331509598675 0.4140361328938086 0 0.7509658875245231 0.3837908847455452 0 0.826364225237511 0.3235072126971761 0 0.8342331509598675 0.4140361328938086 0 0.8263642252375109 0.323507212697176 0 0.7333924436513716 0.2993780895277814 0 0.7983682599879577 0.2535536781780329 0 0.3648957752756742 0.1555527535917359 0 0.3187555227447488 0.08541028462499077 0 0.3966376598987704 0.07841900855955965 0 0.3648957752756742 0.1555527535917359 0 0.3966376598987705 0.07841900855955967 0 0.4407949288198664 0.150333809495205 0 0.5280186054746175 0.1570647193166024 0 0.4711446762158895 0.2206591250799017 0 0.4407949288198664 0.150333809495205 0 0.6132366197634969 0.1702836711304234 0 0.553343199670507 0.2396037875864198 0 0.5280186054746174 0.1570647193166024 0 0.7180649979298037 0.1971965142701444 0 0.6436084351024102 0.2642353864160775 0 0.6132366197634967 0.1702836711304234 0 0.7333924436513715 0.2993780895277814 0 0.7180649979298038 0.1971965142701444 0 0.7983682599879577 0.2535536781780329 0 0.9163687097940949 0.4515076337505133 0 1 0.4999999999986944 0 0.9143104164701787 0.5502457745878089 0 0.9127558318542788 0.3564464450756911 0 0.916368709794095 0.4515076337505133 0 0.8342331509598675 0.4140361328938086 0 0.8263642252375109 0.323507212697176 0 0.9127558318542789 0.3564464450756912 0 0.8342331509598675 0.4140361328938086 0 0.895555481334194 0.2551442917808648 0 0.826364225237511 0.3235072126971761 0 0.7983682599879577 0.2535536781780329 0 0.3187555227447488 0.08541028462499076 0 0.3300000000000001 7.793122157203585e-18 0 0.3966376598987704 0.07841900855955966 0 0.3966376598987704 0.07841900855955966 0 0.480494778853736 0.07960233790655934 0 0.4407949288198664 0.150333809495205 0 0.4804947788537359 0.07960233790655932 0 0.5280186054746175 0.1570647193166024 0 0.4407949288198664 0.150333809495205 0 0.5713844804045298 0.08071061625978788 0 0.613236619763497 0.1702836711304234 0 0.5280186054746174 0.1570647193166024 0 0.6649999999991136 0.08289100293350836 0 0.7180649979298038 0.1971965142701444 0 0.6132366197634967 0.1702836711304234 0 0.7180649979298037 0.1971965142701444 0 0.8239593393545867 0.1758659824302894 0 0.7983682599879577 0.2535536781780329 0 1 0.3999999999989749 0 1 0.4999999999986944 0 0.9163687097940948 0.4515076337505132 0 1 0.3999999999989749 0 0.916368709794095 0.4515076337505133 0 0.9127558318542787 0.3564464450756911 0 0.8263642252375109 0.323507212697176 0 0.8955554813341942 0.2551442917808648 0 0.9127558318542787 0.3564464450756911 0 0.8239593393545865 0.1758659824302894 0 0.8955554813341942 0.2551442917808648 0 0.7983682599879577 0.2535536781780329 0 0.33 1.689324295841689e-18 0 0.4257142857140301 -1.689324295841689e-18 0 0.3966376598987704 0.07841900855955966 0 0.4257142857140301 1.689324295841689e-18 0 0.480494778853736 0.07960233790655932 0 0.3966376598987704 0.07841900855955966 0 0.4804947788537359 0.07960233790655932 0 0.5713844804045298 0.0807106162597879 0 0.5280186054746174 0.1570647193166024 0 0.5713844804045298 0.08071061625978788 0 0.6649999999991137 0.08289100293350837 0 0.6132366197634967 0.1702836711304234 0 0.7180649979298037 0.1971965142701444 0 0.6649999999991137 0.08289100293350839 0 0.7614399244730015 0.1024449366002657 0 0.7180649979298037 0.1971965142701444 0 0.7614399244730017 0.1024449366002657 0 0.8239593393545864 0.1758659824302894 0 1 0.2999999999992664 0 1 0.399999999998975 0 0.9127558318542787 0.3564464450756911 0 0.895555481334194 0.2551442917808648 0 1 0.2999999999992665 0 0.9127558318542787 0.3564464450756911 0 0.895555481334194 0.2551442917808648 0 0.8239593393545867 0.1758659824302894 0 0.9177753013165791 0.1474028499315248 0 0.4257142857140301 1.714815908813953e-18 0 0.521428571427989 -1.714815908813953e-18 0 0.4804947788537359 0.07960233790655932 0 0.4804947788537359 0.07960233790655932 0 0.521428571427989 7.098944083575e-18 0 0.5713844804045297 0.08071061625978788 0 0.6171428571420018 1.738690752210404e-18 0 0.6649999999991137 0.08289100293350836 0 0.5713844804045297 0.08071061625978788 0 0.6649999999991136 0.08289100293350836 0 0.7128571428562256 6.995852416953989e-18 0 0.7614399244730015 0.1024449366002657 0 0.7614399244730016 0.1024449366002657 0 0.8564285714281222 0.08289100293390848 0 0.8239593393545864 0.1758659824302894 0 1 0.1999999999995579 0 1 0.2999999999992664 0 0.8955554813341939 0.2551442917808648 0 1 0.1999999999995579 0 0.8955554813341942 0.2551442917808648 0 0.9177753013165791 0.1474028499315248 0 0.8239593393545865 0.1758659824302894 0 0.8564285714281222 0.08289100293390848 0 0.9177753013165791 0.1474028499315248 0 0.521428571427989 1.738690752210404e-18 0 0.6171428571420019 -1.738690752210404e-18 0 0.5713844804045297 0.08071061625978788 0 0.6171428571420018 1.785661254004595e-18 0 0.7128571428562256 -1.785661254004595e-18 0 0.6649999999991135 0.08289100293350836 0 0.7128571428562255 2.206897582151248e-18 0 0.8085714285708151 -2.206897582151248e-18 0 0.7614399244730015 0.1024449366002657 0 0.808571428570815 2.206897582151248e-18 0 0.8564285714281222 0.08289100293390847 0 0.7614399244730015 0.1024449366002657 0 1 0.09999999999981467 0 1 0.1999999999995579 0 0.9177753013165791 0.1474028499315248 0 0.9177753013165793 0.1474028499315248 0 0.8564285714281222 0.08289100293390848 0 0.9307084157825725 0.07051582244471349 0 0.808571428570815 1.785661254013214e-18 0 0.9042857142854291 -1.785661254013214e-18 0 0.856428571428122 0.08289100293390847 0 1 0.09999999999981467 0 0.9177753013165794 0.1474028499315248 0 0.9307084157825725 0.07051582244471349 0 0.8564285714281221 0.08289100293390847 0 0.9042857142854291 7.68367835714289e-18 0 0.9307084157825725 0.07051582244471351 0 1 1.519071642006769e-18 0 1 0.09999999999981467 0 0.9307084157825725 0.07051582244471351 0 0.904285714285429 1.519071642006769e-18 0 1 -1.519071642006769e-18 0 0.9307084157825725 0.07051582244471351 0 </DataArray>
      </Points>
      <Cells>
        <DataArray type="Int32" Name="connectivity" format="ascii">0 1 2 3 4 5 6 7 8 9 10 11 12 13 14 15 16 17 18 19 20 21 22 23 24 25 26 27 28 29 30 31 32 33 34 35 36 37 38 39 40 41 42 43 44 45 46 47 48 49 50 51 52 53 54 55 56 57 58 59 60 61 62 63 64 65 66 67 68 69 70 71 72 73 74 75 76 77 78 79 80 81 82 83 84 85 86 87 88 89 90 91 92 93 94 95 96 97 98 99 100 101 102 103 104 105 106 107 108 109 110 111 112 113 114 115 116 117 118 119 120 121 122 123 124 125 126 127 128 129 130 131 132 133 134 135 136 137 138 139 140 141 142 143 144 145 146 147 148 149 150 151 152 153 154 155 156 157 158 159 160 161 162 163 164 165 166 167 168 169 170 171 172 173 174 175 176 177 178 179 180 181 182 183 184 185 186 187 188 189 190 191 192 193 194 195 196 197 198 199 200 201 202 203 204 205 206 207 208 209 210 211 212 213 214 215 216 217 218 219 220 221 222 223 224 225 226 227 228 229 230 231 232 233 234 235 236 237 238 239 240 241 242 243 244 245 246 247 248 249 250 251 252 253 254 255 256 257 258 259 260 261 262 263 264 265 266 267 268 269 270 271 272 273 274 275 276 277 278 279 280 281 282 283 284 285 286 287 288 289 290 291 292 293 294 295 296 297 298 299 300 301 302 303 304 305 306 307 308 309 310 311 312 313 314 315 316 317 318 319 320 321 322 323 324 325 326 327 328 329 330 331 332 333 334 335 336 337 338 339 340 341 342 343 344 345 346 347 348 349 350 351 352 353 354 355 356 357 358 359 360 361 362 363 364 365 366 367 368 369 370 371 372 373 374 375 376 377 378 379 380 381 382 383 384 385 386 387 388 389 390 391 392 393 394 395 396 397 398 399 400 401 402 403 404 405 406 407 408 409 410 411 412 413 414 415 416 417 418 419 420 421 422 423 424 425 426 427 428 429 430 431 432 433 434 435 436 437 438 439 440 441 442 443 444 445 446 447 448 449 450 451 452 453 454 455 456 457 458 459 460 461 462 463 464 465 466 467 468 469 470 471 472 473 474 475 476 477 478 479 480 481 482 483 484 485 486 487 488 489 490 491 492 493 494 495 496 497 498 499 500 501 502 503 504 505 506 507 508 509 510 511 512 513 514 515 516 517 518 519 520 521 522 523 524 525 526 527 528 529 530 531 532 533 534 535 536 537 538 539 540 541 542 543 544 545 546 547 548 549 550 551 552 553 554 555 556 557 558 559 560 561 562 563 564 565 566 567 568 569 570 571 572 573 574 575 576 577 578 579 580 581 582 583 584 585 586 587 588 589 590 591 592 593 594 595 596 597 598 599 600 601 602 603 604 605 606 607 608 609 610 611 612 613 614 615 616 617 618 619 620 621 622 623 624 625 626 627 628 629 630 631 632 633 634 635 636 637 638 639 640 641 642 643 644 645 646 647 648 649 650 651 652 653 654 655 656 657 658 659 660 661 662 663 664 665 666 667 668 669 670 671 672 673 674 675 676 677 678 679 680 681 682 683 684 685 686 687 688 689 690 691 692 693 694 695 696 697 698 699 700 701 702 703 704 705 706 707 708 709 710 711 712 713 714 715 716 717 718 719 720 721 722 723 724 725 726 727 728 729 730 731 732 733 734 735 736 737 738 739 740 741 742 743 744 745 746 747 748 749 </DataArray>
        <DataArray type="Int32" Name="offsets" format="ascii">3 6 9 12 15 18 21 24 27 30 33 36 39 42 45 48 51 54 57 60 63 66 69 72 75 78 81 84 87 90 93 96 99 102 105 108 111 114 117 120 123 126 129 132 135 138 141 144 147 150 153 156 159 162 165 168 171 174 177 180 183 186 189 192 195 198 201 204 207 210 213 216 219 222 225 228 231 234 237 240 243 246 249 252 255 258 261 264 267 270 273 276 279 282 285 288 291 294 297 300 303 306 309 312 315 318 321 324 327 330 333 336 339 342 345 348 351 354 357 360 363 366 369 372 375 378 381 384 387 390 393 396 399 402 405 408 411 414 417 420 423 426 429 432 435 438 441 444 447 450 453 456 459 462 465 468 471 474 477 480 483 486 489 492 495 498 501 504 507 510 513 516 519 522 525 528 531 534 537 540 543 546 549 552 555 558 561 564 567 570 573 576 579 582 585 588 591 594 597 600 603 606 609 612 615 618 621 624 627 630 633 636 639 642 645 648 651 654 657 660 663 666 669 672 675 678 681 684 687 690 693 696 699 702 705 708 711 714 717 720 723 726 729 732 735 738 741 744 747 750 </DataArray>
        <DataArray type="Int8" Name="types" format="ascii">69 69 69 69 69 69 69 69 69 69 69 69 69 69 69 69 69 69 69 69 69 69 69 69 69 69 69 69 69 69 69 69 69 69 69 69 69 69 69 69 69 69 69 69 69 69 69 69 69 69 69 69 69 69 69 69 69 69 69 69 69 69 69 69 69 69 69 69 69 69 69 69 69 69 69 69 69 69 69 69 69 69 69 69 69 69 69 69 69 69 69 69 69 69 69 69 69 69 69 69 69 69 69 69 69 69 69 69 69 69 69 69 69 69 69 69 69 69 69 69 69 69 69 69 69 69 69 69 69 69 69 69 69 69 69 69 69 69 69 69 69 69 69 69 69 69 69 69 69 69 69 69 69 69 69 69 69 69 69 69 69 69 69 69 69 69 69 69 69 69 69 69 69 69 69 69 69 69 69 69 69 69 69 69 69 69 69 69 69 69 69 69 69 69 69 69 69 69 69 69 69 69 69 69 69 69 69 69 69 69 69 69 69 69 69 69 69 69 69 69 69 69 69 69 69 69 69 69 69 69 69 69 69 69 69 69 69 69 69 69 69 69 69 69 69 69 69 69 69 69 </DataArray>
      </Cells>
      <CellData>
        <DataArray type="UInt8" Name="vtkGhostType" format="ascii" RangeMin="0" RangeMax="1">0 0 0 0 0 0 0 0 0 0 0 0 0 0 0 0 0 0 0 0 0 0 0 0 0 0 0 0 0 0 0 0 0 0 0 0 0 0 0 0 0 0 0 0 0 0 0 0 0 0 0 0 0 0 0 0 0 0 0 0 0 0 0 0 0 0 0 0 0 0 0 0 0 0 0 0 0 0 0 0 0 0 0 0 0 0 0 0 0 0 0 0 0 0 0 0 0 0 0 0 0 0 0 0 0 0 0 0 0 0 0 0 0 0 0 0 0 0 0 0 0 0 0 0 0 0 0 0 0 0 0 0 0 0 0 0 0 0 0 0 0 0 0 0 0 0 0 0 0 0 0 0 0 0 0 0 0 0 0 0 0 0 0 0 0 0 0 0 0 0 0 0 0 0 0 0 0 0 0 0 0 0 0 0 0 0 0 0 0 0 0 0 0 0 0 0 0 0 0 0 0 0 0 0 0 0 0 0 0 0 0 0 0 0 0 0 0 0 0 0 0 0 0 0 0 0 0 0 0 0 0 0 0 0 0 0 0 0 0 0 0 0 0 0 0 0 0 0 0 0 </DataArray>
        <DataArray type="Int64" IdType="1" Name="vtkOriginalCellIds" format="ascii" RangeMin="0" RangeMax="249">0 1 2 3 4 5 6 7 8 9 10 11 12 13 14 15 16 17 18 19 20 21 22 23 24 25 26 27 28 29 30 31 32 33 34 35 36 37 38 39 40 41 42 43 44 45 46 47 48 49 50 51 52 53 54 55 56 57 58 59 60 61 62 63 64 65 66 67 68 69 70 71 72 73 74 75 76 77 78 79 80 81 82 83 84 85 86 87 88 89 90 91 92 93 94 95 96 97 98 99 100 101 102 103 104 105 106 107 108 109 110 111 112 113 114 115 116 117 118 119 120 121 122 123 124 125 126 127 128 129 130 131 132 133 134 135 136 137 138 139 140 141 142 143 144 145 146 147 148 149 150 151 152 153 154 155 156 157 158 159 160 161 162 163 164 165 166 167 168 169 170 171 172 173 174 175 176 177 178 179 180 181 182 183 184 185 186 187 188 189 190 191 192 193 194 195 196 197 198 199 200 201 202 203 204 205 206 207 208 209 210 211 212 213 214 215 216 217 218 219 220 221 222 223 224 225 226 227 228 229 230 231 232 233 234 235 236 237 238 239 240 241 242 243 244 245 246 247 248 249 </DataArray>
      </CellData>
      <PointData Tensors="stress">
        <DataArray type="Int64" IdType="1" Name="vtkOriginalPointIds" format="ascii" RangeMin="0" RangeMax="749">0 1 2 3 4 5 6 7 8 9 10 11 12 13 14 15 16 17 18 19 20 21 22 23 24 25 26 27 28 29 30 31 32 33 34 35 36 37 38 39 40 41 42 43 44 45 46 47 48 49 50 51 52 53 54 55 56 57 58 59 60 61 62 63 64 65 66 67 68 69 70 71 72 73 74 75 76 77 78 79 80 81 82 83 84 85 86 87 88 89 90 91 92 93 94 95 96 97 98 99 100 101 102 103 104 105 106 107 108 109 110 111 112 113 114 115 116 117 118 119 120 121 122 123 124 125 126 127 128 129 130 131 132 133 134 135 136 137 138 139 140 141 142 143 144 145 146 147 148 149 150 151 152 153 154 155 156 157 158 159 160 161 162 163 164 165 166 167 168 169 170 171 172 173 174 175 176 177 178 179 180 181 182 183 184 185 186 187 188 189 190 191 192 193 194 195 196 197 198 199 200 201 202 203 204 205 206 207 208 209 210 211 212 213 214 215 216 217 218 219 220 221 222 223 224 225 226 227 228 229 230 231 232 233 234 235 236 237 238 239 240 241 242 243 244 245 246 247 248 249 250 251 252 253 254 255 256 257 258 259 260 261 262 263 264 265 266 267 268 269 270 271 272 273 274 275 276 277 278 279 280 281 282 283 284 285 286 287 288 289 290 291 292 293 294 295 296 297 298 299 300 301 302 303 304 305 306 307 308 309 310 311 312 313 314 315 316 317 318 319 320 321 322 323 324 325 326 327 328 329 330 331 332 333 334 335 336 337 338 339 340 341 342 343 344 345 346 347 348 349 350 351 352 353 354 355 356 357 358 359 360 361 362 363 364 365 366 367 368 369 370 371 372 373 374 375 376 377 378 379 380 381 382 383 384 385 386 387 388 389 390 391 392 393 394 395 396 397 398 399 400 401 402 403 404 405 406 407 408 409 410 411 412 413 414 415 416 417 418 419 420 421 422 423 424 425 426 427 428 429 430 431 432 433 434 435 436 437 438 439 440 441 442 443 444 445 446 447 448 449 450 451 452 453 454 455 456 457 458 459 460 461 462 463 464 465 466 467 468 469 470 471 472 473 474 475 476 477 478 479 480 481 482 483 484 485 486 487 488 489 490 491 492 493 494 495 496 497 498 499 500 501 502 503 504 505 506 507 508 509 510 511 512 513 514 515 516 517 518 519 520 521 522 523 524 525 526 527 528 529 530 531 532 533 534 535 536 537 538 539 540 541 542 543 544 545 546 547 548 549 550 551 552 553 554 555 556 557 558 559 560 561 562 563 564 565 566 567 568 569 570 571 572 573 574 575 576 577 578 579 580 581 582 583 584 585 586 587 588 589 590 591 592 593 594 595 596 597 598 599 600 601 602 603 604 605 606 607 608 609 610 611 612 613 614 615 616 617 618 619 620 621 622 623 624 625 626 627 628 629 630 631 632 633 634 635 636 637 638 639 640 641 642 643 644 645 646 647 648 649 650 651 652 653 654 655 656 657 658 659 660 661 662 663 664 665 666 667 668 669 670 671 672 673 674 675 676 677 678 679 680 681 682 683 684 685 686 687 688 689 690 691 692 693 694 695 696 697 698 699 700 701 702 703 704 705 706 707 708 709 710 711 712 713 714 715 716 717 718 719 720 721 722 723 724 725 726 727 728 729 730 731 732 733 734 735 736 737 738 739 740 741 742 743 744 745 746 747 748 749 </DataArray>
        <DataArray type="UInt8" Name="vtkGhostType" format="ascii" RangeMin="0" RangeMax="0">0 0 0 0 0 0 0 0 0 0 0 0 0 0 0 0 0 0 0 0 0 0 0 0 0 0 0 0 0 0 0 0 0 0 0 0 0 0 0 0 0 0 0 0 0 0 0 0 0 0 0 0 0 0 0 0 0 0 0 0 0 0 0 0 0 0 0 0 0 0 0 0 0 0 0 0 0 0 0 0 0 0 0 0 0 0 0 0 0 0 0 0 0 0 0 0 0 0 0 0 0 0 0 0 0 0 0 0 0 0 0 0 0 0 0 0 0 0 0 0 0 0 0 0 0 0 0 0 0 0 0 0 0 0 0 0 0 0 0 0 0 0 0 0 0 0 0 0 0 0 0 0 0 0 0 0 0 0 0 0 0 0 0 0 0 0 0 0 0 0 0 0 0 0 0 0 0 0 0 0 0 0 0 0 0 0 0 0 0 0 0 0 0 0 0 0 0 0 0 0 0 0 0 0 0 0 0 0 0 0 0 0 0 0 0 0 0 0 0 0 0 0 0 0 0 0 0 0 0 0 0 0 0 0 0 0 0 0 0 0 0 0 0 0 0 0 0 0 0 0 0 0 0 0 0 0 0 0 0 0 0 0 0 0 0 0 0 0 0 0 0 0 0 0 0 0 0 0 0 0 0 0 0 0 0 0 0 0 0 0 0 0 0 0 0 0 0 0 0 0 0 0 0 0 0 0 0 0 0 0 0 0 0 0 0 0 0 0 0 0 0 0 0 0 0 0 0 0 0 0 0 0 0 0 0 0 0 0 0 0 0 0 0 0 0 0 0 0 0 0 0 0 0 0 0 0 0 0 0 0 0 0 0 0 0 0 0 0 0 0 0 0 0 0 0 0 0 0 0 0 0 0 0 0 0 0 0 0 0 0 0 0 0 0 0 0 0 0 0 0 0 0 0 0 0 0 0 0 0 0 0 0 0 0 0 0 0 0 0 0 0 0 0 0 0 0 0 0 0 0 0 0 0 0 0 0 0 0 0 0 0 0 0 0 0 0 0 0 0 0 0 0 0 0 0 0 0 0 0 0 0 0 0 0 0 0 0 0 0 0 0 0 0 0 0 0 0 0 0 0 0 0 0 0 0 0 0 0 0 0 0 0 0 0 0 0 0 0 0 0 0 0 0 0 0 0 0 0 0 0 0 0 0 0 0 0 0 0 0 0 0 0 0 0 0 0 0 0 0 0 0 0 0 0 0 0 0 0 0 0 0 0 0 0 0 0 0 0 0 0 0 0 0 0 0 0 0 0 0 0 0 0 0 0 0 0 0 0 0 0 0 0 0 0 0 0 0 0 0 0 0 0 0 0 0 0 0 0 0 0 0 0 0 0 0 0 0 0 0 0 0 0 0 0 0 0 0 0 0 0 0 0 0 0 0 0 0 0 0 0 0 0 0 0 0 0 0 0 0 0 0 0 0 0 0 0 0 0 0 0 0 0 0 0 0 0 0 0 0 0 0 0 0 0 0 0 0 0 0 0 0 0 0 0 0 0 0 0 0 0 0 0 0 0 0 0 0 0 0 0 0 0 0 0 0 0 0 0 0 0 0 0 0 0 0 0 0 0 0 0 0 0 0 0 0 0 0 0 0 0 0 0 0 0 0 0 0 0 0 0 0 0 0 0 0 0 0 0 0 0 0 0 0 0 0 0 0 0 0 0 0 0 0 0 0 0 0 0 0 0 </DataArray>
        <DataArray type="Float64" Name="stress" format="ascii" NumberOfComponents="9">107367907.9073296 2457062.684057864 2457062.684057864 13402135.12222914 0 0 0 0 0 107167133.0694989 23403.01002956149 23403.01002956149 14689851.67398272 0 0 0 0 0 108721289.4213163 2081412.260575394 2081412.260575394 15733913.05761187 0 0 0 0 0 107034743.944429 -114264.048902749 -114264.048902749 14303495.11174696 0 0 0 0 0 109177723.8892592 27160.97734443905 27160.97734443905 16994036.59822073 0 0 0 0 0 108820938.5721179 2201081.209111103 2201081.209111103 16086126.56881646 0 0 0 0 0 109636772.9448346 4173173.405071691 4173173.405071691 14100007.85036948 0 0 0 0 0 107335059.9731217 2385308.276970561 2385308.276970561 13472532.02464683 0 0 0 0 0 108853009.1226744 2197759.419988619 2197759.419988619 15632116.48040122 0 0 0 0 0 109322407.8611391 3557.278477659792 3557.278477659792 17633338.56764855 0 0 0 0 0 111044345.6514385 3087463.306056171 3087463.306056171 17642812.44565022 0 0 0 0 0 108751876.3250315 2191004.469435243 2191004.469435243 15680436.7518464 0 0 0 0 0 108145764.3895242 4304796.85814143 4304796.85814143 10768323.1704346 0 0 0 0 0 107481915.3390984 2512430.74935305 2512430.74935305 13694002.51774324 0 0 0 0 0 109531059.1173825 4092874.645496473 4092874.645496473 13961630.15427412 0 0 0 0 0 111096411.4164086 3248337.49808319 3248337.49808319 17748079.62903928 0 0 0 0 0 109556026.88695 4138757.231432226 4138757.231432226 13854011.28509879 0 0 0 0 0 108864791.8143253 2171013.131266336 2171013.131266336 15698000.22086518 0 0 0 0 0 109066900.6862662 -165170.0669204572 -165170.0669204572 17064428.60400186 0 0 0 0 0 112222263.4937498 169694.2230388904 169694.2230388904 20507639.60848062 0 0 0 0 0 111254093.3606449 3235363.372480351 3235363.372480351 18324625.28945209 0 0 0 0 0 108111210.356746 4211527.808315758 4211527.808315758 10942957.87613653 0 0 0 0 0 109552942.0985571 4234212.355339382 4234212.355339382 13700055.43645937 0 0 0 0 0 110799732.6993023 5695181.241193888 5695181.241193888 10188475.31592547 0 0 0 0 0 112659066.0418615 6025716.26040102 6025716.26040102 13618892.74018731 0 0 0 0 0 109485965.8965021 4127426.703751064 4127426.703751064 13926947.24413579 0 0 0 0 0 111107273.2720751 3281340.382532908 3281340.382532908 17646441.31518703 0 0 0 0 0 112434993.3744164 66576.06374273928 66576.06374273928 21377089.02601949 0 0 0 0 0 114969919.061411 3409953.448688262 3409953.448688262 21277842.62212171 0 0 0 0 0 111043302.4747131 3343163.030910367 3343163.030910367 17541141.38395321 0 0 0 0 0 109078845.1221486 5108758.48475406 5108758.48475406 7235325.576193213 0 0 0 0 0 108316408.9595766 4368117.483761781 4368117.483761781 11206959.96020308 0 0 0 0 0 110571961.3598759 5503332.488439838 5503332.488439838 9862981.545932217 0 0 0 0 0 110629376.6811068 5634371.277507539 5634371.277507539 9630237.892055916 0 0 0 0 0 109722576.7715044 4316437.232205207 4316437.232205207 14252269.21958917 0 0 0 0 0 112412491.6139033 5770383.183337815 5770383.183337815 13171410.09756456 0 0 0 0 0 112456179.4217146 5950183.154188965 5950183.154188965 12971480.79794096 0 0 0 0 0 111349419.3803324 3362237.31235716 3362237.31235716 18423360.53360307 0 0 0 0 0 114718465.2001106 5927279.080761277 5927279.080761277 16348324.06164195 0 0 0 0 0 112103911.204622 -172102.9455839336 -172102.9455839336 20505606.08288533 0 0 0 0 0 117202135.6996795 210779.342070846 210779.342070846 24899095.93055806 0 0 0 0 0 115248131.2857081 3627971.711540174 3627971.711540174 22216149.20186561 0 0 0 0 0 110932348.0499184 3032844.111816856 3032844.111816856 17591552.34393306 0 0 0 0 0 115133397.6590937 3753471.074635742 3753471.074635742 21233847.85077998 0 0 0 0 0 115028662.0281893 6188401.265353952 6188401.265353952 17030907.04718627 0 0 0 0 0 111619125.732481 5703927.220093298 5703927.220093298 5510955.359629521 0 0 0 0 0 109004877.0765558 5015170.347935294 5015170.347935294 7410445.462140824 0 0 0 0 0 110674218.5176522 5632519.195665828 5632519.195665828 9621237.019232206 0 0 0 0 0 110572547.98988 5534443.385218321 5534443.385218321 9852082.149386622 0 0 0 0 0 112496835.388601 5914650.10290125 5914650.10290125 12850650.77716397 0 0 0 0 0 113498683.7010261 6474504.972079504 6474504.972079504 7885406.931155612 0 0 0 0 0 112392692.8200162 5800438.707850625 5800438.707850625 13180812.14513993 0 0 0 0 0 114991331.5257102 6176277.269637743 6176277.269637743 16008545.64139033 0 0 0 0 0 115524121.3966662 7036662.036171731 7036662.036171731 10470519.56665251 0 0 0 0 0 114937375.2817367 3822190.608726576 3822190.608726576 21324099.58047524 0 0 0 0 0 117449843.7550302 61652.00242673392 61652.00242673392 26027709.38236297 0 0 0 0 0 121236030.7522418 4087093.823660802 4087093.823660802 25274602.35565708 0 0 0 0 0 115341078.5017846 3786677.034613866 3786677.034613866 22204389.0798611 0 0 0 0 0 119402675.5576283 6653733.929475468 6653733.929475468 18567857.05445448 0 0 0 0 0 114851201.0421848 6159317.85587928 6159317.85587928 16199535.27806648 0 0 0 0 0 109782617.1678019 4856001.840291697 4856001.840291697 3582948.834557493 0 0 0 0 0 109245357.0278253 5173878.716105017 5173878.716105017 7676625.870916273 0 0 0 0 0 111356067.8266686 5514071.509608205 5514071.509608205 5190196.566377888 0 0 0 0 0 111457709.6398178 5619644.820600396 5619644.820600396 4965319.969626401 0 0 0 0 0 110843866.7056029 5723618.005768833 5723618.005768833 10194920.88583158 0 0 0 0 0 113214959.6322623 6243054.649945699 6243054.649945699 7455310.791938891 0 0 0 0 0 113306152.6309053 6406222.016122036 6406222.016122036 7206804.843056798 0 0 0 0 0 112721758.1792087 6012188.46828066 6012188.46828066 13651592.59862493 0 0 0 0 0 115284857.0070426 6825884.049599219 6825884.049599219 9893405.562817892 0 0 0 0 0 115200723.1042578 6246115.446264001 6246115.446264001 16823254.2745502 0 0 0 0 0 118542074.0080446 7401225.668326566 7401225.668326566 11061909.0690048 0 0 0 0 0 115365463.4084405 6972551.850700101 6972551.850700101 9840238.324748382 0 0 0 0 0 117027380.6490435 -224576.8123874638 -224576.8123874638 24971565.09049537 0 0 0 0 0 125764355.1726673 333832.2465314216 333832.2465314216 30341172.90427788 0 0 0 0 0 121490910.6249644 4289657.502034068 4289657.502034068 26511200.00573597 0 0 0 0 0 114902205.6100435 3478242.088678482 3478242.088678482 21318831.66765045 0 0 0 0 0 121349287.3465184 4529789.55844048 4529789.55844048 25301777.4470805 0 0 0 0 0 119699448.230573 6897350.546073505 6897350.546073505 19413752.45403407 0 0 0 0 0 119631928.5647145 6992084.723137697 6992084.723137697 18557877.28070825 0 0 0 0 0 118708678.1054419 7529264.207575702 7529264.207575702 11526774.03906487 0 0 0 0 0 114841833.3030749 6015451.440386762 6015451.440386762 16229596.45332005 0 0 0 0 0 109674702.7892679 4794254.263112326 4794254.263112326 3707352.845917329 0 0 0 0 0 111509951.2274223 5593532.425270045 5593532.425270045 5028582.933095734 0 0 0 0 0 111846249.0392055 4506604.668199818 4506604.668199818 1121345.082410053 0 0 0 0 0 111395593.8685173 5532547.694702527 5532547.694702527 5181706.941226105 0 0 0 0 0 113338030.7694885 6346987.372062672 6346987.372062672 7183074.486505099 0 0 0 0 0 113665282.8924426 5325546.692653658 5325546.692653658 2460090.09810279 0 0 0 0 0 117029311.1778152 6452131.996168992 6452131.996168992 4654799.121602036 0 0 0 0 0 113117468.0155361 6278780.069385525 6278780.069385525 7505193.830634674 0 0 0 0 0 115497201.2353458 6884305.342730286 6884305.342730286 9732582.977906547 0 0 0 0 0 118679775.8605063 7545036.954551833 7545036.954551833 11010836.88707856 0 0 0 0 0 116777600.9705472 6283731.36450135 6283731.36450135 4133087.79413559 0 0 0 0 0 115547839.9476572 6896546.877266559 6896546.877266559 9931716.700730592 0 0 0 0 0 126104760.1778087 88964.52554385891 88964.52554385891 31793624.91407055 0 0 0 0 0 132708620.8117766 4315094.066247527 4315094.066247527 29943023.02878822 0 0 0 0 0 120898488.6159296 4672918.597679354 4672918.597679354 25322426.31190055 0 0 0 0 0 119407860.908816 7047711.39988724 7047711.39988724 18535142.39916064 0 0 0 0 0 121540575.5741584 4477367.894551715 4477367.894551715 26242901.4021065 0 0 0 0 0 127156086.0917054 6998362.137855968 6998362.137855968 21174044.84808031 0 0 0 0 0 119759078.5715213 6976919.844500561 6976919.844500561 19108677.3483173 0 0 0 0 0 124279402.9259331 7663053.335861937 7663053.335861937 11416371.05339958 0 0 0 0 0 118567039.8526387 7568568.75463532 7568568.75463532 11003907.0705437 0 0 0 0 0 109993494.2537827 3811306.641710666 3811306.641710666 389537.9989525492 0 0 0 0 0 109901009.4318846 4918459.747442947 4918459.747442947 3915968.195392444 0 0 0 0 0 111591577.6579083 4362585.052271202 4362585.052271202 878365.7927462239 0 0 0 0 0 111725781.9939631 4426845.629437382 4426845.629437382 715891.2722619927 0 0 0 0 0 111632377.0864448 5675792.697344588 5675792.697344588 5440687.758534603 0 0 0 0 0 113403605.1492517 5166866.864697692 5166866.864697692 2173025.006813061 0 0 0 0 0 113498016.209249 6475316.5492367 6475316.5492367 7782003.05591057 0 0 0 0 0 116641625.3931692 6163736.476992986 6163736.476992986 4270609.245691796 0 0 0 0 0 113507688.3146066 5244334.214738312 5244334.214738312 1891543.758831926 0 0 0 0 0 121864493.5255735 6199757.158575807 6199757.158575807 3314203.054643296 0 0 0 0 0 116688437.9815015 6366684.792033235 6366684.792033235 4257838.486971119 0 0 0 0 0 118734667.2459789 7502032.886418435 7502032.886418435 11027313.22786908 0 0 0 0 0 125623718.1159409 -236015.5115023183 -236015.5115023183 30513922.6521715 0 0 0 0 0 142372364.797813 487729.8196304556 487729.8196304556 36213113.30006191 0 0 0 0 0 132675955.0717755 4354872.478978201 4354872.478978201 31404329.95753184 0 0 0 0 0 121290226.0966775 4259832.490247503 4259832.490247503 25437699.08812565 0 0 0 0 0 132286493.4191114 4878610.388110533 4878610.388110533 29819451.6381999 0 0 0 0 0 127213044.4614802 7129099.635432484 7129099.635432484 21938417.47032667 0 0 0 0 0 124281125.8276566 7715689.740728268 7715689.740728268 11816378.17002473 0 0 0 0 0 119624833.3531575 6857401.986533902 6857401.986533902 18635389.84358528 0 0 0 0 0 127037774.0011941 7397002.492000196 7397002.492000196 21063274.85207113 0 0 0 0 0 124198596.5725249 7759443.292573218 7759443.292573218 11369197.0792756 0 0 0 0 0 121656174.4520414 6091600.184830924 6091600.184830924 3186680.092150806 0 0 0 0 0 118834548.6703824 7553555.063929155 7553555.063929155 11085683.14378231 0 0 0 0 0 111401092.0653591 2675697.184501411 2675697.184501411 -2227231.85597068 0 0 0 0 0 109882364.1111589 3783851.228677646 3783851.228677646 445750.2157099812 0 0 0 0 0 111734854.7441832 4381079.056214646 4381079.056214646 835630.0368703995 0 0 0 0 0 113845121.2063817 3028542.275312033 3028542.275312033 -2466068.098540687 0 0 0 0 0 111576433.1343697 4381020.298794689 4381020.298794689 915162.3255870773 0 0 0 0 0 113550994.451115 5219328.67929622 5219328.67929622 1956594.22269744 0 0 0 0 0 116932850.3032865 6282013.776899004 6282013.776899004 3961913.001886595 0 0 0 0 0 115893897.1407758 4221413.495859978 4221413.495859978 -857121.2630134405 0 0 0 0 0 113374041.5554728 5147725.953825866 5147725.953825866 2122032.120603308 0 0 0 0 0 118792419.7082905 3638152.452734093 3638152.452734093 -2374296.675497375 0 0 0 0 0 117042843.6264133 6431142.840717219 6431142.840717219 4328407.63457848 0 0 0 0 0 121597782.0440067 6123623.094997413 6123623.094997413 3272785.670086241 0 0 0 0 0 131421158.9338333 5132220.804755634 5132220.804755634 29827060.96825522 0 0 0 0 0 142825039.4559358 174731.9866035237 174731.9866035237 37596527.14661347 0 0 0 0 0 154974405.3683327 1585602.301648014 1585602.301648014 34197625.47022761 0 0 0 0 0 126384161.3058487 7654602.300120709 7654602.300120709 20971013.49123754 0 0 0 0 0 132680811.2489281 4625557.680495111 4625557.680495111 30666824.81395741 0 0 0 0 0 141223423.9006888 5184680.496864336 5184680.496864336 24109314.933399 0 0 0 0 0 133444234.4004268 6265097.904907306 6265097.904907306 12398826.1880799 0 0 0 0 0 123898996.4032241 7989961.03037395 7989961.03037395 11166017.58687253 0 0 0 0 0 127195473.9642105 7347480.660458487 7347480.660458487 21679399.96730166 0 0 0 0 0 124263169.1636343 7682844.365016823 7682844.365016823 11359653.75336527 0 0 0 0 0 128121242.1083251 4648150.76527114 4648150.76527114 1851352.870490836 0 0 0 0 0 121508454.2532197 6250942.413721737 6250942.413721737 3140130.26126449 0 0 0 0 0 109640885.0732899 2340616.398364334 2340616.398364334 -2041321.310961633 0 0 0 0 0 110045999.8847049 3854289.183888269 3854289.183888269 557764.74496142 0 0 0 0 0 111217589.4855983 2592733.805525492 2592733.805525492 -2359718.910928635 0 0 0 0 0 111340441.0458419 2605910.28929237 2605910.28929237 -2402985.02393136 0 0 0 0 0 111821662.1865753 4490837.543608786 4490837.543608786 1083259.885360513 0 0 0 0 0 113507193.7666308 2874453.613436955 2874453.613436955 -2701633.234309583 0 0 0 0 0 115718463.4623947 4086513.673755862 4086513.673755862 -1021986.232104723 0 0 0 0 0 113577975.037887 2821934.462228227 2821934.462228227 -2987252.161965297 0 0 0 0 0 113776644.369171 5383724.911013522 5383724.911013522 2426808.654438074 0 0 0 0 0 118999704.2173533 3763840.371416871 3763840.371416871 -2110634.857136278 0 0 0 0 0 115847762.2221951 4163317.197036463 4163317.197036463 -1081861.69368871 0 0 0 0 0 116971575.9970753 6379619.490131318 6379619.490131318 4204216.029622412 0 0 0 0 0 123199811.9615842 1781728.966369198 1781728.966369198 -4829323.21369555 0 0 0 0 0 118699302.6519125 3772231.111418615 3772231.111418615 -2138367.6711278 0 0 0 0 0 121649300.3396178 5996052.243371067 5996052.243371067 2832370.077046869 0 0 0 0 0 142582334.2928972 3288.024682880521 3288.024682880521 36664253.63091686 0 0 0 0 0 179174702.1987352 488741.5232590887 488741.5232590887 38723383.27948593 0 0 0 0 0 153704270.090742 867399.2187337367 867399.2187337367 34851844.91820814 0 0 0 0 0 133186665.1417768 4757051.868849006 4757051.868849006 30396678.26980643 0 0 0 0 0 152502122.8105934 2125045.855778538 2125045.855778538 33398357.96855142 0 0 0 0 0 140374208.7932912 4989643.775119359 4989643.775119359 24700502.14384544 0 0 0 0 0 132963325.5696745 6189429.265852941 6189429.265852941 12706012.87940527 0 0 0 0 0 127627363.7922305 7412471.203044203 7412471.203044203 21390822.51820797 0 0 0 0 0 139810680.7767193 5630402.735478895 5630402.735478895 23593033.36748125 0 0 0 0 0 132620426.4900847 6528705.453830706 6528705.453830706 12050743.63441558 0 0 0 0 0 127563559.8807252 4436336.607613848 4436336.607613848 1640682.941344294 0 0 0 0 0 124712444.9025142 7835543.558943674 7835543.558943674 11459099.94296362 0 0 0 0 0 127378027.9971068 4586683.693711862 4586683.693711862 1684921.698402353 0 0 0 0 0 122527118.0167689 1412968.182310149 1412968.182310149 -5523092.091104883 0 0 0 0 0 122249728.3024399 6295219.688029673 6295219.688029673 3314754.384262502 0 0 0 0 0 109558210.060836 2346377.487911151 2346377.487911151 -2046597.212189756 0 0 0 0 0 111360541.6112827 2589802.043538246 2589802.043538246 -2362679.695212445 0 0 0 0 0 110371908.799158 389612.4213563931 389612.4213563931 -4785498.94901451 0 0 0 0 0 111267532.2799828 2590241.371670461 2590241.371670461 -2371711.182684696 0 0 0 0 0 113629663.5433449 2869924.808589786 2869924.808589786 -2700953.174860018 0 0 0 0 0 111924191.4525959 749016.0504898037 749016.0504898037 -4891262.561045848 0 0 0 0 0 115891913.6087898 4052718.217564898 4052718.217564898 -1319337.340248881 0 0 0 0 0 116201119.4026714 1410931.950397327 1410931.950397327 -5164139.606599511 0 0 0 0 0 113397040.416328 2849305.198324416 2849305.198324416 -2618604.633059176 0 0 0 0 0 118791591.1744407 3694247.413955919 3694247.413955919 -2098179.805893071 0 0 0 0 0 115811921.7200244 1177153.443395258 1177153.443395258 -5662718.757383654 0 0 0 0 0 116085008.8664321 4172541.055232525 4172541.055232525 -1038869.400504514 0 0 0 0 0 118063310.3242377 -1358704.346302895 -1358704.346302895 -8848676.649389798 0 0 0 0 0 119403682.2868243 3949038.418033916 3949038.418033916 -2025513.415525191 0 0 0 0 0 122426806.027532 1562367.836771327 1562367.836771327 -4941788.250161602 0 0 0 0 0 150343577.5344821 2611762.155716722 2611762.155716722 33736327.65961611 0 0 0 0 0 181890254.512834 -763566.3143600537 -763566.3143600537 37890541.88508429 0 0 0 0 0 195539260.9240991 -10079417.00264366 -10079417.00264366 31786090.91032035 0 0 0 0 0 138761167.1739737 5987366.873424909 5987366.873424909 23392013.77382734 0 0 0 0 0 153838890.0021731 1301451.362214231 1301451.362214231 34329498.128764 0 0 0 0 0 162153543.4620771 -2605892.238687034 -2605892.238687034 26360826.7034042 0 0 0 0 0 146929344.9984781 -38564.02778944734 -38564.02778944734 14021885.2996714 0 0 0 0 0 131833231.8561424 7038146.444987327 7038146.444987327 11671459.22971368 0 0 0 0 0 140499546.8226391 5103128.478934118 5103128.478934118 24127564.64122924 0 0 0 0 0 135361901.1196222 28818.82025432459 28818.82025432459 -226688.0378732461 0 0 0 0 0 127161254.9273393 4859398.871586432 4859398.871586432 1424737.712225102 0 0 0 0 0 132928070.7570433 6173508.593440349 6173508.593440349 12086270.38762322 0 0 0 0 0 127561632.275854 4254601.243559797 4254601.243559797 969559.9169647335 0 0 0 0 0 126970259.9102119 -2595120.163298104 -2595120.163298104 -8447665.872176494 0 0 0 0 0 122338492.6592031 1694101.345050474 1694101.345050474 -5098387.841873699 0 0 0 0 0 108806830.4821363 780599.5278949498 780599.5278949498 -3661915.514770435 0 0 0 0 0 109636675.0226757 2360015.341164298 2360015.341164298 -2025472.114580732 0 0 0 0 0 110275069.4890976 392203.289083728 392203.289083728 -4780876.604906265 0 0 0 0 0 110304283.3733625 298252.5347731538 298252.5347731538 -4904600.613153093 0 0 0 0 0 111392209.8134689 2632094.967595405 2632094.967595405 -2306255.569259543 0 0 0 0 0 111873360.6341073 768667.7070446392 768667.7070446392 -4859787.730270965 0 0 0 0 0 113575112.1266477 2850355.17004734 2850355.17004734 -2927176.39463501 0 0 0 0 0 113588141.6606209 -584962.0098671949 -584962.0098671949 -6734266.836246816 0 0 0 0 0 111917106.298856 791776.667105001 791776.667105001 -4852818.224806109 0 0 0 0 0 113908730.5298932 3050942.659944356 3050942.659944356 -2504033.566431292 0 0 0 0 0 115835540.8143113 1292447.687267526 1292447.687267526 -5250645.585480936 0 0 0 0 0 113242525.7296879 -797858.5919876934 -797858.5919876934 -7195153.966959934 0 0 0 0 0 118710256.0955334 -986821.0138603795 -986821.0138603795 -8101977.318425533 0 0 0 0 0 115785337.0641681 1273753.680821014 1273753.680821014 -5304146.09830534 0 0 0 0 0 118773069.0513284 3614612.758408461 3614612.758408461 -2615421.657206428 0 0 0 0 0 120304222.919889 -5315211.745747879 -5315211.745747879 -11723410.93565319 0 0 0 0 0 117949056.1526282 -1134839.271526549 -1134839.271526549 -8278637.699371107 0 0 0 0 0 122522534.6681318 1307894.105261421 1307894.105261421 -5780433.071745042 0 0 0 0 0 183825873.5099371 992990.0841294274 992990.0841294274 39000266.51068508 0 0 0 0 0 275088139.2725729 -3354401.182941944 -3354401.182941944 13527126.69659431 0 0 0 0 0 189060478.175416 -16957298.16796259 -16957298.16796259 33813693.64355667 0 0 0 0 0 157139657.8141326 3006309.849613434 3006309.849613434 35814305.9816006 0 0 0 0 0 185365745.8901878 -11392650.78155181 -11392650.78155181 28563707.43669534 0 0 0 0 0 159024356.4999888 -3945833.906075981 -3945833.906075981 27621754.15371733 0 0 0 0 0 145301587.5538308 -575284.0673850583 -575284.0673850583 13642863.76096508 0 0 0 0 0 142263213.3752689 5672889.98448523 5672889.98448523 24494969.41725313 0 0 0 0 0 158249757.5760265 -2057675.308849824 -2057675.308849824 25070329.1477524 0 0 0 0 0 133839068.2776917 -541673.4625420733 -541673.4625420733 -692710.6919571813 0 0 0 0 0 134591024.272674 6782258.203400739 6782258.203400739 12535279.95229132 0 0 0 0 0 143714398.9008919 612206.2656055777 612206.2656055777 12839772.28590752 0 0 0 0 0 133267344.2386969 -93830.09338924785 -93830.09338924785 -730965.6537844752 0 0 0 0 0 125682504.3287924 -3256997.678247077 -3256997.678247077 -9546510.640119338 0 0 0 0 0 128932443.7610519 4906424.574277398 4906424.574277398 1878504.824615542 0 0 0 0 0 125400151.8983517 -2916917.234159353 -2916917.234159353 -8712856.559401615 0 0 0 0 0 119234289.2644709 -5901342.027656926 -5901342.027656926 -12819263.54849654 0 0 0 0 0 123683759.6840306 1893509.600085779 1893509.600085779 -4834081.835747469 0 0 0 0 0 108537757.3482963 -1168655.285600404 -1168655.285600404 -5570603.501735031 0 0 0 0 0 108816140.1856597 803519.5392464409 803519.5392464409 -3689942.219723086 0 0 0 0 0 110239594.6535727 332530.7892185562 332530.7892185562 -4709017.504104747 0 0 0 0 0 111222612.3324706 -1663671.264716598 -1663671.264716598 -6894793.686169797 0 0 0 0 0 110141357.6889511 324679.4567773424 324679.4567773424 -4782821.021692459 0 0 0 0 0 111953996.5041081 772139.216199306 772139.216199306 -4996298.99045401 0 0 0 0 0 113155958.7228401 -733721.295002487 -733721.295002487 -6791604.658135029 0 0 0 0 0 110938743.0733666 -1827012.425449383 -1827012.425449383 -7199455.770829831 0 0 0 0 0 112183770.6524986 895660.6492417379 895660.6492417379 -4822499.272225802 0 0 0 0 0 115858091.4756969 1148063.880336134 1148063.880336134 -5776513.073440429 0 0 0 0 0 114704537.0886798 -3142602.833623584 -3142602.833623584 -9234547.917776769 0 0 0 0 0 113209549.5934844 -673527.5521482043 -673527.5521482043 -6810469.650497865 0 0 0 0 0 117972273.9980065 -1197713.852507584 -1197713.852507584 -8201249.537857505 0 0 0 0 0 114165702.1689427 -3455110.914171635 -3455110.914171635 -9870127.933105456 0 0 0 0 0 116428398.2150851 1455913.547862062 1455913.547862062 -5216880.263179329 0 0 0 0 0 114151725.2967325 -7511116.397601207 -7511116.397601207 -12963768.99982861 0 0 0 0 0 118973154.2540456 -936754.4630921868 -936754.4630921868 -8097806.056899002 0 0 0 0 0 119031351.224144 -5606947.402843601 -5606947.402843601 -11926332.41557226 0 0 0 0 0 306137680.1745197 -12893664.69031464 -12893664.69031464 2714680.800021576 0 0 0 0 0 266408279.6889437 -64472426.4240614 -64472426.4240614 24415313.4791996 0 0 0 0 0 168172882.6728415 -8317501.929000351 -8317501.929000351 28650763.25456397 0 0 0 0 0 192457193.6678117 -15057422.76860253 -15057422.76860253 33236053.10508827 0 0 0 0 0 170042692.1404779 -19481141.36579718 -19481141.36579718 21380114.91239262 0 0 0 0 0 157071839.8746776 -2970312.708661768 -2970312.708661768 26589146.00512218 0 0 0 0 0 168653070.9506505 -19673031.47209327 -19673031.47209327 21014371.42997739 0 0 0 0 0 142929977.1996703 1640818.146768889 1640818.146768889 11476159.36768875 0 0 0 0 0 159429967.9579759 -3035731.350518046 -3035731.350518046 26692923.63689611 0 0 0 0 0 132692717.6750814 608591.7554465669 608591.7554465669 -1469351.776003068 0 0 0 0 0 144914060.9340388 -628826.0833980391 -628826.0833980391 13495350.2670967 0 0 0 0 0 140815945.0563209 -10620063.77169956 -10620063.77169956 -785883.6132921716 0 0 0 0 0 127508842.9874294 -10675414.71043373 -10675414.71043373 -12251456.45013995 0 0 0 0 0 125263493.9974801 -2671755.117125599 -2671755.117125599 -9016287.04871681 0 0 0 0 0 133824050.8702203 -898828.1249914902 -898828.1249914902 -1560453.603427251 0 0 0 0 0 125660739.0562456 -3428323.700412582 -3428323.700412582 -9767021.208804782 0 0 0 0 0 119020488.312328 -12144428.42051027 -12144428.42051027 -15544556.50353864 0 0 0 0 0 119031525.2753527 -5516001.069922743 -5516001.069922743 -12058195.5391832 0 0 0 0 0 107645478.7714669 -658851.4646186047 -658851.4646186047 -4595283.994206876 0 0 0 0 0 108760828.0493114 759209.2255144985 759209.2255144985 -3770804.719921725 0 0 0 0 0 108613232.7427225 -1104383.111295741 -1104383.111295741 -5452384.317420621 0 0 0 0 0 108550073.8085101 -1118890.926238819 -1118890.926238819 -5425367.347494022 0 0 0 0 0 110205439.69385 268833.5877350671 268833.5877350671 -4964648.210380775 0 0 0 0 0 109332737.2618037 -2389050.741244567 -2389050.741244567 -6779367.072322457 0 0 0 0 0 110507778.1358447 431795.4217749963 431795.4217749963 -4669273.265882482 0 0 0 0 0 110880152.6844191 -1743455.673220756 -1743455.673220756 -7000218.068121192 0 0 0 0 0 109125390.8877115 -2506353.286418413 -2506353.286418413 -7009348.833821122 0 0 0 0 0 111338686.458574 -4319038.322902815 -4319038.322902815 -8999125.924219001 0 0 0 0 0 110873546.359684 -1771448.554613845 -1771448.554613845 -7049070.476337933 0 0 0 0 0 113225405.3428043 -801631.7463796398 -801631.7463796398 -7124208.904665508 0 0 0 0 0 114061882.4953984 -3314765.566199294 -3314765.566199294 -9347083.950132847 0 0 0 0 0 110935821.7493938 -4556316.192827355 -4556316.192827355 -9463077.504903624 0 0 0 0 0 113655112.171618 -559083.8938988029 -559083.8938988029 -6730527.09254749 0 0 0 0 0 114954467.9253192 -7072190.084893751 -7072190.084893751 -12145792.98584762 0 0 0 0 0 114079118.168738 -3263765.104444723 -3263765.104444723 -9389563.431530053 0 0 0 0 0 118042044.0532396 -1409093.322817254 -1409093.322817254 -8869337.364213768 0 0 0 0 0 112666659.4057537 -12867109.53540402 -12867109.53540402 -15072763.83151773 0 0 0 0 0 113992462.9174885 -7231171.476913269 -7231171.476913269 -12373434.86458503 0 0 0 0 0 119226166.1394113 -5961073.998868258 -5961073.998868258 -12709584.38326101 0 0 0 0 0 228979359.3730567 -56498923.74118699 -56498923.74118699 14741859.88873482 0 0 0 0 0 168055847.0480775 -24290284.33663358 -24290284.33663358 29262428.12927229 0 0 0 0 0 197728841.2723306 -9391724.868244069 -9391724.868244069 37206419.92831134 0 0 0 0 0 148766078.0660883 553280.8754718447 553280.8754718447 13485078.7008077 0 0 0 0 0 160400113.0009391 -18988085.58612839 -18988085.58612839 19167374.80122082 0 0 0 0 0 137108195.6757443 -11351137.65724116 -11351137.65724116 973697.933376428 0 0 0 0 0 125394264.996277 -11651055.93061153 -11651055.93061153 -13484212.11183099 0 0 0 0 0 136474974.9101398 264759.6274604513 264759.6274604513 -314589.9263691856 0 0 0 0 0 136081104.3851078 -10614155.07639829 -10614155.07639829 -1967321.091158515 0 0 0 0 0 124832754.1846853 -11094377.52569994 -11094377.52569994 -12758315.75144549 0 0 0 0 0 117502630.2563984 -12942614.42777698 -12942614.42777698 -16941088.692683 0 0 0 0 0 127528988.891697 -2535943.7480243 -2535943.7480243 -8478498.516875628 0 0 0 0 0 117152139.4928903 -12494905.89367479 -12494905.89367479 -15847381.53059889 0 0 0 0 0 111613815.6468121 -13420616.6146436 -13420616.6146436 -16039456.24161457 0 0 0 0 0 120522645.2993294 -5330857.277117644 -5330857.277117644 -11766059.43713424 0 0 0 0 0 107666901.5594041 -641581.9873045603 -641581.9873045603 -4624611.653387005 0 0 0 0 0 108556898.8070118 -1127685.93891197 -1127685.93891197 -5411902.676627806 0 0 0 0 0 107025263.5840162 -2346523.577865756 -2346523.577865756 -5811440.986584459 0 0 0 0 0 108693354.4394062 -1066208.513511901 -1066208.513511901 -5422044.651394761 0 0 0 0 0 109045885.8393382 -2475442.608781142 -2475442.608781142 -6797774.657384845 0 0 0 0 0 107555700.3773066 -3028554.574110652 -3028554.574110652 -6595456.38208478 0 0 0 0 0 110988242.0340635 -1837847.624609274 -1837847.624609274 -7211222.629860099 0 0 0 0 0 108811886.6924474 -4778842.055462137 -4778842.055462137 -8297347.985679126 0 0 0 0 0 109050542.7365824 -2439425.480180267 -2439425.480180267 -6837341.622905748 0 0 0 0 0 110833286.8966091 -4414178.340290892 -4414178.340290892 -9142069.293365229 0 0 0 0 0 108590654.0404766 -4912734.530497395 -4912734.530497395 -8541712.609298939 0 0 0 0 0 111265826.7995813 -1671818.712294892 -1671818.712294892 -6940336.232419395 0 0 0 0 0 114168683.2605451 -3463771.289817844 -3463771.289817844 -9787754.293833939 0 0 0 0 0 110626287.8669777 -7934740.928008152 -7934740.928008152 -11211721.80027447 0 0 0 0 0 110826945.8260621 -4424370.475842226 -4424370.475842226 -9176387.158181941 0 0 0 0 0 113973642.41236 -7277627.447614252 -7277627.447614252 -12298890.05490058 0 0 0 0 0 110026558.3912037 -8259715.478293407 -8259715.478293407 -11778082.19508949 0 0 0 0 0 114827461.819628 -3123236.489931835 -3123236.489931835 -9264368.775486657 0 0 0 0 0 111365344.0556677 -13073481.48142429 -13073481.48142429 -15304992.88052581 0 0 0 0 0 107316785.1004892 -13083182.45853485 -13083182.45853485 -13831080.68713267 0 0 0 0 0 115032038.7224893 -7105941.648781363 -7105941.648781363 -12166890.93750016 0 0 0 0 0 256074355.2753777 -71030374.05611128 -71030374.05611128 28556836.31900623 0 0 0 0 0 164511236.9255768 -86919884.77982651 -86919884.77982651 46647421.38004597 0 0 0 0 0 150759447.068888 -14442198.7444245 -14442198.7444245 14054646.52925355 0 0 0 0 0 166433022.8974913 -25289272.32558635 -25289272.32558635 25826337.96803331 0 0 0 0 0 130737223.7579607 -31455769.68058861 -31455769.68058861 6539857.146464448 0 0 0 0 0 133700822.6672184 -8219563.20109576 -8219563.20109576 -4088095.981182663 0 0 0 0 0 117339763.2590657 -23013329.32565615 -23013329.32565615 -14196822.50710753 0 0 0 0 0 124611186.4639821 -10612519.47725898 -10612519.47725898 -13358253.68431544 0 0 0 0 0 137645536.7331461 -12522381.87688873 -12522381.87688873 -1628050.409625185 0 0 0 0 0 125356376.9412787 -11935155.34535478 -11935155.34535478 -13815454.56150232 0 0 0 0 0 110648180.460397 -21604148.74414594 -21604148.74414594 -18594590.49793534 0 0 0 0 0 117235091.5695283 -12426711.65730497 -12426711.65730497 -16024042.86762255 0 0 0 0 0 117469088.8766342 -13016419.29653793 -13016419.29653793 -16637987.93225331 0 0 0 0 0 105389101.7909192 -20365000.50439985 -20365000.50439985 -17248183.73081774 0 0 0 0 0 111429867.229361 -13074881.35467897 -13074881.35467897 -15380524.79264029 0 0 0 0 0 106336541.2940607 -1835037.667825758 -1835037.667825758 -4969836.486130702 0 0 0 0 0 107603156.4030438 -682001.3005542568 -682001.3005542568 -4693351.71957874 0 0 0 0 0 107091810.0086 -2296306.609572856 -2296306.609572856 -5724449.099334692 0 0 0 0 0 107057916.5321332 -2328236.420844098 -2328236.420844098 -5690559.313198784 0 0 0 0 0 108515030.2103575 -1153612.211730769 -1153612.211730769 -5568335.313207285 0 0 0 0 0 107647671.6624484 -2980124.460172151 -2980124.460172151 -6507547.878818247 0 0 0 0 0 109094569.5077415 -2534929.406100146 -2534929.406100146 -6924682.936399285 0 0 0 0 0 107034256.6248388 -4707743.210794906 -4707743.210794906 -7428180.513552794 0 0 0 0 0 107519129.2797377 -2983565.263709216 -2983565.263709216 -6497709.398062398 0 0 0 0 0 108481044.9076886 -4845512.10339868 -4845512.10339868 -8406556.272394946 0 0 0 0 0 106946289.9676024 -4767079.043262612 -4767079.043262612 -7507702.907240883 0 0 0 0 0 109276669.9258997 -2411891.963163962 -2411891.963163962 -6765732.353563158 0 0 0 0 0 110977317.9341103 -4542486.251419779 -4542486.251419779 -9393704.303690217 0 0 0 0 0 106984701.2315226 -8418766.832533291 -8418766.832533291 -9852761.154581904 0 0 0 0 0 108469382.5174918 -4809704.487891712 -4809704.487891712 -8403066.976607351 0 0 0 0 0 111442774.8576577 -4305847.94503517 -4305847.94503517 -9057106.190669671 0 0 0 0 0 109904608.0360887 -8066138.534828178 -8066138.534828178 -11354700.97628407 0 0 0 0 0 106516090.3632997 -8655196.923590701 -8655196.923590701 -10180339.16372918 0 0 0 0 0 114129957.2962636 -7535972.118718076 -7535972.118718076 -12792645.13266731 0 0 0 0 0 108047953.8692411 -12719262.65904666 -12719262.65904666 -13251842.49937287 0 0 0 0 0 109894071.051462 -8044724.192115363 -8044724.192115363 -11380377.59376763 0 0 0 0 0 111600961.0165764 -13425623.04843296 -13425623.04843296 -15703085.96392101 0 0 0 0 0 101699900.1936102 -18511016.54785038 -18511016.54785038 -14406931.09993665 0 0 0 0 0 107173464.5808398 -12840696.03331681 -12840696.03331681 -13460672.45860578 0 0 0 0 0 176407873.6716225 -20823341.9251237 -20823341.9251237 21565249.94973022 0 0 0 0 0 142196430.4123414 -73758998.88368742 -73758998.88368742 40328999.871956 0 0 0 0 0 127062790.323525 -32691857.56388784 -32691857.56388784 12557631.08631335 0 0 0 0 0 122757418.4145406 -30713879.79134678 -30713879.79134678 4069905.349447158 0 0 0 0 0 114806371.0071853 -24000780.13394644 -24000780.13394644 -14719269.41243642 0 0 0 0 0 142153256.5993907 -10723174.89149939 -10723174.89149939 -482331.5519390347 0 0 0 0 0 114110542.949421 -23628202.73056925 -23628202.73056925 -14732418.12297306 0 0 0 0 0 108941244.9528382 -22511762.82786701 -22511762.82786701 -20222310.23136248 0 0 0 0 0 127851145.6579842 -10815707.06329105 -10815707.06329105 -12396542.94115469 0 0 0 0 0 119000271.3573159 -12297254.0858167 -12297254.0858167 -15629962.50180342 0 0 0 0 0 108553553.0347394 -22052122.15026802 -22052122.15026802 -18905488.18877755 0 0 0 0 0 104286352.9573803 -20939551.72334875 -20939551.72334875 -18240941.27339296 0 0 0 0 0 112555848.0369219 -12992078.52004396 -12992078.52004396 -15134628.67910331 0 0 0 0 0 104005697.1943848 -20568955.42345763 -20568955.42345763 -17493615.83674242 0 0 0 0 0 101026959.7234372 -18830666.81420121 -18830666.81420121 -14872754.81353506 0 0 0 0 0 106348433.252457 -1821969.200684726 -1821969.200684726 -5002065.289629403 0 0 0 0 0 107060949.72171 -2305033.71356088 -2305033.71356088 -5696898.731898144 0 0 0 0 0 105749652.9804472 -3182028.974103407 -3182028.974103407 -5741083.004397955 0 0 0 0 0 105702178.011758 -4291024.321484725 -4291024.321484725 -6562208.730980534 0 0 0 0 0 107133135.606156 -2298768.070242872 -2298768.070242872 -5740768.777295447 0 0 0 0 0 107557487.4149197 -3008337.710762627 -3008337.710762627 -6459005.196482075 0 0 0 0 0 106876787.0856388 -4737171.035617336 -4737171.035617336 -7482030.613625615 0 0 0 0 0 105748060.2567242 -4258146.742659031 -4258146.742659031 -6444028.582820081 0 0 0 0 0 107553860.5647679 -2994835.535212536 -2994835.535212536 -6490831.156964318 0 0 0 0 0 108576453.632821 -4903363.120477537 -4903363.120477537 -8393744.349449692 0 0 0 0 0 105358079.3597153 -7180413.233411578 -7180413.233411578 -8277043.699146821 0 0 0 0 0 106869826.4242614 -4721511.069036349 -4721511.069036349 -7477855.110910768 0 0 0 0 0 106561701.8896502 -8435348.90596756 -8435348.90596756 -9979515.918622995 0 0 0 0 0 105319397.2637976 -7208821.305112155 -7208821.305112155 -8256315.890111299 0 0 0 0 0 108743093.0819322 -4787356.165346229 -4787356.165346229 -8321146.399780636 0 0 0 0 0 109995461.6819243 -8280187.703180148 -8280187.703180148 -11658445.102607 0 0 0 0 0 104782019.8236216 -12099379.81118177 -12099379.81118177 -11227761.68797645 0 0 0 0 0 106410102.4901401 -8404104.641344612 -8404104.641344612 -9821433.20735527 0 0 0 0 0 110691308.4868224 -7981055.675922939 -7981055.675922939 -11222788.7528569 0 0 0 0 0 107128457.3692655 -12814505.97818868 -12814505.97818868 -13419902.03474859 0 0 0 0 0 104234889.3499628 -12330216.64269069 -12330216.64269069 -11555352.50284384 0 0 0 0 0 107933555.546136 -12825716.96035712 -12825716.96035712 -13273102.28784003 0 0 0 0 0 100818821.2221259 -18572440.91980357 -18572440.91980357 -14599539.24862365 0 0 0 0 0 98852328.62400305 -16712984.37988133 -16712984.37988133 -11842531.53880456 0 0 0 0 0 152910020.2861494 -81702501.02698299 -81702501.02698299 56311916.92814101 0 0 0 0 0 56264578.79697362 -57046748.54324076 -57046748.54324076 45571497.82219869 0 0 0 0 0 121315123.0967489 -28883506.46213685 -28883506.46213685 1265893.957779507 0 0 0 0 0 125977358.1784668 -34097027.44615488 -34097027.44615488 8713101.327345196 0 0 0 0 0 73716864.54723772 -31992942.09142273 -31992942.09142273 -12443379.89406204 0 0 0 0 0 114558119.8252701 -23664762.62777806 -23664762.62777806 -14895558.74987227 0 0 0 0 0 114602701.0286797 -24445481.00981217 -24445481.00981217 -15852941.43597146 0 0 0 0 0 88075623.1725506 -30684244.74943758 -30684244.74943758 -19427961.71559022 0 0 0 0 0 109064624.8209879 -22341341.55401873 -22341341.55401873 -18858224.97632727 0 0 0 0 0 104247414.4213666 -20712817.27839197 -20712817.27839197 -17472570.76860655 0 0 0 0 0 108862252.8009533 -22566158.91744193 -22566158.91744193 -19563445.99173965 0 0 0 0 0 89541372.68439128 -28020256.6823241 -28020256.6823241 -17624196.1594587 0 0 0 0 0 100935270.5968078 -18653835.68604384 -18653835.68604384 -14578749.9635708 0 0 0 0 0 104262117.0163757 -20907799.42903801 -20907799.42903801 -17661292.23347402 0 0 0 0 0 89626644.08665191 -24355870.56298256 -24355870.56298256 -13969767.28934236 0 0 0 0 0 105012224.296765 -2713627.89048587 -2713627.89048587 -4970772.786609581 0 0 0 0 0 106306833.005764 -1848075.453216206 -1848075.453216206 -5035146.01463872 0 0 0 0 0 105782149.8068772 -3146730.847943847 -3146730.847943847 -5700463.065400868 0 0 0 0 0 107023871.9584852 -2347852.646446586 -2347852.646446586 -5821292.09776978 0 0 0 0 0 105816455.3003052 -4224624.007680088 -4224624.007680088 -6444864.747337849 0 0 0 0 0 105766339.5679884 -3147780.995672667 -3147780.995672667 -5684821.130571049 0 0 0 0 0 105717467.9734233 -4237041.65318268 -4237041.65318268 -6504655.450362368 0 0 0 0 0 106931914.9236084 -4767547.845736937 -4767547.845736937 -7431899.653717855 0 0 0 0 0 104253146.5286708 -6451164.909397054 -6451164.909397054 -7146216.979734832 0 0 0 0 0 106971109.7156063 -4734440.244373688 -4734440.244373688 -7452099.641539967 0 0 0 0 0 105230805.7423624 -7176762.652746229 -7176762.652746229 -8312900.88280533 0 0 0 0 0 104233321.8621017 -6470764.621617216 -6470764.621617216 -7101590.35310649 0 0 0 0 0 102156510.7145846 -10166554.10044 -10166554.10044 -8628813.141071606 0 0 0 0 0 105284310.3043828 -7185788.642109681 -7185788.642109681 -8318568.704987921 0 0 0 0 0 106609310.4647993 -8475433.415860146 -8475433.415860146 -9816177.656659648 0 0 0 0 0 107030348.6478709 -8347769.338939033 -8347769.338939033 -9780074.957588466 0 0 0 0 0 104143255.2983732 -12123146.63245197 -12123146.63245197 -11305940.50855524 0 0 0 0 0 101854918.4307871 -11924062.78690828 -11924062.78690828 -9803647.531325722 0 0 0 0 0 104132039.6610385 -12154216.31050579 -12154216.31050579 -11350429.0830342 0 0 0 0 0 107313355.0789507 -13078122.56229076 -13078122.56229076 -13580044.3290145 0 0 0 0 0 99296864.55615263 -16544011.32240889 -16544011.32240889 -11668370.47471847 0 0 0 0 0 101018925.6980737 -18791095.27639604 -18791095.27639604 -14486973.06972584 0 0 0 0 0 90064158.98754355 -20587355.30206538 -20587355.30206538 -10706556.90872153 0 0 0 0 0 98767153.73950939 -16588199.85149135 -16588199.85149135 -11771953.01976215 0 0 0 0 0 54951278.03193709 -47224480.0444689 -47224480.0444689 41189480.71834962 0 0 0 0 0 76165380.53668997 -31387081.96542617 -31387081.96542617 -12994210.57307951 0 0 0 0 0 128486169.7581606 -34130896.48724738 -34130896.48724738 5403125.167831039 0 0 0 0 0 114945880.6337778 -24107354.99995257 -24107354.99995257 -14645516.91500757 0 0 0 0 0 77542635.30023788 -34444532.81524851 -34444532.81524851 -10577114.1955853 0 0 0 0 0 88295517.79036373 -31081017.5419666 -31081017.5419666 -22199206.21771962 0 0 0 0 0 109630152.606166 -22148848.74123216 -22148848.74123216 -18788817.0781143 0 0 0 0 0 88166678.93992873 -31295830.64768828 -31295830.64768828 -19131717.02837819 0 0 0 0 0 89005138.04779363 -28404412.48202442 -28404412.48202442 -18592065.45584908 0 0 0 0 0 89360034.87580806 -24487305.89514828 -24487305.89514828 -14180376.91078324 0 0 0 0 0 104817996.496407 -20663194.80782917 -20663194.80782917 -17352220.88514168 0 0 0 0 0 88964014.17029314 -28239324.11196148 -28239324.11196148 -17652336.8894549 0 0 0 0 0 101276425.0896496 -18702424.60536024 -18702424.60536024 -14463420.00304197 0 0 0 0 0 89276978.85283834 -24358972.14235106 -24358972.14235106 -14057812.92269571 0 0 0 0 0 90046665.22141422 -20564583.21062215 -20564583.21062215 -10575493.69419724 0 0 0 0 0 104490068.6802448 -4106810.011976853 -4106810.011976853 -5669187.236771472 0 0 0 0 0 105023376.7072638 -2704599.991397141 -2704599.991397141 -5015457.393725837 0 0 0 0 0 105776307.379012 -3148972.293387229 -3148972.293387229 -5686295.268745762 0 0 0 0 0 105645955.2911624 -4268718.13530468 -4268718.13530468 -6439981.835211112 0 0 0 0 0 104463937.59964 -4131901.428885364 -4131901.428885364 -5676428.060585297 0 0 0 0 0 105795511.1406737 -3127806.6134866 -3127806.6134866 -5696599.36767318 0 0 0 0 0 103323431.4780412 -5785352.130461802 -5785352.130461802 -6117758.306962515 0 0 0 0 0 105788760.0128484 -4268395.63683015 -4268395.63683015 -6490872.932294697 0 0 0 0 0 104172168.1704463 -6436628.275975805 -6436628.275975805 -7166653.321695697 0 0 0 0 0 105315704.3261054 -7229027.8089444 -7229027.8089444 -8213974.201938914 0 0 0 0 0 101798193.2233005 -8745729.459997885 -8745729.459997885 -7344276.300127702 0 0 0 0 0 104185421.6624346 -6440649.331045624 -6440649.331045624 -7172922.817028038 0 0 0 0 0 102215490.4572325 -10082229.03184701 -10082229.03184701 -8600506.033464737 0 0 0 0 0 101823635.5748793 -8728021.770700585 -8728021.770700585 -7232689.038406004 0 0 0 0 0 105306327.5679209 -7236939.548500068 -7236939.548500068 -8318527.556465198 0 0 0 0 0 102240281.7500628 -10112255.32006278 -10112255.32006278 -8456671.53238621 0 0 0 0 0 106469972.1376273 -8565058.909128053 -8565058.909128053 -10106597.41178869 0 0 0 0 0 102092512.2386855 -11834633.28834265 -11834633.28834265 -9668449.75432069 0 0 0 0 0 104211010.8672372 -12344498.39595925 -12344498.39595925 -11388580.495595 0 0 0 0 0 97902359.2231981 -14622310.0989272 -14622310.0989272 -9461724.833004406 0 0 0 0 0 101823301.9561045 -11744517.89823124 -11744517.89823124 -9652520.699689683 0 0 0 0 0 104640882.807033 -12185944.73984319 -12185944.73984319 -11203062.00244196 0 0 0 0 0 98718743.60277851 -16543418.48544615 -16543418.48544615 -11814494.47073702 0 0 0 0 0 97726127.84938747 -14667484.05703157 -14667484.05703157 -9471724.385575077 0 0 0 0 0 89987300.26275775 -20519489.38755117 -20519489.38755117 -10760239.98894878 0 0 0 0 0 90660062.48866521 -17407640.07316839 -17407640.07316839 -8025426.696228717 0 0 0 0 0 98892853.63120623 -16678718.7435661 -16678718.7435661 -11694127.91317507 0 0 0 0 0 55591526.25242494 -43552222.28569427 -43552222.28569427 46433959.42235863 0 0 0 0 0 -2640121.308979258 -6914930.592577141 -6914930.592577141 -134779.7111497542 0 0 0 0 0 76337444.11454841 -34011405.51635285 -34011405.51635285 -14586539.66285286 0 0 0 0 0 90297161.46909963 -32394441.47505534 -32394441.47505534 -18727308.96340785 0 0 0 0 0 73292481.97933927 -31440756.94836237 -31440756.94836237 -15183301.1377386 0 0 0 0 0 58584145.63782519 -32730463.69730275 -32730463.69730275 -18982830.13246019 0 0 0 0 0 89506861.05271927 -28680714.80998071 -28680714.80998071 -17293686.80161156 0 0 0 0 0 87696635.08706576 -31050845.89748305 -31050845.89748305 -20399650.7787338 0 0 0 0 0 64452221.2450562 -31725182.95935762 -31725182.95935762 -16046300.00692816 0 0 0 0 0 70548579.18727991 -27837358.1232327 -27837358.1232327 -11542143.07126489 0 0 0 0 0 89501378.43674307 -24580278.97877779 -24580278.97877779 -13869722.73915369 0 0 0 0 0 88977646.51188421 -28260654.3198711 -28260654.3198711 -17667504.26748044 0 0 0 0 0 90116379.1103975 -20665395.21011901 -20665395.21011901 -10651029.15767996 0 0 0 0 0 89363330.04134253 -24363017.74497885 -24363017.74497885 -13656193.32015582 0 0 0 0 0 75892201.02102466 -23125828.78903536 -23125828.78903536 -8084107.660087614 0 0 0 0 0 103357474.2420044 -5761299.619486777 -5761299.619486777 -6131942.620373815 0 0 0 0 0 104429261.8101392 -4108374.758859674 -4108374.758859674 -5699918.589641748 0 0 0 0 0 105715761.3997709 -4319186.845660742 -4319186.845660742 -6487039.45469459 0 0 0 0 0 101361402.8168763 -7590868.47507209 -7590868.47507209 -6255973.125040981 0 0 0 0 0 103276272.7099689 -5756007.634461993 -5756007.634461993 -6170576.427479718 0 0 0 0 0 104229031.6181353 -6472678.808600704 -6472678.808600704 -7077074.222722998 0 0 0 0 0 101784417.679737 -8704309.100075157 -8704309.100075157 -7344921.236946278 0 0 0 0 0 101387342.2217061 -7574717.875680373 -7574717.875680373 -6160654.017148449 0 0 0 0 0 104217898.1842598 -6479179.852591396 -6479179.852591396 -7166442.873600235 0 0 0 0 0 98008676.20933661 -11016105.9799639 -11016105.9799639 -6886000.996564017 0 0 0 0 0 101825783.7581566 -8723124.806276234 -8723124.806276234 -7341871.228734722 0 0 0 0 0 102256586.8372688 -10112733.75025694 -10112733.75025694 -8453540.09703706 0 0 0 0 0 97454420.40670365 -12852140.11984687 -12852140.11984687 -7994698.929167424 0 0 0 0 0 102347582.6342193 -10119962.12552899 -10119962.12552899 -8604609.019531487 0 0 0 0 0 101863050.5455963 -11785688.53850424 -11785688.53850424 -9515545.728725309 0 0 0 0 0 97665601.35285987 -14607528.1369442 -14607528.1369442 -9533525.216045542 0 0 0 0 0 97555305.33900231 -12783464.13296048 -12783464.13296048 -7796302.361809651 0 0 0 0 0 101889175.6628237 -11785833.6704188 -11785833.6704188 -9617394.854854235 0 0 0 0 0 98868791.59277733 -16662841.25353706 -16662841.25353706 -11583362.33585859 0 0 0 0 0 90574298.26886483 -17487270.95317738 -17487270.95317738 -8265789.034084445 0 0 0 0 0 97658536.11047477 -14597990.50162831 -14597990.50162831 -9508842.958669756 0 0 0 0 0 90063867.02986278 -20504170.2058357 -20504170.2058357 -10345041.49984831 0 0 0 0 0 81181467.06494187 -19012906.16801317 -19012906.16801317 -6061016.459027058 0 0 0 0 0 90661187.0381588 -17449753.11313235 -17449753.11313235 -8179229.463145805 0 0 0 0 0 73684000.24560936 -35970984.60857412 -35970984.60857412 -11861296.55158555 0 0 0 0 0 6128051.288356327 -6771309.166308802 -6771309.166308802 14727.21759102256 0 0 0 0 0 29782856.01506298 -24888967.22054254 -24888967.22054254 -27199069.04368307 0 0 0 0 0 70927456.12491266 -34325038.91473004 -34325038.91473004 -10020312.63394327 0 0 0 0 0 28875130.72832314 -23228685.29025706 -23228685.29025706 -25165085.96731554 0 0 0 0 0 59136479.969129 -32177405.11314441 -32177405.11314441 -19308221.64675647 0 0 0 0 0 64881505.26894461 -31750406.74357815 -31750406.74357815 -16760318.7864707 0 0 0 0 0 86969335.70309754 -31163392.4717837 -31163392.4717837 -19879876.37108792 0 0 0 0 0 60337849.11696552 -33620391.23326723 -33620391.23326723 -18343715.26948981 0 0 0 0 0 71084636.86916909 -27671404.04220558 -27671404.04220558 -11463786.04594141 0 0 0 0 0 88456727.88090461 -28414211.32161145 -28414211.32161145 -17714885.51026883 0 0 0 0 0 65569345.11813748 -32043770.36943055 -32043770.36943055 -15578381.80014494 0 0 0 0 0 76506647.41240205 -22820293.22376833 -22820293.22376833 -7571341.300803486 0 0 0 0 0 88858443.17380835 -24598044.96286295 -24598044.96286295 -14013713.57863215 0 0 0 0 0 71344745.67107874 -27841744.04802364 -27841744.04802364 -11346385.86526324 0 0 0 0 0 89595279.48194337 -20744531.87334684 -20744531.87334684 -10734730.65022327 0 0 0 0 0 76789345.70991778 -23031231.53526517 -23031231.53526517 -7914942.01727656 0 0 0 0 0 81660854.31049809 -18752675.30848073 -18752675.30848073 -5587882.738473671 0 0 0 0 0 98386383.25691652 -9374324.761733478 -9374324.761733478 -5852738.726191488 0 0 0 0 0 101373004.3339202 -7563460.968210935 -7563460.968210935 -6265080.726181952 0 0 0 0 0 101822071.9194828 -8730411.889406672 -8730411.889406672 -7201266.203799354 0 0 0 0 0 98490495.71547247 -9308084.528737796 -9308084.528737796 -5681051.754734135 0 0 0 0 0 101724865.7738729 -8792506.767385755 -8792506.767385755 -7373131.237467128 0 0 0 0 0 98155023.15563017 -10936616.30011893 -10936616.30011893 -6840969.696217403 0 0 0 0 0 98129407.58595368 -10938476.77548406 -10938476.77548406 -6667016.090753574 0 0 0 0 0 102120410.8449168 -10199542.92699721 -10199542.92699721 -8684867.724415192 0 0 0 0 0 97595864.35308293 -12786379.19160712 -12786379.19160712 -7942097.303691282 0 0 0 0 0 91532160.25491098 -14882559.24435102 -14882559.24435102 -6618501.734201451 0 0 0 0 0 97543697.31951389 -12786120.23956379 -12786120.23956379 -7905274.231785281 0 0 0 0 0 97718860.69197072 -14626761.19003971 -14626761.19003971 -9300117.038225433 0 0 0 0 0 90660429.62289783 -17407707.61038725 -17407707.61038725 -8272399.624668978 0 0 0 0 0 91731129.96433176 -14755906.46922314 -14755906.46922314 -6322687.096313082 0 0 0 0 0 97618733.2017464 -14696553.09577831 -14696553.09577831 -9481919.687034985 0 0 0 0 0 90235066.0488731 -17548760.67095102 -17548760.67095102 -8235741.298221288 0 0 0 0 0 81813621.35986693 -18905586.74183939 -18905586.74183939 -5955485.981301923 0 0 0 0 0 84388122.9001527 -15542881.19887026 -15542881.19887026 -3931069.415708208 0 0 0 0 0 5956672.827841409 1421179.766202941 1421179.766202941 -9484923.322227605 0 0 0 0 0 -13851138.06126392 18527444.70751187 18527444.70751187 -69359331.00889349 0 0 0 0 0 32171303.92147945 -28274267.95100546 -28274267.95100546 -15197295.39340177 0 0 0 0 0 31186699.4736461 -25051577.40293057 -25051577.40293057 -21785860.41336296 0 0 0 0 0 37413871.28665642 -28915162.82312948 -28915162.82312948 -18535659.21575569 0 0 0 0 0 59109647.6216724 -32238498.26486906 -32238498.26486906 -19171484.67631963 0 0 0 0 0 37232760.26047684 -27915235.5339321 -27915235.5339321 -16710362.43272732 0 0 0 0 0 65672864.1831748 -32326180.85760378 -32326180.85760378 -14727732.89072108 0 0 0 0 0 59506677.54052063 -32704306.64348335 -32704306.64348335 -20050028.13179852 0 0 0 0 0 71500332.5689908 -28126214.16241187 -28126214.16241187 -10910752.22185384 0 0 0 0 0 65077252.24629769 -31372910.23118723 -31372910.23118723 -15911534.01891611 0 0 0 0 0 47569362.1419776 -25675157.79923058 -25675157.79923058 -8409934.011504976 0 0 0 0 0 76804814.83402134 -23244115.52729186 -23244115.52729186 -7612090.67382744 0 0 0 0 0 71124768.06912941 -27396921.9771217 -27396921.9771217 -10900636.51897807 0 0 0 0 0 57393564.90180541 -21663766.40192129 -21663766.40192129 -4248452.42549745 0 0 0 0 0 82101994.4165256 -19205331.79994402 -19205331.79994402 -5858960.805654042 0 0 0 0 0 76491591.88240018 -22663145.53180927 -22663145.53180927 -7298275.795867619 0 0 0 0 0 67446690.39374875 -17532852.42542544 -17532852.42542544 -2083146.814813173 0 0 0 0 0 94351936.82215452 -10777069.28174717 -10777069.28174717 -4794288.80482128 0 0 0 0 0 98530355.92709613 -9328540.765901975 -9328540.765901975 -5814269.415758853 0 0 0 0 0 98131402.79399386 -10927210.00266663 -10927210.00266663 -6651628.19372482 0 0 0 0 0 92824581.20186228 -12699080.68686143 -12699080.68686143 -5537324.503435787 0 0 0 0 0 98208419.15078759 -10974469.3916365 -10974469.3916365 -6815372.405846721 0 0 0 0 0 97525073.88363717 -12758932.47701267 -12758932.47701267 -7714898.836477244 0 0 0 0 0 93064993.05123425 -12553932.12922332 -12553932.12922332 -5230073.57216194 0 0 0 0 0 97305689.56307268 -12888001.1739188 -12888001.1739188 -7959889.200059997 0 0 0 0 0 91785799.78345469 -14798465.80057783 -14798465.80057783 -6556455.924515911 0 0 0 0 0 90651464.46567093 -17329372.0676805 -17329372.0676805 -7883440.044099358 0 0 0 0 0 83947996.38592789 -15780880.98505381 -15780880.98505381 -4340882.175272279 0 0 0 0 0 91766739.59336925 -14823347.14345108 -14823347.14345108 -6498161.743690128 0 0 0 0 0 84377051.1475213 -15616117.78193642 -15616117.78193642 -4190121.709469954 0 0 0 0 0 81792577.84024379 -18788484.39319672 -18788484.39319672 -5704456.582885185 0 0 0 0 0 77027887.33920512 -15765460.63096653 -15765460.63096653 -2221038.753437985 0 0 0 0 0 22439707.5373957 -22717346.12593681 -22717346.12593681 -24634940.84004274 0 0 0 0 0 -888148.9431136263 8343209.20187514 8343209.20187514 -51319792.70774885 0 0 0 0 0 3888170.967188479 -15481610.26525784 -15481610.26525784 -34627477.54974265 0 0 0 0 0 29645629.96536674 -25469059.23223985 -25469059.23223985 -26744836.93397678 0 0 0 0 0 3762104.382941811 -11797153.76249443 -11797153.76249443 -30491665.30809975 0 0 0 0 0 38960371.29961613 -30056697.12601452 -30056697.12601452 -12614370.20395295 0 0 0 0 0 48935308.40226463 -25419144.02851949 -25419144.02851949 -8524958.239110723 0 0 0 0 0 63668563.77770678 -31635865.68043391 -31635865.68043391 -15789639.16418233 0 0 0 0 0 38811256.26130535 -28905066.15973644 -28905066.15973644 -15343795.80629215 0 0 0 0 0 58848946.5839586 -21119902.23398674 -21119902.23398674 -3511509.215955107 0 0 0 0 0 69609129.29829636 -27903297.15492742 -27903297.15492742 -11494389.23182485 0 0 0 0 0 49476959.94680405 -25795441.69498633 -25795441.69498633 -7907076.915048228 0 0 0 0 0 68793810.15198067 -16918706.04255512 -16918706.04255512 -1264221.056263485 0 0 0 0 0 75201032.21316908 -23223357.89377895 -23223357.89377895 -7953783.39922494 0 0 0 0 0 59274330.41002508 -21695871.54192638 -21695871.54192638 -3841011.707293255 0 0 0 0 0 80930161.21431258 -19239077.49977659 -19239077.49977659 -6173103.315848334 0 0 0 0 0 69355380.02806064 -17392499.22758929 -17392499.22758929 -1604997.514038858 0 0 0 0 0 77440870.82410626 -15566378.71145912 -15566378.71145912 -2151691.068387372 0 0 0 0 0 93173009.75320287 -12602265.93675839 -12602265.93675839 -5427685.740412341 0 0 0 0 0 94559612.93958431 -10647769.71504139 -10647769.71504139 -4546269.702916952 0 0 0 0 0 97903733.5447873 -11068619.15596081 -11068619.15596081 -6911761.125591665 0 0 0 0 0 86737224.70582587 -13314497.08862118 -13314497.08862118 -3502557.795709925 0 0 0 0 0 93154779.66237596 -12636569.49904138 -12636569.49904138 -5380733.59159908 0 0 0 0 0 91717161.64743729 -14721678.94406018 -14721678.94406018 -6265503.466763363 0 0 0 0 0 84506533.67236653 -15664212.79629385 -15664212.79629385 -4203596.362482977 0 0 0 0 0 87125967.10957363 -13095207.63194777 -13095207.63194777 -3115218.474869517 0 0 0 0 0 91320543.60723388 -14938204.98090656 -14938204.98090656 -6602929.374068047 0 0 0 0 0 79938366.54269055 -12393928.2653999 -12393928.2653999 -527014.2806392487 0 0 0 0 0 83980500.38559645 -15644876.30905456 -15644876.30905456 -4216936.851812314 0 0 0 0 0 77436594.38564555 -15655419.52588605 -15655419.52588605 -2281284.885524193 0 0 0 0 0 -6850547.323789824 14915177.40671241 14915177.40671241 -76947674.84433198 0 0 0 0 0 -5410649.651421395 8350199.639542391 8350199.639542391 -103388200.8473923 0 0 0 0 0 9911684.541787656 -17246756.03863916 -17246756.03863916 -12633613.64216097 0 0 0 0 0 10117637.33472504 -15077627.23774674 -15077627.23774674 -25138581.41396523 0 0 0 0 0 23503039.93673282 -17033393.71589264 -17033393.71589264 -10810087.86363155 0 0 0 0 0 34595389.54348176 -27773784.52423921 -27773784.52423921 -16344659.89752218 0 0 0 0 0 21904364.63004122 -16534957.97521718 -16534957.97521718 -9980257.180682419 0 0 0 0 0 49663050.01114038 -26343087.53610388 -26343087.53610388 -6684888.010790922 0 0 0 0 0 38156242.80511272 -28195319.73706729 -28195319.73706729 -17083125.70131252 0 0 0 0 0 37270849.25434732 -13942823.55708151 -13942823.55708151 -1613416.609735202 0 0 0 0 0 59189727.93786124 -21862190.5637938 -21862190.5637938 -3370357.561877457 0 0 0 0 0 49191610.88434219 -24988939.09322699 -24988939.09322699 -7754936.611443182 0 0 0 0 0 49849303.56028889 -10863768.76989339 -10863768.76989339 1700550.16992474 0 0 0 0 0 69424498.9324306 -17917340.12169138 -17917340.12169138 -1470872.21045881 0 0 0 0 0 58879766.68587536 -20922024.0832521 -20922024.0832521 -3286585.991371869 0 0 0 0 0 68457406.22696191 -16974937.57661415 -16974937.57661415 -1587496.683475937 0 0 0 0 0 71470672.39363821 -12009711.22163531 -12009711.22163531 1038085.741104725 0 0 0 0 0 77813344.93532671 -15728743.3242188 -15728743.3242188 -2261661.933178632 0 0 0 0 0 89444750.85583775 -11342228.96212364 -11342228.96212364 -3059004.340859803 0 0 0 0 0 94679238.54983087 -10715780.91938538 -10715780.91938538 -4685133.423288989 0 0 0 0 0 93040809.68862551 -12528445.09461313 -12528445.09461313 -5218460.330298972 0 0 0 0 0 89759471.69305405 -11153741.01131475 -11153741.01131475 -2770031.705855137 0 0 0 0 0 92703859.7574991 -12729177.12484131 -12729177.12484131 -5506261.597267591 0 0 0 0 0 87306155.61159705 -13217357.53284843 -13217357.53284843 -3342229.692997323 0 0 0 0 0 84348106.65155131 -15469476.61326946 -15469476.61326946 -3935022.379764635 0 0 0 0 0 79472108.60894525 -12614114.44036429 -12614114.44036429 -875906.3728734627 0 0 0 0 0 87293879.21224369 -13283070.42860785 -13283070.42860785 -3281060.270155861 0 0 0 0 0 71744604.12220943 -12037328.09064038 -12037328.09064038 1067856.988313845 0 0 0 0 0 79868831.61911865 -12487837.01490775 -12487837.01490775 -772318.0485334647 0 0 0 0 0 77442186.02499695 -15645217.8324264 -15645217.8324264 -2261182.598831005 0 0 0 0 0 -7987627.883110913 477284.0966684191 477284.0966684191 -79795200.77826203 0 0 0 0 0 3530990.387664079 -80220.11564921473 -80220.11564921473 -22774870.44014739 0 0 0 0 0 2302050.753380369 -10142225.65751091 -10142225.65751091 -28570694.80946264 0 0 0 0 0 -196258.0400298256 414727.1868656268 414727.1868656268 -22908997.99950131 0 0 0 0 0 24964725.25217153 -18330140.61045016 -18330140.61045016 -6093552.880862757 0 0 0 0 0 8106692.264074797 -14280936.68177002 -14280936.68177002 -31748285.15156223 0 0 0 0 0 24778595.69985953 -17497233.04537154 -17497233.04537154 -8497445.282721659 0 0 0 0 0 39670472.39369285 -13486471.97604748 -13486471.97604748 -927302.9864737464 0 0 0 0 0 46900601.11792793 -25333908.93646675 -25333908.93646675 -8261666.607866313 0 0 0 0 0 39906656.58627983 -14270996.02778327 -14270996.02778327 -956404.2528354044 0 0 0 0 0 52241092.86210388 -10203820.47707731 -10203820.47707731 2700547.706327622 0 0 0 0 0 56446506.54064746 -21479424.98031918 -21479424.98031918 -4107728.25596493 0 0 0 0 0 67200924.38703398 -17757263.50054292 -17757263.50054292 -1878282.806697637 0 0 0 0 0 52556386.45412077 -11109477.5581682 -11109477.5581682 2262136.887111335 0 0 0 0 0 62527069.40517157 -9008355.256147051 -9008355.256147051 3004565.580759901 0 0 0 0 0 68333438.98716506 -17365393.7221009 -17365393.7221009 -1271286.254707748 0 0 0 0 0 61816294.54950565 -9236283.806011887 -9236283.806011887 2646486.139218535 0 0 0 0 0 71450286.07574834 -12025768.52688777 -12025768.52688777 992875.8704546678 0 0 0 0 0 84110238.18474801 -10631611.7910411 -10631611.7910411 -850825.5760198629 0 0 0 0 0 89930636.03916515 -11280094.4231925 -11280094.4231925 -2880971.549006113 0 0 0 0 0 87115949.79240879 -13073834.66725055 -13073834.66725055 -3139384.935263759 0 0 0 0 0 80257705.56219874 -12513709.21910115 -12513709.21910115 -705728.7712598279 0 0 0 0 0 84568278.12210137 -10373833.34428699 -10373833.34428699 -571640.2598153985 0 0 0 0 0 86651821.64439318 -13335809.37025901 -13335809.37025901 -3433201.013302033 0 0 0 0 0 79999152.37530726 -12597334.70773285 -12597334.70773285 -520882.7510879575 0 0 0 0 0 71430864.54620302 -11911627.0947921 -11911627.0947921 891253.3705364936 0 0 0 0 0 74145525.13288368 -8098864.445785767 -8098864.445785767 2395731.716425681 0 0 0 0 0 3843224.791852525 -1433956.974823292 -1433956.974823292 -19870764.15302434 0 0 0 0 0 24940690.36734752 606891.8148696902 606891.8148696902 -2450793.592158747 0 0 0 0 0 20391596.38712729 -16157829.87498193 -16157829.87498193 -9698757.645007726 0 0 0 0 0 24453154.98424077 -16083024.26849027 -16083024.26849027 -9433211.728899414 0 0 0 0 0 21199274.34856705 -130780.6988279617 -130780.6988279617 -3666583.731603936 0 0 0 0 0 39956203.46462303 -14509821.06075908 -14509821.06075908 -82635.83835237505 0 0 0 0 0 39025879.49126532 -107661.5013953376 -107661.5013953376 2039205.525122399 0 0 0 0 0 52229134.1024722 -10907788.53939578 -10907788.53939578 2518263.151547408 0 0 0 0 0 39929046.74106739 -13020083.30085619 -13020083.30085619 -628687.9976715158 0 0 0 0 0 51987200.07033016 -9950202.67194836 -9950202.67194836 2451284.730298295 0 0 0 0 0 52037644.99120139 -172843.6323973259 -172843.6323973259 3730042.299420574 0 0 0 0 0 62976084.43787231 -9791338.470421227 -9791338.470421227 3123195.574053798 0 0 0 0 0 62388483.44443073 -9331332.967439057 -9331332.967439057 2604574.682251556 0 0 0 0 0 68415028.23813072 -5603124.285436166 -5603124.285436166 3741571.899971621 0 0 0 0 0 71259313.26387691 -12029380.02418657 -12029380.02418657 1106841.5756186 0 0 0 0 0 79278509.32547802 -8364292.227710907 -8364292.227710907 1432364.583859108 0 0 0 0 0 84814164.33959252 -10583618.96319593 -10583618.96319593 -588690.5380674908 0 0 0 0 0 79863556.01720354 -12165836.47207105 -12165836.47207105 -566388.1637036948 0 0 0 0 0 79615539.85996786 -8141835.343615375 -8141835.343615375 1595729.822025719 0 0 0 0 0 79336791.49037565 -12516191.18865823 -12516191.18865823 -649551.6809326352 0 0 0 0 0 74529174.95221058 -8160354.16299471 -8160354.16299471 2462388.682847288 0 0 0 0 0 71516784.62622699 -11905796.12123132 -11905796.12123132 1270897.049167448 0 0 0 0 0 68022052.28233784 -5820021.588933044 -5820021.588933044 3464529.789742933 0 0 0 0 0 74200885.91099691 -8006454.494146265 -8006454.494146265 2304061.655823598 0 0 0 0 0 25148863.17108244 -924584.8100045845 -924584.8100045845 -2594086.222485918 0 0 0 0 0 41917318.5692381 572687.8853576339 572687.8853576339 3080540.852604345 0 0 0 0 0 36634332.16383193 -13579243.57750819 -13579243.57750819 -1462757.707996214 0 0 0 0 0 41960996.92647512 -594589.4994968616 -594589.4994968616 2742645.05866049 0 0 0 0 0 54439216.58649664 327773.2086797438 327773.2086797438 4476074.421840761 0 0 0 0 0 49726473.3441779 -10406230.77997692 -10406230.77997692 1774405.713769559 0 0 0 0 0 54230046.88391325 -520863.0179420607 -520863.0179420607 4366767.46037866 0 0 0 0 0 63288095.61041026 386767.6762417796 386767.6762417796 4720184.39389037 0 0 0 0 0 60752183.02006482 -9486988.783668797 -9486988.783668797 2541674.266105916 0 0 0 0 0 61858079.83794589 31259.03572031281 31259.03572031281 4131209.822357222 0 0 0 0 0 68233461.32862739 -5876491.406387739 -5876491.406387739 3613687.820837113 0 0 0 0 0 62675796.30336688 -9097729.437576707 -9097729.437576707 3220318.119447449 0 0 0 0 0 76013015.21976665 -4587103.792712256 -4587103.792712256 3227555.568363869 0 0 0 0 0 79965897.80921936 -8333050.995790829 -8333050.995790829 1693472.951884051 0 0 0 0 0 74183581.91774322 -7967846.012738275 -7967846.012738275 2306674.0842515 0 0 0 0 0 74217495.90757166 -8066244.942693123 -8066244.942693123 2493149.21149559 0 0 0 0 0 68216491.78168619 -5858760.71708158 -5858760.71708158 3434729.099186169 0 0 0 0 0 72351610.19081935 -3885281.471704594 -3885281.471704594 3677081.990489115 0 0 0 0 0 63462581.91490329 -172605.6722555264 -172605.6722555264 4411809.924474724 0 0 0 0 0 70074922.77936246 216193.5518335733 216193.5518335733 4259764.434420069 0 0 0 0 0 67394531.4431978 -5791836.984944785 -5791836.984944785 3503564.122718987 0 0 0 0 0 76210674.03162314 -4468907.468243969 -4468907.468243969 3203288.063265723 0 0 0 0 0 74090035.97406676 -8020324.033143121 -8020324.033143121 2478476.32723261 0 0 0 0 0 72396640.80359797 -3996153.467390425 -3996153.467390425 3640517.462896296 0 0 0 0 0 68422883.10968615 -5603260.562603916 -5603260.562603916 3780003.785431872 0 0 0 0 0 69261981.80391414 27878.92710381711 27878.92710381711 3975783.250403274 0 0 0 0 0 72325700.51163676 -3978353.599992614 -3978353.599992614 3730790.139642715 0 0 0 0 0 74655672.9270726 37392.38035762125 37392.38035762125 3863084.148855134 0 0 0 0 0 76374277.40457894 -4590604.039761816 -4590604.039761816 3372119.37903899 0 0 0 0 0 72255678.63806514 -3872955.082203663 -3872955.082203663 3665670.061957212 0 0 0 0 0 70096505.16995139 -55978.75728775977 -55978.75728775977 4200115.685803037 0 0 0 0 0 75188947.29102416 179323.4415742106 179323.4415742106 3873893.0994757 0 0 0 0 0 71817235.96272874 -3989478.528502576 -3989478.528502576 3657388.031805613 0 0 0 0 0 </DataArray>
      </PointData>
    </Piece>
  </UnstructuredGrid>
</VTKFile>
