<?xml version="1.0"?>
<VTKFile type="UnstructuredGrid" version="2.2">
  <UnstructuredGrid>
    <Piece NumberOfPoints="1812" NumberOfCells="3467">
      <Points>
        <DataArray type="Float64" NumberOfComponents="3" format="ascii">0.3290772530756401 0.02466093080544896 0 0.33 0 0 0.3477603422905586 0.01839861105341754 0 0.3548148148147337 0 0 0.3507861334052509 0.04005222258411303 0 0.3672204995160676 0.0214932438341765 0 0.3263141726786753 0.049183947676368 0 0.3796296296294943 0 0 0.3448127603585294 0.06610442189858874 0 0.3780611605573652 0.0425232455597328 0 0.3919769333065202 0.02151903925177228 0 0.404444444444236 0 0 0.3217262110736951 0.07343190797033793 0 0.3650109033840933 0.05964178392983693 0 0.4165442445722782 0.02058052294532029 0 0.429259259258989 0 0 0.3391261126044723 0.09007757257192724 0 0.3649055898503318 0.08365216733339799 0 0.3864888727489889 0.06587686227335215 0 0.4058761818286128 0.04596939215959448 0 0.4405772947657787 0.02080084709985549 0 0.3153390260015787 0.09726920725684815 0 0.4285630946167989 0.03820887713581589 0 0.4540740740737054 0 0 0.331389782007059 0.1159582995615523 0 0.3533509462037517 0.1047617729990905 0 0.3914107554151015 0.09134599131653218 0 0.4098477245426514 0.07378689454961446 0 0.4284315989202339 0.05863137714667976 0 0.4668525492439451 0.02196851156224951 0 0.4480127478803628 0.04291429821036039 0 0.3071883371964377 0.1205625376743858 0 0.3729245579637736 0.1079930397932544 0 0.4788888888884407 0 0 0.316989419971821 0.1387378323742147 0 0.3551548351400844 0.1251882976242687 0 0.4149291095989798 0.09936475714925143 0 0.3964254772509267 0.1158107081002692 0 0.4334400653383186 0.08289615664424299 0 0.4522340780300758 0.06660495341394826 0 0.4912962962958274 0.01450852355969636 0 0.4708385766176657 0.04956002347906797 0 0.5037037037032137 0 0 0.297319726619258 0.1431816334696936 0 0.3381281364473843 0.1417027333316622 0 0.3779400200285454 0.1323558881973517 0 0.4916193393547786 0.03491121915192943 0 0.5155147264493944 0.02209116480758801 0 0.3076477269636628 0.1624242386286197 0 0.3256145625129711 0.1581321093557302 0 0.3593233659322229 0.1490653393899266 0 0.4384446285536586 0.1071604122177423 0 0.4199361642825134 0.1236123261958419 0 0.4014488670649475 0.1400839342300094 0 0.4569596620756636 0.09069448160533503 0 0.4754804443950108 0.07422038363777612 0 0.4938730199048005 0.0581428547956639 0 0.528518518517892 0 0 0.2857883835153974 0.164999999538352 0 0.3427596712612405 0.165791343527768 0 0.382932978999989 0.156603801948471 0 0.5105263283628497 0.04530514595357993 0 0.5409271608251781 0.02148954704998107 0 0.5533333333326754 0 0 0.2973950200830063 0.1848972762637482 0 0.3225478579207471 0.1820043989163864 0 0.3642198883290629 0.173633414191809 0 0.4619603416931678 0.1149647770553633 0 0.4434483566177251 0.1314306902588108 0 0.4249419354473413 0.1478986675760378 0 0.406433913964339 0.1643630990332189 0 0.4804826420516641 0.09849633850217543 0 0.4990134146757 0.08202294354339053 0 0.5342389869493429 0.04587637116373335 0 0.5173855691559318 0.06550411984898497 0 0.5657407600236528 0.0203200943508097 0 0.2726587958555121 0.1858956186751646 0 0.3457277194962421 0.190697135196451 0 0.3878720693808646 0.1810194001096686 0 0.5538405116648929 0.0374116160697384 0 0.5781481481473866 0 0 0.2855771411838927 0.2101435945636222 0 0.3090199521256669 0.2016582935559767 0 0.3271293505021492 0.2071132266495216 0 0.3691115430207552 0.1983427621748444 0 0.4669690804670152 0.1392322812528209 0 0.4854920779879626 0.122765886163247 0 0.448451079291724 0.1557030613108026 0 0.4299341026991274 0.1721686521936192 0 0.4114213047943107 0.1886231928901923 0 0.5040115358579571 0.1062970267608967 0 0.5225520835271635 0.0898153757609518 0 0.5411581918168266 0.0731569899800829 0 0.5594640016454442 0.05772361831126684 0 0.5905647037920246 0.02124064458802897 0 0.5760353844308249 0.04099873564183429 0 0.6029629629621371 0 0 0.2580043896129065 0.2057516341137332 0 0.3505024454469452 0.2147945080109271 0 0.3928197339843233 0.2054138279563803 0 0.6147850966795247 0.0207394917559048 0 0.6277777777768812 0 0 0.2660354752083496 0.2294035904898122 0 0.3095105846892885 0.2225772540929119 0 0.3315470401577503 0.2306871043840231 0 0.3741128864144216 0.2225193637513387 0 0.4719761752458378 0.1635070506703933 0 0.4905031301309139 0.1470339805126678 0 0.5090257377270575 0.1305709128955582 0 0.4534471286896889 0.1799734770973241 0 0.4349250294854342 0.196430402345225 0 0.4164118842229841 0.2128829309449493 0 0.5275762672643628 0.1140632179156658 0 0.5461520790886206 0.09748538663253746 0 0.5647167515539725 0.08095681941184017 0 0.5835061993874543 0.06435055757990225 0 0.6036031497470141 0.04490015421878021 0 0.6389935515711938 0.01969725786343581 0 0.241907118200752 0.2244570029288625 0 0.2895171280496962 0.237776273081605 0 0.3555897160792275 0.2391239874341718 0 0.397780528194028 0.2297465081110407 0 0.6254137307624507 0.0371588052115315 0 0.6525925925915987 0 0 0.2477497814038131 0.2484777948331383 0 0.2714181047242128 0.2559296731647976 0 0.3135612023329354 0.2471120632699129 0 0.3371029200933782 0.2555550241059145 0 0.3791268859013064 0.2467270796406775 0 0.4769763191459779 0.187794118611364 0 0.4955154421270967 0.1713139111474323 0 0.5140502559661635 0.1548365952468509 0 0.5325803252316177 0.1383587982966326 0 0.4584475874640624 0.2042510512426852 0 0.4399137625501233 0.2206934587113098 0 0.4213175571010657 0.237392427432306 0 0.5511358421537609 0.1218518071474183 0 0.5697111576517748 0.1052963081152184 0 0.5882762940738013 0.08876926695240489 0 0.6068288941120608 0.07226935938244233 0 0.6262219233571705 0.05670904074539614 0 0.6649854432336192 0.02343654994834422 0 0.6455467477117767 0.04131957653036501 0 0.22445700400432 0.2419071172028733 0 0.2950911061181822 0.2641090809555035 0 0.3605777547330665 0.2633520910735562 0 0.4026083956222111 0.2543695373376331 0 0.6774074074063781 0 0 0.2286900013370919 0.2656901975130597 0 0.2525403453415387 0.2732222059223987 0 0.2764973199697249 0.2805542187655542 0 0.3185984348893173 0.2719676429995195 0 0.342063182728248 0.279783547045302 0 0.3840658430999134 0.2711555390534485 0 0.5005211120907932 0.1956065047283605 0 0.4819830695232344 0.2120751411741752 0 0.5190604087612074 0.1791261434602389 0 0.537599929523483 0.1626421992328058 0 0.5561391558405526 0.1461554053229105 0 0.4634382223477083 0.2285453859970476 0 0.4448804873974853 0.2450512934300566 0 0.4262158747236889 0.2617756206105378 0 0.5747044892585571 0.1296314418938163 0 0.593277218748149 0.1131002279582561 0 0.6118395046641179 0.09658709893633116 0 0.6303914673611982 0.08008502031252557 0 0.6490641336929408 0.06403846605012915 0 0.691186411328102 0.01996498724632402 0 0.667410070040239 0.04874020447399106 0 0.2057516351193665 0.2580043888109407 0 0.3000337548840351 0.288383010769096 0 0.3655091041552007 0.2875162156121827 0 0.4075142723438999 0.2785055672440707 0 0.7022222222212797 0 0 0.6835601627090981 0.03819146930941938 0 0.2088575852771715 0.2817950579402375 0 0.2336318670569428 0.2897585344184831 0 0.2577718962753719 0.2974210870654899 0 0.2814416487476838 0.3044737257683682 0 0.3234471018979397 0.2962310105124547 0 0.3470489792382188 0.3040158051398565 0 0.3889369708215286 0.295102155425485 0 0.5240670025708896 0.2034284760041239 0 0.5055237693597227 0.2199092667798214 0 0.4869799268080236 0.2363772162124963 0 0.5426060692224079 0.186939742013663 0 0.5611553769548023 0.1704500373351951 0 0.5797070956114483 0.1539476626527791 0 0.4684397526265293 0.2528396654522703 0 0.449908763620242 0.2693251419679204 0 0.4312779870997517 0.285912713956552 0 0.5982797686920621 0.1374259440782351 0 0.61685316215776 0.1209017554752988 0 0.6354105645313255 0.1044028453174096 0 0.653979972430027 0.08800438322933586 0 0.672469472363607 0.07158917043242669 0 0.7146296296287241 0.01749517124036163 0 0.7044116995835511 0.04041201738612531 0 0.6906625935783905 0.05618246751530409 0 0.7270370370361676 0 0 0.7518518518510555 0 0 0.7394444444436117 0.02149026001989936 0 0.1858956196144319 0.2726587952151305 0 0.3048127041679842 0.3125861474902573 0 0.3705578259618474 0.3117405798810805 0 0.4126385077882504 0.3024926943503115 0 0.7642592592585037 0.02026348918001098 0 0.7766666666659507 0 0 0.1873547267769993 0.2997702288298769 0 0.2143655087014811 0.3063187914065137 0 0.2392090145395759 0.3140144268447695 0 0.2626455874324279 0.3214602668243733 0 0.2861547377859904 0.3289637576199155 0 0.3282831037804361 0.320500934692416 0 0.3520102570076687 0.3282610642755303 0 0.394080651332255 0.3192343444103095 0 0.5290733926024476 0.2277363574680981 0 0.5476239879106712 0.2112457213506971 0 0.5105240240917285 0.2442165355698687 0 0.4919788374860541 0.2606874598003157 0 0.5661743507078075 0.1947531631545617 0 0.5847289639695197 0.1782507555463701 0 0.6032907465045674 0.1617452811287552 0 0.4734411955162263 0.2771618106630103 0 0.4549050335438354 0.2936317920572637 0 0.436375671209584 0.3100956176552973 0 0.6218646104236433 0.1452246915548477 0 0.6404252634698819 0.1287226467197892 0 0.6589894526036082 0.1122124484045718 0 0.6775417642535717 0.09575913774475453 0 0.6961153987166329 0.07919135904457507 0 0.7323344480306977 0.04475924833636961 0 0.7146736259056637 0.06268348218682314 0 0.7518518518510563 0.03574711576688991 0 0.7890740740734019 0.0214902600199008 0 0.8014814814808531 0 0 0.8511111111106724 0 0 0.875925925925582 0 0 0.864234925262936 0.02239881074473123 0 0.8389068005443951 0.01668091821077354 0 0.826296296295737 0 0 0.8164218827675217 0.02530198897405149 0 0.1650000004140786 0.2857883830097964 0 0.3095158779118201 0.3369644455792935 0 0.3755935416461844 0.3359022887252775 0 0.4177896573070337 0.3266821528570411 0 0.7734607443995032 0.039959841486588 0 0.8883333333330139 0.01608823996309471 0 0.8410148017596475 0.03957286496020976 0 0.9007407407404482 0 0 0.9255555555553578 0 0 0.9132565455101189 0.0221396046113784 0 0.1624140856898295 0.3096297665071095 0 0.1968718679678434 0.3222749352005131 0 0.2202679905903537 0.3302995652052025 0 0.2438297294324619 0.338240930807274 0 0.2674664978134838 0.345647672840423 0 0.2908134622526127 0.3534667924596016 0 0.3333240663104564 0.3447242420918695 0 0.3570454161774325 0.3524713822106874 0 0.3991633361203042 0.343538619168294 0 0.5526311324398021 0.2355617326658616 0 0.5340758390222057 0.252049776491689 0 0.5711905053629152 0.2190648905508976 0 0.515522275977881 0.2685402160668147 0 0.4969744511151041 0.2849983315997202 0 0.589750323911194 0.2025639229100756 0 0.6083121105811378 0.1860582823807501 0 0.6268752328959983 0.169553054471469 0 0.4784002353656192 0.3015672815762395 0 0.4598747471597245 0.3179686431459853 0 0.4413689760614288 0.3343696468387066 0 0.6454378078729972 0.1530495528787476 0 0.6640004471696335 0.1365447067959722 0 0.6825656536645762 0.1200343787773243 0 0.7011306357429794 0.1035230865802935 0 0.7196929184340475 0.08701246763238235 0 0.7381502718698443 0.07051363686482595 0 0.7570779941622764 0.05547599946377331 0 0.7978753307413605 0.04457410093641026 0 0.8895138849828448 0.03586285761335464 0 0.8661342330349007 0.0465512781477089 0 0.9371185286786125 0.01643406614311053 0 0.950370370370224 0 0 0.9751851851851336 0 0 0.9604164173529302 0.02261974492386779 0 0.1431816342877394 0.2973197262253079 0 0.1784327828897505 0.3207063683733316 0 0.3145508252903744 0.361220303478173 0 0.3805495922406977 0.3602796834535357 0 0.4227922470941286 0.3510075419151114 0 0.7806259563104214 0.06220808355254275 0 0.8216000083277615 0.05276026237308903 0 0.8462536963992724 0.0620193573193563 0 0.935993754604431 0.03741098118030646 0 0.9818661039166057 0.01818407024132333 0 1 0 0 0.1410187125783315 0.3219593476917742 0 0.1596306368966954 0.3330196511129248 0 0.178959913450931 0.3393369983281462 0 0.2018359521341633 0.3465257614711665 0 0.2252646310084213 0.3544542196516381 0 0.2487551675487775 0.3622349892112589 0 0.272279588662502 0.369929030259873 0 0.2957816799690199 0.377708647561572 0 0.3383752937541185 0.3689584763094209 0 0.3618192501938983 0.3767697661262163 0 0.4041162520852193 0.3679293325438314 0 0.5761995634131735 0.2433877884755007 0 0.5576370559023731 0.2598862606506355 0 0.5390737389911614 0.2763877423346089 0 0.5947611299773874 0.2268873939250825 0 0.5205067651610331 0.2929014506046859 0 0.5019280852997953 0.3094479827899598 0 0.6133212509537825 0.2103859093990888 0 0.6318847795260223 0.1938836883507083 0 0.6504500346294679 0.1773794881146775 0 0.4832614789736361 0.3262548350041869 0 0.4646571233915241 0.3429106457977369 0 0.4461248050584989 0.3593817130233749 0 0.6690153472674223 0.1608740104460699 0 0.6875786117838114 0.1443679846993359 0 0.7061454570424637 0.1278583620524827 0 0.7247112723663174 0.11134611739911 0 0.7432774208189061 0.09483335653366799 0 0.7618452238674751 0.0783172670359394 0 0.8040671634502812 0.06960899402962981 0 0.8932358480385251 0.06255374085947414 0 0.9136335572235775 0.05004009695940603 0 0.8704897227459739 0.07136754625234717 0 0.9795377420586799 0.03825381024092724 0 1 0.02499999999995287 0 0.1205625383695983 0.3071883369235869 0 0.3194844102349649 0.3854794295319147 0 0.385442677220333 0.3845463616812941 0 0.4276267785630697 0.3757597408431024 0 0.7854337321723612 0.08613779333238081 0 0.8277957825782165 0.07726048065504425 0 0.8514827428287817 0.08509226346071952 0 0.9352152905893345 0.06248766295456605 0 0.957567131541738 0.04977783338120937 0 0.1153279426828525 0.336012413988859 0 0.1391935554434067 0.3467590619949619 0 0.1604506364155789 0.3557439817754399 0 0.1833470876569236 0.3629246773030032 0 0.2068093876131531 0.3707497792482791 0 0.23029519428879 0.3785361892531146 0 0.2537851983676759 0.3863481420036806 0 0.2772824732849912 0.394159541562299 0 0.300807931511865 0.4019637278999418 0 0.3428812062822164 0.3932915994965436 0 0.3666213154885916 0.4010710936058159 0 0.4090402226555248 0.3923546989329605 0 0.5997742890855455 0.2512140630295613 0 0.5812074644438787 0.2677190747529451 0 0.5626399474279102 0.2842284720898995 0 0.5440677086981822 0.3007476626081341 0 0.6183333872847133 0.2347106244003826 0 0.5254613583802259 0.317339572168488 0 0.5068553731736789 0.3339334709279783 0 0.636895913886359 0.2182115885330546 0 0.6554636701263493 0.2017129918884271 0 0.6740317110256113 0.1852061092194791 0 0.4882093364445975 0.3506780717540457 0 0.469609825833974 0.3672229639900663 0 0.4510822947229439 0.3836823812930407 0 0.6925890704452877 0.1686884078633445 0 0.7111567354111019 0.1521905368282127 0 0.729719931231585 0.1356678617566468 0 0.7482970399607967 0.1191718262514591 0 0.7668658715475087 0.1026549753048071 0 0.8090892638827476 0.09388108384668306 0 0.913144803251791 0.07932733074366774 0 0.8917698944093132 0.08219160458757216 0 0.8748190929372101 0.09375067264496985 0 0.9784800336079593 0.06272122387550884 0 1 0.04999999999989965 0 0.09726920781918051 0.3153390258281221 0 0.3243459006613066 0.4097649764401416 0 0.3902779269933121 0.4088644186376985 0 0.4325735458286236 0.4001780082744086 0 0.7904610277625698 0.1104393685277462 0 0.8328141761228973 0.1015850698028329 0 0.8565482073811164 0.1092957859343451 0 0.9383777816389591 0.08867376418390693 0 0.9571684556330188 0.0743942333130789 0 0.0908820227038411 0.3391763252588054 0 0.1192670609572117 0.3629810116835155 0 0.141484165168862 0.3716276840463262 0 0.1648510897141037 0.3793361378455522 0 0.1883185800095777 0.3871526458207753 0 0.2117905148634212 0.394966152519339 0 0.2352688712691891 0.4027926232200001 0 0.2587777669153802 0.4106073483746669 0 0.2822935346856642 0.4184193635240298 0 0.3058225000716859 0.4262264574571056 0 0.3478770096022575 0.4175707853482769 0 0.3715046898472574 0.4253680048038152 0 0.4139424361930027 0.4166701156320396 0 0.6047859649576532 0.2755467427788354 0 0.6233507879895808 0.2590395124505624 0 0.5862139185890767 0.292054324791441 0 0.567643268683414 0.3085572488410246 0 0.5490374285679154 0.3251508317255638 0 0.6419109692513969 0.2425358611010147 0 0.5303493505868031 0.3419302267732081 0 0.5117620136695128 0.3584792365212613 0 0.6604731690572219 0.2260511388694739 0 0.6790428907185287 0.2095389724661914 0 0.6976183741856941 0.1929953453139312 0 0.4931648628487288 0.3749983121768699 0 0.4745994341886961 0.3914140839202028 0 0.4560848446483141 0.4079188649836823 0 0.7161489248686774 0.1764744061788924 0 0.7347385472628793 0.1599630373107981 0 0.7533154524979635 0.1434816431502765 0 0.7718882531467617 0.1269980628228628 0 0.8141139211321768 0.1181781283419987 0 0.8987758629632715 0.1005957105551913 0 0.8801553088625974 0.117097954368688 0 0.920994590809072 0.1066346801336122 0 0.9789285260356273 0.08687397750644051 0 1 0.07499999999985282 0 0.07343190839507768 0.321726210976751 0 0.09856833527558084 0.3581691150677636 0 0.329348929467324 0.4340366488424355 0 0.3951162205551634 0.4331762371702663 0 0.4375585056697874 0.4244992664884041 0 0.7955185746908847 0.1347458817535492 0 0.8378519743358006 0.1259022094951245 0 0.8615497790705159 0.1336715981771326 0 0.9598465399105121 0.09913205665393421 0 0.9446335831732777 0.1147517096691806 0 0.06406863068888002 0.3456731966763421 0 0.0790726933584589 0.3639882737073946 0 0.1240002052495442 0.3876435943803863 0 0.0982758092096533 0.3817528354042412 0 0.146507645473521 0.3957468924386381 0 0.169819616045836 0.4035689498087319 0 0.1932908737484338 0.4113975068222208 0 0.2167699420100017 0.4192362505321509 0 0.2402614232974457 0.4270593853240712 0 0.2637713864643558 0.4348761564099787 0 0.2872935207330393 0.4426901059067519 0 0.3108188327590737 0.4505049042838594 0 0.3528767787269951 0.4418491570785931 0 0.3764638734203427 0.449665157959188 0 0.4189120243359719 0.4409778255552058 0 0.6097944638527725 0.2998879753456527 0 0.628370821011916 0.2833749233078766 0 0.6469410392275915 0.2668655428964726 0 0.591219313093129 0.3163907928819155 0 0.5726470790682173 0.3328872786529942 0 0.5540566647229483 0.3494367958719987 0 0.6655052316144523 0.2503665675585153 0 0.5352948954089146 0.36635332588274 0 0.516737680312525 0.3827687495734698 0 0.6840689761179155 0.233867206957901 0 0.702667024183766 0.2173179655306673 0 0.7212838763670747 0.2007374452006669 0 0.4982327290317946 0.3991602769419902 0 0.4797062171258888 0.4155664865267416 0 0.4611160500209806 0.4321986011143346 0 0.7398222890460222 0.1842414539724053 0 0.7583865402886641 0.1677446126051957 0 0.7769498695938802 0.1512840584184919 0 0.8192927899910123 0.1424184707919865 0 0.903606013336135 0.1245981076152737 0 0.8851075257055716 0.1411197837412661 0 0.9274295004909987 0.1318614580344534 0 1 0.09999999999981467 0 0.9797511356289614 0.1118027676995142 0 0.04918394795157357 0.3263141726371947 0 0.3343560053762801 0.4583184011639614 0 0.4003538050365805 0.4574620361275121 0 0.4425182873018102 0.4487745096171368 0 0.8006422164690581 0.1590173929780209 0 0.8429364223141067 0.1502239181582554 0 0.866500882310541 0.157983455440999 0 0.9629779202881751 0.1232702243959762 0 0.9515738227516191 0.1392571593621231 0 0.03839907693726518 0.351936187631331 0 0.05469448199863473 0.3699390237956708 0 0.07073102724879157 0.3883578467501009 0 0.1276699542868539 0.4122573012806752 0 0.1097924908798322 0.4031345907384097 0 0.1512208423759261 0.4200476872701573 0 0.1747435115760374 0.4278555505413203 0 0.1982393390795901 0.435685440453167 0 0.221739147960874 0.4435104480863048 0 0.2452442282124253 0.4513348375264268 0 0.2687607906830984 0.4591544995014732 0 0.2922847931602404 0.4669750747755249 0 0.3158169243074882 0.4747928331116292 0 0.3579873038273714 0.4661206811986364 0 0.3816433454252693 0.4739326556440995 0 0.4239774044135646 0.465275889968002 0 0.6333814948899742 0.3077263502701703 0 0.6148020521007626 0.3242311698600224 0 0.6519660865974358 0.2912095449212653 0 0.6705426410688288 0.2746975446842513 0 0.5962217832093133 0.3407264756884943 0 0.5776475433039879 0.3572262171495246 0 0.5589750485558675 0.3738757606252139 0 0.6891172266578215 0.2581917026817414 0 0.5403753418020059 0.3904664586643635 0 0.5218346211614495 0.4069887956573577 0 0.7076958581340058 0.2416600577187316 0 0.7262921695793786 0.2251087655265817 0 0.7449173306921848 0.2085503048466248 0 0.5033535585534797 0.4232252337972989 0 0.4847443318701203 0.439799534592894 0 0.4661319647283493 0.4564509160121381 0 0.7635117250657314 0.1920179553020634 0 0.7820435006125145 0.1755477531849621 0 0.8243122323384033 0.1667927203023511 0 0.9090868195129675 0.148223415014632 0 0.8903434502373557 0.1652217953182105 0 0.9327932446176901 0.1559121501855273 0 1 0.1249999999997738 0 0.9760818880138178 0.1395466186140394 0 0.0246609309410076 0.3290772530654814 0 0.08981445595792484 0.4050596014309591 0 0.3393996715587021 0.4825993537465607 0 0.4053241753922234 0.4817553074065661 0 0.4475437313226527 0.473014887360181 0 0.8057363315876531 0.1833154734167846 0 0.8479000304776806 0.1745446567126481 0 0.8716579911047823 0.1819588569840351 0 0.9579564497087876 0.1641613808417229 0 0.01840467357416554 0.3477661511690116 0 0.0368681824275823 0.3760889201784264 0 0.04723601827855266 0.3933675051415201 0 0.06209613988623114 0.4130185081326868 0 0.1069688165291733 0.4257523976790194 0 0.1326480233007362 0.4365162404567949 0 0.156175300575115 0.4443231987278488 0 0.1796955550125701 0.4521392662176059 0 0.2031970041696235 0.4599736205193997 0 0.2267153892320009 0.4677998681105761 0 0.2502348127180882 0.4756195118726351 0 0.2737485883460608 0.4834419806455224 0 0.2972750455414594 0.4912678239594332 0 0.3208161074897887 0.4990900286640176 0 0.3630593261672364 0.4903921712098093 0 0.3866957976961297 0.4982304333671038 0 0.4289836983067584 0.4895778093888185 0 0.6569786557194911 0.3155651813803206 0 0.6383934661402707 0.3320771095746967 0 0.6198079475337974 0.3485814293166021 0 0.6755659962197759 0.2990428360271801 0 0.6941509010468223 0.2825255395105168 0 0.6012184369631388 0.3650753336362814 0 0.5826322925652181 0.3815804581769059 0 0.5639972723186633 0.3981409760705126 0 0.7127425477604943 0.2659897671929058 0 0.5454125330546156 0.4146711441768869 0 0.5269096882632823 0.4310912219344191 0 0.7313275680845164 0.2494496660638966 0 0.7499215086720742 0.2329133610630104 0 0.7685248661662825 0.2163839893744327 0 0.5083523634421144 0.4475555895671607 0 0.48974657928413 0.4641349946529017 0 0.4711228085704017 0.4807829687353807 0 0.7871315193001452 0.1998557308804348 0 0.8293279175988092 0.1911193659878628 0 0.9141003436236392 0.1726171638622248 0 0.8956071391666339 0.1894280968661062 0 0.9373017375337755 0.1804484831962166 0 1 0.1499999999997036 0 0 0.33 0 0.01961697483078856 0.3676233253709071 0 0.08324458500125047 0.4253954162437077 0 0.3444411951983682 0.5068898863163388 0 0.4104188363894256 0.5060849854145028 0 0.4525718370532545 0.4973376279754878 0 0.8106852661622574 0.2076180155142064 0 0.8531448667322521 0.1985881930665873 0 0.8769720503581013 0.2060642525660208 0 0.9816340229511493 0.1630391404180838 0 0.9551537078556818 0.1895113718309231 0 0 0.3548148148148881 0 0.02366547199876628 0.3934299386512741 0 0.03946641553820806 0.4109628226661957 0 0.06675850705545067 0.4380193197495474 0 0.1141103619768384 0.4529622438142493 0 0.1376267912104174 0.4607838857856335 0 0.09058500557747234 0.4451272542263262 0 0.1611370083275241 0.4686082794343558 0 0.1846466193002904 0.4764411947884737 0 0.2081773995062988 0.4842694373648354 0 0.2317070107661483 0.4920885720199666 0 0.2552289802128822 0.4999054358205581 0 0.2787225652067487 0.507739086506318 0 0.3022669212154292 0.5155702459598286 0 0.3258172564422751 0.5233957055230349 0 0.3680169047173962 0.5146907255217028 0 0.3917121980852275 0.5225267550059425 0 0.4339897431838469 0.513890252819179 0 0.6805811231964261 0.32340166587542 0 0.6619913436712916 0.3399256815421926 0 0.6434016558123773 0.3564408489542836 0 0.6248102909769229 0.3729376381858339 0 0.6991700225969415 0.3068785490846949 0 0.7177123314800804 0.2903018714600639 0 0.6062216744079317 0.3894094465814316 0 0.5876385711105234 0.4059107198553349 0 0.5690824653555113 0.4223944508551398 0 0.7362982463825978 0.2737655536649066 0 0.5504887005961514 0.4389135520265802 0 0.5319267152922534 0.4553926915181561 0 0.7548873050131768 0.2572281183219418 0 0.7735171981369354 0.2407324007857291 0 0.7920911522194383 0.2241662235230579 0 0.5133631185334727 0.4719266182625534 0 0.4947531339376178 0.4885624100378834 0 0.4761447617730177 0.50516510979209 0 0.8342860278121946 0.2151238423619227 0 0.9196171270837242 0.1968635406397503 0 0.9010085212086844 0.2135372750333493 0 0.9771947152846163 0.1875659834721558 0 0.9430558036989721 0.2047400567236996 0 1 0.1749999999996307 0 0 0.3796296296297976 0 0.04348039372306706 0.4299211580966209 0 0.3494130825254077 0.5312041428433014 0 0.4153873491178693 0.5303538448525936 0 0.4575577331997529 0.5217185536852725 0 0.8158282555344891 0.2316416965434485 0 0.8582276804855523 0.2226309149195793 0 0.8821861034507039 0.230242178526468 0 0.9616395598737416 0.20455621946396 0 0 0.4044444444446639 0 0.02148279520369024 0.4191625659714191 0 0.04809908011042541 0.4537166734689868 0 0.07205009078900823 0.461579545239191 0 0.1190910212784755 0.4772386238602664 0 0.09557109104249639 0.4694116330158209 0 0.1425897024413112 0.485051627375087 0 0.1661071006513714 0.492892308696283 0 0.1896127201496366 0.5007376405041146 0 0.2131762606468171 0.5085653678754557 0 0.236709891733869 0.516390291775255 0 0.2602209172974992 0.5242170463461419 0 0.283723891435523 0.5320481884892264 0 0.3072612340071453 0.5398819798871085 0 0.3308254908866375 0.5476932662161684 0 0.3730763178943322 0.538996721961866 0 0.3968058176106002 0.546835784388528 0 0.4389884445912844 0.5382210931038973 0 0.6855989708005521 0.347764203153933 0 0.7041376353251456 0.3311200307109858 0 0.6670053716359622 0.3642913702073436 0 0.6484130946674908 0.3808048244579846 0 0.6298304974460733 0.3972719722516866 0 0.7227331355390032 0.3144652778377005 0 0.7412026679735653 0.2978760864104022 0 0.6112513721788508 0.4137237458300841 0 0.592667772667439 0.4302332368044096 0 0.5740812582573308 0.4467332424883904 0 0.759942064410709 0.2813080440587959 0 0.5555039812914796 0.4632332270088725 0 0.5369286078397852 0.4797788314417522 0 0.7785534859770593 0.2647888799409276 0 0.797322496562004 0.2482483868163189 0 0.5183972702741497 0.496325454487629 0 0.4997281145066586 0.5130061449320679 0 0.4811285206919571 0.5295526495991241 0 0.8396991390470105 0.23915412967954 0 0.9256495817562214 0.2210819367510612 0 0.9057840375161944 0.2379309600792439 0 1 0.1999999999995579 0 0.9544360273899093 0.2278712338834097 0 0.9783575451395288 0.2130924514096117 0 0.02241547775361405 0.4457255982648826 0 0.3544929234157252 0.5555076971490536 0 0.420401405655734 0.554701299209581 0 0.4625401922116554 0.5460452665908497 0 0.8210769406332866 0.255770504654629 0 0.8634759150475422 0.2466816630039632 0 0.8871509135317562 0.2545207366891967 0 0 0.4292592592595735 0 0.05350969879468399 0.4780341553108907 0 0.03117837424801704 0.4716251531571973 0 0.07702974174530888 0.4858647390415279 0 0.1240227372404373 0.5015112577278066 0 0.1005436545860326 0.4936852161913819 0 0.1475181496827587 0.5093706765473316 0 0.1710529167628759 0.5171977391986127 0 0.1946011430714606 0.525046639001413 0 0.2181720997698946 0.5328778225435995 0 0.2417196191953195 0.5407058452307174 0 0.2652253062202882 0.5485386961200407 0 0.2887302582461857 0.5563581777308553 0 0.3122950084835824 0.5641693757672958 0 0.3359367884996381 0.5720143961982156 0 0.3782091694143944 0.5633695962481244 0 0.4018429288953189 0.5712148344703981 0 0.4439357847821788 0.5625426428886247 0 0.690618385826852 0.3721310410513988 0 0.7092175522740416 0.3554253806231332 0 0.7279031377864202 0.3386443704541965 0 0.6720173024296745 0.3886630024976299 0 0.6534254411829561 0.4051717093636942 0 0.6348302935024946 0.4216857305330098 0 0.7466133189901567 0.3218564495334593 0 0.765145382130562 0.3054926412598749 0 0.6162311162040709 0.438225858500162 0 0.5976325096608426 0.4547706042203195 0 0.5790482843371216 0.471275463973257 0 0.78372445334852 0.2889181845301052 0 0.5604622938184521 0.4878018264892038 0 0.541907794285134 0.504318959948526 0 0.8024101399449531 0.2723043579662009 0 0.5233209919065851 0.5208363392619575 0 0.5047068872232431 0.5373916561815187 0 0.4861079137346033 0.5538983097053295 0 0.8449183787024126 0.2633511564286316 0 0.9305265643014905 0.2455559707625413 0 0.9108327183427698 0.2623644192024103 0 1 0.224999999999485 0 0.9783493649054522 0.2374999999994485 0 0 0.454074074074455 0 0.01265633469797602 0.4664814814819019 0 0.3595795821704133 0.5798548466969164 0 0.4253508506926837 0.5789975465989979 0 0.4674844071790886 0.5704109193665747 0 0.8262832340088506 0.2799233004936346 0 0.8685200952689911 0.2711060889572628 0 0.954878904464971 0.2534816535021241 0 0.8921968589228046 0.2789495630451255 0 0.0594065613627475 0.5023671740394664 0 0.03681559108962285 0.4956722502853239 0 0.01627669664467032 0.4890828888974428 0 0.08194846435399185 0.5101678537652242 0 0.1054241643666082 0.5180187449207544 0 0.1288898268141743 0.5258796468518273 0 0.1524466141863824 0.5336914794343737 0 0.1759963665787632 0.5415429588093155 0 0.1996074171702327 0.5493610244371214 0 0.2231688021141407 0.5571983709670784 0 0.2467236727160513 0.5650313624364798 0 0.2702334784311506 0.5728715564868236 0 0.2938006997319548 0.5806870290777006 0 0.3173889939954087 0.5885064514685286 0 0.3410387320460618 0.5963547398913315 0 0.3832441340939856 0.5877013273515739 0 0.4067757641642384 0.595518065254654 0 0.4488272797836301 0.5869353325432844 0 0.6956300929661641 0.3964988570600397 0 0.7142761198742451 0.3798430592683468 0 0.733066240988437 0.3627830839267371 0 0.7516509436017379 0.3462160000931636 0 0.6770307788698662 0.4130332375277856 0 0.6584306801821374 0.429571488914069 0 0.639828197140267 0.4460998818076379 0 0.7703381682778933 0.3296454947967 0 0.7889589940639473 0.3130702053432369 0 0.6212322891162607 0.4626312871049095 0 0.602639943395888 0.4791617802848994 0 0.5840459106701786 0.4956840124977444 0 0.8076018241491716 0.2964304573393658 0 0.5654621349794287 0.5122088740850828 0 0.5468868887241904 0.5287164340017172 0 0.5282937438246087 0.5452320360795568 0 0.5096868087796789 0.5617501686361694 0 0.4910714853220879 0.5782565423657824 0 0.8498886459295709 0.2876983069602642 0 0.9345194777485991 0.2702151213417461 0 0.9158814000780666 0.2867976679274566 0 1 0.2499999999994121 0 0.9782803882529871 0.2631802189185795 0 0 0.4788888888893493 0 0.3646638306366188 0.6042123497539433 0 0.4302775659102084 0.6034021462547108 0 0.4724237872403761 0.5947874221055778 0 0.8312622700746785 0.30427320549251 0 0.8735634203386861 0.2955345608695979 0 0.9574466490171454 0.2775247331808742 0 0.8972434240563516 0.3033806937563711 0 0.06389556877225333 0.5265231357510568 0 0.04099107311904938 0.5200679840750897 0 0.0190502886292451 0.5128136781082064 0 0 0.5037037037042373 0 0.08679963481994654 0.5345199903933056 0 0.110340668385067 0.5423485045949812 0 0.1338657588989269 0.5502014820286014 0 0.1574265495312374 0.5580284091486784 0 0.1810083957513302 0.5658598353624222 0 0.2045895348301391 0.573693244280312 0 0.2281698323036109 0.5815232064281389 0 0.2517259396390925 0.5893631815382987 0 0.2752900119035217 0.5971918917205852 0 0.2988664473318794 0.6050247212921157 0 0.3225153188647178 0.6128792472419983 0 0.346087438344956 0.6207179956631808 0 0.3882365916310755 0.6120345960092011 0 0.4117502981503186 0.6198924221768081 0 0.4538012514709782 0.6113214063583159 0 0.7006184103527595 0.4208433247414493 0 0.7192898293899483 0.4042101690385272 0 0.7380781092423282 0.3872693207882335 0 0.756782725504198 0.3705049409137441 0 0.7753908214372119 0.3539800961765073 0 0.6820245809121561 0.4373891721689543 0 0.6634334018090879 0.4539337087516126 0 0.6448215061414201 0.4704483112863773 0 0.7940120218039454 0.3374112321240085 0 0.8126381387144195 0.3208394021630566 0 0.6262304832485388 0.4869828650288552 0 0.6076522706792746 0.503527806132116 0 0.5890436962870513 0.5200305511581854 0 0.5704677989547996 0.5365706217217467 0 0.5518830807274954 0.5530827664410282 0 0.5332905129777327 0.5695984544352163 0 0.5146503095957985 0.5861240130496133 0 0.4960211723091589 0.6026480998374006 0 0.8549311942495411 0.3121155451040616 0 0.9387444297120943 0.2939171881517417 0 0.920931516695279 0.3112313990808915 0 1 0.2749999999993392 0 0.9790846051735232 0.2878207790717968 0 0.3696849538685768 0.6285601831739576 0 0.435232132165836 0.6278117203973526 0 0.4774116478877088 0.619170185856651 0 0.8363009966088302 0.3286893589891072 0 0.8786061207988342 0.3199621939968615 0 0.9603158273593373 0.3018016466823144 0 0.9022882485031691 0.3278131821066076 0 0.06822075955823491 0.5510095643476172 0 0.04511196868381368 0.5448387735916178 0 0.02166646017661383 0.5381928926748674 0 0 0.5285185185191252 0 0.09175879248643939 0.5588491222944362 0 0.1153057155716078 0.5666842044756281 0 0.1388603362264167 0.5745163882254714 0 0.1624346389646312 0.5823511690607924 0 0.1860165166400862 0.5901890665581355 0 0.2095923717648717 0.5980173841843811 0 0.2331702494407522 0.605858952295967 0 0.256750370710937 0.613699935189394 0 0.2803348035260436 0.6215434435860034 0 0.3039252896708921 0.6293865285206608 0 0.3275156694648217 0.6372292771399769 0 0.3511056181234446 0.6450723876236384 0 0.3933174989802973 0.6363930910178786 0 0.416765728270366 0.644270801224227 0 0.4588056491022949 0.6356933648336646 0 0.7056733573641646 0.44505582983184 0 0.7243645772440819 0.4284263093068877 0 0.7430783298766991 0.411666347073474 0 0.761790395240725 0.394998660072213 0 0.7804169156839806 0.37840782738368 0 0.7990430589076037 0.3618273053632355 0 0.687051301618494 0.4616359429351972 0 0.6684696306067571 0.4781649983992496 0 0.6498659372721041 0.4946973936934139 0 0.8176721370312985 0.3452562734455698 0 0.6312426367938165 0.5112531780854381 0 0.6126008152888998 0.5277728876676777 0 0.5940610821959522 0.5443210060637034 0 0.5754645160841024 0.560889434780584 0 0.5568874390333315 0.5774474966715086 0 0.5382789556046588 0.5939695578431663 0 0.5196513875430735 0.610495446087958 0 0.5010273338374925 0.6270200750039683 0 0.8599718367689305 0.3365398539376921 0 0.9433299950925365 0.3183333261875484 0 0.9259045111512834 0.335584568548027 0 1 0.2999999999992664 0 0.9793053585062567 0.3125293719473917 0 0.3747346193364651 0.6529071752675326 0 0.4402085177590328 0.6522064627881019 0 0.4824219054696667 0.6435476141322658 0 0.8413379607019837 0.3531183416933104 0 0.8836498532996081 0.3443905237040605 0 0.9631816573173332 0.3244480856044329 0 0.9072424377726559 0.3521364418539099 0 0.07332786377828848 0.5752983796537241 0 0.04965995951471774 0.567480242832343 0 0.0249834466136083 0.5651528626093364 0 0 0.5533333333340349 0 0.09674629113333985 0.5831635492489901 0 0.1202995322314759 0.5910010870880075 0 0.1438619260270901 0.5988369531349076 0 0.1674341096116265 0.60667636193514 0 0.1910142718493342 0.6145146190024782 0 0.2145897866820808 0.6223551487168084 0 0.2381669067264795 0.6301995848411021 0 0.2617472225305263 0.6380451383868861 0 0.2853302738534718 0.6458941109732877 0 0.3089227236655345 0.653742750957645 0 0.3325253064840016 0.6615852543130244 0 0.3561435024972865 0.6694202961884091 0 0.3983658381531882 0.66073590919907 0 0.4217755321705908 0.6686470060548894 0 0.4638097301798896 0.6600735695466979 0 0.7108010400063446 0.4693270578475873 0 0.7294117247240506 0.4527426002303832 0 0.7481158117568694 0.4360395849256525 0 0.766816542352655 0.4194143902773143 0 0.7854405115607854 0.4028493619330692 0 0.8040719568823037 0.3862715395702241 0 0.8227040856730496 0.369696059772778 0 0.6921935356161347 0.4858525897164934 0 0.6735805317196341 0.5024224975442961 0 0.6549639428832413 0.5189835335225863 0 0.6363420309394155 0.5355144200056596 0 0.6177833071746502 0.5519918237477426 0 0.5991257405618409 0.5686369536155571 0 0.5804981324914821 0.5852355905919382 0 0.5618973407954218 0.6018174714202145 0 0.5432757029603912 0.6183425451920801 0 0.5246548509509411 0.6348683856015194 0 0.5060449438615435 0.651399990000793 0 0.8650133327288214 0.3609698315237279 0 0.9531236649677879 0.3442266817912836 0 0.9305828502323457 0.3600532203643892 0 1 0.3249999999991935 0 0.9783493649054522 0.337499999999157 0 0.3797615314556299 0.6772665981490398 0 0.4452184102284131 0.676582708033471 0 0.4874325970471131 0.6679314364763977 0 0.8463760247410617 0.3775511812289831 0 0.8886951414929454 0.3688217870948846 0 0.9118292369950951 0.3759890111440765 0 0.07818058966719027 0.5996435249157955 0 0.05540079030980872 0.5916442742831634 0 0.03838623718898841 0.5824496453057707 0 0 0.5781481481489228 0 0.1017345219090115 0.6074844702252005 0 0.1252947759976517 0.6153252171622717 0 0.1488627021432321 0.6231658900264534 0 0.1724352512524938 0.6310073339478939 0 0.1960101373004101 0.6388506250090222 0 0.2195821933944969 0.6466922125729971 0 0.2431523941232186 0.6545439789138249 0 0.2667318254315694 0.6624017651405385 0 0.2903236403605666 0.6702533133055605 0 0.3139230764078482 0.678105302628867 0 0.3375365177192305 0.6859505507139364 0 0.3611532981919824 0.6937965450147709 0 0.4033793584280094 0.6851146518424077 0 0.4267869831139907 0.6930374461193747 0 0.4688143396576477 0.6844621815144964 0 0.7345649575848197 0.4770313415892311 0 0.7159113631304042 0.4936440427823794 0 0.7532121197396529 0.4603950180364969 0 0.7718438659668441 0.4438247237915236 0 0.7904723633719652 0.4272681592662371 0 0.8091054078411366 0.4107042650678926 0 0.827739458268675 0.3941301941491444 0 0.6973216157707715 0.5101406465108458 0 0.6786861027901734 0.5267336425537019 0 0.6600664177843052 0.5432800692530084 0 0.6414579396281882 0.5598002138991411 0 0.6228064378481597 0.5763694828691406 0 0.604140967576699 0.5930143836402343 0 0.5855204742135041 0.6096386096011654 0 0.5669079556584624 0.6261935447424414 0 0.5483026600023247 0.642721271150267 0 0.5296780944562514 0.6592536045050564 0 0.5110614215785023 0.6757887281097951 0 0.8700545744599018 0.3854010696095286 0 0.9759124781737945 0.360856907644136 0 0.9521705116159291 0.3714799610271255 0 0.9326759828065196 0.3807850395286783 0 1 0.3499999999991206 0 0.02075322665498634 0.5921571194528482 0 0.3847730366458322 0.7016477224027957 0 0.4502085299801141 0.7009834057249427 0 0.4924417505775523 0.6923227999562013 0 0.8514155483601388 0.4019802006026212 0 0.8937386311899412 0.393253745964711 0 0.9205253414277578 0.4004712168232333 0 0.08316705355004717 0.623964923039969 0 0.06038843474089779 0.6159643402682691 0 0.03988365789851508 0.6055145682335541 0 0 0.6029629629638107 0 0.1067245716698605 0.6318118969259948 0 0.1302861626406518 0.6396565226927227 0 0.1538560798783825 0.6475000906546176 0 0.177429803313966 0.6553446647663955 0 0.2010041757305205 0.663188532484287 0 0.2245677744624026 0.6710469287795713 0 0.2481291040693195 0.6789077388401683 0 0.2717083176523139 0.686766310423504 0 0.2953166513230287 0.6946232392850149 0 0.3189273278311548 0.7024714852203654 0 0.3425418151169876 0.710321757154695 0 0.3661632670696052 0.7181777851752489 0 0.4083741369504623 0.7095025923552655 0 0.431792832847068 0.7174315091860419 0 0.4738192410578559 0.7088551908740551 0 0.7582329148794615 0.4848457527928729 0 0.7395977487247378 0.5014290582719352 0 0.7209687843961012 0.5179901733861971 0 0.7768680722122886 0.4682572252873384 0 0.7955036770030258 0.4516974437779702 0 0.8141385724700803 0.4351276641694067 0 0.8327767604527332 0.4185595385116759 0 0.7023420748730158 0.5345451230923752 0 0.6837181060577385 0.5510980167532773 0 0.6650954260860554 0.5676496129576578 0 0.6464756228838012 0.5841892860205143 0 0.6278437904717107 0.6007553090477934 0 0.609196881877285 0.6173828206069083 0 0.5905361402522431 0.6340417618833771 0 0.5719244862549815 0.6505749868762685 0 0.5533107356452442 0.667109201283317 0 0.5346929400415402 0.6836440951755386 0 0.516072680020112 0.7001824456824616 0 0.87509801406924 0.4098353720027987 0 1 0.3749999999990478 0 0.9753264527031407 0.3858473132848911 0 0.9482719737614708 0.3959317882845669 0 0.02043278371159229 0.6169019114365835 0 0.3897881576540717 0.726033836684578 0 0.4552264080966278 0.7253703513636245 0 0.4974493922164514 0.7167186024500983 0 0.8564543810865806 0.4264138926801548 0 0.8985890910720431 0.4179891175995043 0 0.9374829460293036 0.4154585788044615 0 0.08798693052857361 0.6482029125836933 0 0.06472843152490766 0.6404172100294032 0 0.04194071194350339 0.6296198354088209 0 0 0.6277777777786986 0 0.1117082054575221 0.6561448476330706 0 0.135277269657037 0.6639911897003148 0 0.1588494412395862 0.6718370785008786 0 0.1824246205872022 0.6796871404430678 0 0.2059893219874037 0.6875358339623556 0 0.2295494574694565 0.695413275903795 0 0.2531118814613222 0.703283799211555 0 0.2767075885434211 0.71114249448416 0 0.3003184907848835 0.7189921806593647 0 0.3239217094384719 0.7268428569863401 0 0.3475443955216395 0.7347018222577463 0 0.3711721311472348 0.7425684700838106 0 0.4133750153884546 0.7338794850891992 0 0.4367859235527586 0.7418157744638462 0 0.4788276550908764 0.733252090167551 0 0.7632519454924658 0.509290897812643 0 0.7818916095477958 0.4927127363170701 0 0.7446199854045628 0.5258478994415462 0 0.7259893538767104 0.542400212867584 0 0.8005288092243439 0.4761416799589275 0 0.8191703787726332 0.4595652101943882 0 0.8378125250940235 0.4429933581209849 0 0.7073634266680984 0.5589540464797527 0 0.6887315236904954 0.5755230955312325 0 0.6701082738607773 0.5920676642980007 0 0.6514871861597038 0.6085975262734278 0 0.6328412578748752 0.6252085009794541 0 0.6141836362346645 0.641855181241164 0 0.5955529026734456 0.6584310605833048 0 0.5769368974438647 0.6749619895603549 0 0.5583215900635801 0.6915002606135722 0 0.5397078453491169 0.7080421403757224 0 0.5210804196182607 0.7245844938642947 0 0.8801389300647814 0.4342712322213127 0 1 0.3999999999989749 0 0.9756037526676504 0.4118152227554959 0 0.9213103396682538 0.4273419196628802 0 0.9548932158404102 0.4205568438126591 0 0.01992242291882586 0.6404324285070513 0 0.3947719414038556 0.7503947984605071 0 0.4602296618279889 0.749768292783265 0 0.502447373934589 0.7411263537713157 0 0.8614914529695862 0.4508500196970016 0 0.9038321410407987 0.4421283793861039 0 0.944099459167388 0.4375111603718729 0 0.0684543395299238 0.6642452437147811 0 0.09291860411778397 0.6725280948757519 0 0.04453978177836573 0.6544745428854659 0 0 0.6525925925936003 0 0.1166986267346086 0.6804814578836577 0 0.1402684416348842 0.6883266958876694 0 0.1638159760556962 0.6961666426686376 0 0.18736998309911 0.7040338177617562 0 0.2109353118360714 0.711917021255781 0 0.2345043389913581 0.7197926524340628 0 0.25809664260701 0.7276655325376629 0 0.2817107237837704 0.7355175210339724 0 0.3052826078436244 0.7433540757615269 0 0.3289156195325418 0.7512158208643421 0 0.3525284888161149 0.759101344111881 0 0.3761808199352289 0.766967126995684 0 0.4182320584903965 0.7583209355123095 0 0.4416067571987429 0.7662785430898098 0 0.4837938534117457 0.7576737497629483 0 0.7869161514642252 0.51715232075046 0 0.76827922407676 0.5337144185791693 0 0.8055599728586709 0.500580460615708 0 0.7496433710053343 0.5502765145847827 0 0.7310104436712931 0.5668089734082304 0 0.8242034525305253 0.4840049923478297 0 0.8428475675109481 0.4674283565715801 0 0.712373674559213 0.5834003810915359 0 0.6937218748340861 0.6000043330977102 0 0.6750900570785531 0.6165768555725248 0 0.6564536625284823 0.6331457147102526 0 0.6378267252152967 0.6497001678135366 0 0.6191902190074561 0.666281988194575 0 0.6005696847183914 0.6828148294302177 0 0.5819615507483388 0.6993513698347169 0 0.5633539621017442 0.7158977489795554 0 0.5447245278097892 0.7324470084791914 0 0.5260894349271272 0.7489948521171799 0 0.8851786503831663 0.4587131670692922 0 1 0.4249999999989021 0 0.9721633022313162 0.4381861634066376 0 0.9271590142243278 0.451108985530584 0 0.02244024296208421 0.665443310663175 0 0.3997265930613652 0.774802437498046 0 0.4651437450243828 0.7742284140094992 0 0.5074490618191403 0.7655436525360297 0 0.8665279863862101 0.475287070416319 0 0.9088681796689149 0.4665741416420401 0 0.9524085324875774 0.4573430387231406 0 0.04561500420768735 0.6805406386002657 0 0.07455133293969705 0.6891220499865387 0 0.09811218951637864 0.6969720574527707 0 0 0.6774074074084013 0 0.1216762774909054 0.704808063294498 0 0.1451988305909639 0.7126692140983959 0 0.1687467165260395 0.7205563307052554 0 0.192308325507287 0.7284210671335973 0 0.2158904439618135 0.7363054803391196 0 0.2394737538904325 0.7441820301941526 0 0.2630566931569376 0.7519940352114607 0 0.2865177321578201 0.7598723949557622 0 0.3101677546954226 0.7677594600137491 0 0.3338621832517872 0.7756089142815432 0 0.3574806568656952 0.7835754204179021 0 0.3811272793178246 0.7913948670530759 0 0.4231440460496554 0.782770229559548 0 0.4464961582565884 0.790778283799753 0 0.4888030824154309 0.7820951077212417 0 0.810590309825615 0.5250136577723966 0 0.7919471164465174 0.5415861891717244 0 0.7733031098549398 0.558153202625448 0 0.8292360251007387 0.5084394077429238 0 0.7546581091477402 0.5747343805867186 0 0.7360083295012038 0.5913167217330416 0 0.8478806698429093 0.4918638187725178 0 0.7173775266858647 0.6078665582170002 0 0.6987358150779457 0.6244462521140954 0 0.6800972842288611 0.641020840751795 0 0.6614619652784738 0.6575891317054205 0 0.6428329521985653 0.6741390916992703 0 0.6242063078846973 0.690676706328708 0 0.6056020970979394 0.7072031767195669 0 0.5869934170714213 0.7237479104428988 0 0.5683704554477221 0.7403067140391728 0 0.5497423325785558 0.7568597420329263 0 0.5311042163470272 0.7734121165826411 0 0.8902115685512562 0.4831489113903306 0 1 0.4499999999988292 0 0.9324695774718121 0.4742446667017044 0 0.9769746177691516 0.4644829463040774 0 0.01920752478402035 0.687098564925689 0 0.4047482662064574 0.7992619088998196 0 0.470155676210311 0.7986491679287873 0 0.5124561952776021 0.7899581500538182 0 0.8715669057127868 0.4997267902566472 0 0.9132246291525836 0.4911070958070679 0 0.9575096759645638 0.4793607368097575 0 0.0560043950991018 0.7054972211460016 0 0.07952918660092168 0.713463624235109 0 0.1030902758670643 0.7212975498540821 0 0.0342430373884291 0.7002669988051548 0 0 0.7022222222231429 0 0.1266137128192611 0.7291784913538568 0 0.1501358400701763 0.7370644787605134 0 0.1736513438330034 0.7449827638086323 0 0.1972289207864246 0.7528590340323063 0 0.2208571900011832 0.7607099998745748 0 0.24446339770714 0.7685412864815584 0 0.2678110478606905 0.7762711723743245 0 0.2909796950856129 0.7844945896198503 0 0.3146118714856876 0.7923850526857834 0 0.3382973205720157 0.8002490927239122 0 0.3618507668528468 0.8081511455525046 0 0.3855735786733273 0.8159967617893589 0 0.4281576951881152 0.8072694418592353 0 0.4515566133224416 0.8151919123999953 0 0.4938112534122743 0.8065125246291013 0 0.83426855647877 0.5328770022959974 0 0.8156205247949728 0.5494513648405532 0 0.7969737944509402 0.5660264612768638 0 0.7783278462280757 0.5825999788037879 0 0.8529169721495444 0.5163021415565918 0 0.7596814273026053 0.5991723225201177 0 0.7410359198801615 0.6157423146129217 0 0.7223957630335885 0.632304202915198 0 0.7037528084324721 0.6488619825818602 0 0.6851141026949554 0.6654480257434606 0 0.6664774111177661 0.6820077548062392 0 0.6478471061784008 0.6985494919997649 0 0.6292496820490878 0.715065403897033 0 0.6106556356179553 0.7315964000636211 0 0.5920447108625293 0.7481595210178895 0 0.5734027054423609 0.7647223725945206 0 0.5547619683471777 0.7812798746693133 0 0.5360976646213483 0.7978257982629859 0 0.8951345925181619 0.5076178808337953 0 1 0.4749999999987564 0 0.9344644825163591 0.4994541646129635 0 0.9786587875276578 0.4880466552356785 0 0.01824729960442715 0.7130198012370443 0 0.4093588874913375 0.823832749744825 0 0.4751498669913934 0.8230531698288421 0 0.5174246461383223 0.8143545225399788 0 0.8766092129826444 0.5241687347953812 0 0.9181993741889981 0.5156028096615742 0 0.9584941364775128 0.5034641699499567 0 0.06120311468429579 0.7300545946532699 0 0.03875993627916079 0.7226541127315291 0 0.08451646271688336 0.7377999303313882 0 0.1080367636121987 0.7456703326862879 0 0 0.7270370370379062 0 0.1315442892842583 0.7535613094293636 0 0.1550372283086403 0.7615347716791003 0 0.1786296655991145 0.7693882904378202 0 0.2022409763752517 0.77723259541663 0 0.2258231275649372 0.7850408332957983 0 0.249164123129814 0.793052410620681 0 0.2724963639488193 0.8009699366641132 0 0.2958799727690006 0.808965328152835 0 0.3195319206837415 0.8168377857861093 0 0.3432162183245427 0.8247018948854157 0 0.3668636627996443 0.832576878694042 0 0.3905374462838021 0.8404333611852459 0 0.4329186131879578 0.831731634009669 0 0.4565070260104145 0.8396077996741664 0 0.4987181643009094 0.8309170916362549 0 0.8393002811114627 0.5573161561756499 0 0.8579525158363205 0.5407400881843989 0 0.8206499262342155 0.5738906153957655 0 0.8020018884510544 0.5904640483077561 0 0.783352732964978 0.6070343279509478 0 0.7647056260934725 0.6236062114332885 0 0.7460598568504843 0.6401738308274227 0 0.7274167069680619 0.6567387052467183 0 0.7087743267228468 0.673306484181728 0 0.6901301982844008 0.689871754404158 0 0.6714983775377144 0.7064131643983119 0 0.6528842825992741 0.7229380124443738 0 0.6342996548109008 0.739468509254694 0 0.6156867287809997 0.756008896546335 0 0.5970632894379271 0.7725776872402388 0 0.5784130568579197 0.7891345073406894 0 0.5597598116343698 0.8057104590854673 0 0.541063299503563 0.822248463849883 0 0.9003357758240813 0.5320548118415827 0 1 0.4999999999986943 0 0.941462293721084 0.525690772951228 0 0.9793957259705779 0.5125897029775612 0 0.02029393072515113 0.737807705322381 0 0.4142177254083659 0.8483033907256221 0 0.4800588805719308 0.8474528052946391 0 0.5223159902521997 0.8388581040249475 0 0.8816431454430991 0.5486040544089792 0 0.9225799748982122 0.5402247952566366 0 0.9633995159833473 0.5250178219964825 0 0.06610757633098412 0.7544983380538742 0 0.04265447259993951 0.7463623280155633 0 0.08947675622208813 0.7621529959990545 0 0.1129826351942807 0.7700428983926999 0 0 0.7518518518526134 0 0.1364804826172271 0.7779872886551386 0 0.160021501878905 0.7859072220446174 0 0.1836247468971111 0.793760154955781 0 0.2071979186769334 0.801558091379807 0 0.2304967436195755 0.8095092405862745 0 0.2538762321404401 0.8175542563805906 0 0.277280456919011 0.82556798950204 0 0.300885877193884 0.8333842211374886 0 0.3245440389970305 0.8412602420303608 0 0.3482096000419775 0.8491362245255656 0 0.3718768600851677 0.8570088430743198 0 0.3955441224192577 0.8648892755768016 0 0.4378797834827166 0.8561892706731925 0 0.4614529046791603 0.8640556177025999 0 0.5035167285428321 0.8555021672854815 0 0.8443283558103336 0.5817492196838934 0 0.8629848927083482 0.5651851272873862 0 0.8256769759826138 0.5983244506244128 0 0.8070289631178847 0.6149013778067599 0 0.788373326995407 0.6314647203958539 0 0.7697294095763465 0.6480382673175346 0 0.751082743096648 0.6646049036565875 0 0.7324391445286654 0.6811733832681364 0 0.7137921114620467 0.697738835622616 0 0.6951424081394644 0.7143005552224285 0 0.6765058508016208 0.7308512909414374 0 0.6578978047650572 0.7473759104034738 0 0.6392687950684351 0.763921532385609 0 0.6206529963020714 0.7804240694515227 0 0.6020157040789255 0.7969951635706324 0 0.5834030811425338 0.8135701803478554 0 0.5646986480563805 0.8301761899742912 0 0.5459599122729117 0.8467606740132776 0 0.9055301699603683 0.5566836017761458 0 1 0.5249999999987492 0 0.940057283483531 0.5496719522413978 0 0.979518080540148 0.5375133733632371 0 0.9596026851425439 0.5458749112855853 0 0.02221978533889611 0.7623746137307323 0 0.4192221615995876 0.8727592505238185 0 0.4849723353401566 0.8720428716040762 0 0.5272131907546604 0.8633657048248093 0 0.8868388326962633 0.5732390061060307 0 0.9283628037946519 0.5655574414550555 0 0.07091407349463492 0.7786560941324794 0 0.04734249224114913 0.7707846036015937 0 0.09446689132203293 0.7865006414425409 0 0.1179496127037743 0.7944597721022589 0 0 0.7766666666673896 0 0.1414377216460096 0.8024059942450911 0 0.16501227617352 0.8102963409389146 0 0.1886138733221236 0.8181237027457824 0 0.2119167330060564 0.8259054708720135 0 0.2351887974729961 0.8341006697819511 0 0.2586309077524249 0.8421252911284842 0 0.2822364376434488 0.8499256851824561 0 0.3058904459925652 0.8578139056250199 0 0.3295549585847791 0.8656920861909639 0 0.3532214787128272 0.8735683324632829 0 0.3768932545164256 0.8814396398733241 0 0.4005611535211024 0.8893313962134479 0 0.4428109949514724 0.8806792491963701 0 0.466351811043652 0.888641267494948 0 0.5084868954132657 0.8799978631164953 0 0.8493752657065122 0.6061599122562435 0 0.8680410149164179 0.5896389722201565 0 0.8307093562215317 0.6227172745560059 0 0.8120528158134981 0.6392986500132216 0 0.7934018709161819 0.6558755268961528 0 0.7747473200976156 0.6724617571942348 0 0.7561091837761297 0.6890342785870996 0 0.73746441410959 0.7056032873133604 0 0.7188106746601314 0.7221718217396396 0 0.7001537421765504 0.7387367648395847 0 0.6815202438292804 0.7552993372562165 0 0.6628776156406854 0.7718532385103485 0 0.6441793787482816 0.788446423495423 0 0.625593751810023 0.8049318513785757 0 0.6069747136613555 0.8214927375399401 0 0.5883914843363351 0.838054436325876 0 0.5695760710580791 0.8547059114298869 0 0.5508361366267366 0.8713141493690585 0 0.9102562874764708 0.581486255584615 0 1 0.5499999999988151 0 0.9537171211769888 0.5715497880180289 0 0.9783491899070614 0.5624967757087331 0 0.02223927511815234 0.7894683281085733 0 0.424241147336498 0.8972083794211473 0 0.4898457555301258 0.8965456696992797 0 0.532151586502237 0.8878954370762224 0 0.8918635378306612 0.5977937202602777 0 0.9338331342610152 0.5896571831857453 0 0.07571908381766404 0.803148465116764 0 0.05123146156818962 0.7955465057843925 0 0.09943387229372865 0.8108903724188359 0 0.1228960731493669 0.8189314374592472 0 0 0.8014814814820662 0 0.1464012202999251 0.8268327195613123 0 0.169966895026147 0.8346232232003677 0 0.1932724058338706 0.8426661455121671 0 0.216595510167095 0.8505605624778427 0 0.2399059307342791 0.8586062571695949 0 0.2635674892062141 0.8664868653527269 0 0.2872336489884993 0.8743672071684112 0 0.3108995669194621 0.8822490424288623 0 0.3345708876925642 0.8901275427232611 0 0.3582368398719147 0.8979978433056797 0 0.381921265465493 0.9058432698490482 0 0.405682812146422 0.9134674252303387 0 0.447677422323644 0.905411758330343 0 0.4708996786245623 0.9136339471497605 0 0.5134245705105318 0.9044137094260006 0 0.8544234127768138 0.6305252915863269 0 0.873101712410141 0.614064145024754 0 0.8357569257294363 0.6471138809053253 0 0.8170911677922632 0.6637157557091111 0 0.7984405092075355 0.6803042672939856 0 0.7797862026540342 0.6968915778019867 0 0.7611429382888388 0.7134641039952303 0 0.7424893362109248 0.7300379597207696 0 0.7238335834782543 0.7466083791996178 0 0.7051770863473839 0.7631774450196511 0 0.6865181826361677 0.7797494137703052 0 0.6678589912101677 0.7963210384113789 0 0.649196759517588 0.8128932509847175 0 0.6305355730224208 0.8294612647810589 0 0.6119919165383002 0.846015215384045 0 0.593260838958741 0.862592836189126 0 0.5745237613258167 0.8791956813971381 0 0.5558414498135194 0.8957762757511711 0 0.914929403502017 0.6057434780682289 0 1 0.574999999998881 0 0.956753021951478 0.5997636235423952 0 0.9779770871774343 0.5869246431328138 0 0.03453677871100044 0.8142782483806649 0 0.01444291401754058 0.8138888888894578 0 0.4292653241025681 0.9211623317885358 0 0.4947709213156178 0.9209622113367711 0 0.5368535930004315 0.9119985546957926 0 0.89664968576155 0.6221692495730523 0 0.9379484251366037 0.6153801054361767 0 0.05781575895378591 0.8195138932547881 0 0.08072759981536903 0.8275282007425231 0 0.1042281190618504 0.8354561758516006 0 0.1277931649850329 0.8433479157969132 0 0 0.8262962962968513 0 0.15133907904844 0.8511441445906384 0 0.1745903301871124 0.859107445849558 0 0.197963662484356 0.86718924723984 0 0.2213737964823002 0.8752077854296597 0 0.2449070072859731 0.8830388471007271 0 0.2685725614202968 0.8909232706941538 0 0.2922408057353049 0.8988073809847688 0 0.3159141022921216 0.9066908614293596 0 0.3396005727514894 0.9145682117640527 0 0.3621924985248927 0.9218671453691407 0 0.3857970190597724 0.933291061652153 0 0.4131655322028427 0.9371121600396994 0 0.4519250213486328 0.9319023912755366 0 0.4748271401857017 0.9383403847616858 0 0.5181192030649282 0.928509483449354 0 0.8594774965766856 0.6549552251390944 0 0.8781325450993689 0.6383939863723916 0 0.8408124725566882 0.6715436307845799 0 0.8221393138887136 0.6881404404218185 0 0.8034771798964049 0.7047405457406102 0 0.7848247810121526 0.7213230051470744 0 0.7661694937674391 0.7379046545876131 0 0.7475131054610534 0.7544782968380916 0 0.72885726640589 0.7710498634842095 0 0.7101995962950485 0.7876221136561596 0 0.6915407348334135 0.8041954135062129 0 0.6728798764755566 0.820769666232427 0 0.6542123676236612 0.8373450127390759 0 0.6355667209699229 0.8539185029520038 0 0.6169004977811127 0.8704969407396069 0 0.5982067713468127 0.8870809044645964 0 0.5795306453549851 0.9036580357518997 0 0.560863124361125 0.920236819994811 0 0.9198497274124585 0.6305276821852721 0 1 0.5999999999989468 0 0.9784557823649038 0.6124992939669998 0 0.9594109584585798 0.6251240553303727 0 0.02181265509110281 0.8378756231687815 0 0.04384351282362328 0.8349390219703411 0 0.4345791820109262 0.9400937638509882 0 0.499760883370395 0.9454096159774545 0 0.5424231033335517 0.9359521525833703 0 0.9018413455008069 0.6462493828711837 0 0.9425566432143245 0.6402696075306213 0 0.06248246201662784 0.8438214249614961 0 0.08563495422851908 0.85197542529012 0 0.1091548177688167 0.8598817827073867 0 0.1327208300654305 0.8676732528934444 0 0 0.8511111111115715 0 0.1560150997907191 0.8757968784042576 0 0.1793103561032236 0.8838205794361029 0 0.202639576132534 0.8917729647337104 0 0.2262436612792308 0.899591613168645 0 0.2499117804644401 0.907479030325667 0 0.2735809603648098 0.9153629157058939 0 0.2974706958558073 0.9225925868942311 0 0.3209676028307907 0.9310309865829796 0 0.344090555849324 0.9379920905025212 0 0.3635087381513626 0.9415103951413895 0 0.3994783974698983 0.9568717541487702 0 0.4241904584274694 0.9577866235674117 0 0.4511897328101531 0.9559718867111326 0 0.4801575592588382 0.9619372430611695 0 0.5242545733282515 0.9562820574071762 0 0.8645097117710607 0.6794144134777497 0 0.8831784134776564 0.6628252906237679 0 0.8458420761227297 0.6960064009334147 0 0.827176716978915 0.7125956677747608 0 0.8085137414276613 0.7291882129998557 0 0.7898520901122557 0.7457735000650115 0 0.7711943005462094 0.7623504110337262 0 0.7525365661371987 0.7789226132489636 0 0.7338780980965969 0.7954942957668927 0 0.7152208512014255 0.812068124203865 0 0.6965665549639088 0.8286451546882919 0 0.6779022469543394 0.8452229798142257 0 0.659235059215852 0.8618007602952629 0 0.6405703391466653 0.8783805487270523 0 0.6219014714662046 0.8949619265509742 0 0.6032270540718856 0.9115448113482429 0 0.5850837543923901 0.9278457600983311 0 0.5675850982587946 0.9429716913281467 0 0.9253349210229851 0.654765754137428 0 1 0.6249999999990126 0 0.9791624950327835 0.6369927481993429 0 0.9612545521109084 0.6458555409306758 0 0.04256990934559939 0.8592059200859747 0 0.01963700141769538 0.86464028082295 0 0.3748873527725707 0.9582037673789146 0 0.5027808157689178 0.9709878500224216 0 0.5507472810296752 0.9576505965832123 0 0.9068777487804405 0.6706923418367947 0 0.9492670037874444 0.6619779313286484 0 0.06692423260257788 0.8685844704677095 0 0.09054087698637316 0.8764288296151315 0 0.1141581955774513 0.884275594200141 0 0.137486642373028 0.8922163649418167 0 0 0.8759259259263067 0 0.1607478272240353 0.9002724519886751 0 0.1839848821007641 0.9083443650197829 0 0.2075761341408545 0.9161467584904612 0 0.2312467797982391 0.924036981863202 0 0.2571609727803095 0.9352949370182568 0 0.2811050320636451 0.9349644365081815 0 0.2998803480387805 0.9445451268025382 0 0.3236114093603473 0.9568552917250711 0 0.3500032715461974 0.9603064656119203 0 0.3874964233593979 0.9783511625950547 0 0.4124060183900434 0.9783774111508965 0 0.4373436754803635 0.9785340529903613 0 0.4625000000019244 0.9783493649053084 0 0.484087675006743 0.9822548915977798 0 0.519121807285684 0.9821724671233009 0 0.5382556730213008 0.9779206683339866 0 0.8882115913502903 0.6872887432954029 0 0.869541050708827 0.7038771987281804 0 0.8508731908321734 0.7204670544133999 0 0.8322079223661323 0.7370553254639158 0 0.8135437582001082 0.7536412338077616 0 0.7948797379448196 0.770224180736245 0 0.776215208252424 0.7868036649251241 0 0.7575585730956064 0.8033765025512213 0 0.7388977635330474 0.8199492723903578 0 0.7202461892391409 0.8365202795627453 0 0.7015937985248251 0.8531002318594458 0 0.6829172568378301 0.8696715821573207 0 0.6642578481745881 0.8862564922861097 0 0.6455962163112289 0.9027973878940141 0 0.6269254442254897 0.9194273030371678 0 0.6082488003150458 0.9360151305645555 0 0.5898183772274659 0.9515220972580846 0 0.5723240506240188 0.9618223826123091 0 0.9347371044583986 0.6808016589989362 0 1 0.6499999999990784 0 0.9754473838149881 0.6627066425554569 0 0.03354440102899791 0.8754414881034992 0 0.04924277192258593 0.8849435585390604 0 0.01989504304047218 0.8882816165415662 0 0.3625307347020076 0.9790578192477486 0 0.5000000000020587 1 0 0.5626423181334286 0.9791804535727198 0 0.9122714216724934 0.6955943195494296 0 0.9594290170792118 0.6797290205651726 0 0.07192628478819102 0.8929635237824806 0 0.09554863698749463 0.9008236890294989 0 0.1190274714835802 0.9087119103589989 0 0.1423686509877073 0.916699852945162 0 0 0.900740740741054 0 0.1655237437958775 0.9248133694171156 0 0.1889217108111295 0.9327165290978361 0 0.212981660270099 0.9397370674064545 0 0.2362495505842276 0.9484885495408351 0 0.2774321832785184 0.957026616119988 0 0.3000872697982291 0.9648181346211779 0 0.3376847128802752 0.9789813219941272 0 0.3750000000015603 1 0 0.4000000000016644 1 0 0.4250000000017684 1 0 0.4500000000018723 1 0 0.4750000000019764 1 0 0.5250000000019071 1 0 0.5500000000017335 1 0 0.8932406709046274 0.7117279148668422 0 0.8745694405640756 0.7283380902582782 0 0.8559025396082043 0.7449269894723246 0 0.8372353482705543 0.7615118766853956 0 0.8185714391542853 0.7780967280360604 0 0.7999049109318248 0.7946792791911768 0 0.7812345205678694 0.8112613824160921 0 0.7625707610246441 0.8278343260174148 0 0.7439137920895358 0.8444079945066441 0 0.7252655030153858 0.8609837249631657 0 0.7065944882621773 0.8775549054226603 0 0.6879136268060299 0.8941394164444021 0 0.6692620619964416 0.9106863572572965 0 0.6506773243796974 0.9270817877193716 0 0.6323996959369196 0.9425581346322853 0 0.6154416680341184 0.9613802606361771 0 0.5882266297738361 0.9775910734942395 0 0.9323631007981741 0.7052440085464925 0 0.9556622308036888 0.7024818394703988 0 1 0.6749999999991443 0 0.9788044805713576 0.6882878970116679 0 0.03616082104049125 0.8991606485023307 0 0.05535260422683484 0.9091817809710846 0 0.02048860481464835 0.9130243964959712 0 0.2542360000413355 0.9591454860263976 0 0.3126563798688131 0.979632749887113 0 0.3500000000014564 1 0 0.5750000000015603 1 0 0.9168947122386144 0.7197372547015397 0 0.07693002838461571 0.9173595258390898 0 0.1005687385971405 0.9252283173114215 0 0.124236376185767 0.9330843419581414 0 0.1469305956324177 0.9401602037103639 0 0 0.9255555555557314 0 0.170176042527425 0.94732249024473 0 0.1944669341670477 0.9575483269906147 0 0.2188233490548079 0.9597407040405768 0 0.236954073527519 0.9750043147693193 0 0.2632059999294323 0.9787595090595334 0 0.2876432289732964 0.9800998404135708 0 0.3250000000013522 1 0 0.8982868144407045 0.7362927081396095 0 0.8796045826646286 0.7527848205292678 0 0.8609312289461013 0.7693769141948021 0 0.8422681643370393 0.785964559249039 0 0.8236003283720883 0.802554369614515 0 0.8049301797223809 0.8191381336013086 0 0.7862515568984838 0.8357253501669796 0 0.7675738732645875 0.8523091266873013 0 0.748938359700717 0.8688851538347071 0 0.7302624242561706 0.8854625528532387 0 0.7115802214744847 0.9020429637834596 0 0.6928870756123707 0.9186342859734526 0 0.6739181690305398 0.9343119036105173 0 0.6558464245426534 0.949693874805984 0 0.6396385027933389 0.9606977949876527 0 0.6125011624060365 0.9837659019660306 0 0.6000000000013869 1 0 0.9422500348176752 0.7276049700121578 0 0.9792287127594379 0.7126313223766563 0 1 0.69999999999921 0 0.03844150120940828 0.9240910503628027 0 0.05904548219314176 0.9336156757783443 0 0.01980868685398895 0.9378827813624289 0 0.3000000000012483 1 0 0.6338375142196278 0.9798581756997367 0 0.9220723260219985 0.7444493038705119 0 0.9637160826460018 0.7254588490087359 0 0.08231180189519796 0.9406370426715723 0 0.1063478899167181 0.9490329276208429 0 0.1295789816093158 0.9572013610980437 0 0.1526392646455855 0.9617809366015292 0 0 0.9503703703705487 0 0.1751676162932621 0.9660941309604019 0 0.2105581120165657 0.9791514003026911 0 0.2500000000010403 1 0 0.2750000000011442 1 0 0.903339154250282 0.7607188646112171 0 0.8846485810014852 0.7772462152269275 0 0.8659768495771519 0.7938192233234206 0 0.8473014205781961 0.8104276816687435 0 0.8286302923204169 0.8270156527221314 0 0.8099554018921405 0.843603384955278 0 0.7912783901284277 0.860191237157817 0 0.7726082678081153 0.8767781441606158 0 0.7539413171872982 0.893358597157714 0 0.735254655896961 0.9099499719577256 0 0.7165598700763787 0.9265518468660422 0 0.6971582986876022 0.9420148489593562 0 0.6780589084151947 0.9575839248341529 0 0.6604280840244138 0.9752242958469346 0 0.6250000000012135 1 0 0.9605575770566323 0.7414900853882154 0 0.9460736412248638 0.754386607921498 0 1 0.724999999999276 0 0.9783493649053321 0.7374999999993094 0 0.03977368987228719 0.9501009268279407 0 0.06391854305734312 0.9590290071227729 0 0.01938134302196487 0.9621452986061629 0 0.1869379492708169 0.9802561058473664 0 0.2250000000009362 1 0 0.6500000000010401 1 0 0.9270939104230749 0.7685397490501532 0 0.08921000612503392 0.9593765230410201 0 0.1101981146222572 0.9749888975639492 0 0.1378394971664275 0.9790826025462105 0 0.162560108077434 0.9804655500162791 0 0 0.9751851851852422 0 0.2000000000008322 1 0 0.9083672062549225 0.7850937274081223 0 0.8896724643158258 0.8016837412947362 0 0.8710095687742473 0.8182918049647825 0 0.852334637272113 0.8348908429205856 0 0.8336594740691472 0.8514815193834984 0 0.8149841850439553 0.8680699418256793 0 0.7963067583992217 0.8846602522985898 0 0.7776287284027171 0.9012506570572817 0 0.7589526774761994 0.9178416417849347 0 0.7402709404409575 0.9344356505022697 0 0.7221320089538443 0.9545919696811659 0 0.6999998737602793 0.9629026133046579 0 0.6874998526486903 0.9783494499793083 0 0.6750000000008667 1 0 0.9723987616892878 0.7624999999993752 0 0.9511512253247011 0.7767767886416391 0 1 0.7499999999993417 0 0.03865046828365465 0.9773366052343824 0 0.08374992470322454 0.9795104246889742 0 0.01805521312185844 0.9819959226564355 0 0.1750000000007281 1 0 0.9319664786096837 0.7928416311113626 0 0.1250000000005201 1 0 0.1500000000006241 1 0 0.0622637872089485 0.9831752074092259 0 0 1 0 0.9133158575646576 0.8094761078874024 0 0.8947214721783716 0.8261708052299941 0 0.876043183424229 0.8427669110357976 0 0.8573655959810456 0.8593607298265238 0 0.8386885927769918 0.8759484860071625 0 0.8200156942169483 0.892528590855739 0 0.8013621073053289 0.9090453521589961 0 0.7829865157510035 0.9240238959056106 0 0.7655672888102396 0.9397820229816847 0 0.7509350797106531 0.9572692101527505 0 0.7125000000006065 0.9783493649055393 0 0.7000000000006934 1 0 0.9776291594915305 0.7875380515327299 0 1 0.7749999999994076 0 0.9561619376771519 0.8016247214649639 0 0.100000000000416 1 0 0.05000000000020799 1 0 0.02500000000010405 1 0 0.07500000000031215 1 0 0.7373728002791757 0.9797457966891426 0 0.9365017685241022 0.8167601470604585 0 0.9179198228630394 0.8334700926153805 0 0.8997545627560775 0.8506461505404254 0 0.8810748357278673 0.8672409378034107 0 0.862394975574633 0.8838346162085495 0 0.8437145735056659 0.9004276213796638 0 0.8250690498714734 0.9169161840249754 0 0.8066312769116598 0.9360687629880353 0 0.7878775674057313 0.9431430579496005 0 0.7763840591915299 0.9592015607858526 0 0.7623386951258467 0.9791139237471456 0 0.7250000000005199 1 0 0.9785045479276824 0.8132727312725351 0 1 0.7999999999994734 0 0.9578471191845154 0.8261727904892775 0 0.7500000000003466 1 0 0.9391128526801986 0.8403434994928256 0 0.9220365279740232 0.8571983503085738 0 0.9045500207496133 0.8749002583057601 0 0.8861067887336109 0.8917166464217032 0 0.8674239964535654 0.9083123153680097 0 0.8487409038783109 0.9249085077009044 0 0.8300502952167822 0.9415063885533833 0 0.7988740897650844 0.9585094594757773 0 0.7879965183055392 0.9787583886863396 0 0.7750000000001732 1 0 1 0.8249999999995392 0 0.9788637985969766 0.8379581758234063 0 0.9583083698165701 0.8505032137944166 0 0.820199313066216 0.9593370028479036 0 0.9420106582883645 0.8619845925818463 0 0.9322728957351556 0.882381968439512 0 0.9098224078178099 0.8995969187914389 0 0.8911388418834251 0.9161948069605781 0 0.8724544056893323 0.9327926566545816 0 0.8545858659163292 0.9502129052165713 0 0.837499999999744 0.970091485033424 0 0.81229172383815 0.9781055606997104 0 0.7999999999999998 1 0 1 0.8499999999996051 0 0.9785227546530915 0.8628003193850639 0 0.9566987308811586 0.8749999999996694 0 0.9335409902090506 0.9074780711570531 0 0.9148558428489935 0.9240777970694657 0 0.8959904604035898 0.9397747407914325 0 0.878485370162244 0.9569978691712365 0 0.8632446788373009 0.9766771819693658 0 0.8249999999998263 1 0 0.9559309084930709 0.8987111038573347 0 1 0.8749999999996708 0 0.9781530512139307 0.8880930545424779 0 0.8499999999996529 1 0 0.9382926456304728 0.9328115065901348 0 0.9544298725978175 0.9196756121711618 0 0.9196554759229494 0.9469137389489963 0 0.9033970037247694 0.9616579055397857 0 0.8880972945619894 0.9794009325121695 0 0.8749999999995011 1 0 0.9766321162336684 0.9157580083414927 0 1 0.8999999999997368 0 0.9438287412639099 0.9571755573708816 0 0.9622966325024225 0.9398438882854082 0 0.9250191183198891 0.9656866693686141 0 0.9125008924587128 0.9810589679886786 0 0.8999999999995836 1 0 1 0.9249999999998024 0 0.9835192958457386 0.9381043860998908 0 0.9615520967251762 0.9584733172028391 0 0.9367139815717119 0.980000155581342 0 0.9786677304926018 0.9599200338728818 0 0.9249999999996876 1 0 1 0.9499999999998684 0 0.9614152826417707 0.9769537892821853 0 0.9499999999997918 1 0 1 0.9749999999999343 0 0.9818260183860713 0.9818260183860811 0 0.9749999999998958 1 0 1 1 0 </DataArray>
      </Points>
      <Cells>
        <DataArray type="Int32" Name="connectivity" format="ascii">0 1 2 1 3 2 4 0 2 3 5 2 6 0 4 5 4 2 3 7 5 6 4 8 9 4 5 7 10 5 7 11 10 12 6 8 8 4 13 4 9 13 10 9 5 10 11 14 11 15 14 16 12 8 17 8 13 9 18 13 10 19 9 10 14 19 15 20 14 21 12 16 17 16 8 18 17 13 19 18 9 19 14 22 15 23 20 14 20 22 21 16 24 16 17 25 18 26 17 27 18 19 28 19 22 20 23 29 20 30 22 31 21 24 24 16 25 17 32 25 27 26 18 17 26 32 28 27 19 30 28 22 23 33 29 20 29 30 31 24 34 35 24 25 32 35 25 27 36 26 32 26 37 38 27 28 39 28 30 29 33 40 29 41 30 33 42 40 43 31 34 24 44 34 35 44 24 45 35 32 38 36 27 26 36 37 45 32 37 38 28 39 41 39 30 46 29 40 46 41 29 42 47 40 48 43 34 34 44 49 35 50 44 45 50 35 38 51 36 37 36 52 45 37 53 54 38 39 41 55 39 47 46 40 56 41 46 42 57 47 58 43 48 48 34 49 44 59 49 44 50 59 60 50 45 54 51 38 36 51 52 53 37 52 60 45 53 55 54 39 56 55 41 46 47 61 56 46 61 47 57 62 57 63 62 58 48 64 65 48 49 59 65 49 50 66 59 60 66 50 67 51 54 51 68 52 69 53 52 70 60 53 71 54 55 72 55 56 47 73 61 74 56 61 73 47 62 63 75 62 76 58 64 64 48 65 59 77 65 66 77 59 60 78 66 67 68 51 67 54 71 68 69 52 70 53 69 70 78 60 71 55 72 72 56 74 73 74 61 73 62 79 63 80 75 62 75 79 81 76 64 64 65 82 77 83 65 77 66 84 66 78 84 85 68 67 67 71 86 68 87 69 88 70 69 70 89 78 71 72 90 91 72 74 73 92 74 93 73 79 75 80 94 75 95 79 80 96 94 97 76 81 81 64 82 65 83 82 98 83 77 98 77 84 84 78 99 85 87 68 85 67 86 71 90 86 87 88 69 88 89 70 78 89 99 90 72 91 92 91 74 93 92 73 95 93 79 75 94 95 96 100 94 96 101 100 97 81 102 103 81 82 83 103 82 98 104 83 98 84 105 84 99 105 106 87 85 107 85 86 86 90 108 87 109 88 88 110 89 89 111 99 90 91 112 92 113 91 114 92 93 115 93 95 94 116 95 100 116 94 100 101 117 118 97 102 81 119 102 119 81 103 83 104 103 120 104 98 120 98 105 99 121 105 106 109 87 106 85 107 107 86 108 108 90 112 88 109 110 89 110 111 111 121 99 91 113 112 114 113 92 114 93 115 116 115 95 116 100 122 101 123 117 100 117 122 124 118 102 119 125 102 119 103 126 103 104 126 120 127 104 128 120 105 121 128 105 106 129 109 130 106 107 131 107 108 132 108 112 110 109 133 111 110 134 111 135 121 113 136 112 114 137 113 138 114 115 116 139 115 140 116 122 123 141 117 117 142 122 143 118 124 125 124 102 144 125 119 144 119 126 104 127 126 145 127 120 145 120 128 128 121 146 130 129 106 109 129 133 131 130 107 132 131 108 136 132 112 134 110 133 111 134 135 121 135 146 113 137 136 138 137 114 139 138 115 140 139 116 142 140 122 123 147 141 141 142 117 143 124 148 149 124 125 150 125 144 151 144 126 127 151 126 152 127 145 145 128 153 153 128 146 130 154 129 133 129 155 156 130 131 157 131 132 158 132 136 159 134 133 135 134 160 135 161 146 136 137 162 138 163 137 164 138 139 165 139 140 166 140 142 141 147 167 141 168 142 169 143 148 148 124 149 149 125 150 150 144 170 170 144 151 152 151 127 152 145 171 145 153 171 153 146 172 156 154 130 129 154 155 159 133 155 156 131 157 157 132 158 158 136 162 160 134 159 161 135 160 146 161 172 137 163 162 164 163 138 164 139 165 165 140 166 168 166 142 147 173 167 141 167 174 168 141 174 175 169 148 148 149 176 149 150 177 150 170 178 170 151 179 179 151 152 180 152 171 171 153 181 181 153 172 182 154 156 154 183 155 184 159 155 156 157 185 157 158 186 158 162 187 188 160 159 189 161 160 161 190 172 163 191 162 192 163 164 164 165 193 165 166 194 168 195 166 167 173 196 167 197 174 198 168 174 173 199 196 199 200 201 202 169 175 175 148 176 149 177 176 177 150 178 170 203 178 170 179 203 179 152 180 204 180 171 204 171 181 205 181 172 182 183 154 182 156 185 183 184 155 184 188 159 185 157 186 186 158 187 162 191 187 188 189 160 189 190 161 190 205 172 192 191 163 192 164 193 165 194 193 166 195 194 198 195 168 197 167 196 197 198 174 199 201 196 201 200 206 200 207 206 202 175 208 175 176 209 176 177 210 177 178 211 203 212 178 179 213 203 179 180 213 214 180 204 215 204 181 205 215 181 182 216 183 217 182 185 183 218 184 184 219 188 220 185 186 221 186 187 191 222 187 188 223 189 189 224 190 190 225 205 192 226 191 227 192 193 194 228 193 194 195 229 198 230 195 231 197 196 232 198 197 201 231 196 201 206 233 207 234 206 207 235 234 236 237 238 239 236 238 240 236 239 235 240 241 242 202 208 208 175 209 176 210 209 210 177 211 178 212 211 243 212 203 213 243 203 213 180 214 214 204 244 244 204 215 205 245 215 217 216 182 183 216 218 220 217 185 184 218 219 188 219 223 221 220 186 222 221 187 191 226 222 189 223 224 190 224 225 205 225 245 227 226 192 228 227 193 228 194 229 195 230 229 232 230 198 232 197 231 231 201 233 206 246 233 206 234 246 234 235 241 238 237 247 239 238 248 240 239 241 237 249 247 249 250 251 252 242 208 253 208 209 210 254 209 255 210 211 212 256 211 257 212 243 243 213 258 213 214 258 214 244 259 260 244 215 245 260 215 217 261 216 218 216 262 263 217 220 219 218 264 223 219 265 221 266 220 267 221 222 226 268 222 224 223 269 225 224 270 245 225 271 272 226 227 273 227 228 274 228 229 230 275 229 276 230 232 232 231 277 278 231 233 246 278 233 234 279 246 279 234 241 280 238 247 241 239 248 238 281 248 249 251 247 251 250 282 250 283 282 283 284 285 286 242 252 252 208 287 208 253 287 254 253 209 254 210 255 256 255 211 257 256 212 288 257 243 288 243 258 214 259 258 259 244 289 289 244 260 260 245 290 263 261 217 216 261 262 218 262 264 266 263 220 265 219 264 223 265 269 267 266 221 268 267 222 272 268 226 224 269 270 271 225 270 245 271 290 272 227 273 273 228 274 275 274 229 276 275 230 276 232 277 231 278 277 291 278 246 279 291 246 292 279 241 280 281 238 251 280 247 292 241 248 281 293 248 294 251 282 283 285 282 285 284 295 284 296 295 286 252 297 298 252 287 253 299 287 254 300 253 301 254 255 256 302 255 303 256 257 304 257 288 288 258 305 258 259 305 259 289 306 289 260 307 307 260 290 263 308 261 261 309 262 262 310 264 311 263 266 312 265 264 265 313 269 314 266 267 315 267 268 316 268 272 269 317 270 318 271 270 271 319 290 272 273 320 273 274 321 322 274 275 323 275 276 324 276 277 278 325 277 291 325 278 326 291 279 326 279 292 281 280 327 251 328 280 293 292 248 329 293 281 328 251 294 285 294 282 330 285 295 296 331 295 332 286 297 297 252 298 299 298 287 253 300 299 301 300 254 302 301 255 303 302 256 303 257 304 304 288 333 333 288 305 305 259 306 289 334 306 289 307 334 335 307 290 311 308 263 261 308 309 309 310 262 310 312 264 311 266 314 265 312 313 313 317 269 314 267 315 315 268 316 316 272 320 317 318 270 318 319 271 319 335 290 273 321 320 321 274 322 322 275 323 323 276 324 325 324 277 336 325 291 336 291 326 337 326 292 280 328 327 329 281 327 293 337 292 329 338 293 339 328 294 285 340 294 340 285 330 331 330 295 341 332 297 342 297 298 299 343 298 300 344 299 301 345 300 302 346 301 347 302 303 303 304 348 349 304 333 350 333 305 350 305 306 334 351 306 334 307 352 352 307 335 353 308 311 308 354 309 310 309 355 356 312 310 311 314 357 312 358 313 317 313 359 314 315 360 315 316 361 362 316 320 363 318 317 364 319 318 365 335 319 320 321 366 321 322 367 322 323 368 323 324 369 370 324 325 370 325 336 336 326 371 326 337 371 328 372 327 329 327 373 338 337 293 374 338 329 339 372 328 340 339 294 375 340 330 331 376 330 377 332 341 342 341 297 343 342 298 344 343 299 300 345 344 301 346 345 347 346 302 347 303 348 304 349 348 378 349 333 350 378 333 351 350 306 351 334 379 334 352 379 352 335 380 353 354 308 353 311 357 309 354 355 356 310 355 356 358 312 314 360 357 313 358 359 363 317 359 315 361 360 361 316 362 362 320 366 364 318 363 365 319 364 380 335 365 321 367 366 367 322 368 323 369 368 369 324 370 370 336 381 336 371 381 337 382 371 327 372 373 374 329 373 338 382 337 374 383 338 339 384 372 340 385 339 375 385 340 376 375 330 386 377 341 342 387 341 343 388 342 344 389 343 344 345 390 345 346 391 347 392 346 393 347 348 349 394 348 378 395 349 396 378 350 396 350 351 397 351 379 352 398 379 352 380 398 399 354 353 400 353 357 354 401 355 402 356 355 356 403 358 357 360 404 358 405 359 406 363 359 361 407 360 361 362 408 409 362 366 364 363 410 365 364 411 380 365 412 366 367 413 367 368 414 369 415 368 369 370 416 416 370 381 381 371 417 371 382 417 372 418 373 418 374 373 338 383 382 419 383 374 339 385 384 372 384 420 375 421 385 376 422 375 423 377 386 386 341 424 342 388 387 341 387 424 343 389 388 344 390 389 390 345 391 346 392 391 393 392 347 394 393 348 395 394 349 425 395 378 425 378 396 397 396 351 426 397 379 398 426 379 398 380 427 399 401 354 399 353 400 400 357 404 401 402 355 402 403 356 358 403 405 360 407 404 405 406 359 410 363 406 361 408 407 408 362 409 409 366 413 364 410 411 412 365 411 427 380 412 413 367 414 368 415 414 369 416 415 428 416 381 428 381 417 382 429 417 418 372 420 419 374 418 382 383 429 419 430 383 384 385 431 384 432 420 375 422 421 385 421 431 423 386 433 434 386 424 387 388 435 387 436 424 388 389 437 389 390 438 439 390 391 391 392 440 393 441 392 442 393 394 395 443 394 444 395 425 425 396 445 445 396 397 446 397 426 398 447 426 398 427 447 399 448 401 449 399 400 450 400 404 401 451 402 402 452 403 403 453 405 404 407 454 455 406 405 410 406 456 407 408 457 408 409 458 459 409 413 411 410 460 461 412 411 462 427 412 463 413 414 414 415 464 415 416 465 465 416 428 466 428 417 429 466 417 467 418 420 419 418 467 383 430 429 468 430 419 432 384 431 432 469 420 422 470 421 421 471 431 472 423 433 433 386 434 436 434 424 435 388 437 387 435 436 389 438 437 438 390 439 439 391 440 392 441 440 442 441 393 443 442 394 444 443 395 444 425 473 425 445 473 445 397 446 474 446 426 447 474 426 447 427 475 449 448 399 401 448 451 450 449 400 450 404 454 402 451 452 403 452 453 453 455 405 407 457 454 456 406 455 410 456 460 457 408 458 409 459 458 463 459 413 461 411 460 461 462 412 475 427 462 463 414 464 415 465 464 465 428 476 428 466 476 477 466 429 469 467 420 468 419 467 430 477 429 478 430 468 432 431 479 480 469 432 470 471 421 431 471 479 481 472 433 482 433 434 434 436 483 484 435 437 436 435 485 438 486 437 438 439 487 439 440 488 441 489 440 490 441 442 491 442 443 492 443 444 493 444 473 473 445 494 445 446 494 446 474 495 447 496 474 447 475 496 449 497 448 451 448 498 499 449 450 500 450 454 452 451 501 453 452 502 453 503 455 457 504 454 456 455 505 456 506 460 507 457 458 459 508 458 463 509 459 510 461 460 511 462 461 475 462 512 513 463 464 465 514 464 514 465 476 466 515 476 477 515 466 469 516 467 516 468 467 478 477 430 478 468 517 480 432 479 480 518 469 470 519 471 471 520 479 521 472 481 481 433 482 482 434 483 483 436 522 435 484 485 486 484 437 522 436 485 486 438 487 487 439 488 440 489 488 490 489 441 490 442 491 491 443 492 492 444 493 523 493 473 523 473 494 446 495 494 495 474 524 474 496 524 496 475 525 499 497 449 448 497 498 451 498 501 499 450 500 504 500 454 502 452 501 453 502 503 455 503 505 457 507 504 506 456 505 506 510 460 508 507 458 459 509 508 513 509 463 510 511 461 462 511 512 525 475 512 514 513 464 526 514 476 515 526 476 527 515 477 469 518 516 468 516 517 527 477 478 528 478 517 520 480 479 529 518 480 471 519 520 521 481 530 481 482 531 482 483 532 533 483 522 484 534 485 486 535 484 534 522 485 536 486 487 537 487 488 489 538 488 539 489 490 490 491 540 491 492 541 492 493 542 543 493 523 523 494 544 494 495 544 495 524 545 496 546 524 496 525 546 499 547 497 497 548 498 501 498 549 550 499 500 551 500 504 552 502 501 503 502 553 503 554 505 507 555 504 556 506 505 557 510 506 558 507 508 509 559 508 513 560 509 510 561 511 511 562 512 563 525 512 564 513 514 526 564 514 565 526 515 565 515 527 518 566 516 516 566 517 527 478 528 567 528 517 529 480 520 568 518 529 519 569 520 570 521 530 481 571 530 571 481 531 482 532 531 483 533 532 533 522 572 535 534 484 536 535 486 522 534 572 537 536 487 538 537 488 539 538 489 539 490 540 491 541 540 492 542 541 542 493 543 543 523 573 573 523 544 544 495 545 524 574 545 524 546 574 546 525 575 550 547 499 497 547 548 498 548 549 552 501 549 551 550 500 555 551 504 553 502 552 503 553 554 554 556 505 558 555 507 556 557 506 557 561 510 559 558 508 560 559 509 564 560 513 561 562 511 562 563 512 575 525 563 576 564 526 576 526 565 565 527 577 568 566 518 566 567 517 527 528 577 528 567 578 529 520 579 568 529 580 520 569 579 581 570 530 571 581 530 582 571 531 532 582 531 532 533 583 584 533 572 535 585 534 536 586 535 534 587 572 537 588 536 538 589 537 590 538 539 591 539 540 540 541 592 542 593 541 542 543 594 595 543 573 596 573 544 596 544 545 574 597 545 546 598 574 546 575 598 599 547 550 547 600 548 548 601 549 602 552 549 603 550 551 604 551 555 553 552 605 554 553 606 554 607 556 608 555 558 556 609 557 557 610 561 611 558 559 612 559 560 613 560 564 561 614 562 562 615 563 616 575 563 613 564 576 576 565 617 617 565 577 568 618 566 566 618 567 577 528 578 567 619 578 620 529 579 621 568 580 529 620 580 569 622 579 623 581 571 582 623 571 582 532 583 533 624 583 584 624 533 587 584 572 535 586 585 534 585 587 536 588 586 537 589 588 590 589 538 590 539 591 591 540 592 541 593 592 542 594 593 594 543 595 625 595 573 596 625 573 597 596 545 626 597 574 598 626 574 598 575 627 599 600 547 599 550 603 600 601 548 601 602 549 552 602 605 603 551 604 604 555 608 606 553 605 554 606 607 556 607 609 608 558 611 557 609 610 561 610 614 611 559 612 612 560 613 614 615 562 615 616 563 627 575 616 613 576 628 628 576 617 629 617 577 621 618 568 618 619 567 629 577 578 619 630 578 622 620 579 621 580 631 580 620 631 632 623 582 633 582 583 624 633 583 584 634 624 635 584 587 585 586 636 585 637 587 586 588 638 588 589 639 590 640 589 641 590 591 642 591 592 592 593 643 593 594 644 594 595 645 646 595 625 647 625 596 647 596 597 626 648 597 598 649 626 598 627 649 650 600 599 599 603 651 600 652 601 601 653 602 605 602 654 603 604 655 604 608 656 657 606 605 607 606 658 609 607 659 608 611 660 610 609 661 614 610 662 611 612 663 612 613 664 615 614 665 666 616 615 627 616 667 613 628 664 668 628 617 629 668 617 669 618 621 669 619 618 630 629 578 619 670 630 622 671 620 672 621 631 620 673 631 632 582 633 624 674 633 635 634 584 634 674 624 637 635 587 636 586 638 585 636 637 588 639 638 589 640 639 641 640 590 642 641 591 642 592 643 593 644 643 594 645 644 645 595 646 646 625 675 625 647 675 648 647 597 626 676 648 626 649 676 649 627 677 650 652 600 650 599 651 603 655 651 652 653 601 602 653 654 657 605 654 655 604 656 608 660 656 658 606 657 607 658 659 661 609 659 660 611 663 610 661 662 665 614 662 663 612 664 666 615 665 667 616 666 627 667 677 664 628 678 628 668 678 679 668 629 669 621 672 669 670 619 679 629 630 670 680 630 620 671 673 673 672 631 681 632 633 674 681 633 635 682 634 674 634 683 637 684 635 685 636 638 637 636 686 638 639 687 640 688 639 641 689 640 690 641 642 691 642 643 643 644 692 645 693 644 645 646 694 646 675 695 647 696 675 648 696 647 648 676 697 676 649 698 698 649 677 699 652 650 700 650 651 651 655 701 652 702 653 653 703 654 704 657 654 705 655 656 656 660 706 707 658 657 658 708 659 709 661 659 710 660 663 661 711 662 665 662 712 713 663 664 714 666 665 667 666 715 667 716 677 713 664 678 668 717 678 679 717 668 718 669 672 718 670 669 680 679 630 719 680 670 671 720 673 673 721 672 722 681 674 635 684 682 634 682 683 674 683 723 637 686 684 686 636 685 685 638 687 639 688 687 640 689 688 690 689 641 691 690 642 691 643 692 644 693 692 645 694 693 694 646 695 675 724 695 696 724 675 648 697 696 697 676 725 676 698 725 698 677 726 699 702 652 699 650 700 700 651 701 655 705 701 653 702 703 703 704 654 704 707 657 705 656 706 660 710 706 708 658 707 708 709 659 711 661 709 713 710 663 662 711 712 714 665 712 715 666 714 667 715 716 677 716 726 727 713 678 717 727 678 679 728 717 729 718 672 719 670 718 680 728 679 730 680 719 720 721 673 721 729 672 722 674 723 682 684 731 683 682 732 683 733 723 684 686 734 686 685 735 736 685 687 688 737 687 689 738 688 690 739 689 740 690 691 741 691 692 693 742 692 693 694 743 744 694 695 724 745 695 696 746 724 696 697 746 697 725 747 698 748 725 748 698 726 749 702 699 699 700 750 751 700 701 705 752 701 702 753 703 754 704 703 704 755 707 756 705 706 710 757 706 758 708 707 708 759 709 760 711 709 713 761 710 711 762 712 763 714 712 715 714 764 716 715 765 716 766 726 727 761 713 727 717 767 717 728 767 768 718 729 719 718 768 730 728 680 730 719 769 720 770 721 729 721 771 772 722 723 684 734 731 732 682 731 683 732 733 733 772 723 734 686 735 685 736 735 737 736 687 738 737 688 689 739 738 740 739 690 740 691 741 742 741 692 742 693 743 694 744 743 745 744 695 724 773 745 724 746 773 746 697 747 725 774 747 748 774 725 775 748 726 749 753 702 749 699 750 700 751 750 752 751 701 756 752 705 753 754 703 754 755 704 755 758 707 757 756 706 761 757 710 758 759 708 759 760 709 760 762 711 762 763 712 764 714 763 715 764 765 766 716 765 766 775 726 776 761 727 776 727 767 728 777 767 768 729 778 719 768 769 730 777 728 779 730 769 721 770 771 729 771 778 734 780 731 732 731 781 732 782 733 783 772 733 784 734 735 736 785 735 786 736 737 737 738 787 738 739 788 740 789 739 790 740 741 791 741 742 792 742 743 744 793 743 745 794 744 745 773 795 773 746 796 796 746 747 747 774 797 798 774 748 775 798 748 799 753 749 800 749 750 751 801 750 752 802 751 756 803 752 804 754 753 805 755 754 806 758 755 757 807 756 761 808 757 809 759 758 810 760 759 811 762 760 812 763 762 764 763 813 764 814 765 815 766 765 816 775 766 776 808 761 817 776 767 777 817 767 818 768 778 769 768 818 779 777 730 819 779 769 770 820 771 771 821 778 734 784 780 731 780 781 782 732 781 782 783 733 785 784 735 786 785 736 786 737 787 787 738 788 739 789 788 790 789 740 791 790 741 792 791 742 793 792 743 744 794 793 745 795 794 795 773 822 773 796 822 796 747 797 774 823 797 798 823 774 824 798 775 804 753 799 799 749 800 801 800 750 751 802 801 752 803 802 756 807 803 805 754 804 806 755 805 809 758 806 757 808 807 810 759 809 811 760 810 812 762 811 813 763 812 764 813 814 814 815 765 815 816 766 824 775 816 776 825 808 817 825 776 826 817 777 818 778 827 819 769 818 826 777 779 828 779 819 820 821 771 778 821 827 784 829 780 780 830 781 831 782 781 832 783 782 785 833 784 834 785 786 786 787 835 787 788 836 788 789 837 790 838 789 839 790 791 792 840 791 841 792 793 794 842 793 794 795 843 844 795 822 822 796 845 845 796 797 797 823 846 798 847 823 824 847 798 804 799 848 799 800 849 850 800 801 801 802 851 803 852 802 803 807 853 805 804 854 806 805 855 809 806 856 807 808 857 810 809 858 811 810 859 812 811 860 813 812 861 814 813 862 814 863 815 816 815 864 865 824 816 808 825 857 866 825 817 866 817 826 867 818 827 867 819 818 826 779 828 828 819 868 820 869 821 821 870 827 784 833 829 780 829 830 830 831 781 832 782 831 834 833 785 834 786 835 835 787 836 788 837 836 789 838 837 839 838 790 840 839 791 841 840 792 842 841 793 794 843 842 843 795 844 871 844 822 871 822 845 845 797 846 823 872 846 847 872 823 873 847 824 804 848 854 848 799 849 800 850 849 850 801 851 802 852 851 852 803 853 853 807 857 855 805 854 856 806 855 809 856 858 859 810 858 860 811 859 812 860 861 862 813 861 814 862 863 815 863 864 865 816 864 873 824 865 825 874 857 866 874 825 866 826 875 867 827 876 868 819 867 826 828 875 828 868 877 821 869 870 827 870 876 829 833 878 830 829 879 830 880 831 881 832 831 834 882 833 883 834 835 884 835 836 837 885 836 838 886 837 839 887 838 840 888 839 841 889 840 842 890 841 842 843 891 892 843 844 871 893 844 894 871 845 894 845 846 846 872 895 847 896 872 873 896 847 854 848 897 898 848 849 850 899 849 900 850 851 852 901 851 902 852 853 903 853 857 904 855 854 905 856 855 858 856 906 907 859 858 908 860 859 861 860 909 910 862 861 863 862 911 863 912 864 913 865 864 873 865 914 874 903 857 915 874 866 915 866 875 916 867 876 868 867 916 875 828 877 877 868 917 869 918 870 870 919 876 833 882 878 879 829 878 880 830 879 880 881 831 883 882 834 884 883 835 885 884 836 886 885 837 838 887 886 839 888 887 840 889 888 841 890 889 842 891 890 891 843 892 893 892 844 871 920 893 894 920 871 894 846 895 872 921 895 872 896 921 922 896 873 848 898 897 904 854 897 899 898 849 900 899 850 901 900 851 902 901 852 902 853 903 904 905 855 856 905 906 907 858 906 907 908 859 860 908 909 910 861 909 911 862 910 863 911 912 912 913 864 914 865 913 922 873 914 874 923 903 915 923 874 924 915 875 919 916 876 868 916 917 924 875 877 925 877 917 918 919 870 882 926 878 927 879 878 880 879 928 929 881 880 883 930 882 884 931 883 932 884 885 886 933 885 886 887 934 887 888 935 888 889 936 889 890 937 890 891 938 891 892 939 940 892 893 920 941 893 942 920 894 942 894 895 895 921 943 896 944 921 922 944 896 898 945 897 946 904 897 899 947 898 900 948 899 901 949 900 902 950 901 951 902 903 952 905 904 905 953 906 954 907 906 907 955 908 908 956 909 957 910 909 911 910 958 912 911 959 912 960 913 961 914 913 962 922 914 923 951 903 963 923 915 963 915 924 916 919 964 916 965 917 925 924 877 925 917 966 918 967 919 882 930 926 926 927 878 879 927 928 968 880 928 929 880 968 883 931 930 932 931 884 933 932 885 886 934 933 934 887 935 888 936 935 936 889 937 890 938 937 891 939 938 939 892 940 941 940 893 969 941 920 969 920 942 942 895 943 921 970 943 944 970 921 922 971 944 947 945 898 945 946 897 952 904 946 899 948 947 900 949 948 901 950 949 951 950 902 952 953 905 953 954 906 954 955 907 955 956 908 956 957 909 910 957 958 959 911 958 912 959 960 960 961 913 961 962 914 962 971 922 972 951 923 972 923 963 963 924 973 919 967 964 916 964 965 917 965 966 973 924 925 974 925 966 926 930 975 926 976 927 927 977 928 977 968 928 978 929 968 930 931 979 932 980 931 933 981 932 933 934 982 983 934 935 935 936 984 985 936 937 938 986 937 939 987 938 939 940 988 989 940 941 990 941 969 969 942 991 991 942 943 943 970 992 944 993 970 944 971 993 994 945 947 945 995 946 996 952 946 947 948 997 948 949 998 949 950 999 951 1000 950 952 1001 953 1002 954 953 954 1003 955 955 1004 956 956 1005 957 957 1006 958 1007 959 958 960 959 1008 960 1009 961 961 1010 962 962 1011 971 972 1000 951 972 963 1012 963 973 1012 967 1013 964 965 964 1014 965 1015 966 973 925 974 1015 974 966 975 930 979 926 975 976 927 976 977 1016 968 977 1016 978 968 931 980 979 932 981 980 933 982 981 982 934 983 983 935 984 936 985 984 986 985 937 987 986 938 939 988 987 988 940 989 989 941 990 990 969 1017 1017 969 991 991 943 992 970 1018 992 970 993 1018 993 971 1019 994 995 945 994 947 997 995 996 946 996 1001 952 997 948 998 949 999 998 950 1000 999 1001 1002 953 1002 1003 954 955 1003 1004 956 1004 1005 1005 1006 957 1006 1007 958 1008 959 1007 960 1008 1009 961 1009 1010 962 1010 1011 971 1011 1019 1020 1000 972 1020 972 1012 1012 973 1021 964 1013 1014 965 1014 1015 1021 973 974 974 1015 1022 975 979 1023 976 975 1024 976 1025 977 1025 1016 977 1026 978 1016 980 1027 979 980 981 1028 981 982 1029 982 983 1030 1031 983 984 984 985 1032 986 1033 985 987 1034 986 987 988 1035 988 989 1036 989 990 1037 990 1017 1038 1039 1017 991 1039 991 992 992 1018 1040 1018 993 1041 993 1019 1041 994 1042 995 1043 994 997 995 1044 996 996 1045 1001 1046 997 998 999 1047 998 1000 1048 999 1001 1049 1002 1002 1050 1003 1004 1003 1051 1005 1004 1052 1006 1005 1053 1054 1007 1006 1008 1007 1055 1009 1008 1056 1010 1009 1057 1011 1010 1058 1011 1059 1019 1020 1048 1000 1060 1020 1012 1060 1012 1021 1013 1061 1014 1014 1062 1015 1063 1021 974 1015 1064 1022 1063 974 1022 1024 975 1023 979 1027 1023 976 1024 1025 1016 1025 1065 1026 1016 1065 980 1028 1027 1028 981 1029 982 1030 1029 1030 983 1031 1031 984 1032 985 1033 1032 986 1034 1033 987 1035 1034 1035 988 1036 989 1037 1036 990 1038 1037 1038 1017 1066 1066 1017 1039 1039 992 1040 1018 1067 1040 1067 1018 1041 1019 1068 1041 1043 1042 994 995 1042 1044 1043 997 1046 996 1044 1045 1001 1045 1049 1047 1046 998 1048 1047 999 1002 1049 1050 1003 1050 1051 1052 1004 1051 1005 1052 1053 1054 1006 1053 1055 1007 1054 1008 1055 1056 1009 1056 1057 1058 1010 1057 1011 1058 1059 1059 1068 1019 1069 1048 1020 1069 1020 1060 1070 1060 1021 1061 1062 1014 1015 1062 1064 1063 1070 1021 1022 1064 1071 1063 1022 1071 1072 1024 1023 1023 1027 1073 1025 1024 1074 1025 1074 1065 1075 1026 1065 1027 1028 1076 1077 1028 1029 1029 1030 1078 1030 1031 1079 1031 1032 1080 1033 1081 1032 1034 1082 1033 1034 1035 1083 1084 1035 1036 1037 1085 1036 1038 1086 1037 1038 1066 1087 1066 1039 1088 1039 1040 1088 1067 1089 1040 1090 1067 1041 1068 1090 1041 1043 1091 1042 1044 1042 1092 1093 1043 1046 1045 1044 1094 1049 1045 1095 1047 1096 1046 1097 1047 1048 1050 1049 1098 1050 1099 1051 1052 1051 1100 1052 1101 1053 1102 1054 1053 1055 1054 1103 1055 1104 1056 1057 1056 1105 1106 1058 1057 1059 1058 1107 1059 1108 1068 1097 1048 1069 1069 1060 1109 1109 1060 1070 1061 1110 1062 1064 1062 1111 1112 1070 1063 1064 1111 1071 1112 1063 1071 1074 1024 1072 1072 1023 1073 1027 1076 1073 1074 1113 1065 1113 1075 1065 1076 1028 1077 1077 1029 1078 1030 1079 1078 1079 1031 1080 1032 1081 1080 1082 1081 1033 1034 1083 1082 1083 1035 1084 1085 1084 1036 1086 1085 1037 1038 1087 1086 1087 1066 1114 1114 1066 1088 1040 1089 1088 1115 1089 1067 1090 1115 1067 1116 1090 1068 1093 1091 1043 1042 1091 1092 1044 1092 1094 1096 1093 1046 1095 1045 1094 1049 1095 1098 1097 1096 1047 1099 1050 1098 1051 1099 1100 1101 1052 1100 1101 1102 1053 1103 1054 1102 1055 1103 1104 1056 1104 1105 1106 1057 1105 1107 1058 1106 1059 1107 1108 1108 1116 1068 1097 1069 1117 1069 1109 1117 1109 1070 1118 1062 1110 1111 1118 1070 1112 1111 1119 1071 1119 1112 1071 1120 1074 1072 1121 1072 1073 1076 1122 1073 1120 1113 1074 1123 1075 1113 1076 1077 1124 1125 1077 1078 1078 1079 1126 1127 1079 1080 1081 1128 1080 1082 1129 1081 1082 1083 1130 1131 1083 1084 1084 1085 1132 1086 1133 1085 1086 1087 1134 1087 1114 1135 1114 1088 1136 1088 1089 1136 1115 1137 1089 1090 1138 1115 1116 1138 1090 1093 1139 1091 1091 1140 1092 1092 1141 1094 1142 1093 1096 1143 1095 1094 1095 1144 1098 1145 1096 1097 1146 1099 1098 1099 1147 1100 1148 1101 1100 1149 1102 1101 1103 1102 1150 1104 1103 1151 1105 1104 1152 1153 1106 1105 1107 1106 1154 1108 1107 1155 1108 1156 1116 1145 1097 1117 1109 1157 1117 1109 1118 1157 1110 1158 1111 1118 1112 1159 1119 1111 1160 1159 1112 1119 1121 1120 1072 1122 1121 1073 1076 1124 1122 1113 1120 1161 1123 1113 1161 1124 1077 1125 1125 1078 1126 1079 1127 1126 1128 1127 1080 1081 1129 1128 1082 1130 1129 1130 1083 1131 1131 1084 1132 1085 1133 1132 1086 1134 1133 1087 1135 1134 1135 1114 1162 1162 1114 1136 1089 1137 1136 1163 1137 1115 1138 1163 1115 1116 1164 1138 1142 1139 1093 1091 1139 1140 1140 1141 1092 1141 1143 1094 1142 1096 1145 1144 1095 1143 1144 1146 1098 1146 1147 1099 1147 1148 1100 1149 1101 1148 1150 1102 1149 1103 1150 1151 1104 1151 1152 1153 1105 1152 1106 1153 1154 1155 1107 1154 1108 1155 1156 1116 1156 1164 1145 1117 1165 1117 1157 1165 1157 1118 1166 1111 1158 1160 1118 1159 1166 1119 1160 1167 1159 1119 1167 1121 1168 1120 1122 1169 1121 1122 1124 1170 1120 1171 1161 1172 1123 1161 1124 1125 1173 1174 1125 1126 1127 1175 1126 1176 1127 1128 1129 1177 1128 1129 1130 1178 1130 1131 1179 1180 1131 1132 1133 1181 1132 1133 1134 1182 1135 1183 1134 1184 1135 1162 1185 1162 1136 1137 1185 1136 1163 1186 1137 1138 1187 1163 1138 1164 1187 1188 1139 1142 1139 1189 1140 1190 1141 1140 1141 1191 1143 1142 1145 1192 1193 1144 1143 1144 1194 1146 1146 1195 1147 1147 1196 1148 1197 1149 1148 1150 1149 1198 1150 1199 1151 1152 1151 1200 1201 1153 1152 1153 1202 1154 1203 1155 1154 1156 1155 1204 1164 1156 1205 1192 1145 1165 1165 1157 1206 1206 1157 1166 1158 1207 1160 1166 1159 1208 1160 1209 1167 1208 1159 1167 1121 1169 1168 1120 1168 1171 1122 1170 1169 1170 1124 1173 1171 1210 1161 1210 1172 1161 1125 1174 1173 1175 1174 1126 1176 1175 1127 1177 1176 1128 1129 1178 1177 1178 1130 1179 1131 1180 1179 1181 1180 1132 1181 1133 1182 1134 1183 1182 1184 1183 1135 1184 1162 1211 1211 1162 1185 1137 1186 1185 1163 1212 1186 1163 1187 1212 1187 1164 1213 1188 1189 1139 1188 1142 1192 1189 1190 1140 1190 1191 1141 1191 1193 1143 1193 1194 1144 1146 1194 1195 1147 1195 1196 1196 1197 1148 1198 1149 1197 1150 1198 1199 1151 1199 1200 1201 1152 1200 1201 1202 1153 1202 1203 1154 1204 1155 1203 1156 1204 1205 1164 1205 1213 1214 1192 1165 1214 1165 1206 1215 1206 1166 1207 1209 1160 1215 1166 1208 1209 1216 1167 1216 1208 1167 1168 1169 1217 1171 1168 1218 1169 1170 1219 1220 1170 1173 1171 1218 1210 1221 1172 1210 1174 1222 1173 1175 1223 1174 1224 1175 1176 1177 1225 1176 1177 1178 1226 1178 1179 1227 1180 1228 1179 1181 1229 1180 1230 1181 1182 1182 1183 1231 1184 1232 1183 1233 1184 1211 1234 1211 1185 1186 1234 1185 1186 1212 1235 1212 1187 1236 1236 1187 1213 1237 1189 1188 1238 1188 1192 1239 1190 1189 1240 1191 1190 1191 1241 1193 1242 1194 1193 1194 1243 1195 1195 1244 1196 1245 1197 1196 1198 1197 1246 1199 1198 1247 1200 1199 1248 1249 1201 1200 1250 1202 1201 1251 1203 1202 1204 1203 1252 1204 1253 1205 1205 1254 1213 1214 1238 1192 1255 1214 1206 1215 1255 1206 1207 1256 1209 1257 1215 1208 1209 1258 1216 1216 1257 1208 1169 1219 1217 1168 1217 1218 1219 1170 1220 1222 1220 1173 1218 1259 1210 1259 1221 1210 1174 1223 1222 1224 1223 1175 1225 1224 1176 1177 1226 1225 1226 1178 1227 1179 1228 1227 1229 1228 1180 1230 1229 1181 1230 1182 1231 1183 1232 1231 1233 1232 1184 1260 1233 1211 1234 1260 1211 1186 1235 1234 1235 1212 1261 1212 1236 1261 1236 1213 1262 1239 1189 1237 1237 1188 1238 1240 1190 1239 1240 1241 1191 1241 1242 1193 1242 1243 1194 1243 1244 1195 1244 1245 1196 1246 1197 1245 1198 1246 1247 1199 1247 1248 1249 1200 1248 1250 1201 1249 1251 1202 1250 1252 1203 1251 1204 1252 1253 1253 1254 1205 1213 1254 1262 1263 1238 1214 1255 1263 1214 1264 1255 1215 1209 1256 1258 1264 1215 1257 1216 1258 1265 1257 1216 1265 1219 1266 1217 1218 1217 1267 1219 1220 1268 1220 1222 1269 1259 1218 1267 1270 1221 1259 1223 1271 1222 1224 1272 1223 1225 1273 1224 1225 1226 1274 1275 1226 1227 1227 1228 1276 1229 1277 1228 1230 1278 1229 1279 1230 1231 1232 1280 1231 1233 1281 1232 1260 1282 1233 1234 1283 1260 1234 1235 1283 1284 1235 1261 1236 1285 1261 1285 1236 1262 1239 1237 1286 1237 1238 1287 1240 1239 1288 1289 1241 1240 1290 1242 1241 1291 1243 1242 1292 1244 1243 1293 1245 1244 1246 1245 1294 1246 1295 1247 1247 1296 1248 1297 1249 1248 1250 1249 1298 1251 1250 1299 1252 1251 1300 1253 1252 1301 1253 1302 1254 1254 1303 1262 1287 1238 1263 1304 1263 1255 1304 1255 1264 1256 1305 1258 1264 1257 1306 1258 1307 1265 1308 1257 1265 1219 1268 1266 1217 1266 1267 1268 1220 1269 1222 1271 1269 1309 1259 1267 1270 1259 1309 1223 1272 1271 1224 1273 1272 1225 1274 1273 1274 1226 1275 1275 1227 1276 1228 1277 1276 1229 1278 1277 1279 1278 1230 1280 1279 1231 1232 1281 1280 1233 1282 1281 1260 1310 1282 1260 1283 1310 1283 1235 1284 1284 1261 1311 1261 1285 1311 1312 1285 1262 1288 1239 1286 1237 1287 1286 1289 1240 1288 1290 1241 1289 1291 1242 1290 1292 1243 1291 1293 1244 1292 1294 1245 1293 1246 1294 1295 1295 1296 1247 1296 1297 1248 1249 1297 1298 1250 1298 1299 1251 1299 1300 1301 1252 1300 1253 1301 1302 1302 1303 1254 1303 1312 1262 1287 1263 1313 1313 1263 1304 1304 1264 1314 1258 1305 1307 1314 1264 1306 1257 1308 1306 1307 1308 1265 1266 1268 1315 1266 1316 1267 1317 1268 1269 1269 1271 1318 1316 1309 1267 1319 1270 1309 1272 1320 1271 1273 1321 1272 1273 1274 1322 1274 1275 1323 1324 1275 1276 1277 1325 1276 1277 1278 1326 1279 1327 1278 1280 1328 1279 1280 1281 1329 1281 1282 1330 1282 1310 1331 1310 1283 1332 1283 1284 1332 1284 1311 1333 1285 1334 1311 1312 1334 1285 1288 1286 1335 1287 1336 1286 1289 1288 1337 1290 1289 1338 1291 1290 1339 1292 1291 1340 1293 1292 1341 1294 1293 1342 1294 1343 1295 1344 1296 1295 1296 1345 1297 1297 1346 1298 1298 1347 1299 1299 1348 1300 1301 1300 1349 1302 1301 1350 1351 1303 1302 1303 1352 1312 1287 1313 1336 1313 1304 1353 1304 1314 1353 1305 1354 1307 1355 1314 1306 1308 1355 1306 1307 1356 1308 1315 1268 1317 1266 1315 1316 1317 1269 1318 1271 1320 1318 1316 1357 1309 1357 1319 1309 1321 1320 1272 1273 1322 1321 1322 1274 1323 1275 1324 1323 1325 1324 1276 1325 1277 1326 1278 1327 1326 1279 1328 1327 1280 1329 1328 1329 1281 1330 1282 1331 1330 1331 1310 1358 1358 1310 1332 1332 1284 1333 1311 1359 1333 1334 1359 1311 1360 1334 1312 1337 1288 1335 1286 1336 1335 1338 1289 1337 1339 1290 1338 1291 1339 1340 1341 1292 1340 1342 1293 1341 1294 1342 1343 1343 1344 1295 1344 1345 1296 1345 1346 1297 1346 1347 1298 1347 1348 1299 1300 1348 1349 1350 1301 1349 1351 1302 1350 1351 1352 1303 1352 1360 1312 1336 1313 1361 1361 1313 1353 1314 1362 1353 1354 1356 1307 1314 1355 1362 1308 1356 1355 1315 1317 1363 1316 1315 1364 1365 1317 1318 1320 1366 1318 1357 1316 1364 1367 1319 1357 1321 1368 1320 1321 1322 1369 1322 1323 1370 1324 1371 1323 1325 1372 1324 1373 1325 1326 1327 1374 1326 1327 1328 1375 1328 1329 1376 1329 1330 1377 1331 1378 1330 1331 1358 1379 1380 1358 1332 1380 1332 1333 1333 1359 1381 1334 1382 1359 1360 1382 1334 1383 1337 1335 1335 1336 1384 1385 1338 1337 1386 1339 1338 1340 1339 1387 1388 1341 1340 1389 1342 1341 1343 1342 1390 1343 1391 1344 1392 1345 1344 1393 1346 1345 1346 1394 1347 1347 1395 1348 1348 1396 1349 1397 1350 1349 1398 1351 1350 1351 1399 1352 1352 1400 1360 1336 1361 1384 1361 1353 1401 1353 1362 1401 1354 1402 1356 1362 1355 1403 1355 1356 1404 1315 1363 1364 1363 1317 1365 1366 1365 1318 1320 1368 1366 1357 1364 1405 1367 1357 1406 1321 1369 1368 1369 1322 1370 1323 1371 1370 1324 1372 1371 1373 1372 1325 1374 1373 1326 1327 1375 1374 1375 1328 1376 1376 1329 1377 1330 1378 1377 1331 1379 1378 1379 1358 1407 1407 1358 1380 1380 1333 1381 1359 1408 1381 1382 1408 1359 1360 1409 1382 1383 1385 1337 1383 1335 1384 1385 1386 1338 1339 1386 1387 1388 1340 1387 1388 1389 1341 1390 1342 1389 1343 1390 1391 1391 1392 1344 1392 1393 1345 1393 1394 1346 1347 1394 1395 1395 1396 1348 1396 1397 1349 1398 1350 1397 1398 1399 1351 1352 1399 1400 1360 1400 1409 1384 1361 1410 1410 1361 1401 1401 1362 1411 1356 1402 1404 1355 1404 1403 1362 1403 1411 1363 1412 1364 1363 1365 1413 1414 1365 1366 1368 1415 1366 1357 1405 1406 1364 1412 1405 1416 1367 1406 1368 1369 1417 1418 1369 1370 1370 1371 1419 1371 1372 1420 1373 1421 1372 1374 1422 1373 1374 1375 1423 1424 1375 1376 1425 1376 1377 1377 1378 1426 1378 1379 1427 1379 1407 1428 1407 1380 1429 1429 1380 1381 1408 1430 1381 1382 1431 1408 1382 1409 1431 1432 1385 1383 1433 1383 1384 1385 1434 1386 1386 1435 1387 1436 1388 1387 1388 1437 1389 1438 1390 1389 1391 1390 1439 1391 1440 1392 1392 1441 1393 1393 1442 1394 1394 1443 1395 1444 1396 1395 1396 1445 1397 1446 1398 1397 1398 1447 1399 1400 1399 1448 1409 1400 1449 1433 1384 1410 1450 1410 1401 1450 1401 1411 1402 1451 1404 1404 1452 1403 1403 1453 1411 1363 1413 1412 1365 1414 1413 1415 1414 1366 1368 1417 1415 1405 1454 1406 1405 1412 1455 1454 1416 1406 1417 1369 1418 1418 1370 1419 1371 1420 1419 1372 1421 1420 1373 1422 1421 1374 1423 1422 1423 1375 1424 1425 1424 1376 1425 1377 1426 1378 1427 1426 1427 1379 1428 1428 1407 1456 1407 1429 1456 1430 1429 1381 1408 1457 1430 1408 1431 1457 1431 1409 1458 1432 1434 1385 1432 1383 1433 1434 1435 1386 1435 1436 1387 1436 1437 1388 1437 1438 1389 1439 1390 1438 1391 1439 1440 1392 1440 1441 1393 1441 1442 1394 1442 1443 1443 1444 1395 1444 1445 1396 1445 1446 1397 1446 1447 1398 1399 1447 1448 1449 1400 1448 1409 1449 1458 1459 1433 1410 1450 1459 1410 1450 1411 1460 1451 1452 1404 1452 1453 1403 1411 1453 1460 1413 1461 1412 1414 1462 1413 1415 1463 1414 1415 1417 1464 1454 1405 1455 1412 1461 1455 1465 1416 1454 1417 1418 1466 1467 1418 1419 1420 1468 1419 1421 1469 1420 1421 1422 1470 1422 1423 1471 1423 1424 1472 1473 1424 1425 1474 1425 1426 1426 1427 1475 1476 1427 1428 1477 1428 1456 1429 1478 1456 1430 1478 1429 1430 1457 1479 1457 1431 1480 1480 1431 1458 1432 1481 1434 1482 1432 1433 1434 1483 1435 1435 1484 1436 1437 1436 1485 1486 1438 1437 1439 1438 1487 1440 1439 1488 1441 1440 1489 1442 1441 1490 1443 1442 1491 1443 1492 1444 1444 1493 1445 1445 1494 1446 1446 1495 1447 1447 1496 1448 1449 1448 1497 1458 1449 1498 1459 1482 1433 1499 1459 1450 1499 1450 1460 1451 1500 1452 1452 1501 1453 1460 1453 1502 1462 1461 1413 1414 1463 1462 1415 1464 1463 1464 1417 1466 1503 1454 1455 1461 1503 1455 1465 1454 1504 1418 1467 1466 1468 1467 1419 1469 1468 1420 1421 1470 1469 1470 1422 1471 1423 1472 1471 1472 1424 1473 1473 1425 1474 1474 1426 1475 1427 1505 1475 1505 1427 1476 1477 1476 1428 1478 1477 1456 1478 1430 1479 1457 1506 1479 1457 1480 1506 1507 1480 1458 1482 1481 1432 1434 1481 1483 1483 1484 1435 1436 1484 1485 1486 1437 1485 1487 1438 1486 1439 1487 1488 1489 1440 1488 1441 1489 1490 1491 1442 1490 1443 1491 1492 1444 1492 1493 1445 1493 1494 1446 1494 1495 1447 1495 1496 1448 1496 1497 1449 1497 1498 1507 1458 1498 1508 1482 1459 1508 1459 1499 1509 1499 1460 1452 1500 1501 1453 1501 1502 1509 1460 1502 1510 1461 1462 1463 1511 1462 1463 1464 1512 1513 1464 1466 1454 1503 1504 1510 1503 1461 1514 1465 1504 1466 1467 1515 1468 1516 1467 1469 1517 1468 1469 1470 1518 1519 1470 1471 1471 1472 1520 1472 1473 1521 1473 1474 1522 1523 1474 1475 1505 1523 1475 1524 1505 1476 1525 1476 1477 1526 1477 1478 1527 1478 1479 1479 1506 1528 1506 1480 1529 1530 1480 1507 1531 1481 1482 1481 1532 1483 1533 1484 1483 1484 1534 1485 1535 1486 1485 1487 1486 1536 1487 1537 1488 1489 1488 1538 1490 1489 1539 1540 1491 1490 1492 1491 1541 1493 1492 1542 1494 1493 1543 1495 1494 1544 1496 1495 1545 1496 1546 1497 1497 1547 1498 1507 1498 1548 1531 1482 1508 1508 1499 1549 1549 1499 1509 1500 1550 1501 1501 1551 1502 1551 1509 1502 1511 1510 1462 1463 1512 1511 1512 1464 1513 1513 1466 1515 1504 1503 1552 1510 1553 1503 1554 1514 1504 1467 1516 1515 1468 1517 1516 1469 1518 1517 1518 1470 1519 1519 1471 1520 1472 1521 1520 1521 1473 1522 1522 1474 1523 1505 1555 1523 1524 1555 1505 1524 1476 1525 1525 1477 1526 1527 1526 1478 1527 1479 1528 1506 1556 1528 1480 1530 1529 1556 1506 1529 1530 1507 1557 1531 1532 1481 1532 1533 1483 1533 1534 1484 1534 1535 1485 1536 1486 1535 1487 1536 1537 1488 1537 1538 1489 1538 1539 1540 1490 1539 1541 1491 1540 1492 1541 1542 1543 1493 1542 1494 1543 1544 1545 1495 1544 1496 1545 1546 1546 1547 1497 1498 1547 1548 1557 1507 1548 1531 1508 1558 1508 1549 1558 1549 1509 1559 1501 1550 1551 1509 1551 1559 1511 1560 1510 1511 1512 1561 1512 1513 1562 1513 1515 1563 1503 1553 1552 1554 1504 1552 1510 1560 1553 1564 1514 1554 1516 1565 1515 1516 1517 1566 1517 1518 1567 1518 1519 1568 1569 1519 1520 1521 1569 1520 1521 1522 1570 1571 1522 1523 1555 1571 1523 1524 1572 1555 1573 1524 1525 1574 1525 1526 1527 1575 1526 1576 1527 1528 1556 1576 1528 1530 1577 1529 1577 1556 1529 1578 1530 1557 1579 1532 1531 1580 1533 1532 1581 1534 1533 1582 1535 1534 1536 1535 1583 1536 1584 1537 1537 1585 1538 1538 1586 1539 1540 1539 1587 1541 1540 1588 1541 1589 1542 1543 1542 1590 1544 1543 1591 1592 1545 1544 1546 1545 1593 1546 1594 1547 1547 1595 1548 1595 1557 1548 1579 1531 1558 1558 1549 1596 1597 1549 1559 1550 1598 1551 1551 1599 1559 1511 1561 1560 1561 1512 1562 1562 1513 1563 1515 1565 1563 1553 1600 1552 1600 1554 1552 1553 1560 1601 1602 1564 1554 1516 1566 1565 1566 1517 1567 1518 1568 1567 1568 1519 1603 1519 1569 1603 1569 1521 1570 1522 1604 1570 1571 1604 1522 1605 1571 1555 1573 1572 1524 1572 1605 1555 1574 1573 1525 1575 1574 1526 1576 1575 1527 1578 1577 1530 1606 1578 1557 1580 1532 1579 1581 1533 1580 1582 1534 1581 1583 1535 1582 1536 1583 1584 1584 1585 1537 1585 1586 1538 1539 1586 1587 1588 1540 1587 1541 1588 1589 1542 1589 1590 1543 1590 1591 1592 1544 1591 1593 1545 1592 1546 1593 1594 1594 1595 1547 1595 1606 1557 1607 1579 1558 1549 1597 1596 1607 1558 1596 1599 1597 1559 1598 1599 1551 1560 1561 1608 1609 1561 1562 1610 1562 1563 1563 1565 1611 1553 1601 1600 1602 1554 1600 1560 1608 1601 1612 1564 1602 1565 1566 1613 1614 1566 1567 1567 1568 1615 1616 1568 1603 1569 1617 1603 1618 1569 1570 1604 1618 1570 1619 1604 1571 1605 1619 1571 1580 1579 1620 1581 1580 1621 1582 1581 1622 1583 1582 1623 1584 1583 1624 1584 1625 1585 1585 1626 1586 1586 1627 1587 1628 1588 1587 1589 1588 1629 1589 1630 1590 1590 1631 1591 1592 1591 1632 1593 1592 1633 1594 1593 1634 1595 1594 1635 1636 1606 1595 1579 1607 1620 1597 1637 1596 1637 1607 1596 1599 1638 1597 1598 1639 1599 1608 1561 1609 1610 1609 1562 1610 1563 1611 1565 1613 1611 1601 1640 1600 1640 1602 1600 1608 1641 1601 1612 1602 1642 1613 1566 1614 1614 1567 1615 1568 1616 1615 1617 1616 1603 1618 1617 1569 1604 1643 1618 1619 1643 1604 1621 1580 1620 1581 1621 1622 1623 1582 1622 1624 1583 1623 1584 1624 1625 1585 1625 1626 1626 1627 1586 1627 1628 1587 1588 1628 1629 1630 1589 1629 1630 1631 1590 1591 1631 1632 1633 1592 1632 1593 1633 1634 1644 1594 1634 1636 1595 1635 1594 1644 1635 1607 1645 1620 1637 1597 1646 1637 1645 1607 1599 1639 1638 1597 1638 1646 1608 1609 1647 1648 1609 1610 1649 1610 1611 1611 1613 1650 1601 1641 1640 1642 1602 1640 1608 1647 1641 1651 1612 1642 1613 1614 1652 1653 1614 1615 1616 1653 1615 1617 1654 1616 1655 1617 1618 1643 1655 1618 1656 1621 1620 1622 1621 1657 1658 1623 1622 1659 1624 1623 1625 1624 1660 1625 1661 1626 1662 1627 1626 1627 1663 1628 1628 1664 1629 1665 1630 1629 1630 1666 1631 1631 1667 1632 1633 1632 1668 1633 1669 1634 1669 1644 1634 1670 1636 1635 1644 1670 1635 1645 1656 1620 1637 1646 1671 1672 1645 1637 1639 1673 1638 1638 1674 1646 1647 1609 1648 1648 1610 1649 1649 1611 1650 1650 1613 1652 1641 1675 1640 1675 1642 1640 1641 1647 1676 1651 1642 1677 1614 1678 1652 1614 1653 1678 1679 1653 1616 1655 1654 1617 1654 1679 1616 1621 1656 1657 1658 1622 1657 1658 1659 1623 1660 1624 1659 1625 1660 1661 1661 1662 1626 1662 1663 1627 1663 1664 1628 1664 1665 1629 1665 1666 1630 1631 1666 1667 1632 1667 1668 1669 1633 1668 1669 1680 1644 1680 1670 1644 1645 1681 1656 1672 1637 1671 1646 1674 1671 1672 1681 1645 1673 1674 1638 1647 1648 1682 1648 1649 1683 1684 1649 1650 1685 1650 1652 1641 1676 1675 1642 1675 1677 1676 1647 1682 1686 1651 1677 1678 1685 1652 1653 1687 1678 1679 1687 1653 1656 1688 1657 1689 1658 1657 1658 1690 1659 1691 1660 1659 1661 1660 1692 1661 1693 1662 1662 1694 1663 1663 1695 1664 1664 1696 1665 1665 1697 1666 1667 1666 1698 1668 1667 1699 1700 1669 1668 1701 1680 1669 1681 1688 1656 1702 1672 1671 1674 1702 1671 1703 1681 1672 1673 1704 1674 1648 1683 1682 1683 1649 1684 1685 1684 1650 1676 1705 1675 1675 1705 1677 1706 1676 1682 1686 1677 1707 1708 1685 1678 1687 1708 1678 1688 1689 1657 1689 1690 1658 1690 1691 1659 1692 1660 1691 1661 1692 1693 1662 1693 1694 1663 1694 1695 1664 1695 1696 1665 1696 1697 1666 1697 1698 1667 1698 1699 1700 1668 1699 1701 1669 1700 1681 1709 1688 1703 1672 1702 1674 1704 1702 1703 1709 1681 1683 1706 1682 1710 1683 1684 1685 1711 1684 1705 1676 1712 1677 1705 1707 1676 1706 1712 1713 1686 1707 1708 1711 1685 1714 1689 1688 1689 1715 1690 1716 1691 1690 1692 1691 1717 1693 1692 1718 1694 1693 1719 1695 1694 1720 1696 1695 1721 1697 1696 1722 1697 1723 1698 1698 1724 1699 1724 1700 1699 1725 1701 1700 1709 1714 1688 1726 1703 1702 1704 1727 1702 1728 1709 1703 1729 1706 1683 1710 1729 1683 1711 1710 1684 1730 1705 1712 1705 1731 1707 1706 1732 1712 1731 1713 1707 1714 1715 1689 1715 1716 1690 1717 1691 1716 1692 1717 1718 1693 1718 1719 1720 1694 1719 1695 1720 1721 1722 1696 1721 1697 1722 1723 1698 1723 1733 1724 1698 1733 1724 1725 1700 1734 1714 1709 1726 1728 1703 1727 1726 1702 1734 1709 1728 1729 1732 1706 1730 1731 1705 1732 1730 1712 1735 1715 1714 1736 1716 1715 1717 1716 1737 1717 1738 1718 1718 1739 1719 1720 1719 1740 1721 1720 1741 1722 1721 1742 1723 1722 1743 1723 1744 1733 1745 1724 1733 1745 1725 1724 1735 1714 1734 1728 1726 1746 1727 1747 1726 1734 1728 1748 1736 1715 1735 1737 1716 1736 1717 1737 1738 1738 1739 1718 1719 1739 1740 1720 1740 1741 1721 1741 1742 1743 1722 1742 1744 1723 1743 1744 1749 1733 1749 1745 1733 1735 1734 1750 1726 1747 1746 1748 1728 1746 1734 1748 1750 1736 1735 1751 1737 1736 1752 1738 1737 1753 1738 1754 1739 1739 1755 1740 1740 1756 1741 1741 1757 1742 1757 1743 1742 1758 1744 1743 1759 1749 1744 1751 1735 1750 1747 1760 1746 1748 1746 1761 1748 1762 1750 1736 1751 1752 1753 1737 1752 1738 1753 1754 1754 1755 1739 1755 1756 1740 1741 1756 1763 1757 1741 1763 1757 1758 1743 1759 1744 1758 1751 1750 1764 1746 1760 1761 1762 1748 1761 1750 1762 1764 1752 1751 1765 1766 1753 1752 1754 1753 1767 1754 1768 1755 1755 1769 1756 1756 1770 1763 1771 1757 1763 1771 1758 1757 1772 1759 1758 1765 1751 1764 1760 1773 1761 1774 1762 1761 1762 1775 1764 1766 1752 1765 1767 1753 1766 1754 1767 1768 1755 1768 1769 1756 1769 1770 1770 1771 1763 1771 1772 1758 1775 1765 1764 1773 1774 1761 1774 1775 1762 1776 1766 1765 1767 1766 1777 1768 1767 1778 1769 1768 1779 1769 1780 1770 1781 1771 1770 1781 1772 1771 1765 1775 1782 1773 1783 1774 1774 1784 1775 1777 1766 1776 1776 1765 1782 1767 1777 1778 1779 1768 1778 1780 1769 1779 1780 1785 1770 1785 1781 1770 1775 1784 1782 1774 1783 1784 1777 1776 1786 1776 1782 1787 1777 1788 1778 1779 1778 1789 1780 1779 1790 1791 1785 1780 1784 1792 1782 1783 1793 1784 1777 1786 1788 1786 1776 1787 1782 1792 1787 1778 1788 1789 1790 1779 1789 1791 1780 1790 1793 1792 1784 1788 1786 1794 1795 1786 1787 1792 1795 1787 1789 1788 1796 1797 1790 1789 1798 1791 1790 1793 1799 1792 1794 1786 1795 1788 1794 1796 1795 1792 1800 1797 1789 1796 1797 1798 1790 1792 1799 1800 1794 1795 1801 1794 1802 1796 1803 1795 1800 1802 1797 1796 1804 1798 1797 1799 1805 1800 1806 1794 1801 1795 1803 1801 1794 1806 1802 1805 1803 1800 1804 1797 1802 1803 1806 1801 1806 1807 1802 1805 1808 1803 1807 1804 1802 1806 1803 1809 1810 1807 1806 1803 1808 1809 1810 1806 1809 1808 1811 1809 1811 1810 1809 </DataArray>
        <DataArray type="Int32" Name="offsets" format="ascii">3 6 9 12 15 18 21 24 27 30 33 36 39 42 45 48 51 54 57 60 63 66 69 72 75 78 81 84 87 90 93 96 99 102 105 108 111 114 117 120 123 126 129 132 135 138 141 144 147 150 153 156 159 162 165 168 171 174 177 180 183 186 189 192 195 198 201 204 207 210 213 216 219 222 225 228 231 234 237 240 243 246 249 252 255 258 261 264 267 270 273 276 279 282 285 288 291 294 297 300 303 306 309 312 315 318 321 324 327 330 333 336 339 342 345 348 351 354 357 360 363 366 369 372 375 378 381 384 387 390 393 396 399 402 405 408 411 414 417 420 423 426 429 432 435 438 441 444 447 450 453 456 459 462 465 468 471 474 477 480 483 486 489 492 495 498 501 504 507 510 513 516 519 522 525 528 531 534 537 540 543 546 549 552 555 558 561 564 567 570 573 576 579 582 585 588 591 594 597 600 603 606 609 612 615 618 621 624 627 630 633 636 639 642 645 648 651 654 657 660 663 666 669 672 675 678 681 684 687 690 693 696 699 702 705 708 711 714 717 720 723 726 729 732 735 738 741 744 747 750 753 756 759 762 765 768 771 774 777 780 783 786 789 792 795 798 801 804 807 810 813 816 819 822 825 828 831 834 837 840 843 846 849 852 855 858 861 864 867 870 873 876 879 882 885 888 891 894 897 900 903 906 909 912 915 918 921 924 927 930 933 936 939 942 945 948 951 954 957 960 963 966 969 972 975 978 981 984 987 990 993 996 999 1002 1005 1008 1011 1014 1017 1020 1023 1026 1029 1032 1035 1038 1041 1044 1047 1050 1053 1056 1059 1062 1065 1068 1071 1074 1077 1080 1083 1086 1089 1092 1095 1098 1101 1104 1107 1110 1113 1116 1119 1122 1125 1128 1131 1134 1137 1140 1143 1146 1149 1152 1155 1158 1161 1164 1167 1170 1173 1176 1179 1182 1185 1188 1191 1194 1197 1200 1203 1206 1209 1212 1215 1218 1221 1224 1227 1230 1233 1236 1239 1242 1245 1248 1251 1254 1257 1260 1263 1266 1269 1272 1275 1278 1281 1284 1287 1290 1293 1296 1299 1302 1305 1308 1311 1314 1317 1320 1323 1326 1329 1332 1335 1338 1341 1344 1347 1350 1353 1356 1359 1362 1365 1368 1371 1374 1377 1380 1383 1386 1389 1392 1395 1398 1401 1404 1407 1410 1413 1416 1419 1422 1425 1428 1431 1434 1437 1440 1443 1446 1449 1452 1455 1458 1461 1464 1467 1470 1473 1476 1479 1482 1485 1488 1491 1494 1497 1500 1503 1506 1509 1512 1515 1518 1521 1524 1527 1530 1533 1536 1539 1542 1545 1548 1551 1554 1557 1560 1563 1566 1569 1572 1575 1578 1581 1584 1587 1590 1593 1596 1599 1602 1605 1608 1611 1614 1617 1620 1623 1626 1629 1632 1635 1638 1641 1644 1647 1650 1653 1656 1659 1662 1665 1668 1671 1674 1677 1680 1683 1686 1689 1692 1695 1698 1701 1704 1707 1710 1713 1716 1719 1722 1725 1728 1731 1734 1737 1740 1743 1746 1749 1752 1755 1758 1761 1764 1767 1770 1773 1776 1779 1782 1785 1788 1791 1794 1797 1800 1803 1806 1809 1812 1815 1818 1821 1824 1827 1830 1833 1836 1839 1842 1845 1848 1851 1854 1857 1860 1863 1866 1869 1872 1875 1878 1881 1884 1887 1890 1893 1896 1899 1902 1905 1908 1911 1914 1917 1920 1923 1926 1929 1932 1935 1938 1941 1944 1947 1950 1953 1956 1959 1962 1965 1968 1971 1974 1977 1980 1983 1986 1989 1992 1995 1998 2001 2004 2007 2010 2013 2016 2019 2022 2025 2028 2031 2034 2037 2040 2043 2046 2049 2052 2055 2058 2061 2064 2067 2070 2073 2076 2079 2082 2085 2088 2091 2094 2097 2100 2103 2106 2109 2112 2115 2118 2121 2124 2127 2130 2133 2136 2139 2142 2145 2148 2151 2154 2157 2160 2163 2166 2169 2172 2175 2178 2181 2184 2187 2190 2193 2196 2199 2202 2205 2208 2211 2214 2217 2220 2223 2226 2229 2232 2235 2238 2241 2244 2247 2250 2253 2256 2259 2262 2265 2268 2271 2274 2277 2280 2283 2286 2289 2292 2295 2298 2301 2304 2307 2310 2313 2316 2319 2322 2325 2328 2331 2334 2337 2340 2343 2346 2349 2352 2355 2358 2361 2364 2367 2370 2373 2376 2379 2382 2385 2388 2391 2394 2397 2400 2403 2406 2409 2412 2415 2418 2421 2424 2427 2430 2433 2436 2439 2442 2445 2448 2451 2454 2457 2460 2463 2466 2469 2472 2475 2478 2481 2484 2487 2490 2493 2496 2499 2502 2505 2508 2511 2514 2517 2520 2523 2526 2529 2532 2535 2538 2541 2544 2547 2550 2553 2556 2559 2562 2565 2568 2571 2574 2577 2580 2583 2586 2589 2592 2595 2598 2601 2604 2607 2610 2613 2616 2619 2622 2625 2628 2631 2634 2637 2640 2643 2646 2649 2652 2655 2658 2661 2664 2667 2670 2673 2676 2679 2682 2685 2688 2691 2694 2697 2700 2703 2706 2709 2712 2715 2718 2721 2724 2727 2730 2733 2736 2739 2742 2745 2748 2751 2754 2757 2760 2763 2766 2769 2772 2775 2778 2781 2784 2787 2790 2793 2796 2799 2802 2805 2808 2811 2814 2817 2820 2823 2826 2829 2832 2835 2838 2841 2844 2847 2850 2853 2856 2859 2862 2865 2868 2871 2874 2877 2880 2883 2886 2889 2892 2895 2898 2901 2904 2907 2910 2913 2916 2919 2922 2925 2928 2931 2934 2937 2940 2943 2946 2949 2952 2955 2958 2961 2964 2967 2970 2973 2976 2979 2982 2985 2988 2991 2994 2997 3000 3003 3006 3009 3012 3015 3018 3021 3024 3027 3030 3033 3036 3039 3042 3045 3048 3051 3054 3057 3060 3063 3066 3069 3072 3075 3078 3081 3084 3087 3090 3093 3096 3099 3102 3105 3108 3111 3114 3117 3120 3123 3126 3129 3132 3135 3138 3141 3144 3147 3150 3153 3156 3159 3162 3165 3168 3171 3174 3177 3180 3183 3186 3189 3192 3195 3198 3201 3204 3207 3210 3213 3216 3219 3222 3225 3228 3231 3234 3237 3240 3243 3246 3249 3252 3255 3258 3261 3264 3267 3270 3273 3276 3279 3282 3285 3288 3291 3294 3297 3300 3303 3306 3309 3312 3315 3318 3321 3324 3327 3330 3333 3336 3339 3342 3345 3348 3351 3354 3357 3360 3363 3366 3369 3372 3375 3378 3381 3384 3387 3390 3393 3396 3399 3402 3405 3408 3411 3414 3417 3420 3423 3426 3429 3432 3435 3438 3441 3444 3447 3450 3453 3456 3459 3462 3465 3468 3471 3474 3477 3480 3483 3486 3489 3492 3495 3498 3501 3504 3507 3510 3513 3516 3519 3522 3525 3528 3531 3534 3537 3540 3543 3546 3549 3552 3555 3558 3561 3564 3567 3570 3573 3576 3579 3582 3585 3588 3591 3594 3597 3600 3603 3606 3609 3612 3615 3618 3621 3624 3627 3630 3633 3636 3639 3642 3645 3648 3651 3654 3657 3660 3663 3666 3669 3672 3675 3678 3681 3684 3687 3690 3693 3696 3699 3702 3705 3708 3711 3714 3717 3720 3723 3726 3729 3732 3735 3738 3741 3744 3747 3750 3753 3756 3759 3762 3765 3768 3771 3774 3777 3780 3783 3786 3789 3792 3795 3798 3801 3804 3807 3810 3813 3816 3819 3822 3825 3828 3831 3834 3837 3840 3843 3846 3849 3852 3855 3858 3861 3864 3867 3870 3873 3876 3879 3882 3885 3888 3891 3894 3897 3900 3903 3906 3909 3912 3915 3918 3921 3924 3927 3930 3933 3936 3939 3942 3945 3948 3951 3954 3957 3960 3963 3966 3969 3972 3975 3978 3981 3984 3987 3990 3993 3996 3999 4002 4005 4008 4011 4014 4017 4020 4023 4026 4029 4032 4035 4038 4041 4044 4047 4050 4053 4056 4059 4062 4065 4068 4071 4074 4077 4080 4083 4086 4089 4092 4095 4098 4101 4104 4107 4110 4113 4116 4119 4122 4125 4128 4131 4134 4137 4140 4143 4146 4149 4152 4155 4158 4161 4164 4167 4170 4173 4176 4179 4182 4185 4188 4191 4194 4197 4200 4203 4206 4209 4212 4215 4218 4221 4224 4227 4230 4233 4236 4239 4242 4245 4248 4251 4254 4257 4260 4263 4266 4269 4272 4275 4278 4281 4284 4287 4290 4293 4296 4299 4302 4305 4308 4311 4314 4317 4320 4323 4326 4329 4332 4335 4338 4341 4344 4347 4350 4353 4356 4359 4362 4365 4368 4371 4374 4377 4380 4383 4386 4389 4392 4395 4398 4401 4404 4407 4410 4413 4416 4419 4422 4425 4428 4431 4434 4437 4440 4443 4446 4449 4452 4455 4458 4461 4464 4467 4470 4473 4476 4479 4482 4485 4488 4491 4494 4497 4500 4503 4506 4509 4512 4515 4518 4521 4524 4527 4530 4533 4536 4539 4542 4545 4548 4551 4554 4557 4560 4563 4566 4569 4572 4575 4578 4581 4584 4587 4590 4593 4596 4599 4602 4605 4608 4611 4614 4617 4620 4623 4626 4629 4632 4635 4638 4641 4644 4647 4650 4653 4656 4659 4662 4665 4668 4671 4674 4677 4680 4683 4686 4689 4692 4695 4698 4701 4704 4707 4710 4713 4716 4719 4722 4725 4728 4731 4734 4737 4740 4743 4746 4749 4752 4755 4758 4761 4764 4767 4770 4773 4776 4779 4782 4785 4788 4791 4794 4797 4800 4803 4806 4809 4812 4815 4818 4821 4824 4827 4830 4833 4836 4839 4842 4845 4848 4851 4854 4857 4860 4863 4866 4869 4872 4875 4878 4881 4884 4887 4890 4893 4896 4899 4902 4905 4908 4911 4914 4917 4920 4923 4926 4929 4932 4935 4938 4941 4944 4947 4950 4953 4956 4959 4962 4965 4968 4971 4974 4977 4980 4983 4986 4989 4992 4995 4998 5001 5004 5007 5010 5013 5016 5019 5022 5025 5028 5031 5034 5037 5040 5043 5046 5049 5052 5055 5058 5061 5064 5067 5070 5073 5076 5079 5082 5085 5088 5091 5094 5097 5100 5103 5106 5109 5112 5115 5118 5121 5124 5127 5130 5133 5136 5139 5142 5145 5148 5151 5154 5157 5160 5163 5166 5169 5172 5175 5178 5181 5184 5187 5190 5193 5196 5199 5202 5205 5208 5211 5214 5217 5220 5223 5226 5229 5232 5235 5238 5241 5244 5247 5250 5253 5256 5259 5262 5265 5268 5271 5274 5277 5280 5283 5286 5289 5292 5295 5298 5301 5304 5307 5310 5313 5316 5319 5322 5325 5328 5331 5334 5337 5340 5343 5346 5349 5352 5355 5358 5361 5364 5367 5370 5373 5376 5379 5382 5385 5388 5391 5394 5397 5400 5403 5406 5409 5412 5415 5418 5421 5424 5427 5430 5433 5436 5439 5442 5445 5448 5451 5454 5457 5460 5463 5466 5469 5472 5475 5478 5481 5484 5487 5490 5493 5496 5499 5502 5505 5508 5511 5514 5517 5520 5523 5526 5529 5532 5535 5538 5541 5544 5547 5550 5553 5556 5559 5562 5565 5568 5571 5574 5577 5580 5583 5586 5589 5592 5595 5598 5601 5604 5607 5610 5613 5616 5619 5622 5625 5628 5631 5634 5637 5640 5643 5646 5649 5652 5655 5658 5661 5664 5667 5670 5673 5676 5679 5682 5685 5688 5691 5694 5697 5700 5703 5706 5709 5712 5715 5718 5721 5724 5727 5730 5733 5736 5739 5742 5745 5748 5751 5754 5757 5760 5763 5766 5769 5772 5775 5778 5781 5784 5787 5790 5793 5796 5799 5802 5805 5808 5811 5814 5817 5820 5823 5826 5829 5832 5835 5838 5841 5844 5847 5850 5853 5856 5859 5862 5865 5868 5871 5874 5877 5880 5883 5886 5889 5892 5895 5898 5901 5904 5907 5910 5913 5916 5919 5922 5925 5928 5931 5934 5937 5940 5943 5946 5949 5952 5955 5958 5961 5964 5967 5970 5973 5976 5979 5982 5985 5988 5991 5994 5997 6000 6003 6006 6009 6012 6015 6018 6021 6024 6027 6030 6033 6036 6039 6042 6045 6048 6051 6054 6057 6060 6063 6066 6069 6072 6075 6078 6081 6084 6087 6090 6093 6096 6099 6102 6105 6108 6111 6114 6117 6120 6123 6126 6129 6132 6135 6138 6141 6144 6147 6150 6153 6156 6159 6162 6165 6168 6171 6174 6177 6180 6183 6186 6189 6192 6195 6198 6201 6204 6207 6210 6213 6216 6219 6222 6225 6228 6231 6234 6237 6240 6243 6246 6249 6252 6255 6258 6261 6264 6267 6270 6273 6276 6279 6282 6285 6288 6291 6294 6297 6300 6303 6306 6309 6312 6315 6318 6321 6324 6327 6330 6333 6336 6339 6342 6345 6348 6351 6354 6357 6360 6363 6366 6369 6372 6375 6378 6381 6384 6387 6390 6393 6396 6399 6402 6405 6408 6411 6414 6417 6420 6423 6426 6429 6432 6435 6438 6441 6444 6447 6450 6453 6456 6459 6462 6465 6468 6471 6474 6477 6480 6483 6486 6489 6492 6495 6498 6501 6504 6507 6510 6513 6516 6519 6522 6525 6528 6531 6534 6537 6540 6543 6546 6549 6552 6555 6558 6561 6564 6567 6570 6573 6576 6579 6582 6585 6588 6591 6594 6597 6600 6603 6606 6609 6612 6615 6618 6621 6624 6627 6630 6633 6636 6639 6642 6645 6648 6651 6654 6657 6660 6663 6666 6669 6672 6675 6678 6681 6684 6687 6690 6693 6696 6699 6702 6705 6708 6711 6714 6717 6720 6723 6726 6729 6732 6735 6738 6741 6744 6747 6750 6753 6756 6759 6762 6765 6768 6771 6774 6777 6780 6783 6786 6789 6792 6795 6798 6801 6804 6807 6810 6813 6816 6819 6822 6825 6828 6831 6834 6837 6840 6843 6846 6849 6852 6855 6858 6861 6864 6867 6870 6873 6876 6879 6882 6885 6888 6891 6894 6897 6900 6903 6906 6909 6912 6915 6918 6921 6924 6927 6930 6933 6936 6939 6942 6945 6948 6951 6954 6957 6960 6963 6966 6969 6972 6975 6978 6981 6984 6987 6990 6993 6996 6999 7002 7005 7008 7011 7014 7017 7020 7023 7026 7029 7032 7035 7038 7041 7044 7047 7050 7053 7056 7059 7062 7065 7068 7071 7074 7077 7080 7083 7086 7089 7092 7095 7098 7101 7104 7107 7110 7113 7116 7119 7122 7125 7128 7131 7134 7137 7140 7143 7146 7149 7152 7155 7158 7161 7164 7167 7170 7173 7176 7179 7182 7185 7188 7191 7194 7197 7200 7203 7206 7209 7212 7215 7218 7221 7224 7227 7230 7233 7236 7239 7242 7245 7248 7251 7254 7257 7260 7263 7266 7269 7272 7275 7278 7281 7284 7287 7290 7293 7296 7299 7302 7305 7308 7311 7314 7317 7320 7323 7326 7329 7332 7335 7338 7341 7344 7347 7350 7353 7356 7359 7362 7365 7368 7371 7374 7377 7380 7383 7386 7389 7392 7395 7398 7401 7404 7407 7410 7413 7416 7419 7422 7425 7428 7431 7434 7437 7440 7443 7446 7449 7452 7455 7458 7461 7464 7467 7470 7473 7476 7479 7482 7485 7488 7491 7494 7497 7500 7503 7506 7509 7512 7515 7518 7521 7524 7527 7530 7533 7536 7539 7542 7545 7548 7551 7554 7557 7560 7563 7566 7569 7572 7575 7578 7581 7584 7587 7590 7593 7596 7599 7602 7605 7608 7611 7614 7617 7620 7623 7626 7629 7632 7635 7638 7641 7644 7647 7650 7653 7656 7659 7662 7665 7668 7671 7674 7677 7680 7683 7686 7689 7692 7695 7698 7701 7704 7707 7710 7713 7716 7719 7722 7725 7728 7731 7734 7737 7740 7743 7746 7749 7752 7755 7758 7761 7764 7767 7770 7773 7776 7779 7782 7785 7788 7791 7794 7797 7800 7803 7806 7809 7812 7815 7818 7821 7824 7827 7830 7833 7836 7839 7842 7845 7848 7851 7854 7857 7860 7863 7866 7869 7872 7875 7878 7881 7884 7887 7890 7893 7896 7899 7902 7905 7908 7911 7914 7917 7920 7923 7926 7929 7932 7935 7938 7941 7944 7947 7950 7953 7956 7959 7962 7965 7968 7971 7974 7977 7980 7983 7986 7989 7992 7995 7998 8001 8004 8007 8010 8013 8016 8019 8022 8025 8028 8031 8034 8037 8040 8043 8046 8049 8052 8055 8058 8061 8064 8067 8070 8073 8076 8079 8082 8085 8088 8091 8094 8097 8100 8103 8106 8109 8112 8115 8118 8121 8124 8127 8130 8133 8136 8139 8142 8145 8148 8151 8154 8157 8160 8163 8166 8169 8172 8175 8178 8181 8184 8187 8190 8193 8196 8199 8202 8205 8208 8211 8214 8217 8220 8223 8226 8229 8232 8235 8238 8241 8244 8247 8250 8253 8256 8259 8262 8265 8268 8271 8274 8277 8280 8283 8286 8289 8292 8295 8298 8301 8304 8307 8310 8313 8316 8319 8322 8325 8328 8331 8334 8337 8340 8343 8346 8349 8352 8355 8358 8361 8364 8367 8370 8373 8376 8379 8382 8385 8388 8391 8394 8397 8400 8403 8406 8409 8412 8415 8418 8421 8424 8427 8430 8433 8436 8439 8442 8445 8448 8451 8454 8457 8460 8463 8466 8469 8472 8475 8478 8481 8484 8487 8490 8493 8496 8499 8502 8505 8508 8511 8514 8517 8520 8523 8526 8529 8532 8535 8538 8541 8544 8547 8550 8553 8556 8559 8562 8565 8568 8571 8574 8577 8580 8583 8586 8589 8592 8595 8598 8601 8604 8607 8610 8613 8616 8619 8622 8625 8628 8631 8634 8637 8640 8643 8646 8649 8652 8655 8658 8661 8664 8667 8670 8673 8676 8679 8682 8685 8688 8691 8694 8697 8700 8703 8706 8709 8712 8715 8718 8721 8724 8727 8730 8733 8736 8739 8742 8745 8748 8751 8754 8757 8760 8763 8766 8769 8772 8775 8778 8781 8784 8787 8790 8793 8796 8799 8802 8805 8808 8811 8814 8817 8820 8823 8826 8829 8832 8835 8838 8841 8844 8847 8850 8853 8856 8859 8862 8865 8868 8871 8874 8877 8880 8883 8886 8889 8892 8895 8898 8901 8904 8907 8910 8913 8916 8919 8922 8925 8928 8931 8934 8937 8940 8943 8946 8949 8952 8955 8958 8961 8964 8967 8970 8973 8976 8979 8982 8985 8988 8991 8994 8997 9000 9003 9006 9009 9012 9015 9018 9021 9024 9027 9030 9033 9036 9039 9042 9045 9048 9051 9054 9057 9060 9063 9066 9069 9072 9075 9078 9081 9084 9087 9090 9093 9096 9099 9102 9105 9108 9111 9114 9117 9120 9123 9126 9129 9132 9135 9138 9141 9144 9147 9150 9153 9156 9159 9162 9165 9168 9171 9174 9177 9180 9183 9186 9189 9192 9195 9198 9201 9204 9207 9210 9213 9216 9219 9222 9225 9228 9231 9234 9237 9240 9243 9246 9249 9252 9255 9258 9261 9264 9267 9270 9273 9276 9279 9282 9285 9288 9291 9294 9297 9300 9303 9306 9309 9312 9315 9318 9321 9324 9327 9330 9333 9336 9339 9342 9345 9348 9351 9354 9357 9360 9363 9366 9369 9372 9375 9378 9381 9384 9387 9390 9393 9396 9399 9402 9405 9408 9411 9414 9417 9420 9423 9426 9429 9432 9435 9438 9441 9444 9447 9450 9453 9456 9459 9462 9465 9468 9471 9474 9477 9480 9483 9486 9489 9492 9495 9498 9501 9504 9507 9510 9513 9516 9519 9522 9525 9528 9531 9534 9537 9540 9543 9546 9549 9552 9555 9558 9561 9564 9567 9570 9573 9576 9579 9582 9585 9588 9591 9594 9597 9600 9603 9606 9609 9612 9615 9618 9621 9624 9627 9630 9633 9636 9639 9642 9645 9648 9651 9654 9657 9660 9663 9666 9669 9672 9675 9678 9681 9684 9687 9690 9693 9696 9699 9702 9705 9708 9711 9714 9717 9720 9723 9726 9729 9732 9735 9738 9741 9744 9747 9750 9753 9756 9759 9762 9765 9768 9771 9774 9777 9780 9783 9786 9789 9792 9795 9798 9801 9804 9807 9810 9813 9816 9819 9822 9825 9828 9831 9834 9837 9840 9843 9846 9849 9852 9855 9858 9861 9864 9867 9870 9873 9876 9879 9882 9885 9888 9891 9894 9897 9900 9903 9906 9909 9912 9915 9918 9921 9924 9927 9930 9933 9936 9939 9942 9945 9948 9951 9954 9957 9960 9963 9966 9969 9972 9975 9978 9981 9984 9987 9990 9993 9996 9999 10002 10005 10008 10011 10014 10017 10020 10023 10026 10029 10032 10035 10038 10041 10044 10047 10050 10053 10056 10059 10062 10065 10068 10071 10074 10077 10080 10083 10086 10089 10092 10095 10098 10101 10104 10107 10110 10113 10116 10119 10122 10125 10128 10131 10134 10137 10140 10143 10146 10149 10152 10155 10158 10161 10164 10167 10170 10173 10176 10179 10182 10185 10188 10191 10194 10197 10200 10203 10206 10209 10212 10215 10218 10221 10224 10227 10230 10233 10236 10239 10242 10245 10248 10251 10254 10257 10260 10263 10266 10269 10272 10275 10278 10281 10284 10287 10290 10293 10296 10299 10302 10305 10308 10311 10314 10317 10320 10323 10326 10329 10332 10335 10338 10341 10344 10347 10350 10353 10356 10359 10362 10365 10368 10371 10374 10377 10380 10383 10386 10389 10392 10395 10398 10401 </DataArray>
        <DataArray type="Int8" Name="types" format="ascii">69 69 69 69 69 69 69 69 69 69 69 69 69 69 69 69 69 69 69 69 69 69 69 69 69 69 69 69 69 69 69 69 69 69 69 69 69 69 69 69 69 69 69 69 69 69 69 69 69 69 69 69 69 69 69 69 69 69 69 69 69 69 69 69 69 69 69 69 69 69 69 69 69 69 69 69 69 69 69 69 69 69 69 69 69 69 69 69 69 69 69 69 69 69 69 69 69 69 69 69 69 69 69 69 69 69 69 69 69 69 69 69 69 69 69 69 69 69 69 69 69 69 69 69 69 69 69 69 69 69 69 69 69 69 69 69 69 69 69 69 69 69 69 69 69 69 69 69 69 69 69 69 69 69 69 69 69 69 69 69 69 69 69 69 69 69 69 69 69 69 69 69 69 69 69 69 69 69 69 69 69 69 69 69 69 69 69 69 69 69 69 69 69 69 69 69 69 69 69 69 69 69 69 69 69 69 69 69 69 69 69 69 69 69 69 69 69 69 69 69 69 69 69 69 69 69 69 69 69 69 69 69 69 69 69 69 69 69 69 69 69 69 69 69 69 69 69 69 69 69 69 69 69 69 69 69 69 69 69 69 69 69 69 69 69 69 69 69 69 69 69 69 69 69 69 69 69 69 69 69 69 69 69 69 69 69 69 69 69 69 69 69 69 69 69 69 69 69 69 69 69 69 69 69 69 69 69 69 69 69 69 69 69 69 69 69 69 69 69 69 69 69 69 69 69 69 69 69 69 69 69 69 69 69 69 69 69 69 69 69 69 69 69 69 69 69 69 69 69 69 69 69 69 69 69 69 69 69 69 69 69 69 69 69 69 69 69 69 69 69 69 69 69 69 69 69 69 69 69 69 69 69 69 69 69 69 69 69 69 69 69 69 69 69 69 69 69 69 69 69 69 69 69 69 69 69 69 69 69 69 69 69 69 69 69 69 69 69 69 69 69 69 69 69 69 69 69 69 69 69 69 69 69 69 69 69 69 69 69 69 69 69 69 69 69 69 69 69 69 69 69 69 69 69 69 69 69 69 69 69 69 69 69 69 69 69 69 69 69 69 69 69 69 69 69 69 69 69 69 69 69 69 69 69 69 69 69 69 69 69 69 69 69 69 69 69 69 69 69 69 69 69 69 69 69 69 69 69 69 69 69 69 69 69 69 69 69 69 69 69 69 69 69 69 69 69 69 69 69 69 69 69 69 69 69 69 69 69 69 69 69 69 69 69 69 69 69 69 69 69 69 69 69 69 69 69 69 69 69 69 69 69 69 69 69 69 69 69 69 69 69 69 69 69 69 69 69 69 69 69 69 69 69 69 69 69 69 69 69 69 69 69 69 69 69 69 69 69 69 69 69 69 69 69 69 69 69 69 69 69 69 69 69 69 69 69 69 69 69 69 69 69 69 69 69 69 69 69 69 69 69 69 69 69 69 69 69 69 69 69 69 69 69 69 69 69 69 69 69 69 69 69 69 69 69 69 69 69 69 69 69 69 69 69 69 69 69 69 69 69 69 69 69 69 69 69 69 69 69 69 69 69 69 69 69 69 69 69 69 69 69 69 69 69 69 69 69 69 69 69 69 69 69 69 69 69 69 69 69 69 69 69 69 69 69 69 69 69 69 69 69 69 69 69 69 69 69 69 69 69 69 69 69 69 69 69 69 69 69 69 69 69 69 69 69 69 69 69 69 69 69 69 69 69 69 69 69 69 69 69 69 69 69 69 69 69 69 69 69 69 69 69 69 69 69 69 69 69 69 69 69 69 69 69 69 69 69 69 69 69 69 69 69 69 69 69 69 69 69 69 69 69 69 69 69 69 69 69 69 69 69 69 69 69 69 69 69 69 69 69 69 69 69 69 69 69 69 69 69 69 69 69 69 69 69 69 69 69 69 69 69 69 69 69 69 69 69 69 69 69 69 69 69 69 69 69 69 69 69 69 69 69 69 69 69 69 69 69 69 69 69 69 69 69 69 69 69 69 69 69 69 69 69 69 69 69 69 69 69 69 69 69 69 69 69 69 69 69 69 69 69 69 69 69 69 69 69 69 69 69 69 69 69 69 69 69 69 69 69 69 69 69 69 69 69 69 69 69 69 69 69 69 69 69 69 69 69 69 69 69 69 69 69 69 69 69 69 69 69 69 69 69 69 69 69 69 69 69 69 69 69 69 69 69 69 69 69 69 69 69 69 69 69 69 69 69 69 69 69 69 69 69 69 69 69 69 69 69 69 69 69 69 69 69 69 69 69 69 69 69 69 69 69 69 69 69 69 69 69 69 69 69 69 69 69 69 69 69 69 69 69 69 69 69 69 69 69 69 69 69 69 69 69 69 69 69 69 69 69 69 69 69 69 69 69 69 69 69 69 69 69 69 69 69 69 69 69 69 69 69 69 69 69 69 69 69 69 69 69 69 69 69 69 69 69 69 69 69 69 69 69 69 69 69 69 69 69 69 69 69 69 69 69 69 69 69 69 69 69 69 69 69 69 69 69 69 69 69 69 69 69 69 69 69 69 69 69 69 69 69 69 69 69 69 69 69 69 69 69 69 69 69 69 69 69 69 69 69 69 69 69 69 69 69 69 69 69 69 69 69 69 69 69 69 69 69 69 69 69 69 69 69 69 69 69 69 69 69 69 69 69 69 69 69 69 69 69 69 69 69 69 69 69 69 69 69 69 69 69 69 69 69 69 69 69 69 69 69 69 69 69 69 69 69 69 69 69 69 69 69 69 69 69 69 69 69 69 69 69 69 69 69 69 69 69 69 69 69 69 69 69 69 69 69 69 69 69 69 69 69 69 69 69 69 69 69 69 69 69 69 69 69 69 69 69 69 69 69 69 69 69 69 69 69 69 69 69 69 69 69 69 69 69 69 69 69 69 69 69 69 69 69 69 69 69 69 69 69 69 69 69 69 69 69 69 69 69 69 69 69 69 69 69 69 69 69 69 69 69 69 69 69 69 69 69 69 69 69 69 69 69 69 69 69 69 69 69 69 69 69 69 69 69 69 69 69 69 69 69 69 69 69 69 69 69 69 69 69 69 69 69 69 69 69 69 69 69 69 69 69 69 69 69 69 69 69 69 69 69 69 69 69 69 69 69 69 69 69 69 69 69 69 69 69 69 69 69 69 69 69 69 69 69 69 69 69 69 69 69 69 69 69 69 69 69 69 69 69 69 69 69 69 69 69 69 69 69 69 69 69 69 69 69 69 69 69 69 69 69 69 69 69 69 69 69 69 69 69 69 69 69 69 69 69 69 69 69 69 69 69 69 69 69 69 69 69 69 69 69 69 69 69 69 69 69 69 69 69 69 69 69 69 69 69 69 69 69 69 69 69 69 69 69 69 69 69 69 69 69 69 69 69 69 69 69 69 69 69 69 69 69 69 69 69 69 69 69 69 69 69 69 69 69 69 69 69 69 69 69 69 69 69 69 69 69 69 69 69 69 69 69 69 69 69 69 69 69 69 69 69 69 69 69 69 69 69 69 69 69 69 69 69 69 69 69 69 69 69 69 69 69 69 69 69 69 69 69 69 69 69 69 69 69 69 69 69 69 69 69 69 69 69 69 69 69 69 69 69 69 69 69 69 69 69 69 69 69 69 69 69 69 69 69 69 69 69 69 69 69 69 69 69 69 69 69 69 69 69 69 69 69 69 69 69 69 69 69 69 69 69 69 69 69 69 69 69 69 69 69 69 69 69 69 69 69 69 69 69 69 69 69 69 69 69 69 69 69 69 69 69 69 69 69 69 69 69 69 69 69 69 69 69 69 69 69 69 69 69 69 69 69 69 69 69 69 69 69 69 69 69 69 69 69 69 69 69 69 69 69 69 69 69 69 69 69 69 69 69 69 69 69 69 69 69 69 69 69 69 69 69 69 69 69 69 69 69 69 69 69 69 69 69 69 69 69 69 69 69 69 69 69 69 69 69 69 69 69 69 69 69 69 69 69 69 69 69 69 69 69 69 69 69 69 69 69 69 69 69 69 69 69 69 69 69 69 69 69 69 69 69 69 69 69 69 69 69 69 69 69 69 69 69 69 69 69 69 69 69 69 69 69 69 69 69 69 69 69 69 69 69 69 69 69 69 69 69 69 69 69 69 69 69 69 69 69 69 69 69 69 69 69 69 69 69 69 69 69 69 69 69 69 69 69 69 69 69 69 69 69 69 69 69 69 69 69 69 69 69 69 69 69 69 69 69 69 69 69 69 69 69 69 69 69 69 69 69 69 69 69 69 69 69 69 69 69 69 69 69 69 69 69 69 69 69 69 69 69 69 69 69 69 69 69 69 69 69 69 69 69 69 69 69 69 69 69 69 69 69 69 69 69 69 69 69 69 69 69 69 69 69 69 69 69 69 69 69 69 69 69 69 69 69 69 69 69 69 69 69 69 69 69 69 69 69 69 69 69 69 69 69 69 69 69 69 69 69 69 69 69 69 69 69 69 69 69 69 69 69 69 69 69 69 69 69 69 69 69 69 69 69 69 69 69 69 69 69 69 69 69 69 69 69 69 69 69 69 69 69 69 69 69 69 69 69 69 69 69 69 69 69 69 69 69 69 69 69 69 69 69 69 69 69 69 69 69 69 69 69 69 69 69 69 69 69 69 69 69 69 69 69 69 69 69 69 69 69 69 69 69 69 69 69 69 69 69 69 69 69 69 69 69 69 69 69 69 69 69 69 69 69 69 69 69 69 69 69 69 69 69 69 69 69 69 69 69 69 69 69 69 69 69 69 69 69 69 69 69 69 69 69 69 69 69 69 69 69 69 69 69 69 69 69 69 69 69 69 69 69 69 69 69 69 69 69 69 69 69 69 69 69 69 69 69 69 69 69 69 69 69 69 69 69 69 69 69 69 69 69 69 69 69 69 69 69 69 69 69 69 69 69 69 69 69 69 69 69 69 69 69 69 69 69 69 69 69 69 69 69 69 69 69 69 69 69 69 69 69 69 69 69 69 69 69 69 69 69 69 69 69 69 69 69 69 69 69 69 69 69 69 69 69 69 69 69 69 69 69 69 69 69 69 69 69 69 69 69 69 69 69 69 69 69 69 69 69 69 69 69 69 69 69 69 69 69 69 69 69 69 69 69 69 69 69 69 69 69 69 69 69 69 69 69 69 69 69 69 69 69 69 69 69 69 69 69 69 69 69 69 69 69 69 69 69 69 69 69 69 69 69 69 69 69 69 69 69 69 69 69 69 69 69 69 69 69 69 69 69 69 69 69 69 69 69 69 69 69 69 69 69 69 69 69 69 69 69 69 69 69 69 69 69 69 69 69 69 69 69 69 69 69 69 69 69 69 69 69 69 69 69 69 69 69 69 69 69 69 69 69 69 69 69 69 69 69 69 69 69 69 69 69 69 69 69 69 69 69 69 69 69 69 69 69 69 69 69 69 69 69 69 69 69 69 69 69 69 69 69 69 69 69 69 69 69 69 69 69 69 69 69 69 69 69 69 69 69 69 69 69 69 69 69 69 69 69 69 69 69 69 69 69 69 69 69 69 69 69 69 69 69 69 69 69 69 69 69 69 69 69 69 69 69 69 69 69 69 69 69 69 69 69 69 69 69 69 69 69 69 69 69 69 69 69 69 69 69 69 69 69 69 69 69 69 69 69 69 69 69 69 69 69 69 69 69 69 69 69 69 69 69 69 69 69 69 69 69 69 69 69 69 69 69 69 69 69 69 69 69 69 69 69 69 69 69 69 69 69 69 69 69 69 69 69 69 69 69 69 69 69 69 69 69 69 69 69 69 69 69 69 69 69 69 69 69 69 69 69 69 69 69 69 69 69 69 69 69 69 69 69 69 69 69 69 69 69 69 69 69 69 69 69 69 69 69 69 69 69 69 69 69 69 69 69 69 69 69 69 69 69 69 69 69 69 69 69 69 69 69 69 69 69 69 69 69 69 69 69 69 69 69 69 69 69 69 69 69 69 69 69 69 69 69 69 69 69 69 69 69 69 69 69 69 69 69 69 69 69 69 69 69 69 69 69 69 69 69 69 69 69 69 69 69 69 69 69 69 69 69 69 69 69 69 69 69 69 69 69 69 69 69 69 69 69 69 69 69 69 69 69 69 69 69 69 69 69 69 69 69 69 69 69 69 69 69 69 69 69 69 69 69 69 69 69 69 69 69 69 69 69 69 69 69 69 69 69 69 69 69 69 69 69 69 69 69 69 69 69 69 69 69 69 69 69 69 69 69 69 69 69 69 69 69 69 69 69 69 69 69 69 69 69 69 69 69 69 69 69 69 69 69 69 69 69 69 69 69 69 69 69 69 69 69 69 69 69 69 69 69 69 69 69 69 69 69 69 69 69 69 69 69 69 69 69 69 69 69 69 69 69 69 69 69 69 69 69 69 69 69 69 69 69 69 69 69 69 69 69 69 69 69 69 69 69 69 69 69 69 69 69 69 69 69 69 69 69 69 69 69 69 69 69 69 69 69 69 69 69 69 69 69 69 69 69 69 69 69 69 69 69 69 69 69 69 69 69 69 69 69 69 69 69 69 69 69 69 69 69 69 69 69 69 69 69 69 69 69 69 69 69 69 69 69 69 69 69 69 69 69 69 69 69 69 69 69 69 69 69 69 69 69 69 69 69 69 69 69 69 69 69 69 69 69 69 69 69 69 69 69 69 69 69 69 69 69 69 69 69 69 69 69 69 69 69 69 69 69 69 69 69 69 69 69 69 69 69 69 69 69 69 69 69 69 69 69 69 69 69 69 69 69 69 69 69 69 69 69 69 69 69 69 69 69 69 69 69 69 69 69 69 69 69 69 69 69 69 69 69 69 69 69 69 69 69 69 69 69 69 69 69 69 69 69 69 69 69 69 69 69 69 69 69 69 69 69 69 69 69 69 69 69 69 69 69 69 69 69 69 69 69 69 69 69 69 69 69 69 69 69 69 69 69 69 69 69 69 69 69 69 69 69 69 69 69 69 69 69 69 69 69 69 69 69 69 69 69 69 69 69 69 69 69 69 69 69 69 69 69 69 69 69 69 69 69 69 69 69 69 69 69 69 69 69 69 69 69 69 69 69 69 69 69 69 69 69 69 69 69 69 69 69 69 69 69 69 69 69 69 69 69 69 69 69 69 69 69 69 69 69 69 69 69 69 69 69 69 69 69 69 69 69 69 69 69 69 69 69 69 69 69 69 69 69 69 69 69 69 69 69 69 69 69 69 69 69 69 69 69 69 69 69 69 69 69 69 69 69 69 69 69 69 69 69 69 69 69 69 69 69 69 69 69 69 69 69 69 69 69 69 69 69 69 69 69 69 69 69 69 69 69 69 69 69 69 69 69 69 69 69 69 69 69 69 69 69 69 69 69 69 69 69 69 69 69 69 69 69 69 69 69 69 69 69 69 69 69 69 69 69 69 69 69 69 69 69 69 69 69 69 69 69 69 69 69 69 69 69 69 69 69 69 69 69 69 69 69 69 69 69 69 69 69 69 69 69 69 69 69 69 69 69 69 69 69 69 69 69 69 69 69 69 69 69 69 69 69 69 69 69 69 69 69 69 69 69 69 69 69 69 69 69 69 69 69 69 69 69 69 69 69 69 69 69 69 69 69 69 69 69 69 69 69 69 69 69 69 69 69 69 69 69 69 69 69 69 69 69 69 69 69 69 69 69 69 69 69 69 69 69 69 69 69 69 69 69 69 69 69 69 69 69 69 69 69 69 69 69 69 69 69 69 69 69 69 69 69 69 69 69 69 69 69 69 69 69 69 69 69 69 69 69 69 69 69 69 69 69 69 69 69 69 69 69 69 69 69 69 69 69 69 69 69 69 69 69 69 69 69 69 </DataArray>
      </Cells>
      <CellData Tensors="stress" Vectors="von_mises_stress">
        <DataArray type="UInt8" Name="vtkGhostType" format="ascii" RangeMin="0" RangeMax="1">0 0 0 0 0 0 0 0 0 0 0 0 0 0 0 0 0 0 0 0 0 0 0 0 0 0 0 0 0 0 0 0 0 0 0 0 0 0 0 0 0 0 0 0 0 0 0 0 0 0 0 0 0 0 0 0 0 0 0 0 0 0 0 0 0 0 0 0 0 0 0 0 0 0 0 0 0 0 0 0 0 0 0 0 0 0 0 0 0 0 0 0 0 0 0 0 0 0 0 0 0 0 0 0 0 0 0 0 0 0 0 0 0 0 0 0 0 0 0 0 0 0 0 0 0 0 0 0 0 0 0 0 0 0 0 0 0 0 0 0 0 0 0 0 0 0 0 0 0 0 0 0 0 0 0 0 0 0 0 0 0 0 0 0 0 0 0 0 0 0 0 0 0 0 0 0 0 0 0 0 0 0 0 0 0 0 0 0 0 0 0 0 0 0 0 0 0 0 0 0 0 0 0 0 0 0 0 0 0 0 0 0 0 0 0 0 0 0 0 0 0 0 0 0 0 0 0 0 0 0 0 0 0 0 0 0 0 0 0 0 0 0 0 0 0 0 0 0 0 0 0 0 0 0 0 0 0 0 0 0 0 0 0 0 0 0 0 0 0 0 0 0 0 0 0 0 0 0 0 0 0 0 0 0 0 0 0 0 0 0 0 0 0 0 0 0 0 0 0 0 0 0 0 0 0 0 0 0 0 0 0 0 0 0 0 0 0 0 0 0 0 0 0 0 0 0 0 0 0 0 0 0 0 0 0 0 0 0 0 0 0 0 0 0 0 0 0 0 0 0 0 0 0 0 0 0 0 0 0 0 0 0 0 0 0 0 0 0 0 0 0 0 0 0 0 0 0 0 0 0 0 0 0 0 0 0 0 0 0 0 0 0 0 0 0 0 0 0 0 0 0 0 0 0 0 0 0 0 0 0 0 0 0 0 0 0 0 0 0 0 0 0 0 0 0 0 0 0 0 0 0 0 0 0 0 0 0 0 0 0 0 0 0 0 0 0 0 0 0 0 0 0 0 0 0 0 0 0 0 0 0 0 0 0 0 0 0 0 0 0 0 0 0 0 0 0 0 0 0 0 0 0 0 0 0 0 0 0 0 0 0 0 0 0 0 0 0 0 0 0 0 0 0 0 0 0 0 0 0 0 0 0 0 0 0 0 0 0 0 0 0 0 0 0 0 0 0 0 0 0 0 0 0 0 0 0 0 0 0 0 0 0 0 0 0 0 0 0 0 0 0 0 0 0 0 0 0 0 0 0 0 0 0 0 0 0 0 0 0 0 0 0 0 0 0 0 0 0 0 0 0 0 0 0 0 0 0 0 0 0 0 0 0 0 0 0 0 0 0 0 0 0 0 0 0 0 0 0 0 0 0 0 0 0 0 0 0 0 0 0 0 0 0 0 0 0 0 0 0 0 0 0 0 0 0 0 0 0 0 0 0 0 0 0 0 0 0 0 0 0 0 0 0 0 0 0 0 0 0 0 0 0 0 0 0 0 0 0 0 0 0 0 0 0 0 0 0 0 0 0 0 0 0 0 0 0 0 0 0 0 0 0 0 0 0 0 0 0 0 0 0 0 0 0 0 0 0 0 0 0 0 0 0 0 0 0 0 0 0 0 0 0 0 0 0 0 0 0 0 0 0 0 0 0 0 0 0 0 0 0 0 0 0 0 0 0 0 0 0 0 0 0 0 0 0 0 0 0 0 0 0 0 0 0 0 0 0 0 0 0 0 0 0 0 0 0 0 0 0 0 0 0 0 0 0 0 0 0 0 0 0 0 0 0 0 0 0 0 0 0 0 0 0 0 0 0 0 0 0 0 0 0 0 0 0 0 0 0 0 0 0 0 0 0 0 0 0 0 0 0 0 0 0 0 0 0 0 0 0 0 0 0 0 0 0 0 0 0 0 0 0 0 0 0 0 0 0 0 0 0 0 0 0 0 0 0 0 0 0 0 0 0 0 0 0 0 0 0 0 0 0 0 0 0 0 0 0 0 0 0 0 0 0 0 0 0 0 0 0 0 0 0 0 0 0 0 0 0 0 0 0 0 0 0 0 0 0 0 0 0 0 0 0 0 0 0 0 0 0 0 0 0 0 0 0 0 0 0 0 0 0 0 0 0 0 0 0 0 0 0 0 0 0 0 0 0 0 0 0 0 0 0 0 0 0 0 0 0 0 0 0 0 0 0 0 0 0 0 0 0 0 0 0 0 0 0 0 0 0 0 0 0 0 0 0 0 0 0 0 0 0 0 0 0 0 0 0 0 0 0 0 0 0 0 0 0 0 0 0 0 0 0 0 0 0 0 0 0 0 0 0 0 0 0 0 0 0 0 0 0 0 0 0 0 0 0 0 0 0 0 0 0 0 0 0 0 0 0 0 0 0 0 0 0 0 0 0 0 0 0 0 0 0 0 0 0 0 0 0 0 0 0 0 0 0 0 0 0 0 0 0 0 0 0 0 0 0 0 0 0 0 0 0 0 0 0 0 0 0 0 0 0 0 0 0 0 0 0 0 0 0 0 0 0 0 0 0 0 0 0 0 0 0 0 0 0 0 0 0 0 0 0 0 0 0 0 0 0 0 0 0 0 0 0 0 0 0 0 0 0 0 0 0 0 0 0 0 0 0 0 0 0 0 0 0 0 0 0 0 0 0 0 0 0 0 0 0 0 0 0 0 0 0 0 0 0 0 0 0 0 0 0 0 0 0 0 0 0 0 0 0 0 0 0 0 0 0 0 0 0 0 0 0 0 0 0 0 0 0 0 0 0 0 0 0 0 0 0 0 0 0 0 0 0 0 0 0 0 0 0 0 0 0 0 0 0 0 0 0 0 0 0 0 0 0 0 0 0 0 0 0 0 0 0 0 0 0 0 0 0 0 0 0 0 0 0 0 0 0 0 0 0 0 0 0 0 0 0 0 0 0 0 0 0 0 0 0 0 0 0 0 0 0 0 0 0 0 0 0 0 0 0 0 0 0 0 0 0 0 0 0 0 0 0 0 0 0 0 0 0 0 0 0 0 0 0 0 0 0 0 0 0 0 0 0 0 0 0 0 0 0 0 0 0 0 0 0 0 0 0 0 0 0 0 0 0 0 0 0 0 0 0 0 0 0 0 0 0 0 0 0 0 0 0 0 0 0 0 0 0 0 0 0 0 0 0 0 0 0 0 0 0 0 0 0 0 0 0 0 0 0 0 0 0 0 0 0 0 0 0 0 0 0 0 0 0 0 0 0 0 0 0 0 0 0 0 0 0 0 0 0 0 0 0 0 0 0 0 0 0 0 0 0 0 0 0 0 0 0 0 0 0 0 0 0 0 0 0 0 0 0 0 0 0 0 0 0 0 0 0 0 0 0 0 0 0 0 0 0 0 0 0 0 0 0 0 0 0 0 0 0 0 0 0 0 0 0 0 0 0 0 0 0 0 0 0 0 0 0 0 0 0 0 0 0 0 0 0 0 0 0 0 0 0 0 0 0 0 0 0 0 0 0 0 0 0 0 0 0 0 0 0 0 0 0 0 0 0 0 0 0 0 0 0 0 0 0 0 0 0 0 0 0 0 0 0 0 0 0 0 0 0 0 0 0 0 0 0 0 0 0 0 0 0 0 0 0 0 0 0 0 0 0 0 0 0 0 0 0 0 0 0 0 0 0 0 0 0 0 0 0 0 0 0 0 0 0 0 0 0 0 0 0 0 0 0 0 0 0 0 0 0 0 0 0 0 0 0 0 0 0 0 0 0 0 0 0 0 0 0 0 0 0 0 0 0 0 0 0 0 0 0 0 0 0 0 0 0 0 0 0 0 0 0 0 0 0 0 0 0 0 0 0 0 0 0 0 0 0 0 0 0 0 0 0 0 0 0 0 0 0 0 0 0 0 0 0 0 0 0 0 0 0 0 0 0 0 0 0 0 0 0 0 0 0 0 0 0 0 0 0 0 0 0 0 0 0 0 0 0 0 0 0 0 0 0 0 0 0 0 0 0 0 0 0 0 0 0 0 0 0 0 0 0 0 0 0 0 0 0 0 0 0 0 0 0 0 0 0 0 0 0 0 0 0 0 0 0 0 0 0 0 0 0 0 0 0 0 0 0 0 0 0 0 0 0 0 0 0 0 0 0 0 0 0 0 0 0 0 0 0 0 0 0 0 0 0 0 0 0 0 0 0 0 0 0 0 0 0 0 0 0 0 0 0 0 0 0 0 0 0 0 0 0 0 0 0 0 0 0 0 0 0 0 0 0 0 0 0 0 0 0 0 0 0 0 0 0 0 0 0 0 0 0 0 0 0 0 0 0 0 0 0 0 0 0 0 0 0 0 0 0 0 0 0 0 0 0 0 0 0 0 0 0 0 0 0 0 0 0 0 0 0 0 0 0 0 0 0 0 0 0 0 0 0 0 0 0 0 0 0 0 0 0 0 0 0 0 0 0 0 0 0 0 0 0 0 0 0 0 0 0 0 0 0 0 0 0 0 0 0 0 0 0 0 0 0 0 0 0 0 0 0 0 0 0 0 0 0 0 0 0 0 0 0 0 0 0 0 0 0 0 0 0 0 0 0 0 0 0 0 0 0 0 0 0 0 0 0 0 0 0 0 0 0 0 0 0 0 0 0 0 0 0 0 0 0 0 0 0 0 0 0 0 0 0 0 0 0 0 0 0 0 0 0 0 0 0 0 0 0 0 0 0 0 0 0 0 0 0 0 0 0 0 0 0 0 0 0 0 0 0 0 0 0 0 0 0 0 0 0 0 0 0 0 0 0 0 0 0 0 0 0 0 0 0 0 0 0 0 0 0 0 0 0 0 0 0 0 0 0 0 0 0 0 0 0 0 0 0 0 0 0 0 0 0 0 0 0 0 0 0 0 0 0 0 0 0 0 0 0 0 0 0 0 0 0 0 0 0 0 0 0 0 0 0 0 0 0 0 0 0 0 0 0 0 0 0 0 0 0 0 0 0 0 0 0 0 0 0 0 0 0 0 0 0 0 0 0 0 0 0 0 0 0 0 0 0 0 0 0 0 0 0 0 0 0 0 0 0 0 0 0 0 0 0 0 0 0 0 0 0 0 0 0 0 0 0 0 0 0 0 0 0 0 0 0 0 0 0 0 0 0 0 0 0 0 0 0 0 0 0 0 0 0 0 0 0 0 0 0 0 0 0 0 0 0 0 0 0 0 0 0 0 0 0 0 0 0 0 0 0 0 0 0 0 0 0 0 0 0 0 0 0 0 0 0 0 0 0 0 0 0 0 0 0 0 0 0 0 0 0 0 0 0 0 0 0 0 0 0 0 0 0 0 0 0 0 0 0 0 0 0 0 0 0 0 0 0 0 0 0 0 0 0 0 0 0 0 0 0 0 0 0 0 0 0 0 0 0 0 0 0 0 0 0 0 0 0 0 0 0 0 0 0 0 0 0 0 0 0 0 0 0 0 0 0 0 0 0 0 0 0 0 0 0 0 0 0 0 0 0 0 0 0 0 0 0 0 0 0 0 0 0 0 0 0 0 0 0 0 0 0 0 0 0 0 0 0 0 0 0 0 0 0 0 0 0 0 0 0 0 0 0 0 0 0 0 0 0 0 0 0 0 0 0 0 0 0 0 0 0 0 0 0 0 0 0 0 0 0 0 0 0 0 0 0 0 0 0 0 0 0 0 0 0 0 0 0 0 0 0 0 0 0 0 0 0 0 0 0 0 0 0 0 0 0 0 0 0 0 0 0 0 0 0 0 0 0 0 0 0 0 0 0 0 0 0 0 0 0 0 0 0 0 0 0 0 0 0 0 0 0 0 0 0 0 0 0 0 0 0 0 0 0 0 0 0 0 0 0 0 0 0 0 0 0 0 0 0 0 0 0 0 0 0 0 0 0 0 0 0 0 0 0 0 0 0 0 0 0 0 0 0 0 0 0 0 0 0 0 0 0 0 0 0 0 0 0 0 0 0 0 0 0 0 0 0 0 0 0 0 0 0 0 0 0 0 0 0 0 0 0 0 0 0 0 0 0 0 0 0 0 0 0 0 0 0 0 0 0 0 0 0 0 0 0 0 0 0 0 0 0 0 0 0 0 0 0 0 0 0 0 0 0 0 0 0 0 0 0 0 0 0 0 0 0 0 0 0 0 0 0 0 0 0 0 0 0 0 0 0 0 0 0 0 0 0 0 0 0 0 0 0 0 0 0 0 0 0 0 0 0 0 0 0 0 0 0 0 0 0 0 0 0 0 0 0 0 0 0 0 0 0 0 0 0 0 0 0 0 0 0 0 0 0 0 0 0 0 0 0 0 0 0 0 0 0 0 0 0 0 0 0 0 0 0 0 0 0 0 0 0 0 0 0 0 0 0 0 0 0 0 0 0 0 0 0 0 0 0 0 0 0 0 0 0 0 0 0 0 0 0 0 0 0 0 0 0 0 0 0 0 0 0 0 0 0 0 0 0 0 0 0 0 0 0 0 0 0 0 0 0 0 0 0 0 0 0 0 0 0 0 0 0 0 0 0 0 0 0 0 0 0 0 0 0 0 0 0 0 0 0 0 0 0 0 0 0 0 0 0 0 0 0 0 0 0 0 0 0 0 0 0 0 0 0 0 0 0 0 0 0 0 0 0 0 0 0 0 0 0 0 0 0 0 0 0 0 0 0 0 0 0 0 0 0 0 0 0 0 0 0 0 0 0 0 0 0 0 0 0 0 0 0 0 0 0 0 0 0 0 0 0 0 0 0 0 0 0 0 0 0 0 0 0 0 0 0 0 0 0 0 0 0 0 0 0 0 0 0 0 0 0 0 0 0 0 0 0 0 0 0 0 0 0 0 0 0 0 0 0 0 0 0 0 0 0 0 0 0 0 0 0 0 0 0 0 0 0 0 0 0 0 0 0 0 0 0 0 0 0 0 0 0 0 0 0 0 0 0 0 0 0 0 0 0 0 0 0 0 0 0 0 0 0 0 0 0 0 0 0 0 0 0 0 0 0 0 0 0 0 0 0 0 0 0 0 0 0 0 0 0 0 0 0 0 0 0 0 0 0 0 0 0 0 0 0 0 0 0 0 0 0 0 0 0 0 0 0 0 0 0 0 0 0 0 0 0 0 0 0 0 0 0 0 0 0 0 0 0 0 0 0 0 0 0 0 0 0 0 0 0 0 0 0 0 0 0 0 0 0 0 0 0 0 0 0 0 0 0 0 0 0 0 0 0 0 0 0 0 0 0 0 0 0 0 0 0 0 0 0 0 0 0 0 0 0 0 0 0 0 0 0 0 0 0 0 0 0 0 0 0 0 0 0 0 0 0 0 0 0 0 0 0 0 0 0 0 0 0 0 0 0 0 0 0 0 0 0 0 0 0 0 0 0 0 0 0 0 0 0 0 0 0 0 0 0 0 0 0 0 0 0 0 0 0 0 0 0 0 0 0 0 0 0 0 0 0 0 0 0 0 0 0 0 0 0 0 0 0 0 0 0 0 0 0 0 0 0 0 0 0 0 0 0 0 0 0 0 0 0 0 0 0 0 0 0 0 0 0 0 0 0 0 0 0 0 0 0 0 0 0 0 0 0 0 0 0 0 0 0 0 0 0 0 0 0 0 0 0 0 0 0 0 0 0 0 0 0 0 0 0 0 0 0 0 0 0 0 0 0 0 0 0 0 0 0 0 0 0 0 0 0 0 0 0 0 0 0 0 0 0 0 0 0 0 0 0 0 0 0 0 0 0 0 0 0 0 0 0 0 0 0 0 0 0 0 0 0 0 0 0 0 0 0 0 0 0 0 0 0 0 0 0 0 0 0 0 0 0 0 0 0 0 0 0 </DataArray>
        <DataArray type="Int64" IdType="1" Name="vtkOriginalCellIds" format="ascii" RangeMin="0" RangeMax="3466">0 1 2 3 4 5 6 7 8 9 10 11 12 13 14 15 16 17 18 19 20 21 22 23 24 25 26 27 28 29 30 31 32 33 34 35 36 37 38 39 40 41 42 43 44 45 46 47 48 49 50 51 52 53 54 55 56 57 58 59 60 61 62 63 64 65 66 67 68 69 70 71 72 73 74 75 76 77 78 79 80 81 82 83 84 85 86 87 88 89 90 91 92 93 94 95 96 97 98 99 100 101 102 103 104 105 106 107 108 109 110 111 112 113 114 115 116 117 118 119 120 121 122 123 124 125 126 127 128 129 130 131 132 133 134 135 136 137 138 139 140 141 142 143 144 145 146 147 148 149 150 151 152 153 154 155 156 157 158 159 160 161 162 163 164 165 166 167 168 169 170 171 172 173 174 175 176 177 178 179 180 181 182 183 184 185 186 187 188 189 190 191 192 193 194 195 196 197 198 199 200 201 202 203 204 205 206 207 208 209 210 211 212 213 214 215 216 217 218 219 220 221 222 223 224 225 226 227 228 229 230 231 232 233 234 235 236 237 238 239 240 241 242 243 244 245 246 247 248 249 250 251 252 253 254 255 256 257 258 259 260 261 262 263 264 265 266 267 268 269 270 271 272 273 274 275 276 277 278 279 280 281 282 283 284 285 286 287 288 289 290 291 292 293 294 295 296 297 298 299 300 301 302 303 304 305 306 307 308 309 310 311 312 313 314 315 316 317 318 319 320 321 322 323 324 325 326 327 328 329 330 331 332 333 334 335 336 337 338 339 340 341 342 343 344 345 346 347 348 349 350 351 352 353 354 355 356 357 358 359 360 361 362 363 364 365 366 367 368 369 370 371 372 373 374 375 376 377 378 379 380 381 382 383 384 385 386 387 388 389 390 391 392 393 394 395 396 397 398 399 400 401 402 403 404 405 406 407 408 409 410 411 412 413 414 415 416 417 418 419 420 421 422 423 424 425 426 427 428 429 430 431 432 433 434 435 436 437 438 439 440 441 442 443 444 445 446 447 448 449 450 451 452 453 454 455 456 457 458 459 460 461 462 463 464 465 466 467 468 469 470 471 472 473 474 475 476 477 478 479 480 481 482 483 484 485 486 487 488 489 490 491 492 493 494 495 496 497 498 499 500 501 502 503 504 505 506 507 508 509 510 511 512 513 514 515 516 517 518 519 520 521 522 523 524 525 526 527 528 529 530 531 532 533 534 535 536 537 538 539 540 541 542 543 544 545 546 547 548 549 550 551 552 553 554 555 556 557 558 559 560 561 562 563 564 565 566 567 568 569 570 571 572 573 574 575 576 577 578 579 580 581 582 583 584 585 586 587 588 589 590 591 592 593 594 595 596 597 598 599 600 601 602 603 604 605 606 607 608 609 610 611 612 613 614 615 616 617 618 619 620 621 622 623 624 625 626 627 628 629 630 631 632 633 634 635 636 637 638 639 640 641 642 643 644 645 646 647 648 649 650 651 652 653 654 655 656 657 658 659 660 661 662 663 664 665 666 667 668 669 670 671 672 673 674 675 676 677 678 679 680 681 682 683 684 685 686 687 688 689 690 691 692 693 694 695 696 697 698 699 700 701 702 703 704 705 706 707 708 709 710 711 712 713 714 715 716 717 718 719 720 721 722 723 724 725 726 727 728 729 730 731 732 733 734 735 736 737 738 739 740 741 742 743 744 745 746 747 748 749 750 751 752 753 754 755 756 757 758 759 760 761 762 763 764 765 766 767 768 769 770 771 772 773 774 775 776 777 778 779 780 781 782 783 784 785 786 787 788 789 790 791 792 793 794 795 796 797 798 799 800 801 802 803 804 805 806 807 808 809 810 811 812 813 814 815 816 817 818 819 820 821 822 823 824 825 826 827 828 829 830 831 832 833 834 835 836 837 838 839 840 841 842 843 844 845 846 847 848 849 850 851 852 853 854 855 856 857 858 859 860 861 862 863 864 865 866 867 868 869 870 871 872 873 874 875 876 877 878 879 880 881 882 883 884 885 886 887 888 889 890 891 892 893 894 895 896 897 898 899 900 901 902 903 904 905 906 907 908 909 910 911 912 913 914 915 916 917 918 919 920 921 922 923 924 925 926 927 928 929 930 931 932 933 934 935 936 937 938 939 940 941 942 943 944 945 946 947 948 949 950 951 952 953 954 955 956 957 958 959 960 961 962 963 964 965 966 967 968 969 970 971 972 973 974 975 976 977 978 979 980 981 982 983 984 985 986 987 988 989 990 991 992 993 994 995 996 997 998 999 1000 1001 1002 1003 1004 1005 1006 1007 1008 1009 1010 1011 1012 1013 1014 1015 1016 1017 1018 1019 1020 1021 1022 1023 1024 1025 1026 1027 1028 1029 1030 1031 1032 1033 1034 1035 1036 1037 1038 1039 1040 1041 1042 1043 1044 1045 1046 1047 1048 1049 1050 1051 1052 1053 1054 1055 1056 1057 1058 1059 1060 1061 1062 1063 1064 1065 1066 1067 1068 1069 1070 1071 1072 1073 1074 1075 1076 1077 1078 1079 1080 1081 1082 1083 1084 1085 1086 1087 1088 1089 1090 1091 1092 1093 1094 1095 1096 1097 1098 1099 1100 1101 1102 1103 1104 1105 1106 1107 1108 1109 1110 1111 1112 1113 1114 1115 1116 1117 1118 1119 1120 1121 1122 1123 1124 1125 1126 1127 1128 1129 1130 1131 1132 1133 1134 1135 1136 1137 1138 1139 1140 1141 1142 1143 1144 1145 1146 1147 1148 1149 1150 1151 1152 1153 1154 1155 1156 1157 1158 1159 1160 1161 1162 1163 1164 1165 1166 1167 1168 1169 1170 1171 1172 1173 1174 1175 1176 1177 1178 1179 1180 1181 1182 1183 1184 1185 1186 1187 1188 1189 1190 1191 1192 1193 1194 1195 1196 1197 1198 1199 1200 1201 1202 1203 1204 1205 1206 1207 1208 1209 1210 1211 1212 1213 1214 1215 1216 1217 1218 1219 1220 1221 1222 1223 1224 1225 1226 1227 1228 1229 1230 1231 1232 1233 1234 1235 1236 1237 1238 1239 1240 1241 1242 1243 1244 1245 1246 1247 1248 1249 1250 1251 1252 1253 1254 1255 1256 1257 1258 1259 1260 1261 1262 1263 1264 1265 1266 1267 1268 1269 1270 1271 1272 1273 1274 1275 1276 1277 1278 1279 1280 1281 1282 1283 1284 1285 1286 1287 1288 1289 1290 1291 1292 1293 1294 1295 1296 1297 1298 1299 1300 1301 1302 1303 1304 1305 1306 1307 1308 1309 1310 1311 1312 1313 1314 1315 1316 1317 1318 1319 1320 1321 1322 1323 1324 1325 1326 1327 1328 1329 1330 1331 1332 1333 1334 1335 1336 1337 1338 1339 1340 1341 1342 1343 1344 1345 1346 1347 1348 1349 1350 1351 1352 1353 1354 1355 1356 1357 1358 1359 1360 1361 1362 1363 1364 1365 1366 1367 1368 1369 1370 1371 1372 1373 1374 1375 1376 1377 1378 1379 1380 1381 1382 1383 1384 1385 1386 1387 1388 1389 1390 1391 1392 1393 1394 1395 1396 1397 1398 1399 1400 1401 1402 1403 1404 1405 1406 1407 1408 1409 1410 1411 1412 1413 1414 1415 1416 1417 1418 1419 1420 1421 1422 1423 1424 1425 1426 1427 1428 1429 1430 1431 1432 1433 1434 1435 1436 1437 1438 1439 1440 1441 1442 1443 1444 1445 1446 1447 1448 1449 1450 1451 1452 1453 1454 1455 1456 1457 1458 1459 1460 1461 1462 1463 1464 1465 1466 1467 1468 1469 1470 1471 1472 1473 1474 1475 1476 1477 1478 1479 1480 1481 1482 1483 1484 1485 1486 1487 1488 1489 1490 1491 1492 1493 1494 1495 1496 1497 1498 1499 1500 1501 1502 1503 1504 1505 1506 1507 1508 1509 1510 1511 1512 1513 1514 1515 1516 1517 1518 1519 1520 1521 1522 1523 1524 1525 1526 1527 1528 1529 1530 1531 1532 1533 1534 1535 1536 1537 1538 1539 1540 1541 1542 1543 1544 1545 1546 1547 1548 1549 1550 1551 1552 1553 1554 1555 1556 1557 1558 1559 1560 1561 1562 1563 1564 1565 1566 1567 1568 1569 1570 1571 1572 1573 1574 1575 1576 1577 1578 1579 1580 1581 1582 1583 1584 1585 1586 1587 1588 1589 1590 1591 1592 1593 1594 1595 1596 1597 1598 1599 1600 1601 1602 1603 1604 1605 1606 1607 1608 1609 1610 1611 1612 1613 1614 1615 1616 1617 1618 1619 1620 1621 1622 1623 1624 1625 1626 1627 1628 1629 1630 1631 1632 1633 1634 1635 1636 1637 1638 1639 1640 1641 1642 1643 1644 1645 1646 1647 1648 1649 1650 1651 1652 1653 1654 1655 1656 1657 1658 1659 1660 1661 1662 1663 1664 1665 1666 1667 1668 1669 1670 1671 1672 1673 1674 1675 1676 1677 1678 1679 1680 1681 1682 1683 1684 1685 1686 1687 1688 1689 1690 1691 1692 1693 1694 1695 1696 1697 1698 1699 1700 1701 1702 1703 1704 1705 1706 1707 1708 1709 1710 1711 1712 1713 1714 1715 1716 1717 1718 1719 1720 1721 1722 1723 1724 1725 1726 1727 1728 1729 1730 1731 1732 1733 1734 1735 1736 1737 1738 1739 1740 1741 1742 1743 1744 1745 1746 1747 1748 1749 1750 1751 1752 1753 1754 1755 1756 1757 1758 1759 1760 1761 1762 1763 1764 1765 1766 1767 1768 1769 1770 1771 1772 1773 1774 1775 1776 1777 1778 1779 1780 1781 1782 1783 1784 1785 1786 1787 1788 1789 1790 1791 1792 1793 1794 1795 1796 1797 1798 1799 1800 1801 1802 1803 1804 1805 1806 1807 1808 1809 1810 1811 1812 1813 1814 1815 1816 1817 1818 1819 1820 1821 1822 1823 1824 1825 1826 1827 1828 1829 1830 1831 1832 1833 1834 1835 1836 1837 1838 1839 1840 1841 1842 1843 1844 1845 1846 1847 1848 1849 1850 1851 1852 1853 1854 1855 1856 1857 1858 1859 1860 1861 1862 1863 1864 1865 1866 1867 1868 1869 1870 1871 1872 1873 1874 1875 1876 1877 1878 1879 1880 1881 1882 1883 1884 1885 1886 1887 1888 1889 1890 1891 1892 1893 1894 1895 1896 1897 1898 1899 1900 1901 1902 1903 1904 1905 1906 1907 1908 1909 1910 1911 1912 1913 1914 1915 1916 1917 1918 1919 1920 1921 1922 1923 1924 1925 1926 1927 1928 1929 1930 1931 1932 1933 1934 1935 1936 1937 1938 1939 1940 1941 1942 1943 1944 1945 1946 1947 1948 1949 1950 1951 1952 1953 1954 1955 1956 1957 1958 1959 1960 1961 1962 1963 1964 1965 1966 1967 1968 1969 1970 1971 1972 1973 1974 1975 1976 1977 1978 1979 1980 1981 1982 1983 1984 1985 1986 1987 1988 1989 1990 1991 1992 1993 1994 1995 1996 1997 1998 1999 2000 2001 2002 2003 2004 2005 2006 2007 2008 2009 2010 2011 2012 2013 2014 2015 2016 2017 2018 2019 2020 2021 2022 2023 2024 2025 2026 2027 2028 2029 2030 2031 2032 2033 2034 2035 2036 2037 2038 2039 2040 2041 2042 2043 2044 2045 2046 2047 2048 2049 2050 2051 2052 2053 2054 2055 2056 2057 2058 2059 2060 2061 2062 2063 2064 2065 2066 2067 2068 2069 2070 2071 2072 2073 2074 2075 2076 2077 2078 2079 2080 2081 2082 2083 2084 2085 2086 2087 2088 2089 2090 2091 2092 2093 2094 2095 2096 2097 2098 2099 2100 2101 2102 2103 2104 2105 2106 2107 2108 2109 2110 2111 2112 2113 2114 2115 2116 2117 2118 2119 2120 2121 2122 2123 2124 2125 2126 2127 2128 2129 2130 2131 2132 2133 2134 2135 2136 2137 2138 2139 2140 2141 2142 2143 2144 2145 2146 2147 2148 2149 2150 2151 2152 2153 2154 2155 2156 2157 2158 2159 2160 2161 2162 2163 2164 2165 2166 2167 2168 2169 2170 2171 2172 2173 2174 2175 2176 2177 2178 2179 2180 2181 2182 2183 2184 2185 2186 2187 2188 2189 2190 2191 2192 2193 2194 2195 2196 2197 2198 2199 2200 2201 2202 2203 2204 2205 2206 2207 2208 2209 2210 2211 2212 2213 2214 2215 2216 2217 2218 2219 2220 2221 2222 2223 2224 2225 2226 2227 2228 2229 2230 2231 2232 2233 2234 2235 2236 2237 2238 2239 2240 2241 2242 2243 2244 2245 2246 2247 2248 2249 2250 2251 2252 2253 2254 2255 2256 2257 2258 2259 2260 2261 2262 2263 2264 2265 2266 2267 2268 2269 2270 2271 2272 2273 2274 2275 2276 2277 2278 2279 2280 2281 2282 2283 2284 2285 2286 2287 2288 2289 2290 2291 2292 2293 2294 2295 2296 2297 2298 2299 2300 2301 2302 2303 2304 2305 2306 2307 2308 2309 2310 2311 2312 2313 2314 2315 2316 2317 2318 2319 2320 2321 2322 2323 2324 2325 2326 2327 2328 2329 2330 2331 2332 2333 2334 2335 2336 2337 2338 2339 2340 2341 2342 2343 2344 2345 2346 2347 2348 2349 2350 2351 2352 2353 2354 2355 2356 2357 2358 2359 2360 2361 2362 2363 2364 2365 2366 2367 2368 2369 2370 2371 2372 2373 2374 2375 2376 2377 2378 2379 2380 2381 2382 2383 2384 2385 2386 2387 2388 2389 2390 2391 2392 2393 2394 2395 2396 2397 2398 2399 2400 2401 2402 2403 2404 2405 2406 2407 2408 2409 2410 2411 2412 2413 2414 2415 2416 2417 2418 2419 2420 2421 2422 2423 2424 2425 2426 2427 2428 2429 2430 2431 2432 2433 2434 2435 2436 2437 2438 2439 2440 2441 2442 2443 2444 2445 2446 2447 2448 2449 2450 2451 2452 2453 2454 2455 2456 2457 2458 2459 2460 2461 2462 2463 2464 2465 2466 2467 2468 2469 2470 2471 2472 2473 2474 2475 2476 2477 2478 2479 2480 2481 2482 2483 2484 2485 2486 2487 2488 2489 2490 2491 2492 2493 2494 2495 2496 2497 2498 2499 2500 2501 2502 2503 2504 2505 2506 2507 2508 2509 2510 2511 2512 2513 2514 2515 2516 2517 2518 2519 2520 2521 2522 2523 2524 2525 2526 2527 2528 2529 2530 2531 2532 2533 2534 2535 2536 2537 2538 2539 2540 2541 2542 2543 2544 2545 2546 2547 2548 2549 2550 2551 2552 2553 2554 2555 2556 2557 2558 2559 2560 2561 2562 2563 2564 2565 2566 2567 2568 2569 2570 2571 2572 2573 2574 2575 2576 2577 2578 2579 2580 2581 2582 2583 2584 2585 2586 2587 2588 2589 2590 2591 2592 2593 2594 2595 2596 2597 2598 2599 2600 2601 2602 2603 2604 2605 2606 2607 2608 2609 2610 2611 2612 2613 2614 2615 2616 2617 2618 2619 2620 2621 2622 2623 2624 2625 2626 2627 2628 2629 2630 2631 2632 2633 2634 2635 2636 2637 2638 2639 2640 2641 2642 2643 2644 2645 2646 2647 2648 2649 2650 2651 2652 2653 2654 2655 2656 2657 2658 2659 2660 2661 2662 2663 2664 2665 2666 2667 2668 2669 2670 2671 2672 2673 2674 2675 2676 2677 2678 2679 2680 2681 2682 2683 2684 2685 2686 2687 2688 2689 2690 2691 2692 2693 2694 2695 2696 2697 2698 2699 2700 2701 2702 2703 2704 2705 2706 2707 2708 2709 2710 2711 2712 2713 2714 2715 2716 2717 2718 2719 2720 2721 2722 2723 2724 2725 2726 2727 2728 2729 2730 2731 2732 2733 2734 2735 2736 2737 2738 2739 2740 2741 2742 2743 2744 2745 2746 2747 2748 2749 2750 2751 2752 2753 2754 2755 2756 2757 2758 2759 2760 2761 2762 2763 2764 2765 2766 2767 2768 2769 2770 2771 2772 2773 2774 2775 2776 2777 2778 2779 2780 2781 2782 2783 2784 2785 2786 2787 2788 2789 2790 2791 2792 2793 2794 2795 2796 2797 2798 2799 2800 2801 2802 2803 2804 2805 2806 2807 2808 2809 2810 2811 2812 2813 2814 2815 2816 2817 2818 2819 2820 2821 2822 2823 2824 2825 2826 2827 2828 2829 2830 2831 2832 2833 2834 2835 2836 2837 2838 2839 2840 2841 2842 2843 2844 2845 2846 2847 2848 2849 2850 2851 2852 2853 2854 2855 2856 2857 2858 2859 2860 2861 2862 2863 2864 2865 2866 2867 2868 2869 2870 2871 2872 2873 2874 2875 2876 2877 2878 2879 2880 2881 2882 2883 2884 2885 2886 2887 2888 2889 2890 2891 2892 2893 2894 2895 2896 2897 2898 2899 2900 2901 2902 2903 2904 2905 2906 2907 2908 2909 2910 2911 2912 2913 2914 2915 2916 2917 2918 2919 2920 2921 2922 2923 2924 2925 2926 2927 2928 2929 2930 2931 2932 2933 2934 2935 2936 2937 2938 2939 2940 2941 2942 2943 2944 2945 2946 2947 2948 2949 2950 2951 2952 2953 2954 2955 2956 2957 2958 2959 2960 2961 2962 2963 2964 2965 2966 2967 2968 2969 2970 2971 2972 2973 2974 2975 2976 2977 2978 2979 2980 2981 2982 2983 2984 2985 2986 2987 2988 2989 2990 2991 2992 2993 2994 2995 2996 2997 2998 2999 3000 3001 3002 3003 3004 3005 3006 3007 3008 3009 3010 3011 3012 3013 3014 3015 3016 3017 3018 3019 3020 3021 3022 3023 3024 3025 3026 3027 3028 3029 3030 3031 3032 3033 3034 3035 3036 3037 3038 3039 3040 3041 3042 3043 3044 3045 3046 3047 3048 3049 3050 3051 3052 3053 3054 3055 3056 3057 3058 3059 3060 3061 3062 3063 3064 3065 3066 3067 3068 3069 3070 3071 3072 3073 3074 3075 3076 3077 3078 3079 3080 3081 3082 3083 3084 3085 3086 3087 3088 3089 3090 3091 3092 3093 3094 3095 3096 3097 3098 3099 3100 3101 3102 3103 3104 3105 3106 3107 3108 3109 3110 3111 3112 3113 3114 3115 3116 3117 3118 3119 3120 3121 3122 3123 3124 3125 3126 3127 3128 3129 3130 3131 3132 3133 3134 3135 3136 3137 3138 3139 3140 3141 3142 3143 3144 3145 3146 3147 3148 3149 3150 3151 3152 3153 3154 3155 3156 3157 3158 3159 3160 3161 3162 3163 3164 3165 3166 3167 3168 3169 3170 3171 3172 3173 3174 3175 3176 3177 3178 3179 3180 3181 3182 3183 3184 3185 3186 3187 3188 3189 3190 3191 3192 3193 3194 3195 3196 3197 3198 3199 3200 3201 3202 3203 3204 3205 3206 3207 3208 3209 3210 3211 3212 3213 3214 3215 3216 3217 3218 3219 3220 3221 3222 3223 3224 3225 3226 3227 3228 3229 3230 3231 3232 3233 3234 3235 3236 3237 3238 3239 3240 3241 3242 3243 3244 3245 3246 3247 3248 3249 3250 3251 3252 3253 3254 3255 3256 3257 3258 3259 3260 3261 3262 3263 3264 3265 3266 3267 3268 3269 3270 3271 3272 3273 3274 3275 3276 3277 3278 3279 3280 3281 3282 3283 3284 3285 3286 3287 3288 3289 3290 3291 3292 3293 3294 3295 3296 3297 3298 3299 3300 3301 3302 3303 3304 3305 3306 3307 3308 3309 3310 3311 3312 3313 3314 3315 3316 3317 3318 3319 3320 3321 3322 3323 3324 3325 3326 3327 3328 3329 3330 3331 3332 3333 3334 3335 3336 3337 3338 3339 3340 3341 3342 3343 3344 3345 3346 3347 3348 3349 3350 3351 3352 3353 3354 3355 3356 3357 3358 3359 3360 3361 3362 3363 3364 3365 3366 3367 3368 3369 3370 3371 3372 3373 3374 3375 3376 3377 3378 3379 3380 3381 3382 3383 3384 3385 3386 3387 3388 3389 3390 3391 3392 3393 3394 3395 3396 3397 3398 3399 3400 3401 3402 3403 3404 3405 3406 3407 3408 3409 3410 3411 3412 3413 3414 3415 3416 3417 3418 3419 3420 3421 3422 3423 3424 3425 3426 3427 3428 3429 3430 3431 3432 3433 3434 3435 3436 3437 3438 3439 3440 3441 3442 3443 3444 3445 3446 3447 3448 3449 3450 3451 3452 3453 3454 3455 3456 3457 3458 3459 3460 3461 3462 3463 3464 3465 3466 </DataArray>
        <DataArray type="Float64" Name="stress" format="ascii" NumberOfComponents="9">-4195826.886610028 5171137.853405956 5171137.853405956 -100954928.4889288 0 0 0 0 0 -2783748.900488164 -2710352.462844168 -2710352.462844168 -74736992.33252175 0 0 0 0 0 618892.5858671016 3844700.174110352 3844700.174110352 -70001504.33508524 0 0 0 0 0 -4890953.509594758 4101833.816841299 4101833.816841299 -67969815.56804572 0 0 0 0 0 -3042917.339338174 7970658.830115357 7970658.830115357 -92186453.88703524 0 0 0 0 0 -2256413.168393978 -2556325.039160694 -2556325.039160694 -68473419.94859396 0 0 0 0 0 -2832470.793405411 -2994519.044415337 -2994519.044415337 -56213631.45284767 0 0 0 0 0 -1153195.350758742 5056232.063198397 5056232.063198397 -63333670.24892306 0 0 0 0 0 -3646007.519458876 1338776.489257188 1338776.489257188 -55867206.83301547 0 0 0 0 0 -3173890.213534175 1851444.731601483 1851444.731601483 -48118399.53860837 0 0 0 0 0 -1231750.478216263 -3460264.01641889 -3460264.01641889 -39388721.13020387 0 0 0 0 0 -4130293.902453456 10827676.76150361 10827676.76150361 -84754693.49657516 0 0 0 0 0 -1362739.072006507 1965191.662399434 1965191.662399434 -65258570.03090558 0 0 0 0 0 -591628.3686992739 -4771599.250738991 -4771599.250738991 -50357968.2542557 0 0 0 0 0 -2257106.298774198 -5996065.877554892 -5996065.877554892 -45133309.44041637 0 0 0 0 0 858060.028636473 281918.8318598341 281918.8318598341 -33203292.54339905 0 0 0 0 0 2488908.407347678 -3361025.129224146 -3361025.129224146 -27073489.04167273 0 0 0 0 0 -1124430.140986921 6898119.333518015 6898119.333518015 -53851866.74670632 0 0 0 0 0 -861377.9436611044 -1998037.22002944 -1998037.22002944 -46116302.70871247 0 0 0 0 0 -1048297.688642353 -2563785.119537292 -2563785.119537292 -44902240.29672863 0 0 0 0 0 240566.9046612455 -2515728.096442183 -2515728.096442183 -38628703.74918595 0 0 0 0 0 783465.6256792223 -7209296.710279715 -7209296.710279715 -30960711.71042875 0 0 0 0 0 5135241.812094102 -875992.1917183897 -875992.1917183897 -22809668.82301274 0 0 0 0 0 -3236491.547535943 11821030.76992572 11821030.76992572 -71265438.037861 0 0 0 0 0 1204539.92797903 -318463.9439631554 -318463.9439631554 -57801677.65326837 0 0 0 0 0 4073369.004063566 -9124969.387504939 -9124969.387504939 -44717241.25117698 0 0 0 0 0 3069513.345366209 -9861517.992826167 -9861517.992826167 -37049083.96427872 0 0 0 0 0 6361963.489076241 -4982550.93302021 -4982550.93302021 -27664823.83569627 0 0 0 0 0 7639082.692198867 -3321121.212453242 -3321121.212453242 -19002546.76720845 0 0 0 0 0 5365021.478094038 -7368256.234264811 -7368256.234264811 -22559509.76396094 0 0 0 0 0 -1484084.520904991 6666372.986330764 6666372.986330764 -43669968.4628088 0 0 0 0 0 2412640.513754983 -5150893.060397888 -5150893.060397888 -39652890.77213342 0 0 0 0 0 3659067.668662786 -7819629.889302607 -7819629.889302607 -36455580.56975129 0 0 0 0 0 2913728.164171712 -8030880.087505363 -8030880.087505363 -30429251.03743199 0 0 0 0 0 3661650.804289681 -8870125.551402587 -8870125.551402587 -23008682.66724252 0 0 0 0 0 10633596.00089531 -1255496.07288968 -1255496.07288968 -15428776.94330631 0 0 0 0 0 7943164.296643369 -5360292.392353126 -5360292.392353126 -18886069.81947386 0 0 0 0 0 -2057632.15713298 10572429.68882947 10572429.68882947 -54548138.67342846 0 0 0 0 0 5551001.801576802 -3026660.873849962 -3026660.873849962 -49888157.75665672 0 0 0 0 0 6018718.575424209 -6640199.157275937 -6640199.157275937 -41980157.53421206 0 0 0 0 0 9057305.196123742 -14970489.38891612 -14970489.38891612 -31388002.50660352 0 0 0 0 0 9576181.244757764 -14779569.48428108 -14779569.48428108 -34069630.30623601 0 0 0 0 0 9746447.263111921 -12605586.66725238 -12605586.66725238 -26798351.39840627 0 0 0 0 0 10899258.90654599 -10738550.88174243 -10738550.88174243 -20868952.59727243 0 0 0 0 0 12711198.73979446 -3103369.275371739 -3103369.275371739 -12407101.90631242 0 0 0 0 0 11226255.81430672 -7849840.407020902 -7849840.407020902 -15997934.07705273 0 0 0 0 0 598879.4297796452 2510787.559104402 2510787.559104402 -29471849.78201054 0 0 0 0 0 3992268.980883873 -4476981.823635743 -4476981.823635743 -37776658.27387469 0 0 0 0 0 11811990.29630668 -14443146.14760746 -14443146.14760746 -33192682.06945057 0 0 0 0 0 10260955.70967583 -13449703.35292984 -13449703.35292984 -26627755.13317613 0 0 0 0 0 11144859.08276675 -13517328.6271824 -13517328.6271824 -30608694.15265691 0 0 0 0 0 9069098.202431636 -12084842.68691133 -12084842.68691133 -22288662.80153331 0 0 0 0 0 10785606.75039256 -10199246.27786457 -10199246.27786457 -17333421.93676153 0 0 0 0 0 17055416.38893142 -1544392.672703861 -1544392.672703861 -9967408.102301016 0 0 0 0 0 12107147.64111042 -6739284.43998524 -6739284.43998524 -13160546.00383206 0 0 0 0 0 17876135.21638381 -2412779.885634251 -2412779.885634251 -7947386.360150908 0 0 0 0 0 914715.1718189025 7843920.50219437 7843920.50219437 -37660681.78371476 0 0 0 0 0 6098417.959172732 -1767726.604623958 -1767726.604623958 -38084595.71123434 0 0 0 0 0 12763988.50154902 -11576575.9044815 -11576575.9044815 -29693957.88364424 0 0 0 0 0 14088801.44050761 -13482910.76187521 -13482910.76187521 -31969084.29360554 0 0 0 0 0 15356905.03953939 -18149198.36848925 -18149198.36848925 -22827693.76686706 0 0 0 0 0 16343141.47932197 -19900862.1146188 -19900862.1146188 -25805017.02841886 0 0 0 0 0 18158883.29150442 -20580669.7207577 -20580669.7207577 -27059053.26919723 0 0 0 0 0 15402113.37470496 -15619316.50395907 -15619316.50395907 -18716089.78446091 0 0 0 0 0 16373737.67292938 -12660985.29091672 -12660985.29091672 -14668543.29912568 0 0 0 0 0 14348034.20310421 -5063479.843434539 -5063479.843434539 -9190825.497660318 0 0 0 0 0 18971766.40285577 -8217060.44266226 -8217060.44266226 -10673788.77486549 0 0 0 0 0 19421470.62678659 -1559162.946014487 -1559162.946014487 -6369835.717473577 0 0 0 0 0 1654636.589343522 447320.7150614543 447320.7150614543 -17282602.06918811 0 0 0 0 0 14218617.35584949 -10991698.69071903 -10991698.69071903 -21288046.69001408 0 0 0 0 0 14136307.68804638 -11732660.95587839 -11732660.95587839 -31845609.13866779 0 0 0 0 0 21087507.15130045 -20323427.12831453 -20323427.12831453 -26019353.56328634 0 0 0 0 0 17140658.20221996 -16944643.37905661 -16944643.37905661 -19926212.36904904 0 0 0 0 0 18887733.47105475 -18511577.37511808 -18511577.37511808 -23215204.33379205 0 0 0 0 0 21541313.79652859 -19203937.01530949 -19203937.01530949 -25793312.52849181 0 0 0 0 0 16360793.04394129 -14757517.48742911 -14757517.48742911 -16058298.39387655 0 0 0 0 0 16778445.92717136 -12005794.418826 -12005794.418826 -12336389.77827855 0 0 0 0 0 22605718.951703 -5437686.251012205 -5437686.251012205 -6699998.053699194 0 0 0 0 0 17324537.69496118 -8821162.752536697 -8821162.752536697 -9178349.267298199 0 0 0 0 0 23059084.36196768 -2697892.862703671 -2697892.862703671 -4582122.717454059 0 0 0 0 0 6713851.616836289 -18788.64886831545 -18788.64886831545 -16504580.26460171 0 0 0 0 0 16866523.47788766 -8266479.325918304 -8266479.325918304 -24350211.66956268 0 0 0 0 0 18168241.8786349 -12904667.42254502 -12904667.42254502 -27214049.51955415 0 0 0 0 0 23802181.18782138 -20107310.60879683 -20107310.60879683 -22074514.32236252 0 0 0 0 0 24424167.93212492 -19350606.53789207 -19350606.53789207 -26533670.56292592 0 0 0 0 0 21195778.45696092 -20388295.84391012 -20388295.84391012 -16998132.27953646 0 0 0 0 0 22405038.00358767 -22853327.99464189 -22853327.99464189 -19937004.76397616 0 0 0 0 0 24603253.19661914 -24655265.32665487 -24655265.32665487 -22024219.83683423 0 0 0 0 0 27834848.40536733 -25541239.14648919 -25541239.14648919 -22286757.44582104 0 0 0 0 0 21162538.22455299 -17250771.39250214 -17250771.39250214 -13501387.51371042 0 0 0 0 0 22103340.44727944 -13697747.57982479 -13697747.57982479 -10075510.35326139 0 0 0 0 0 20237603.97769829 -6993756.664581077 -6993756.664581077 -6126821.6805781 0 0 0 0 0 24696189.33345086 -9829304.371509233 -9829304.371509233 -6775164.721990663 0 0 0 0 0 26275549.28006202 -1740269.602493816 -1740269.602493816 -3113400.238807649 0 0 0 0 0 27871735.57134696 -2359101.161737015 -2359101.161737015 -2140359.857601443 0 0 0 0 0 8332228.175336732 -7547626.891454937 -7547626.891454937 -2810024.163903665 0 0 0 0 0 16057110.52313796 -12594656.86338843 -12594656.86338843 -16558868.93666289 0 0 0 0 0 29450376.13358909 -21030108.9805465 -21030108.9805465 -15574513.13446861 0 0 0 0 0 28560085.66925016 -19719692.72575441 -19719692.72575441 -25249112.5077047 0 0 0 0 0 31527751.19252784 -26326170.22506876 -26326170.22506876 -21002673.69441799 0 0 0 0 0 23723980.78385391 -19128028.80891831 -19128028.80891831 -14990158.24850318 0 0 0 0 0 25810203.94978511 -21343197.44799204 -21343197.44799204 -18116939.58600508 0 0 0 0 0 28883383.04203438 -22970733.83960641 -22970733.83960641 -20725334.45212963 0 0 0 0 0 32688821.99033093 -23980346.49016931 -23980346.49016931 -22435911.01680871 0 0 0 0 0 22653958.20083163 -16390241.902969 -16390241.902969 -11765399.68544138 0 0 0 0 0 22564359.29943484 -13291908.82073818 -13291908.82073818 -8853745.825741434 0 0 0 0 0 26867154.83062206 -6574714.193902815 -6574714.193902815 -4183037.639039294 0 0 0 0 0 23565980.28048699 -10215378.52496252 -10215378.52496252 -6248703.654640858 0 0 0 0 0 25873704.82513627 -6718295.530583308 -6718295.530583308 -3431880.287120136 0 0 0 0 0 30854506.90406873 -1692387.43033099 -1692387.43033099 -1138762.471139471 0 0 0 0 0 17679182.22542519 -10385691.49773954 -10385691.49773954 1564473.425657635 0 0 0 0 0 27314310.64044377 -16153846.35311903 -16153846.35311903 -11838584.31612875 0 0 0 0 0 33163829.79966854 -20341571.91384798 -20341571.91384798 -20118322.3044825 0 0 0 0 0 36997348.20984834 -26800448.67860875 -26800448.67860875 -17008210.50082009 0 0 0 0 0 37799608.0973713 -24705464.4388697 -24705464.4388697 -22666659.1922822 0 0 0 0 0 28319143.49972667 -24450223.79607438 -24450223.79607438 -15775572.27445764 0 0 0 0 0 27012645.16642027 -21514130.8878268 -21514130.8878268 -12837504.93855267 0 0 0 0 0 30674311.47069109 -26796777.61519719 -26796777.61519719 -18181347.6210973 0 0 0 0 0 34041218.75922971 -28498837.45515069 -28498837.45515069 -19639702.43948821 0 0 0 0 0 38271381.38062536 -29702595.25708211 -29702595.25708211 -19881953.96658207 0 0 0 0 0 26701901.32767299 -18133799.05121789 -18133799.05121789 -9763284.2976257 0 0 0 0 0 27109980.73602357 -14611551.72377097 -14611551.72377097 -6935452.875117146 0 0 0 0 0 27061444.87615614 -11358174.48356924 -11358174.48356924 -4534866.031301235 0 0 0 0 0 31765271.50161615 -6197478.194337755 -6197478.194337755 -1697024.820380359 0 0 0 0 0 32493070.52744447 -2105737.823351513 -2105737.823351513 -534271.436132835 0 0 0 0 0 30163445.80739443 -5917172.654353957 -5917172.654353957 -1719425.97126802 0 0 0 0 0 19258799.02852346 -17733158.02919261 -17733158.02919261 9440067.346706007 0 0 0 0 0 27560240.86284081 -21061089.43490545 -21061089.43490545 -5867390.561090644 0 0 0 0 0 42271950.24242604 -27825605.76335173 -27825605.76335173 -11166136.05623584 0 0 0 0 0 44004769.87103951 -25538519.77013529 -25538519.77013529 -20979125.23012977 0 0 0 0 0 43505482.53629534 -30495655.3449325 -30495655.3449325 -18529018.84135459 0 0 0 0 0 32083967.81444423 -22899597.92517122 -22899597.92517122 -14320298.00297402 0 0 0 0 0 29821119.39133917 -20305780.34288066 -20305780.34288066 -11510524.70639229 0 0 0 0 0 35346339.60126209 -24995530.00739139 -24995530.00739139 -16950835.38181677 0 0 0 0 0 39529174.28628516 -26566496.51246648 -26566496.51246648 -19061160.23491937 0 0 0 0 0 44811413.34290688 -27671225.40190115 -27671225.40190115 -20319031.53241199 0 0 0 0 0 28564506.92184353 -17322226.50888398 -17322226.50888398 -8835639.294463484 0 0 0 0 0 28273971.17627223 -14124252.72621778 -14124252.72621778 -6429029.994752826 0 0 0 0 0 28909077.60775856 -10805313.52753633 -10805313.52753633 -3987470.743497136 0 0 0 0 0 29376144.45260792 -8157209.945434738 -8157209.945434738 -2182438.048958685 0 0 0 0 0 34921663.24493845 -1533624.433670803 -1533624.433670803 289224.0473538511 0 0 0 0 0 33209891.01636626 -5050608.947086521 -5050608.947086521 -542461.8547037673 0 0 0 0 0 36767671.90257046 -1964973.651813803 -1964973.651813803 933897.7602927332 0 0 0 0 0 29572872.46564559 -22452351.05333673 -22452351.05333673 16767669.7961536 0 0 0 0 0 42100850.71477723 -25760639.84409748 -25760639.84409748 960089.6490360213 0 0 0 0 0 42290788.7317724 -23225154.6502772 -23225154.6502772 -13365580.2859615 0 0 0 0 0 50940841.35246836 -26292717.16516142 -26292717.16516142 -17688583.22432123 0 0 0 0 0 50028638.3834781 -31131574.7654281 -31131574.7654281 -15406711.00549547 0 0 0 0 0 51396325.66250372 -28465391.57808376 -28465391.57808376 -20334986.27868709 0 0 0 0 0 36218953.19279538 -27737587.0830499 -27737587.0830499 -15234837.76332411 0 0 0 0 0 33867546.13304213 -25099017.75764145 -25099017.75764145 -12659702.95354341 0 0 0 0 0 32540433.6308591 -22011622.5768492 -22011622.5768492 -9874210.937212493 0 0 0 0 0 39588542.89644416 -29820943.57639556 -29820943.57639556 -17282804.43888263 0 0 0 0 0 43907136.81485385 -31357973.29353025 -31357973.29353025 -18559187.41878521 0 0 0 0 0 49172075.31391205 -32358091.17727378 -32358091.17727378 -18839571.15142272 0 0 0 0 0 32166697.22481863 -18661931.10829447 -18661931.10829447 -7169297.700150563 0 0 0 0 0 32589848.27259942 -15231896.58879267 -15231896.58879267 -4693654.126978514 0 0 0 0 0 33697597.28447715 -11475198.36525822 -11475198.36525822 -2386304.379721125 0 0 0 0 0 34795363.4943702 -8764089.605269568 -8764089.605269568 -496434.0412404343 0 0 0 0 0 35306000.77820704 -5552899.476265177 -5552899.476265177 278025.0535095346 0 0 0 0 0 39288803.11578292 -1479786.098403701 -1479786.098403701 1639742.939407489 0 0 0 0 0 40695346.89030126 -1730378.013484766 -1730378.013484766 2012394.811154359 0 0 0 0 0 35234198.44295608 -31193790.60277971 -31193790.60277971 24043030.36674218 0 0 0 0 0 42649601.39551864 -24115726.79608572 -24115726.79608572 -5080783.968756584 0 0 0 0 0 49722113.06961803 -29586722.28103774 -29586722.28103774 -2628893.354536992 0 0 0 0 0 57168734.70106198 -31686710.11743702 -31686710.11743702 -10307418.50101495 0 0 0 0 0 58586508.92524578 -29041376.59569672 -29041376.59569672 -19033898.88709162 0 0 0 0 0 55464893.17370372 -32871359.10269587 -32871359.10269587 -17760475.59171731 0 0 0 0 0 40999561.56726512 -25908831.70319469 -25908831.70319469 -14047528.11668109 0 0 0 0 0 37718397.62079065 -23584003.63148658 -23584003.63148658 -11509726.45692094 0 0 0 0 0 35420531.67417683 -20867888.77867049 -20867888.77867049 -8962199.742996844 0 0 0 0 0 45235390.31447175 -27758262.77424657 -27758262.77424657 -16342344.78532459 0 0 0 0 0 50429291.1783897 -29115435.96146166 -29115435.96146166 -18138887.37524822 0 0 0 0 0 56727727.0850016 -29997955.05797418 -29997955.05797418 -19169544.80463507 0 0 0 0 0 34096360.50132476 -17890967.47752096 -17890967.47752096 -6537536.534257511 0 0 0 0 0 33671965.9684568 -14780666.22548559 -14780666.22548559 -4238117.94153335 0 0 0 0 0 33800127.45029709 -11471284.06032967 -11471284.06032967 -2561785.459092049 0 0 0 0 0 35642172.82764882 -8588049.155175937 -8588049.155175937 -671902.2309322753 0 0 0 0 0 37700225.58967052 -5019329.015552919 -5019329.015552919 807680.814263166 0 0 0 0 0 38947903.01954047 -5259122.614888739 -5259122.614888739 1180629.956974464 0 0 0 0 0 42865118.66990905 -1381453.978774968 -1381453.978774968 2429173.026394681 0 0 0 0 0 45525204.81746931 -35268335.62432462 -35268335.62432462 29737960.05669763 0 0 0 0 0 56090781.78567135 -30171836.58770461 -30171836.58770461 5931233.311432989 0 0 0 0 0 55385754.98942592 -32520816.40726269 -32520816.40726269 6609004.494016643 0 0 0 0 0 58935899.34618556 -28310147.75549515 -28310147.75549515 -11497037.00919435 0 0 0 0 0 66331643.70245971 -29491336.25110212 -29491336.25110212 -16374974.96571701 0 0 0 0 0 62813786.13771044 -33014963.41661663 -33014963.41661663 -15347398.31209466 0 0 0 0 0 64007360.44711456 -30497707.58190662 -30497707.58190662 -19171483.71207134 0 0 0 0 0 44535297.55983402 -30134806.46068873 -30134806.46068873 -15236705.87193496 0 0 0 0 0 41271955.65479683 -27878946.26672494 -27878946.26672494 -12906269.03126018 0 0 0 0 0 38978110.69659122 -25157822.90327333 -25157822.90327333 -10325443.21424594 0 0 0 0 0 37594142.71212869 -22104682.64593808 -22104682.64593808 -7722746.121914395 0 0 0 0 0 48744257.6604692 -31855048.3171851 -31855048.3171851 -17094550.17593623 0 0 0 0 0 53872291.88010312 -33002633.34616597 -33002633.34616597 -18287058.97956727 0 0 0 0 0 59868965.36304938 -33563322.56954957 -33563322.56954957 -18608982.17563107 0 0 0 0 0 37024356.15615748 -18854804.17086805 -18854804.17086805 -5249006.437018841 0 0 0 0 0 37254588.86285029 -15437607.57998627 -15437607.57998627 -2947360.670649011 0 0 0 0 0 38162405.64964893 -12144925.93247862 -12144925.93247862 -1057022.027790331 0 0 0 0 0 39073896.80932534 -9032988.985972224 -9032988.985972224 409685.7094362796 0 0 0 0 0 42867259.36654982 -4804253.138025813 -4804253.138025813 2124951.487271196 0 0 0 0 0 44391063.01722785 -1555790.340473689 -1555790.340473689 2674131.096876036 0 0 0 0 0 42324912.33342835 -4613602.924176538 -4613602.924176538 1831779.686328521 0 0 0 0 0 49207128.39250964 -40915610.18494949 -40915610.18494949 32162014.97948771 0 0 0 0 0 63229520.98301615 -36141544.30403204 -36141544.30403204 13637705.03225248 0 0 0 0 0 67017408.29365928 -29479692.79412499 -29479692.79412499 -6360324.577976119 0 0 0 0 0 64486908.32018852 -32860380.31032389 -32860380.31032389 -5593061.409612736 0 0 0 0 0 70552101.64840487 -33086446.01584199 -33086446.01584199 -11939472.59451933 0 0 0 0 0 71896854.17005737 -30666978.97627442 -30666978.97627442 -18169070.6762395 0 0 0 0 0 66809061.53613201 -33595812.95577592 -33595812.95577592 -17896387.99798899 0 0 0 0 0 50078367.39327385 -28068554.97460243 -28068554.97460243 -14125017.95231573 0 0 0 0 0 45967205.74276453 -26094100.02535186 -26094100.02535186 -11796388.47396871 0 0 0 0 0 42777248.78891536 -23704849.56758519 -23704849.56758519 -9388838.084090766 0 0 0 0 0 40512034.22462775 -20997847.95986693 -20997847.95986693 -7039333.278679768 0 0 0 0 0 55097684.32425186 -29563309.81856018 -29563309.81856018 -16184485.20250084 0 0 0 0 0 61005348.00809854 -30536951.61270129 -30536951.61270129 -17768006.77233865 0 0 0 0 0 67852519.72919089 -31011527.50170743 -31011527.50170743 -18640308.93160066 0 0 0 0 0 39122535.91830753 -18078007.51367327 -18078007.51367327 -4834889.262420083 0 0 0 0 0 38530823.26796285 -15017649.95501897 -15017649.95501897 -2948592.418200615 0 0 0 0 0 38731915.19421931 -11993084.68019328 -11993084.68019328 -1238137.255642372 0 0 0 0 0 39602560.47734879 -8952407.387526397 -8952407.387526397 131162.9475549832 0 0 0 0 0 40738957.61467604 -6843413.185594243 -6843413.185594243 1170682.905710857 0 0 0 0 0 45794451.51439523 -1352260.005708231 -1352260.005708231 2811154.629168334 0 0 0 0 0 44078245.22140311 -4205091.722512839 -4205091.722512839 2187985.213907032 0 0 0 0 0 66430933.62507072 -47822696.89778943 -47822696.89778943 40832127.8610452 0 0 0 0 0 74604919.60985281 -38723752.013184 -38723752.013184 17998137.30643083 0 0 0 0 0 81769825.40229265 -34188637.84781867 -34188637.84781867 2516272.695878696 0 0 0 0 0 73134971.57919005 -34276199.19135165 -34276199.19135165 331532.6252991874 0 0 0 0 0 75695643.61385888 -30762474.80973725 -30762474.80973725 -12004063.97003922 0 0 0 0 0 80491300.36419167 -30678977.12812348 -30678977.12812348 -16062963.77079334 0 0 0 0 0 74518674.95061386 -33239930.74464026 -33239930.74464026 -16232921.9741 0 0 0 0 0 75432560.60276186 -31036218.48561351 -31036218.48561351 -18693978.00977669 0 0 0 0 0 48953324.64841952 -29812288.62045312 -29812288.62045312 -13473171.74668906 0 0 0 0 0 52952013.17804922 -31614068.05085519 -31614068.05085519 -15631898.62644004 0 0 0 0 0 45850046.49409708 -27520980.16397729 -27520980.16397729 -11051151.68091394 0 0 0 0 0 43631698.95287717 -24842079.26593582 -24842079.26593582 -8546054.788078988 0 0 0 0 0 42256476.06379139 -21885807.25439846 -21885807.25439846 -6102569.497210661 0 0 0 0 0 57815159.7739035 -32856970.47432997 -32856970.47432997 -17344574.84760165 0 0 0 0 0 63509709.36137225 -33494355.24478022 -33494355.24478022 -18475122.46054689 0 0 0 0 0 70015887.18844289 -33537233.37555294 -33537233.37555294 -18837415.8279726 0 0 0 0 0 41678567.09654545 -18738917.00534076 -18738917.00534076 -3810691.327820703 0 0 0 0 0 41803964.94638553 -15562392.11824764 -15562392.11824764 -1799324.200765072 0 0 0 0 0 42682617.63254419 -12349962.63472352 -12349962.63472352 -8348.704840532873 0 0 0 0 0 44101866.07348177 -9112153.792783825 -9112153.792783825 1472998.538878791 0 0 0 0 0 45649947.22425452 -6876274.805379526 -6876274.805379526 2639872.484400987 0 0 0 0 0 47684526.82897592 -1557125.852868639 -1557125.852868639 3160665.493256788 0 0 0 0 0 47005999.24353916 -4431548.61254722 -4431548.61254722 2998155.827834245 0 0 0 0 0 68393387.06038469 -51396177.53176023 -51396177.53176023 37632330.15674155 0 0 0 0 0 77196102.67137438 -41535345.67918722 -41535345.67918722 19056301.45895655 0 0 0 0 0 84155255.26600523 -36163549.49451518 -36163549.49451518 5427658.933887664 0 0 0 0 0 86888157.10123137 -31785507.75474375 -31785507.75474375 -7531287.168688696 0 0 0 0 0 78984867.33969833 -33540496.26304858 -33540496.26304858 -8666938.451106949 0 0 0 0 0 82665768.9426886 -32630535.72535127 -32630535.72535127 -13863582.66611682 0 0 0 0 0 83541962.07496814 -30672010.68928214 -30672010.68928214 -17951083.63546525 0 0 0 0 0 77237578.19409326 -33023413.9331469 -33023413.9331469 -18353570.34965309 0 0 0 0 0 54256677.97010744 -27813743.85401675 -27813743.85401675 -12304255.12740361 0 0 0 0 0 58999605.57851125 -29367171.65521051 -29367171.65521051 -14461136.81310353 0 0 0 0 0 50352677.90387264 -25816186.41260913 -25816186.41260913 -10020500.20621824 0 0 0 0 0 47310138.66460716 -23457741.51230055 -23457741.51230055 -7741519.003279447 0 0 0 0 0 45113778.36148061 -20829971.9856394 -20829971.9856394 -5566997.787350989 0 0 0 0 0 64534107.57131852 -30417749.58782252 -30417749.58782252 -16330677.32116492 0 0 0 0 0 70899642.22448872 -30934786.75784355 -30934786.75784355 -17737140.76319701 0 0 0 0 0 77973061.94551553 -30927188.1994325 -30927188.1994325 -18519662.41534482 0 0 0 0 0 43722792.6162659 -18021237.85238393 -18021237.85238393 -3596286.820152606 0 0 0 0 0 43077653.15687268 -15150166.5190425 -15150166.5190425 -1833330.105068796 0 0 0 0 0 43122287.45297503 -12284391.80281258 -12284391.80281258 -382556.244503437 0 0 0 0 0 43609137.60834226 -9435564.446822401 -9435564.446822401 666929.8011495073 0 0 0 0 0 45344291.17926288 -7127486.950045747 -7127486.950045747 1824040.59489096 0 0 0 0 0 49947010.11864211 -1353247.396777672 -1353247.396777672 3514605.566974187 0 0 0 0 0 46754263.19012199 -4636533.615967931 -4636533.615967931 2444497.113615515 0 0 0 0 0 91352232.62615617 -59752923.3458845 -59752923.3458845 47756045.0692459 0 0 0 0 0 93938515.28514855 -45803981.68455417 -45803981.68455417 25674592.13085499 0 0 0 0 0 96644678.91388102 -37596505.40174375 -37596505.40174375 9463104.319025641 0 0 0 0 0 98682899.60739641 -32868345.17020455 -32868345.17020455 -1915026.208938468 0 0 0 0 0 88780227.54497384 -33196397.1263972 -33196397.1263972 -4331637.748699455 0 0 0 0 0 90183958.81944209 -30728670.00067375 -30728670.00067375 -12923773.79790028 0 0 0 0 0 92183237.66838741 -29994758.78505758 -29994758.78505758 -16296985.61277867 0 0 0 0 0 84947518.90778142 -32054775.75612736 -32054775.75612736 -17083126.50646044 0 0 0 0 0 85529714.53263153 -30425077.34396578 -30425077.34396578 -18618779.30534624 0 0 0 0 0 52901854.94194165 -29100378.21393002 -29100378.21393002 -11959471.31093556 0 0 0 0 0 56641771.50656249 -30912517.39472999 -30912517.39472999 -14236883.65349492 0 0 0 0 0 61187947.20069414 -32204534.22667346 -32204534.22667346 -16237820.36599489 0 0 0 0 0 49980187.59776858 -26853822.85337018 -26853822.85337018 -9553963.640799046 0 0 0 0 0 47862508.02318253 -24271028.26341373 -24271028.26341373 -7154793.032657752 0 0 0 0 0 46512003.88237262 -21447906.33433773 -21447906.33433773 -4867138.187354659 0 0 0 0 0 66493314.24813955 -32924061.10436851 -32924061.10436851 -17822266.60026865 0 0 0 0 0 72504588.51400134 -33028680.39968076 -33028680.39968076 -18845831.43687948 0 0 0 0 0 79173239.79080871 -32514771.29013545 -32514771.29013545 -19165534.12379173 0 0 0 0 0 45867835.20737936 -18493659.90447483 -18493659.90447483 -2780751.269886055 0 0 0 0 0 45868749.55049688 -15482457.83156026 -15482457.83156026 -924823.1146094257 0 0 0 0 0 46373739.31422957 -12548211.6740844 -12548211.6740844 608798.0997594724 0 0 0 0 0 47597530.01361193 -9730532.069137439 -9730532.069137439 1884974.781176144 0 0 0 0 0 49149654.13080547 -7162547.735496816 -7162547.735496816 2896258.949799417 0 0 0 0 0 50781358.73782075 -1352772.563965491 -1352772.563965491 3341974.025029283 0 0 0 0 0 48945179.75639998 -3867477.533787626 -3867477.533787626 3052857.635465795 0 0 0 0 0 50846063.90035245 -4710323.742272938 -4710323.742272938 3656188.955049852 0 0 0 0 0 89758720.48991431 -59800486.19411387 -59800486.19411387 39333009.11419916 0 0 0 0 0 93199256.44430701 -45705504.62745472 -45705504.62745472 22497445.97188032 0 0 0 0 0 96543421.94075102 -37486773.7777665 -37486773.7777665 9409331.508764448 0 0 0 0 0 99092420.23509708 -32974809.44858649 -32974809.44858649 -310392.1524065648 0 0 0 0 0 100377372.7652064 -30374372.87948028 -30374372.87948028 -9289895.763269702 0 0 0 0 0 91399914.22279821 -31660882.54643768 -31660882.54643768 -10976399.64843775 0 0 0 0 0 92914851.89371803 -30564878.31751968 -30564878.31751968 -15152471.49266361 0 0 0 0 0 93363950.72474024 -29430852.03441994 -29430852.03441994 -18002669.9719217 0 0 0 0 0 86327648.17882374 -31415776.45988464 -31415776.45988464 -18782299.05190212 0 0 0 0 0 57895375.53732348 -27204754.97509777 -27204754.97509777 -10793605.19790477 0 0 0 0 0 62317436.58261873 -28764867.67998791 -28764867.67998791 -12951797.59255286 0 0 0 0 0 67471625.19236812 -29854035.72072113 -29854035.72072113 -14947096.52053197 0 0 0 0 0 54241625.24786828 -25243769.7218018 -25243769.7218018 -8593363.68615704 0 0 0 0 0 51372650.51266782 -22964086.72244299 -22964086.72244299 -6452925.564157225 0 0 0 0 0 49273093.41021499 -20450675.8340149 -20450675.8340149 -4455095.496703988 0 0 0 0 0 73308519.75545605 -30426597.58841049 -30426597.58841049 -16645911.46895698 0 0 0 0 0 79779979.40454516 -30453803.50152977 -30453803.50152977 -17899798.16919424 0 0 0 0 0 86698512.23963909 -29934678.12331825 -29934678.12331825 -18601042.18490529 0 0 0 0 0 47901180.36617304 -17796013.46118843 -17796013.46118843 -2649871.977398886 0 0 0 0 0 47206767.80318175 -15078094.12627844 -15078094.12627844 -1097925.149474127 0 0 0 0 0 47123604.07328235 -12388493.02333065 -12388493.02333065 196583.1055454392 0 0 0 0 0 47589524.19303223 -9838477.117679341 -9838477.117679341 1349163.639092413 0 0 0 0 0 48681733.30074329 -7469518.239451025 -7469518.239451025 2149513.366388749 0 0 0 0 0 53002681.63297328 -1028444.332242045 -1028444.332242045 3841574.061212029 0 0 0 0 0 52032389.25602997 -3528631.027946417 -3528631.027946417 3848975.191249455 0 0 0 0 0 49763723.19582094 -5336004.275211575 -5336004.275211575 2718478.700932618 0 0 0 0 0 53692138.54301623 -1101031.512483517 -1101031.512483517 3834410.317355466 0 0 0 0 0 56300055.09313608 -1129809.729975355 -1129809.729975355 4077155.720850077 0 0 0 0 0 120535199.9000669 -68979013.48717003 -68979013.48717003 51217709.12941378 0 0 0 0 0 114967532.6673442 -51580220.69190915 -51580220.69190915 31358482.55385311 0 0 0 0 0 112934647.9932003 -40483234.8503859 -40483234.8503859 15327883.36252501 0 0 0 0 0 111703857.6538936 -33885352.49774788 -33885352.49774788 3472025.288130055 0 0 0 0 0 110992931.6705767 -29822072.47505118 -29822072.47505118 -5058781.366142979 0 0 0 0 0 100608216.4961292 -30260768.44582328 -30260768.44582328 -7573522.980283758 0 0 0 0 0 101244698.8978833 -28977592.45825746 -28977592.45825746 -13838580.45603411 0 0 0 0 0 101507452.960561 -28063632.28984628 -28063632.28984628 -16597160.79394534 0 0 0 0 0 93722242.94124731 -29769290.12292676 -29769290.12292676 -17684467.38386766 0 0 0 0 0 93923606.14509992 -28906970.01508936 -28906970.01508936 -18681460.78716754 0 0 0 0 0 59910058.78269749 -29932857.79619525 -29932857.79619525 -12946827.99503119 0 0 0 0 0 56435449.03409152 -28156778.87915538 -28156778.87915538 -10657958.93748126 0 0 0 0 0 64117198.17660568 -31239629.03313061 -31239629.03313061 -15072463.84479572 0 0 0 0 0 69015629.49083003 -32009048.03178919 -32009048.03178919 -16908127.60743496 0 0 0 0 0 53705478.34216271 -25994907.19389158 -25994907.19389158 -8325661.70504179 0 0 0 0 0 51701535.48011532 -23537916.08531759 -23537916.08531759 -6055142.665897552 0 0 0 0 0 50389818.58308405 -20880297.75528496 -20880297.75528496 -3930882.173683845 0 0 0 0 0 74546041.19288561 -32189690.02227664 -32189690.02227664 -18315824.05595788 0 0 0 0 0 80630457.50595333 -31753471.60487974 -31753471.60487974 -19170320.62472783 0 0 0 0 0 87181439.9987126 -30713861.46225194 -30713861.46225194 -19402713.88326248 0 0 0 0 0 49721380.28814949 -18106052.43157845 -18106052.43157845 -2006858.929179303 0 0 0 0 0 49625796.0995585 -15313287.35275639 -15313287.35275639 -339301.2290736177 0 0 0 0 0 50012760.50335432 -12583602.93731903 -12583602.93731903 1055938.21321918 0 0 0 0 0 50827449.46705619 -9926119.526001476 -9926119.526001476 2242324.595427374 0 0 0 0 0 51770934.95000381 -7603589.813989622 -7603589.813989622 3014722.308905229 0 0 0 0 0 52263372.27015092 -3368478.918371781 -3368478.918371781 3509730.602095666 0 0 0 0 0 52514779.34812433 -5653444.123645331 -5653444.123645331 3476305.216729577 0 0 0 0 0 54780330.73388677 -967906.6478776818 -967906.6478776818 3863403.5316936 0 0 0 0 0 57867186.40359139 -1053751.948529122 -1053751.948529122 4145970.653284035 0 0 0 0 0 58811200.08912918 -1018778.618154062 -1018778.618154062 4003553.735032262 0 0 0 0 0 113546250.7424782 -64396176.87399921 -64396176.87399921 37694544.79567882 0 0 0 0 0 110618787.7337847 -48377940.47907252 -48377940.47907252 23540283.174539 0 0 0 0 0 110182705.4936166 -37992085.61158669 -37992085.61158669 12252116.04040313 0 0 0 0 0 110109476.0515182 -31980307.18514846 -31980307.18514846 3111803.727401944 0 0 0 0 0 109976601.5290754 -28544276.22329469 -28544276.22329469 -4091640.284683032 0 0 0 0 0 110483541.8061895 -27590992.62625606 -27590992.62625606 -10764385.93002455 0 0 0 0 0 101245198.7353757 -28705105.62383438 -28705105.62383438 -12613926.03921344 0 0 0 0 0 101304058.6270416 -27680890.71940369 -27680890.71940369 -15919224.2681182 0 0 0 0 0 101356909.5325428 -27406109.31358276 -27406109.31358276 -18060257.79886965 0 0 0 0 0 94013816.26840168 -29096138.14153153 -29096138.14153153 -19005888.66713127 0 0 0 0 0 65191203.64072111 -27910369.756638 -27910369.756638 -11632399.98700414 0 0 0 0 0 61098756.62333234 -26378609.87512009 -26378609.87512009 -9527129.301910914 0 0 0 0 0 69947555.77532609 -29012068.87074291 -29012068.87074291 -13655536.34728183 0 0 0 0 0 75314390.28795117 -29624533.29981885 -29624533.29981885 -15483081.93317051 0 0 0 0 0 57704553.20274439 -24486115.92336165 -24486115.92336165 -7435715.690269638 0 0 0 0 0 55021255.53412039 -22312289.94269613 -22312289.94269613 -5438515.204566138 0 0 0 0 0 53030137.68097137 -19938652.32528375 -19938652.32528375 -3596256.772198177 0 0 0 0 0 81203327.40556578 -29715786.19157048 -29715786.19157048 -17002338.90688698 0 0 0 0 0 87506621.10912734 -29258224.50206534 -29258224.50206534 -18084057.51435282 0 0 0 0 0 94095405.57467869 -28277262.56910529 -28277262.56910529 -18665039.41144883 0 0 0 0 0 51697890.53051808 -17444043.90737531 -17444043.90737531 -1957747.21790012 0 0 0 0 0 50975783.65558183 -14911084.36933254 -14911084.36933254 -543453.7744108902 0 0 0 0 0 50805950.24316993 -12401738.70491774 -12401738.70491774 659869.5256624275 0 0 0 0 0 51140922.55973787 -9959722.362241164 -9959722.362241164 1593191.763252523 0 0 0 0 0 51912815.76735659 -7688456.628164179 -7688456.628164179 2299821.14899598 0 0 0 0 0 54545116.06094116 -3307005.64526709 -3307005.64526709 3831071.684700939 0 0 0 0 0 53215623.742584 -5630828.73109513 -5630828.73109513 3125020.89666453 0 0 0 0 0 55715575.72022626 -3309542.50568839 -3309542.50568839 3672902.664627143 0 0 0 0 0 57474483.62641883 -3049652.783166035 -3049652.783166035 3689353.51271429 0 0 0 0 0 59990863.23018444 -912064.6227665415 -912064.6227665415 4095395.912270902 0 0 0 0 0 61089065.41815764 -985832.5294309559 -985832.5294309559 4177759.306052279 0 0 0 0 0 66857704.16583259 -824458.0074128123 -824458.0074128123 4108621.75474785 0 0 0 0 0 65709421.56801026 -713196.4622356661 -713196.4622356661 3975093.483275277 0 0 0 0 0 65002418.77035011 -777998.4197200364 -777998.4197200364 4026414.08063751 0 0 0 0 0 63190166.76396472 -1008579.181114561 -1008579.181114561 4099799.220759795 0 0 0 0 0 148112952.8795932 -74582767.00036533 -74582767.00036533 49400005.73024358 0 0 0 0 0 138573573.8220331 -55786564.5823197 -55786564.5823197 35016515.54758076 0 0 0 0 0 130450871.5112355 -42187388.00626268 -42187388.00626268 19890201.25170854 0 0 0 0 0 125397709.0919262 -33897340.21800245 -33897340.21800245 8142420.864505121 0 0 0 0 0 122012687.3506858 -28986715.58639358 -28986715.58639358 -667159.7289069642 0 0 0 0 0 119769302.1489646 -25882964.44069843 -25882964.44069843 -7184928.62464891 0 0 0 0 0 109632561.5676708 -26408709.67965423 -26408709.67965423 -9612047.489864934 0 0 0 0 0 109668747.0528637 -26260004.74321666 -26260004.74321666 -14498181.66629907 0 0 0 0 0 108715477.1449775 -25421125.77243177 -25421125.77243177 -16758719.7670611 0 0 0 0 0 100993795.1541686 -26949138.31666511 -26949138.31666511 -17927030.01201714 0 0 0 0 0 100896276.0002429 -26798109.10750124 -26798109.10750124 -18639931.62565218 0 0 0 0 0 62814845.71668383 -28795945.35261335 -28795945.35261335 -11772066.81124537 0 0 0 0 0 66688848.30809735 -30088404.36492278 -30088404.36492278 -13922971.4102408 0 0 0 0 0 59605531.05660211 -27081604.88192571 -27081604.88192571 -9534202.214683304 0 0 0 0 0 71194165.76138775 -30888838.84029587 -30888838.84029587 -15873944.2679201 0 0 0 0 0 76276991.19935292 -31140992.20991971 -31140992.20991971 -17516469.89103134 0 0 0 0 0 57066297.95369207 -25025279.9131942 -25025279.9131942 -7308849.352416944 0 0 0 0 0 55183289.11299633 -22712168.9698399 -22712168.9698399 -5178659.693569139 0 0 0 0 0 53923494.99960521 -20225051.12499065 -20225051.12499065 -3207798.657490595 0 0 0 0 0 81847546.02049471 -30810467.2237427 -30810467.2237427 -18721180.36167044 0 0 0 0 0 87802234.67987582 -29893839.9248502 -29893839.9248502 -19397108.94105645 0 0 0 0 0 94037383.74902359 -28409169.51976364 -28409169.51976364 -19506354.30785508 0 0 0 0 0 53240007.05259044 -17647632.91572636 -17647632.91572636 -1444984.992772951 0 0 0 0 0 53057755.05699309 -15058760.8012443 -15058760.8012443 79737.61736682987 0 0 0 0 0 53343081.09347194 -12498705.76686476 -12498705.76686476 1373705.659935548 0 0 0 0 0 53972932.12788 -10057306.19061596 -10057306.19061596 2381733.837891409 0 0 0 0 0 54814720.88373596 -7853189.466195916 -7853189.466195916 3122782.323506298 0 0 0 0 0 55503209.02718985 -5823653.284568411 -5823653.284568411 3585992.703449173 0 0 0 0 0 58046563.95869326 -3324688.434283186 -3324688.434283186 4156067.128976374 0 0 0 0 0 58749462.30834732 -2747258.23589092 -2747258.23589092 3929425.279310762 0 0 0 0 0 60258392.26000897 -2827894.961366655 -2827894.961366655 4166236.887371965 0 0 0 0 0 62098405.62995294 -991814.6776098587 -991814.6776098587 4130398.70564499 0 0 0 0 0 68314141.35162193 -728849.36712657 -728849.36712657 4293645.828778055 0 0 0 0 0 66667920.1522356 -2100066.478291868 -2100066.478291868 4496346.967568195 0 0 0 0 0 65025054.34626868 -955538.7945591175 -955538.7945591175 4440174.871407936 0 0 0 0 0 68542775.71992783 -638057.7343095529 -638057.7343095529 3990027.748402056 0 0 0 0 0 70099038.67545812 -664532.283684507 -664532.283684507 3972737.628894065 0 0 0 0 0 143447026.9620723 -71378827.58526847 -71378827.58526847 37427096.47202668 0 0 0 0 0 130104828.1703028 -46857400.06859297 -46857400.06859297 23861181.67886388 0 0 0 0 0 124774834.2608217 -36615120.56687786 -36615120.56687786 14867752.56719973 0 0 0 0 0 121788565.8070846 -30061682.0406872 -30061682.0406872 6477092.69198912 0 0 0 0 0 119542740.8768992 -26080287.40391679 -26080287.40391679 -579140.7319674769 0 0 0 0 0 117886550.6646551 -23648825.11352992 -23648825.11352992 -6238755.470727598 0 0 0 0 0 117739076.5108344 -24121474.99402152 -24121474.99402152 -11780320.80447321 0 0 0 0 0 108880538.6066488 -25141863.50262707 -25141863.50262707 -13524806.87397538 0 0 0 0 0 107910011.5858586 -24360582.49894809 -24360582.49894809 -16177581.14240396 0 0 0 0 0 107649886.5211592 -24811456.55226023 -24811456.55226023 -17969640.11635171 0 0 0 0 0 100447921.7529562 -26351955.20802344 -26351955.20802344 -18991042.1337977 0 0 0 0 0 67702454.88270639 -26908061.63765452 -26908061.63765452 -10477726.32828176 0 0 0 0 0 72073508.85933484 -28001322.36313555 -28001322.36313555 -12468905.47451799 0 0 0 0 0 63934485.03592635 -25424592.97721488 -25424592.97721488 -8457829.195240101 0 0 0 0 0 76992467.31150234 -28647347.70151734 -28647347.70151734 -14339891.10746617 0 0 0 0 0 82394339.67323966 -28796261.2987507 -28796261.2987507 -15985526.63399197 0 0 0 0 0 60799020.4149139 -23619680.6521769 -23619680.6521769 -6487237.485135386 0 0 0 0 0 58300557.40789674 -21567320.56851064 -21567320.56851064 -4630393.122753537 0 0 0 0 0 56425985.41357061 -19342016.4593673 -19342016.4593673 -2935905.863268719 0 0 0 0 0 88147976.30625682 -28429540.25565628 -28429540.25565628 -17307080.07978105 0 0 0 0 0 94143423.18202767 -27546538.8749714 -27546538.8749714 -18205346.60622457 0 0 0 0 0 100303980.6970874 -26161753.25739456 -26161753.25739456 -18609304.5361078 0 0 0 0 0 55142577.32384 -17017671.2807268 -17017671.2807268 -1435101.598896555 0 0 0 0 0 54411299.44749344 -14658108.95215124 -14658108.95215124 -136018.7864937413 0 0 0 0 0 54175767.05506536 -12315523.75251484 -12315523.75251484 934217.2862367746 0 0 0 0 0 54389557.36626574 -10045811.76746026 -10045811.76746026 1795626.118412687 0 0 0 0 0 54986271.76374463 -7921170.689541963 -7921170.689541963 2536406.160968116 0 0 0 0 0 55853540.40293884 -5869480.073313798 -5869480.073313798 3088767.885695374 0 0 0 0 0 56754556.56889615 -4277902.654550156 -4277902.654550156 3407252.25442289 0 0 0 0 0 59680657.57351857 -4424824.060026738 -4424824.060026738 4197582.596275599 0 0 0 0 0 60896950.54586755 -2828414.19073592 -2828414.19073592 3827772.406561642 0 0 0 0 0 62827522.71364629 -2915123.418282721 -2915123.418282721 4229785.750038344 0 0 0 0 0 67477531.70814288 -1704761.695610708 -1704761.695610708 3624120.585923066 0 0 0 0 0 63688490.40694357 -2112597.674230929 -2112597.674230929 3628575.182800116 0 0 0 0 0 66121659.03021394 -2449398.840835931 -2449398.840835931 3625399.414644758 0 0 0 0 0 69119847.5199704 -596762.6896713414 -596762.6896713414 3883770.672446794 0 0 0 0 0 71188907.9374608 -582953.6960227671 -582953.6960227671 4092254.484508699 0 0 0 0 0 71508018.80455583 -539243.9929262724 -539243.9929262724 3925248.524323318 0 0 0 0 0 72825751.67916086 -586665.6395088605 -586665.6395088605 3892660.928427242 0 0 0 0 0 181660343.4394141 -79148529.16257799 -79148529.16257799 46281698.44658399 0 0 0 0 0 160320696.3612306 -54829227.01154552 -54829227.01154552 30972686.41693311 0 0 0 0 0 152110186.0902021 -52259874.83226989 -52259874.83226989 32955437.91647996 0 0 0 0 0 146037469.9124462 -41897746.83653204 -41897746.83653204 23495831.02482417 0 0 0 0 0 137791130.515611 -32640256.85034906 -32640256.85034906 12035088.16955816 0 0 0 0 0 132399512.866653 -27232361.23033875 -27232361.23033875 3411726.339106776 0 0 0 0 0 128511433.1821042 -23735916.97172095 -23735916.97172095 -3361108.286793493 0 0 0 0 0 125367789.1056632 -21629587.68762671 -21629587.68762671 -8540242.974796185 0 0 0 0 0 116286167.1244994 -22191023.21927977 -22191023.21927977 -10597000.68200567 0 0 0 0 0 115874796.7652618 -23067586.3944843 -23067586.3944843 -14814132.16703477 0 0 0 0 0 114158408.0475003 -22417334.3978201 -22417334.3978201 -16657882.93891715 0 0 0 0 0 106831777.5404112 -23835662.05060671 -23835662.05060671 -17817703.43176024 0 0 0 0 0 106496432.3998535 -24292501.89337686 -24292501.89337686 -18445014.71492753 0 0 0 0 0 65414008.11904864 -27579051.75404882 -27579051.75404882 -10710948.22991979 0 0 0 0 0 68967713.2966409 -28840015.73800086 -28840015.73800086 -12825035.66298968 0 0 0 0 0 73095000.66733266 -29656389.77794835 -29656389.77794835 -14811428.17417612 0 0 0 0 0 62458838.36724889 -25941329.15075612 -25941329.15075612 -8561829.56947674 0 0 0 0 0 77748415.74829137 -29973479.9824717 -29973479.9824717 -16561468.50766052 0 0 0 0 0 82853099.3729587 -29746281.02259369 -29746281.02259369 -17989746.34405982 0 0 0 0 0 60107132.59993542 -24001758.75710548 -24001758.75710548 -6459774.673531932 0 0 0 0 0 58345015.84535548 -21837921.86273062 -21837921.86273062 -4471613.20034888 0 0 0 0 0 57142899.52323088 -19525836.43431005 -19525836.43431005 -2649159.249013965 0 0 0 0 0 88315350.73906153 -28965086.29186537 -28965086.29186537 -18967113.86777857 0 0 0 0 0 93987457.26108243 -27642976.56729668 -27642976.56729668 -19455511.59441631 0 0 0 0 0 99816195.50747135 -25781321.55101141 -25781321.55101141 -19382382.00242568 0 0 0 0 0 56450111.8982667 -17139773.72809517 -17139773.72809517 -1027752.254656833 0 0 0 0 0 56224644.54236132 -14734636.70086002 -14734636.70086002 378602.3105794245 0 0 0 0 0 56404364.48717248 -12378881.19554928 -12378881.19554928 1549340.00854111 0 0 0 0 0 56934821.87346391 -10114570.12453605 -10114570.12453605 2496855.394252787 0 0 0 0 0 57759904.11299544 -7953452.33826875 -7953452.33826875 3277215.87986621 0 0 0 0 0 58748386.7296901 -5905412.416997629 -5905412.416997629 3842225.153675939 0 0 0 0 0 59789527.3417592 -4546146.875229131 -4546146.875229131 3563875.124035034 0 0 0 0 0 61826768.50080304 -4596786.417676712 -4596786.417676712 4020349.573904449 0 0 0 0 0 62724344.72267316 -3112243.857025418 -3112243.857025418 3636269.281527432 0 0 0 0 0 68646630.11946805 -2468326.00238561 -2468326.00238561 4372532.297126764 0 0 0 0 0 69936178.00939339 -1688539.193225126 -1688539.193225126 4351210.898120012 0 0 0 0 0 65413780.26106465 -3158860.954539839 -3158860.954539839 4378228.301715896 0 0 0 0 0 67172253.38308837 -3695719.942148497 -3695719.942148497 4191081.387831278 0 0 0 0 0 70415343.87407339 -1591626.71263062 -1591626.71263062 3543597.810081866 0 0 0 0 0 71826813.94264114 -555210.1727338005 -555210.1727338005 3744956.171520107 0 0 0 0 0 73547396.39218558 -568954.6712686033 -568954.6712686033 3822628.073981258 0 0 0 0 0 74124901.59145086 -481266.9300069168 -481266.9300069168 3834646.991158007 0 0 0 0 0 165252805.5940279 -69426990.07701156 -69426990.07701156 29986352.18715145 0 0 0 0 0 156566858.8512836 -52739572.20986225 -52739572.20986225 27932986.31412849 0 0 0 0 0 146527850.06592 -41040423.84993666 -41040423.84993666 22405115.71528544 0 0 0 0 0 137522485.495014 -34314850.2581118 -34314850.2581118 15532136.58077111 0 0 0 0 0 132577964.1020799 -27454795.20942521 -27454795.20942521 9398858.782468433 0 0 0 0 0 128820224.0693827 -23073442.80248993 -23073442.80248993 2988228.283803166 0 0 0 0 0 125715019.0255967 -20482002.98231387 -20482002.98231387 -2663282.926822946 0 0 0 0 0 123249569.3764733 -18921250.18644256 -18921250.18644256 -7248755.917416562 0 0 0 0 0 122624644.2291922 -20405086.6069008 -20405086.6069008 -12270484.62009691 0 0 0 0 0 114610959.924659 -21397848.23640832 -21397848.23640832 -13808479.74048662 0 0 0 0 0 112984016.2841237 -20959751.74304222 -20959751.74304222 -16006803.60610165 0 0 0 0 0 112490488.5845638 -21973299.68092417 -21973299.68092417 -17681160.8537053 0 0 0 0 0 105700620.0959986 -23412968.53756662 -23412968.53756662 -18690520.25042399 0 0 0 0 0 69920760.33657402 -25827282.55719109 -25827282.55719109 -9466462.790825199 0 0 0 0 0 73923625.41176984 -26898934.43562683 -26898934.43562683 -11390009.38275068 0 0 0 0 0 78429953.32933497 -27562578.75695978 -27562578.75695978 -13244110.42794005 0 0 0 0 0 66462219.02114533 -24405383.17995824 -24405383.17995824 -7549651.299450833 0 0 0 0 0 83360665.57406785 -27774099.00024148 -27774099.00024148 -14945556.39860419 0 0 0 0 0 88678547.81429741 -27491622.33791925 -27491622.33791925 -16387183.19374327 0 0 0 0 0 63572471.67638632 -22698134.0671902 -22698134.0671902 -5704428.759375296 0 0 0 0 0 61255467.97763153 -20773628.70409911 -20773628.70409911 -3981938.384673947 0 0 0 0 0 59499048.9218729 -18699503.85339295 -18699503.85339295 -2419326.972694102 0 0 0 0 0 94198530.68547793 -26699895.05978163 -26699895.05978163 -17490453.64056662 0 0 0 0 0 99822784.75656433 -25437162.11032093 -25437162.11032093 -18173162.3997046 0 0 0 0 0 105438596.0574774 -23731971.9180291 -23731971.9180291 -18381078.80811513 0 0 0 0 0 58274845.71736398 -16539334.71853661 -16539334.71853661 -1035657.852476129 0 0 0 0 0 57542551.21138138 -14347997.03563258 -14347997.03563258 152035.2132203294 0 0 0 0 0 57258638.76295239 -12181898.66114028 -12181898.66114028 1150032.670712316 0 0 0 0 0 57365722.8992362 -10081584.49649546 -10081584.49649546 1983082.763081019 0 0 0 0 0 57814762.76055241 -8072792.599804686 -8072792.599804686 2637848.726088367 0 0 0 0 0 58467471.96820839 -6147905.322716272 -6147905.322716272 3017384.904099389 0 0 0 0 0 61120781.97692148 -6236879.432962451 -6236879.432962451 3755729.194928056 0 0 0 0 0 61962061.43537928 -4716296.739268596 -4716296.739268596 3469369.916035676 0 0 0 0 0 64312554.24240366 -4735172.464505638 -4735172.464505638 4053594.722148277 0 0 0 0 0 67757799.79909062 -3095890.028941005 -3095890.028941005 3414762.007869774 0 0 0 0 0 69127455.37032358 -2190601.081836188 -2190601.081836188 3564031.598866943 0 0 0 0 0 64685047.17437835 -3593950.349427484 -3593950.349427484 3507477.544007412 0 0 0 0 0 66839093.96764406 -3951223.300037732 -3951223.300037732 3391341.554030275 0 0 0 0 0 71512401.86632471 -2198502.50265502 -2198502.50265502 4279396.858983216 0 0 0 0 0 72624436.25216597 -1531995.48447194 -1531995.48447194 4208861.295039685 0 0 0 0 0 72974048.45373401 -1465894.53457025 -1465894.53457025 3497095.079429409 0 0 0 0 0 73952393.07719474 -627692.3690660077 -627692.3690660077 3464306.811775486 0 0 0 0 0 211882850.6211143 -75709182.42757878 -75709182.42757878 42210496.99381087 0 0 0 0 0 185817563.8973397 -56961341.1464467 -56961341.1464467 35017822.64811596 0 0 0 0 0 170197412.7011174 -45621056.37850646 -45621056.37850646 29825786.92357152 0 0 0 0 0 157563415.7060351 -37744941.75424671 -37744941.75424671 22619308.35452096 0 0 0 0 0 148888000.865613 -30545188.11585074 -30545188.11585074 15332240.03723261 0 0 0 0 0 141704704.3203807 -24786896.0264862 -24786896.0264862 7279389.386492915 0 0 0 0 0 136345664.5741636 -21109328.36487921 -21109328.36487921 468437.2147176871 0 0 0 0 0 132232398.5264231 -18813981.05534966 -18813981.05534966 -4959516.595443975 0 0 0 0 0 128757474.6617861 -17467193.39037761 -17467193.39037761 -9181178.736675432 0 0 0 0 0 120912886.2170844 -18123003.21627437 -18123003.21627437 -10884473.72526083 0 0 0 0 0 120254078.584503 -19707845.35688081 -19707845.35688081 -14731124.41026658 0 0 0 0 0 118075228.5376278 -19318321.98291599 -19318321.98291599 -16322718.00997625 0 0 0 0 0 111407751.0257193 -20657425.21068701 -20657425.21068701 -17362521.82971085 0 0 0 0 0 110907842.6952902 -21609637.26547184 -21609637.26547184 -18069507.56872053 0 0 0 0 0 67750076.7750508 -26334437.23432209 -26334437.23432209 -9757759.6964904 0 0 0 0 0 71003609.26568201 -27552412.75016316 -27552412.75016316 -11797867.56755414 0 0 0 0 0 74776352.12877281 -28371470.13620462 -28371470.13620462 -13760769.95451966 0 0 0 0 0 79029032.64265019 -28736132.53409014 -28736132.53409014 -15559636.44690369 0 0 0 0 0 65036133.9690555 -24781525.86039261 -24781525.86039261 -7717625.027662555 0 0 0 0 0 83696620.85913713 -28607366.86596222 -28607366.86596222 -17098269.41040948 0 0 0 0 0 88715405.73892671 -27943993.43107119 -27943993.43107119 -18295212.10304801 0 0 0 0 0 62863421.30183171 -22962873.85439084 -22962873.85439084 -5745881.952411712 0 0 0 0 0 61216822.5000865 -20948733.28117464 -20948733.28117464 -3897076.455481817 0 0 0 0 0 60067555.47156651 -18807346.43819816 -18807346.43819816 -2212505.898821603 0 0 0 0 0 93986142.07894343 -26773922.35215221 -26773922.35215221 -19052871.786542 0 0 0 0 0 99318595.37548199 -25128056.24372082 -25128056.24372082 -19315777.03333882 0 0 0 0 0 104623940.8185769 -23009013.43708402 -23009013.43708402 -19015139.05404672 0 0 0 0 0 59379518.63480234 -16598038.88008365 -16598038.88008365 -715651.1120308667 0 0 0 0 0 59106755.0710589 -14379480.67180888 -14379480.67180888 577188.0553368106 0 0 0 0 0 59192124.49379417 -12199362.75025654 -12199362.75025654 1663874.786550634 0 0 0 0 0 59591434.22323622 -10081813.59404547 -10081813.59404547 2563664.594629856 0 0 0 0 0 60217149.59139985 -8070738.636743496 -8070738.636743496 3258943.520070548 0 0 0 0 0 61051832.59711181 -6391250.961437221 -6391250.961437221 3088946.860503958 0 0 0 0 0 63433342.9924309 -6394679.214264031 -6394679.214264031 3716660.682583544 0 0 0 0 0 64074406.60804274 -4963702.521643027 -4963702.521643027 3413925.319750449 0 0 0 0 0 70714330.6862375 -3142236.291400688 -3142236.291400688 4265999.381599004 0 0 0 0 0 69237290.47970113 -3979116.008215875 -3979116.008215875 4055795.893734241 0 0 0 0 0 66175051.69170997 -4985809.237387112 -4985809.237387112 3934298.149962953 0 0 0 0 0 68240916.62350729 -5220898.313686317 -5220898.313686317 3827460.986368455 0 0 0 0 0 70529836.20170021 -2815699.663007252 -2815699.663007252 3341966.805625123 0 0 0 0 0 71863748.32924242 -1993525.204355818 -1993525.204355818 3463800.861780598 0 0 0 0 0 73910403.25598237 -1918674.314312007 -1918674.314312007 4077714.507785424 0 0 0 0 0 74818359.01212598 -1380553.286343868 -1380553.286343868 4053554.171266743 0 0 0 0 0 188268526.7848225 -62992899.83067125 -62992899.83067125 24355489.79045562 0 0 0 0 0 170616347.9483876 -47781789.95518605 -47781789.95518605 23872041.90431976 0 0 0 0 0 160852550.9451165 -36700630.64655557 -36700630.64655557 22241023.07424005 0 0 0 0 0 149522814.4654769 -29425079.16097676 -29425079.16097676 17627056.92129299 0 0 0 0 0 142203895.5584302 -23960378.48696901 -23960378.48696901 11769881.36561151 0 0 0 0 0 136999464.6743749 -19702833.26073749 -19702833.26073749 6375557.229381146 0 0 0 0 0 132857829.3392025 -17006261.23496159 -17006261.23496159 1055027.640165043 0 0 0 0 0 129496338.5252519 -15447825.17938042 -15447825.17938042 -3641681.010931285 0 0 0 0 0 126604396.2764521 -14649542.45929754 -14649542.45929754 -7528917.712418178 0 0 0 0 0 125806185.3183003 -16735592.59411168 -16735592.59411168 -12209280.87817359 0 0 0 0 0 118743367.5247819 -17775223.9011985 -17775223.9011985 -13599705.64881395 0 0 0 0 0 116741003.324679 -17612766.3402089 -17612766.3402089 -15441219.90208887 0 0 0 0 0 116064709.1475556 -19087433.31610013 -19087433.31610013 -17196270.54847468 0 0 0 0 0 109846368.7054662 -20434413.97745889 -20434413.97745889 -18114246.9587799 0 0 0 0 0 71896834.34037971 -24715460.78571953 -24715460.78571953 -8578266.619113 0 0 0 0 0 75555508.37057891 -25756127.4882357 -25756127.4882357 -10414336.64735271 0 0 0 0 0 79669254.23642306 -26428927.90472127 -26428927.90472127 -12217224.29725895 0 0 0 0 0 84180641.79622738 -26687722.91817356 -26687722.91817356 -13914512.53151756 0 0 0 0 0 68728737.93291456 -23362555.17320515 -23362555.17320515 -6773269.801148423 0 0 0 0 0 89008836.84641734 -26503655.5124146 -26503655.5124146 -15429059.08823514 0 0 0 0 0 94107255.16934288 -25844871.74417154 -25844871.74417154 -16663203.43762241 0 0 0 0 0 66071728.94883822 -21756665.51462059 -21756665.51462059 -5051942.582072515 0 0 0 0 0 63928132.8613125 -19960071.90971312 -19960071.90971312 -3455184.376283699 0 0 0 0 0 62286005.6291578 -18032199.1061769 -18032199.1061769 -2009880.345866109 0 0 0 0 0 99314125.24417983 -24715143.53955378 -24715143.53955378 -17566686.61925501 0 0 0 0 0 104480391.3177742 -23155481.32441484 -23155481.32441484 -18050910.05015052 0 0 0 0 0 109481600.6927371 -21194615.63762929 -21194615.63762929 -18061406.56389188 0 0 0 0 0 61119884.79820018 -16027762.05518775 -16027762.05518775 -734335.9328404883 0 0 0 0 0 60394415.79677697 -13999666.91493504 -13999666.91493504 364978.0065753448 0 0 0 0 0 60069761.83649641 -11988630.85609776 -11988630.85609776 1293068.461166826 0 0 0 0 0 60096339.42422173 -10026041.32780101 -10026041.32780101 2042081.413536239 0 0 0 0 0 60429217.46783325 -8138606.937431056 -8138606.937431056 2610162.011955958 0 0 0 0 0 62642084.17975899 -8151977.413736104 -8151977.413736104 3194482.647826432 0 0 0 0 0 63379789.23781248 -6542985.897906271 -6542985.897906271 3098139.837019029 0 0 0 0 0 65454271.50689902 -6509893.491603631 -6509893.491603631 3620581.067915305 0 0 0 0 0 69635277.45051733 -3790190.867403057 -3790190.867403057 3266744.443097561 0 0 0 0 0 68561544.2166438 -4488387.957480907 -4488387.957480907 3173372.238885143 0 0 0 0 0 66072919.77304371 -5147800.532181839 -5147800.532181839 3236231.945376018 0 0 0 0 0 67965008.92421083 -5416168.589428782 -5416168.589428782 3222899.218945935 0 0 0 0 0 72054199.15294649 -3744970.508808861 -3744970.508808861 3993770.120651004 0 0 0 0 0 73026508.15919621 -2708924.1941794 -2708924.1941794 4097398.913133604 0 0 0 0 0 73010975.03376898 -2509709.164857496 -2509709.164857496 3307266.781271365 0 0 0 0 0 74114137.18577954 -1793534.126782472 -1793534.126782472 3385143.752054766 0 0 0 0 0 234459018.7503065 -68515978.61847474 -68515978.61847474 34178600.73807474 0 0 0 0 0 205343355.0297602 -52069773.63913185 -52069773.63913185 33296861.88749949 0 0 0 0 0 184181946.431012 -40577220.01809858 -40577220.01809858 29576031.71093656 0 0 0 0 0 168823739.9639781 -33517263.85981983 -33517263.85981983 24803034.0847997 0 0 0 0 0 157902113.4968102 -26706673.45155954 -26706673.45155954 17354239.13550894 0 0 0 0 0 149521576.1983802 -21732476.75430014 -21732476.75430014 10745320.15500902 0 0 0 0 0 143097998.7055759 -18098319.50248603 -18098319.50248603 4316349.608385623 0 0 0 0 0 138090452.8152399 -15759022.12802505 -15759022.12802505 -1231938.256383007 0 0 0 0 0 134044105.1808801 -14391360.31724981 -14391360.31724981 -5732442.712851689 0 0 0 0 0 130611541.5257873 -13670702.78363415 -13670702.78363415 -9249884.032585628 0 0 0 0 0 123970298.7140936 -14350596.43983216 -14350596.43983216 -10638963.16269732 0 0 0 0 0 123173711.9497366 -16422841.58721606 -16422841.58721606 -14361290.93363917 0 0 0 0 0 120788703.0418324 -16311158.02235333 -16311158.02235333 -15739450.74240103 0 0 0 0 0 114824777.0886778 -17572889.3598355 -17572889.3598355 -16651387.28031718 0 0 0 0 0 114213720.0404953 -18885311.73922247 -18885311.73922247 -17564734.75930191 0 0 0 0 0 72834234.41350421 -26264827.33732823 -26264827.33732823 -10848736.09445959 0 0 0 0 0 69857949.08494297 -25096586.17828697 -25096586.17828697 -8903279.655794242 0 0 0 0 0 76278399.04219764 -27077796.22031324 -27077796.22031324 -12751289.73148121 0 0 0 0 0 80158320.37174413 -27482972.01648395 -27482972.01648395 -14536112.14507872 0 0 0 0 0 84421098.8966704 -27440421.81075931 -27440421.81075931 -16131678.93894 0 0 0 0 0 67367119.98791133 -23632410.26589794 -23632410.26589794 -6982033.599715823 0 0 0 0 0 88997770.48775913 -26922788.25375948 -26922788.25375948 -17434540.10836878 0 0 0 0 0 93816006.84645683 -25904051.36990504 -25904051.36990504 -18374178.63699477 0 0 0 0 0 65360089.20733626 -21934421.2930227 -21934421.2930227 -5141178.042563681 0 0 0 0 0 63821919.89120555 -20064835.07771638 -20064835.07771638 -3426046.644938794 0 0 0 0 0 62728074.05170472 -18082138.32523859 -18082138.32523859 -1867464.565767306 0 0 0 0 0 98789576.50955923 -24413144.19863907 -24413144.19863907 -18866020.81987538 0 0 0 0 0 103719952.5817438 -22487632.68684897 -22487632.68684897 -18874422.93445291 0 0 0 0 0 108501652.3825758 -20182421.77982281 -20182421.77982281 -18370636.94133203 0 0 0 0 0 62049810.90935755 -16042257.73997645 -16042257.73997645 -483873.8104239288 0 0 0 0 0 61740383.52775874 -13992701.36102629 -13992701.36102629 712367.6615859224 0 0 0 0 0 61768631.25515656 -11970044.50377279 -11970044.50377279 1726242.140977497 0 0 0 0 0 62086448.42608532 -10010180.35869098 -10010180.35869098 2552470.991560164 0 0 0 0 0 62865427.64240066 -8195013.679706794 -8195013.679706794 2645220.463689988 0 0 0 0 0 64813727.01236137 -8164997.035478214 -8164997.035478214 3136493.876812777 0 0 0 0 0 65513219.58453258 -6619402.975201458 -6619402.975201458 3011770.709411555 0 0 0 0 0 71031623.96680339 -4413440.712198306 -4413440.712198306 3916420.162821514 0 0 0 0 0 69914917.8362723 -5414635.475813803 -5414635.475813803 3739954.587713066 0 0 0 0 0 67411832.81849425 -6596902.25914571 -6596902.25914571 3494639.153133525 0 0 0 0 0 69235145.45935564 -6651147.30098807 -6651147.30098807 3385126.831146714 0 0 0 0 0 71353883.59741135 -4148378.376195651 -4148378.376195651 3206034.016292628 0 0 0 0 0 72142424.83792484 -3261954.379344508 -3261954.379344508 3270842.337765465 0 0 0 0 0 74245454.28556398 -3219445.717941736 -3219445.717941736 3903039.275515131 0 0 0 0 0 75169298.6222719 -2441962.658321782 -2441962.658321782 3958710.110461494 0 0 0 0 0 212618192.3321246 -58507483.95536181 -58507483.95536181 17815145.63738025 0 0 0 0 0 186324034.0062346 -37616919.31561273 -37616919.31561273 23615718.36152283 0 0 0 0 0 171211125.0094266 -30099963.07564829 -30099963.07564829 23300566.83948096 0 0 0 0 0 159597375.6271718 -23752824.25109593 -23752824.25109593 19882581.06486383 0 0 0 0 0 150660311.707559 -19149295.29373035 -19149295.29373035 14987377.38313396 0 0 0 0 0 144024065.4655706 -15771425.92150668 -15771425.92150668 9809784.642648363 0 0 0 0 0 138950546.5206007 -13343396.65482352 -13343396.65482352 4852745.976052558 0 0 0 0 0 134894516.6427596 -11870335.58011607 -11870335.58011607 199164.0920557253 0 0 0 0 0 131496289.780614 -11127399.94447939 -11127399.94447939 -3882041.014269923 0 0 0 0 0 128519588.9143203 -10890464.69237837 -10890464.69237837 -7289427.963420248 0 0 0 0 0 127641875.7745596 -13399601.63577957 -13399601.63577957 -11871913.94231082 0 0 0 0 0 121613969.6154033 -14330024.90210414 -14330024.90210414 -12940881.07488054 0 0 0 0 0 119383163.4634314 -14474470.71068409 -14474470.71068409 -14624909.06096007 0 0 0 0 0 118605969.9151352 -16282208.40225039 -16282208.40225039 -16545930.10663473 0 0 0 0 0 113065577.8158948 -17549155.88651548 -17549155.88651548 -17328277.40819223 0 0 0 0 0 77011291.20405623 -24607276.75500108 -24607276.75500108 -9534560.811136167 0 0 0 0 0 73669552.03943132 -23604157.05938566 -23604157.05938566 -7796555.322440079 0 0 0 0 0 80763824.40133594 -25282449.42338929 -25282449.42338929 -11265526.09818823 0 0 0 0 0 84881460.58377098 -25583443.33807426 -25583443.33807426 -12926217.03953678 0 0 0 0 0 89315456.97064641 -25472939.60436434 -25472939.60436434 -14445764.44354904 0 0 0 0 0 70769581.7564605 -22323159.65036824 -22323159.65036824 -6105363.536302238 0 0 0 0 0 93947660.80719009 -24939978.94169961 -24939978.94169961 -15761043.30684719 0 0 0 0 0 98714143.76724581 -23969102.48263 -23969102.48263 -16785202.88217076 0 0 0 0 0 68327856.43939349 -20818844.92982852 -20818844.92982852 -4502912.789549516 0 0 0 0 0 66347739.84912634 -19145127.0156222 -19145127.0156222 -3020519.148500795 0 0 0 0 0 64816468.64724418 -17354737.90021871 -17354737.90021871 -1681906.026010209 0 0 0 0 0 103462747.4524688 -22577366.62642759 -22577366.62642759 -17477955.42690137 0 0 0 0 0 108092030.4666128 -20804708.85273715 -20804708.85273715 -17749651.63185158 0 0 0 0 0 112510014.440165 -18692325.84505052 -18692325.84505052 -17562114.28639226 0 0 0 0 0 63705154.39015919 -15499236.63010511 -15499236.63010511 -501880.842661713 0 0 0 0 0 62996491.21787711 -13620223.30707145 -13620223.30707145 518196.5271798876 0 0 0 0 0 62641403.28022891 -11756237.33823199 -11756237.33823199 1372728.257951505 0 0 0 0 0 62611911.66177188 -9939291.062015269 -9939291.062015269 2070394.581764388 0 0 0 0 0 64357010.83150444 -9907646.018749202 -9907646.018749202 2508257.908513515 0 0 0 0 0 65101589.56379253 -8179827.944608807 -8179827.944608807 2618435.540337115 0 0 0 0 0 66840304.86475004 -8133582.208027195 -8133582.208027195 3046315.126847469 0 0 0 0 0 70496545.77866283 -5453444.341551451 -5453444.341551451 3314194.259829036 0 0 0 0 0 69833870.21604384 -5499190.875782628 -5499190.875782628 3254086.448675431 0 0 0 0 0 67494222.87337252 -6683187.478596661 -6683187.478596661 2950831.488175319 0 0 0 0 0 69303364.50025754 -6719588.331420737 -6719588.331420737 2901966.401286956 0 0 0 0 0 73432179.99486451 -4093740.175818393 -4093740.175818393 3784585.282150588 0 0 0 0 0 72590185.74739039 -5349527.19522472 -5349527.19522472 3381982.677555247 0 0 0 0 0 73513907.77619109 -3686907.34322774 -3686907.34322774 3144577.643742767 0 0 0 0 0 74330960.02080642 -2954728.870377568 -2954728.870377568 3197322.922432545 0 0 0 0 0 263370254.5520738 -59942653.89798656 -59942653.89798656 28630035.61889929 0 0 0 0 0 221997763.7020337 -38769154.53125725 -38769154.53125725 27313475.50410742 0 0 0 0 0 191626359.0201333 -34461911.55369834 -34461911.55369834 30314394.25583797 0 0 0 0 0 204956859.1130209 -40086258.55920732 -40086258.55920732 29785298.91911496 0 0 0 0 0 176007870.3308735 -27813078.36320971 -27813078.36320971 26270521.52999415 0 0 0 0 0 164235439.0198883 -22158779.05349954 -22158779.05349954 20159248.22217502 0 0 0 0 0 155293470.3824426 -17849205.59848601 -17849205.59848601 13876621.5977795 0 0 0 0 0 148326244.8379681 -14721589.71781835 -14721589.71781835 8046287.238881247 0 0 0 0 0 142788677.2058402 -12545948.27846937 -12545948.27846937 2625399.464641277 0 0 0 0 0 138306493.8702835 -11221931.97760955 -11221931.97760955 -2055396.166639013 0 0 0 0 0 134556830.3838181 -10545523.68258092 -10545523.68258092 -5903741.844689881 0 0 0 0 0 131325225.0035589 -10316677.23428605 -10316677.23428605 -8953739.599224532 0 0 0 0 0 125850796.8785889 -10983539.59438263 -10983539.59438263 -10019666.73222416 0 0 0 0 0 124959175.9809833 -13374266.02861382 -13374266.02861382 -13741579.87365086 0 0 0 0 0 122536640.3085997 -13489436.06554698 -13489436.06554698 -14986351.24257782 0 0 0 0 0 117333627.4161898 -14667487.94913518 -14667487.94913518 -15740597.08139069 0 0 0 0 0 116607692.2813742 -16280823.93728659 -16280823.93728659 -16894844.33613931 0 0 0 0 0 77632255.61217625 -25801387.10737522 -25801387.10737522 -11801686.64512429 0 0 0 0 0 74489114.49167845 -25002368.95107795 -25002368.95107795 -9978291.169791956 0 0 0 0 0 71767172.50740781 -23888288.24222376 -23888288.24222376 -8138366.823549154 0 0 0 0 0 81168177.85655962 -26236029.05697618 -26236029.05697618 -13542028.06838042 0 0 0 0 0 85055548.63919204 -26266925.69618234 -26266925.69618234 -15135232.85460409 0 0 0 0 0 89256450.2071618 -25863560.75660801 -25863560.75660801 -16514664.36546736 0 0 0 0 0 69482763.46513686 -22512592.61688638 -22512592.61688638 -6338130.706611138 0 0 0 0 0 93666486.78127272 -25009019.60766296 -25009019.60766296 -17566688.42337592 0 0 0 0 0 98199338.33065353 -23713766.89828398 -23713766.89828398 -18245972.57899966 0 0 0 0 0 67626189.28590845 -20930720.27505501 -20930720.27505501 -4625372.066431356 0 0 0 0 0 66184644.17437594 -19196956.1461933 -19196956.1461933 -3034962.348994622 0 0 0 0 0 65145881.67226259 -17362998.18360641 -17362998.18360641 -1591580.829963013 0 0 0 0 0 102748213.5546511 -21998377.24530428 -21998377.24530428 -18494840.0164876 0 0 0 0 0 107195944.9642664 -19910671.83120139 -19910671.83120139 -18285350.25687325 0 0 0 0 0 111448173.2788215 -17497626.34366916 -17497626.34366916 -17586223.92638433 0 0 0 0 0 64480718.49717438 -15480595.22511552 -15480595.22511552 -309513.0920381129 0 0 0 0 0 64156759.13362379 -13584647.91554594 -13584647.91554594 801284.7755153236 0 0 0 0 0 64132736.38529547 -11716995.86259757 -11716995.86259757 1740209.989537255 0 0 0 0 0 64925675.45730369 -9810932.688054789 -9810932.688054789 2086184.782746731 0 0 0 0 0 66455057.0916799 -9757004.501688717 -9757004.501688717 2454392.921901172 0 0 0 0 0 67163601.20557187 -8128008.850366803 -8128008.850366803 2565993.554251887 0 0 0 0 0 71391924.56686483 -5438224.503941771 -5438224.503941771 3182877.284825356 0 0 0 0 0 70704491.75702345 -6653926.197585339 -6653926.197585339 3214997.093388629 0 0 0 0 0 68705838.50181723 -8074956.120756309 -8074956.120756309 2938694.743798434 0 0 0 0 0 70395420.38010164 -7966492.183583571 -7966492.183583571 2822302.599991442 0 0 0 0 0 72819774.37360734 -4453685.553130054 -4453685.553130054 3046266.62169994 0 0 0 0 0 72670245.21021619 -5460250.68396953 -5460250.68396953 2923567.747921513 0 0 0 0 0 75467140.21090111 -3654956.023579996 -3654956.023579996 3728391.685331696 0 0 0 0 0 74745599.45860513 -4440231.511699464 -4440231.511699464 3599602.160828369 0 0 0 0 0 229324553.7248569 -46501233.36826702 -46501233.36826702 12750460.24450986 0 0 0 0 0 206763216.9563344 -35695943.57200439 -35695943.57200439 21730221.32317563 0 0 0 0 0 178092801.8192781 -22630978.45208723 -22630978.45208723 23939055.12604979 0 0 0 0 0 194057213.8211639 -24593393.4773403 -24593393.4773403 24261653.23655852 0 0 0 0 0 166447589.1411256 -17908090.57919064 -17908090.57919064 22333902.63173163 0 0 0 0 0 156782188.089765 -14235197.802727 -14235197.802727 18343184.55121528 0 0 0 0 0 149543041.8328228 -11487025.03121036 -11487025.03121036 13597794.09286926 0 0 0 0 0 143828871.6667395 -9545553.841150317 -9545553.841150317 8780367.217224495 0 0 0 0 0 139286068.0779515 -8281500.351211498 -8281500.351211498 4204201.432193066 0 0 0 0 0 135517293.3289243 -7645738.906846588 -7645738.906846588 11685.78883481424 0 0 0 0 0 132274424.9539078 -7490799.304936309 -7490799.304936309 -3648432.043644425 0 0 0 0 0 129402628.4510968 -7671243.243917399 -7671243.243917399 -6717944.94503679 0 0 0 0 0 128469351.5206025 -10382950.17336393 -10382950.17336393 -11265924.23650504 0 0 0 0 0 123407837.7410616 -11261852.01169292 -11261852.01169292 -12109869.05664558 0 0 0 0 0 121147702.6731505 -11629912.17491251 -11629912.17491251 -13646311.23913315 0 0 0 0 0 120301685.0548216 -13667784.14916316 -13667784.14916316 -15750571.42454776 0 0 0 0 0 115429578.1089277 -14847616.13145636 -14847616.13145636 -16389423.51807464 0 0 0 0 0 81743978.7383281 -24144300.941435 -24144300.941435 -10388933.07726606 0 0 0 0 0 78321840.59722631 -23475388.47952382 -23475388.47952382 -8742163.004444188 0 0 0 0 0 75269984.50403011 -22513505.58609368 -22513505.58609368 -7106239.046762679 0 0 0 0 0 85491560.78385204 -24480113.85655682 -24480113.85655682 -11994304.43145523 0 0 0 0 0 89526550.80882254 -24448950.90300124 -24448950.90300124 -13497365.42973067 0 0 0 0 0 93808368.81005281 -24021649.16180466 -24021649.16180466 -14837709.61844981 0 0 0 0 0 72616017.61343241 -21304865.69957903 -21304865.69957903 -5526272.426437843 0 0 0 0 0 98176613.42336966 -23177952.76596763 -23177952.76596763 -15940702.41845195 0 0 0 0 0 102521868.1044837 -21971650.89349779 -21971650.89349779 -16765440.10353653 0 0 0 0 0 70375657.40768594 -19898043.2176782 -19898043.2176782 -4033993.473673901 0 0 0 0 0 68545985.26988442 -18338985.54436061 -18338985.54436061 -2655235.341622269 0 0 0 0 0 67116445.3520412 -16677791.60522955 -16677791.60522955 -1414426.469618876 0 0 0 0 0 106796686.4940832 -20386653.61328835 -20386653.61328835 -17236376.23970895 0 0 0 0 0 110906239.2113095 -18482172.8261737 -18482172.8261737 -17304561.32013608 0 0 0 0 0 114767230.0563653 -16270586.74844228 -16270586.74844228 -16920146.38911116 0 0 0 0 0 66061181.76115681 -14960750.08312557 -14960750.08312557 -321619.2763014287 0 0 0 0 0 65366983.61305276 -13221672.55424207 -13221672.55424207 622343.2119540496 0 0 0 0 0 64999202.68885133 -11498082.23166855 -11498082.23166855 1419162.35779287 0 0 0 0 0 66291033.40474462 -11442583.95066203 -11442583.95066203 1724502.770569588 0 0 0 0 0 67051623.11338321 -9642233.641202854 -9642233.641202854 2072406.172060753 0 0 0 0 0 68393620.52473867 -9577895.960561713 -9577895.960561713 2382254.564816472 0 0 0 0 0 72220237.04402828 -6630151.87537749 -6630151.87537749 3039840.002314495 0 0 0 0 0 70999623.50552782 -6657428.231626873 -6657428.231626873 2733637.277373779 0 0 0 0 0 69053564.05658235 -8049387.770225022 -8049387.770225022 2516601.796195537 0 0 0 0 0 70808180.18583117 -7918294.098957596 -7918294.098957596 2411222.700431787 0 0 0 0 0 74131243.71940383 -5405379.542173957 -5405379.542173957 3249189.725958124 0 0 0 0 0 73673465.97444777 -6539335.063992405 -6539335.063992405 2947492.612373317 0 0 0 0 0 74791818.11074391 -4081148.897411363 -4081148.897411363 2962455.8889027 0 0 0 0 0 74160405.45582607 -4795091.074349353 -4795091.074349353 2890027.719158197 0 0 0 0 0 282692101.0384092 -44714688.46205111 -44714688.46205111 22882742.91286272 0 0 0 0 0 240491527.4721238 -34270196.82865138 -34270196.82865138 26281844.49271224 0 0 0 0 0 215738290.5443455 -26874930.89049021 -26874930.89049021 30689358.35743162 0 0 0 0 0 178848051.9197144 -21572158.88525462 -21572158.88525462 27568406.53109585 0 0 0 0 0 190365376.6828337 -24919529.34444486 -24919529.34444486 28359596.84154334 0 0 0 0 0 167705117.2338998 -17376982.41540964 -17376982.41540964 22893101.74682463 0 0 0 0 0 158827381.9000313 -13786067.08536467 -13786067.08536467 17264769.2708489 0 0 0 0 0 151806711.338319 -11135630.98772831 -11135630.98772831 11723268.77703183 0 0 0 0 0 146125462.283971 -9266194.163226459 -9266194.163226459 6522693.363381706 0 0 0 0 0 141461927.6197576 -8073202.346822418 -8073202.346822418 1794723.152958351 0 0 0 0 0 137555620.1641761 -7459486.381488817 -7459486.381488817 -2287652.007940084 0 0 0 0 0 134200174.8296954 -7284194.881190882 -7284194.881190882 -5675713.5657929 0 0 0 0 0 131246554.7384638 -7416699.123987204 -7416699.123987204 -8389565.835908925 0 0 0 0 0 126802640.05619 -8061836.655445158 -8061836.655445158 -9198210.40009867 0 0 0 0 0 125884495.0163234 -10614913.14276903 -10614913.14276903 -12952567.70129782 0 0 0 0 0 123502906.8075891 -10949172.33868696 -10949172.33868696 -14141463.08338621 0 0 0 0 0 119049380.9596031 -12005546.28052422 -12005546.28052422 -14685637.07106479 0 0 0 0 0 118269599.7094935 -13840801.02879275 -13840801.02879275 -16100939.75370896 0 0 0 0 0 78863167.85929048 -24560008.08837997 -24560008.08837997 -10915501.37732587 0 0 0 0 0 82089541.15066968 -25014951.19355061 -25014951.19355061 -12592583.96692082 0 0 0 0 0 75992654.99446794 -23781107.27612324 -23781107.27612324 -9183467.680209933 0 0 0 0 0 73502688.78106701 -22722353.43417607 -22722353.43417607 -7453069.836839766 0 0 0 0 0 85631133.57832983 -25110691.79221391 -25110691.79221391 -14155727.4316864 0 0 0 0 0 89441778.70624124 -24815325.97388797 -24815325.97388797 -15543741.03069683 0 0 0 0 0 93489648.45390832 -24093540.0442863 -24093540.0442863 -16681678.51219275 0 0 0 0 0 71400304.97981149 -21432856.06177132 -21432856.06177132 -5773225.012285401 0 0 0 0 0 97691681.97033846 -22973550.86103355 -22973550.86103355 -17487277.04595097 0 0 0 0 0 101846423.7923776 -21467713.84822254 -21467713.84822254 -17923197.80887422 0 0 0 0 0 69678985.52748299 -19960840.3466095 -19960840.3466095 -4181416.532964785 0 0 0 0 0 68331093.71060096 -18352483.07761777 -18352483.07761777 -2703787.310136789 0 0 0 0 0 67349086.77521631 -16657215.86784392 -16657215.86784392 -1365721.547158445 0 0 0 0 0 105971019.375311 -19610869.53948972 -19610869.53948972 -17952687.70570467 0 0 0 0 0 109937573.0676326 -17424120.29584856 -17424120.29584856 -17548265.69912325 0 0 0 0 0 113684968.6386264 -14984293.29493601 -14984293.29493601 -16684815.56568161 0 0 0 0 0 66706748.75494069 -14916251.97407703 -14916251.97407703 -178599.0159095468 0 0 0 0 0 66368942.8350524 -13167736.56493693 -13167736.56493693 852873.7436546842 0 0 0 0 0 67163179.01789823 -11214544.38644152 -11214544.38644152 1447711.663771037 0 0 0 0 0 68276648.68468608 -11144213.05447428 -11144213.05447428 1696863.529175819 0 0 0 0 0 68984263.3421187 -9457790.83248885 -9457790.83248885 2031796.605361303 0 0 0 0 0 72593897.64261839 -6620214.172436723 -6620214.172436723 2743525.205189239 0 0 0 0 0 72009399.19509958 -7845994.123412914 -7845994.123412914 2685278.018279471 0 0 0 0 0 70181382.26276788 -9378895.727904176 -9378895.727904176 2299240.53779238 0 0 0 0 0 71820224.62983266 -9164926.688973784 -9164926.688973784 2195862.211359657 0 0 0 0 0 73868046.2003919 -5617722.394009084 -5617722.394009084 2736195.805409373 0 0 0 0 0 74021433.65355285 -6538030.836671897 -6538030.836671897 2597239.530988678 0 0 0 0 0 76007173.05971336 -4770154.78245335 -4770154.78245335 3440087.326566742 0 0 0 0 0 75601491.75385514 -5580731.451435961 -5580731.451435961 3217007.784362421 0 0 0 0 0 241929140.3689295 -32043986.76364899 -32043986.76364899 6520040.293299351 0 0 0 0 0 215034674.6612592 -26952630.85955071 -26952630.85955071 18595701.11776777 0 0 0 0 0 195695599.1861827 -19720863.948143 -19720863.948143 26532822.60472671 0 0 0 0 0 169483041.4058889 -12468609.98683301 -12468609.98683301 24755462.60266329 0 0 0 0 0 183488135.5693447 -13925012.94486753 -13925012.94486753 27458576.09721874 0 0 0 0 0 160441775.813197 -9632783.070054499 -9632783.070054499 21495226.14319257 0 0 0 0 0 153152970.1309216 -7433390.817481182 -7433390.817481182 17391927.22971471 0 0 0 0 0 147282784.778571 -5860796.150856939 -5860796.150856939 12816466.63793281 0 0 0 0 0 142514418.4837922 -4848651.214505802 -4848651.214505802 8289174.599893602 0 0 0 0 0 138559950.5394368 -4334879.15213542 -4334879.15213542 4042918.303046966 0 0 0 0 0 135178996.2436817 -4251897.048105476 -4251897.048105476 203722.2319268561 0 0 0 0 0 132206423.1231002 -4495762.870789171 -4495762.870789171 -3141707.251120929 0 0 0 0 0 129533537.7427509 -4963144.49343857 -4963144.49343857 -5959137.136339317 0 0 0 0 0 128585156.6275602 -7749267.283155302 -7749267.283155302 -10496289.44271442 0 0 0 0 0 124412847.7496042 -8560152.257240741 -8560152.257240741 -11127485.69989574 0 0 0 0 0 122203951.3887235 -9108512.08878497 -9108512.08878497 -12567950.68870515 0 0 0 0 0 121333798.4464414 -11285654.50146908 -11285654.50146908 -14851639.62962926 0 0 0 0 0 117105486.8185808 -12364427.72378294 -12364427.72378294 -15358265.2513512 0 0 0 0 0 82635359.79146166 -23032881.6193998 -23032881.6193998 -9586327.413349682 0 0 0 0 0 86058058.41900611 -23392233.64896173 -23392233.64896173 -11122014.78330931 0 0 0 0 0 79510773.13920912 -22375084.35052664 -22375084.35052664 -8029159.444626193 0 0 0 0 0 76722194.09036274 -21456161.15069564 -21456161.15069564 -6495153.350443996 0 0 0 0 0 89733341.68385214 -23422091.59324414 -23422091.59324414 -12584224.38582545 0 0 0 0 0 93609809.9318528 -23096231.85169511 -23096231.85169511 -13915558.26930317 0 0 0 0 0 97640614.62209655 -22399622.91604648 -22399622.91604648 -15058883.31982364 0 0 0 0 0 74292703.65194175 -20318165.67011555 -20318165.67011555 -5020172.722486603 0 0 0 0 0 101671913.0954377 -21333765.79777968 -21333765.79777968 -15983639.63755183 0 0 0 0 0 105616733.7189176 -19933282.89771616 -19933282.89771616 -16579774.21970723 0 0 0 0 0 72231677.20117816 -19002609.62335047 -19002609.62335047 -3631155.859999714 0 0 0 0 0 70532492.0416874 -17553117.52011158 -17553117.52011158 -2352073.562427759 0 0 0 0 0 69194505.39645121 -16013880.34393431 -16013880.34393431 -1200350.480000363 0 0 0 0 0 109428048.0118259 -18230161.7842737 -18230161.7842737 -16847223.79571317 0 0 0 0 0 113056263.5658289 -16224802.28659422 -16224802.28659422 -16709005.93832076 0 0 0 0 0 116383342.3240689 -13988204.9877365 -13988204.9877365 -16173132.76654627 0 0 0 0 0 68207248.75234464 -14422028.52274175 -14422028.52274175 -185032.3738176276 0 0 0 0 0 67533443.32116413 -12815416.12468128 -12815416.12468128 693408.5997553768 0 0 0 0 0 68391494.76660244 -12745662.39820958 -12745662.39820958 877369.5203364672 0 0 0 0 0 69132714.77761227 -10915841.75016084 -10915841.75016084 1444485.948937416 0 0 0 0 0 70128108.48806259 -10830104.17215547 -10830104.17215547 1657697.987233246 0 0 0 0 0 73458748.35215063 -7730241.327868731 -7730241.327868731 2554306.525959796 0 0 0 0 0 72454872.10100113 -7775964.689100271 -7775964.689100271 2331147.003058762 0 0 0 0 0 70774331.22887576 -9253291.164032765 -9253291.164032765 1969441.680067196 0 0 0 0 0 72462014.39350709 -9021393.089498805 -9021393.089498805 1917000.03540055 0 0 0 0 0 74906417.23969439 -6423921.928263409 -6423921.928263409 2710450.795347535 0 0 0 0 0 74848846.66472723 -7577923.893051137 -7577923.893051137 2480540.086644758 0 0 0 0 0 75368003.62210017 -5169670.389421707 -5169670.389421707 2649108.709643374 0 0 0 0 0 74885075.14524293 -6000210.342133823 -6000210.342133823 2442334.880647067 0 0 0 0 0 290489602.5850493 -29356946.3567389 -29356946.3567389 15925051.84175467 0 0 0 0 0 251349724.1042621 -24990928.39472213 -24990928.39472213 26390011.47569273 0 0 0 0 0 222754071.8485017 -19895105.2693066 -19895105.2693066 31499481.60301227 0 0 0 0 0 199808017.9421838 -14990053.0220574 -14990053.0220574 31035978.61710088 0 0 0 0 0 178638714.9666234 -14786735.03137588 -14786735.03137588 28220356.54165394 0 0 0 0 0 168600094.6980092 -12673198.30535982 -12673198.30535982 25210968.12957753 0 0 0 0 0 180156798.1849402 -14409283.73254434 -14409283.73254434 28165334.02799514 0 0 0 0 0 160261169.5928639 -9888471.93536051 -9888471.93536051 20565485.44621773 0 0 0 0 0 153585245.4744887 -7699964.431834898 -7699964.431834898 15452674.40279618 0 0 0 0 0 148069949.927322 -6107118.734272761 -6107118.734272761 10419622.7121964 0 0 0 0 0 143471804.8945356 -5074853.59807942 -5074853.59807942 5725706.317584833 0 0 0 0 0 139581617.0469733 -4534540.65673453 -4534540.65673453 1506093.305378516 0 0 0 0 0 136230966.5731801 -4401194.885449441 -4401194.885449441 -2142218.817617997 0 0 0 0 0 133283565.3651544 -4574380.698665412 -4574380.698665412 -5191181.303718191 0 0 0 0 0 130634736.714963 -4961576.469214752 -4961576.469214752 -7667849.659309372 0 0 0 0 0 127089020.0822157 -5565832.31584822 -5565832.31584822 -8259894.149893017 0 0 0 0 0 126159355.8947139 -8185474.113905424 -8185474.113905424 -12066880.21488236 0 0 0 0 0 123921176.4231015 -8655943.405965906 -8655943.405965906 -13162167.47639797 0 0 0 0 0 120124327.6516558 -9652055.542413438 -9652055.542413438 -13618121.3733567 0 0 0 0 0 119335025.5340985 -11601984.47507991 -11601984.47507991 -15227073.64855903 0 0 0 0 0 79988897.28038527 -23365082.36032173 -23365082.36032173 -10096979.21299401 0 0 0 0 0 82934700.44692786 -23831431.08889916 -23831431.08889916 -11699282.54870823 0 0 0 0 0 86169313.75745116 -23975453.48083239 -23975453.48083239 -13215081.37897767 0 0 0 0 0 77365621.40059154 -22609875.50641598 -22609875.50641598 -8460811.36243329 0 0 0 0 0 75083201.98281938 -21606969.1083194 -21606969.1083194 -6839850.036847996 0 0 0 0 0 89650844.51181406 -23768338.55101066 -23768338.55101066 -14585602.65390158 0 0 0 0 0 93332809.12761839 -23196321.28658408 -23196321.28658408 -15768495.39235275 0 0 0 0 0 97163964.58956617 -22225110.26191315 -22225110.26191315 -16656595.12042933 0 0 0 0 0 73145066.77334923 -20399375.50749046 -20399375.50749046 -5274498.49191625 0 0 0 0 0 101043114.0570048 -20900012.92568413 -20900012.92568413 -17228988.62960302 0 0 0 0 0 104846940.0196156 -19262132.13113815 -19262132.13113815 -17451381.6472934 0 0 0 0 0 71555544.78535809 -19028845.82320484 -19028845.82320484 -3793120.031269456 0 0 0 0 0 70306881.8350112 -17536272.93191154 -17536272.93191154 -2420090.850415306 0 0 0 0 0 69374177.40677485 -15968845.7500834 -15968845.7500834 -1178596.874287744 0 0 0 0 0 108535964.9272415 -17307203.95660098 -17307203.95660098 -17292185.64576665 0 0 0 0 0 112068485.1886719 -15079100.03335708 -15079100.03335708 -16703207.3589298 0 0 0 0 0 115322414.5325256 -12662360.0919946 -12662360.0919946 -15692830.67670792 0 0 0 0 0 68750130.69641875 -14360031.21338369 -14360031.21338369 -78987.28968362186 0 0 0 0 0 69520703.74630457 -12401607.77709576 -12401607.77709576 741551.9959508185 0 0 0 0 0 70261833.54540792 -12320070.78434139 -12320070.78434139 888812.2639845219 0 0 0 0 0 70945672.05886333 -10611175.69374004 -10611175.69374004 1419531.382461645 0 0 0 0 0 73910456.89891742 -7640779.57532553 -7640779.57532553 2279137.550819589 0 0 0 0 0 73320403.69790317 -8936919.994239302 -8936919.994239302 2088725.440585958 0 0 0 0 0 71821752.22407162 -10519661.67779481 -10519661.67779481 1599553.648380638 0 0 0 0 0 73339737.66338225 -10205676.66954808 -10205676.66954808 1525640.643997178 0 0 0 0 0 75839532.13583489 -6288069.979157358 -6288069.979157358 2777813.114328673 0 0 0 0 0 75335993.37264307 -7456272.637241834 -7456272.637241834 2291997.124663954 0 0 0 0 0 76682697.5483551 -5872260.908739736 -5872260.908739736 2997086.84084881 0 0 0 0 0 255469828.0684849 -18812418.31371183 -18812418.31371183 -150570.3235127852 0 0 0 0 0 220796994.156098 -16278582.52933168 -16278582.52933168 20241339.06568645 0 0 0 0 0 200171410.021219 -13952701.5313106 -13952701.5313106 27476706.29283226 0 0 0 0 0 184689347.2610179 -9785882.726140205 -9785882.726140205 30611894.21438089 0 0 0 0 0 168864237.7349365 -8034866.984845008 -8034866.984845008 26886706.8820604 0 0 0 0 0 162029198.0329196 -5492802.698497645 -5492802.698497645 24268159.56264085 0 0 0 0 0 182073081.9400676 -9226709.112374732 -9226709.112374732 30272458.90493893 0 0 0 0 0 154963748.0671161 -3867897.675927349 -3867897.675927349 20952835.25754805 0 0 0 0 0 149246165.8365815 -2580943.875641969 -2580943.875641969 16727117.31609312 0 0 0 0 0 144534478.5258652 -1738285.125416041 -1738285.125416041 12346716.70766485 0 0 0 0 0 140579403.9636071 -1325713.661083024 -1325713.661083024 8096831.255679479 0 0 0 0 0 137196536.9270417 -1288480.127945106 -1288480.127945106 4147661.77806747 0 0 0 0 0 134229643.2330556 -1561693.836208711 -1561693.836208711 599128.6780460926 0 0 0 0 0 131569549.415055 -2063818.749934524 -2063818.749934524 -2495096.250452196 0 0 0 0 0 129142906.5849901 -2720361.674223315 -2720361.674223315 -5114788.526963188 0 0 0 0 0 128214228.8049011 -5479315.379979032 -5479315.379979032 -9619036.717658691 0 0 0 0 0 124820112.8716611 -6235765.316937177 -6235765.316937177 -10084151.80043673 0 0 0 0 0 122704259.7352647 -6910678.563718848 -6910678.563718848 -11475813.26767206 0 0 0 0 0 121859692.2690929 -9128131.529623896 -9128131.529623896 -13879455.70486002 0 0 0 0 0 118225377.0553012 -10131933.17894243 -10131933.17894243 -14283009.4229456 0 0 0 0 0 83451989.62512065 -21957994.07748082 -21957994.07748082 -8853978.084394583 0 0 0 0 0 86580007.67288943 -22333266.78554339 -22333266.78554339 -10313245.52755374 0 0 0 0 0 89939419.11934529 -22412364.10055842 -22412364.10055842 -11721065.65020322 0 0 0 0 0 80596632.99087866 -21315633.72302416 -21315633.72302416 -7387795.909704249 0 0 0 0 0 78045995.77096821 -20440074.52834912 -20440074.52834912 -5951256.548387742 0 0 0 0 0 93479205.71560131 -22173488.86063007 -22173488.86063007 -13028836.96455085 0 0 0 0 0 97164351.36001587 -21600116.03431452 -21600116.03431452 -14187144.36059581 0 0 0 0 0 100869845.9580601 -20684578.9970888 -20684578.9970888 -15140513.2285354 0 0 0 0 0 75819055.84195289 -19369128.77824929 -19369128.77824929 -4573607.681835195 0 0 0 0 0 104553583.3934922 -19451868.97453089 -19451868.97453089 -15850502.00136312 0 0 0 0 0 108106145.6069562 -17918129.88251379 -17918129.88251379 -16252964.17455568 0 0 0 0 0 73918343.73597187 -18142130.13457824 -18142130.13457824 -3283842.776449795 0 0 0 0 0 72345739.32021898 -16795334.89634784 -16795334.89634784 -2099396.628320528 0 0 0 0 0 71096674.65467004 -15368901.69789072 -15368901.69789072 -1030038.345035012 0 0 0 0 0 111502008.6284512 -16122718.21071758 -16122718.21071758 -16313573.18701747 0 0 0 0 0 114653548.8456004 -14086782.750361 -14086782.750361 -16016045.91242158 0 0 0 0 0 117489688.4580332 -11873926.26725974 -11873926.26725974 -15337206.22528996 0 0 0 0 0 70162534.76788659 -13894669.0898098 -13894669.0898098 -83829.0576593197 0 0 0 0 0 70620506.96124561 -13819186.21299795 -13819186.21299795 -6566.025044497018 0 0 0 0 0 71331809.6323899 -11993905.70838998 -11993905.70838998 763150.2834017619 0 0 0 0 0 71978173.49231772 -11901284.38889745 -11901284.38889745 881439.2564410558 0 0 0 0 0 74781158.82844649 -8700928.187792456 -8700928.187792456 2018588.600357613 0 0 0 0 0 73957910.57817495 -8786201.519780189 -8786201.519780189 1849816.922026055 0 0 0 0 0 72636612.31331053 -10294843.5125076 -10294843.5125076 1395293.424687249 0 0 0 0 0 74162965.82154153 -9972759.160683194 -9972759.160683194 1361126.142352349 0 0 0 0 0 75728049.00535676 -7329318.965666212 -7329318.965666212 2299413.482702382 0 0 0 0 0 76149500.7502653 -8459126.311989626 -8459126.311989626 1941350.294354839 0 0 0 0 0 76210408.31912597 -6168083.671772194 -6168083.671772194 2311743.18093931 0 0 0 0 0 305591946.1403085 -13891242.5148384 -13891242.5148384 14029190.34066213 0 0 0 0 0 255544235.8206563 -9410142.407184463 -9410142.407184463 20012503.42525289 0 0 0 0 0 236130741.3874864 -15584279.02728084 -15584279.02728084 24899894.2935119 0 0 0 0 0 225571159.4997068 -13699576.53601127 -13699576.53601127 32896750.85963476 0 0 0 0 0 203532342.7901991 -10636550.1362381 -10636550.1362381 33278204.82196819 0 0 0 0 0 185751522.7310442 -8955828.979316099 -8955828.979316099 32525105.78809753 0 0 0 0 0 168701202.2909344 -8080282.47623767 -8080282.47623767 27408994.37482719 0 0 0 0 0 159974756.0598392 -6318723.625063188 -6318723.625063188 23580758.35396856 0 0 0 0 0 172406224.7611753 -7721268.404485493 -7721268.404485493 30900549.91774423 0 0 0 0 0 153895982.2077804 -4625023.886377205 -4625023.886377205 19041348.61933691 0 0 0 0 0 148743249.7551081 -3266646.014679391 -3266646.014679391 14269134.52151084 0 0 0 0 0 144380904.6277759 -2359923.297541118 -2359923.297541118 9648147.226706905 0 0 0 0 0 140655339.4245179 -1878527.860454785 -1878527.860454785 5369985.558081083 0 0 0 0 0 137428307.8424881 -1763970.325661789 -1763970.325661789 1543782.600898708 0 0 0 0 0 134580777.848749 -1947773.695889561 -1947773.695889561 -1771615.841454238 0 0 0 0 0 132022914.1847282 -2352134.60751917 -2352134.60751917 -4562680.131287329 0 0 0 0 0 129680653.3492771 -2910433.031556036 -2910433.031556036 -6857032.041685432 0 0 0 0 0 126894267.351491 -3464853.607663156 -3464853.607663156 -7279189.822789147 0 0 0 0 0 125993168.1881808 -6057341.504766333 -6057341.504766333 -11087662.54581296 0 0 0 0 0 123921168.8834208 -6648832.456786227 -6648832.456786227 -12158647.26782582 0 0 0 0 0 120734063.7986204 -7552809.03359511 -7552809.03359511 -12487186.26631613 0 0 0 0 0 119946570.6258179 -9568439.311717894 -9568439.311717894 -14288132.76976863 0 0 0 0 0 81022028.29571529 -22222707.84393406 -22222707.84393406 -9344628.003606051 0 0 0 0 0 83714603.47441535 -22693688.7793399 -22693688.7793399 -10865621.21687207 0 0 0 0 0 86671948.88276543 -22876237.71550271 -22876237.71550271 -12322902.82236126 0 0 0 0 0 89857190.88821074 -22745265.23894748 -22745265.23894748 -13665890.41347383 0 0 0 0 0 78621545.52319114 -21494470.70986127 -21494470.70986127 -7805626.789367088 0 0 0 0 0 76523909.68147185 -20545776.6636784 -20545776.6636784 -6290252.907675683 0 0 0 0 0 93222847.80158345 -22284697.35429293 -22284697.35429293 -14848480.41908001 0 0 0 0 0 96726850.08399363 -21467651.88857645 -21467651.88857645 -15792927.74135866 0 0 0 0 0 100287182.6882314 -20325275.00807336 -20325275.00807336 -16481260.51189101 0 0 0 0 0 74740229.71594568 -19414949.84816554 -19414949.84816554 -4829427.162090774 0 0 0 0 0 103833521.5196152 -18855372.40645377 -18855372.40645377 -16840021.21736262 0 0 0 0 0 107271033.511005 -17123824.88873243 -17123824.88873243 -16876622.80970382 0 0 0 0 0 73271997.68386394 -18139676.33545869 -18139676.33545869 -3453585.173999504 0 0 0 0 0 72109880.50220643 -16757865.10276537 -16757865.10276537 -2181249.956543366 0 0 0 0 0 71235296.50248539 -15304923.49549474 -15304923.49549474 -1028524.429816805 0 0 0 0 0 110571881.9530694 -15116445.47804442 -15116445.47804442 -16524234.53045388 0 0 0 0 0 113663478.6233488 -12900101.36242028 -12900101.36242028 -15782458.23740618 0 0 0 0 0 116455406.7342006 -10554619.93389935 -10554619.93389935 -14661011.57529365 0 0 0 0 0 71957262.68143144 -13377836.38851507 -13377836.38851507 -5795.116249219624 0 0 0 0 0 72345155.12155454 -13291590.67660738 -13291590.67660738 49511.60852050444 0 0 0 0 0 73024522.15587795 -11578936.9744595 -11578936.9744595 784017.9960843174 0 0 0 0 0 75319259.27805465 -8577100.631388701 -8577100.631388701 1774985.857377066 0 0 0 0 0 74789755.37755649 -9879788.543680798 -9879788.543680798 1468485.111414684 0 0 0 0 0 73519790.54687662 -11485864.52348075 -11485864.52348075 857290.1795921373 0 0 0 0 0 74976016.06735475 -11076171.13320835 -11076171.13320835 841146.9187096753 0 0 0 0 0 77007015.69810422 -7147976.070431696 -7147976.070431696 2344057.791778927 0 0 0 0 0 76365744.02203657 -8444453.922068311 -8444453.922068311 1488196.772981086 0 0 0 0 0 77211061.88246483 -6999185.36792743 -6999185.36792743 2301737.481217538 0 0 0 0 0 263118640.1574529 -572971.2408803161 -572971.2408803161 9556294.020184258 0 0 0 0 0 255017926.122147 -9949445.162096757 -9949445.162096757 19942098.46150795 0 0 0 0 0 223610616.2414886 -6296702.532400621 -6296702.532400621 28857425.52491925 0 0 0 0 0 204381745.0632894 -9672052.423684932 -9672052.423684932 27278970.5026006 0 0 0 0 0 187655426.4273387 -7436661.552182939 -7436661.552182939 30893766.68377768 0 0 0 0 0 176051318.9980873 -3247009.367588985 -3247009.367588985 32920835.19181841 0 0 0 0 0 161799908.6704803 -2027774.928713127 -2027774.928713127 27881098.97513217 0 0 0 0 0 155230388.7642072 -837657.3601009941 -837657.3601009941 24323947.56946201 0 0 0 0 0 172261029.9917796 -2931668.004986359 -2931668.004986359 31041310.59340396 0 0 0 0 0 149868359.2336204 174086.322265292 174086.322265292 20372250.97464272 0 0 0 0 0 145388295.3534594 900000.904998676 900000.904998676 16218769.98860615 0 0 0 0 0 141601937.6347571 1270964.055337175 1270964.055337175 12051246.37139867 0 0 0 0 0 138340304.8982092 1301389.910861704 1301389.910861704 8064897.855030724 0 0 0 0 0 135475663.6371198 1040496.605634684 1040496.605634684 4385074.962532515 0 0 0 0 0 132908905.9612218 547313.9802910567 547313.9802910567 1088359.072256594 0 0 0 0 0 130565687.7610271 -113542.9165658317 -113542.9165658317 -1793458.202244132 0 0 0 0 0 128397688.4360135 -884501.3419165296 -884501.3419165296 -4249517.217465353 0 0 0 0 0 127523854.7306617 -3550249.881518841 -3550249.881518841 -8676632.141483475 0 0 0 0 0 124784442.3982594 -4245907.084946374 -4245907.084946374 -9019678.79832413 0 0 0 0 0 122813806.3795775 -5007734.059274633 -5007734.059274633 -10363340.09345261 0 0 0 0 0 121996687.4609581 -7218154.150231695 -7218154.150231695 -12873416.68116537 0 0 0 0 0 118902991.3428113 -8139700.412525546 -8139700.412525546 -13180922.42835233 0 0 0 0 0 84204414.81666516 -20926662.23497004 -20926662.23497004 -8187153.823576492 0 0 0 0 0 87066241.92194463 -21311164.33496778 -21311164.33496778 -9566705.478613658 0 0 0 0 0 90142029.6956811 -21430444.08378402 -21430444.08378402 -10912744.74300901 0 0 0 0 0 93386591.0062024 -21263359.1993195 -21263359.1993195 -12182530.74192826 0 0 0 0 0 81591781.01844633 -20302802.23151888 -20302802.23151888 -6811004.070863806 0 0 0 0 0 79256314.56151792 -19468999.57493149 -19468999.57493149 -5463305.461038639 0 0 0 0 0 96756049.52668919 -20795319.51066443 -20795319.51066443 -13330904.15260051 0 0 0 0 0 100168660.4765703 -20016587.30636343 -20016587.30636343 -14309692.04484596 0 0 0 0 0 103582060.2589487 -18941196.47763564 -18941196.47763564 -15080606.72075537 0 0 0 0 0 77205631.71700352 -18465068.19043584 -18465068.19043584 -4182409.761147947 0 0 0 0 0 106902994.7664485 -17575250.31350328 -17575250.31350328 -15590087.70454681 0 0 0 0 0 110096059.7177658 -15961582.29269035 -15961582.29269035 -15802811.03551464 0 0 0 0 0 75455105.30663124 -17319871.2730296 -17319871.2730296 -2984036.962102506 0 0 0 0 0 74002041.32928237 -16069940.49429604 -16069940.49429604 -1884643.310170643 0 0 0 0 0 72840954.98364939 -14744961.10111309 -14744961.10111309 -890075.0943471976 0 0 0 0 0 113074671.0397266 -14116628.02452767 -14116628.02452767 -15694720.29638436 0 0 0 0 0 115786607.6134291 -12090643.05314392 -12090643.05314392 -15247171.57450179 0 0 0 0 0 118180739.8096141 -9943606.945857078 -9943606.945857078 -14450400.73418338 0 0 0 0 0 72924757.23709689 -14671605.11254594 -14671605.11254594 -907550.8618591542 0 0 0 0 0 73607732.20451914 -12869505.76332851 -12869505.76332851 60470.8641540547 0 0 0 0 0 73888342.60236548 -12780040.25639999 -12780040.25639999 84950.18291071161 0 0 0 0 0 76144199.86654687 -9562334.505196195 -9562334.505196195 1410111.968500473 0 0 0 0 0 75582311.72240338 -9659176.156963028 -9659176.156963028 1326627.32139379 0 0 0 0 0 74542935.79849313 -11169511.08037743 -11169511.08037743 784950.5437611205 0 0 0 0 0 75948407.14580032 -10770137.46023269 -10770137.46023269 781658.326332574 0 0 0 0 0 76689707.62727414 -7973757.738422574 -7973757.738422574 1620869.650165566 0 0 0 0 0 77552102.23538604 -9277441.057627952 -9277441.057627952 1373201.719461533 0 0 0 0 0 77908753.51483202 -8318377.224596995 -8318377.224596995 1970247.868228466 0 0 0 0 0 77194350.00760101 -7048639.626065109 -7048639.626065109 1923866.963630097 0 0 0 0 0 236217473.5936223 -371092.0913890844 -371092.0913890844 21015427.23216004 0 0 0 0 0 222601159.5844603 -7586962.89880407 -7586962.89880407 29107554.78177125 0 0 0 0 0 206376190.1757158 -6716998.459505197 -6716998.459505197 33859423.94101066 0 0 0 0 0 187406335.0255347 -3207644.734926578 -3207644.734926578 33465684.12510873 0 0 0 0 0 177986566.5494311 -5925246.746404399 -5925246.746404399 34751806.81143409 0 0 0 0 0 170411140.4663453 -5521028.659412089 -5521028.659412089 33342374.894689 0 0 0 0 0 158499425.5602244 -3399369.614130344 -3399369.614130344 26561782.77541368 0 0 0 0 0 164532118.3126639 -4639350.258911332 -4639350.258911332 30345622.67133037 0 0 0 0 0 152989369.8315107 -1995369.295962957 -1995369.295962957 22355543.64439279 0 0 0 0 0 148315089.4774683 -856700.577789971 -856700.577789971 17927127.07693321 0 0 0 0 0 144306230.7713784 -40162.8723934669 -40162.8723934669 13465522.3654289 0 0 0 0 0 140852936.2809063 419166.8856768784 419166.8856768784 9198326.362972166 0 0 0 0 0 137840490.7542043 543937.9721288669 543937.9721288669 5271254.31696583 0 0 0 0 0 135175732.1429906 386293.9964962704 386293.9964962704 1767653.080248397 0 0 0 0 0 132768359.6926302 -33.66562379493341 -33.66562379493341 -1279708.986477737 0 0 0 0 0 130567024.6200115 -551675.2147955864 -551675.2147955864 -3863714.693282444 0 0 0 0 0 128522303.577783 -1212494.796591013 -1212494.796591013 -6002542.050694284 0 0 0 0 0 126358514.907476 -1713532.26186992 -1713532.26186992 -6298533.840913669 0 0 0 0 0 125507592.1853964 -4225670.251819847 -4225670.251819847 -10086318.47562587 0 0 0 0 0 123615747.4700086 -4896450.23406069 -4896450.23406069 -11128994.16364061 0 0 0 0 0 120964373.3324179 -5727121.202588102 -5727121.202588102 -11374201.27483958 0 0 0 0 0 120206657.2530119 -7739173.459216332 -7739173.459216332 -13314043.42762001 0 0 0 0 0 84437714.6263935 -21606815.16179609 -21606815.16179609 -10092471.07799627 0 0 0 0 0 81974163.03978351 -21136725.12021575 -21136725.12021575 -8655196.530040719 0 0 0 0 0 87144974.57610765 -21819225.32078647 -21819225.32078647 -11484686.55081692 0 0 0 0 0 90062505.68388905 -21750740.55000286 -21750740.55000286 -12786928.85795569 0 0 0 0 0 93148670.97864026 -21384138.6010599 -21384138.6010599 -13953751.00029915 0 0 0 0 0 79768524.69446437 -20436244.50020713 -20436244.50020713 -7214166.772336771 0 0 0 0 0 77842428.16687751 -19541481.31191239 -19541481.31191239 -5794013.818585829 0 0 0 0 0 96358618.24196833 -20702326.83304916 -20702326.83304916 -14932442.44961291 0 0 0 0 0 99629993.78721179 -19714267.40073152 -19714267.40073152 -15678950.54746868 0 0 0 0 0 102915576.0481322 -18425951.00538154 -18425951.00538154 -16155787.85552627 0 0 0 0 0 76200879.87172222 -18483169.6210219 -18483169.6210219 -4435399.559998831 0 0 0 0 0 106131379.128268 -16875274.09108194 -16875274.09108194 -16339658.05542871 0 0 0 0 0 109226416.6928597 -15071945.55399188 -15071945.55399188 -16182018.98220766 0 0 0 0 0 74845885.99677889 -17297600.89684234 -17297600.89684234 -3155361.633887478 0 0 0 0 0 73753150.04579847 -16014897.30115533 -16014897.30115533 -1979385.48791095 0 0 0 0 0 112145221.5180754 -13063739.77303647 -13063739.77303647 -15673445.02989873 0 0 0 0 0 114820396.6915568 -10900266.75657257 -10900266.75657257 -14808192.66806352 0 0 0 0 0 117196044.5209389 -8655577.898557952 -8655577.898557952 -13607755.8314888 0 0 0 0 0 74450065.36288416 -14137596.25671434 -14137596.25671434 -759634.5667610609 0 0 0 0 0 74441706.82459523 -14056256.09140627 -14056256.09140627 -807694.4172073234 0 0 0 0 0 75103980.66314706 -12364433.63079819 -12364433.63079819 110971.7670428708 0 0 0 0 0 76863356.67465663 -9375428.764921637 -9375428.764921637 1263728.825622536 0 0 0 0 0 76318185.35614751 -10675387.45294761 -10675387.45294761 819407.9993343477 0 0 0 0 0 75332804.11908077 -12273550.31588993 -12273550.31588993 119552.1062833033 0 0 0 0 0 76665626.14269412 -11791561.84428884 -11791561.84428884 146037.2927813598 0 0 0 0 0 78522367.94477874 -7754821.866736328 -7754821.866736328 2219543.185647371 0 0 0 0 0 78357345.75506823 -9105089.376495164 -9105089.376495164 1483451.178631799 0 0 0 0 0 77539923.32083572 -8966151.182330675 -8966151.182330675 1219705.263211083 0 0 0 0 0 207673928.4476756 1222390.264269405 1222390.264269405 30305074.41504482 0 0 0 0 0 190917976.4843635 -2789740.471656549 -2789740.471656549 32160952.73191149 0 0 0 0 0 187204157.9761851 -5942982.381322106 -5942982.381322106 34939688.80243835 0 0 0 0 0 172728859.9658983 -218555.0508840671 -218555.0508840671 35282229.71206878 0 0 0 0 0 166168448.4555104 -209394.8362395274 -209394.8362395274 33297175.26020832 0 0 0 0 0 154209085.1332885 1589817.866862742 1589817.866862742 27441189.90229259 0 0 0 0 0 159705527.7755039 890267.1328664252 890267.1328664252 30991899.92169626 0 0 0 0 0 149343337.0242195 2385397.435585941 2385397.435585941 23760132.4570605 0 0 0 0 0 145219541.1711086 3007331.401500119 3007331.401500119 19804572.50288777 0 0 0 0 0 141706731.4071997 3373230.274940936 3373230.274940936 15785870.52856944 0 0 0 0 0 138666348.3744168 3445500.401577678 3445500.401577678 11839175.37307308 0 0 0 0 0 135986064.5591325 3240871.556973546 3240871.556973546 8105485.639479392 0 0 0 0 0 133577131.1098275 2802245.215754123 2802245.215754123 4676255.998468214 0 0 0 0 0 131380282.0786436 2183214.794246563 2183214.794246563 1603830.441722365 0 0 0 0 0 129337534.9026024 1432574.74496747 1432574.74496747 -1091779.44767406 0 0 0 0 0 127419632.4009218 602605.3005158501 602605.3005158501 -3402527.210983189 0 0 0 0 0 126605511.3272417 -1935328.014109843 -1935328.014109843 -7734258.551147779 0 0 0 0 0 124440824.4773328 -2553813.086151466 -2553813.086151466 -7958055.172996454 0 0 0 0 0 122624572.2737834 -3369715.140186393 -3369715.140186393 -9274472.068547603 0 0 0 0 0 121849526.2675649 -5534826.623171203 -5534826.623171203 -11859801.95532342 0 0 0 0 0 119234252.8214218 -6380558.169723246 -6380558.169723246 -12085091.78166128 0 0 0 0 0 87522762.79353622 -20331367.34374931 -20331367.34374931 -8880758.052461537 0 0 0 0 0 84904545.89066149 -19940161.03412262 -19940161.03412262 -7574719.304322432 0 0 0 0 0 90343295.5635477 -20481819.13518112 -20481819.13518112 -10159867.74768687 0 0 0 0 0 93320202.5590757 -20375663.34449102 -20375663.34449102 -11383039.35044828 0 0 0 0 0 96409822.35406855 -19997729.21032237 -19997729.21032237 -12508540.53259635 0 0 0 0 0 82512878.9853299 -19338059.74405358 -19338059.74405358 -6280216.933778524 0 0 0 0 0 80360527.88974087 -18546862.42537886 -18546862.42537886 -5019541.694992407 0 0 0 0 0 99561964.6579199 -19338517.24708195 -19338517.24708195 -13493195.98944341 0 0 0 0 0 102716726.5020729 -18400990.33534898 -18400990.33534898 -14294435.07841463 0 0 0 0 0 105815684.9076217 -17197530.73460504 -17197530.73460504 -14880222.95629545 0 0 0 0 0 78482450.04688069 -17601762.14375963 -17601762.14375963 -3827220.789792954 0 0 0 0 0 108810740.5986457 -15751082.19333404 -15751082.19333404 -15214853.91824136 0 0 0 0 0 111628772.7356836 -14084925.02872034 -14084925.02872034 -15259550.61167248 0 0 0 0 0 76869530.75131796 -16532364.27136067 -16532364.27136067 -2713192.184970547 0 0 0 0 0 75539763.99547552 -15365199.35318462 -15365199.35318462 -1683974.229262595 0 0 0 0 0 114216511.9245941 -12242457.04994637 -12242457.04994637 -15004092.02116371 0 0 0 0 0 116536258.3992874 -10254548.8130366 -10254548.8130366 -14421488.33127647 0 0 0 0 0 118532213.9570329 -8199552.498039375 -8199552.498039375 -13531288.2329664 0 0 0 0 0 75218173.96725392 -15303376.46931517 -15303376.46931517 -1801862.069977467 0 0 0 0 0 75895304.4199101 -13547985.04087692 -13547985.04087692 -651461.3186951502 0 0 0 0 0 75856011.26084308 -13463228.32184703 -13463228.32184703 -711814.5887427086 0 0 0 0 0 77583654.85329655 -10275261.29758438 -10275261.29758438 780973.3404768553 0 0 0 0 0 77264168.78830095 -10377572.93783423 -10377572.93783423 771023.7484087965 0 0 0 0 0 76483033.35113339 -11883622.84825419 -11883622.84825419 151445.150020254 0 0 0 0 0 77746367.21824592 -11427244.59122515 -11427244.59122515 177406.3718018879 0 0 0 0 0 78240989.96732633 -7935219.297810386 -7935219.297810386 1474115.943747765 0 0 0 0 0 78079645.88479632 -9749194.097553516 -9749194.097553516 612749.653118381 0 0 0 0 0 78303601.28341086 -8809241.533501962 -8809241.533501962 1169596.354681234 0 0 0 0 0 200157123.8295388 -4868649.767193874 -4868649.767193874 34412610.89053325 0 0 0 0 0 179192693.9818799 -78118.41649976256 -78118.41649976256 35289194.40500439 0 0 0 0 0 165485019.597457 -2928958.970346011 -2928958.970346011 34736507.36316225 0 0 0 0 0 170886267.4909488 -3460959.149494606 -3460959.149494606 36448353.96815345 0 0 0 0 0 160333571.9278179 -2235456.094075175 -2235456.094075175 32845901.18704552 0 0 0 0 0 150921829.1979213 74334.97118638468 74334.97118638468 25417286.11738859 0 0 0 0 0 155356533.5631175 -946892.6177992143 -946892.6177992143 29111369.79702562 0 0 0 0 0 146916809.9569876 1061565.597200883 1061565.597200883 21296808.96908046 0 0 0 0 0 143387297.0149514 1821087.814321283 1821087.814321283 17060662.47614643 0 0 0 0 0 140284761.2758768 2290357.978287848 2290357.978287848 12887440.49331227 0 0 0 0 0 137555575.2958471 2463036.909360112 2463036.909360112 8936726.535972994 0 0 0 0 0 135124469.627421 2363926.997897272 2363926.997897272 5317330.016976021 0 0 0 0 0 132924221.0294218 2035814.777313935 2035814.777313935 2086637.866677223 0 0 0 0 0 130901187.2871645 1529137.587194736 1529137.587194736 -735738.8723469835 0 0 0 0 0 129015417.0753554 891579.2766683338 891579.2766683338 -3143149.334583495 0 0 0 0 0 127238772.0533764 170861.6494603969 170861.6494603969 -5163768.393959873 0 0 0 0 0 125601052.3845898 -266544.7430472472 -266544.7430472472 -5348248.450938818 0 0 0 0 0 124800237.9395114 -2672075.505082828 -2672075.505082828 -9095001.700880157 0 0 0 0 0 123098240.8400718 -3390593.319359519 -3390593.319359519 -10116774.00918442 0 0 0 0 0 120906514.3551075 -4139300.089108334 -4139300.089108334 -10282563.64243848 0 0 0 0 0 120183294.2701916 -6120488.566278131 -6120488.566278131 -12336743.5474963 0 0 0 0 0 87591363.40030353 -20808321.52132275 -20808321.52132275 -10701098.93959494 0 0 0 0 0 85102201.85011412 -20573193.4518626 -20573193.4518626 -9381108.826032193 0 0 0 0 0 82824236.91621284 -20108239.04946856 -20108239.04946856 -8027607.483846916 0 0 0 0 0 90268358.4871172 -20791074.2356672 -20791074.2356672 -11954567.70022056 0 0 0 0 0 93101621.22892369 -20505127.06478992 -20505127.06478992 -13095537.94372572 0 0 0 0 0 96048701.71707022 -19938135.57000981 -19938135.57000981 -14081894.56138228 0 0 0 0 0 80797680.97331773 -19438355.86084068 -19438355.86084068 -6671608.306554707 0 0 0 0 0 79023598.3304213 -18596579.72484089 -18596579.72484089 -5343023.16904353 0 0 0 0 0 99065879.27332968 -19086286.8290216 -19086286.8290216 -14872595.74725867 0 0 0 0 0 102102698.9725234 -17964166.71279235 -17964166.71279235 -15435136.07516149 0 0 0 0 0 105101266.936904 -16583386.99769429 -16583386.99769429 -15730249.73633362 0 0 0 0 0 77506958.53297973 -17601990.6247369 -17601990.6247369 -4080101.751135303 0 0 0 0 0 108007474.8086293 -14965680.59656907 -14965680.59656907 -15729824.47454906 0 0 0 0 0 110760070.1218367 -13149020.17242648 -13149020.17242648 -15412772.35455484 0 0 0 0 0 76247416.10499083 -16496817.46494915 -16496817.46494915 -2894290.11004271 0 0 0 0 0 113317583.7849081 -11171432.60201091 -11171432.60201091 -14772939.61503166 0 0 0 0 0 115615743.8683197 -9091843.808886513 -9091843.808886513 -13813873.90759217 0 0 0 0 0 117619483.7840207 -6963568.705260893 -6963568.705260893 -12552093.06995298 0 0 0 0 0 76905965.52135955 -14691854.98615613 -14691854.98615613 -1511433.023923251 0 0 0 0 0 76595015.1653512 -14618782.64265651 -14618782.64265651 -1633058.700240391 0 0 0 0 0 77220179.5304039 -12983561.94511469 -12983561.94511469 -563513.3781747686 0 0 0 0 0 78665872.81715295 -9923294.041849529 -9923294.041849529 889521.472872553 0 0 0 0 0 77925393.93356936 -11338216.64851692 -11338216.64851692 178955.8802176017 0 0 0 0 0 77186423.69550121 -12895968.26340342 -12895968.26340342 -622573.5132636761 0 0 0 0 0 78419928.1745728 -12364111.02339088 -12364111.02339088 -552846.1643377915 0 0 0 0 0 79367796.14023298 -8659217.963626098 -8659217.963626098 1469064.065541146 0 0 0 0 0 79440903.85564071 -9603346.960495558 -9603346.960495558 1020005.29232455 0 0 0 0 0 187241309.2416663 1372903.368406891 1372903.368406891 34289033.53352293 0 0 0 0 0 181748078.0643059 -2955786.129824703 -2955786.129824703 36315745.0073694 0 0 0 0 0 161721760.6757244 1425799.390554382 1425799.390554382 35128933.91803306 0 0 0 0 0 167370256.9586317 754395.5664946648 754395.5664946648 36429251.70284704 0 0 0 0 0 156412530.5981053 2165649.293316284 2165649.293316284 32949882.16622175 0 0 0 0 0 147771394.6356906 3876635.504079049 3876635.504079049 26689407.4144249 0 0 0 0 0 151909789.777841 3127946.440347442 3127946.440347442 30133500.51760115 0 0 0 0 0 144154257.7793955 4516721.595057043 4516721.595057043 23015834.52052296 0 0 0 0 0 141009703.6224935 4932946.031084334 4932946.031084334 19193697.63007738 0 0 0 0 0 138266043.0827326 5094119.791668496 5094119.791668496 15364454.45947528 0 0 0 0 0 135828678.9861465 4990260.262123833 4990260.262123833 11656060.93172751 0 0 0 0 0 133633799.1095693 4651927.955555609 4651927.955555609 8167683.136903005 0 0 0 0 0 131622663.6640243 4117519.811826413 4117519.811826413 4971633.970848245 0 0 0 0 0 129751958.75832 3433981.020764729 3433981.020764729 2103708.993931991 0 0 0 0 0 127987222.4514432 2645300.982336762 2645300.982336762 -422789.4919701148 0 0 0 0 0 126303859.6278068 1792907.978832251 1792907.978832251 -2607923.324101036 0 0 0 0 0 125555651.8292886 -592413.3160082925 -592413.3160082925 -6815612.470670752 0 0 0 0 0 123862006.2020563 -1139064.412930452 -1139064.412930452 -6951073.697127842 0 0 0 0 0 122204071.077426 -1983813.515930073 -1983813.515930073 -8237818.493758768 0 0 0 0 0 121484445.5387831 -4068886.683464408 -4068886.683464408 -10857090.76538357 0 0 0 0 0 119299558.458574 -4841187.445555225 -4841187.445555225 -11015669.49620591 0 0 0 0 0 90543462.84787433 -19570244.61269698 -19570244.61269698 -9458708.906514239 0 0 0 0 0 87956326.29023226 -19399290.19956055 -19399290.19956055 -8242312.485105012 0 0 0 0 0 85546533.96299422 -18999077.8758146 -18999077.8758146 -7000716.916114027 0 0 0 0 0 93280530.2123836 -19515388.18897872 -19515388.18897872 -10631888.1063092 0 0 0 0 0 96125501.56959008 -19213031.81522052 -19213031.81522052 -11724154.5578961 0 0 0 0 0 99035738.00766759 -18655102.17779654 -18655102.17779654 -12698871.48170131 0 0 0 0 0 83341669.00587302 -18422452.7847484 -18422452.7847484 -5795122.623444715 0 0 0 0 0 81352694.79994711 -17671298.87631423 -17671298.87631423 -4628728.286919159 0 0 0 0 0 101964238.1596615 -17842137.37893613 -17842137.37893613 -13520196.91087481 0 0 0 0 0 104857494.1172436 -16782204.18166995 -16782204.18166995 -14155384.36489553 0 0 0 0 0 107660122.8157532 -15492299.68034392 -15492299.68034392 -14571775.80774977 0 0 0 0 0 79626849.98453522 -16780414.19327788 -16780414.19327788 -3512068.222742286 0 0 0 0 0 110322875.5887496 -13992828.68371383 -13992828.68371383 -14739284.05949333 0 0 0 0 0 112787174.7564487 -12318289.4372132 -12318289.4372132 -14635902.62227282 0 0 0 0 0 78145016.78899923 -15773499.26100454 -15773499.26100454 -2470790.650530345 0 0 0 0 0 115010933.7443725 -10504060.93043719 -10504060.93043719 -14246063.22206541 0 0 0 0 0 116969410.1730647 -8593481.870363077 -8593481.870363077 -13568785.37758191 0 0 0 0 0 118623047.5761129 -6642532.07410947 -6642532.07410947 -12605386.81822921 0 0 0 0 0 77550256.48137674 -15727186.04835343 -15727186.04835343 -2650493.84636526 0 0 0 0 0 78163068.82450493 -14047728.11132453 -14047728.11132453 -1368436.706836015 0 0 0 0 0 77866785.17689325 -13970035.36743046 -13970035.36743046 -1488788.04628106 0 0 0 0 0 79082945.32275784 -10858566.61727958 -10858566.61727958 220846.5989587312 0 0 0 0 0 78950891.80329385 -10961885.59601575 -10961885.59601575 240235.4879491442 0 0 0 0 0 78429634.94418471 -12452984.58433907 -12452984.58433907 -502455.2827987598 0 0 0 0 0 79581853.11784349 -11955871.86438916 -11955871.86438916 -432251.7549129149 0 0 0 0 0 79358739.67826495 -8684923.321597785 -8684923.321597785 978304.7074073047 0 0 0 0 0 79589635.26524058 -9539624.586930394 -9539624.586930394 660744.0492150835 0 0 0 0 0 172278541.9141957 1171647.853901861 1171647.853901861 36538233.34990257 0 0 0 0 0 155793758.06029 -703450.5294894004 -703450.5294894004 34337362.2845397 0 0 0 0 0 159155322.9312429 -1327826.675743938 -1327826.675743938 36093346.02162382 0 0 0 0 0 161863732.5208664 -1025676.700553794 -1025676.700553794 36992920.14094235 0 0 0 0 0 151810291.3336959 357350.2258512554 357350.2258512554 31601997.24278674 0 0 0 0 0 148160522.3053904 1453738.986426567 1453738.986426567 28087333.78215735 0 0 0 0 0 144819443.5143792 2398438.229879301 2398438.229879301 24320288.97355164 0 0 0 0 0 141790310.8069357 3169430.546539763 3169430.546539763 20342844.27655318 0 0 0 0 0 139093306.4043643 3695089.537520326 3695089.537520326 16336520.1382161 0 0 0 0 0 136683104.1856285 3952463.090117569 3952463.090117569 12440704.41467161 0 0 0 0 0 134519789.5852988 3948007.010287322 3948007.010287322 8780753.164305918 0 0 0 0 0 132556145.4087543 3714475.840135552 3714475.840135552 5433643.41666597 0 0 0 0 0 130742298.8198224 3288166.864324203 3288166.864324203 2441178.471267889 0 0 0 0 0 129044228.9403382 2714696.349214477 2714696.349214477 -185428.9367448116 0 0 0 0 0 127438774.1520851 2034663.393257776 2034663.393257776 -2447547.628032892 0 0 0 0 0 125903981.806618 1289884.109759451 1289884.109759451 -4355229.520490096 0 0 0 0 0 124681292.2390936 907643.587029412 907643.587029412 -4462439.608835232 0 0 0 0 0 123951388.2253349 -1358181.162418586 -1358181.162418586 -8122835.635046479 0 0 0 0 0 122423225.3854052 -2101421.60509737 -2101421.60509737 -9130902.510069851 0 0 0 0 0 120641212.4864752 -2774359.683430114 -2774359.683430114 -9236446.08899237 0 0 0 0 0 119962041.6057918 -4695816.373058791 -4695816.373058791 -11367389.87091682 0 0 0 0 0 90474116.382513 -19869378.49491806 -19869378.49491806 -11172718.22467306 0 0 0 0 0 87995294.70225535 -19844192.17148034 -19844192.17148034 -9974880.961589064 0 0 0 0 0 85698997.43758208 -19596002.56933109 -19596002.56933109 -8720272.922563164 0 0 0 0 0 83588009.92815484 -19134463.31361189 -19134463.31361189 -7429344.870339621 0 0 0 0 0 93079290.33749844 -19651217.4548093 -19651217.4548093 -12281846.43513762 0 0 0 0 0 95795557.09202211 -19178963.51300883 -19178963.51300883 -13263193.04284743 0 0 0 0 0 98583265.47217529 -18450040.26957692 -18450040.26957692 -14080553.71199196 0 0 0 0 0 81740330.85251023 -18493309.7826814 -18493309.7826814 -6157977.434839072 0 0 0 0 0 80117993.29630558 -17690676.57557204 -17690676.57557204 -4935404.029312145 0 0 0 0 0 101396953.4660379 -17468038.30654495 -17468038.30654495 -14697741.5896676 0 0 0 0 0 104187763.7378382 -16245301.21261626 -16245301.21261626 -15081280.84114688 0 0 0 0 0 106904074.46407 -14801888.35428382 -14801888.35428382 -15206863.22262818 0 0 0 0 0 78713700.81449446 -16762498.23439015 -16762498.23439015 -3757439.295066346 0 0 0 0 0 109500934.3719914 -13161593.85409354 -13161593.85409354 -15046682.78113167 0 0 0 0 0 111924460.0284828 -11368742.32728728 -11368742.32728728 -14600134.67184379 0 0 0 0 0 114147092.3551712 -9448373.765789896 -9448373.765789896 -13847506.71064991 0 0 0 0 0 116109987.946824 -7467674.104756536 -7467674.104756536 -12818056.87458549 0 0 0 0 0 117784326.1754813 -5470816.762741817 -5470816.762741817 -11524092.96478393 0 0 0 0 0 79311552.08451544 -15060118.6761714 -15060118.6761714 -2259519.040076938 0 0 0 0 0 78758244.43819599 -15002353.68343537 -15002353.68343537 -2434617.078997755 0 0 0 0 0 79318488.13110688 -13446855.86359502 -13446855.86359502 -1248941.208115065 0 0 0 0 0 79977888.10631813 -10477836.01810463 -10477836.01810463 156596.4541731686 0 0 0 0 0 79538780.71868536 -11862629.41341906 -11862629.41341906 -494221.5572970523 0 0 0 0 0 79072443.92186168 -13364285.72020153 -13364285.72020153 -1357992.336874211 0 0 0 0 0 80167101.0546791 -12795011.33544319 -12795011.33544319 -1255363.004263411 0 0 0 0 0 80491144.94853616 -9404557.250085942 -9404557.250085942 931314.5590199286 0 0 0 0 0 80461472.60040379 -10379787.68461806 -10379787.68461806 297131.4072039134 0 0 0 0 0 169558417.1082098 -1583011.188137114 -1583011.188137114 36913625.52364531 0 0 0 0 0 152695743.8369624 2726089.76515396 2726089.76515396 34198310.98908553 0 0 0 0 0 156740734.9188827 1796495.754940447 1796495.754940447 35984970.5812977 0 0 0 0 0 160346300.5521866 1032072.379029198 1032072.379029198 37008357.77754026 0 0 0 0 0 148861039.8552529 3739378.250129952 3739378.250129952 31988341.40198609 0 0 0 0 0 145466230.0258962 4674251.004265728 4674251.004265728 29074674.58861912 0 0 0 0 0 142386457.2705216 5409225.397017067 5409225.397017067 25740969.1518299 0 0 0 0 0 139671370.238994 5942497.01809876 5942497.01809876 22186735.95946324 0 0 0 0 0 137253669.0138016 6229345.869305175 6229345.869305175 18548704.79435007 0 0 0 0 0 135104229.2715119 6268509.329235782 6268509.329235782 14940777.63015691 0 0 0 0 0 133152980.9886836 6067103.701731768 6067103.701731768 11472803.16359176 0 0 0 0 0 131358413.5700474 5659046.298283843 5659046.298283843 8222389.452821459 0 0 0 0 0 129685384.0539687 5083162.501274865 5083162.501274865 5244571.906891389 0 0 0 0 0 128101649.4691748 4378556.942617031 4378556.942617031 2562684.806688571 0 0 0 0 0 126577014.9029155 3580521.927685852 3580521.927685852 187685.8721376744 0 0 0 0 0 125105375.8999768 2731962.088924095 2731962.088924095 -1875993.599124319 0 0 0 0 0 124430554.9087259 516598.993956356 516598.993956356 -5927846.623680268 0 0 0 0 0 123125835.1854641 32701.62913923458 32701.62913923458 -6004027.570379113 0 0 0 0 0 121643661.6693279 -810485.0541142675 -810485.0541142675 -7254392.246774575 0 0 0 0 0 120980637.3029909 -2796633.632552495 -2796633.632552495 -9878864.928326834 0 0 0 0 0 119156788.685055 -3500627.312523938 -3500627.312523938 -9986932.249390097 0 0 0 0 0 93259496.03720929 -18686271.85331425 -18686271.85331425 -9930472.025688518 0 0 0 0 0 90740129.59210686 -18699325.48624001 -18699325.48624001 -8804490.791021414 0 0 0 0 0 88348302.07437894 -18503382.00874602 -18503382.00874602 -7648325.163360561 0 0 0 0 0 86100918.30922939 -18113480.90225458 -18113480.90225458 -6487219.957229863 0 0 0 0 0 95881564.19167492 -18450119.71383052 -18450119.71383052 -10984874.66829263 0 0 0 0 0 98571969.15256812 -17981577.581282 -17981577.581282 -11942750.23137136 0 0 0 0 0 101289818.8002165 -17279518.95814787 -17279518.95814787 -12772557.92879695 0 0 0 0 0 84069715.73755528 -17548500.59106782 -17548500.59106782 -5356278.080764781 0 0 0 0 0 82285989.45352454 -16835522.43097217 -16835522.43097217 -4263572.477047983 0 0 0 0 0 103984908.312151 -16348063.98465229 -16348063.98465229 -13442399.24460159 0 0 0 0 0 106609588.2439479 -15199210.06613381 -15199210.06613381 -13921667.13791193 0 0 0 0 0 109120270.3229436 -13853249.7231184 -13853249.7231184 -14182482.81290849 0 0 0 0 0 80689667.39305063 -15997244.8366014 -15997244.8366014 -3223937.982413022 0 0 0 0 0 111465609.7093173 -12335257.0935987 -12335257.0935987 -14204037.47990733 0 0 0 0 0 113609189.2844921 -10678508.09790008 -10678508.09790008 -13968732.27255406 0 0 0 0 0 115510754.3210462 -8918493.10710459 -8918493.10710459 -13470219.42897764 0 0 0 0 0 117153297.1409853 -7098933.960481276 -7098933.960481276 -12707130.45181902 0 0 0 0 0 118513017.494735 -5263535.827569447 -5263535.827569447 -11686565.58786404 0 0 0 0 0 79842569.87716454 -15966964.12598311 -15966964.12598311 -3459049.07795913 0 0 0 0 0 80388731.5439229 -14389125.12480152 -14389125.12480152 -2079639.672475463 0 0 0 0 0 79896084.09765081 -14324570.21191758 -14324570.21191758 -2243212.115774491 0 0 0 0 0 80644678.84964649 -11376388.68250111 -11376388.68250111 -434647.8915472569 0 0 0 0 0 80626008.69286491 -11462211.97232477 -11462211.97232477 -403381.6244762376 0 0 0 0 0 80404320.18100668 -12880737.7033479 -12880737.7033479 -1146890.79966662 0 0 0 0 0 81414681.2415331 -12343044.81914513 -12343044.81914513 -1062981.78674592 0 0 0 0 0 80593734.45845526 -9353422.058392519 -9353422.058392519 464185.2929662461 0 0 0 0 0 80963708.79864831 -10155833.24574344 -10155833.24574344 77865.16141755141 0 0 0 0 0 162064989.6048753 541410.6773034715 541410.6773034715 36789730.7934082 0 0 0 0 0 148025064.1773128 1073298.460686426 1073298.460686426 33189485.1191912 0 0 0 0 0 150649391.1081111 135191.0075228759 135191.0075228759 35357491.36082567 0 0 0 0 0 153275732.0464474 -497243.4841386208 -497243.4841386208 36543129.2422251 0 0 0 0 0 156971388.852239 -860127.8672515848 -860127.8672515848 36869466.4253796 0 0 0 0 0 145049574.5718753 2122130.505926567 2122130.505926567 30312240.89420935 0 0 0 0 0 142268412.6188505 3155203.981083021 3155203.981083021 26894577.38269477 0 0 0 0 0 139716745.7993556 3996091.994843538 3996091.994843538 23236934.00461379 0 0 0 0 0 137424502.0042353 4621243.329038348 4621243.329038348 19453089.61540223 0 0 0 0 0 135343161.0804509 4994067.798868608 4994067.798868608 15694161.22659483 0 0 0 0 0 133468473.6512416 5119747.764493485 5119747.764493485 12067721.14491291 0 0 0 0 0 131751153.7488761 5011077.399448964 5011077.399448964 8675916.501995618 0 0 0 0 0 130163255.2760725 4701555.964272633 4701555.964272633 5576112.438326555 0 0 0 0 0 128666266.2715478 4224378.506371098 4224378.506371098 2794105.961266182 0 0 0 0 0 127245895.354698 3621583.27753178 3621583.27753178 338684.7973249749 0 0 0 0 0 125880947.0283198 2932141.225412605 2932141.225412605 -1785296.148943987 0 0 0 0 0 124560322.5206753 2188119.069404155 2188119.069404155 -3589113.895178731 0 0 0 0 0 123679972.8713735 1863125.25086007 1863125.25086007 -3639138.588041241 0 0 0 0 0 123017263.3341083 -253679.3675021782 -253679.3675021782 -7191967.570253436 0 0 0 0 0 121664136.3897979 -1001019.288356939 -1001019.288356939 -8183506.421072851 0 0 0 0 0 120212678.4457138 -1607355.375528756 -1607355.375528756 -8242256.176313039 0 0 0 0 0 119580954.5623807 -3451788.449476833 -3451788.449476833 -10424298.05938646 0 0 0 0 0 93076768.92980193 -18829405.44053438 -18829405.44053438 -11511425.48542233 0 0 0 0 0 90666328.18176658 -18989569.56125942 -18989569.56125942 -10443051.21266938 0 0 0 0 0 88355731.91300519 -18933523.45454141 -18933523.45454141 -9297677.171010442 0 0 0 0 0 86248312.08153585 -18670636.72927895 -18670636.72927895 -8095368.801236045 0 0 0 0 0 84351998.57017183 -18213521.4954646 -18213521.4954646 -6888456.478693041 0 0 0 0 0 95581706.81962824 -18440904.21361946 -18440904.21361946 -12475744.79882435 0 0 0 0 0 98160009.91778387 -17817647.66669459 -17817647.66669459 -13300554.42559437 0 0 0 0 0 100773202.131665 -16960254.39436891 -16960254.39436891 -13951283.61507454 0 0 0 0 0 82637766.19659428 -17592794.13222389 -17592794.13222389 -5699675.245415909 0 0 0 0 0 81124527.43055449 -16841020.06111186 -16841020.06111186 -4558511.814466081 0 0 0 0 0 103376451.9317665 -15877731.19767631 -15877731.19767631 -14399203.97104863 0 0 0 0 0 105924014.9661085 -14588442.01642429 -14588442.01642429 -14621509.23189042 0 0 0 0 0 108373984.3381074 -13112152.68303776 -13112152.68303776 -14592894.96450762 0 0 0 0 0 110676953.917772 -11481793.44857183 -11481793.44857183 -14304233.86756768 0 0 0 0 0 112799083.0012189 -9729469.232832156 -9729469.232832156 -13744674.35529581 0 0 0 0 0 114704664.9612995 -7895728.582382871 -7895728.582382871 -12918488.11457237 0 0 0 0 0 116361858.2648123 -6025966.867269588 -6025966.867269588 -11840562.23925689 0 0 0 0 0 117753083.4846191 -4159831.638732402 -4159831.638732402 -10525838.90001622 0 0 0 0 0 81651957.99625374 -15264056.57868484 -15264056.57868484 -2982138.406002041 0 0 0 0 0 80905177.57808125 -15222998.55440347 -15222998.55440347 -3199503.284820203 0 0 0 0 0 81403156.83821459 -13759974.6714684 -13759974.6714684 -1921204.239768521 0 0 0 0 0 81590849.70544986 -11014844.41279705 -11014844.41279705 -386239.680660953 0 0 0 0 0 81186014.14570382 -12259391.82817718 -12259391.82817718 -1168107.068134225 0 0 0 0 0 80941106.23351777 -13689549.17961363 -13689549.17961363 -2079958.314051382 0 0 0 0 0 81910870.95858103 -13092348.60518798 -13092348.60518798 -1934200.921467884 0 0 0 0 0 81712212.89987008 -10020441.25568685 -10020441.25568685 303356.997543789 0 0 0 0 0 81791394.41701074 -10935328.78897955 -10935328.78897955 -350320.1350199787 0 0 0 0 0 145493040.6444603 3793469.932649398 3793469.932649398 33224869.84348168 0 0 0 0 0 148492880.9164464 2783814.856605015 2783814.856605015 35080018.61391308 0 0 0 0 0 151245513.642895 1817143.746784169 1817143.746784169 36355366.94503122 0 0 0 0 0 153665024.4856753 938404.3627529113 938404.3627529113 36746173.61046027 0 0 0 0 0 142704566.4860489 4830101.217048561 4830101.217048561 30781394.02220924 0 0 0 0 0 140142564.3864992 5727792.706525599 5727792.706525599 27887345.56123215 0 0 0 0 0 137844228.4295564 6413382.705511819 6413382.705511819 24675955.12585413 0 0 0 0 0 135773225.7604594 6865516.640465757 6865516.640465757 21302292.36681072 0 0 0 0 0 133919818.4728094 7075296.026815732 7075296.026815732 17875406.37325891 0 0 0 0 0 132225524.6871231 7043480.020929936 7043480.020929936 14507873.73607864 0 0 0 0 0 130665784.9185031 6795007.611102282 6795007.611102282 11278883.7970572 0 0 0 0 0 129199924.260355 6358813.984244308 6358813.984244308 8255100.429104197 0 0 0 0 0 127811530.9275429 5774419.7935118 5774419.7935118 5477686.826742141 0 0 0 0 0 126468942.3356766 5073612.402578142 5073612.402578142 2969518.352191435 0 0 0 0 0 125160747.9942961 4294756.428867957 4294756.428867957 738990.0073338727 0 0 0 0 0 123881598.3368828 3468258.794102896 3468258.794102896 -1208715.775917137 0 0 0 0 0 123277921.092434 1422541.915350386 1422541.915350386 -5091430.214159391 0 0 0 0 0 122301582.0012209 1002625.262868074 1002625.262868074 -5119587.566711476 0 0 0 0 0 120964698.582892 171992.2879086625 171992.2879086625 -6330895.436510122 0 0 0 0 0 120355788.821392 -1709159.062171221 -1709159.062171221 -8947629.604954572 0 0 0 0 0 118864493.0597214 -2339480.006664619 -2339480.006664619 -8999352.443086522 0 0 0 0 0 95676278.81675491 -17712364.56723406 -17712364.56723406 -10290376.70211383 0 0 0 0 0 93254680.12780069 -17890959.52659271 -17890959.52659271 -9272700.684410071 0 0 0 0 0 90917476.07017218 -17871090.98421887 -17871090.98421887 -8191977.399742248 0 0 0 0 0 88682657.36521417 -17659931.49229398 -17659931.49229398 -7107730.831670353 0 0 0 0 0 86650791.78252368 -17270637.33949391 -17270637.33949391 -6030372.345468908 0 0 0 0 0 98165564.10875838 -17322636.57936171 -17322636.57936171 -11223839.27297934 0 0 0 0 0 100686257.3235476 -16717997.1219253 -16717997.1219253 -12049400.8474129 0 0 0 0 0 103196096.2979072 -15903179.2585186 -15903179.2585186 -12738093.912777 0 0 0 0 0 84792033.29941377 -16727401.68271775 -16727401.68271775 -4967141.938393154 0 0 0 0 0 83129015.77024469 -16052292.72938261 -16052292.72938261 -3944541.195313112 0 0 0 0 0 105653747.5317786 -14884948.78559433 -14884948.78559433 -13262109.85149777 0 0 0 0 0 108019702.9196612 -13678935.67861792 -13678935.67861792 -13596215.60975831 0 0 0 0 0 110249537.0247177 -12307543.6929986 -12307543.6929986 -13717492.4945821 0 0 0 0 0 112306648.357813 -10796663.90498259 -10796663.90498259 -13611089.85173076 0 0 0 0 0 114157230.089321 -9178824.055966601 -9178824.055966601 -13264037.16668122 0 0 0 0 0 115776273.3227813 -7489797.359059586 -7489797.359059586 -12675318.70324199 0 0 0 0 0 117147881.7903124 -5766290.129450254 -5766290.129450254 -11844571.67379269 0 0 0 0 0 118252837.6111959 -4048995.750436496 -4048995.750436496 -10786150.33734579 0 0 0 0 0 82100573.42613494 -16040349.67524244 -16040349.67524244 -4219205.586595537 0 0 0 0 0 82580544.63523406 -14578185.77017492 -14578185.77017492 -2763415.157226578 0 0 0 0 0 81880461.88630427 -14529046.67136557 -14529046.67136557 -2972644.102279081 0 0 0 0 0 82095657.58217341 -11768605.26603217 -11768605.26603217 -1068853.31366957 0 0 0 0 0 82352963.47330938 -11832476.49716199 -11832476.49716199 -969286.5481557229 0 0 0 0 0 82345951.63065082 -13163417.01667246 -13163417.01667246 -1782125.959257727 0 0 0 0 0 83218816.00912452 -12602685.78632004 -12602685.78632004 -1658723.597612075 0 0 0 0 0 81933161.82077517 -9911501.398016036 -9911501.398016036 -57933.12771449855 0 0 0 0 0 82363412.11648326 -10674737.08888511 -10674737.08888511 -489146.8900814436 0 0 0 0 0 141785047.3808155 2305680.069595924 2305680.069595924 31862407.36633132 0 0 0 0 0 143824391.2660147 1177485.159795243 1177485.159795243 34054459.20426254 0 0 0 0 0 146049946.9969845 135065.1978401025 135065.1978401025 35602000.28734639 0 0 0 0 0 148867563.0881639 -685951.0798552688 -685951.0798552688 36435436.76814878 0 0 0 0 0 139480915.1427243 3377594.587606398 3377594.587606398 28963856.83917642 0 0 0 0 0 137359902.998034 4337851.218933016 4337851.218933016 25667408.54192257 0 0 0 0 0 135429491.97213 5085087.098506517 5085087.098506517 22171717.29540488 0 0 0 0 0 133674074.2425418 5601972.504575476 5601972.504575476 18611044.22029826 0 0 0 0 0 132075570.370024 5877908.876837579 5877908.876837579 15097088.56578701 0 0 0 0 0 130604402.2653381 5921007.022130519 5921007.022130519 11736051.92462871 0 0 0 0 0 129239391.9693621 5754442.186877945 5754442.186877945 8592602.069739211 0 0 0 0 0 127949931.5157983 5406238.82577183 5406238.82577183 5715335.897472632 0 0 0 0 0 126720652.9977956 4913270.884062473 4913270.884062473 3122892.655879928 0 0 0 0 0 125530864.3547875 4308017.336885819 4308017.336885819 827575.3205499296 0 0 0 0 0 124372881.3660669 3628470.073991876 3628470.073991876 -1168226.236156927 0 0 0 0 0 123238969.4652966 2903152.814790889 2903152.814790889 -2873877.485030768 0 0 0 0 0 122635966.697144 2628324.499144375 2628324.499144375 -2881876.947275645 0 0 0 0 0 122040309.279667 662329.7605853966 662329.7605853966 -6312978.188439828 0 0 0 0 0 120836839.2550472 -74457.29744086406 -74457.29744086406 -7291581.848546004 0 0 0 0 0 119681375.7836882 -614691.0955434155 -614691.0955434155 -7305688.668531309 0 0 0 0 0 119086588.1504432 -2376006.526183163 -2376006.526183163 -9519329.644383591 0 0 0 0 0 95403937.83472714 -17724410.71041064 -17724410.71041064 -11728413.06921351 0 0 0 0 0 93083933.9525335 -18042732.124627 -18042732.124627 -10789519.53403405 0 0 0 0 0 90829898.76603085 -18158186.96857135 -18158186.96857135 -9760719.31297381 0 0 0 0 0 88729323.27545297 -18068463.13341711 -18068463.13341711 -8657568.063316176 0 0 0 0 0 86806855.81458178 -17787016.81605176 -17787016.81605176 -7522478.991682787 0 0 0 0 0 85052320.23622306 -17347007.90527199 -17347007.90527199 -6404613.701531993 0 0 0 0 0 97789825.23863822 -17193374.38377705 -17193374.38377705 -12548705.58897691 0 0 0 0 0 100216134.57574 -16449121.70735343 -16449121.70735343 -13221760.57926936 0 0 0 0 0 102639903.8683605 -15495485.82065227 -15495485.82065227 -13719257.80867088 0 0 0 0 0 83481289.97803053 -16755889.75453321 -16755889.75453321 -5292711.529239566 0 0 0 0 0 105025293.0356521 -14346220.8731902 -14346220.8731902 -14016263.95037456 0 0 0 0 0 107334350.0740402 -13020965.27110374 -13020965.27110374 -14093188.28485829 0 0 0 0 0 109523152.1586663 -11540982.03935651 -11540982.03935651 -13935090.81366413 0 0 0 0 0 111553913.4687131 -9939433.580932921 -9939433.580932921 -13533484.74450887 0 0 0 0 0 113398493.7830476 -8248603.192208549 -8248603.192208549 -12886750.22507115 0 0 0 0 0 115029082.2910936 -6506683.648076279 -6506683.648076279 -12002295.72838427 0 0 0 0 0 116422349.4384568 -4750545.156327346 -4750545.156327346 -10891071.95093717 0 0 0 0 0 117566198.1141547 -3017448.276766513 -3017448.276766513 -9571312.69900834 0 0 0 0 0 83938597.646534 -15316577.68812718 -15316577.68812718 -3665215.634369963 0 0 0 0 0 82990772.04262555 -15294980.43021899 -15294980.43021899 -3924093.041042864 0 0 0 0 0 83440277.21061921 -13928963.727052 -13928963.727052 -2567679.230432997 0 0 0 0 0 83105559.84143414 -11399950.25740789 -11399950.25740789 -934351.3516356359 0 0 0 0 0 82753954.34564587 -12526949.44424432 -12526949.44424432 -1821104.123399105 0 0 0 0 0 82785646.63160694 -13874651.95681459 -13874651.95681459 -2767881.451512413 0 0 0 0 0 83624850.45887202 -13261268.54851294 -13261268.54851294 -2578157.978812094 0 0 0 0 0 82927234.76423886 -10552390.51726215 -10552390.51726215 -330932.2999862799 0 0 0 0 0 83179973.43135206 -11316667.86668077 -11316667.86668077 -938675.9881072331 0 0 0 0 0 139709757.7672146 4524900.776527099 4524900.776527099 31947566.2012496 0 0 0 0 0 142089560.0375429 3425530.776626703 3425530.776626703 33844888.67929227 0 0 0 0 0 144069143.9417559 2291365.858807431 2291365.858807431 35275813.79399683 0 0 0 0 0 146236758.2997845 1260636.215042486 1260636.215042486 36014012.45202153 0 0 0 0 0 137626410.2647867 5555517.075864883 5555517.075864883 29439562.43610934 0 0 0 0 0 135692169.6872286 6404942.582306825 6404942.582306825 26632965.8023607 0 0 0 0 0 133958775.0557127 7040418.22945009 7040418.22945009 23578788.81112937 0 0 0 0 0 132386531.41952 7436786.087920651 7436786.087920651 20399666.24253193 0 0 0 0 0 130952743.7291299 7596768.965227362 7596768.965227362 17200498.32378191 0 0 0 0 0 129624884.848102 7530138.845662932 7530138.845662932 14066181.33528035 0 0 0 0 0 128373763.3143439 7262805.24358155 7262805.24358155 11067776.32256749 0 0 0 0 0 127180416.013146 6825406.960004718 6825406.960004718 8256398.10880045 0 0 0 0 0 126023665.4224542 6252421.764105831 6252421.764105831 5669281.68540905 0 0 0 0 0 124889277.783506 5575013.772233746 5575013.772233746 3325079.493498442 0 0 0 0 0 123771085.2095289 4827775.873568756 4827775.873568756 1234452.153882229 0 0 0 0 0 122668284.4697984 4040289.185951682 4040289.185951682 -601312.0890110795 0 0 0 0 0 122123930.3100228 2154611.000512345 2154611.000512345 -4314486.20955116 0 0 0 0 0 121413282.4691435 1795691.862057561 1795691.862057561 -4301944.236461039 0 0 0 0 0 120221536.4555844 988430.5261520742 988430.5261520742 -5478580.762661595 0 0 0 0 0 119657754.040188 -783185.6254294672 -783185.6254294672 -8064967.670263998 0 0 0 0 0 118450563.1443668 -1347855.359243796 -1347855.359243796 -8074893.033089445 0 0 0 0 0 97806303.62979734 -16681165.41456152 -16681165.41456152 -10545101.38994017 0 0 0 0 0 95497811.88917738 -17003611.75722299 -17003611.75722299 -9639591.778233508 0 0 0 0 0 93245947.10035357 -17136741.95090108 -17136741.95090108 -8653816.699260354 0 0 0 0 0 91079422.84245755 -17084210.86050926 -17084210.86050926 -7644543.440752178 0 0 0 0 0 89043707.84506005 -16857236.27728014 -16857236.27728014 -6623737.617081814 0 0 0 0 0 87182748.36769558 -16475599.00234227 -16475599.00234227 -5608355.544355647 0 0 0 0 0 100145531.4576469 -16164032.37839039 -16164032.37839039 -11358256.14467736 0 0 0 0 0 102482406.9920545 -15452752.80540784 -15452752.80540784 -12056922.01153637 0 0 0 0 0 104784670.1087735 -14552803.92115724 -14552803.92115724 -12611231.95487897 0 0 0 0 0 85472266.86428784 -15955798.21653725 -15955798.21653725 -4616045.884651004 0 0 0 0 0 107014743.9553545 -13474522.14505167 -13474522.14505167 -12997658.10424953 0 0 0 0 0 109132551.2993352 -12236125.04087428 -12236125.04087428 -13197493.7595723 0 0 0 0 0 111101060.8638203 -10864962.95059936 -10864962.95059936 -13199710.31157045 0 0 0 0 0 112897248.4960207 -9378018.072363278 -9378018.072363278 -12978334.60078274 0 0 0 0 0 114487803.1446811 -7814787.233336193 -7814787.233336193 -12538169.68838227 0 0 0 0 0 115855652.3040645 -6206064.432106012 -6206064.432106012 -11876220.46032737 0 0 0 0 0 116987968.0305316 -4586032.838008292 -4586032.838008292 -10999367.37339553 0 0 0 0 0 117874431.4499275 -2989255.155587949 -2989255.155587949 -9920043.662525589 0 0 0 0 0 84272309.77510032 -15967608.45820484 -15967608.45820484 -4922606.533381919 0 0 0 0 0 84697738.63967671 -14623173.69894709 -14623173.69894709 -3410865.422808886 0 0 0 0 0 83817800.05805241 -14592942.73494773 -14592942.73494773 -3656731.72126523 0 0 0 0 0 83604673.44124818 -12032568.7135783 -12032568.7135783 -1667954.389673701 0 0 0 0 0 84024737.95454739 -12091466.02383378 -12091466.02383378 -1526495.013424794 0 0 0 0 0 84238164.91111274 -13315301.49488526 -13315301.49488526 -2388883.362308752 0 0 0 0 0 84973201.45943515 -12744764.73488441 -12744764.73488441 -2240001.181270744 0 0 0 0 0 83266521.12630661 -10376631.83661089 -10376631.83661089 -607165.854964045 0 0 0 0 0 83774091.61349967 -11079931.25123571 -11079931.25123571 -1082754.039103385 0 0 0 0 0 136588576.7717698 3174553.087164036 3174553.087164036 30445724.36049518 0 0 0 0 0 138223537.2967244 2040648.460590886 2040648.460590886 32695979.30411507 0 0 0 0 0 139735621.6839949 765289.5259297625 765289.5259297625 34358779.18716568 0 0 0 0 0 142129816.4617397 -368567.846446172 -368567.846446172 35428014.220199 0 0 0 0 0 134850570.6994293 4242918.741039567 4242918.741039567 27574138.90125562 0 0 0 0 0 133253517.5880656 5131814.790991741 5131814.790991741 24427037.56222598 0 0 0 0 0 131788857.9942447 5804489.254347104 5804489.254347104 21128816.15039143 0 0 0 0 0 130446165.0954553 6245306.936953547 6245306.936953547 17800931.45419529 0 0 0 0 0 129207572.3478826 6456429.642081725 6456429.642081725 14538806.31956103 0 0 0 0 0 128055458.3957046 6452030.208478458 6452030.208478458 11423374.87338217 0 0 0 0 0 126965125.7331692 6255339.631470908 6255339.631470908 8510234.890600603 0 0 0 0 0 125921234.9677408 5895858.113452648 5895858.113452648 5837165.751885749 0 0 0 0 0 124907506.8930697 5406107.07360731 5406107.07360731 3422211.770952744 0 0 0 0 0 123913633.9951212 4818931.655519949 4818931.655519949 1276459.042110021 0 0 0 0 0 122932642.1828537 4162187.29610445 4162187.29610445 -598496.3704278374 0 0 0 0 0 121958175.1974378 3462626.597962704 3462626.597962704 -2220095.027986505 0 0 0 0 0 121578354.6401023 3234625.262340059 3234625.262340059 -2194421.48889886 0 0 0 0 0 121040886.7959619 1416776.529918003 1416776.529918003 -5496811.375600444 0 0 0 0 0 119975938.7533451 698801.2919236692 698801.2919236692 -6457749.642048018 0 0 0 0 0 119071573.3496934 220852.4589546151 220852.4589546151 -6437677.926067206 0 0 0 0 0 118515495.9470832 -1449686.945133907 -1449686.945133907 -8657512.73851791 0 0 0 0 0 97463360.47087812 -16583656.12774338 -16583656.12774338 -11827494.03248151 0 0 0 0 0 95243517.34364946 -17035056.27880009 -17035056.27880009 -11016298.75744606 0 0 0 0 0 93077130.45196983 -17295384.36144177 -17295384.36144177 -10106669.59335627 0 0 0 0 0 91027671.31718227 -17360696.82479004 -17360696.82479004 -9112560.879248511 0 0 0 0 0 89109365.54175171 -17244062.74300551 -17244062.74300551 -8073624.201175014 0 0 0 0 0 87337764.52194065 -16958836.02582163 -16958836.02582163 -7013903.773962832 0 0 0 0 0 85720278.77179632 -16530327.08108181 -16530327.08108181 -5960163.406341655 0 0 0 0 0 99717057.85164151 -15938026.36340276 -15938026.36340276 -12510717.69735348 0 0 0 0 0 101977129.202565 -15100736.45572792 -15100736.45572792 -13041222.67318429 0 0 0 0 0 104212192.4763407 -14079420.86502231 -14079420.86502231 -13399246.84199954 0 0 0 0 0 106387827.728268 -12890146.84648871 -12890146.84648871 -13564078.27703528 0 0 0 0 0 108465014.7419078 -11551253.47409397 -11551253.47409397 -13513497.83897352 0 0 0 0 0 110406546.0794646 -10088180.50172747 -10088180.50172747 -13244386.3962455 0 0 0 0 0 112188982.3309749 -8531833.032928981 -8531833.032928981 -12750606.19180151 0 0 0 0 0 113781742.442696 -6915516.26858727 -6915516.26858727 -12035951.07476742 0 0 0 0 0 115170218.4802514 -5268870.893811475 -5268870.893811475 -11105174.83383159 0 0 0 0 0 116333792.4997512 -3628695.253072308 -3628695.253072308 -9976449.590410128 0 0 0 0 0 117261713.9411523 -2029865.298456008 -2029865.298456008 -8670821.386124443 0 0 0 0 0 86113974.46309029 -15228158.66154177 -15228158.66154177 -4301141.237280906 0 0 0 0 0 85006241.13441528 -15228882.94113684 -15228882.94113684 -4589659.099473142 0 0 0 0 0 85405938.18910834 -13968008.45399341 -13968008.45399341 -3179690.646226826 0 0 0 0 0 84739632.39026946 -11661300.11486823 -11661300.11486823 -1471653.609648493 0 0 0 0 0 84332603.25705883 -12675801.79721376 -12675801.79721376 -2444642.75118807 0 0 0 0 0 84584601.6927803 -13930150.93998545 -13930150.93998545 -3414402.468346028 0 0 0 0 0 85293090.5570015 -13316187.80873892 -13316187.80873892 -3175778.341906221 0 0 0 0 0 84222630.57026184 -10935010.91031872 -10935010.91031872 -951591.3849378866 0 0 0 0 0 84592893.97605394 -11578043.32067113 -11578043.32067113 -1541051.910885341 0 0 0 0 0 134972972.2994147 4962732.398641314 4962732.398641314 30375069.92183068 0 0 0 0 0 136827036.6905683 3920943.15533312 3920943.15533312 32428508.23248236 0 0 0 0 0 138202052.3256228 2597847.442732242 2597847.442732242 33694033.72265567 0 0 0 0 0 139821926.3256315 1448864.441058389 1448864.441058389 34832466.45957177 0 0 0 0 0 133379321.9023964 5985530.343538474 5985530.343538474 28024312.530108 0 0 0 0 0 131936002.2908585 6806706.118018159 6806706.118018159 25346500.92688486 0 0 0 0 0 130626789.5301429 7399879.797852513 7399879.797852513 22474158.38623825 0 0 0 0 0 129428750.0664048 7757359.800994593 7757359.800994593 19504930.20558112 0 0 0 0 0 128320957.5248806 7886933.37359968 7886933.37359968 16529388.80771975 0 0 0 0 0 127275849.2066741 7805173.994581862 7805173.994581862 13621704.76398548 0 0 0 0 0 126274976.6024584 7537763.058263077 7537763.058263077 10840859.22092488 0 0 0 0 0 125300330.8424533 7114523.225997359 7114523.225997359 8231407.846990246 0 0 0 0 0 124340297.7285586 6566886.001448936 6566886.001448936 5823695.662616607 0 0 0 0 0 123386078.9974241 5926190.707998656 5926190.707998656 3635811.823544805 0 0 0 0 0 122432795.6754985 5219278.34951358 5219278.34951358 1673871.504695333 0 0 0 0 0 121481482.3100424 4473242.123883074 4473242.123883074 -61403.9648456451 0 0 0 0 0 120991809.5406003 2743015.336277502 2743015.336277502 -3599883.279749308 0 0 0 0 0 120495917.9616597 2434378.649583808 2434378.649583808 -3560396.329442306 0 0 0 0 0 119437860.2625578 1659957.6434496 1659957.6434496 -4697527.439865962 0 0 0 0 0 118920053.0739831 2118.613992690746 2118.613992690746 -7234707.691123198 0 0 0 0 0 117952678.5897133 -504176.9040400608 -504176.9040400608 -7213713.877406771 0 0 0 0 0 99659531.43736009 -15621217.90464929 -15621217.90464929 -10702987.28294815 0 0 0 0 0 97481930.98673466 -16060262.6024275 -16060262.6024275 -9901394.986150712 0 0 0 0 0 95337308.39859021 -16323686.41992331 -16323686.41992331 -9018562.148249865 0 0 0 0 0 93256489.65345633 -16410514.89218098 -16410514.89218098 -8094648.409653299 0 0 0 0 0 91275934.72047393 -16332803.65487335 -16332803.65487335 -7142404.422692999 0 0 0 0 0 89412850.94594638 -16097918.51701279 -16097918.51701279 -6179714.068710859 0 0 0 0 0 87689976.57154632 -15725109.91748993 -15725109.91748993 -5227060.63708136 0 0 0 0 0 101841691.8683276 -15001147.06416745 -15001147.06416745 -11398255.51760017 0 0 0 0 0 103997342.4241897 -14206744.34316049 -14206744.34316049 -11971233.14768382 0 0 0 0 0 106097054.2129629 -13245419.82792631 -13245419.82792631 -12400478.17333212 0 0 0 0 0 108102951.1499541 -12132279.68282671 -12132279.68282671 -12667532.92892834 0 0 0 0 0 109986126.7583787 -10890318.01094298 -10890318.01094298 -12755932.72628236 0 0 0 0 0 111723800.7818607 -9525582.145610942 -9525582.145610942 -12637521.98819568 0 0 0 0 0 113282332.3593831 -8081167.161730539 -8081167.161730539 -12322619.9383818 0 0 0 0 0 114642273.374213 -6581801.718229205 -6581801.718229205 -11803817.24829011 0 0 0 0 0 115788556.4604365 -5060089.139724284 -5060089.139724284 -11086178.47339147 0 0 0 0 0 116713800.5496458 -3545145.851214783 -3545145.851214783 -10176587.67835888 0 0 0 0 0 117414841.2126086 -2067778.166473904 -2067778.166473904 -9088809.175237073 0 0 0 0 0 86345052.42150486 -15762686.00656674 -15762686.00656674 -5557613.291401225 0 0 0 0 0 86714130.63361539 -14543713.05235424 -14543713.05235424 -4014711.015964806 0 0 0 0 0 85693215.23703483 -14534204.47028973 -14534204.47028973 -4286077.135122881 0 0 0 0 0 84927830.95134269 -12106908.69398214 -12106908.69398214 -2320063.678324595 0 0 0 0 0 85727371.19670855 -12200337.81384715 -12200337.81384715 -2092957.687248189 0 0 0 0 0 86072808.6682069 -13342333.36696444 -13342333.36696444 -2957649.583542615 0 0 0 0 0 86666871.96820948 -12769518.0514348 -12769518.0514348 -2742101.865032183 0 0 0 0 0 84594166.93519536 -10734168.69529141 -10734168.69529141 -1169817.262207411 0 0 0 0 0 84995628.54035953 -11427055.60451583 -11427055.60451583 -1729862.63345927 0 0 0 0 0 132346114.46229 3793758.379031766 3793758.379031766 28938288.06105889 0 0 0 0 0 133719176.2005455 2659263.929880999 2659263.929880999 31326264.59527722 0 0 0 0 0 134673325.3238003 1511247.533836507 1511247.533836507 33136354.72215126 0 0 0 0 0 136547600.572967 -164371.6725650003 -164371.6725650003 34108223.17335647 0 0 0 0 0 131027156.8080375 4818399.515709341 4818399.515709341 26184429.16848043 0 0 0 0 0 129802960.613056 5648785.556759483 5648785.556759483 23207460.87518552 0 0 0 0 0 128681886.0359552 6258862.903378385 6258862.903378385 20120976.07473446 0 0 0 0 0 127647980.6374984 6644170.63727314 6644170.63727314 17026047.95453082 0 0 0 0 0 126687346.0259671 6812543.717159618 6812543.717159618 14004750.47948358 0 0 0 0 0 125780586.4552475 6781565.594475523 6781565.594475523 11120515.99593943 0 0 0 0 0 124910779.660644 6574772.461014659 6574772.461014659 8421392.330821767 0 0 0 0 0 124064217.0291285 6220723.74824255 6220723.74824255 5938577.795414414 0 0 0 0 0 123229524.5918528 5748425.115301724 5748425.115301724 3690965.619327931 0 0 0 0 0 122398426.2891867 5186276.025840434 5186276.025840434 1682776.67834893 0 0 0 0 0 121566548.2018234 4560035.988962823 4560035.988962823 -86541.65732684293 0 0 0 0 0 120733674.9958787 3894925.759558299 3894925.759558299 -1625469.554402901 0 0 0 0 0 120529229.8631653 3709011.956154516 3709011.956154516 -1577735.247589733 0 0 0 0 0 120047041.3540108 2033740.133499797 2033740.133499797 -4740783.852897809 0 0 0 0 0 119103464.2084877 1339426.726227653 1339426.726227653 -5683815.34238682 0 0 0 0 0 118410171.7486526 918987.3881601022 918987.3881601022 -5637262.050863577 0 0 0 0 0 117895039.5687039 -656076.4502783505 -656076.4502783505 -7841627.18016879 0 0 0 0 0 97170901.3116142 -15989968.72722502 -15989968.72722502 -11141825.00609522 0 0 0 0 0 99267809.83610834 -15430229.83135467 -15430229.83135467 -11823220.43858265 0 0 0 0 0 95107790.3132949 -16371686.85816108 -16371686.85816108 -10349076.33078719 0 0 0 0 0 93123435.08974829 -16570301.51184506 -16570301.51184506 -9461304.328561887 0 0 0 0 0 91241013.73383792 -16596575.64917299 -16596575.64917299 -8519700.020996714 0 0 0 0 0 89472499.98535068 -16463415.00577825 -16463415.00577825 -7542522.507225739 0 0 0 0 0 87837167.3054592 -16178845.32844976 -16178845.32844976 -6547106.44759165 0 0 0 0 0 101378576.1132762 -14695591.95911645 -14695591.95911645 -12378239.13625992 0 0 0 0 0 103470938.3095397 -13790213.52095629 -13790213.52095629 -12780280.70719655 0 0 0 0 0 105519552.0075911 -12724774.01288086 -12724774.01288086 -13009159.95631205 0 0 0 0 0 107487460.4585778 -11516129.2829487 -11516129.2829487 -13046939.96718261 0 0 0 0 0 109345701.5756039 -10184617.56322323 -10184617.56322323 -12894228.57519025 0 0 0 0 0 111066019.5240968 -8754262.898428798 -8754262.898428798 -12533654.59465655 0 0 0 0 0 112620338.7237565 -7255205.546264971 -7255205.546264971 -11967082.80766188 0 0 0 0 0 113990097.2187916 -5719426.569828505 -5719426.569828505 -11200117.12855623 0 0 0 0 0 115162503.4233875 -4173749.121993241 -4173749.121993241 -10241910.68109431 0 0 0 0 0 116123696.4014949 -2650260.534879001 -2650260.534879001 -9110044.353492109 0 0 0 0 0 116868358.513417 -1179597.282302418 -1179597.282302418 -7826377.583540683 0 0 0 0 0 88170475.85374758 -15016876.56641734 -15016876.56641734 -4879771.884310829 0 0 0 0 0 86927201.68730696 -15041792.95899224 -15041792.95899224 -5190497.068454199 0 0 0 0 0 87273886.07713816 -13900941.13831062 -13900941.13831062 -3758305.48542878 0 0 0 0 0 86230361.57991816 -11829841.29810838 -11829841.29810838 -1864463.877215198 0 0 0 0 0 86029249.55456536 -12754419.94805159 -12754419.94805159 -2919530.724130345 0 0 0 0 0 86334827.23603351 -13877608.25309343 -13877608.25309343 -4015798.194951598 0 0 0 0 0 86949483.22741927 -13284031.45980411 -13284031.45980411 -3720118.975268234 0 0 0 0 0 85547407.50437787 -11261042.90219194 -11261042.90219194 -1548533.012991521 0 0 0 0 0 131024067.6675856 5240772.487572991 5240772.487572991 28864849.69622526 0 0 0 0 0 132366218.310537 4048532.765863706 4048532.765863706 30721201.47804366 0 0 0 0 0 133991939.4782635 2399260.724859727 2399260.724859727 31549954.40454177 0 0 0 0 0 134318220.439544 1493395.940783909 1493395.940783909 33575841.87625726 0 0 0 0 0 129832937.5893503 6243636.766479883 6243636.766479883 26599313.0898628 0 0 0 0 0 128744728.6421667 7023145.930639315 7023145.930639315 24079775.81848362 0 0 0 0 0 127753016.4608322 7575750.511295966 7575750.511295966 21391541.70030292 0 0 0 0 0 126838707.7930634 7901146.33861584 7901146.33861584 18629766.04111567 0 0 0 0 0 125980414.6808776 8011583.179011536 8011583.179011536 15870232.33631812 0 0 0 0 0 125159086.787017 7926249.769394545 7926249.769394545 13177321.27653333 0 0 0 0 0 124357703.7397931 7670025.303123325 7670025.303123325 10601813.50766232 0 0 0 0 0 123563428.5926586 7270597.095115246 7270597.095115246 8181094.842643132 0 0 0 0 0 122767831.6848972 6756884.948843137 6756884.948843137 5940574.013996935 0 0 0 0 0 121965676.5880182 6156343.384786356 6156343.384786356 3896102.636439461 0 0 0 0 0 121154198.5037164 5493760.542947959 5493760.542947959 2054113.081492294 0 0 0 0 0 120331893.7239312 4792838.476551047 4792838.476551047 415882.2152501533 0 0 0 0 0 119897661.9010109 3210805.261839316 3210805.261839316 -2944381.423801076 0 0 0 0 0 119573010.0634553 2946919.789305539 2946919.789305539 -2886210.776648769 0 0 0 0 0 118636896.8316515 2209387.004616467 2209387.004616467 -3984054.565070303 0 0 0 0 0 118164135.190008 663784.509987758 663784.509987758 -6458840.833348943 0 0 0 0 0 117398189.1399355 211762.9476387613 211762.9476387613 -6414648.071167473 0 0 0 0 0 99235497.23122448 -15083468.87582835 -15083468.87582835 -10074137.93110677 0 0 0 0 0 101267895.7391942 -14544672.18321874 -14544672.18321874 -10763333.44765121 0 0 0 0 0 97206962.03821269 -15458092.39785222 -15458092.39785222 -9295240.491849503 0 0 0 0 0 95217842.49293236 -15665710.20080496 -15665710.20080496 -8455711.589620978 0 0 0 0 0 93304127.29055062 -15716339.31167757 -15716339.31167757 -7578708.686687895 0 0 0 0 0 91480639.37047344 -15617802.48841671 -15617802.48841671 -6678033.565529854 0 0 0 0 0 89763416.10127218 -15379151.12986649 -15379151.12986649 -5772227.364577461 0 0 0 0 0 103287838.1499894 -13847786.18665992 -13847786.18665992 -11348809.22709415 0 0 0 0 0 105266730.904766 -12990871.13999659 -12990871.13999659 -11804706.96221052 0 0 0 0 0 107167885.3264635 -11991324.93758501 -11991324.93758501 -12119493.39059331 0 0 0 0 0 108965159.3238582 -10863659.98454341 -10863659.98454341 -12272951.36657201 0 0 0 0 0 110636661.9626592 -9623106.57151046 -9623106.57151046 -12249466.19660836 0 0 0 0 0 112157726.8381273 -8290749.570927823 -8290749.570927823 -12043366.41273425 0 0 0 0 0 113500787.7608968 -6898390.982432261 -6898390.982432261 -11650763.83980933 0 0 0 0 0 114653856.5332948 -5472613.804687624 -5472613.804687624 -11071874.70975635 0 0 0 0 0 115605827.3862602 -4042377.129053926 -4042377.129053926 -10314571.10904995 0 0 0 0 0 116354433.2393423 -2632173.610701678 -2632173.610701678 -9384700.38801937 0 0 0 0 0 116898907.2374732 -1269440.133575148 -1269440.133575148 -8298450.299025498 0 0 0 0 0 88306866.56859973 -15442248.2055789 -15442248.2055789 -6117931.064984988 0 0 0 0 0 88621388.5799019 -14349783.7061051 -14349783.7061051 -4562140.812953763 0 0 0 0 0 87471382.00665411 -14364112.71633902 -14364112.71633902 -4854221.350541801 0 0 0 0 0 86236547.33978271 -11675288.32437377 -11675288.32437377 -2306156.748974293 0 0 0 0 0 87066150.93298815 -12256946.75336916 -12256946.75336916 -2792032.904988801 0 0 0 0 0 87808118.6948981 -13286295.29744387 -13286295.29744387 -3490601.349248258 0 0 0 0 0 88263077.25531213 -12745658.94139612 -12745658.94139612 -3340076.732235647 0 0 0 0 0 85997087.3364301 -10994992.00855667 -10994992.00855667 -1708733.183841625 0 0 0 0 0 128862159.5654923 4223528.866409233 4223528.866409233 27436729.54839832 0 0 0 0 0 130051737.4533964 3094560.922410882 3094560.922410882 29734442.33552376 0 0 0 0 0 131450673.269426 2118970.981096443 2118970.981096443 31706796.48990032 0 0 0 0 0 131353308.8540413 2232452.589124457 2232452.589124457 32926726.78426902 0 0 0 0 0 132272277.8826312 130721.0142486374 130721.0142486374 32319380.64151905 0 0 0 0 0 127813376.65922 5199847.722240251 5199847.722240251 24822578.90527005 0 0 0 0 0 126869498.0232922 5969421.680564029 5969421.680564029 22030376.23292045 0 0 0 0 0 126005015.9771908 6524940.208458487 6524940.208458487 19157037.08672317 0 0 0 0 0 125208466.4080399 6866558.438179655 6866558.438179655 16287609.27821107 0 0 0 0 0 124461774.7924014 7006273.443372033 7006273.443372033 13492117.72294087 0 0 0 0 0 123748957.7392664 6962306.987112951 6962306.987112951 10824347.07443204 0 0 0 0 0 123054678.1129311 6757593.802847376 6757593.802847376 8324544.5193629 0 0 0 0 0 122367284.7321957 6417748.213751404 6417748.213751404 6018979.592673491 0 0 0 0 0 121679970.4021001 5970178.998018641 5970178.998018641 3922100.566385004 0 0 0 0 0 120985797.8174363 5439461.59113959 5439461.59113959 2039567.603235715 0 0 0 0 0 120282653.109602 4849561.634435037 4849561.634435037 372327.9057433603 0 0 0 0 0 119568776.7710754 4222424.210722468 4222424.210722468 -1086820.556369983 0 0 0 0 0 119502499.5178771 4074426.79803502 4074426.79803502 -1024013.717021043 0 0 0 0 0 119070548.4028633 2533117.379171928 2533117.379171928 -4045993.101043686 0 0 0 0 0 118238647.7874672 1868293.180545929 1868293.180545929 -4967348.566896497 0 0 0 0 0 117717658.9917246 1498297.437761828 1498297.437761828 -4904331.385665679 0 0 0 0 0 117244728.4991954 21267.39512881991 21267.39512881991 -7075246.153960897 0 0 0 0 0 96921909.76624243 -15408752.5738857 -15408752.5738857 -10490252.87032193 0 0 0 0 0 98878071.60687104 -14926529.92142523 -14926529.92142523 -11171494.56821211 0 0 0 0 0 100844952.37533 -14284741.17997384 -14284741.17997384 -11738113.61127046 0 0 0 0 0 95019514.0491232 -15724916.97370509 -15724916.97370509 -9716062.356852008 0 0 0 0 0 93192615.16218629 -15875398.79708781 -15875398.79708781 -8870372.568132006 0 0 0 0 0 91453617.24110188 -15873108.92488142 -15873108.92488142 -7976357.528515704 0 0 0 0 0 89821065.37173221 -15725160.628797 -15725160.628797 -7052737.735826328 0 0 0 0 0 102803294.2034447 -13481909.20305453 -13481909.20305453 -12171829.17138502 0 0 0 0 0 104731757.4195697 -12528912.84710836 -12528912.84710836 -12453778.29651619 0 0 0 0 0 106593210.1083849 -11439385.75649125 -11439385.75649125 -12567880.73289482 0 0 0 0 0 108360500.2561457 -10234715.6671195 -10234715.6671195 -12511343.12366427 0 0 0 0 0 110019303.6006199 -8921531.200394953 -8921531.200394953 -12259722.34808058 0 0 0 0 0 111533861.8217806 -7534863.153326271 -7534863.153326271 -11819090.32253711 0 0 0 0 0 112882395.5064283 -6102468.219150669 -6102468.219150669 -11193383.52944788 0 0 0 0 0 114054962.3282865 -4652063.868225781 -4652063.868225781 -10387955.26899222 0 0 0 0 0 115037675.749439 -3208552.179295554 -3208552.179295554 -9415543.330866983 0 0 0 0 0 115824292.3902275 -1799178.663824181 -1799178.663824181 -8291989.676476217 0 0 0 0 0 116413152.7754176 -449981.3624605407 -449981.3624605407 -7037546.182032257 0 0 0 0 0 90098561.90006179 -14698499.04906368 -14698499.04906368 -5397649.065494404 0 0 0 0 0 88747009.79881343 -14746911.55477151 -14746911.55477151 -5723794.573007727 0 0 0 0 0 89042515.47463675 -13725104.48560713 -13725104.48560713 -4285198.047091892 0 0 0 0 0 86915497.40312392 -11537569.50271179 -11537569.50271179 -2071738.524652059 0 0 0 0 0 87353574.03838198 -12122438.07091003 -12122438.07091003 -2693890.367141704 0 0 0 0 0 87803857.16957419 -12757697.22612275 -12757697.22612275 -3470400.205620962 0 0 0 0 0 87925819.88195606 -13705850.5336357 -13705850.5336357 -4586810.339101307 0 0 0 0 0 88239301.07424077 -13087971.33359161 -13087971.33359161 -4263516.620097322 0 0 0 0 0 127754047.9313114 5445457.970133092 5445457.970133092 27364497.86848472 0 0 0 0 0 128788632.8643203 4323852.170774757 4323852.170774757 29202264.19039378 0 0 0 0 0 129805943.9359046 3182339.833070792 3182339.833070792 30882930.64207157 0 0 0 0 0 129892656.8586107 1301122.134952611 1301122.134952611 31226557.77226737 0 0 0 0 0 130061584.4197892 1231374.50217416 1231374.50217416 32170171.60854105 0 0 0 0 0 126835658.5090456 6380792.988507218 6380792.988507218 25227350.81480368 0 0 0 0 0 126009521.218131 7110722.612194682 7110722.612194682 22853201.06373931 0 0 0 0 0 125257467.9716271 7621544.150218984 7621544.150218984 20349130.40712886 0 0 0 0 0 124559507.1508561 7919562.466187662 7919562.466187662 17784873.16142233 0 0 0 0 0 123896642.8639273 8018038.098077224 8018038.098077224 15228378.51645799 0 0 0 0 0 123250568.73797 7935934.545426262 7935934.545426262 12736643.008339 0 0 0 0 0 122609206.7234694 7696835.463873209 7696835.463873209 10352476.21184038 0 0 0 0 0 121963021.1143109 7326001.167107606 7326001.167107606 8106722.08786107 0 0 0 0 0 121304454.6195517 6849109.423963866 6849109.423963866 6020867.339930427 0 0 0 0 0 120630968.8473537 6291129.308040935 6291129.308040935 4110059.275116305 0 0 0 0 0 119939506.0434183 5674779.070610275 5674779.070610275 2381603.833603491 0 0 0 0 0 119231735.0384202 5021127.653617066 5021127.653617066 836021.1795638719 0 0 0 0 0 118846015.1126241 3577122.844939334 3577122.844939334 -2347508.165559989 0 0 0 0 0 118662438.0700144 3354068.495661662 3354068.495661662 -2275196.129787167 0 0 0 0 0 117833012.6189712 2654558.686311683 2654558.686311683 -3334531.132267723 0 0 0 0 0 117402503.7281665 1217875.768936694 1217875.768936694 -5737131.313585489 0 0 0 0 0 116807843.1969013 815965.0889791879 815965.0889791879 -5675310.689977683 0 0 0 0 0 98862515.23938909 -14555814.7753418 -14555814.7753418 -9479513.967419909 0 0 0 0 0 100766008.3070328 -14089730.22782511 -14089730.22782511 -10159782.03289562 0 0 0 0 0 102658803.079399 -13474726.88405365 -13474726.88405365 -10746148.91770512 0 0 0 0 0 96980718.46599068 -14869024.29494624 -14869024.29494624 -8731717.54962937 0 0 0 0 0 95143632.85773003 -15032657.70314458 -15032657.70314458 -7934001.501895658 0 0 0 0 0 93372161.30976214 -15054063.06223385 -15054063.06223385 -7100599.254476723 0 0 0 0 0 91684672.38417946 -14940335.67146749 -14940335.67146749 -6251186.928713962 0 0 0 0 0 104518516.3654102 -12714805.56697926 -12714805.56697926 -11220951.84748957 0 0 0 0 0 106318766.3097259 -11817812.09921149 -11817812.09921149 -11571679.72212784 0 0 0 0 0 108030948.449808 -10796932.94072039 -10796932.94072039 -11778924.31433835 0 0 0 0 0 109636507.2767869 -9669261.423860826 -9669261.423860826 -11832364.44679352 0 0 0 0 0 111106231.2624432 -8449706.862833256 -8449706.862833256 -11721933.93208507 0 0 0 0 0 112428039.4952924 -7160145.694856916 -7160145.694856916 -11437947.99527732 0 0 0 0 0 113582513.9234784 -5825770.107929867 -5825770.107929867 -10977693.28233013 0 0 0 0 0 114552131.9412297 -4480320.227531043 -4480320.227531043 -10352787.00351303 0 0 0 0 0 115336469.5305168 -3141350.545663332 -3141350.545663332 -9565288.913722973 0 0 0 0 0 115933625.3685225 -1833916.454310413 -1833916.454310413 -8626790.861813234 0 0 0 0 0 116346178.8988748 -580933.4091436303 -580933.4091436303 -7551762.746109942 0 0 0 0 0 90155601.46555418 -15028096.25371714 -15028096.25371714 -6602324.188693137 0 0 0 0 0 90421728.01465626 -14051876.36814035 -14051876.36814035 -5051611.742433907 0 0 0 0 0 89160616.57835551 -14094012.7867958 -14094012.7867958 -5357513.198436637 0 0 0 0 0 87336974.98605105 -11184811.34394012 -11184811.34394012 -2253516.957799946 0 0 0 0 0 87792826.20030674 -11754704.99547693 -11754704.99547693 -2843464.074215371 0 0 0 0 0 88251815.83391304 -12420923.4670811 -12420923.4670811 -3478768.017212004 0 0 0 0 0 89507850.08216757 -13102945.81781673 -13102945.81781673 -4019953.698264075 0 0 0 0 0 89530350.74409148 -12722633.70596035 -12722633.70596035 -3719591.519910701 0 0 0 0 0 125878884.2937931 4531502.189855255 4531502.189855255 25976277.94394256 0 0 0 0 0 126802254.9746178 3469714.884862543 3469714.884862543 28182476.38484535 0 0 0 0 0 128001308.5157612 2408978.253939996 2408978.253939996 30030677.43756718 0 0 0 0 0 127971225.1601425 2233251.429904866 2233251.429904866 30950440.18219052 0 0 0 0 0 128430368.2528483 149025.6060895422 149025.6060895422 31017934.08640118 0 0 0 0 0 125078308.69401 5437127.944378853 5437127.944378853 23514015.11807114 0 0 0 0 0 124344621.7579519 6148336.732439366 6148336.732439366 20906743.2028296 0 0 0 0 0 123681589.1818131 6654096.091617854 6654096.091617854 18239439.03294132 0 0 0 0 0 123068602.2361588 6960808.260434594 6960808.260434594 15583357.16720264 0 0 0 0 0 122490221.8132261 7081185.089117603 7081185.089117603 12998625.07001231 0 0 0 0 0 121929408.8777388 7032561.501953311 7032561.501953311 10531939.72828624 0 0 0 0 0 121374921.2067725 6836886.3740864 6836886.3740864 8215939.941247894 0 0 0 0 0 120817901.7649704 6517319.41930617 6517319.41930617 6072722.900930996 0 0 0 0 0 120251963.212232 6098011.016671751 6098011.016671751 4115534.50445699 0 0 0 0 0 119673317.3868445 5602380.228350696 5602380.228350696 2351250.604951242 0 0 0 0 0 119078191.8493248 5051050.048828332 5051050.048828332 779742.1851338204 0 0 0 0 0 118467197.8254329 4463454.151008098 4463454.151008098 -604397.4811687801 0 0 0 0 0 118510534.092414 4349134.116247245 4349134.116247245 -531173.1775232918 0 0 0 0 0 118122990.9524152 2933895.783952191 2933895.783952191 -3409736.27515712 0 0 0 0 0 117389114.4681962 2299999.567249173 2299999.567249173 -4310353.077585095 0 0 0 0 0 117015137.316765 1977487.876775799 1977487.876775799 -4233196.262085131 0 0 0 0 0 116580657.1426923 596191.6402816847 596191.6402816847 -6359167.195576681 0 0 0 0 0 98539451.69819815 -14431058.62781501 -14431058.62781501 -10554984.61162639 0 0 0 0 0 96730162.50736882 -14841014.62858706 -14841014.62858706 -9882134.204495179 0 0 0 0 0 100377569.5674066 -13866795.2588447 -13866795.2588447 -11125231.86455658 0 0 0 0 0 102212263.2082235 -13158388.21470034 -13158388.21470034 -11582559.12434969 0 0 0 0 0 94969528.60158843 -15100104.59297321 -15100104.59297321 -9131553.097345293 0 0 0 0 0 93274477.13665283 -15213390.94151373 -15213390.94151373 -8323643.040324789 0 0 0 0 0 91664271.62268773 -15186614.80832949 -15186614.80832949 -7474171.521471932 0 0 0 0 0 104021936.367592 -12307294.76588239 -12307294.76588239 -11904168.88603084 0 0 0 0 0 105781999.6810795 -11326034.62023569 -11326034.62023569 -12077764.21692325 0 0 0 0 0 107464718.5010325 -10232097.17811291 -10232097.17811291 -12094234.45928644 0 0 0 0 0 109052984.3854167 -9035731.327039886 -9035731.327039886 -11938323.08465849 0 0 0 0 0 110521747.8888012 -7757395.479452036 -7757395.479452036 -11607786.35759519 0 0 0 0 0 111848091.213623 -6424800.458622457 -6424800.458622457 -11106266.38144755 0 0 0 0 0 113010985.3419599 -5067134.582814921 -5067134.582814921 -10437038.87139712 0 0 0 0 0 114004777.4727554 -3704953.488845779 -3704953.488845779 -9608270.235151678 0 0 0 0 0 114822365.966996 -2361407.901595858 -2361407.901595858 -8631263.078489162 0 0 0 0 0 115459179.9195431 -1061249.646587475 -1061249.646587475 -7523522.908367897 0 0 0 0 0 115915793.0244628 173431.7940441367 173431.7940441367 -6304295.260239413 0 0 0 0 0 91886505.3245893 -14299697.88289377 -14299697.88289377 -5860225.16480142 0 0 0 0 0 90482881.11995119 -14370729.61489817 -14370729.61489817 -6187710.313934949 0 0 0 0 0 90730149.21670368 -13438574.35917195 -13438574.35917195 -4708283.648806438 0 0 0 0 0 88207832.46012297 -11682745.77020715 -11682745.77020715 -2714781.823370257 0 0 0 0 0 88810574.13405409 -12290285.74746727 -12290285.74746727 -3269594.93510706 0 0 0 0 0 89554245.27574646 -13484477.33932415 -13484477.33932415 -4995750.724553855 0 0 0 0 0 89485811.94073394 -12538742.87862446 -12538742.87862446 -4167567.588409011 0 0 0 0 0 124967949.2943299 5547117.915295231 5547117.915295231 25970813.21767067 0 0 0 0 0 125736790.8603488 4506614.410211045 4506614.410211045 27734482.6043961 0 0 0 0 0 126614348.0355181 3357576.466403431 3357576.466403431 29485132.40644388 0 0 0 0 0 126516911.8483339 1346663.919484866 1346663.919484866 29903695.45320103 0 0 0 0 0 126619393.5548806 1066876.069226894 1066876.069226894 30595649.34592497 0 0 0 0 0 124267966.0698806 6426559.601990142 6426559.601990142 23900502.36498977 0 0 0 0 0 123643943.4429741 7101483.070794478 7101483.070794478 21684969.70515025 0 0 0 0 0 123076526.4045093 7573589.003932029 7573589.003932029 19352051.0871717 0 0 0 0 0 122546140.0661445 7848818.218459402 7848818.218459402 16973288.73173145 0 0 0 0 0 122034448.2155294 7939644.367864441 7939644.367864441 14607897.79506448 0 0 0 0 0 121527978.7092034 7864992.750445176 7864992.750445176 12302365.82913979 0 0 0 0 0 121016428.3122706 7646304.898086394 7646304.898086394 10094204.75419708 0 0 0 0 0 120491495.8314439 7305630.938988593 7305630.938988593 8009694.384256494 0 0 0 0 0 119947801.8418951 6866267.075295337 6866267.075295337 6067336.006551367 0 0 0 0 0 119381867.2922956 6351574.459526163 6351574.459526163 4281531.085166431 0 0 0 0 0 118793751.8755409 5781072.376678967 5781072.376678967 2660804.683608052 0 0 0 0 0 118185380.9039602 5174370.442260429 5174370.442260429 1202044.478513711 0 0 0 0 0 117842683.7475269 3857799.065001965 3857799.065001965 -1807646.881297498 0 0 0 0 0 117773496.7373165 3671963.745621581 3671963.745621581 -1725329.992942441 0 0 0 0 0 117040227.507059 3011078.020176792 3011078.020176792 -2747601.346194557 0 0 0 0 0 116648567.417388 1679097.437472865 1679097.437472865 -5070254.646265893 0 0 0 0 0 116197281.9681828 1322870.561299709 1322870.561299709 -4995540.334347264 0 0 0 0 0 100325141.9461124 -13637610.83355403 -13637610.83355403 -9590663.289681815 0 0 0 0 0 98551376.80003932 -14038922.51627945 -14038922.51627945 -8931434.627391882 0 0 0 0 0 102096813.8024049 -13097507.11536619 -13097507.11536619 -10173788.67003385 0 0 0 0 0 103848665.5438192 -12422679.63757208 -12422679.63757208 -10661038.30549324 0 0 0 0 0 96800267.67652215 -14300648.81238274 -14300648.81238274 -8212502.167667457 0 0 0 0 0 95094679.59620726 -14427220.25442088 -14427220.25442088 -7449157.145889122 0 0 0 0 0 93450394.60961123 -14424151.51350611 -14424151.51350611 -6659153.855897998 0 0 0 0 0 105549329.9320982 -11618941.03328798 -11618941.03328798 -11036188.01551348 0 0 0 0 0 107179635.4622167 -10696676.64978027 -10696676.64978027 -11285978.76278872 0 0 0 0 0 108717498.521258 -9670673.570291121 -9670673.570291121 -11398187.70531645 0 0 0 0 0 110139401.7608978 -8555142.089172475 -8555142.089172475 -11362980.2610456 0 0 0 0 0 111429563.8728472 -7365912.162319314 -7365912.162319314 -11170812.38873907 0 0 0 0 0 112571135.5952781 -6126327.274042176 -6126327.274042176 -10819302.23611359 0 0 0 0 0 113551861.4169953 -4861743.351707656 -4861743.351707656 -10311199.55950825 0 0 0 0 0 114362397.6242764 -3595816.225332205 -3595816.225332205 -9651030.820237074 0 0 0 0 0 115001765.1605661 -2347522.32579995 -2347522.32579995 -8845855.441385241 0 0 0 0 0 115470103.2744068 -1138917.578453862 -1138917.578453862 -7907451.765604033 0 0 0 0 0 115772055.2068988 10360.66769280179 10360.66769280179 -6850402.079386111 0 0 0 0 0 91871789.3752377 -14536435.38149629 -14536435.38149629 -7009984.617760329 0 0 0 0 0 92083934.51229836 -13697353.62267648 -13697353.62267648 -5503843.3439525 0 0 0 0 0 90810952.85611789 -13744113.59441792 -13744113.59441792 -5810398.117640936 0 0 0 0 0 88708990.49822773 -11265049.36297713 -11265049.36297713 -2764885.453763965 0 0 0 0 0 89292357.63285664 -11796920.25640167 -11796920.25640167 -3371665.915215522 0 0 0 0 0 90931299.174762 -12872881.31346335 -12872881.31346335 -4533050.229926793 0 0 0 0 0 90613388.36441298 -12265554.73935207 -12265554.73935207 -3742106.910718784 0 0 0 0 0 90549038.25743818 -12791237.97419819 -12791237.97419819 -4653634.452091974 0 0 0 0 0 124012029.8882687 3714700.965373596 3714700.965373596 26677631.10889284 0 0 0 0 0 123360067.4427463 4718832.189359262 4718832.189359262 24584195.74476473 0 0 0 0 0 125093486.4113588 2565737.295878661 2565737.295878661 28464287.35253178 0 0 0 0 0 125006799.0157598 2235250.543729011 2235250.543729011 29613328.6847945 0 0 0 0 0 125240582.8871738 167649.8342350938 167649.8342350938 29566750.70358519 0 0 0 0 0 122715709.0461121 5568342.582175961 5568342.582175961 22270510.59885769 0 0 0 0 0 122158449.7631851 6220602.674517193 6220602.674517193 19843239.95980712 0 0 0 0 0 121652902.352404 6683442.73770343 6683442.73770343 17369650.40474068 0 0 0 0 0 121183300.3229305 6962104.60269065 6962104.60269065 14912463.84101412 0 0 0 0 0 120736092.8228887 7069431.951476843 7069431.951476843 12523569.21367924 0 0 0 0 0 120295979.6984947 7021528.207888016 7021528.207888016 10242079.49640815 0 0 0 0 0 119854181.0476452 6838934.804123483 6838934.804123483 8095241.879118508 0 0 0 0 0 119402998.0049741 6541806.75069508 6541806.75069508 6100417.480411478 0 0 0 0 0 118938782.8775127 6152992.383802557 6152992.383802557 4272911.934680962 0 0 0 0 0 118456084.1072094 5694029.287016833 5694029.287016833 2619638.674990496 0 0 0 0 0 117952323.6102515 5180717.497594941 5180717.497594941 1137753.614536796 0 0 0 0 0 117429172.7461331 4632789.818683765 4632789.818683765 -175438.8751490089 0 0 0 0 0 117559907.8241303 4548698.076114963 4548698.076114963 -95962.91098707539 0 0 0 0 0 117212348.9464679 3250986.291088527 3250986.291088527 -2831968.841181751 0 0 0 0 0 116566004.5230682 2650069.782934214 2650069.782934214 -3708580.350791174 0 0 0 0 0 116310800.3941817 2369121.285172355 2369121.285172355 -3623540.873959557 0 0 0 0 0 115914948.4414068 1081981.288711932 1081981.288711932 -5692890.36921428 0 0 0 0 0 98258736.77645078 -13938678.42188258 -13938678.42188258 -9967522.441934485 0 0 0 0 0 99970289.38326588 -13448518.78256813 -13448518.78256813 -10538723.0776413 0 0 0 0 0 96575652.95405766 -14289750.77683885 -14289750.77683885 -9311635.687515592 0 0 0 0 0 101686967.2860011 -12822082.09438226 -12822082.09438226 -11008933.06017444 0 0 0 0 0 103389719.8996311 -12062288.67593257 -12062288.67593257 -11359651.55707499 0 0 0 0 0 94938900.01279694 -14502835.67509309 -14502835.67509309 -8588953.537124192 0 0 0 0 0 93365252.92379129 -14582784.82163703 -14582784.82163703 -7816047.706917176 0 0 0 0 0 105050633.1955745 -11180261.03357024 -11180261.03357024 -11580634.29648537 0 0 0 0 0 106650433.9747666 -10187347.49113201 -10187347.49113201 -11658703.87924678 0 0 0 0 0 108167068.0640856 -9097468.458172945 -9097468.458172945 -11584822.82862289 0 0 0 0 0 109580655.3303183 -7926363.940029811 -7926363.940029811 -11352741.03693848 0 0 0 0 0 110873435.5895007 -6694030.829822756 -6694030.829822756 -10959088.88934282 0 0 0 0 0 112027530.3915971 -5422327.315724477 -5422327.315724477 -10405394.68619375 0 0 0 0 0 113026187.662297 -4140921.779780197 -4140921.779780197 -9704826.07310741 0 0 0 0 0 113864942.8428889 -2866226.403877302 -2866226.403877302 -8862067.81282291 0 0 0 0 0 114538847.164979 -1620299.062516999 -1620299.062516999 -7890003.991225651 0 0 0 0 0 115046759.6303476 -424026.7131785497 -424026.7131785497 -6805098.272047892 0 0 0 0 0 115391204.3981529 703535.7842587651 703535.7842587651 -5625722.212886378 0 0 0 0 0 93536941.23782343 -13825886.29042158 -13825886.29042158 -6250233.628637742 0 0 0 0 0 92071581.23186383 -13920700.9741363 -13920700.9741363 -6580978.518004504 0 0 0 0 0 92284610.51572062 -13129152.44574217 -13129152.44574217 -5222127.279765933 0 0 0 0 0 89494839.63024662 -11729315.24776475 -11729315.24776475 -3312819.395599909 0 0 0 0 0 90075557.55320597 -12250105.66856537 -12250105.66856537 -3878327.097315749 0 0 0 0 0 91165524.51623371 -13195072.88424078 -13195072.88424078 -5471359.93571505 0 0 0 0 0 90494026.80787803 -12368698.14498799 -12368698.14498799 -4651419.50964134 0 0 0 0 0 91442830.10524791 -12372767.50285421 -12372767.50285421 -4443397.587062988 0 0 0 0 0 123182585.6586084 4577702.119387094 4577702.119387094 26409170.2028943 0 0 0 0 0 122578977.6706744 5582699.575894108 5582699.575894108 24569085.90609835 0 0 0 0 0 123857956.1410945 3470055.361611028 3470055.361611028 27957662.39365442 0 0 0 0 0 123810890.6236262 1417494.515696527 1417494.515696527 28503906.50767869 0 0 0 0 0 123822459.4828275 951855.4511796681 951855.4511796681 29096553.23137616 0 0 0 0 0 122050313.1849386 6394766.651730258 6394766.651730258 22651375.14409457 0 0 0 0 0 121585103.8417942 7020618.851043099 7020618.851043099 20572795.73017295 0 0 0 0 0 121161043.5606093 7458877.974759013 7458877.974759013 18405123.34554936 0 0 0 0 0 120760649.5249776 7715494.846791732 7715494.846791732 16202170.09730657 0 0 0 0 0 120367027.3107201 7802206.973423528 7802206.973423528 14013045.54700127 0 0 0 0 0 119972167.8153169 7737051.103743823 7737051.103743823 11879019.16908546 0 0 0 0 0 119565722.1721576 7539794.945974228 7539794.945974228 9830267.03683668 0 0 0 0 0 119140510.9758998 7228872.163706875 7228872.163706875 7895495.548094559 0 0 0 0 0 118691516.6438291 6826523.618863385 6826523.618863385 6086297.386299856 0 0 0 0 0 118217159.0825342 6354349.748847106 6354349.748847106 4416480.606393863 0 0 0 0 0 117716846.9345399 5828057.750822699 5828057.750822699 2896792.383948668 0 0 0 0 0 117196260.1112638 5267712.314432102 5267712.314432102 1520248.380020711 0 0 0 0 0 116898002.7046633 4071154.285977675 4071154.285977675 -1318700.613493422 0 0 0 0 0 116911647.2785037 3915945.941477264 3915945.941477264 -1233949.582676449 0 0 0 0 0 116263675.2731714 3294410.112883515 3294410.112883515 -2214014.26642319 0 0 0 0 0 115911246.9826864 2061293.336879771 2061293.336879771 -4453865.258297585 0 0 0 0 0 115577897.0086732 1745636.764541999 1745636.764541999 -4372179.563922989 0 0 0 0 0 99937273.18698218 -13191894.30074734 -13191894.30074734 -9057820.799048385 0 0 0 0 0 101597601.6519572 -12718654.91871932 -12718654.91871932 -9630942.757392406 0 0 0 0 0 98281769.12250274 -13537290.45364318 -13537290.45364318 -8418726.997601109 0 0 0 0 0 103242996.8284356 -12120122.16551956 -12120122.16551956 -10122142.29538668 0 0 0 0 0 104850873.6360524 -11400982.79189634 -11400982.79189634 -10516173.0501947 0 0 0 0 0 96651534.33534634 -13754980.38161044 -13754980.38161044 -7727659.738653519 0 0 0 0 0 95065005.20473006 -13848463.23511956 -13848463.23511956 -6999257.703305474 0 0 0 0 0 106402680.6215616 -10567960.38721286 -10567960.38721286 -10797370.02259864 0 0 0 0 0 107875286.0149255 -9633745.213123161 -9633745.213123161 -10955834.84128346 0 0 0 0 0 109247198.3138689 -8612597.530831635 -8612597.530831635 -10981753.15538096 0 0 0 0 0 110501495.5638023 -7520024.104847389 -7520024.104847389 -10867392.41243271 0 0 0 0 0 111623854.8988162 -6373148.153351387 -6373148.153351387 -10610000.76549623 0 0 0 0 0 112603660.6123508 -5190019.46501941 -5190019.46501941 -10205897.71590353 0 0 0 0 0 113432496.0074007 -3996774.261388183 -3996774.261388183 -9658535.954300568 0 0 0 0 0 114104325.1183891 -2810785.483797118 -2810785.483797118 -8973730.839069337 0 0 0 0 0 114618750.8037352 -1651115.593604859 -1651115.593604859 -8159877.136790831 0 0 0 0 0 114978252.0004583 -536247.8972032295 -536247.8972032295 -7228330.898073637 0 0 0 0 0 115187447.7147467 515842.6192337592 515842.6192337592 -6194526.080425251 0 0 0 0 0 93461548.37302522 -13982353.2016065 -13982353.2016065 -7344882.424579373 0 0 0 0 0 93628955.26746696 -13257588.97692482 -13257588.97692482 -5878024.218939031 0 0 0 0 0 92288310.49459346 -13344518.05004288 -13344518.05004288 -6180475.305119894 0 0 0 0 0 90142152.25650209 -11255999.42892434 -11255999.42892434 -3224683.950843916 0 0 0 0 0 90596125.03515026 -11796430.13601047 -11796430.13601047 -3920422.801487677 0 0 0 0 0 92494749.88118124 -12609925.80415748 -12609925.80415748 -4886196.35051487 0 0 0 0 0 91757816.74467875 -12029349.98348041 -12029349.98348041 -4163465.990905374 0 0 0 0 0 91606330.07148945 -12565148.15249189 -12565148.15249189 -5132038.018051824 0 0 0 0 0 122423272.5374964 2692075.043960754 2692075.043960754 26970668.04937363 0 0 0 0 0 121771730.2949479 3852782.238185042 3852782.238185042 25280746.05694443 0 0 0 0 0 121155572.2344679 4832494.463864289 4832494.463864289 23261195.82036491 0 0 0 0 0 122464601.9774266 2247031.510808554 2247031.510808554 27897187.87175359 0 0 0 0 0 122577756.710701 226120.0358365256 226120.0358365256 28460652.70292607 0 0 0 0 0 120677652.5169748 5611876.549202227 5611876.549202227 21096562.14240847 0 0 0 0 0 120255816.8995684 6213935.026094395 6213935.026094395 18837439.26814563 0 0 0 0 0 119872850.8865684 6639781.441432538 6639781.441432538 16544805.73097805 0 0 0 0 0 119514910.9256532 6896023.276864353 6896023.276864353 14273650.81292713 0 0 0 0 0 119168887.8521702 6994444.922223303 6994444.922223303 12065944.75656085 0 0 0 0 0 118825487.58837 6950765.511158293 6950765.511158293 9953791.295757899 0 0 0 0 0 118476161.7396989 6784309.992879927 6784309.992879927 7962272.227980783 0 0 0 0 0 118110416.831024 6509234.497004915 6509234.497004915 6104417.476981457 0 0 0 0 0 117730129.8783578 6152132.476680947 6152132.476680947 4398316.462994315 0 0 0 0 0 117329994.4617787 5729668.731062094 5729668.731062094 2848529.038975747 0 0 0 0 0 116902030.6087354 5253097.207183314 5253097.207183314 1451308.092331139 0 0 0 0 0 116457731.0586666 4745351.427404768 4745351.427404768 209762.7299312052 0 0 0 0 0 116647951.7872161 4686634.972790644 4686634.972790644 290984.460802192 0 0 0 0 0 116344970.32399 3502542.598873472 3502542.598873472 -2300432.11162508 0 0 0 0 0 115772656.8207235 2933623.236313172 2933623.236313172 -3153126.313886751 0 0 0 0 0 115614744.2297191 2688231.670381163 2688231.670381163 -3064878.95460487 0 0 0 0 0 115254514.6870147 1490143.595491963 1490143.595491963 -5075030.925275804 0 0 0 0 0 98016761.66276373 -13459155.19877608 -13459155.19877608 -9414461.289017981 0 0 0 0 0 99613779.56138831 -13031968.44095478 -13031968.44095478 -9978779.444613811 0 0 0 0 0 101221567.6835077 -12478809.29063634 -12478809.29063634 -10455549.95632787 0 0 0 0 0 96448822.10731633 -13758514.39087351 -13758514.39087351 -8777072.336357633 0 0 0 0 0 102820095.7567281 -11802264.33782363 -11802264.33782363 -10828818.73128561 0 0 0 0 0 104388703.8776038 -11008648.73401487 -11008648.73401487 -11085773.88138057 0 0 0 0 0 94926478.07818393 -13931259.55022702 -13931259.55022702 -8082139.860426093 0 0 0 0 0 105909323.8718588 -10108634.78960201 -10108634.78960201 -11215481.12927286 0 0 0 0 0 107356996.6813639 -9114753.410597589 -9114753.410597589 -11208145.57621529 0 0 0 0 0 108713944.6027689 -8042795.4766955 -8042795.4766955 -11057840.92342964 0 0 0 0 0 109967113.6268644 -6905957.355637033 -6905957.355637033 -10758228.14580702 0 0 0 0 0 111102737.9960766 -5723090.222932063 -5723090.222932063 -10310362.85233887 0 0 0 0 0 112100220.4992654 -4520189.967715841 -4520189.967715841 -9722646.176275885 0 0 0 0 0 112952623.5742402 -3315315.948340546 -3315315.948340546 -9000449.086242493 0 0 0 0 0 113654714.6936355 -2126970.360857245 -2126970.360857245 -8152784.998098261 0 0 0 0 0 114204107.9354671 -974711.3236043258 -974711.3236043258 -7193075.336577163 0 0 0 0 0 114602142.4075101 123749.568248921 123749.568248921 -6135537.049620293 0 0 0 0 0 114852318.4858652 1151977.256742493 1151977.256742493 -4997736.829426518 0 0 0 0 0 95053273.89119472 -13295267.64242066 -13295267.64242066 -6581983.490458899 0 0 0 0 0 93566059.97295667 -13413172.77189728 -13413172.77189728 -6905920.243171083 0 0 0 0 0 93723485.25182971 -12732725.48368978 -12732725.48368978 -5529238.565848759 0 0 0 0 0 90827128.58527173 -11704134.65959941 -11704134.65959941 -3823250.266835518 0 0 0 0 0 92547216.2015762 -12798628.68484917 -12798628.68484917 -5800351.46898242 0 0 0 0 0 91582752.90133655 -12019651.18961802 -12019651.18961802 -4746012.482809837 0 0 0 0 0 92824125.32061957 -12006349.08783298 -12006349.08783298 -4598219.326416992 0 0 0 0 0 121483728.10653 3492267.626659491 3492267.626659491 26651521.8038733 0 0 0 0 0 120990526.9963426 4611692.057858835 4611692.057858835 24815272.30765765 0 0 0 0 0 120516359.1891828 5543641.752128372 5543641.752128372 23264600.63091989 0 0 0 0 0 121335914.9820764 1481691.948963441 1481691.948963441 26823150.42376752 0 0 0 0 0 121365892.3842107 973916.2770154116 973916.2770154116 27717157.67153178 0 0 0 0 0 120127006.2398909 6305842.643768135 6305842.643768135 21457127.57375179 0 0 0 0 0 119784034.4783738 6890533.932896125 6890533.932896125 19522624.06843771 0 0 0 0 0 119468659.9803028 7299131.980886066 7299131.980886066 17510239.7322386 0 0 0 0 0 119168742.7841052 7539161.623653875 7539161.623653875 15468984.64036498 0 0 0 0 0 118871089.0419349 7623684.858165218 7623684.858165218 13440337.92536767 0 0 0 0 0 118565485.2827891 7568558.215363806 7568558.215363806 11463019.57382816 0 0 0 0 0 118245692.7979501 7392824.475326863 7392824.475326863 9563120.572289784 0 0 0 0 0 117900303.4860584 7110770.100889939 7110770.100889939 7776452.265513379 0 0 0 0 0 117530311.5689948 6745234.38718529 6745234.38718529 6087351.172279791 0 0 0 0 0 117132861.8887215 6312553.618646863 6312553.618646863 4522814.349074072 0 0 0 0 0 116708306.3412954 5829797.686812001 5829797.686812001 3095133.02836326 0 0 0 0 0 116260954.1662659 5312649.101307264 5312649.101307264 1797942.589203846 0 0 0 0 0 115999588.0790717 4224759.388123232 4224759.388123232 -875757.1792922461 0 0 0 0 0 116084559.0085321 4101088.001816591 4101088.001816591 -788033.1846695727 0 0 0 0 0 115514317.9811304 3519205.189735401 3519205.189735401 -1729120.149716521 0 0 0 0 0 115189529.8796217 2373593.674306468 2373593.674306468 -3887650.267745561 0 0 0 0 0 114962005.1471429 2096676.240316577 2096676.240316577 -3797516.377411676 0 0 0 0 0 99594931.68441463 -12756191.73032805 -12756191.73032805 -8556482.984810183 0 0 0 0 0 101150993.5352386 -12341654.74753786 -12341654.74753786 -9117122.219636612 0 0 0 0 0 102699226.8281224 -11810932.23733963 -11810932.23733963 -9606846.372549266 0 0 0 0 0 98048232.6579562 -13052788.74695389 -13052788.74695389 -7938623.885533407 0 0 0 0 0 104218076.4221724 -11166732.06745251 -11166732.06745251 -10011374.00118781 0 0 0 0 0 105689211.0088841 -10416941.19408563 -10416941.19408563 -10317716.25515716 0 0 0 0 0 96529503.99040836 -13231321.42392935 -13231321.42392935 -7276510.413297299 0 0 0 0 0 107093407.4890784 -9569793.591872316 -9569793.591872316 -10515762.95963315 0 0 0 0 0 108413978.6480917 -8635744.494797956 -8635744.494797956 -10593964.59030418 0 0 0 0 0 109633509.3502874 -7630488.697780542 -7630488.697780542 -10544901.2631363 0 0 0 0 0 110736168.6082674 -6568461.232659379 -6568461.232659379 -10364161.01346552 0 0 0 0 0 111709079.7224906 -5467898.298463734 -5467898.298463734 -10049996.87359644 0 0 0 0 0 112547769.7604354 -4346653.136647736 -4346653.136647736 -9602021.907757951 0 0 0 0 0 113243732.0562674 -3224343.814108033 -3224343.814108033 -9024835.498497592 0 0 0 0 0 113795341.3131131 -2116809.166018752 -2116809.166018752 -8323501.428529402 0 0 0 0 0 114203405.4720816 -1041506.317261264 -1041506.317261264 -7507375.781099658 0 0 0 0 0 114470291.7267973 -15921.43229135643 -15921.43229135643 -6589570.100488353 0 0 0 0 0 114602248.8312584 945372.1189056768 945372.1189056768 -5583505.898538696 0 0 0 0 0 94931830.46336651 -13385334.61624379 -13385334.61624379 -7609792.178116859 0 0 0 0 0 95058718.27255419 -12767190.16210503 -12767190.16210503 -6184042.620343527 0 0 0 0 0 93663722.25523841 -12876869.71904219 -12876869.71904219 -6488503.472595165 0 0 0 0 0 91533542.43338872 -11179463.05891504 -11179463.05891504 -3655704.532715629 0 0 0 0 0 93843749.76814511 -12222368.71083428 -12222368.71083428 -5201777.109627053 0 0 0 0 0 92744697.56919862 -11558384.66649623 -11558384.66649623 -4232487.954288748 0 0 0 0 0 92766617.41496743 -12239968.28763215 -12239968.28763215 -5461770.336180172 0 0 0 0 0 120249262.9188485 2831286.213297592 2831286.213297592 25789498.55071174 0 0 0 0 0 119681133.4489607 3993344.604215581 3993344.604215581 23916987.21289708 0 0 0 0 0 119279612.5575245 4869092.789633985 4869092.789633985 22009687.94555502 0 0 0 0 0 120235312.4779157 2019371.478646145 2019371.478646145 27223187.42875662 0 0 0 0 0 120234814.4964672 241048.2675928113 241048.2675928113 26528181.01359544 0 0 0 0 0 118914297.1260778 5593636.2245555 5593636.2245555 19986044.93119425 0 0 0 0 0 118592065.5584766 6151382.159488117 6151382.159488117 17891048.06990828 0 0 0 0 0 118299067.2060023 6544562.828352974 6544562.828352974 15771107.82771434 0 0 0 0 0 118028530.7186833 6781960.136535804 6781960.136535804 13669839.47887061 0 0 0 0 0 117765758.6509916 6874535.597208207 6874535.597208207 11625996.7013243 0 0 0 0 0 117498953.6042418 6836101.184895504 6836101.184895504 9666537.283688275 0 0 0 0 0 117230094.0906909 6689273.458160284 6689273.458160284 7818287.234024003 0 0 0 0 0 116928999.9368969 6435584.599071671 6435584.599071671 6092261.449549271 0 0 0 0 0 116616156.0355815 6107976.00363771 6107976.00363771 4496588.931862935 0 0 0 0 0 116288228.9231396 5721107.265304123 5721107.265304123 3042848.017921353 0 0 0 0 0 115923063.2760265 5280502.600995168 5280502.600995168 1726475.544844267 0 0 0 0 0 115544656.0142792 4810775.039651854 4810775.039651854 549970.8371485189 0 0 0 0 0 115783461.9609458 4774556.526414829 4774556.526414829 631916.3146790235 0 0 0 0 0 115516839.5427267 3693877.405608559 3693877.405608559 -1820186.246378965 0 0 0 0 0 115006767.3200521 3155999.137256808 3155999.137256808 -2652879.104609979 0 0 0 0 0 114939228.4084966 2945210.003724174 2945210.003724174 -2556601.436455874 0 0 0 0 0 114606963.6332179 1829607.160015063 1829607.160015063 -4505089.945630861 0 0 0 0 0 97808013.50770147 -12993761.25301823 -12993761.25301823 -8893938.428288339 0 0 0 0 0 99299847.6740557 -12621696.14709214 -12621696.14709214 -9448279.576893035 0 0 0 0 0 100806145.5147699 -12133356.79886147 -12133356.79886147 -9926492.938434253 0 0 0 0 0 102309314.5098255 -11529975.71587508 -11529975.71587508 -10313931.99180064 0 0 0 0 0 96347893.98861046 -13247795.48270994 -13247795.48270994 -8276469.095825222 0 0 0 0 0 103789944.3304123 -10818541.64194352 -10818541.64194352 -10599083.72214847 0 0 0 0 0 105229948.0571106 -10004608.27903632 -10004608.27903632 -10768814.80408609 0 0 0 0 0 106613396.6917328 -9098241.740724709 -9098241.740724709 -10814476.73124933 0 0 0 0 0 107920441.4343437 -8114414.877770828 -8114414.877770828 -10731550.85776234 0 0 0 0 0 109134028.6919223 -7066226.742981124 -7066226.742981124 -10514261.80797177 0 0 0 0 0 110239764.9995723 -5971689.239253784 -5971689.239253784 -10162229.19895282 0 0 0 0 0 111227209.5779708 -4846636.629816321 -4846636.629816321 -9675994.78596773 0 0 0 0 0 112085262.499619 -3711387.490675606 -3711387.490675606 -9062231.029730517 0 0 0 0 0 112807369.8366329 -2582702.620389909 -2582702.620389909 -8328083.303904501 0 0 0 0 0 113389751.4591705 -1478023.893627956 -1478023.893627956 -7483550.785697052 0 0 0 0 0 113832211.8897434 -414215.2982553578 -414215.2982553578 -6540565.75798039 0 0 0 0 0 114136748.5335449 592695.7090266058 592695.7090266058 -5514321.964511571 0 0 0 0 0 114307906.5051413 1528975.984553028 1528975.984553028 -4420859.885916743 0 0 0 0 0 96432392.3870462 -12729829.7133114 -12729829.7133114 -6854562.091207125 0 0 0 0 0 94951574.55912904 -12863578.64297932 -12863578.64297932 -7168160.746308926 0 0 0 0 0 95074099.1232775 -12263582.18935713 -12263582.18935713 -5793206.549021814 0 0 0 0 0 91901058.3209611 -11580710.10994128 -11580710.10994128 -4448891.781108967 0 0 0 0 0 93794946.01284035 -12370744.99020282 -12370744.99020282 -6089947.408629492 0 0 0 0 0 92738741.54889643 -11799957.71307834 -11799957.71307834 -5106405.724197494 0 0 0 0 0 93970357.30904108 -11697408.26894942 -11697408.26894942 -4860850.172544451 0 0 0 0 0 119507180.3078783 3461577.209642111 3461577.209642111 24674152.58135353 0 0 0 0 0 119067932.4497368 4602702.127739365 4602702.127739365 23573517.24158003 0 0 0 0 0 118738568.0232902 5477016.124315803 5477016.124315803 22022980.17876388 0 0 0 0 0 119443581.6049975 1555359.039771064 1555359.039771064 25219730.6481405 0 0 0 0 0 119456557.9386493 783757.7001289225 783757.7001289225 26376790.19993221 0 0 0 0 0 118449629.0028749 6185650.704419874 6185650.704419874 20332854.4881103 0 0 0 0 0 118196846.5194046 6727891.605805818 6727891.605805818 18530671.36791155 0 0 0 0 0 117967056.1699775 7108342.271045256 7108342.271045256 16663940.93798266 0 0 0 0 0 117746085.3613793 7334708.593529627 7334708.593529627 14772391.50716852 0 0 0 0 0 117524236.1599767 7418078.972328669 7418078.972328669 12891871.93405513 0 0 0 0 0 117294407.5142398 7373262.324323621 7373262.324323621 11058391.19863375 0 0 0 0 0 117042902.8767343 7215834.021217906 7215834.021217906 9307754.110041967 0 0 0 0 0 116759624.2255505 6965110.004926995 6965110.004926995 7657089.426928341 0 0 0 0 0 116458480.1622957 6636925.963073629 6636925.963073629 6089784.354989257 0 0 0 0 0 116121010.3740967 6241257.900400512 6241257.900400512 4625042.487833438 0 0 0 0 0 115766609.8533299 5801886.906298954 5801886.906298954 3284018.169309427 0 0 0 0 0 115379555.2960582 5324012.564855873 5324012.564855873 2056379.600957778 0 0 0 0 0 115149717.5765183 4327279.640387979 4327279.640387979 -483048.5155789792 0 0 0 0 0 115290273.5880817 4230727.772794927 4230727.772794927 -394279.7655537699 0 0 0 0 0 114795719.6181827 3688343.242861305 3688343.242861305 -1298565.324712598 0 0 0 0 0 114495660.6739668 2626306.008779716 2626306.008779716 -3370751.730085538 0 0 0 0 0 114352856.758363 2383154.322832696 2383154.322832696 -3276731.562366274 0 0 0 0 0 99292422.88845009 -12332128.67489163 -12332128.67489163 -8084809.239170964 0 0 0 0 0 100751669.7972782 -11969143.54799507 -11969143.54799507 -8631181.434666222 0 0 0 0 0 102207131.6037925 -11498954.27423156 -11498954.27423156 -9116502.693831868 0 0 0 0 0 103641124.4307447 -10923694.83940275 -10923694.83940275 -9527528.932837408 0 0 0 0 0 97847201.4362362 -12586047.49750596 -12586047.49750596 -7489704.599976168 0 0 0 0 0 105038047.3425343 -10248190.61480466 -10248190.61480466 -9852133.911902247 0 0 0 0 0 106377489.8174528 -9479353.20497741 -9479353.20497741 -10079290.77447353 0 0 0 0 0 107643654.0233034 -8627884.588491758 -8627884.588491758 -10199656.71238065 0 0 0 0 0 108823607.4504969 -7704871.861164846 -7704871.861164846 -10205872.73583109 0 0 0 0 0 109901939.00903 -6723069.691602107 -6723069.691602107 -10091323.32899098 0 0 0 0 0 110866630.2965679 -5699236.10958661 -5699236.10958661 -9853835.012255661 0 0 0 0 0 111708101.0258659 -4648903.069225607 -4648903.069225607 -9493147.499608874 0 0 0 0 0 112420593.9379464 -3589931.746742271 -3589931.746742271 -9011996.334764129 0 0 0 0 0 113000847.98414 -2536895.582938036 -2536895.582938036 -8413118.105668776 0 0 0 0 0 113448900.6797846 -1505076.836190441 -1505076.836190441 -7702996.606573666 0 0 0 0 0 113765951.1714366 -510513.7158807323 -510513.7158807323 -6891698.144856097 0 0 0 0 0 113955200.1074138 431649.9941909289 431649.9941909289 -5991639.871222803 0 0 0 0 0 114023478.6378045 1309101.833692585 1309101.833692585 -5015980.164751619 0 0 0 0 0 96269751.91357557 -12757336.89420912 -12757336.89420912 -7808224.460161376 0 0 0 0 0 96356954.21927769 -12249861.28117708 -12249861.28117708 -6461401.472275862 0 0 0 0 0 94987347.63215683 -12364640.10263576 -12364640.10263576 -6760432.679609993 0 0 0 0 0 92875759.94012536 -11032324.11175656 -11032324.11175656 -4053482.458750155 0 0 0 0 0 95087596.20117718 -11801535.85874566 -11801535.85874566 -5444704.166813269 0 0 0 0 0 93835576.10914966 -11274959.43789734 -11274959.43789734 -4618325.619863163 0 0 0 0 0 93848922.73499033 -11920787.12476709 -11920787.12476709 -5784652.741783906 0 0 0 0 0 118433978.3961119 3017192.819621996 3017192.819621996 24261490.11786359 0 0 0 0 0 118697317.6321968 2088314.212147975 2088314.212147975 26133824.46702633 0 0 0 0 0 117985287.3592016 4038854.085110959 4038854.085110959 22601017.70334103 0 0 0 0 0 117650177.9423373 4864246.465759924 4864246.465759924 20827991.97971599 0 0 0 0 0 118586049.9072721 1717448.705619618 1717448.705619618 25842978.15925718 0 0 0 0 0 118399912.0577739 249378.4069111037 249378.4069111037 25645914.95844159 0 0 0 0 0 117366163.0427017 5534449.85446709 5534449.85446709 18948584.02194182 0 0 0 0 0 117120690.2259874 6048625.439380776 6048625.439380776 17001471.23130625 0 0 0 0 0 116903322.1330465 6412945.126655471 6412945.126655471 15039532.40783878 0 0 0 0 0 116700810.7226745 6634608.654051732 6634608.654051732 13096056.95076859 0 0 0 0 0 116503272.0402723 6723032.511926544 6723032.511926544 11202351.42323929 0 0 0 0 0 116297338.2869207 6688305.082020613 6688305.082020613 9382139.270394152 0 0 0 0 0 116099364.6762405 6560935.039065556 6560935.039065556 7671266.811148332 0 0 0 0 0 115844509.6276368 6331009.282398633 6331009.282398633 6068926.261409488 0 0 0 0 0 115588205.7182679 6033995.056381468 6033995.056381468 4579012.771998089 0 0 0 0 0 115313347.4298288 5681186.471608953 5681186.471608953 3217545.733839037 0 0 0 0 0 115010926.6390836 5279986.496601019 5279986.496601019 1977748.893026844 0 0 0 0 0 114686031.2396057 4845091.433611359 4845091.433611359 861446.1881581473 0 0 0 0 0 114962941.6091763 4823947.157506614 4823947.157506614 945977.7942674244 0 0 0 0 0 114723137.9892997 3829405.747466929 3829405.747466929 -1394480.144608281 0 0 0 0 0 114281448.224981 3327207.772032027 3327207.772032027 -2200458.630787349 0 0 0 0 0 114280112.2769876 3145442.459652054 3145442.459652054 -2102863.478916082 0 0 0 0 0 113977855.8558124 2110431.367465229 2110431.367465229 -3979668.782094861 0 0 0 0 0 99023027.98619507 -12219761.21631703 -12219761.21631703 -8946413.917243583 0 0 0 0 0 97629417.66230939 -12543145.17231062 -12543145.17231062 -8404264.835257823 0 0 0 0 0 100435640.0469987 -11788958.50591763 -11788958.50591763 -9421809.930772664 0 0 0 0 0 101849076.9984029 -11252178.96233543 -11252178.96233543 -9817571.292015871 0 0 0 0 0 103246851.0080311 -10612972.07020156 -10612972.07020156 -10122280.64824473 0 0 0 0 0 104613576.8876503 -9876391.967291303 -9876391.967291303 -10324366.13091828 0 0 0 0 0 105930122.0839718 -9053474.295322226 -9053474.295322226 -10416984.21344604 0 0 0 0 0 107182043.3850469 -8153222.955089799 -8153222.955089799 -10391853.20256858 0 0 0 0 0 108355168.8494713 -7187650.047045386 -7187650.047045386 -10243964.1234056 0 0 0 0 0 109433646.4420825 -6172748.184729706 -6172748.184729706 -9971904.066818213 0 0 0 0 0 110406062.922441 -5123904.517281706 -5123904.517281706 -9576189.72711093 0 0 0 0 0 111262994.3812478 -4057154.121287349 -4057154.121287349 -9059173.600946194 0 0 0 0 0 111997710.8540787 -2988896.724653112 -2988896.724653112 -8427726.854909752 0 0 0 0 0 112605772.5046203 -1934316.440712337 -1934316.440712337 -7688722.352747745 0 0 0 0 0 113084697.2414335 -909448.4162989531 -909448.4162989531 -6852858.567615823 0 0 0 0 0 113434946.135036 70470.5736637482 70470.5736637482 -5931949.525273514 0 0 0 0 0 113659832.2098053 992183.0329217514 992183.0329217514 -4940377.865019856 0 0 0 0 0 113765016.099603 1843653.952872275 1843653.952872275 -3892346.903289216 0 0 0 0 0 97674782.27068292 -12137259.02657827 -12137259.02657827 -7071779.113056707 0 0 0 0 0 96212458.31435806 -12286054.18522425 -12286054.18522425 -7372268.69055861 0 0 0 0 0 96311977.67565076 -11800358.71873426 -11800358.71873426 -6112325.445873374 0 0 0 0 0 93148048.31010708 -11305893.69593254 -11305893.69593254 -4815625.652575271 0 0 0 0 0 95023384.7405452 -11878829.04724384 -11878829.04724384 -6407980.464934363 0 0 0 0 0 93952062.09230128 -11488422.78506558 -11488422.78506558 -5511888.194202091 0 0 0 0 0 95161358.92152904 -11348256.75577914 -11348256.75577914 -5165827.808751633 0 0 0 0 0 117755969.9799569 3603204.770578775 3603204.770578775 23512948.32459059 0 0 0 0 0 118000898.6444565 2510104.502976047 2510104.502976047 24396766.68310569 0 0 0 0 0 117442900.5340604 4579800.349720642 4579800.349720642 22301418.86347776 0 0 0 0 0 117185280.1097117 5386522.316961491 5386522.316961491 20858311.78193582 0 0 0 0 0 117586899.4858458 1189178.484167997 1189178.484167997 24989597.72683034 0 0 0 0 0 117601512.8514062 732180.5577710099 732180.5577710099 25082294.07301876 0 0 0 0 0 116972553.1418962 6041215.954910738 6041215.954910738 19275851.24377865 0 0 0 0 0 116788103.2114442 6543182.110956267 6543182.110956267 17600052.14029983 0 0 0 0 0 116627645.5252414 6897952.018217342 6897952.018217342 15861192.63736108 0 0 0 0 0 116472259.7523086 7111470.582561171 7111470.582561171 14103358.04516922 0 0 0 0 0 116311574.0804096 7193937.740622643 7193937.740622643 12364835.32627857 0 0 0 0 0 116132721.7376382 7161044.91854682 7161044.91854682 10683337.88769889 0 0 0 0 0 115913686.7564949 7018363.457119509 7018363.457119509 9070371.366256941 0 0 0 0 0 115706155.731305 6801109.820910521 6801109.820910521 7524315.258187812 0 0 0 0 0 115459957.7097169 6502332.60506066 6502332.60506066 6056048.784391451 0 0 0 0 0 115181291.5240878 6143045.518519788 6143045.518519788 4686129.380895654 0 0 0 0 0 114884689.6641196 5742461.143675444 5742461.143675444 3423393.323333676 0 0 0 0 0 114556617.2818716 5304333.132494365 5304333.132494365 2262059.420133534 0 0 0 0 0 114342336.0147163 4392883.515834941 4392883.515834941 -127732.5846941327 0 0 0 0 0 114538472.5712982 4317741.490922939 4317741.490922939 -37269.50894134636 0 0 0 0 0 114101294.8654584 3809621.452689074 3809621.452689074 -910517.2629894339 0 0 0 0 0 113832694.4935246 2829858.113238085 2829858.113238085 -2896281.568949929 0 0 0 0 0 113757355.6194218 2615906.84295537 2615906.84295537 -2802857.178425591 0 0 0 0 0 100395279.8833476 -11602499.02685422 -11602499.02685422 -8172122.549754461 0 0 0 0 0 99025699.72845691 -11920561.32758012 -11920561.32758012 -7642278.609224683 0 0 0 0 0 101764682.7436006 -11186652.73830606 -11186652.73830606 -8650583.622776467 0 0 0 0 0 103118727.6173922 -10673120.55299012 -10673120.55299012 -9063593.562794197 0 0 0 0 0 104442107.209729 -10065183.25884444 -10065183.25884444 -9400073.428555615 0 0 0 0 0 105718437.9695926 -9368581.471357401 -9368581.471357401 -9650058.856278898 0 0 0 0 0 106933795.1780934 -8592139.660198726 -8592139.660198726 -9804520.699211914 0 0 0 0 0 108072684.6989403 -7745346.382459637 -7745346.382459637 -9855881.466603838 0 0 0 0 0 109122630.7824649 -6840048.285020483 -6840048.285020483 -9798539.75884412 0 0 0 0 0 110072481.9585048 -5888810.437508355 -5888810.437508355 -9627811.345895633 0 0 0 0 0 110912434.1495699 -4907196.982882495 -4907196.982882495 -9343442.121857349 0 0 0 0 0 111636110.2054544 -3909862.0791361 -3909862.0791361 -8946090.283097787 0 0 0 0 0 112238563.8892549 -2911664.047751538 -2911664.047751538 -8438363.594848251 0 0 0 0 0 112718602.0472768 -1925995.352670219 -1925995.352670219 -7824412.910068851 0 0 0 0 0 113077136.6993427 -966811.5243849271 -966811.5243849271 -7111840.124877119 0 0 0 0 0 113316042.6602196 -49100.18624346551 -49100.18624346551 -6311069.972270288 0 0 0 0 0 113440979.2772644 815908.3448460647 815908.3448460647 -5432349.107297538 0 0 0 0 0 113457517.8173364 1615942.151105537 1615942.151105537 -4489725.91681482 0 0 0 0 0 97477384.61027786 -12107985.33495412 -12107985.33495412 -7944472.656326599 0 0 0 0 0 97530015.87336253 -11706577.68235529 -11706577.68235529 -6681779.881301123 0 0 0 0 0 96186435.35820657 -11834895.79996974 -11834895.79996974 -6956714.962911138 0 0 0 0 0 93964502.28474732 -10833975.71165141 -10833975.71165141 -4474011.154941827 0 0 0 0 0 96321258.96708681 -11363832.97115559 -11363832.97115559 -5802299.054432134 0 0 0 0 0 94972429.33000216 -10991923.66324131 -10991923.66324131 -5000348.57907121 0 0 0 0 0 94984500.89809313 -11485343.30722027 -11485343.30722027 -6028800.690727887 0 0 0 0 0 116784203.3202878 3156033.709379214 3156033.709379214 22897598.37776963 0 0 0 0 0 117115064.8381739 2198449.562654978 2198449.562654978 24130901.49159649 0 0 0 0 0 116471229.8623371 4063198.716294013 4063198.716294013 21378214.81309017 0 0 0 0 0 116213382.2088212 4825134.821309917 4825134.821309917 19724007.11103815 0 0 0 0 0 116893311.7036133 1670580.173689298 1670580.173689298 24236251.12409561 0 0 0 0 0 116673115.5707244 261383.9741084707 261383.9741084707 24474694.40312491 0 0 0 0 0 116000079.4453902 5443878.227153081 5443878.227153081 17972234.16054113 0 0 0 0 0 115815516.1159558 5919642.911405533 5919642.911405533 16174104.76409423 0 0 0 0 0 115659312.4538982 6258485.581124647 6258485.581124647 14353066.78429652 0 0 0 0 0 115514336.2882762 6465642.707913619 6465642.707913619 12547637.2294738 0 0 0 0 0 115372177.9981841 6550570.092064955 6550570.092064955 10788708.33600359 0 0 0 0 0 115215367.824061 6525667.598408055 6525667.598408055 9129650.388950648 0 0 0 0 0 115039107.7929321 6407818.336848939 6407818.336848939 7556099.769910582 0 0 0 0 0 114851032.4217312 6207601.82194507 6207601.82194507 6052160.299656873 0 0 0 0 0 114645949.0354215 5937561.170414794 5937561.170414794 4654273.48511948 0 0 0 0 0 114416995.3982925 5612138.223164414 5612138.223164414 3371670.573231341 0 0 0 0 0 114164477.0813089 5244057.685538963 5244057.685538963 2191559.608246809 0 0 0 0 0 113891082.5598711 4845428.860002783 4845428.860002783 1127689.191038406 0 0 0 0 0 114197463.297447 4841475.914888768 4841475.914888768 1210544.975954809 0 0 0 0 0 113973702.155083 3926083.00086306 3926083.00086306 -1006122.77367253 0 0 0 0 0 113590871.8269679 3455613.201393948 3455613.201393948 -1785899.332400679 0 0 0 0 0 113644636.0922734 3301674.217750765 3301674.217750765 -1690259.54293625 0 0 0 0 0 113374652.2357363 2343518.864672814 2343518.864672814 -3493761.062102312 0 0 0 0 0 100105548.724647 -11447271.55323838 -11447271.55323838 -8942319.004347485 0 0 0 0 0 98778940.66230258 -11826639.29140581 -11826639.29140581 -8472341.720636053 0 0 0 0 0 101435347.0177819 -10969815.35965008 -10969815.35965008 -9342162.464398805 0 0 0 0 0 102754345.2698158 -10396423.41265331 -10396423.41265331 -9661228.254206076 0 0 0 0 0 104048214.0021786 -9731639.130432654 -9731639.130432654 -9889444.304422446 0 0 0 0 0 105301765.7670899 -8983132.285747016 -8983132.285747016 -10018794.12016423 0 0 0 0 0 106500616.4651763 -8159803.859124932 -8159803.859124932 -10042051.17381575 0 0 0 0 0 107630339.7658297 -7272691.891437225 -7272691.891437225 -9954145.602091648 0 0 0 0 0 108679092.1059446 -6333072.457468376 -6333072.457468376 -9751390.511400906 0 0 0 0 0 109634103.7714269 -5356007.076751104 -5356007.076751104 -9433914.401309535 0 0 0 0 0 110485978.4347806 -4355708.517763064 -4355708.517763064 -9003380.369909998 0 0 0 0 0 111226696.0823759 -3347697.679518507 -3347697.679518507 -8464320.106899068 0 0 0 0 0 111851816.3283177 -2345280.776788612 -2345280.776788612 -7822952.200588054 0 0 0 0 0 112360467.4740496 -1362264.152124567 -1362264.152124567 -7084909.192522691 0 0 0 0 0 112749625.1467656 -413158.0426450921 -413158.0426450921 -6262248.557686302 0 0 0 0 0 113021387.5481158 488550.6761255536 488550.6761255536 -5365711.598521415 0 0 0 0 0 113178506.0503269 1331627.681513629 1331627.681513629 -4410615.893495603 0 0 0 0 0 113227872.7591827 2106438.002055022 2106438.002055022 -3407873.161610854 0 0 0 0 0 98789587.79184321 -11522259.34346226 -11522259.34346226 -7226515.930444408 0 0 0 0 0 97349074.8654312 -11686485.44919891 -11686485.44919891 -7513220.330892179 0 0 0 0 0 97416687.89280951 -11303741.41612362 -11303741.41612362 -6309742.463221001 0 0 0 0 0 94306410.28585482 -11039861.16483103 -11039861.16483103 -5195864.29245312 0 0 0 0 0 96272767.06220271 -11399944.25988019 -11399944.25988019 -6574724.728012617 0 0 0 0 0 95043121.7587769 -11119907.51411897 -11119907.51411897 -5719193.733832807 0 0 0 0 0 96168302.34446116 -11079433.25583558 -11079433.25583558 -5459840.19258773 0 0 0 0 0 116237139.091267 3632530.024117109 3632530.024117109 22278713.02371991 0 0 0 0 0 116539644.5271215 2661688.76078531 2661688.76078531 23296995.27013749 0 0 0 0 0 116004953.4136243 4524330.909695315 4524330.909695315 21115376.87630635 0 0 0 0 0 115816427.5975073 5272553.552318299 5272553.552318299 19761138.05961429 0 0 0 0 0 116063654.833981 1277299.745507464 1277299.745507464 23762081.18139628 0 0 0 0 0 115957934.5183097 727031.2910826067 727031.2910826067 23809056.02788352 0 0 0 0 0 115663167.6255829 5877801.210304554 5877801.210304554 18284123.886988 0 0 0 0 0 115541081.2598513 6344616.198047896 6344616.198047896 16715894.9957241 0 0 0 0 0 115432966.2289807 6676470.503337303 6676470.503337303 15102963.03013298 0 0 0 0 0 115328643.3646871 6879725.861560915 6879725.861560915 13476843.30903689 0 0 0 0 0 115202495.4555047 6958326.092153469 6958326.092153469 11887622.37915494 0 0 0 0 0 115070018.8650892 6934633.652701575 6934633.652701575 10322484.40942082 0 0 0 0 0 114906294.3271356 6810626.27020226 6810626.27020226 8811998.10202115 0 0 0 0 0 114742518.9812754 6616341.600521223 6616341.600521223 7367163.761751383 0 0 0 0 0 114542955.768991 6347088.619251972 6347088.619251972 5992658.720128781 0 0 0 0 0 114313030.0978491 6020365.077321704 6020365.077321704 4709341.03549465 0 0 0 0 0 114061039.4990933 5653110.601479948 5653110.601479948 3523709.453580665 0 0 0 0 0 113781267.6833449 5253612.321055259 5253612.321055259 2428342.316264544 0 0 0 0 0 113592636.3737486 4424635.134008333 4424635.134008333 184181.339598495 0 0 0 0 0 113825563.0441252 4369169.830122862 4369169.830122862 274846.8640389374 0 0 0 0 0 113438174.5721497 3892406.707370318 3892406.707370318 -565735.7962672585 0 0 0 0 0 113203456.6493458 2993630.32612898 2993630.32612898 -2457823.058107905 0 0 0 0 0 113174378.0442439 2804812.490368681 2804812.490368681 -2368599.146659336 0 0 0 0 0 101366821.5531702 -10875265.26387452 -10875265.26387452 -8208832.689740427 0 0 0 0 0 100077481.7888166 -11242314.50865411 -11242314.50865411 -7738810.583915391 0 0 0 0 0 102644996.9349902 -10417464.64241177 -10417464.64241177 -8620886.314240176 0 0 0 0 0 103898419.2772338 -9870936.138793556 -9870936.138793556 -8964860.528638013 0 0 0 0 0 105113971.7899657 -9240217.934265422 -9240217.934265422 -9231498.383297307 0 0 0 0 0 106277346.9611968 -8532561.415861225 -8532561.415861225 -9413281.664167773 0 0 0 0 0 107375298.3264309 -7756471.304588963 -7756471.304588963 -9502200.600269794 0 0 0 0 0 108395802.3226928 -6922023.7913199 -6922023.7913199 -9492370.103548139 0 0 0 0 0 109327412.3067649 -6040106.850873495 -6040106.850873495 -9379530.663945301 0 0 0 0 0 110161999.5727128 -5123653.818188159 -5123653.818188159 -9160932.408751557 0 0 0 0 0 110891363.2216542 -4186374.254948311 -4186374.254948311 -8836789.914315192 0 0 0 0 0 111509991.7053871 -3242654.358546884 -3242654.358546884 -8409613.049054962 0 0 0 0 0 112016763.1276255 -2303056.817787458 -2303056.817787458 -7880765.501938316 0 0 0 0 0 112408117.4793115 -1383768.95653296 -1383768.95653296 -7260037.640121019 0 0 0 0 0 112689837.3099945 -493969.7820169601 -493969.7820169601 -6550862.154773825 0 0 0 0 0 112861434.2322586 351038.3292033327 351038.3292033327 -5765274.983564784 0 0 0 0 0 112933348.3850032 1145382.355466444 1145382.355466444 -4909591.946620248 0 0 0 0 0 112905102.0565269 1874757.164234477 1874757.164234477 -3999524.131825325 0 0 0 0 0 98560941.00750026 -11441983.701956 -11441983.701956 -8026283.494954926 0 0 0 0 0 98579651.11070871 -11138213.39582279 -11138213.39582279 -6850078.926717914 0 0 0 0 0 97231829.5387857 -11260054.50773463 -11260054.50773463 -7131413.277718216 0 0 0 0 0 95151440.78133085 -10549609.00655297 -10549609.00655297 -4807832.771298295 0 0 0 0 0 97335791.99482216 -10900019.94869175 -10900019.94869175 -6142549.472447618 0 0 0 0 0 95978438.26806688 -10675440.83638903 -10675440.83638903 -5284777.717155558 0 0 0 0 0 96063526.1466333 -10850499.82977917 -10850499.82977917 -5871150.13407685 0 0 0 0 0 115390941.8598793 3223427.384976319 3223427.384976319 21652253.9580908 0 0 0 0 0 115700725.9071881 2286937.635707668 2286937.635707668 22848218.79467089 0 0 0 0 0 115149928.713965 4055650.574447738 4055650.574447738 20236560.96207204 0 0 0 0 0 114950012.8882692 4759778.23762318 4759778.23762318 18691737.36106521 0 0 0 0 0 115468932.4692162 1736057.342518556 1736057.342518556 23031242.26652067 0 0 0 0 0 115217009.9236111 318474.3161995857 318474.3161995857 23246542.04792584 0 0 0 0 0 114789122.4392719 5331003.552077552 5331003.552077552 17065086.44730087 0 0 0 0 0 114660385.3016744 5772649.882740128 5772649.882740128 15388869.83657746 0 0 0 0 0 114550236.2866291 6087376.708833563 6087376.708833563 13698201.36029512 0 0 0 0 0 114452269.1793925 6283361.285053459 6283361.285053459 12026645.16622351 0 0 0 0 0 114338827.8715061 6363204.690742317 6363204.690742317 10416946.34737218 0 0 0 0 0 114221040.989362 6345482.891166114 6345482.891166114 8868192.406214861 0 0 0 0 0 114085213.935781 6238974.638269328 6238974.638269328 7399136.794890898 0 0 0 0 0 113942540.8404241 6060688.79697835 6060688.79697835 5990615.733727808 0 0 0 0 0 113778953.8248068 5816816.595356861 5816816.595356861 4679197.208703184 0 0 0 0 0 113590220.8531774 5519765.83710787 5519765.83710787 3472782.136943952 0 0 0 0 0 113377629.2240082 5181229.562705605 5181229.562705605 2361859.668418778 0 0 0 0 0 113146724.1493293 4816691.357685779 4816691.357685779 1355269.92949785 0 0 0 0 0 113473823.1308613 4829646.739331826 4829646.739331826 1433796.344357284 0 0 0 0 0 113270669.6513769 3987458.697607321 3987458.697607321 -660289.0811915761 0 0 0 0 0 112940652.146521 3549111.479168425 3549111.479168425 -1407616.913120065 0 0 0 0 0 113026310.0280375 3418362.627833917 3418362.627833917 -1316319.593875893 0 0 0 0 0 112785141.5593629 2533117.387221748 2533117.387221748 -3045902.083749921 0 0 0 0 0 101064013.3133668 -10685438.52085247 -10685438.52085247 -8888308.531695357 0 0 0 0 0 99811846.23530164 -11109385.02438191 -11109385.02438191 -8487749.98080568 0 0 0 0 0 102308722.9185601 -10171792.41638554 -10171792.41638554 -9216781.117325054 0 0 0 0 0 103533101.0024724 -9571792.022126602 -9571792.022126602 -9464785.54055674 0 0 0 0 0 104725629.7154638 -8891519.720106767 -8891519.720106767 -9623955.564277988 0 0 0 0 0 105872092.5433612 -8139151.813608355 -8139151.813608355 -9687412.096198106 0 0 0 0 0 106959512.8701786 -7323688.285970083 -7323688.285970083 -9649915.229311043 0 0 0 0 0 107975857.4220499 -6455631.596064185 -6455631.596064185 -9507733.074203121 0 0 0 0 0 108909983.5180238 -5546882.842104902 -5546882.842104902 -9259297.993487589 0 0 0 0 0 109751822.6688014 -4610942.071572424 -4610942.071572424 -8905484.090726128 0 0 0 0 0 110493559.9334366 -3661410.508860044 -3661410.508860044 -8448894.760091243 0 0 0 0 0 111130863.8208556 -2711157.129107146 -2711157.129107146 -7894502.302256078 0 0 0 0 0 111660191.8890849 -1772177.459122384 -1772177.459122384 -7247903.992358299 0 0 0 0 0 112083283.7430748 -857630.5568242787 -857630.5568242787 -6515669.759750093 0 0 0 0 0 112394278.0473723 19758.25620454446 19758.25620454446 -5709348.449469205 0 0 0 0 0 112598372.0033773 848243.8470574426 848243.8470574426 -4839624.246044148 0 0 0 0 0 112697528.642273 1619432.491593933 1619432.491593933 -3919949.364747188 0 0 0 0 0 112703041.1282343 2325122.620766995 2325122.620766995 -2958140.740227843 0 0 0 0 0 99794076.62702268 -10887264.00857964 -10887264.00857964 -7330550.389777606 0 0 0 0 0 98368585.38960029 -11064916.66536604 -11064916.66536604 -7600980.726430774 0 0 0 0 0 98426717.1369151 -10778091.47245144 -10778091.47245144 -6579364.90882477 0 0 0 0 0 95460658.3955975 -10700236.70229222 -10700236.70229222 -5439783.830508535 0 0 0 0 0 97271110.11535376 -10861798.44591842 -10861798.44591842 -6819907.421643882 0 0 0 0 0 97007187.98632906 -10934222.6423956 -10934222.6423956 -6245318.609580344 0 0 0 0 0 96324346.84459594 -10746479.53231064 -10746479.53231064 -5751120.585576497 0 0 0 0 0 114923129.4141303 3635846.659376577 3635846.659376577 21125436.23896123 0 0 0 0 0 115161826.6749316 2710198.373343435 2710198.373343435 22081859.33796364 0 0 0 0 0 114744517.0658477 4454403.425912778 4454403.425912778 20003211.34855297 0 0 0 0 0 114608404.6978974 5144099.525065607 5144099.525065607 18734483.07202034 0 0 0 0 0 114670834.2459684 1355394.862147057 1355394.862147057 22634932.60257412 0 0 0 0 0 114628548.268298 723870.9817685641 723870.9817685641 22590166.45039812 0 0 0 0 0 114505450.0815777 5705215.065783877 5705215.065783877 17350346.98688266 0 0 0 0 0 114428983.2606097 6141106.787576816 6141106.787576816 15890754.94311081 0 0 0 0 0 114363302.0301012 6451585.286741822 6451585.286741822 14393199.97688148 0 0 0 0 0 114291363.5078113 6639977.854398056 6639977.854398056 12904626.77733415 0 0 0 0 0 114199017.8874161 6717892.405754755 6717892.405754755 11421877.03879424 0 0 0 0 0 114100304.0916034 6701911.042964127 6701911.042964127 9967026.560688267 0 0 0 0 0 113991871.2617321 6598825.410019556 6598825.410019556 8552363.797677809 0 0 0 0 0 113856594.1490614 6421078.836277842 6421078.836277842 7200373.322609849 0 0 0 0 0 113696086.2503238 6179702.563289016 6179702.563289016 5915114.486896674 0 0 0 0 0 113506741.0032675 5884903.436765464 5884903.436765464 4714294.551988151 0 0 0 0 0 113293904.6076834 5545869.176752011 5545869.176752011 3602970.11217786 0 0 0 0 0 113056723.7553515 5181496.206423498 5181496.206423498 2559514.174217517 0 0 0 0 0 112892693.2410414 4431783.210684171 4431783.210684171 461744.401622022 0 0 0 0 0 113147178.2507385 4388516.955910455 4388516.955910455 551514.904808611 0 0 0 0 0 112800725.218354 3943041.367882146 3943041.367882146 -255611.4319983587 0 0 0 0 0 112590241.0184701 3115768.708261231 3115768.708261231 -2062411.95907172 0 0 0 0 0 112618221.0558248 2956918.507781755 2956918.507781755 -1970231.697727002 0 0 0 0 0 102214738.6485473 -10159478.70837691 -10159478.70837691 -8199833.953400643 0 0 0 0 0 101008540.0331435 -10566035.20114229 -10566035.20114229 -7790250.280298471 0 0 0 0 0 103401674.7007354 -9669125.188929394 -9669125.188929394 -8547822.138639931 0 0 0 0 0 104558636.1507631 -9097547.04483412 -9097547.04483412 -8826344.631367084 0 0 0 0 0 105671776.4217983 -8453110.095629945 -8453110.095629945 -9029461.432724278 0 0 0 0 0 106728546.3829188 -7742073.44628735 -7742073.44628735 -9148738.664415179 0 0 0 0 0 107717269.9054592 -6973668.528332308 -6973668.528332308 -9179214.22628222 0 0 0 0 0 108627896.9242053 -6157097.384100635 -6157097.384100635 -9115501.231111927 0 0 0 0 0 109451884.8751668 -5303258.431350387 -5303258.431350387 -8954742.806494083 0 0 0 0 0 110182095.4370238 -4424307.032003926 -4424307.032003926 -8695791.723482762 0 0 0 0 0 110812775.7181957 -3532754.242908298 -3532754.242908298 -8339689.098414782 0 0 0 0 0 111340379.3078944 -2640585.778930798 -2640585.778930798 -7888300.222026361 0 0 0 0 0 111765724.0717512 -1757524.754082249 -1757524.754082249 -7344395.795473425 0 0 0 0 0 112079453.0365749 -902633.4982492911 -902633.4982492911 -6721786.969791167 0 0 0 0 0 112293261.4726379 -79870.64668920932 -79870.64668920932 -6021077.895147641 0 0 0 0 0 112406841.8047627 697427.1701780598 697427.1701780598 -5253158.409065899 0 0 0 0 0 112434205.5430593 1426493.901295462 1426493.901295462 -4421768.830289987 0 0 0 0 0 112369821.3406323 2090648.398469261 2090648.398469261 -3546702.773167958 0 0 0 0 0 99551675.21926096 -10774381.51668845 -10774381.51668845 -8056439.006432611 0 0 0 0 0 99551048.42804687 -10536120.51496895 -10536120.51496895 -6953747.096989776 0 0 0 0 0 98244302.14364447 -10700175.98434498 -10700175.98434498 -7219946.605929052 0 0 0 0 0 96253833.80242255 -10241471.87803539 -10241471.87803539 -5107077.727711299 0 0 0 0 0 98359970.8515607 -10497818.50075307 -10497818.50075307 -6302571.408683258 0 0 0 0 0 97245232.00458953 -10489293.797478 -10489293.797478 -6204835.679045162 0 0 0 0 0 96811572.19761497 -10339082.97489156 -10339082.97489156 -5615833.950116003 0 0 0 0 0 114181046.3025426 3258535.042213868 3258535.042213868 20501370.18666766 0 0 0 0 0 114440064.2734607 2377288.529758208 2377288.529758208 21657008.8846436 0 0 0 0 0 113982632.3380575 4026051.208974908 4026051.208974908 19169384.04372736 0 0 0 0 0 113831508.9147701 4673561.030988525 4673561.030988525 17725106.84321123 0 0 0 0 0 114167214.8827174 1769454.274623247 1769454.274623247 21962877.34636571 0 0 0 0 0 113891474.8583915 289740.3472302011 289740.3472302011 21882922.98114234 0 0 0 0 0 113716786.2556846 5203150.753335583 5203150.753335583 16209959.36744076 0 0 0 0 0 113629366.9392941 5614644.054554687 5614644.054554687 14652667.86650578 0 0 0 0 0 113552709.6289657 5905578.536983534 5905578.536983534 13082857.24569333 0 0 0 0 0 113488545.9968975 6088767.189501517 6088767.189501517 11548075.35953417 0 0 0 0 0 113402442.4637554 6165788.570098696 6165788.570098696 10054515.82726568 0 0 0 0 0 113313501.8433885 6155148.311476613 6155148.311476613 8612393.310353594 0 0 0 0 0 113222108.6917084 6064116.426685994 6064116.426685994 7227118.590890495 0 0 0 0 0 113110225.7408804 5901825.403976911 5901825.403976911 5912142.380073549 0 0 0 0 0 112981186.5124596 5683320.419513558 5683320.419513558 4685899.721631668 0 0 0 0 0 112822637.1574243 5412793.230288496 5412793.230288496 3551856.28320269 0 0 0 0 0 112641705.0830852 5096338.985942869 5096338.985942869 2497152.800386532 0 0 0 0 0 112453988.8520457 4768769.341220168 4768769.341220168 1550948.15714364 0 0 0 0 0 112790694.7709673 4794245.437147571 4794245.437147571 1625110.895494133 0 0 0 0 0 112610347.1847334 4020444.756133475 4020444.756133475 -346347.4282539271 0 0 0 0 0 112317363.5228063 3610100.310569177 3610100.310569177 -1071427.354998313 0 0 0 0 0 112443126.0424182 3504937.894661671 3504937.894661671 -983245.4287090793 0 0 0 0 0 112221659.872926 2684285.9741154 2684285.9741154 -2638869.065082631 0 0 0 0 0 101905315.6254568 -9942174.575859822 -9942174.575859822 -8789667.429387415 0 0 0 0 0 100730214.7569284 -10400540.23797826 -10400540.23797826 -8455429.397445461 0 0 0 0 0 103063464.3654364 -9400214.798785662 -9400214.798785662 -9052327.030091275 0 0 0 0 0 104197821.8226912 -8782450.100778073 -8782450.100778073 -9235330.287234308 0 0 0 0 0 105293527.8155356 -8095140.042077901 -8095140.042077901 -9332394.202673675 0 0 0 0 0 106338084.0051285 -7346159.136973891 -7346159.136973891 -9337322.941953758 0 0 0 0 0 107320976.0545037 -6544711.479425974 -6544711.479425974 -9246636.848976506 0 0 0 0 0 108231663.8889793 -5700991.810113744 -5700991.810113744 -9058231.56594174 0 0 0 0 0 109061200.3707378 -4826290.447130494 -4826290.447130494 -8771535.449980786 0 0 0 0 0 109801303.2613944 -3932692.145627017 -3932692.145627017 -8387914.077967673 0 0 0 0 0 110445108.2920966 -3033502.112376579 -3033502.112376579 -7912287.199435811 0 0 0 0 0 110991290.4484168 -2138587.431548632 -2138587.431548632 -7347333.990587188 0 0 0 0 0 111433812.2175265 -1262724.94987545 -1262724.94987545 -6700231.009842387 0 0 0 0 0 111779704.1006165 -413155.8634886096 -413155.8634886096 -5978160.505862171 0 0 0 0 0 112023837.2412578 395547.1371368222 395547.1371368222 -5191480.83486677 0 0 0 0 0 112171757.215297 1158104.162394482 1158104.162394482 -4350530.857587087 0 0 0 0 0 112223831.8052469 1862910.389904423 1862910.389904423 -3466196.702429026 0 0 0 0 0 112190422.2657927 2501513.115583497 2501513.115583497 -2550225.903236294 0 0 0 0 0 100688841.6467825 -10254228.24788652 -10254228.24788652 -7400717.850062304 0 0 0 0 0 99337383.71021248 -10445448.38264405 -10445448.38264405 -7650969.258681167 0 0 0 0 0 99370081.71534352 -10187642.93302301 -10187642.93302301 -6570232.799772188 0 0 0 0 0 96508091.3515127 -10356806.74640615 -10356806.74640615 -5708430.709335176 0 0 0 0 0 98122235.82099748 -10317873.17009771 -10317873.17009771 -6807097.308864204 0 0 0 0 0 97417845.3786542 -10432264.22178291 -10432264.22178291 -6126903.499185571 0 0 0 0 0 113763929.2080953 3628791.523458755 3628791.523458755 20064451.36399594 0 0 0 0 0 113953942.8660776 2780705.179331935 2780705.179331935 21022502.55178356 0 0 0 0 0 113631314.0988667 4371614.872765628 4371614.872765628 18982001.6809543 0 0 0 0 0 113537141.1417539 5006985.41898412 5006985.41898412 17773720.71264622 0 0 0 0 0 113470850.1340216 1402797.172328974 1402797.172328974 21455351.23725634 0 0 0 0 0 113321381.9008685 639795.8583157109 639795.8583157109 21548450.21393448 0 0 0 0 0 113475638.6857607 5528664.269180205 5528664.269180205 16477134.66923984 0 0 0 0 0 113435972.3289636 5934493.378352254 5934493.378352254 15119933.88258278 0 0 0 0 0 113396716.6250612 6223521.204588894 6223521.204588894 13747518.93381897 0 0 0 0 0 113342562.3943709 6398491.376921778 6398491.376921778 12360757.47046407 0 0 0 0 0 113289430.857364 6478130.368054131 6478130.368054131 10978665.97893428 0 0 0 0 0 113229519.4604326 6471593.391756359 6471593.391756359 9611569.13620224 0 0 0 0 0 113146034.5610926 6381631.316458675 6381631.316458675 8295865.663728104 0 0 0 0 0 113043327.4380254 6221470.114448615 6221470.114448615 7032829.53793103 0 0 0 0 0 112913053.3179342 6008034.166086412 6008034.166086412 5822531.342758471 0 0 0 0 0 112755704.3361632 5740561.777153625 5740561.777153625 4706148.951490247 0 0 0 0 0 112576493.4182183 5424319.301314722 5424319.301314722 3669178.574364142 0 0 0 0 0 112384324.7607405 5089197.474408821 5089197.474408821 2658839.050237026 0 0 0 0 0 112249502.2900798 4422813.994121873 4422813.994121873 717032.9581697711 0 0 0 0 0 112501410.3492228 4382928.612972384 4382928.612972384 804270.5287195987 0 0 0 0 0 112198039.0733184 3974659.301972384 3974659.301972384 18624.43471612271 0 0 0 0 0 112009647.3001007 3209435.600068168 3209435.600068168 -1702534.755494028 0 0 0 0 0 112076491.8348528 3069546.776321741 3069546.776321741 -1610532.249864402 0 0 0 0 0 102947319.7159755 -9462012.257656042 -9462012.257656042 -8150110.906073703 0 0 0 0 0 101826026.9906198 -9898868.140227057 -9898868.140227057 -7801316.109069547 0 0 0 0 0 104048775.4274942 -8944097.833974579 -8944097.833974579 -8435527.129509702 0 0 0 0 0 105113201.2272018 -8357105.683200727 -8357105.683200727 -8654731.312233835 0 0 0 0 0 106128589.0256128 -7706488.736961717 -7706488.736961717 -8799435.2820362 0 0 0 0 0 107085277.0828846 -6998912.695463935 -6998912.695463935 -8862800.980498051 0 0 0 0 0 107972560.4313658 -6243526.498797117 -6243526.498797117 -8840929.376308423 0 0 0 0 0 108782936.1109672 -5449297.782602027 -5449297.782602027 -8730055.882151129 0 0 0 0 0 109508878.7534637 -4626876.007942243 -4626876.007942243 -8528790.157906685 0 0 0 0 0 110144598.5874898 -3787265.909185831 -3787265.909185831 -8236592.718694554 0 0 0 0 0 110686705.5314137 -2941336.295763941 -2941336.295763941 -7854283.206402554 0 0 0 0 0 111131448.0539221 -2100429.260905873 -2100429.260905873 -7386312.926718699 0 0 0 0 0 111481868.4418941 -1275706.860577014 -1275706.860577014 -6837159.729016136 0 0 0 0 0 111733757.1268027 -478132.7632466529 -478132.7632466529 -6212765.168730511 0 0 0 0 0 111889245.5296216 280382.7519258902 280382.7519258902 -5523959.602446125 0 0 0 0 0 111957129.4261032 998280.5836286981 998280.5836286981 -4771781.254645448 0 0 0 0 0 111942582.2039528 1663372.839249766 1663372.839249766 -3970495.787642638 0 0 0 0 0 111849248.8466532 2264991.783008632 2264991.783008632 -3135133.684152956 0 0 0 0 0 100440499.5451244 -10116964.54288805 -10116964.54288805 -8043121.573637241 0 0 0 0 0 100424250.2663261 -9951147.773018539 -9951147.773018539 -7015458.410627002 0 0 0 0 0 99177314.85476241 -10119465.76145791 -10119465.76145791 -7261694.480683379 0 0 0 0 0 97253371.41425262 -9902473.331157757 -9902473.331157757 -5375712.19099051 0 0 0 0 0 99159956.77415837 -9867059.790228553 -9867059.790228553 -6263274.471064596 0 0 0 0 0 97981325.07328753 -9910629.06487608 -9910629.06487608 -5871127.115765579 0 0 0 0 0 113251685.6609661 2441437.605773749 2441437.605773749 20541646.97894197 0 0 0 0 0 113068627.2518576 3264291.254887382 3264291.254887382 19428404.63609196 0 0 0 0 0 112943069.765344 3971925.624431239 3971925.624431239 18168574.29005666 0 0 0 0 0 112836724.1356937 4573458.746416966 4573458.746416966 16820750.45431614 0 0 0 0 0 113021422.9989904 1678731.571685598 1678731.571685598 20310669.11765039 0 0 0 0 0 112779639.2651855 292893.6728207069 292893.6728207069 20682362.27318642 0 0 0 0 0 112758898.9247299 5065502.099206507 5065502.099206507 15408654.26756066 0 0 0 0 0 112702230.6487884 5445002.5281872 5445002.5281872 13950605.00871303 0 0 0 0 0 112650788.3602778 5714321.538737856 5714321.538737856 12517399.33689233 0 0 0 0 0 112602612.8782755 5886677.705369623 5886677.705369623 11095376.75193378 0 0 0 0 0 112550998.5517478 5965919.854915028 5965919.854915028 9703424.535179865 0 0 0 0 0 112499102.6831519 5963687.914455354 5963687.914455354 8351701.983039541 0 0 0 0 0 112429134.261647 5882275.250355071 5882275.250355071 7055455.351360508 0 0 0 0 0 112347021.8130044 5735164.848155618 5735164.848155618 5822201.220013534 0 0 0 0 0 112243837.0253746 5544671.274295266 5544671.274295266 4678373.707796589 0 0 0 0 0 112113683.9361844 5297901.287371151 5297901.287371151 3617039.370332206 0 0 0 0 0 111929629.7499769 4984537.782952428 4984537.782952428 2599850.801514387 0 0 0 0 0 111829922.3946181 4708215.734094282 4708215.734094282 1715458.7589258 0 0 0 0 0 112147808.9844119 4738027.798603829 4738027.798603829 1781453.71484587 0 0 0 0 0 111987456.1538478 4027822.899414502 4027822.899414502 -63546.39613127478 0 0 0 0 0 111717168.5991055 3648272.497299081 3648272.497299081 -764003.1064779863 0 0 0 0 0 111886753.8000656 3569231.615407292 3569231.615407292 -677518.4986495601 0 0 0 0 0 111676508.8508781 2798022.304980113 2798022.304980113 -2271746.104797099 0 0 0 0 0 102633700.4717218 -9220284.680550732 -9220284.680550732 -8653708.253605485 0 0 0 0 0 101542760.2996579 -9709220.416913228 -9709220.416913228 -8380993.747594164 0 0 0 0 0 103713088.3224465 -8659041.019944377 -8659041.019944377 -8855730.635921858 0 0 0 0 0 104759600.5547947 -8031640.213496477 -8031640.213496477 -8979823.964261746 0 0 0 0 0 105762365.0424187 -7343836.947289895 -7343836.947289895 -9020431.64583694 0 0 0 0 0 106711396.1886294 -6604396.977888785 -6604396.977888785 -8974101.620555667 0 0 0 0 0 107596874.436793 -5821982.486071821 -5821982.486071821 -8837813.99490615 0 0 0 0 0 108410676.3885341 -5006246.342135856 -5006246.342135856 -8610136.628451176 0 0 0 0 0 109144980.3627556 -4167790.866753603 -4167790.866753603 -8291601.76619912 0 0 0 0 0 109793116.0025775 -3318079.298928498 -3318079.298928498 -7885178.579223223 0 0 0 0 0 110351096.0095443 -2467865.347164805 -2467865.347164805 -7393670.124583147 0 0 0 0 0 110818271.9584092 -1626384.371965509 -1626384.371965509 -6820955.159390023 0 0 0 0 0 111186098.2440078 -810491.147926757 -810491.147926757 -6180347.195454084 0 0 0 0 0 111462478.4197893 -23786.79635671463 -23786.79635671463 -5471665.821022245 0 0 0 0 0 111646632.2729373 720672.7867599841 720672.7867599841 -4708730.154761466 0 0 0 0 0 111748384.2737502 1423160.900220369 1423160.900220369 -3893709.841146129 0 0 0 0 0 111762483.7742213 2065933.084664784 2065933.084664784 -3050569.527049965 0 0 0 0 0 111699808.5823592 2640111.990210111 2640111.990210111 -2184554.56307191 0 0 0 0 0 101481503.2536769 -9634372.209105939 -9634372.209105939 -7419332.600110679 0 0 0 0 0 100191887.5019842 -9831182.206091432 -9831182.206091432 -7658793.973740121 0 0 0 0 0 100180680.4098952 -9651995.774864452 -9651995.774864452 -6674897.28257676 0 0 0 0 0 97426589.21240737 -9991460.246922206 -9991460.246922206 -6040632.278558889 0 0 0 0 0 98204329.99529412 -9990546.825535966 -9990546.825535966 -6505190.339477709 0 0 0 0 0 99013679.46263002 -9808488.812758187 -9808488.812758187 -6932006.905945171 0 0 0 0 0 112852784.5949478 2739356.080857794 2739356.080857794 19820207.25582521 0 0 0 0 0 112728659.4331489 3559854.31206702 3559854.31206702 19023977.38013343 0 0 0 0 0 112638697.9944151 4269000.393319068 4269000.393319068 18010099.29243768 0 0 0 0 0 112583596.777901 4864515.723020216 4864515.723020216 16873344.58636499 0 0 0 0 0 112521553.8961125 995811.4313270642 995811.4313270642 21231496.51285357 0 0 0 0 0 112515682.9262182 1646662.371638527 1646662.371638527 20541322.65218979 0 0 0 0 0 112284945.7867741 495636.6759794452 495636.6759794452 20527859.11084469 0 0 0 0 0 112555559.6703085 5350655.943084787 5350655.943084787 15662568.80850261 0 0 0 0 0 112531493.1712157 5723561.454085115 5723561.454085115 14422183.19481861 0 0 0 0 0 112515180.6267278 5992385.005685732 5992385.005685732 13130904.29590422 0 0 0 0 0 112487572.9105487 6159069.201181754 6159069.201181754 11833571.01546548 0 0 0 0 0 112466674.7010888 6242023.678847435 6242023.678847435 10536815.41228659 0 0 0 0 0 112428265.9229568 6242683.68947093 6242683.68947093 9266753.948390391 0 0 0 0 0 112372147.2725125 6162664.851893382 6162664.851893382 8048175.663655928 0 0 0 0 0 112292322.5335333 6023230.195314403 6023230.195314403 6860105.636525647 0 0 0 0 0 112188977.134128 5833768.268941629 5833768.268941629 5718092.662410079 0 0 0 0 0 112073205.8985325 5584645.190259099 5584645.190259099 4709205.185959803 0 0 0 0 0 111884130.3298076 5306299.388983639 5306299.388983639 3738312.865099422 0 0 0 0 0 111765777.4928107 5013937.31998622 5013937.31998622 2734781.835446766 0 0 0 0 0 111712600.4820229 4428568.090990611 4428568.090990611 974059.4818851062 0 0 0 0 0 111865099.6390253 4365594.79979553 4365594.79979553 1042670.792113858 0 0 0 0 0 111643479.2322377 4005898.61743609 4005898.61743609 275299.7965500832 0 0 0 0 0 111450805.4970891 3278291.93790678 3278291.93790678 -1371643.62683673 0 0 0 0 0 111570194.0444534 3151496.995077985 3151496.995077985 -1275029.051102541 0 0 0 0 0 103580953.0438747 -8781376.416470431 -8781376.416470431 -8058907.390214547 0 0 0 0 0 102533760.8848749 -9250910.262327872 -9250910.262327872 -7772483.044247867 0 0 0 0 0 104597845.8292415 -8247319.669065046 -8247319.669065046 -8291000.431311203 0 0 0 0 0 105572957.5738197 -7652053.450448089 -7652053.450448089 -8455524.024899427 0 0 0 0 0 106496591.3494713 -7000974.884375206 -7000974.884375206 -8546388.909014996 0 0 0 0 0 107359643.1303909 -6302595.786848982 -6302595.786848982 -8560076.874537282 0 0 0 0 0 108154037.5266858 -5564669.740308287 -5564669.740308287 -8492086.279252294 0 0 0 0 0 108872610.4612905 -4796559.189891281 -4796559.189891281 -8340893.279426454 0 0 0 0 0 109509616.753722 -4007816.539782586 -4007816.539782586 -8105327.286210705 0 0 0 0 0 110060985.1914558 -3208503.209009701 -3208503.209009701 -7785849.521988939 0 0 0 0 0 110523892.2654107 -2408814.863973147 -2408814.863973147 -7384572.565361545 0 0 0 0 0 110896097.5269602 -1618563.11870751 -1618563.11870751 -6905605.628833563 0 0 0 0 0 111180037.4381642 -848922.4150804959 -848922.4150804959 -6352567.000358485 0 0 0 0 0 111374927.1991474 -108816.0283205753 -108816.0283205753 -5734758.476633477 0 0 0 0 0 111484569.3473946 593974.4737450064 593974.4737450064 -5055448.312821613 0 0 0 0 0 111512622.551146 1253879.818835369 1253879.818835369 -4326077.439540874 0 0 0 0 0 111467466.6412591 1861618.268721458 1861618.268721458 -3555331.754058565 0 0 0 0 0 111362442.4745657 2410608.596256244 2410608.596256244 -2757475.072822643 0 0 0 0 0 101225066.8691704 -9474155.776769226 -9474155.776769226 -7991930.180418564 0 0 0 0 0 101178142.5177764 -9381669.526037408 -9381669.526037408 -7061984.151482676 0 0 0 0 0 99979579.36110589 -9547603.577217279 -9547603.577217279 -7291376.611374086 0 0 0 0 0 98172222.39016163 -9510505.569561196 -9510505.569561196 -5606608.884240893 0 0 0 0 0 99085035.44259518 -9472057.842300097 -9472057.842300097 -6028027.739169851 0 0 0 0 0 100034957.2703311 -9335423.341626134 -9335423.341626134 -6389319.866258492 0 0 0 0 0 112298865.4395477 2490376.232157158 2490376.232157158 19490331.98938465 0 0 0 0 0 112149458.6316742 3238341.221626741 3238341.221626741 18409496.07179443 0 0 0 0 0 112029348.6443718 3903583.857212897 3903583.857212897 17234824.08178065 0 0 0 0 0 111951566.7394767 4465980.570160115 4465980.570160115 15977364.78407292 0 0 0 0 0 112042009.34683 1032785.821425666 1032785.821425666 19637408.90032743 0 0 0 0 0 112056700.7366769 1898205.333747677 1898205.333747677 19318770.60865087 0 0 0 0 0 111796552.9816071 264454.0856387308 264454.0856387308 20217126.341516 0 0 0 0 0 111900381.0257791 4920363.89415622 4920363.89415622 14652156.90401272 0 0 0 0 0 111860388.1886855 5269826.49722225 5269826.49722225 13319888.98931693 0 0 0 0 0 111831262.8999322 5522632.385917964 5522632.385917964 11983838.24643419 0 0 0 0 0 111804516.9074593 5684165.431568213 5684165.431568213 10664401.49828327 0 0 0 0 0 111784231.1450021 5766553.784193554 5766553.784193554 9355229.956545012 0 0 0 0 0 111752501.1823762 5771895.348503591 5771895.348503591 8097058.150383135 0 0 0 0 0 111714168.1916202 5698940.356315325 5698940.356315325 6884283.190553856 0 0 0 0 0 111626357.7153472 5561559.204215821 5561559.204215821 5718790.444405578 0 0 0 0 0 111542673.6336981 5393129.005109251 5393129.005109251 4646619.963408561 0 0 0 0 0 111506922.7269151 5193201.722870126 5193201.722870126 3673807.537060829 0 0 0 0 0 111271520.7785676 4875882.732450776 4875882.732450776 2750055.831119463 0 0 0 0 0 111191823.8734554 4618384.642678531 4618384.642678531 1833922.784633722 0 0 0 0 0 111493869.7484942 4649441.353055983 4649441.353055983 1879143.201744881 0 0 0 0 0 111332278.078556 3998894.325278602 3998894.325278602 192067.4311270621 0 0 0 0 0 111139747.8142193 3682440.475465359 3682440.475465359 -473315.4793572802 0 0 0 0 0 111369275.90881 3604898.172333456 3604898.172333456 -371597.4713028139 0 0 0 0 0 111150311.7168327 2870727.657234214 2870727.657234214 -1949049.258047663 0 0 0 0 0 103267898.4312399 -8524004.942035072 -8524004.942035072 -8486672.996045729 0 0 0 0 0 102242176.6548852 -9033679.954703771 -9033679.954703771 -8270243.103646689 0 0 0 0 0 104267835.1665549 -7951367.044120237 -7951367.044120237 -8632736.988198489 0 0 0 0 0 105229177.106144 -7320316.086913841 -7320316.086913841 -8703639.353734415 0 0 0 0 0 106144321.1788834 -6638247.641442423 -6638247.641442423 -8694722.221519733 0 0 0 0 0 107003666.0525424 -5913223.688054839 -5913223.688054839 -8603572.574978903 0 0 0 0 0 107799366.7168163 -5153535.293372419 -5153535.293372419 -8427841.117351746 0 0 0 0 0 108524082.6544483 -4368527.427612342 -4368527.427612342 -8167374.080208031 0 0 0 0 0 109171707.6389589 -3568062.29494104 -3568062.29494104 -7823488.895851554 0 0 0 0 0 109737678.8265297 -2762001.946170482 -2762001.946170482 -7398762.338222781 0 0 0 0 0 110218535.9495229 -1960605.867511807 -1960605.867511807 -6897563.294145249 0 0 0 0 0 110612189.4840305 -1174021.470816129 -1174021.470816129 -6325303.500372579 0 0 0 0 0 110918466.8551363 -412010.7601053628 -412010.7601053628 -5689643.518935639 0 0 0 0 0 111135782.0175994 314512.47553047 314512.47553047 -4999707.563933608 0 0 0 0 0 111272793.367818 1002611.674566588 1002611.674566588 -4255429.731586173 0 0 0 0 0 111329262.1238113 1644704.74193526 1644704.74193526 -3474555.354555552 0 0 0 0 0 111310283.2420854 2230237.850127048 2230237.850127048 -2673586.955566983 0 0 0 0 0 111227062.5813264 2742217.879443243 2742217.879443243 -1850893.020668234 0 0 0 0 0 102159645.2899957 -9039052.701939866 -9039052.701939866 -7410630.228317355 0 0 0 0 0 100928501.7052386 -9226990.643476188 -9226990.643476188 -7620319.946157998 0 0 0 0 0 100933642.7153594 -9102181.502821958 -9102181.502821958 -6752796.919549664 0 0 0 0 0 98302319.94494462 -9563713.887991583 -9563713.887991583 -6258131.848390854 0 0 0 0 0 99087195.13753206 -9455788.872468732 -9455788.872468732 -6631235.893355547 0 0 0 0 0 99881968.60429087 -9259125.919908827 -9259125.919908827 -6958816.761440556 0 0 0 0 0 111927602.4740817 2772525.65892077 2772525.65892077 18921597.49445199 0 0 0 0 0 111827891.8300885 3516931.329490141 3516931.329490141 18053782.3689977 0 0 0 0 0 111762837.9701026 4168205.347547007 4168205.347547007 17090383.14798941 0 0 0 0 0 111734778.483854 4721314.128573432 4721314.128573432 16030699.75664541 0 0 0 0 0 111649722.4941868 1292401.547686547 1292401.547686547 20032190.49970208 0 0 0 0 0 111614745.4389901 1803338.609467613 1803338.609467613 19327543.24041197 0 0 0 0 0 111340785.219615 557454.5095291514 557454.5095291514 19511881.98902192 0 0 0 0 0 111720710.322867 5169734.74710905 5169734.74710905 14918764.68063344 0 0 0 0 0 111712833.3421178 5514191.278713452 5514191.278713452 13748955.62433691 0 0 0 0 0 111714279.0882243 5765692.404360866 5765692.404360866 12550925.65271172 0 0 0 0 0 111718016.7049135 5927195.392557573 5927195.392557573 11333516.46691331 0 0 0 0 0 111714675.5849853 6010836.00198775 6010836.00198775 10119032.66900858 0 0 0 0 0 111698602.9001433 6015356.816241545 6015356.816241545 8936856.357868548 0 0 0 0 0 111658843.4638962 5959771.894340679 5959771.894340679 7795698.286430714 0 0 0 0 0 111578277.9978451 5827675.396350416 5827675.396350416 6688277.491334755 0 0 0 0 0 111501783.147119 5670155.029371077 5670155.029371077 5633690.52730394 0 0 0 0 0 111284669.3039073 5414114.730215258 5414114.730215258 4758540.862731392 0 0 0 0 0 111360908.2862344 5173074.60266982 5173074.60266982 3451450.860062527 0 0 0 0 0 111294522.9134081 4866396.848602902 4866396.848602902 2517737.664528422 0 0 0 0 0 111245095.7048098 4499451.504985906 4499451.504985906 1256084.089065219 0 0 0 0 0 111312441.6690412 4349580.608251892 4349580.608251892 1264323.650827822 0 0 0 0 0 111124845.1652085 4011739.32882679 4011739.32882679 565773.4832078192 0 0 0 0 0 110968643.4640179 3320280.12725209 3320280.12725209 -1070201.486297086 0 0 0 0 0 111063857.5824325 3224611.154146255 3224611.154146255 -990161.9789020745 0 0 0 0 0 104125411.3323178 -8124391.426926877 -8124391.426926877 -7937373.218559812 0 0 0 0 0 103154532.7114668 -8610085.912502417 -8610085.912502417 -7694382.624090444 0 0 0 0 0 105058643.9629514 -7581355.799700339 -7581355.799700339 -8119111.065399908 0 0 0 0 0 105949374.279926 -6982822.040663678 -6982822.040663678 -8232809.113156799 0 0 0 0 0 106786851.9182591 -6337395.926055388 -6337395.926055388 -8276201.883256256 0 0 0 0 0 107563427.5705249 -5652444.438570103 -5652444.438570103 -8245300.724589201 0 0 0 0 0 108272010.738202 -4935899.129215968 -4935899.129215968 -8137684.594973841 0 0 0 0 0 108907027.0519262 -4196337.307832662 -4196337.307832662 -7951890.077890717 0 0 0 0 0 109464068.409096 -3442682.089856342 -3442682.089856342 -7687710.923961117 0 0 0 0 0 109939898.4238345 -2684087.902756459 -2684087.902756459 -7346453.107476193 0 0 0 0 0 110332563.3131557 -1929945.38532556 -1929945.38532556 -6930778.946999816 0 0 0 0 0 110642096.8788866 -1189367.190456886 -1189367.190456886 -6444590.007312651 0 0 0 0 0 110868999.5013951 -471494.070280431 -471494.070280431 -5893132.720402516 0 0 0 0 0 111015804.7118186 215057.2869683238 215057.2869683238 -5282179.286076225 0 0 0 0 0 111082301.6868052 862228.0783039945 862228.0783039945 -4621511.199311747 0 0 0 0 0 111076496.4906531 1468585.743132285 1468585.743132285 -3912028.045347382 0 0 0 0 0 111001229.8143306 2021645.667642461 2021645.667642461 -3176376.241321542 0 0 0 0 0 110865295.1593696 2497638.979368131 2497638.979368131 -2458435.307315492 0 0 0 0 0 101884316.3007222 -8838327.264226001 -8838327.264226001 -7901351.614491951 0 0 0 0 0 101821704.5098883 -8812437.391355708 -8812437.391355708 -7075053.299719776 0 0 0 0 0 100729563.7260821 -8981033.543936944 -8981033.543936944 -7250253.827883762 0 0 0 0 0 99093051.92021316 -9080731.305496527 -9080731.305496527 -5775416.912690694 0 0 0 0 0 99880168.2622636 -9020134.901889633 -9020134.901889633 -6183505.294031386 0 0 0 0 0 100751108.8066064 -8871948.773628976 -8871948.773628976 -6474072.463949312 0 0 0 0 0 111442551.3706926 2518921.388168987 2518921.388168987 18479721.84181251 0 0 0 0 0 111299577.8791141 3219256.548147638 3219256.548147638 17472570.098676 0 0 0 0 0 111209863.292218 3832357.714039475 3832357.714039475 16367112.19238799 0 0 0 0 0 111157203.8428655 4349743.033660863 4349743.033660863 15177158.94142854 0 0 0 0 0 111246894.9877335 1180905.914381248 1180905.914381248 18749419.40686356 0 0 0 0 0 111215956.8559632 2075901.119539331 2075901.119539331 18862444.24058247 0 0 0 0 0 110862223.9978063 259808.8550573613 259808.8550573613 18868424.18653503 0 0 0 0 0 111118316.717415 4767326.163028424 4767326.163028424 13965536.53158847 0 0 0 0 0 111093063.4394357 5091405.995111246 5091405.995111246 12722350.03433318 0 0 0 0 0 111086151.9261152 5332085.110165291 5332085.110165291 11479931.61617626 0 0 0 0 0 111084566.8318448 5486002.153104156 5486002.153104156 10237342.31959663 0 0 0 0 0 111074138.8658012 5565844.062918379 5565844.062918379 9016250.060815156 0 0 0 0 0 111123848.5172732 5599341.74139129 5599341.74139129 7868170.005380659 0 0 0 0 0 111040520.842326 5530851.004870488 5530851.004870488 6710649.775919295 0 0 0 0 0 110948594.4842506 5395284.108123491 5395284.108123491 5624953.035376757 0 0 0 0 0 110957835.1531638 5288778.634639169 5288778.634639169 4683693.17504516 0 0 0 0 0 111135166.2360399 5342886.420379497 5342886.420379497 4300575.258436881 0 0 0 0 0 110671926.9772376 4978097.3894669 4978097.3894669 3806682.977579451 0 0 0 0 0 110738984.5226089 4747972.700025036 4747972.700025036 2687751.451616733 0 0 0 0 0 110739948.8377226 4487786.119788995 4487786.119788995 1900746.116594168 0 0 0 0 0 110805337.3835949 4027477.510785119 4027477.510785119 475601.328505363 0 0 0 0 0 110692431.5021185 3713329.691697028 3713329.691697028 -198379.1844813613 0 0 0 0 0 110731093.9463635 3595942.037852296 3595942.037852296 -151086.7950077479 0 0 0 0 0 110562964.5179229 2888583.926046499 2888583.926046499 -1688486.519162627 0 0 0 0 0 102861246.6506141 -8377399.753289812 -8377399.753289812 -8130221.414394591 0 0 0 0 0 103816481.1073023 -7856867.419625557 -7856867.419625557 -8294191.929807575 0 0 0 0 0 104735050.4876382 -7278186.296078964 -7278186.296078964 -8389390.605199846 0 0 0 0 0 105616910.1148232 -6649318.435862022 -6649318.435862022 -8412184.386592895 0 0 0 0 0 106449552.9884918 -5977965.08879004 -5977965.08879004 -8359804.695177985 0 0 0 0 0 107225792.8783799 -5271062.592271058 -5271062.592271058 -8229388.340471654 0 0 0 0 0 107938510.8579315 -4537097.725563244 -4537097.725563244 -8020335.080489435 0 0 0 0 0 108581893.5751596 -3784724.102271017 -3784724.102271017 -7733057.77475574 0 0 0 0 0 109151104.5598144 -3022814.183494613 -3022814.183494613 -7369205.119632858 0 0 0 0 0 109642553.0625107 -2260636.760524728 -2260636.760524728 -6931903.171289753 0 0 0 0 0 110053775.1406249 -1507544.485067957 -1507544.485067957 -6426127.551678146 0 0 0 0 0 110384220.9754521 -772292.5885461993 -772292.5885461993 -5857039.532226508 0 0 0 0 0 110633445.8779167 -64083.36929910563 -64083.36929910563 -5231804.471332538 0 0 0 0 0 110804248.1995565 609315.8443821119 609315.8443821119 -4558097.327259833 0 0 0 0 0 110899196.5639116 1239295.026598905 1239295.026598905 -3834433.060687413 0 0 0 0 0 110921702.6219148 1824204.50815777 1824204.50815777 -3076608.896042957 0 0 0 0 0 110893702.8820146 2355519.250906837 2355519.250906837 -2340038.661670272 0 0 0 0 0 110823602.5309567 2823261.493539506 2823261.493539506 -1578649.156732405 0 0 0 0 0 102763116.8845635 -8431340.539290566 -8431340.539290566 -7351069.358764997 0 0 0 0 0 101552914.8688342 -8625492.228898125 -8625492.228898125 -7561417.954930088 0 0 0 0 0 101542099.2746155 -8609332.18604188 -8609332.18604188 -6825189.09775596 0 0 0 0 0 99154531.61577809 -9102319.095949614 -9102319.095949614 -6394479.580580427 0 0 0 0 0 99873096.83809279 -8995811.14392272 -8995811.14392272 -6702436.144648874 0 0 0 0 0 100536113.2503571 -8728527.148474818 -8728527.148474818 -6938306.898107457 0 0 0 0 0 111094525.2218095 2789241.113327275 2789241.113327275 17982189.56533421 0 0 0 0 0 111013748.3092396 3468182.419118905 3468182.419118905 17159322.82967678 0 0 0 0 0 110976246.2439244 4067017.701018083 4067017.701018083 16240007.18738436 0 0 0 0 0 110960705.3814543 4574649.152780935 4574649.152780935 15258996.41364394 0 0 0 0 0 110803909.4738793 1208514.909124979 1208514.909124979 19052188.08143524 0 0 0 0 0 110769430.6679188 1817922.205058888 1817922.205058888 18351675.70157271 0 0 0 0 0 110466079.2693714 472851.7328267376 472851.7328267376 18628593.43647188 0 0 0 0 0 110959611.9109443 4987000.479733664 4987000.479733664 14206315.36839638 0 0 0 0 0 110971127.8091087 5307026.527877638 5307026.527877638 13121771.48827245 0 0 0 0 0 110994918.9498048 5546594.124223735 5546594.124223735 11987139.59473661 0 0 0 0 0 111013321.9687861 5700992.237030106 5700992.237030106 10858729.34739208 0 0 0 0 0 110982575.4226807 5795798.056584515 5795798.056584515 9601429.134328282 0 0 0 0 0 111088479.7287128 5811729.318957284 5811729.318957284 8504949.552995635 0 0 0 0 0 111020584.4083932 5711815.737593488 5711815.737593488 7586579.877567099 0 0 0 0 0 110971000.9248903 5628019.070790785 5628019.070790785 6599131.754447493 0 0 0 0 0 111074676.0131965 5541440.924650823 5541440.924650823 5562211.983516183 0 0 0 0 0 110455677.3747242 5143540.170539892 5143540.170539892 4841046.536192277 0 0 0 0 0 110764982.879929 5151855.877508874 5151855.877508874 4037281.709866067 0 0 0 0 0 110849827.5603452 4947676.57837973 4947676.57837973 3123140.443567394 0 0 0 0 0 110854253.4591146 4660326.728403784 4660326.728403784 2185017.004499515 0 0 0 0 0 110868782.429837 4347629.433670367 4347629.433670367 1384219.30852442 0 0 0 0 0 110554795.5044014 3955531.348967487 3955531.348967487 665465.9068481427 0 0 0 0 0 110597324.6504903 3495823.959081601 3495823.959081601 -525770.0371011815 0 0 0 0 0 110742244.1452739 3221482.339872058 3221482.339872058 -935632.4016958972 0 0 0 0 0 103692637.1370008 -7990020.796506329 -7990020.796506329 -7598084.12096324 0 0 0 0 0 104583259.8944806 -7497579.774242532 -7497579.774242532 -7793717.540360251 0 0 0 0 0 105441208.2170508 -6946281.116225942 -6946281.116225942 -7923691.947135561 0 0 0 0 0 106251923.0393785 -6350749.363592787 -6350749.363592787 -7992700.442323815 0 0 0 0 0 107009186.6036573 -5715497.482494914 -5715497.482494914 -7993444.373370306 0 0 0 0 0 107705769.9961523 -5047704.438312975 -5047704.438312975 -7923591.225691697 0 0 0 0 0 108336077.8417432 -4355074.671569692 -4355074.671569692 -7781267.002909577 0 0 0 0 0 108895320.2041488 -3645792.957103504 -3645792.957103504 -7566195.377273693 0 0 0 0 0 109380269.0058452 -2927878.709084952 -2927878.709084952 -7278520.446813767 0 0 0 0 0 109788461.4322727 -2210000.118817123 -2210000.118817123 -6920359.193935295 0 0 0 0 0 110119585.5987433 -1500248.086031547 -1500248.086031547 -6494410.818675279 0 0 0 0 0 110373744.8102733 -807095.8056831077 -807095.8056831077 -6005120.346908184 0 0 0 0 0 110552373.5119204 -138717.3066755514 -138717.3066755514 -5457726.221154805 0 0 0 0 0 110658798.4928851 497524.8331952036 497524.8331952036 -4859054.694441054 0 0 0 0 0 110692435.9619642 1089470.112904208 1089470.112904208 -4219387.306834706 0 0 0 0 0 110665006.401127 1641845.643508634 1641845.643508634 -3532926.546160569 0 0 0 0 0 110600650.5790195 2156771.041281963 2156771.041281963 -2830461.547638316 0 0 0 0 0 110405463.4387321 2551291.775854114 2551291.775854114 -2217019.249669584 0 0 0 0 0 102490424.3988177 -8221566.469299478 -8221566.469299478 -7786388.477271984 0 0 0 0 0 102401458.6908259 -8233256.406570639 -8233256.406570639 -7064346.286686457 0 0 0 0 0 101313178.6272512 -8397428.139298292 -8397428.139298292 -7096001.349230775 0 0 0 0 0 99903929.38054921 -8641313.293363221 -8641313.293363221 -5916960.265148827 0 0 0 0 0 100476212.5588122 -8578674.04041484 -8578674.04041484 -6302142.756041879 0 0 0 0 0 100988730.1042751 -8547391.206851538 -8547391.206851538 -6655708.116083554 0 0 0 0 0 110615632.4159158 2538472.760626239 2538472.760626239 17545531.24367591 0 0 0 0 0 110524842.8817923 3187546.34917531 3187546.34917531 16597089.47360126 0 0 0 0 0 110469895.512192 3752847.432666846 3752847.432666846 15548438.31976259 0 0 0 0 0 110433837.6404566 4229804.588553348 4229804.588553348 14451674.20074326 0 0 0 0 0 110403627.0315988 1024459.986732739 1024459.986732739 17903349.46685627 0 0 0 0 0 110435877.2569694 2045343.486911856 2045343.486911856 17751746.0452138 0 0 0 0 0 110099274.8727044 241059.0689846724 241059.0689846724 18103794.33170979 0 0 0 0 0 110410464.7077095 4617632.556885016 4617632.556885016 13317736.52385812 0 0 0 0 0 110402029.6521845 4916853.694562353 4916853.694562353 12167428.59012947 0 0 0 0 0 110423881.1224478 5149492.380145435 5149492.380145435 11001855.58426726 0 0 0 0 0 110438145.8176134 5291460.84239104 5291460.84239104 9821293.426114049 0 0 0 0 0 110494632.7601144 5419035.078121501 5419035.078121501 8820140.499034537 0 0 0 0 0 110513636.7119815 5433338.776304901 5433338.776304901 7519837.673558432 0 0 0 0 0 110505766.2130409 5370892.440590118 5370892.440590118 6532670.285408024 0 0 0 0 0 110402641.8708161 5228030.524789576 5228030.524789576 5625027.037462004 0 0 0 0 0 110525713.0522402 5289713.79499478 5289713.79499478 4970020.923953798 0 0 0 0 0 110107250.7291004 4969308.617681758 4969308.617681758 4442198.332755688 0 0 0 0 0 110223842.2630009 4783297.076764205 4783297.076764205 3454366.991241207 0 0 0 0 0 110272137.2475261 4542825.389015826 4542825.389015826 2472712.420538091 0 0 0 0 0 110308777.4834362 4250659.805016581 4250659.805016581 1495212.947577763 0 0 0 0 0 110354182.0252744 4003975.409151957 4003975.409151957 587549.6789330408 0 0 0 0 0 110404576.7359253 3855425.946309321 3855425.946309321 301595.4753391728 0 0 0 0 0 110127372.6874518 3197215.652953681 3197215.652953681 -805500.8240251908 0 0 0 0 0 110165972.7801733 3637562.451292795 3637562.451292795 177570.7802326426 0 0 0 0 0 110118716.5069972 2847296.937940989 2847296.937940989 -1556132.758196895 0 0 0 0 0 103407327.3722452 -7750866.792705695 -7750866.792705695 -7963462.469631557 0 0 0 0 0 104278640.1020646 -7219217.548980822 -7219217.548980822 -8079295.665414081 0 0 0 0 0 105127581.4416582 -6640315.944821896 -6640315.944821896 -8129304.410264131 0 0 0 0 0 105932763.0763672 -6019041.883355354 -6019041.883355354 -8109961.176747537 0 0 0 0 0 106688413.3526205 -5361897.913621651 -5361897.913621651 -8019018.642308134 0 0 0 0 0 107387199.0982749 -4676380.023350974 -4676380.023350974 -7855334.820526356 0 0 0 0 0 108023446.2292097 -3970204.000382205 -3970204.000382205 -7618426.714512597 0 0 0 0 0 108592607.4026261 -3251476.067166871 -3251476.067166871 -7309324.886643614 0 0 0 0 0 109090807.1061227 -2528376.88907456 -2528376.88907456 -6930190.087326298 0 0 0 0 0 109515497.3768859 -1809380.365740582 -1809380.365740582 -6484760.548741578 0 0 0 0 0 109865278.3725504 -1102718.055192126 -1102718.055192126 -5978264.563695256 0 0 0 0 0 110140143.4535685 -416325.7834794602 -416325.7834794602 -5415227.000894086 0 0 0 0 0 110340366.1200407 241760.2040133589 241760.2040133589 -4803507.995385271 0 0 0 0 0 110469882.9594968 865814.7685879632 865814.7685879632 -4156561.633350717 0 0 0 0 0 110528339.2543722 1439377.961882307 1439377.961882307 -3459209.72612185 0 0 0 0 0 110511838.6544149 1953252.140817263 1953252.140817263 -2746733.732927539 0 0 0 0 0 110423733.515677 2431936.747763463 2431936.747763463 -2133088.183131269 0 0 0 0 0 110469123.2529988 2805118.187765545 2805118.187765545 -1491459.774690333 0 0 0 0 0 103296979.4849337 -7841775.096769813 -7841775.096769813 -7250860.796395855 0 0 0 0 0 102173388.6596639 -8063234.855373868 -8063234.855373868 -7412789.966170583 0 0 0 0 0 101820477.696491 -8212146.597724154 -8212146.597724154 -6825954.683328787 0 0 0 0 0 99992135.25961712 -8658845.38937225 -8658845.38937225 -6468418.46662221 0 0 0 0 0 100944933.8987025 -8253399.579459687 -8253399.579459687 -6730936.164653642 0 0 0 0 0 110325506.2159688 2759904.568418306 2759904.568418306 17074748.62972241 0 0 0 0 0 110278986.2315432 3399480.312961807 3399480.312961807 16308934.71952623 0 0 0 0 0 110263766.9950707 3957501.912940553 3957501.912940553 15451544.68730028 0 0 0 0 0 110260509.3830034 4428015.739275758 4428015.739275758 14514935.43473031 0 0 0 0 0 110202387.0537799 1240701.012122755 1240701.012122755 18249838.17031369 0 0 0 0 0 110193915.8026926 1078732.750514362 1078732.750514362 18108403.48673323 0 0 0 0 0 110043811.9277241 1862763.624987448 1862763.624987448 17485883.51613903 0 0 0 0 0 109762403.9167367 445115.812468612 445115.812468612 17735033.02098045 0 0 0 0 0 110271940.2416677 4810035.924430166 4810035.924430166 13542251.50039624 0 0 0 0 0 110297151.5633709 5113113.076782001 5113113.076782001 12520640.37644793 0 0 0 0 0 110343715.7768072 5336663.367660369 5336663.367660369 11450383.63186793 0 0 0 0 0 110284495.0584456 5474818.843770077 5474818.843770077 10379904.29004477 0 0 0 0 0 110391491.4384151 5466028.340987165 5466028.340987165 8470512.075419139 0 0 0 0 0 110419796.2973062 5527968.315098577 5527968.315098577 8505318.604152709 0 0 0 0 0 110339190.4423204 5509079.550117688 5509079.550117688 7608162.90375231 0 0 0 0 0 110449504.5661082 5427958.319628061 5427958.319628061 6030104.202722517 0 0 0 0 0 109967852.7796333 5096660.042324811 5096660.042324811 5451457.554283846 0 0 0 0 0 110175882.1080362 5127927.674663753 5127927.674663753 4632511.863807199 0 0 0 0 0 110309196.8891928 4977671.07056757 4977671.07056757 3740658.501996963 0 0 0 0 0 110383769.8365659 4761145.033057866 4761145.033057866 2856752.09515113 0 0 0 0 0 110479216.7935044 4482409.08594642 4482409.08594642 2048688.643656381 0 0 0 0 0 110445101.9146372 4197973.738721095 4197973.738721095 1265814.293478821 0 0 0 0 0 109921975.661416 3827290.923472349 3827290.923472349 708668.5415173506 0 0 0 0 0 110430468.7388497 3465544.88960077 3465544.88960077 -232613.7616420509 0 0 0 0 0 109808152.4601722 3413960.078268525 3413960.078268525 -309950.5234536217 0 0 0 0 0 110284290.4578615 3119794.171334204 3119794.171334204 -876617.1840041121 0 0 0 0 0 104140959.2761563 -7405156.723280677 -7405156.723280677 -7475690.195723813 0 0 0 0 0 104969388.3059045 -6893706.761937051 -6893706.761937051 -7619829.088249816 0 0 0 0 0 105753164.6140355 -6345225.597610587 -6345225.597610587 -7711796.076410078 0 0 0 0 0 106489771.1188847 -5756509.601703321 -5756509.601703321 -7739262.454316335 0 0 0 0 0 107172230.5496241 -5134922.259229098 -5134922.259229098 -7702118.813223352 0 0 0 0 0 107795303.5641868 -4487019.49785366 -4487019.49785366 -7598026.379800642 0 0 0 0 0 108354180.7951642 -3820159.081000107 -3820159.081000107 -7426022.471843465 0 0 0 0 0 108844909.9799304 -3142016.222225055 -3142016.222225055 -7186255.135029091 0 0 0 0 0 109265226.6519203 -2460062.45761763 -2460062.45761763 -6879738.866837347 0 0 0 0 0 109613596.1388493 -1782054.460154102 -1782054.460154102 -6508615.923349812 0 0 0 0 0 109890910.3493187 -1114824.197250756 -1114824.197250756 -6075759.576741241 0 0 0 0 0 110096439.7537363 -467156.9147850181 -467156.9147850181 -5586902.042049224 0 0 0 0 0 110231866.436968 154584.5482729317 154584.5482729317 -5046432.251444377 0 0 0 0 0 110299979.0744978 744768.7870016064 744768.7870016064 -4462342.000084382 0 0 0 0 0 110271874.7976043 1267771.769284352 1267771.769284352 -3869381.219122706 0 0 0 0 0 110275101.9544574 1781930.713691198 1781930.713691198 -3208396.15073689 0 0 0 0 0 110375721.346705 2397385.47059146 2397385.47059146 -2344680.300366489 0 0 0 0 0 109913536.1244675 2447463.586322699 2447463.586322699 -2056714.266417233 0 0 0 0 0 103024044.4470968 -7628222.222023042 -7628222.222023042 -7646289.92573968 0 0 0 0 0 102924182.3879298 -7643221.013501051 -7643221.013501051 -6919252.203015697 0 0 0 0 0 101918672.1559505 -7803141.509437497 -7803141.509437497 -6651714.445107635 0 0 0 0 0 100691913.8395239 -8191600.843906569 -8191600.843906569 -6007033.33222151 0 0 0 0 0 101547729.1340685 -7994480.342133066 -7994480.342133066 -6348911.227181822 0 0 0 0 0 109910316.7827743 2538668.780174386 2538668.780174386 16677972.47949121 0 0 0 0 0 109844962.5085372 3141678.794715866 3141678.794715866 15768980.34846668 0 0 0 0 0 109806620.908622 3666941.451613168 3666941.451613168 14794724.46821186 0 0 0 0 0 109779341.2032865 4110585.160519844 4110585.160519844 13769624.42045395 0 0 0 0 0 109830472.8617483 1484930.224668436 1484930.224668436 17446526.67245136 0 0 0 0 0 109773130.9217232 834864.2765429092 834864.2765429092 17617084.34532611 0 0 0 0 0 109720759.4226408 2072452.952709073 2072452.952709073 16810553.96053763 0 0 0 0 0 109410111.3451508 228539.0758737569 228539.0758737569 17281647.9127979 0 0 0 0 0 109781941.514632 4474716.798933144 4474716.798933144 12725959.49771011 0 0 0 0 0 109779500.664804 4759362.54272801 4759362.54272801 11657951.08753366 0 0 0 0 0 109864800.9484394 4989463.83503128 4989463.83503128 10531658.99257983 0 0 0 0 0 109810936.1164448 5159058.803832007 5159058.803832007 9350328.753856506 0 0 0 0 0 109895558.8938781 5293982.481071168 5293982.481071168 9417768.592827234 0 0 0 0 0 110023710.9787898 5273153.83571041 5273153.83571041 7519810.066991729 0 0 0 0 0 110060711.3232515 5362552.578104137 5362552.578104137 6853392.35361401 0 0 0 0 0 109836747.4512613 5173231.70740737 5173231.70740737 6582464.860451226 0 0 0 0 0 110000748.6008599 5242062.290031583 5242062.290031583 5564993.392870431 0 0 0 0 0 109696806.0181415 4786994.843500819 4786994.843500819 4081681.576499618 0 0 0 0 0 109569687.8308156 4919424.760416371 4919424.760416371 5030686.555363254 0 0 0 0 0 109790149.0141349 4606592.577153492 4606592.577153492 3143253.36642311 0 0 0 0 0 109855328.1424955 4384446.34328146 4384446.34328146 2249520.865951551 0 0 0 0 0 109900933.4620795 4105124.112554122 4105124.112554122 1440832.644300081 0 0 0 0 0 109790473.2116912 3091754.807567413 3091754.807567413 -843451.9872789036 0 0 0 0 0 109677964.4062859 2725494.387007808 2725494.387007808 -1529711.0477368 0 0 0 0 0 103848511.6550149 -7143404.06536584 -7143404.06536584 -7777263.713233152 0 0 0 0 0 104673825.2162178 -6613026.946918136 -6613026.946918136 -7848533.148947407 0 0 0 0 0 105451264.8636878 -6039227.471423212 -6039227.471423212 -7857322.21970628 0 0 0 0 0 106185261.7603649 -5429085.664975333 -5429085.664975333 -7800506.10041815 0 0 0 0 0 106868530.992661 -4789394.946697371 -4789394.946697371 -7676370.208087039 0 0 0 0 0 107495934.4723295 -4127216.243977529 -4127216.243977529 -7484244.970255142 0 0 0 0 0 108062166.5341006 -3450133.000210437 -3450133.000210437 -7224515.601586736 0 0 0 0 0 108563899.1548611 -2765412.59258212 -2765412.59258212 -6898055.297136835 0 0 0 0 0 108998037.8684914 -2080916.005430675 -2080916.005430675 -6507931.443218604 0 0 0 0 0 109362999.6622038 -1403903.077408841 -1403903.077408841 -6058142.70171949 0 0 0 0 0 109658659.5950829 -741441.9452941556 -741441.9452941556 -5553944.608568559 0 0 0 0 0 109884440.708992 -102330.5245483322 -102330.5245483322 -4998651.868083733 0 0 0 0 0 110043221.3194408 506385.4590412389 506385.4590412389 -4397596.307602777 0 0 0 0 0 110148981.7586443 1078726.097208868 1078726.097208868 -3781565.144901986 0 0 0 0 0 110192958.4384463 1622723.513822101 1622723.513822101 -3106596.033945309 0 0 0 0 0 110065809.2968365 2091747.999504106 2091747.999504106 -2485176.6817056 0 0 0 0 0 110115237.801175 2702409.293399595 2702409.293399595 -1515453.931938109 0 0 0 0 0 103729892.481635 -7295205.093293441 -7295205.093293441 -7215501.504735478 0 0 0 0 0 102367893.7760028 -7782696.221910512 -7782696.221910512 -7116671.277781915 0 0 0 0 0 102705911.768446 -7506210.354117899 -7506210.354117899 -7381918.500229735 0 0 0 0 0 101397606.68496 -7916644.895316322 -7916644.895316322 -6844191.520338875 0 0 0 0 0 100634212.6658895 -8171099.175365099 -8171099.175365099 -6547998.951690468 0 0 0 0 0 109650685.1447703 2734138.339723798 2734138.339723798 16245279.53968717 0 0 0 0 0 109623565.569283 3331881.599415646 3331881.599415646 15513786.62454414 0 0 0 0 0 109616378.5531975 3850892.542977635 3850892.542977635 14686014.76037078 0 0 0 0 0 109634554.0273437 4280333.669051898 4280333.669051898 13855353.86702267 0 0 0 0 0 109520709.260296 1351087.429575882 1351087.429575882 17244296.56992899 0 0 0 0 0 109454780.1398307 1024861.595566842 1024861.595566842 17245348.22288652 0 0 0 0 0 109378441.9429322 1925023.050791693 1925023.050791693 16611156.32607972 0 0 0 0 0 109094152.3365868 423219.8885044259 423219.8885044259 16918630.27921413 0 0 0 0 0 109672992.6314571 4638301.557684307 4638301.557684307 12932731.28224059 0 0 0 0 0 109696171.893775 4938169.222822009 4938169.222822009 11911393.51543319 0 0 0 0 0 109784147.1748768 5139378.756122015 5139378.756122015 10969241.52581649 0 0 0 0 0 109663221.9851424 5218896.006706711 5218896.006706711 10133393.09273643 0 0 0 0 0 109758653.1515134 5320429.588099374 5320429.588099374 8927999.130827745 0 0 0 0 0 109987791.7143566 5428816.084903955 5428816.084903955 8095129.936780275 0 0 0 0 0 109610196.0767159 5179919.883064083 5179919.883064083 7608456.752805326 0 0 0 0 0 109817422.143642 5268492.426151372 5268492.426151372 6496377.647960886 0 0 0 0 0 109425637.9357339 4986184.595963512 4986184.595963512 6027315.543627251 0 0 0 0 0 104533023.9168705 -6823794.916911756 -6823794.916911756 -7335147.147889323 0 0 0 0 0 105287942.0019587 -6323552.692494692 -6323552.692494692 -7439687.293828714 0 0 0 0 0 106003452.440319 -5778201.381716864 -5778201.381716864 -7486345.724952471 0 0 0 0 0 106670334.8655405 -5200224.202899123 -5200224.202899123 -7476602.67333179 0 0 0 0 0 107283983.7111948 -4594723.999037276 -4594723.999037276 -7405417.276661512 0 0 0 0 0 107839588.561581 -3968610.323050247 -3968610.323050247 -7271646.293332528 0 0 0 0 0 108333728.35648 -3328575.786488932 -3328575.786488932 -7074424.584604145 0 0 0 0 0 108762871.45266 -2681904.948631155 -2681904.948631155 -6814217.770268269 0 0 0 0 0 109125097.0455447 -2035800.9060048 -2035800.9060048 -6492996.254983976 0 0 0 0 0 109421276.9254385 -1395987.672921998 -1395987.672921998 -6111944.067694807 0 0 0 0 0 109651540.2983763 -769468.9088933097 -769468.9088933097 -5675333.798111101 0 0 0 0 0 109814892.9734724 -165827.2401206379 -165827.2401206379 -5190286.076947991 0 0 0 0 0 109906397.4512683 405483.8152661801 405483.8152661801 -4662218.116817025 0 0 0 0 0 109957454.7111352 948324.1874302777 948324.1874302777 -4109532.005631252 0 0 0 0 0 109796973.1919346 1375902.28028785 1375902.28028785 -3603027.485799664 0 0 0 0 0 109928062.0885284 2005417.301786019 2005417.301786019 -2678872.549981413 0 0 0 0 0 109554991.8956112 2348731.886812856 2348731.886812856 -2091292.714094369 0 0 0 0 0 103466135.674695 -7062558.301845118 -7062558.301845118 -7484561.741739739 0 0 0 0 0 102577786.2224911 -7325246.130483526 -7325246.130483526 -6878847.159391805 0 0 0 0 0 103387575.3209665 -7196670.750605316 -7196670.750605316 -6945968.713166913 0 0 0 0 0 102071131.3712409 -7521532.009098594 -7521532.009098594 -6416781.855337601 0 0 0 0 0 101357175.2842512 -7753036.563527579 -7753036.563527579 -6078039.82180587 0 0 0 0 0 109291773.1899948 2533828.829373437 2533828.829373437 15859497.24404432 0 0 0 0 0 109238513.8684727 3098272.627731686 3098272.627731686 15012602.33018323 0 0 0 0 0 109194864.3023553 3585309.68791272 3585309.68791272 14094170.9974242 0 0 0 0 0 109215055.8002443 4001292.837501697 4001292.837501697 13160143.59489621 0 0 0 0 0 109216205.1272566 1546074.00089189 1546074.00089189 16700205.22796253 0 0 0 0 0 109098114.2659985 820859.8557131108 820859.8557131108 16838608.03887961 0 0 0 0 0 109094158.2783322 2119793.058163621 2119793.058163621 16098824.45079062 0 0 0 0 0 108767146.8514783 218567.0152322909 218567.0152322909 16444360.37611259 0 0 0 0 0 109241288.1927894 4344704.499874512 4344704.499874512 12145689.01526015 0 0 0 0 0 109303433.8832042 4656709.994304198 4656709.994304198 11239417.70080353 0 0 0 0 0 109340492.312401 4845020.591932036 4845020.591932036 10062615.06311219 0 0 0 0 0 109234101.9019014 4915709.288601853 4915709.288601853 9390598.998256451 0 0 0 0 0 109444296.15335 5066336.034958025 5066336.034958025 8478106.787398528 0 0 0 0 0 109556324.7462963 5238062.028271727 5238062.028271727 7419274.837202461 0 0 0 0 0 109254198.2865771 5000208.656764483 5000208.656764483 7014071.335700857 0 0 0 0 0 104261253.9251617 -6573573.417412904 -6573573.417412904 -7571935.936257984 0 0 0 0 0 105004858.7009293 -6042202.017694114 -6042202.017694114 -7604000.755782502 0 0 0 0 0 105715605.8586178 -5475514.701858024 -5475514.701858024 -7576532.042282261 0 0 0 0 0 106381474.7795224 -4878978.429633752 -4878978.429633752 -7487086.400179669 0 0 0 0 0 106997628.7717063 -4258757.172167619 -4258757.172167619 -7334494.651824581 0 0 0 0 0 107559046.9458403 -3621249.19364594 -3621249.19364594 -7118752.606020888 0 0 0 0 0 108061520.0229484 -2973830.888179143 -2973830.888179143 -6840489.629547558 0 0 0 0 0 108501909.3294284 -2323267.6847189 -2323267.6847189 -6500359.780580098 0 0 0 0 0 108878484.2623649 -1676416.41077324 -1676416.41077324 -6103218.688100845 0 0 0 0 0 109191010.1079549 -1039829.663524961 -1039829.663524961 -5650982.814611053 0 0 0 0 0 109438613.3610094 -419164.4485622295 -419164.4485622295 -5153464.27103851 0 0 0 0 0 109623431.5082242 168671.4142623404 168671.4142623404 -4614213.917492372 0 0 0 0 0 109772286.5823811 727175.7175265873 727175.7175265873 -4022601.976683792 0 0 0 0 0 109855450.0037727 1245812.078781057 1245812.078781057 -3452636.153021125 0 0 0 0 0 109993158.7517775 1656738.50285524 1656738.50285524 -3016323.860197585 0 0 0 0 0 109887033.8364449 2302742.509135867 2302742.509135867 -2014122.036048588 0 0 0 0 0 109619936.3433174 1715572.033588153 1715572.033588153 -2865952.244512033 0 0 0 0 0 104138523.6211322 -6745602.176455865 -6745602.176455865 -7036049.739526186 0 0 0 0 0 102745750.0912393 -7240777.950359247 -7240777.950359247 -6747886.666667555 0 0 0 0 0 103141033.6032433 -6958364.255931647 -6958364.255931647 -7177470.294127805 0 0 0 0 0 101259369.6534291 -7689061.033469471 -7689061.033469471 -6652494.553585318 0 0 0 0 0 101911457.3130747 -7419162.00702054 -7419162.00702054 -6732535.494669519 0 0 0 0 0 109051375.2533956 2714264.147728432 2714264.147728432 15456504.79060874 0 0 0 0 0 109024581.8885286 3274611.308548651 3274611.308548651 14724559.31019984 0 0 0 0 0 109041634.7440683 3741882.687730914 3741882.687730914 13986502.58793692 0 0 0 0 0 109093781.8678266 4154155.736662622 4154155.736662622 13182763.78427092 0 0 0 0 0 108883434.9064699 1359896.538600959 1359896.538600959 16340685.36527808 0 0 0 0 0 108808793.8171774 997090.1307022474 997090.1307022474 16512202.66352679 0 0 0 0 0 108791151.1770139 1967413.44319727 1967413.44319727 15847566.46923733 0 0 0 0 0 108492709.2786078 384023.7348029797 384023.7348029797 16156087.23623407 0 0 0 0 0 109121644.0729653 4475657.046107634 4475657.046107634 12390423.52881618 0 0 0 0 0 109174366.2970336 4730094.339300187 4730094.339300187 10857162.0367161 0 0 0 0 0 109118284.8586923 4769321.856161877 4769321.856161877 10896050.0054862 0 0 0 0 0 109171473.1979634 5043254.662601574 5043254.662601574 9337625.493210942 0 0 0 0 0 109408425.1650856 5155643.466613488 5155643.466613488 8400316.85840648 0 0 0 0 0 109072527.2403027 4933412.534681587 4933412.534681587 8022255.16841498 0 0 0 0 0 104855857.5111505 -6291126.976848893 -6291126.976848893 -7169924.195869344 0 0 0 0 0 105548308.2475806 -5784293.362347913 -5784293.362347913 -7234054.763251073 0 0 0 0 0 106198561.2302703 -5246531.17119715 -5246531.17119715 -7248647.181896321 0 0 0 0 0 106801159.9571231 -4680840.487133447 -4680840.487133447 -7206207.194603327 0 0 0 0 0 107351083.8218585 -4093528.052008188 -4093528.052008188 -7105869.568709169 0 0 0 0 0 107845074.1454668 -3490252.278056729 -3490252.278056729 -6946633.001257653 0 0 0 0 0 108280038.8078068 -2877954.831811959 -2877954.831811959 -6728902.220255375 0 0 0 0 0 108653367.6552356 -2263245.203650767 -2263245.203650767 -6452917.499350493 0 0 0 0 0 108965464.6360936 -1650959.842543917 -1650959.842543917 -6118941.460000349 0 0 0 0 0 109214583.3532921 -1049214.025196157 -1049214.025196157 -5732305.853176516 0 0 0 0 0 109401711.1327805 -460857.0124184006 -460857.0124184006 -5292939.275063075 0 0 0 0 0 109552229.7299174 106486.8964209073 106486.8964209073 -4815254.947168886 0 0 0 0 0 109634195.0631227 622262.2081825447 622262.2081825447 -4314956.324482218 0 0 0 0 0 109727523.7437652 1156412.673423619 1156412.673423619 -3748227.330981676 0 0 0 0 0 109377450.0375471 1289513.83820767 1289513.83820767 -3445469.660361773 0 0 0 0 0 109398333.4869595 1985934.376834348 1985934.376834348 -2611508.018811319 0 0 0 0 0 109794482.209226 1905759.090569376 1905759.090569376 -2557365.910170014 0 0 0 0 0 103884080.9584881 -6523574.903414833 -6523574.903414833 -7296498.272567852 0 0 0 0 0 102895533.6884005 -6856225.462650992 -6856225.462650992 -6577636.431988877 0 0 0 0 0 103756950.8742295 -6656881.929316057 -6656881.929316057 -6756165.944978748 0 0 0 0 0 101959418.5575465 -7271688.184537312 -7271688.184537312 -6114947.892228757 0 0 0 0 0 102586763.4979877 -7105973.64699005 -7105973.64699005 -6376692.122182054 0 0 0 0 0 108756336.5140323 2546548.982477521 2546548.982477521 15126566.99244358 0 0 0 0 0 108658664.8282427 3060986.671485503 3060986.671485503 14287008.33374026 0 0 0 0 0 108709777.1807188 3530628.099343453 3530628.099343453 13529637.17878887 0 0 0 0 0 108777230.5105272 3947970.255795352 3947970.255795352 12682472.65678497 0 0 0 0 0 108618382.1871442 1539562.774771447 1539562.774771447 15968531.55765875 0 0 0 0 0 108485509.3020694 794388.2801922638 794388.2801922638 16028298.90626837 0 0 0 0 0 108543625.660402 2124131.842890466 2124131.842890466 15283753.10873237 0 0 0 0 0 108178309.099527 188922.8697514283 188922.8697514283 15716046.28479725 0 0 0 0 0 108813965.4261114 4297951.64484785 4297951.64484785 11572623.48043881 0 0 0 0 0 108804606.1939756 4423440.446465664 4423440.446465664 11682651.54969517 0 0 0 0 0 108875824.2017633 4714001.275141677 4714001.275141677 10103988.40313281 0 0 0 0 0 108858367.012169 4813934.133363972 4813934.133363972 8948953.474274529 0 0 0 0 0 108669479.9082367 4614780.212580465 4614780.212580465 9955731.948525252 0 0 0 0 0 104586730.6434036 -6031044.924790037 -6031044.924790037 -7350842.042474487 0 0 0 0 0 105275519.6786773 -5503908.62399078 -5503908.62399078 -7349374.569528641 0 0 0 0 0 105924251.9549265 -4947789.582571345 -4947789.582571345 -7290423.852127432 0 0 0 0 0 106527714.9777156 -4367328.655896021 -4367328.655896021 -7172526.904812154 0 0 0 0 0 107081713.4068637 -3768003.190328685 -3768003.190328685 -6995724.408898347 0 0 0 0 0 107582804.3741653 -3155974.563435344 -3155974.563435344 -6760520.048888947 0 0 0 0 0 108027554.5759226 -2538261.79350849 -2538261.79350849 -6467234.739609803 0 0 0 0 0 108412480.0260094 -1921698.618591585 -1921698.618591585 -6117815.716029807 0 0 0 0 0 108739404.0991191 -1311184.753730173 -1311184.753730173 -5716046.968638338 0 0 0 0 0 109007400.7350852 -716054.7234913589 -716054.7234913589 -5259732.629682273 0 0 0 0 0 109198721.3641957 -128154.0687135595 -128154.0687135595 -4797887.395221081 0 0 0 0 0 109383269.4345938 413034.5065822449 413034.5065822449 -4285216.37897102 0 0 0 0 0 109468106.9991594 910560.7628426744 910560.7628426744 -3702543.565615447 0 0 0 0 0 109597864.4161404 1518010.813452543 1518010.813452543 -3019423.619703934 0 0 0 0 0 109231864.591087 1577953.730728449 1577953.730728449 -3018423.567121053 0 0 0 0 0 104448450.9250632 -6250190.873043616 -6250190.873043616 -6898813.425137344 0 0 0 0 0 102901755.2760218 -6808226.975691294 -6808226.975691294 -6940239.146201187 0 0 0 0 0 102519653.6968808 -7013667.685485346 -7013667.685485346 -6758567.542215204 0 0 0 0 0 103496330.4457056 -6460062.884940463 -6460062.884940463 -7031060.813290075 0 0 0 0 0 101863324.6077133 -7199070.644681547 -7199070.644681547 -6601462.461331188 0 0 0 0 0 108536661.3866846 2695821.184590256 2695821.184590256 14699194.3346192 0 0 0 0 0 108471129.7484327 3214768.192463941 3214768.192463941 14060253.16701986 0 0 0 0 0 108542000.6896025 3669483.858115515 3669483.858115515 13168513.30778773 0 0 0 0 0 108642843.6739774 4054240.297838074 4054240.297838074 12378652.908314 0 0 0 0 0 108258356.1095735 1342083.728403313 1342083.728403313 15602066.95513081 0 0 0 0 0 108253547.8142121 935757.3463445248 935757.3463445248 15772800.87819165 0 0 0 0 0 108358081.4979757 2075233.505332365 2075233.505332365 15287699.64084752 0 0 0 0 0 107923874.8355765 343632.862461938 343632.862461938 15453835.77584224 0 0 0 0 0 108565631.8962629 4042562.569682918 4042562.569682918 12391163.67877283 0 0 0 0 0 108582027.6518853 4401175.808308591 4401175.808308591 10944855.1059203 0 0 0 0 0 108473483.2570004 4374811.39186417 4374811.39186417 10902127.99596713 0 0 0 0 0 105122741.2860286 -5774911.147767021 -5774911.147767021 -6980247.576147052 0 0 0 0 0 105755910.2134321 -5275026.887678817 -5275026.887678817 -7018619.164720604 0 0 0 0 0 106345653.0870552 -4747718.015020394 -4747718.015020394 -7002791.910414809 0 0 0 0 0 106888095.3906621 -4197273.986126278 -4197273.986126278 -6931846.03383591 0 0 0 0 0 107379656.2072063 -3629319.039952449 -3629319.039952449 -6805820.031716852 0 0 0 0 0 107817604.2808854 -3049688.701595388 -3049688.701595388 -6625095.447287529 0 0 0 0 0 108198899.5895202 -2465454.082580332 -2465454.082580332 -6390786.864256318 0 0 0 0 0 108524212.5929342 -1881412.183076341 -1881412.183076341 -6101966.162767076 0 0 0 0 0 108794905.2745123 -1302027.083039301 -1302027.083039301 -5759533.424260708 0 0 0 0 0 108999068.9612853 -742850.6047681773 -742850.6047681773 -5373334.204332791 0 0 0 0 0 109194368.0418561 -145044.8960166334 -145044.8960166334 -4891792.092556551 0 0 0 0 0 109265239.5927744 338357.4461422332 338357.4461422332 -4460176.906881648 0 0 0 0 0 109196331.036861 745728.3115088313 745728.3115088313 -4042933.353922842 0 0 0 0 0 108997213.3746132 1156088.217841098 1156088.217841098 -3515648.547566079 0 0 0 0 0 104189771.4730025 -6002800.133719038 -6002800.133719038 -7099741.24716018 0 0 0 0 0 103462910.3072755 -6556010.372630856 -6556010.372630856 -6623273.840105997 0 0 0 0 0 102807446.3199872 -6670099.29357544 -6670099.29357544 -6425699.483604306 0 0 0 0 0 104077700.5387714 -6156447.761636959 -6156447.761636959 -6623871.201701009 0 0 0 0 0 102503268.5849961 -6804687.476519413 -6804687.476519413 -6119566.040389184 0 0 0 0 0 108263598.8846601 2523274.20042591 2523274.20042591 14270641.53677615 0 0 0 0 0 108226858.9889724 3064746.810742751 3064746.810742751 13736753.96593228 0 0 0 0 0 108348641.975514 3595500.55586382 3595500.55586382 13064645.52907404 0 0 0 0 0 108053310.4765137 1494897.701301066 1494897.701301066 15297547.87964462 0 0 0 0 0 107927222.3055677 726559.6631536337 726559.6631536337 15177488.71362839 0 0 0 0 0 108061007.1085044 2086637.9561651 2086637.9561651 14298243.15211469 0 0 0 0 0 107654624.1806032 179996.2690623045 179996.2690623045 15102992.79308136 0 0 0 0 0 108355984.7413379 4032353.046759635 4032353.046759635 11692943.71132575 0 0 0 0 0 108257691.1241999 4039394.377577606 4039394.377577606 11712617.98699399 0 0 0 0 0 104864555.8715878 -5515798.716011989 -5515798.716011989 -7120956.426992721 0 0 0 0 0 105494766.5946973 -4997968.945271441 -4997968.945271441 -7089366.706003387 0 0 0 0 0 106084992.9299945 -4455212.870048868 -4455212.870048868 -7001684.719350946 0 0 0 0 0 106630080.3147598 -3892480.768698252 -3892480.768698252 -6859046.775914325 0 0 0 0 0 107126932.0785607 -3314961.364436994 -3314961.364436994 -6661824.109057202 0 0 0 0 0 107572500.4972631 -2728674.847879401 -2728674.847879401 -6411882.560175341 0 0 0 0 0 107962744.3418833 -2139736.996758205 -2139736.996758205 -6109081.130176712 0 0 0 0 0 108300839.2010042 -1555767.832463457 -1555767.832463457 -5751920.485691158 0 0 0 0 0 108590042.4520561 -983885.6233577806 -983885.6233577806 -5350196.213744334 0 0 0 0 0 108806040.13559 -413155.6051222884 -413155.6051222884 -4853982.135959435 0 0 0 0 0 108882240.9053926 89769.77844820869 89769.77844820869 -4480172.83855124 0 0 0 0 0 109234943.1545178 611499.2181992179 611499.2181992179 -3869933.963941492 0 0 0 0 0 109278457.2856313 1082683.541209353 1082683.541209353 -3404811.832756821 0 0 0 0 0 104724845.1021118 -5749476.757405941 -5749476.757405941 -6741248.025594287 0 0 0 0 0 103248483.5006823 -6324074.367243158 -6324074.367243158 -6732836.401723938 0 0 0 0 0 102443166.4607815 -6758615.029854352 -6758615.029854352 -6571603.966373046 0 0 0 0 0 103854154.7808556 -5962224.91039343 -5962224.91039343 -6857953.525825394 0 0 0 0 0 108098695.2061558 2546220.770373382 2546220.770373382 14638328.38644473 0 0 0 0 0 108004631.9962984 3145259.794747707 3145259.794747707 13054318.46849944 0 0 0 0 0 108148188.7938655 3628518.269906243 3628518.269906243 12406235.3138521 0 0 0 0 0 107761361.1549366 1298625.159743666 1298625.159743666 14747361.80050069 0 0 0 0 0 107709131.5923752 805215.6909909818 805215.6909909818 15227865.91401939 0 0 0 0 0 107849296.2267122 1970383.753737645 1970383.753737645 14893228.66985948 0 0 0 0 0 107454067.5667963 317542.4487720613 317542.4487720613 14740962.10753592 0 0 0 0 0 108052319.3161767 3647508.377023581 3647508.377023581 12454888.64942975 0 0 0 0 0 105340517.8533062 -5288980.741761939 -5288980.741761939 -6793129.429069423 0 0 0 0 0 105917190.8775681 -4796597.962489067 -4796597.962489067 -6796935.464143979 0 0 0 0 0 106450138.6332882 -4281752.043656105 -4281752.043656105 -6752186.686116152 0 0 0 0 0 106937025.9882883 -3747959.034843666 -3747959.034843666 -6655572.604459066 0 0 0 0 0 107374622.357419 -3200367.507235074 -3200367.507235074 -6507246.279891183 0 0 0 0 0 107758492.9086628 -2645322.972231249 -2645322.972231249 -6308548.899873451 0 0 0 0 0 108077007.1624296 -2092167.271122322 -2092167.271122322 -6062779.926587371 0 0 0 0 0 108337833.4160818 -1550275.569845079 -1550275.569845079 -5783708.801909796 0 0 0 0 0 108530099.9801378 -1030341.355690287 -1030341.355690287 -5476033.754248383 0 0 0 0 0 108610936.4904547 -539462.944898324 -539462.944898324 -5112959.835137457 0 0 0 0 0 109091577.3545238 255429.7094858046 255429.7094858046 -4236478.410542749 0 0 0 0 0 108798962.5668544 351380.9483299184 351380.9483299184 -4358493.261456229 0 0 0 0 0 108757796.0054576 773104.3082561539 773104.3082561539 -3901873.630021157 0 0 0 0 0 104489907.2712367 -5517525.122144263 -5517525.122144263 -6893917.037327582 0 0 0 0 0 103710371.799336 -6065717.18058028 -6065717.18058028 -6389404.629038289 0 0 0 0 0 103004361.4232523 -6350100.874302237 -6350100.874302237 -6090617.771451679 0 0 0 0 0 104356498.1507274 -5711429.610219731 -5711429.610219731 -6485680.967286734 0 0 0 0 0 107741438.5964604 2434050.375654541 2434050.375654541 13514637.81917947 0 0 0 0 0 107736025.6994202 2708587.552802454 2708587.552802454 13820200.18365688 0 0 0 0 0 107873532.172546 3192671.272388743 3192671.272388743 13150974.07345672 0 0 0 0 0 107555254.9068784 1404422.120614907 1404422.120614907 14185064.62018095 0 0 0 0 0 107458472.5576755 731819.0843913523 731819.0843913523 14409446.72956136 0 0 0 0 0 107502732.925778 1833094.868632542 1833094.868632542 13849864.63172067 0 0 0 0 0 107319856.6997056 306213.8351911243 306213.8351911243 14834293.95566666 0 0 0 0 0 105095898.9503893 -5032852.49435294 -5032852.49435294 -6882846.702545911 0 0 0 0 0 105668190.7692674 -4524093.063836174 -4524093.063836174 -6825036.023060178 0 0 0 0 0 106203278.7302165 -3996682.14220457 -3996682.14220457 -6712446.023186697 0 0 0 0 0 106694516.6895195 -3453042.642664203 -3453042.642664203 -6548025.203555381 0 0 0 0 0 107139991.3190773 -2899476.942378094 -2899476.942378094 -6332290.156247638 0 0 0 0 0 107536855.0380147 -2343606.498479714 -2343606.498479714 -6066124.422684931 0 0 0 0 0 107865862.2086814 -1783838.4638866 -1783838.4638866 -5755844.69202096 0 0 0 0 0 108230184.5077585 -1246563.92391475 -1246563.92391475 -5366269.571078167 0 0 0 0 0 108496952.6622766 -706137.2125329188 -706137.2125329188 -4906382.074784845 0 0 0 0 0 108703272.9702198 -152971.7951597806 -152971.7951597806 -4476290.126720839 0 0 0 0 0 108588197.5065203 -51025.55987676043 -51025.55987676043 -4648088.403127592 0 0 0 0 0 108979442.6106569 681264.5610558756 681264.5610558756 -3756902.844375757 0 0 0 0 0 104947834.3058541 -5296676.766157404 -5296676.766157404 -6563959.499561884 0 0 0 0 0 103495108.8102754 -5900436.892730735 -5900436.892730735 -6611507.440151989 0 0 0 0 0 102860871.2859939 -6268604.470548023 -6268604.470548023 -6498415.975018563 0 0 0 0 0 104117743.6927151 -5503533.113448044 -5503533.113448044 -6682440.396158689 0 0 0 0 0 107585096.17392 2168203.079619847 2168203.079619847 14253722.71420255 0 0 0 0 0 107386701.9018984 955688.6278171199 955688.6278171199 14807901.26215296 0 0 0 0 0 107454007.1385667 1549491.791410735 1549491.791410735 14539988.86204001 0 0 0 0 0 105514000.9148858 -4832900.095752384 -4832900.095752384 -6586918.056132567 0 0 0 0 0 106036836.7955494 -4348177.306827299 -4348177.306827299 -6569539.867858415 0 0 0 0 0 106517722.1421159 -3847571.55774559 -3847571.55774559 -6498984.392798562 0 0 0 0 0 106955682.5939376 -3331013.646121191 -3331013.646121191 -6379404.686009298 0 0 0 0 0 107346652.3402964 -2805764.830062571 -2805764.830062571 -6212384.642062444 0 0 0 0 0 107693514.6234888 -2277604.361242759 -2277604.361242759 -5999731.762981185 0 0 0 0 0 107991042.1714663 -1730342.011233473 -1730342.011233473 -5719762.379240075 0 0 0 0 0 108144986.4516087 -1304440.298024671 -1304440.298024671 -5504872.399571314 0 0 0 0 0 108208929.7105927 -886602.7445320979 -886602.7445320979 -5257487.492812419 0 0 0 0 0 108235115.0079098 -409864.9275812004 -409864.9275812004 -4895048.207348796 0 0 0 0 0 108726577.3825617 294620.3422457405 294620.3422457405 -4012397.650041469 0 0 0 0 0 108511647.8935598 408543.188807426 408543.188807426 -4194449.302970307 0 0 0 0 0 104721706.0602803 -5057703.836425567 -5057703.836425567 -6684360.268207733 0 0 0 0 0 104037453.3580007 -5592999.003768401 -5592999.003768401 -6211514.549167975 0 0 0 0 0 103418197.4958136 -5917790.601158303 -5917790.601158303 -6044998.898575914 0 0 0 0 0 104612049.9002154 -5247831.979411094 -5247831.979411094 -6322318.590586929 0 0 0 0 0 105286113.3223163 -4576153.469168329 -4576153.469168329 -6642040.285454605 0 0 0 0 0 105800793.2859603 -4081781.060066393 -4081781.060066393 -6559331.347449906 0 0 0 0 0 106283887.0069083 -3569840.930242662 -3569840.930242662 -6425552.648414015 0 0 0 0 0 106728031.8734833 -3046817.628767843 -3046817.628767843 -6243607.909377639 0 0 0 0 0 107125089.8689631 -2516150.358875216 -2516150.358875216 -6017567.25987152 0 0 0 0 0 107476447.3716473 -1975273.045889368 -1975273.045889368 -5730528.369386619 0 0 0 0 0 107700422.9864456 -1520205.001117546 -1520205.001117546 -5464850.228664296 0 0 0 0 0 108156058.1275147 -1013495.366290691 -1013495.366290691 -5054262.551053648 0 0 0 0 0 108310259.5472598 -548980.7978371022 -548980.7978371022 -4687168.543452414 0 0 0 0 0 108447823.1405981 -68695.03894016329 -68695.03894016329 -4259635.713920567 0 0 0 0 0 108250012.498207 37046.32258663687 37046.32258663687 -4433803.333688067 0 0 0 0 0 105147045.1986193 -4853936.919209854 -4853936.919209854 -6381077.739064667 0 0 0 0 0 103239975.3442062 -5803443.176058006 -5803443.176058006 -6431299.531102265 0 0 0 0 0 103821324.9402914 -5452960.388769584 -5452960.388769584 -6519476.03410481 0 0 0 0 0 104366565.2961617 -5066709.947766753 -5066709.947766753 -6545007.312578018 0 0 0 0 0 105646355.6649845 -4406918.476229173 -4406918.476229173 -6385446.84488275 0 0 0 0 0 106119777.1731535 -3929817.68869675 -3929817.68869675 -6339502.235150124 0 0 0 0 0 106555690.9466199 -3441911.623057557 -3441911.623057557 -6245613.004624614 0 0 0 0 0 106946102.2942561 -2945801.735205971 -2945801.735205971 -6106921.080844992 0 0 0 0 0 107289738.1307082 -2441410.01605005 -2441410.01605005 -5922500.196030213 0 0 0 0 0 107563572.6665793 -1943897.493823926 -1943897.493823926 -5697388.55071188 0 0 0 0 0 107949473.7168255 -1317910.408878116 -1317910.408878116 -5211124.519562397 0 0 0 0 0 107797867.8435108 -1213151.018344741 -1213151.018344741 -5403428.134283342 0 0 0 0 0 107915560.1984842 -767124.3107623482 -767124.3107623482 -5065774.180344814 0 0 0 0 0 107955339.6563723 -335177.3427025706 -335177.3427025706 -4689860.385524882 0 0 0 0 0 104932275.4616246 -4629783.165974679 -4629783.165974679 -6478486.520050024 0 0 0 0 0 103804324.458973 -5468692.812279912 -5468692.812279912 -5968447.475839937 0 0 0 0 0 104348191.7127769 -5142576.137940719 -5142576.137940719 -6089075.297807575 0 0 0 0 0 104849666.226185 -4811723.111941698 -4811723.111941698 -6172814.899252433 0 0 0 0 0 105438611.9792554 -4147950.817565546 -4147950.817565546 -6405867.252823214 0 0 0 0 0 105898658.8573451 -3667348.482197956 -3667348.482197956 -6295075.495454058 0 0 0 0 0 106338186.13573 -3175708.078037139 -3175708.078037139 -6141259.042546504 0 0 0 0 0 106735656.2814348 -2674212.536477488 -2674212.536477488 -5941330.306655199 0 0 0 0 0 107087096.5880148 -2171516.021927738 -2171516.021927738 -5700940.26511063 0 0 0 0 0 107434779.2024902 -1600392.287075714 -1600392.287075714 -5369619.434936658 0 0 0 0 0 107544273.3867924 -1533302.394571291 -1533302.394571291 -5487768.307446457 0 0 0 0 0 107985663.7262214 -887026.1889640176 -887026.1889640176 -4862892.613188325 0 0 0 0 0 108098486.3292099 -452146.018653966 -452146.018653966 -4493515.698352361 0 0 0 0 0 105282194.6285398 -4472084.458009216 -4472084.458009216 -6245553.59464034 0 0 0 0 0 103611368.9128364 -5345363.728761581 -5345363.728761581 -6302306.522785407 0 0 0 0 0 104137813.434932 -5009045.606154251 -5009045.606154251 -6376410.783375529 0 0 0 0 0 104590554.4925962 -4642276.977401562 -4642276.977401562 -6382127.044315062 0 0 0 0 0 105697292.7568119 -4034902.965484744 -4034902.965484744 -6242520.008816812 0 0 0 0 0 106177403.6072292 -3535968.342439511 -3535968.342439511 -6102675.942962793 0 0 0 0 0 106567963.7868976 -3068377.421845632 -3068377.421845632 -5993014.730379255 0 0 0 0 0 106921489.2910422 -2590711.477098433 -2590711.477098433 -5837031.092088288 0 0 0 0 0 107240854.3830189 -2108511.323629337 -2108511.323629337 -5643451.777242525 0 0 0 0 0 107458058.9633693 -1619505.05922346 -1619505.05922346 -5399975.101248749 0 0 0 0 0 107671039.0936121 -1204750.4063518 -1204750.4063518 -4952220.854843601 0 0 0 0 0 107616710.5321586 -1090387.788394765 -1090387.788394765 -5178462.602745847 0 0 0 0 0 107657356.8710936 -685595.505553777 -685595.505553777 -4874920.14695339 0 0 0 0 0 105141759.613659 -4205981.51310169 -4205981.51310169 -6131073.118101332 0 0 0 0 0 104124377.1525766 -5039531.519969396 -5039531.519969396 -5876067.946488852 0 0 0 0 0 104637182.0248459 -4710102.291588921 -4710102.291588921 -5951531.688217293 0 0 0 0 0 105075571.1838081 -4372134.273888612 -4372134.273888612 -5964372.080912491 0 0 0 0 0 105520648.9755241 -3757811.482675075 -3757811.482675075 -6147242.348286937 0 0 0 0 0 105963617.9563872 -3281898.622958276 -3281898.622958276 -6035188.30565643 0 0 0 0 0 106360855.3428213 -2808693.078828038 -2808693.078828038 -5865447.763145473 0 0 0 0 0 106718286.1817224 -2321258.872659914 -2321258.872659914 -5644590.63589118 0 0 0 0 0 107018654.9428009 -1823811.473683581 -1823811.473683581 -5362755.705142198 0 0 0 0 0 107125029.5689172 -1442774.698468023 -1442774.698468023 -5298269.124652489 0 0 0 0 0 107785541.5308635 -806840.6506459123 -806840.6506459123 -4680648.549711126 0 0 0 0 0 104946983.9017359 -4272517.688085007 -4272517.688085007 -6234793.452423968 0 0 0 0 0 103931166.6944522 -4916909.696449107 -4916909.696449107 -6170597.384098829 0 0 0 0 0 104430219.6755167 -4583146.341810336 -4583146.341810336 -6191534.986964437 0 0 0 0 0 105798063.0413248 -3609976.095592604 -3609976.095592604 -5917172.056946101 0 0 0 0 0 106194783.5820385 -3172294.81902781 -3172294.81902781 -5878353.632125579 0 0 0 0 0 106540823.9307776 -2724676.643696762 -2724676.643696762 -5749556.975485164 0 0 0 0 0 106837670.6047571 -2274483.842715174 -2274483.842715174 -5593518.033777085 0 0 0 0 0 107075776.9358501 -1821053.743360774 -1821053.743360774 -5387037.223281796 0 0 0 0 0 107478179.6341499 -1140162.432646793 -1140162.432646793 -4834238.875596713 0 0 0 0 0 107349009.1102042 -1024163.90698845 -1024163.90698845 -5023675.212663799 0 0 0 0 0 105305131.9999286 -3931194.188701281 -3931194.188701281 -5850766.587586472 0 0 0 0 0 104416091.84581 -4622692.380979229 -4622692.380979229 -5760073.843629027 0 0 0 0 0 104880866.5392714 -4299002.338697026 -4299002.338697026 -5824999.104713184 0 0 0 0 0 105587977.0385154 -3376796.588257123 -3376796.588257123 -5926025.870726347 0 0 0 0 0 105172089.6424033 -3845858.27598498 -3845858.27598498 -6072495.347247371 0 0 0 0 0 105997285.3217205 -2929817.242100545 -2929817.242100545 -5780257.327479578 0 0 0 0 0 106375672.160128 -2468842.691854116 -2468842.691854116 -5577224.339717833 0 0 0 0 0 106687080.8388269 -1992315.924175767 -1992315.924175767 -5313998.340024004 0 0 0 0 0 106943214.8034021 -1482517.236871923 -1482517.236871923 -4981169.598452105 0 0 0 0 0 107036256.0616536 -1344555.142924735 -1344555.142924735 -5127070.875457142 0 0 0 0 0 104645561.6346983 -4156228.991298487 -4156228.991298487 -6066960.702983597 0 0 0 0 0 104206446.062609 -4490271.188685104 -4490271.188685104 -6034463.590020276 0 0 0 0 0 105844162.2803792 -3254949.046042955 -3254949.046042955 -5750410.760454395 0 0 0 0 0 105520649.1196404 -3574365.55733167 -3574365.55733167 -5689806.735166428 0 0 0 0 0 106177762.3512803 -2840851.102507412 -2840851.102507412 -5654157.764480745 0 0 0 0 0 106431973.0309911 -2449908.949052674 -2449908.949052674 -5564523.90796442 0 0 0 0 0 106631101.7798312 -2036488.522437108 -2036488.522437108 -5401995.64268004 0 0 0 0 0 106727587.8554325 -1599566.576294943 -1599566.576294943 -5167134.637224605 0 0 0 0 0 105066475.5824584 -3864690.116647492 -3864690.116647492 -5649891.40187294 0 0 0 0 0 104661012.471238 -4214599.373069743 -4214599.373069743 -5629433.006759692 0 0 0 0 0 105633827.3502174 -3036344.14262423 -3036344.14262423 -5686913.815628103 0 0 0 0 0 105294367.1773508 -3437386.040977344 -3437386.040977344 -5807642.599072661 0 0 0 0 0 104945458.7666344 -3775979.309902553 -3775979.309902553 -5897266.082873435 0 0 0 0 0 106032382.9466137 -2616636.589627959 -2616636.589627959 -5489322.836435879 0 0 0 0 0 106380791.7928564 -2180991.795124183 -2180991.795124183 -5262089.602984266 0 0 0 0 0 106660826.950513 -1725651.491233443 -1725651.491233443 -4991593.921443299 0 0 0 0 0 104421581.9321728 -4061192.764964221 -4061192.764964221 -5869697.74105855 0 0 0 0 0 105846984.3228394 -2927212.959220928 -2927212.959220928 -5546922.096995075 0 0 0 0 0 105534353.3692531 -3322115.984658103 -3322115.984658103 -5665121.119281493 0 0 0 0 0 105178314.544439 -3467288.883455868 -3467288.883455868 -5566013.582242677 0 0 0 0 0 106106369.43878 -2590344.248397012 -2590344.248397012 -5477338.765237148 0 0 0 0 0 106273527.3033957 -2246145.953812447 -2246145.953812447 -5388864.795893258 0 0 0 0 0 106405695.3624905 -1858537.837245903 -1858537.837245903 -5211319.033977753 0 0 0 0 0 104844039.336819 -3819776.161307618 -3819776.161307618 -5491969.287689134 0 0 0 0 0 105391263.2934283 -3107733.939759105 -3107733.939759105 -5553563.480728206 0 0 0 0 0 105655941.9201583 -2753397.630147158 -2753397.630147158 -5454002.455329516 0 0 0 0 0 105033965.949784 -3502928.259504009 -3502928.259504009 -5618961.795186342 0 0 0 0 0 106068665.6857042 -2379249.428869449 -2379249.428869449 -5232492.839666759 0 0 0 0 0 106333266.07038 -1970325.08137988 -1970325.08137988 -5021953.207632346 0 0 0 0 0 104646052.9964861 -3648652.27387728 -3648652.27387728 -5580624.12955327 0 0 0 0 0 105510417.8675484 -3038677.497675506 -3038677.497675506 -5414380.209071428 0 0 0 0 0 105909367.559907 -2572899.654390592 -2572899.654390592 -5186200.765857906 0 0 0 0 0 105176714.7072268 -3216911.573436572 -3216911.573436572 -5341042.117967218 0 0 0 0 0 105876190.9551878 -2481168.31224399 -2481168.31224399 -5414620.079930286 0 0 0 0 0 106076013.6401328 -2106499.012665533 -2106499.012665533 -5250626.182262316 0 0 0 0 0 104965512.4916161 -3486486.838519501 -3486486.838519501 -5350712.127988984 0 0 0 0 0 105510152.2521532 -2786649.205271945 -2786649.205271945 -5252432.521165854 0 0 0 0 0 105278724.0248705 -3175301.126503903 -3175301.126503903 -5497754.868303353 0 0 0 0 0 105524824.8990353 -2739280.417296281 -2739280.417296281 -5405434.314009548 0 0 0 0 0 104760083.3016492 -3372068.96583698 -3372068.96583698 -5538063.302682175 0 0 0 0 0 106019586.9520691 -2210187.491272979 -2210187.491272979 -5037199.329145136 0 0 0 0 0 105273270.2846451 -2921778.432237031 -2921778.432237031 -5326086.339859933 0 0 0 0 0 105725597.0990062 -2453747.719196149 -2453747.719196149 -5025157.485606857 0 0 0 0 0 105109368.5262246 -3126486.987027429 -3126486.987027429 -5183431.375870209 0 0 0 0 0 105751642.8807716 -2343020.646570273 -2343020.646570273 -5249829.686647309 0 0 0 0 0 105357095.5728724 -2874967.450477751 -2874967.450477751 -5235905.85729468 0 0 0 0 0 105433484.9044774 -2576951.265459131 -2576951.265459131 -5213663.937935745 0 0 0 0 0 104911317.3339113 -3021583.009781048 -3021583.009781048 -5305849.952180373 0 0 0 0 0 105266316.75227 -2662029.28164383 -2662029.28164383 -5059245.024632011 0 0 0 0 0 105176504.3488958 -2807613.907607506 -2807613.907607506 -5022616.290864008 0 0 0 0 0 105114027.7600371 -2749981.608411154 -2749981.608411154 -5174202.527591865 0 0 0 0 0 </DataArray>
        <DataArray type="Float64" Name="von_mises_stress" format="ascii" NumberOfComponents="3">99328420.63716844 0 0 73534728.47600286 0 0 70627630.62376323 0 0 66044342.44181006 0 0 91747915.90970252 0 0 67518891.47863394 0 0 55096943.79503033 0 0 63373054.21604305 0 0 54186002.63366088 0 0 46722745.83798262 0 0 39247824.99215808 0 0 84865018.44588643 0 0 64677612.44744959 0 0 50742351.80244365 0 0 45255915.53476505 0 0 33644074.59819883 0 0 28990366.98973682 0 0 54621308.88350195 0 0 45822573.47295994 0 0 44608947.30218066 0 0 38993769.72076044 0 0 33754377.76859671 0 0 25808660.41281506 0 0 72648453.89831147 0 0 58415867.21481406 0 0 49478975.57132436 0 0 42279165.12657274 0 0 32500724.57455824 0 0 24447984.22076344 0 0 28663928.38518351 0 0 44472242.06808649 0 0 41874047.44658285 0 0 40733664.23369757 0 0 34879461.02243885 0 0 29378466.73979959 0 0 22801594.54614367 0 0 25612318.35187955 0 0 56593480.95990545 0 0 53141821.45047917 0 0 46727958.31600905 0 0 44987541.10417944 0 0 47265282.54028034 0 0 39383194.84557883 0 0 33581431.92010351 0 0 22407868.9707468 0 0 27320680.77553126 0 0 30091707.05090806 0 0 40668892.31012526 0 0 47530645.98929679 0 0 40376160.44677064 0 0 44163153.69615517 0 0 34918496.126494 0 0 30262223.5727988 0 0 23819953.69775733 0 0 24806723.54257464 0 0 23286267.06349508 0 0 40474605.86346238 0 0 41584341.84392293 0 0 42728388.7277802 0 0 47077482.9965158 0 0 45778609.24944174 0 0 50426829.76488896 0 0 53141240.99960804 0 0 40095805.19419999 0 0 34703688.18345609 0 0 22341085.95820014 0 0 29646560.70238566 0 0 23425901.75288411 0 0 18183037.96767227 0 0 36338532.19173437 0 0 45575468.67645101 0 0 53939763.55866975 0 0 43517436.92124698 0 0 48602574.73232266 0 0 52832931.02758032 0 0 37968723.44665873 0 0 32758289.1525996 0 0 28214749.18398495 0 0 27871689.87334089 0 0 26080886.72197889 0 0 20695104.13547743 0 0 38640909.41911642 0 0 45439104.98943856 0 0 52840906.70262952 0 0 55425412.93085724 0 0 48430713.32971223 0 0 53972057.93378327 0 0 58786904.23355389 0 0 62039435.43879744 0 0 42528007.93775263 0 0 37089902.52895023 0 0 26792324.39202287 0 0 33361220.73046291 0 0 28124538.52576809 0 0 29287649.32410312 0 0 16481384.64320562 0 0 35690204.14606073 0 0 53808566.55676882 0 0 57800621.4131711 0 0 64625692.91191767 0 0 47337118.55538613 0 0 53184473.91358787 0 0 58697282.02524167 0 0 63486248.44054648 0 0 41522035.27678768 0 0 36295216.59936994 0 0 31327443.76241297 0 0 32476459.57108769 0 0 30090336.417799 0 0 31575716.24571317 0 0 24717002.53143573 0 0 44636606.83706936 0 0 58421962.9922506 0 0 66649334.83126772 0 0 68047472.87754069 0 0 57367530.84463184 0 0 51281897.20785702 0 0 63113999.85012515 0 0 68188218.20900927 0 0 72578461.43433858 0 0 45337793.42698674 0 0 40144288.35164309 0 0 35533522.46304197 0 0 34366335.69184548 0 0 32965854.9573053 0 0 32706153.81567762 0 0 34951488.27661589 0 0 47816402.10293378 0 0 68603263.24444263 0 0 72500848.41449073 0 0 76368320.9210936 0 0 57158364.75299534 0 0 51010020.7635246 0 0 63325935.352991 0 0 69258151.75935894 0 0 75023599.45149881 0 0 45238963.85739596 0 0 40261738.99293654 0 0 36292880.75544784 0 0 33637073.83832318 0 0 34879249.43672209 0 0 34608267.47277524 0 0 36468890.57920087 0 0 46606497.17905524 0 0 61023065.37357152 0 0 64425258.28954748 0 0 76699723.16601075 0 0 80115747.6293561 0 0 80815054.83982179 0 0 66361313.57557432 0 0 60215562.03300469 0 0 54140793.80257875 0 0 72235829.96128389 0 0 77698959.76991117 0 0 82706356.69219391 0 0 48595379.26978302 0 0 43967329.87585287 0 0 40207906.78326316 0 0 38192475.30870675 0 0 36459280.21651118 0 0 38580365.08850455 0 0 39840287.53267725 0 0 62382183.8551047 0 0 61694417.19222533 0 0 72360459.831357 0 0 83521925.09402706 0 0 86255450.17934804 0 0 87283735.5822852 0 0 66843416.0516805 0 0 60480537.72141749 0 0 54394736.09108458 0 0 73240211.43972227 0 0 79561232.4611873 0 0 85863747.28166188 0 0 48871950.41821857 0 0 44157366.10320534 0 0 40377854.19497539 0 0 38936201.10895829 0 0 38302618.71212882 0 0 39437610.06556979 0 0 41772212.47932433 0 0 73038553.60493805 0 0 74697302.39946024 0 0 76928711.10258956 0 0 81777770.24046113 0 0 91451749.61741993 0 0 91733886.80009085 0 0 92097418.80556722 0 0 74956259.54967742 0 0 68806395.06495479 0 0 62666756.09396079 0 0 56825534.56319736 0 0 80905622.60327804 0 0 86540901.08646603 0 0 91783318.78011563 0 0 51567499.66897133 0 0 47131234.01375578 0 0 44049093.99359894 0 0 41901239.92406 0 0 42664611.12583601 0 0 43200363.21184759 0 0 42202839.97599618 0 0 83038531.79181622 0 0 85089878.59805854 0 0 86978135.60870692 0 0 88260618.06602275 0 0 96159469.98001124 0 0 98117086.13792758 0 0 96775039.33465394 0 0 76014789.26148811 0 0 69549205.38173045 0 0 63288479.48991632 0 0 57434168.38056625 0 0 82531132.90199839 0 0 88987719.53588447 0 0 95401058.66379504 0 0 52187595.90824699 0 0 47786186.94586378 0 0 44510132.62279962 0 0 42469075.87427182 0 0 41878845.21815769 0 0 44517242.91617336 0 0 43638112.02927163 0 0 101137758.7648911 0 0 95108697.28661038 0 0 99967343.01392022 0 0 94069978.45039293 0 0 98089616.8376976 0 0 104179633.2970997 0 0 101690095.3683521 0 0 101682895.3940079 0 0 76836375.23970346 0 0 82911762.44968554 0 0 70733751.37038007 0 0 64815320.738763 0 0 59310116.19626626 0 0 88797228.94664864 0 0 94412808.93381932 0 0 99750835.29902263 0 0 54441615.60247009 0 0 50523183.62851199 0 0 47746486.71347956 0 0 46165748.90328141 0 0 45958960.32676049 0 0 46264057.20986847 0 0 46222694.2312161 0 0 106980121.2321804 0 0 100134227.4701835 0 0 102850412.6556511 0 0 106261974.8698171 0 0 101848793.5289454 0 0 106612042.4051222 0 0 107812273.4129645 0 0 104841403.8359385 0 0 77997325.90436883 0 0 84442712.04560517 0 0 71692315.19810969 0 0 65690407.10055055 0 0 60158590.1222605 0 0 90889747.59956977 0 0 97312925.44913951 0 0 103616041.1308433 0 0 55282462.11123858 0 0 51250399.95775962 0 0 48258611.36309924 0 0 46262372.11946632 0 0 46142445.20453237 0 0 48342590.61962964 0 0 46283240.62863573 0 0 130286163.7055359 0 0 115610598.494327 0 0 112941034.5381569 0 0 114769101.6001682 0 0 107662704.8704222 0 0 110898335.9728119 0 0 113862665.561772 0 0 109734266.9272548 0 0 109688221.2634787 0 0 78197247.1599229 0 0 84167289.61698844 0 0 90069898.75842564 0 0 72320050.29138049 0 0 66721102.47462533 0 0 61591184.01146795 0 0 95791633.24085902 0 0 101248067.4309385 0 0 106417799.6496566 0 0 57141791.14468907 0 0 53538186.9739738 0 0 50941485.42582981 0 0 49632727.23361029 0 0 49352132.29046963 0 0 49251347.03350941 0 0 47962485.78642698 0 0 49793057.38619174 0 0 129620705.8537053 0 0 115596153.4840369 0 0 112767607.9476593 0 0 114508409.1909981 0 0 117737937.9808495 0 0 111735858.6416081 0 0 114338497.8868732 0 0 115413382.9659181 0 0 111299246.7810822 0 0 79457990.96299611 0 0 85677229.33284916 0 0 91968098.49661601 0 0 73442913.55166939 0 0 67781569.73553075 0 0 62625013.95497593 0 0 98228540.09685394 0 0 104381970.9561988 0 0 110288568.4987775 0 0 58125477.91492379 0 0 54438595.05072297 0 0 51689779.25573849 0 0 49927586.52074623 0 0 49368721.23760686 0 0 51221102.27095617 0 0 50589193.28394296 0 0 49335134.296422 0 0 51916351.6147708 0 0 54411439.24427017 0 0 158911183.4958965 0 0 136298342.3529679 0 0 127180212.7909453 0 0 124686083.8165054 0 0 124798153.609619 0 0 116997745.4368198 0 0 119842316.6892107 0 0 120940756.7506916 0 0 115813034.9325827 0 0 115896978.735389 0 0 84972987.779957 0 0 79236678.91428308 0 0 90732252.73352435 0 0 96383112.79081725 0 0 73674515.88730466 0 0 68446140.7093374 0 0 63723014.6348318 0 0 101815923.4802103 0 0 106954815.0850047 0 0 111797357.6623254 0 0 59661665.58593552 0 0 56419528.23352575 0 0 54079774.61458448 0 0 52631450.15471254 0 0 52025830.10225688 0 0 50935134.07848206 0 0 51799745.53910761 0 0 52980963.83395736 0 0 55939394.50705168 0 0 56942476.48524553 0 0 149913836.3127153 0 0 131179033.8390329 0 0 123574137.0650088 0 0 121898979.0923112 0 0 122498596.7782015 0 0 125680392.7417268 0 0 118990546.3151944 0 0 120113742.5826991 0 0 121174305.942837 0 0 116303023.7904364 0 0 86489896.16032317 0 0 80581717.4365274 0 0 92517058.11713837 0 0 98544005.42836918 0 0 74919220.49008144 0 0 69639534.67994109 0 0 64872861.24910619 0 0 104464301.3182296 0 0 110159192.744785 0 0 115574366.6873767 0 0 60750309.17089529 0 0 57389460.30888285 0 0 54859493.96713144 0 0 53235731.72472669 0 0 52518344.62905948 0 0 53044221.22803336 0 0 52635417.03348635 0 0 54276485.88557397 0 0 55971287.77954202 0 0 58073102.10728154 0 0 59135672.58654252 0 0 64916712.44186123 0 0 63826752.2683061 0 0 63100044.74448132 0 0 61268182.84185816 0 0 183708448.5160599 0 0 157838051.1295465 0 0 141977755.35776 0 0 134970117.2916873 0 0 132248372.2754862 0 0 131402535.6249679 0 0 123522237.8436099 0 0 126080102.7799514 0 0 125938646.8941103 0 0 120459171.6287409 0 0 120675686.0468017 0 0 85506528.20800394 0 0 91025791.84828679 0 0 80076535.26195727 0 0 96504324.56259994 0 0 101835131.025822 0 0 74872321.45486557 0 0 70037970.03470372 0 0 65712761.91952243 0 0 106909497.8313759 0 0 111666981.501976 0 0 116099511.9057134 0 0 62030913.15126695 0 0 59086376.2758531 0 0 56945119.30717444 0 0 55620581.830933 0 0 55029525.7832932 0 0 54737338.86600804 0 0 56379000.7407691 0 0 57085290.27384625 0 0 58492491.83179834 0 0 60164209.37797949 0 0 66283740.38368154 0 0 64639751.31841686 0 0 62944335.69803849 0 0 66646576.81207094 0 0 68209219.2321851 0 0 178588472.3608762 0 0 144841344.8764935 0 0 134002571.3603763 0 0 129602028.6989228 0 0 128064743.5636149 0 0 127864878.0864749 0 0 130896168.2252848 0 0 124124212.973923 0 0 124226895.7981779 0 0 125270351.1690419 0 0 120172093.3076207 0 0 87033926.04873428 0 0 92741383.50523818 0 0 81480856.58481738 0 0 98486281.72503886 0 0 104159277.9240035 0 0 76201645.39056398 0 0 71314780.96532048 0 0 66936638.37309266 0 0 109635309.5951452 0 0 114824944.3073208 0 0 119695839.8712238 0 0 63172002.96694865 0 0 60104820.45357827 0 0 57795250.11418239 0 0 56272017.16733986 0 0 55485950.97408102 0 0 55317196.50966163 0 0 55625653.45058502 0 0 58203292.8826353 0 0 59278921.55684111 0 0 61032250.25486145 0 0 65806712.88713974 0 0 62061913.43530615 0 0 64525177.6744905 0 0 67270050.8120918 0 0 69240909.4204793 0 0 69634689.17351654 0 0 70966819.62939745 0 0 213373840.3850362 0 0 175257532.6059955 0 0 165541521.5556404 0 0 153993469.171762 0 0 143767415.2687283 0 0 138976129.1486666 0 0 136559904.8546657 0 0 135145132.6023108 0 0 127845133.7159276 0 0 130228077.685125 0 0 129301489.6828559 0 0 123848344.8960909 0 0 124162852.2914652 0 0 85884662.26058744 0 0 91108616.07473408 0 0 96350419.00986464 0 0 80796231.4671568 0 0 101498545.9807879 0 0 106457958.8137639 0 0 75967939.82588695 0 0 71524240.89415528 0 0 67583167.40738355 0 0 111136711.1717048 0 0 115469197.5324038 0 0 119447289.0934668 0 0 64241759.53500777 0 0 61574310.95358033 0 0 59633659.5226901 0 0 58417153.28497071 0 0 57856954.67597956 0 0 57836258.48623473 0 0 58620889.88332611 0 0 60444508.6642236 0 0 61225333.42281036 0 0 66705300.82328048 0 0 67928259.69164318 0 0 63574132.11860566 0 0 65491430.31344699 0 0 68767389.84993082 0 0 70036079.29296152 0 0 71719305.54249768 0 0 72288709.88062577 0 0 194197484.7911076 0 0 171068525.8020361 0 0 154085611.8794499 0 0 143353374.9186404 0 0 136676519.1595725 0 0 133475790.6466615 0 0 131926915.7028735 0 0 131188597.0083795 0 0 133944520.8081036 0 0 127603107.6941219 0 0 127074986.6655664 0 0 128078778.8468767 0 0 123053067.8346542 0 0 87416099.73405381 0 0 92774368.85326825 0 0 98206345.24419418 0 0 82236601.06447208 0 0 103597507.0916453 0 0 108871410.9405141 0 0 77345072.03854358 0 0 72846651.52412008 0 0 68840046.14033706 0 0 113866181.8734151 0 0 118533098.8180662 0 0 122812280.3860668 0 0 65406664.88160332 0 0 62610022.18001049 0 0 60491494.83888577 0 0 59041619.57978418 0 0 58245243.42589737 0 0 58004493.2939358 0 0 60307531.71165586 0 0 60853057.75271326 0 0 62921417.71856779 0 0 66333678.30828578 0 0 67522819.63324644 0 0 63311340.32397771 0 0 65567735.8145431 0 0 69575909.26466461 0 0 70663980.25885119 0 0 71335059.93765154 0 0 72290705.3332319 0 0 234367294.9158404 0 0 197436753.4525941 0 0 176137183.5952609 0 0 161393709.537385 0 0 151390070.2472951 0 0 144723390.1606935 0 0 140937225.4952232 0 0 138664020.0243436 0 0 136968008.1173653 0 0 130536587.5585388 0 0 132720475.9669775 0 0 131358639.1126837 0 0 126204799.0810344 0 0 126617676.6741046 0 0 86179368.17623346 0 0 91081280.90829709 0 0 96045107.94506031 0 0 100968555.7117332 0 0 81446651.40347058 0 0 105752951.964807 0 0 110321373.5988941 0 0 76992930.98762824 0 0 72923257.45473006 0 0 69332929.14358868 0 0 114619551.1040625 0 0 118532510.7515249 0 0 122005849.80543 0 0 66297956.92441923 0 0 63875929.12230248 0 0 62084306.81278156 0 0 60908684.56065983 0 0 60298358.14306968 0 0 60587344.02579582 0 0 62645974.52925495 0 0 63026615.46810631 0 0 68896073.69713938 0 0 67653083.05984144 0 0 64875562.9350816 0 0 67022802.46881434 0 0 69091986.93881281 0 0 70280843.44376037 0 0 72034948.98178901 0 0 72915400.68843573 0 0 208223851.0976095 0 0 180155905.5876478 0 0 163803204.5638429 0 0 150431525.5212759 0 0 142860261.2717035 0 0 138205130.2923506 0 0 135572069.3264517 0 0 134052429.285495 0 0 132975107.1548406 0 0 135471421.469975 0 0 129798651.4766582 0 0 128841550.9364453 0 0 129829114.2298371 0 0 125047313.9844411 0 0 87704353.74569432 0 0 92704304.44291595 0 0 97802108.76713209 0 0 102898155.3336643 0 0 82900312.66180855 0 0 107894776.3830162 0 0 112720177.2025418 0 0 78389052.51394694 0 0 74261977.9429412 0 0 70599250.34014983 0 0 117256211.0396201 0 0 121393915.0671544 0 0 125049838.84343 0 0 67466506.98027177 0 0 64911848.34897906 0 0 62956777.30037827 0 0 61600186.72902972 0 0 60823383.58150242 0 0 62717546.07841048 0 0 62917952.11035017 0 0 64711080.26723246 0 0 68376600.30775176 0 0 67480524.70925011 0 0 65128919.70394525 0 0 67071527.41538984 0 0 70441921.60950854 0 0 71221174.15127677 0 0 71546975.03614829 0 0 72547417.69748288 0 0 249417411.1977824 0 0 211118613.8524572 0 0 185175301.5600309 0 0 168224628.483861 0 0 156951314.8898433 0 0 149272931.5226879 0 0 144432180.0128054 0 0 141370612.4961784 0 0 139249477.350856 0 0 137527237.631623 0 0 131979380.1935113 0 0 134000271.2043528 0 0 132427151.9064591 0 0 127673056.2251189 0 0 128177191.6118486 0 0 91006613.11367223 0 0 86434265.24984056 0 0 95672664.12692781 0 0 100338359.9027551 0 0 104918717.6572475 0 0 82054308.77688289 0 0 109319308.0922886 0 0 113472046.2586666 0 0 77959972.68296386 0 0 74238971.90032633 0 0 70967121.49263291 0 0 117333193.1071539 0 0 120784136.077603 0 0 123795491.7657765 0 0 68209233.58592837 0 0 65998391.24810184 0 0 64354968.73644288 0 0 63272264.54135884 0 0 63200008.0374748 0 0 64864246.50709049 0 0 65078348.12406985 0 0 69577838.73268723 0 0 68764519.99881433 0 0 66719899.83998321 0 0 68580667.70706299 0 0 70174920.80504921 0 0 70789705.55599153 0 0 72587414.6511865 0 0 73392172.08616036 0 0 228046986.6046662 0 0 187401360.0468394 0 0 169070614.8671492 0 0 156160243.205321 0 0 147530453.0839683 0 0 142030038.6157199 0 0 138530323.464747 0 0 136354019.9005609 0 0 134863914.9188156 0 0 133652764.4445371 0 0 135968349.7308296 0 0 130947564.9545736 0 0 129771824.7529236 0 0 130762842.2848478 0 0 126361562.1915005 0 0 92587633.46040356 0 0 87942177.60604741 0 0 97350712.00725877 0 0 102140507.8263445 0 0 106877373.5318312 0 0 83502416.49292248 0 0 111450860.2777902 0 0 115787373.0915317 0 0 79353131.51018578 0 0 75572206.55122334 0 0 72225891.53300831 0 0 119781253.8588133 0 0 123353316.9385833 0 0 126455739.5929062 0 0 69363174.56092569 0 0 67027705.60920836 0 0 65226279.30860738 0 0 63963076.64155665 0 0 65430700.50377038 0 0 65386065.85638361 0 0 66871183.90664554 0 0 69543711.20753312 0 0 68926311.07278985 0 0 67074648.22307778 0 0 68889188.60608798 0 0 71965088.22194676 0 0 71562046.13166867 0 0 72275809.72537985 0 0 72964687.87883918 0 0 270966114.8973807 0 0 220169581.4166453 0 0 188131488.6377852 0 0 203986522.0812354 0 0 171364506.7013761 0 0 159818166.0647009 0 0 152017947.1864373 0 0 146704184.2841977 0 0 143153149.4535401 0 0 140694636.7469106 0 0 138810690.402266 0 0 137191973.2710585 0 0 132520618.2643783 0 0 134377736.818161 0 0 132748223.0748667 0 0 128480556.8192723 0 0 129027338.8009342 0 0 95285745.0166968 0 0 90922076.00631954 0 0 86676286.1770599 0 0 99678628.73047169 0 0 104022648.1046008 0 0 108260148.1864133 0 0 82636962.88772044 0 0 112266479.6914849 0 0 115994811.1766523 0 0 78878241.51606371 0 0 75472216.0794024 0 0 72488792.80679956 0 0 119379026.9346378 0 0 122371339.0009935 0 0 124933678.0601251 0 0 69976874.52577813 0 0 67962871.79371656 0 0 66455216.15864192 0 0 66128751.27367017 0 0 67415052.07638037 0 0 67404642.76044077 0 0 70487081.96125834 0 0 70106852.92444584 0 0 68722903.26825462 0 0 70393170.24842814 0 0 71761248.43603267 0 0 71878358.45896082 0 0 73945217.61882834 0 0 73416308.27310324 0 0 237308713.8865805 0 0 206283351.4887244 0 0 171939624.8017334 0 0 188024429.8813748 0 0 159525164.2001028 0 0 150496394.9092096 0 0 144604360.6055652 0 0 140621199.1775301 0 0 137979879.4303056 0 0 136156987.5973212 0 0 134761882.6912902 0 0 133551618.0610954 0 0 135654112.6279572 0 0 131343382.141245 0 0 130084478.3269306 0 0 131056557.1836183 0 0 127066046.0633013 0 0 96892117.93995334 0 0 92459288.4389466 0 0 88156278.87384789 0 0 101370163.4294097 0 0 105824422.2567291 0 0 110196133.8117941 0 0 84063151.88149717 0 0 114321520.6300765 0 0 118147780.298506 0 0 80253956.7452939 0 0 76789082.98933078 0 0 73729202.58802843 0 0 121615211.7056216 0 0 124673965.5775254 0 0 127255187.5613795 0 0 71111896.70693889 0 0 68970914.41035034 0 0 67314809.92515853 0 0 68380948.599066 0 0 68118828.82631604 0 0 69250557.56951125 0 0 71675254.04254907 0 0 70620791.16786018 0 0 69248289.51392938 0 0 70971657.92774346 0 0 73162739.40866481 0 0 73127313.73391181 0 0 73695264.89652444 0 0 73230943.35997991 0 0 282785931.9944015 0 0 236071362.8990199 0 0 207438575.835253 0 0 170915654.7202023 0 0 183050558.2224329 0 0 160361119.6497582 0 0 152814457.2147659 0 0 147563710.2796023 0 0 143873735.3938098 0 0 141266920.3625896 0 0 139314009.3183719 0 0 137705340.8071593 0 0 136243043.2537142 0 0 132381469.9763007 0 0 134101572.2611024 0 0 132510806.6916808 0 0 128721165.5860714 0 0 129328625.9703168 0 0 94915543.63966557 0 0 99036501.99135874 0 0 90849980.58696641 0 0 86919101.56854381 0 0 103135285.7681686 0 0 107140565.2331145 0 0 110993932.4528256 0 0 83196428.17898281 0 0 114634999.934005 0 0 117906475.1078469 0 0 79745266.77160636 0 0 76626643.42714363 0 0 73906246.72647229 0 0 120865128.0241158 0 0 123427003.7220716 0 0 125590823.8518963 0 0 71618570.95480117 0 0 69779133.6766061 0 0 69231882.71741503 0 0 70152009.23859446 0 0 69936715.79729635 0 0 72178386.13213657 0 0 71999152.11348282 0 0 70945331.76672874 0 0 72506874.17823 0 0 73188346.02223174 0 0 73633582.29331917 0 0 74804521.08341061 0 0 74673675.39910199 0 0 245102597.7113941 0 0 211580537.3788698 0 0 187016413.7798171 0 0 160025316.3239 0 0 173104778.4409127 0 0 151767082.8873747 0 0 145809642.9537197 0 0 141675270.9767001 0 0 138810198.6501939 0 0 136789590.4430668 0 0 135277860.1504908 0 0 134031332.7882613 0 0 132891893.0579095 0 0 134811479.6642941 0 0 131173962.4597276 0 0 129909612.1615496 0 0 130868505.3293199 0 0 127305717.476891 0 0 96458337.55099149 0 0 100640038.8260614 0 0 92340502.06037305 0 0 88362350.88010262 0 0 104811463.7985285 0 0 108900779.7003807 0 0 112854098.4361404 0 0 84593461.46734318 0 0 116546688.3187628 0 0 119886997.8552843 0 0 81093664.85499239 0 0 77914043.00574903 0 0 75111325.15879282 0 0 122877588.8912497 0 0 125457961.1579752 0 0 127577213.7866481 0 0 72724605.79902874 0 0 70761028.70419094 0 0 71452903.72430189 0 0 70986085.68173672 0 0 71807533.08379585 0 0 73446211.093219 0 0 72578486.20703967 0 0 71626593.77440667 0 0 73209735.24585904 0 0 74425049.86789389 0 0 74800482.30564387 0 0 74618175.98895365 0 0 74423468.21104449 0 0 287397364.9908818 0 0 243132955.2231506 0 0 211618528.7709665 0 0 188040803.2825283 0 0 168294008.7419274 0 0 159037238.0859083 0 0 169701101.7875834 0 0 152000258.3935457 0 0 147077456.936886 0 0 143535139.577008 0 0 140970661.8767777 0 0 139056676.8350473 0 0 137526046.4214686 0 0 136184181.1251252 0 0 134906521.7088442 0 0 131766923.7647385 0 0 133360970.5755993 0 0 131854267.9076304 0 0 128571620.2197688 0 0 129203921.9414912 0 0 94581182.7563172 0 0 98433355.96855415 0 0 102288760.9260818 0 0 90803194.01576725 0 0 87168870.31797463 0 0 106077457.8999769 0 0 109752378.7485564 0 0 113219104.2743896 0 0 83739048.4498892 0 0 116438186.311901 0 0 119332496.4979021 0 0 80574769.24859694 0 0 77727897.94896111 0 0 75239230.94952877 0 0 121879109.5645414 0 0 124066044.6234766 0 0 125842224.4004195 0 0 73148127.6971855 0 0 72412185.15203041 0 0 73009712.32275583 0 0 72611190.55698262 0 0 73990827.45058243 0 0 73937161.13580573 0 0 73335051.40144563 0 0 74710254.47794348 0 0 75281487.13672794 0 0 75331821.11824478 0 0 75913399.82916105 0 0 257614136.1568767 0 0 213276286.4446839 0 0 189492863.6579117 0 0 172281289.7572028 0 0 157770402.1428406 0 0 151660036.9132657 0 0 169736930.359049 0 0 145776323.6382727 0 0 141695942.6362264 0 0 138806323.8504857 0 0 136730217.3382395 0 0 135188862.5361688 0 0 133958396.1976836 0 0 132882762.507018 0 0 131858982.0328913 0 0 133621781.1627717 0 0 130602871.2090116 0 0 129380961.7132163 0 0 130321672.9761565 0 0 127192085.1404831 0 0 96062324.03637843 0 0 99958521.67174122 0 0 103863422.4415343 0 0 92243682.58291809 0 0 88568936.95854956 0 0 107708071.4221097 0 0 111446695.5896708 0 0 114955372.3249809 0 0 85098197.28470147 0 0 118216084.4248799 0 0 121125228.6252161 0 0 81883160.91012944 0 0 78971169.98016264 0 0 76404449.11941527 0 0 123683680.8316832 0 0 125831469.9773474 0 0 127530352.2499238 0 0 74214927.46667837 0 0 74569628.30376668 0 0 73931954.495166 0 0 74452076.64696917 0 0 75315751.83796257 0 0 74618883.51260491 0 0 74125746.62952064 0 0 75494508.33060254 0 0 75677284.31386727 0 0 76611702.1327038 0 0 75837506.35075052 0 0 299791507.5586332 0 0 246687918.6344862 0 0 226333184.7574179 0 0 212384135.875965 0 0 189997555.465787 0 0 172512444.1726491 0 0 157427098.1029462 0 0 149984757.4932899 0 0 159781591.9453166 0 0 145534641.1905277 0 0 142259404.0348011 0 0 139866478.6694083 0 0 138087040.3510452 0 0 136697104.5947198 0 0 135517273.0472661 0 0 134424119.3345507 0 0 133336892.8616993 0 0 130823716.4362439 0 0 132303660.4976957 0 0 130933660.6889234 0 0 128107015.8048166 0 0 128762603.8953354 0 0 94289756.00747471 0 0 97881654.37006764 0 0 101498263.1214033 0 0 105076596.4000763 0 0 90785475.07877356 0 0 87425497.40265951 0 0 108558820.7457274 0 0 111873502.1382105 0 0 114984175.2414362 0 0 84268610.01000139 0 0 117813922.8486497 0 0 120340948.7058017 0 0 81368959.39284308 0 0 78767763.20002137 0 0 76495193.46093993 0 0 122522764.7704671 0 0 124344679.4629726 0 0 125771066.1878233 0 0 75598705.05639462 0 0 75896252.50370309 0 0 75353555.49117997 0 0 75915418.32002872 0 0 76017543.90074988 0 0 75753825.02304675 0 0 76987592.30873026 0 0 76865771.73359333 0 0 77033893.46242492 0 0 77046039.90338898 0 0 258474925.9682654 0 0 246258424.6672843 0 0 210951599.6322358 0 0 192928386.0560835 0 0 174749857.6012929 0 0 162215045.7329852 0 0 149859075.3725393 0 0 144618177.257632 0 0 159110028.9546351 0 0 140792360.5876004 0 0 138004404.3110283 0 0 135995248.0523042 0 0 134508226.3491865 0 0 133349395.4964042 0 0 132371476.7367635 0 0 131471738.7595585 0 0 130583306.7733248 0 0 132219166.0467995 0 0 129738623.5500119 0 0 128602578.9019846 0 0 129521179.9201579 0 0 126797765.5171279 0 0 95710934.77741069 0 0 99335223.388575 0 0 102986223.7246002 0 0 106599933.321614 0 0 92173433.23451498 0 0 88778028.77934761 0 0 110120968.4329618 0 0 113463217.8912312 0 0 116597834.4252523 0 0 85580277.73834839 0 0 119434486.0570234 0 0 121963169.6756672 0 0 82628518.31772897 0 0 79962806.45342706 0 0 77612321.8960948 0 0 124115745.8618645 0 0 125868915.7984432 0 0 127200182.1929453 0 0 77658191.98689358 0 0 76879927.87210338 0 0 77092190.57534094 0 0 77245520.67974184 0 0 76772881.13455889 0 0 76635676.02722548 0 0 77829258.09516037 0 0 77138686.09342305 0 0 78536184.66468747 0 0 78279897.76641417 0 0 77221805.46429639 0 0 226443248.990676 0 0 209980562.3497401 0 0 192055116.4418305 0 0 173205866.4274746 0 0 163728057.5221465 0 0 156720145.1612784 0 0 147146987.8614281 0 0 151866441.0085618 0 0 143168787.0122689 0 0 140221560.407423 0 0 138066848.2774282 0 0 136488368.3409404 0 0 135285188.9049418 0 0 134302297.1793984 0 0 133412817.4261516 0 0 132544569.777355 0 0 131643017.2496178 0 0 129656576.3038562 0 0 131047197.3362641 0 0 129816609.6478989 0 0 127420661.3996344 0 0 128089910.89382 0 0 97387546.43616141 0 0 94044998.6493925 0 0 100773077.3437242 0 0 104142534.4230142 0 0 107438352.4819609 0 0 90793421.80079086 0 0 87690608.3860072 0 0 110601038.3194568 0 0 113578236.9795674 0 0 116335095.734575 0 0 84788624.7633162 0 0 118824783.3235595 0 0 121001084.3692427 0 0 82131904.79449081 0 0 79742471.93419476 0 0 122849067.7369823 0 0 124337186.9917698 0 0 125457626.7695772 0 0 78737278.36364169 0 0 78708838.39926603 0 0 78044368.54615803 0 0 77949561.66621257 0 0 78131253.70657252 0 0 78217386.72325538 0 0 79268949.21994378 0 0 78592726.37763543 0 0 79212012.48501244 0 0 78489025.58969636 0 0 194313578.9140705 0 0 177108002.5403143 0 0 172717343.4074511 0 0 158069537.8062589 0 0 152275561.828131 0 0 142510921.0329072 0 0 146694081.1885475 0 0 139056208.4245391 0 0 136499294.5933621 0 0 134637154.4815899 0 0 133275809.6854524 0 0 132239121.6835071 0 0 131391149.6252027 0 0 130640492.8642854 0 0 129910564.5844999 0 0 129158732.1032138 0 0 130687453.4756113 0 0 128680698.900556 0 0 127648520.0397067 0 0 128549508.4439395 0 0 126198050.4833187 0 0 98774813.82038525 0 0 95405012.73214976 0 0 102183778.781212 0 0 105574638.5199904 0 0 108889811.8464858 0 0 92129782.19357333 0 0 88985063.79948002 0 0 112071383.4782315 0 0 115061390.9699019 0 0 117814287.6798044 0 0 86046373.19773982 0 0 120295878.3296698 0 0 122443444.2255614 0 0 83335497.74891917 0 0 80898496.79097402 0 0 124233178.7112959 0 0 125637464.3653214 0 0 126643487.9583155 0 0 80617201.45611992 0 0 79753421.1551092 0 0 79702020.61686863 0 0 79221118.63548572 0 0 78954770.64352114 0 0 79131256.89487579 0 0 80140390.21972121 0 0 78723518.4302026 0 0 79587082.14500888 0 0 79208879.12444854 0 0 185553992.251229 0 0 164413507.0844722 0 0 151225928.514827 0 0 156006443.6902292 0 0 146746034.5060825 0 0 139955100.7466335 0 0 143049546.2773518 0 0 137523178.5872982 0 0 135700589.3654196 0 0 134364154.723807 0 0 133380300.1521716 0 0 132609046.9944549 0 0 131940408.921184 0 0 131297319.1732522 0 0 130624487.3445195 0 0 129897993.6273182 0 0 128359599.9283331 0 0 129669953.2834896 0 0 128589935.325251 0 0 126565187.444603 0 0 127244925.5725611 0 0 100115148.905867 0 0 96945922.27555314 0 0 93820045.83132479 0 0 103282204.3684146 0 0 106395495.7258286 0 0 109401957.4611639 0 0 90804047.94562905 0 0 87937479.14763315 0 0 112256261.9634081 0 0 114923050.2226147 0 0 117354217.7255603 0 0 85262549.51869671 0 0 119515251.7479313 0 0 121371976.2807484 0 0 82820060.85299169 0 0 122912778.3488706 0 0 124108458.7029618 0 0 124954962.2091567 0 0 81734949.60778257 0 0 81459645.24026199 0 0 80700104.83644691 0 0 80090892.77442901 0 0 80275272.08146019 0 0 80654223.79521942 0 0 81559540.54849586 0 0 80060945.5561211 0 0 80669326.83721057 0 0 172685774.6507369 0 0 166664604.4362218 0 0 147353166.0402811 0 0 152461232.4944405 0 0 142866616.537692 0 0 136564503.0510304 0 0 139414455.8562486 0 0 134363501.1974118 0 0 132735220.6455321 0 0 131556197.0327223 0 0 130678133.310353 0 0 129992869.3655352 0 0 129405273.9904742 0 0 128850350.047971 0 0 128280989.8870837 0 0 127665580.9505997 0 0 129102539.8921715 0 0 127495020.853899 0 0 126570921.4091644 0 0 127455804.4817058 0 0 125452004.438081 0 0 101454391.3279794 0 0 98276202.39224838 0 0 95126239.58847918 0 0 104635527.6644761 0 0 107758896.9137021 0 0 110774633.1994787 0 0 92089916.55037852 0 0 89179986.59078816 0 0 113635838.3808622 0 0 116295718.9384925 0 0 118709190.5294493 0 0 86470640.63982932 0 0 120838161.7620657 0 0 122642241.1156281 0 0 83977605.75933471 0 0 124096430.728372 0 0 125198368.4686305 0 0 125928480.85482 0 0 83478422.47277698 0 0 82524633.62446634 0 0 82260959.92089233 0 0 81181409.33476149 0 0 81085282.45661545 0 0 81584912.5657945 0 0 82442017.19409907 0 0 80295786.27878362 0 0 80965249.07792598 0 0 157239636.2589662 0 0 141783945.8999647 0 0 144547527.3869695 0 0 146913879.3761965 0 0 138736892.980751 0 0 136328077.5063893 0 0 134385097.6787997 0 0 132906136.8383189 0 0 131842672.2864401 0 0 131085750.1482738 0 0 130530650.1408864 0 0 130083762.7525751 0 0 129664100.2430519 0 0 129222616.7111151 0 0 128728255.1794461 0 0 128156594.8373263 0 0 126981070.2005794 0 0 128227523.6571374 0 0 127286691.9542796 0 0 125606533.893595 0 0 126292978.2275317 0 0 102496896.450651 0 0 99507731.45130737 0 0 96538541.104515 0 0 93603086.38412127 0 0 105433840.0807538 0 0 108290137.7731198 0 0 111023606.2575218 0 0 90822711.95591174 0 0 88190395.41128549 0 0 113591677.0141661 0 0 115954946.0096827 0 0 118079181.7424475 0 0 85724389.99283765 0 0 119934005.9079508 0 0 121499406.5043341 0 0 122759032.5111968 0 0 123698968.3945105 0 0 124310495.3093998 0 0 84587559.40445019 0 0 84117456.22911897 0 0 83273647.33087589 0 0 81934839.94964148 0 0 82390154.77006613 0 0 83051114.99733351 0 0 83786131.22605108 0 0 81670473.722036 0 0 82300967.22792789 0 0 154470626.4028613 0 0 138873585.7613185 0 0 142239050.7093389 0 0 145429009.8543235 0 0 135878601.1746712 0 0 133573662.6214072 0 0 131753992.2008964 0 0 130412541.2558716 0 0 129434000.8216466 0 0 128746650.3814208 0 0 128234678.8472499 0 0 127822669.6822364 0 0 127448717.8154851 0 0 127066246.8243813 0 0 126635222.6756393 0 0 126142626.2848082 0 0 127501012.658125 0 0 126234994.1753595 0 0 125436151.5885434 0 0 126303291.4392704 0 0 124598768.2759539 0 0 103776630.122694 0 0 100792882.3517432 0 0 97809822.29004718 0 0 94859381.84094679 0 0 106716491.421569 0 0 109573236.6503897 0 0 112304234.2617732 0 0 92035630.1315808 0 0 89388471.49976663 0 0 114861409.9479098 0 0 117203448.2538308 0 0 119296731.540135 0 0 86885500.57805283 0 0 121103568.1940374 0 0 122601962.9760861 0 0 123768957.9026079 0 0 124604305.7646105 0 0 125100102.762304 0 0 86184756.0942793 0 0 85176249.16206715 0 0 84753879.28498909 0 0 83229032.45589708 0 0 83230919.46346605 0 0 84000745.52462368 0 0 84694007.11676796 0 0 81979354.64684162 0 0 82814532.54053396 0 0 147163504.9373465 0 0 134549402.7900216 0 0 136450949.1421087 0 0 138666568.4170696 0 0 142176448.7582394 0 0 132570523.4927353 0 0 131023801.7532583 0 0 129853924.1259626 0 0 129052907.6137964 0 0 128509932.2872778 0 0 128169569.2521408 0 0 127929311.4280404 0 0 127726563.3793004 0 0 127502329.5633287 0 0 127231615.3243381 0 0 126884700.5495086 0 0 126449912.8688501 0 0 125580576.8742601 0 0 126767112.0752131 0 0 125967365.6985263 0 0 124569648.435197 0 0 125261976.3821612 0 0 104550866.3226161 0 0 101774676.366112 0 0 98945036.08269413 0 0 96168062.55382428 0 0 93482419.00100671 0 0 107257450.6186128 0 0 109864828.5600965 0 0 112333177.6167703 0 0 90890122.38043152 0 0 88445666.75436896 0 0 114624925.5185211 0 0 116708707.3138256 0 0 118554413.1571767 0 0 120135935.5481594 0 0 121436911.9219301 0 0 122445440.6647256 0 0 123154405.6382002 0 0 123563524.307183 0 0 87283487.00454344 0 0 86660025.4822982 0 0 85758776.62306255 0 0 83980414.10232325 0 0 84488137.55750932 0 0 85360144.69280085 0 0 85940635.16453405 0 0 83387154.40503831 0 0 84127001.28009382 0 0 132216870.163879 0 0 134517133.6213475 0 0 136778061.0687374 0 0 138993745.0600966 0 0 130343514.0597599 0 0 128871490.6496347 0 0 127796285.1995677 0 0 127032600.1425185 0 0 126532036.2507695 0 0 126192663.7911063 0 0 125958377.0498563 0 0 125759740.4085777 0 0 125561589.3639519 0 0 125319129.4174016 0 0 125014403.9740794 0 0 124635209.7112688 0 0 125924978.8532426 0 0 124952137.1074156 0 0 124251527.7272537 0 0 125104910.6616216 0 0 123676509.5758181 0 0 105761858.4701571 0 0 102992234.5534512 0 0 100179925.8174778 0 0 97370866.04245742 0 0 94668296.63608903 0 0 108464133.5774015 0 0 111061216.5980032 0 0 113511885.8327977 0 0 92059509.96987301 0 0 89593118.04492596 0 0 115777694.8823052 0 0 117826619.7115743 0 0 119624011.4125773 0 0 121146047.2673117 0 0 122371344.846441 0 0 123290719.5405207 0 0 123900108.4501622 0 0 124196419.5387812 0 0 88750118.33150719 0 0 87709507.1549789 0 0 87120191.20346159 0 0 85112207.50646314 0 0 85339300.61297533 0 0 86316911.57355766 0 0 86848389.6390693 0 0 83740710.4484614 0 0 84652872.14733748 0 0 128905190.7706047 0 0 130197769.8107487 0 0 131903274.8461978 0 0 134411492.4298473 0 0 127625036.2180386 0 0 126717547.8177773 0 0 126125343.4746102 0 0 125783390.2888659 0 0 125624723.7878377 0 0 125569262.6870171 0 0 125560708.0047651 0 0 125539856.051259 0 0 125477336.8002097 0 0 125341428.0331473 0 0 125119029.0089738 0 0 124802088.7449006 0 0 124185472.4870506 0 0 125321365.4386703 0 0 124642758.4034442 0 0 123500984.6224872 0 0 124188541.4362296 0 0 106305540.8901332 0 0 103739982.4710977 0 0 101099290.6028124 0 0 98465397.62358637 0 0 95886154.14874375 0 0 93393787.5854684 0 0 108785532.249383 0 0 111152342.0108123 0 0 113365080.3643185 0 0 91001431.20890181 0 0 115396153.4065645 0 0 117220307.44137 0 0 118807851.1108733 0 0 120139589.7502709 0 0 121205375.9235794 0 0 121997412.8200822 0 0 122508963.4242692 0 0 122743630.356495 0 0 89836338.40024659 0 0 89052453.87158842 0 0 88120195.16500883 0 0 85877432.88423853 0 0 86446575.03158753 0 0 87565879.27083367 0 0 87994001.60702583 0 0 85079597.54987565 0 0 85918967.93617103 0 0 127033463.4946266 0 0 128690003.5073462 0 0 130130304.1273858 0 0 131986339.2460458 0 0 125891408.1694769 0 0 125023456.7406341 0 0 124462964.3561784 0 0 124127419.9767564 0 0 123956276.4844894 0 0 123884018.6081616 0 0 123853751.2640727 0 0 123825412.2596389 0 0 123761543.6102036 0 0 123638033.8653516 0 0 123442043.8221746 0 0 123169003.0953407 0 0 124393320.5782733 0 0 123659526.8577555 0 0 123064239.5520025 0 0 123894704.7394144 0 0 122709680.0420478 0 0 107440371.4632614 0 0 104884136.8652525 0 0 102262565.4985099 0 0 99628167.18373151 0 0 97030702.40268421 0 0 94528160.89660744 0 0 109906523.3724204 0 0 112249713.6198138 0 0 114436385.5912289 0 0 92114725.63287847 0 0 116433345.0313225 0 0 118209695.1498602 0 0 119742733.2068211 0 0 121009445.1783327 0 0 121997307.222803 0 0 122699021.017965 0 0 123114010.0749559 0 0 123243317.4729744 0 0 91136091.8199736 0 0 90087430.58169883 0 0 89354106.98299374 0 0 86984598.6636042 0 0 87346212.11400576 0 0 88514982.36816861 0 0 88899323.54999103 0 0 85482525.95800109 0 0 86477003.57690068 0 0 124318448.5066353 0 0 125171530.9049863 0 0 126123674.6562625 0 0 128144681.0721613 0 0 123614838.3692551 0 0 123195771.0450485 0 0 123009201.6827411 0 0 122996030.3490774 0 0 123095516.664962 0 0 123250778.8779782 0 0 123407666.0063867 0 0 123529309.1873706 0 0 123587276.2558977 0 0 123562590.0744678 0 0 123443666.752815 0 0 123229271.7120048 0 0 122818135.2994578 0 0 123905092.3179179 0 0 123337617.7630383 0 0 122418029.8969579 0 0 123098454.4947296 0 0 107781243.8015508 0 0 105415828.5236931 0 0 102973723.5815432 0 0 100512448.4355438 0 0 98067176.28665923 0 0 95668516.20090275 0 0 93349621.04628208 0 0 110043644.5114601 0 0 112175806.407741 0 0 114152424.6053427 0 0 115947723.5155881 0 0 117530039.3924614 0 0 118880613.6536467 0 0 119990832.0338883 0 0 120847398.0381686 0 0 121448641.5989884 0 0 121791548.6725544 0 0 121879486.1177667 0 0 92196503.34532987 0 0 91285444.06142117 0 0 90339166.22302933 0 0 87838694.25816447 0 0 88352448.69918071 0 0 89650243.59240951 0 0 89932371.18979889 0 0 86794158.48334797 0 0 87697479.18013993 0 0 122940720.6401695 0 0 124025282.9694095 0 0 124894983.8781567 0 0 126092929.4866407 0 0 122249832.4021832 0 0 121837726.2998061 0 0 121642893.1084908 0 0 121607050.7934547 0 0 121675934.3069538 0 0 121793845.5495 0 0 121919720.7833665 0 0 122017950.2370223 0 0 122064233.0623316 0 0 122041362.9144555 0 0 121940055.4956422 0 0 121758956.3221443 0 0 122923170.8307824 0 0 122387640.2652566 0 0 121888466.3625847 0 0 122697481.0440852 0 0 121723093.5848449 0 0 108836107.0011481 0 0 106488345.3663517 0 0 104065991.0429784 0 0 101612448.4898567 0 0 99169154.80910587 0 0 96761674.1014148 0 0 94430144.68154329 0 0 111074620.4019177 0 0 113177863.7444868 0 0 115118783.9402086 0 0 116866114.6874842 0 0 118399470.4883439 0 0 119691423.0752184 0 0 120733527.6649082 0 0 121512788.3453046 0 0 122026059.7935466 0 0 122274799.4371896 0 0 122265447.2652243 0 0 93336029.29511473 0 0 92293820.48451382 0 0 91447879.27603455 0 0 88627810.84859131 0 0 89328221.36955686 0 0 90586438.65850055 0 0 90804718.95474659 0 0 87190414.6187322 0 0 88124984.29439212 0 0 120690622.4733894 0 0 121220648.8023858 0 0 121569696.4124977 0 0 123090629.7420285 0 0 120384881.8048543 0 0 120294322.5138903 0 0 120383538.8095868 0 0 120594310.1498561 0 0 120875242.5635154 0 0 121176093.6700149 0 0 121455271.3598336 0 0 121682060.5540687 0 0 121833641.4694281 0 0 121897209.3825008 0 0 121866055.5133525 0 0 121741622.6366198 0 0 121495753.1081308 0 0 122536902.7739094 0 0 122066724.5090704 0 0 121337505.6529069 0 0 122010293.530316 0 0 106845789.828001 0 0 109003797.1232653 0 0 104599088.5836391 0 0 102304859.5062707 0 0 100005964.3825621 0 0 97725116.24590322 0 0 95491240.20543866 0 0 111056769.3856614 0 0 112971094.7681085 0 0 114726171.6012237 0 0 116292832.7247829 0 0 117659896.9835007 0 0 118805419.3756666 0 0 119717177.9949263 0 0 120391124.4604514 0 0 120826501.845476 0 0 121023425.1766427 0 0 120988824.5179718 0 0 94364275.76392275 0 0 93344746.20884575 0 0 92404363.9093837 0 0 89553114.48215027 0 0 90270405.78424926 0 0 91620392.40733051 0 0 91798207.04471685 0 0 88507983.43451172 0 0 119586340.8802708 0 0 120197048.8870312 0 0 121404568.4603241 0 0 121101465.1582499 0 0 119279491.8828553 0 0 119175795.7363317 0 0 119238304.5821446 0 0 119412875.6316139 0 0 119650102.8075865 0 0 119906853.892242 0 0 120147024.9745979 0 0 120343474.3405606 0 0 120477740.7167012 0 0 120537615.6178279 0 0 120516550.6738184 0 0 120410994.567208 0 0 121523952.252405 0 0 121149498.0066269 0 0 120738916.7743268 0 0 121527793.6981607 0 0 120733943.5344345 0 0 107849048.9180915 0 0 109980264.8227601 0 0 105622038.0217534 0 0 103340769.4479228 0 0 101050639.5768429 0 0 98772271.18957372 0 0 96532270.22142409 0 0 112002903.9714102 0 0 113883128.0390941 0 0 115594263.9777807 0 0 117112820.4234354 0 0 118421167.801279 0 0 119504663.2969684 0 0 120346596.9135363 0 0 120943684.6951451 0 0 121295278.8387993 0 0 121404955.6004248 0 0 121281214.5270631 0 0 95347659.51422203 0 0 94321873.25114034 0 0 93372344.87553175 0 0 89721081.82620782 0 0 91006043.07126428 0 0 92512323.89417468 0 0 92648193.91311185 0 0 88927129.85413004 0 0 117797235.3810969 0 0 118149500.6744277 0 0 118870479.1564309 0 0 118438921.4087683 0 0 119438649.6409456 0 0 117732227.1014652 0 0 117869106.2887661 0 0 118144394.2442378 0 0 118509698.2167686 0 0 118915017.1774313 0 0 119318441.6518329 0 0 119684472.3540937 0 0 119987569.2513964 0 0 120212670.3009385 0 0 120348359.4531065 0 0 120390304.5222631 0 0 120338314.5992735 0 0 120225084.9658053 0 0 121223653.7375349 0 0 120842279.5144897 0 0 120272859.7818668 0 0 120937678.7452182 0 0 105985500.4601621 0 0 108049502.8305923 0 0 110015356.7942901 0 0 103865992.9089525 0 0 101716690.4114152 0 0 99562643.07017559 0 0 97431469.97611745 0 0 111862685.8565249 0 0 113574049.2584002 0 0 115118606.0476871 0 0 116483970.2990807 0 0 117652604.0033498 0 0 118608787.6341521 0 0 119343970.7393319 0 0 119858946.2157599 0 0 120151345.9766945 0 0 120225408.1667835 0 0 120089215.1023964 0 0 96339729.67172852 0 0 95232228.92915274 0 0 94306059.06937413 0 0 90210911.22362098 0 0 91181606.74486826 0 0 92274330.40102768 0 0 93374721.99294978 0 0 93244016.08469518 0 0 116888605.8246778 0 0 117194076.6424091 0 0 117579472.6262731 0 0 117457134.3892529 0 0 117351527.6514941 0 0 116816605.852972 0 0 116930040.7950906 0 0 117170404.3112822 0 0 117491514.1968658 0 0 117849070.6606055 0 0 118203483.2231797 0 0 118526816.6685989 0 0 118798097.7308618 0 0 119001657.2353901 0 0 119128744.322394 0 0 119172639.9467033 0 0 119133792.3708391 0 0 120196778.3145703 0 0 119956993.8453685 0 0 119623558.9471353 0 0 120392133.4720395 0 0 119754747.6386116 0 0 106941301.3288373 0 0 108978584.0222381 0 0 110915288.151185 0 0 104840710.3056943 0 0 102703804.0777817 0 0 100556709.1767577 0 0 98427310.25336322 0 0 112728994.0730235 0 0 114397782.3291969 0 0 115894946.0897398 0 0 117208837.2797719 0 0 118315556.4621848 0 0 119208388.3255309 0 0 119875727.364289 0 0 120314274.9711378 0 0 120527286.7813228 0 0 120520752.9857518 0 0 120304171.3960112 0 0 97182255.06564252 0 0 96180813.21011624 0 0 95141585.36468856 0 0 90581128.86780451 0 0 91541360.24795075 0 0 92576079.19224942 0 0 94354089.65351401 0 0 94064507.78101961 0 0 115377637.2503448 0 0 115479777.6652249 0 0 116015602.7875855 0 0 115709812.4747687 0 0 116072794.6302892 0 0 115520933.3930601 0 0 115812097.5090992 0 0 116218590.6719989 0 0 116688724.5930969 0 0 117179536.4911055 0 0 117651689.6697425 0 0 118077911.3549032 0 0 118438068.4943432 0 0 118718694.3657278 0 0 118911771.1017139 0 0 119012238.035644 0 0 119021892.1113539 0 0 119015643.3224679 0 0 119971908.2685788 0 0 119668884.2771241 0 0 119237333.619382 0 0 119891245.9323018 0 0 107174064.0117938 0 0 105219050.1205741 0 0 109055100.8618575 0 0 110836869.0873454 0 0 103217514.9574383 0 0 101193558.9000364 0 0 99172658.67444883 0 0 112494336.2763887 0 0 114009434.1544003 0 0 115363456.8193155 0 0 116541494.9458874 0 0 117529748.7947387 0 0 118319032.8693608 0 0 118898873.8126384 0 0 119272699.7038478 0 0 119442309.1637871 0 0 119412998.2966233 0 0 119193426.1254829 0 0 98129464.42930827 0 0 96978734.78464442 0 0 96036956.59606613 0 0 91852688.66014282 0 0 92959863.93974465 0 0 95067367.9307356 0 0 94178965.521457 0 0 114622265.6040157 0 0 114684898.6687902 0 0 114896237.1197823 0 0 114555127.7548977 0 0 114446392.2155128 0 0 114750148.5508931 0 0 115013654.3149151 0 0 115380361.2304543 0 0 115803496.4906467 0 0 116242179.6953013 0 0 116665721.1629693 0 0 117049998.8075882 0 0 117377052.461571 0 0 117634862.9724402 0 0 117814481.5595946 0 0 117911877.214856 0 0 117930010.6597428 0 0 118944657.3020615 0 0 118815913.9040782 0 0 118552704.8499941 0 0 119300007.5785779 0 0 118795967.643708 0 0 108061338.472558 0 0 106130220.0566361 0 0 109911832.1652683 0 0 111661571.6459941 0 0 104145259.5732989 0 0 102133722.6118205 0 0 100118877.2361241 0 0 113279831.0259856 0 0 114750735.6757579 0 0 116056716.326943 0 0 117178873.340426 0 0 118105306.7937633 0 0 118826994.6887521 0 0 119340318.485826 0 0 119642822.9915754 0 0 119739202.9448198 0 0 119636274.6636268 0 0 119344803.9305982 0 0 98830710.09801084 0 0 97874467.17946638 0 0 96823239.20395717 0 0 92211191.27136715 0 0 93290188.35871986 0 0 95908180.46736339 0 0 94948438.64437909 0 0 95566804.2457056 0 0 113241906.4743844 0 0 113385109.2802311 0 0 113655831.6915932 0 0 113211177.2037205 0 0 113386611.0980083 0 0 113645055.7983212 0 0 114054852.0746961 0 0 114551605.1474077 0 0 115091463.5073474 0 0 115637051.5245007 0 0 116154412.3655387 0 0 116621705.3452912 0 0 117022513.2034789 0 0 117345877.0036565 0 0 117582567.3225023 0 0 117730046.9174457 0 0 117790624.6571798 0 0 117871516.8733796 0 0 118787218.3725111 0 0 118552730.8086911 0 0 118235474.7235502 0 0 118878456.4884963 0 0 106378509.5257293 0 0 108172411.5087497 0 0 104524789.0744785 0 0 109882292.9620448 0 0 111487414.0043184 0 0 102633266.4755175 0 0 100726764.892771 0 0 112965898.8433613 0 0 114302197.7836393 0 0 115480348.328222 0 0 116487455.5058455 0 0 117313777.2431171 0 0 117950563.2636672 0 0 118395286.8112147 0 0 118648582.211947 0 0 118713890.26269 0 0 118598103.5474887 0 0 118310703.4567306 0 0 99731228.44591931 0 0 98527986.85566294 0 0 97687081.36325733 0 0 93431856.67570212 0 0 94489074.66967896 0 0 96758554.57521054 0 0 95345080.38994606 0 0 96161884.01574124 0 0 112610434.1512658 0 0 112743478.3925017 0 0 112675503.6201037 0 0 112332288.9660485 0 0 112154011.0078127 0 0 112993076.9367932 0 0 113369745.3572207 0 0 113822966.3669827 0 0 114313808.383258 0 0 114806364.6930261 0 0 115277345.3235153 0 0 115705568.6414555 0 0 116072807.3659727 0 0 116370664.4550861 0 0 116592587.6471265 0 0 116732793.0108071 0 0 116800485.8453431 0 0 117774183.7891097 0 0 117729023.087618 0 0 117524945.8493582 0 0 118255037.7762593 0 0 117863630.0712409 0 0 107223107.710403 0 0 108988994.648307 0 0 105391475.8776609 0 0 110667549.6592626 0 0 112235790.8839655 0 0 103516783.377725 0 0 101622188.0048348 0 0 113675098.9318392 0 0 114966945.7165898 0 0 116093951.2432911 0 0 117043565.1445555 0 0 117807628.516975 0 0 118379791.6887708 0 0 118759138.2665456 0 0 118945230.6828187 0 0 118943243.2000133 0 0 118761149.9507146 0 0 118409671.0333605 0 0 100309476.1689874 0 0 99391029.25463207 0 0 98285017.36719853 0 0 93844438.94618975 0 0 94845505.91621386 0 0 97509650.11745423 0 0 96192399.46741557 0 0 96756568.4400222 0 0 111511340.0189405 0 0 111505703.9915203 0 0 111676279.6309505 0 0 111241005.3508567 0 0 111116270.7278694 0 0 112056934.7739011 0 0 112547047.6485381 0 0 113102688.026335 0 0 113685101.6919565 0 0 114261508.902064 0 0 114807446.5410471 0 0 115302817.890737 0 0 115730072.086842 0 0 116083851.1700965 0 0 116355967.3288087 0 0 116538900.3011291 0 0 116642932.5448218 0 0 116785188.3967277 0 0 117668565.1621555 0 0 117490912.49713 0 0 117269721.2893523 0 0 117902251.4829619 0 0 105651025.7051992 0 0 107359217.852659 0 0 108998227.0071635 0 0 103893410.4157257 0 0 110546532.808227 0 0 111985251.2056808 0 0 102106837.5541244 0 0 113300262.202622 0 0 114471202.9304226 0 0 115486790.4991632 0 0 116338444.1626595 0 0 117020907.5340773 0 0 117525301.1775871 0 0 117851183.9278989 0 0 118000154.8176196 0 0 117977317.9079478 0 0 117790014.397879 0 0 117447925.7025717 0 0 101165107.0706686 0 0 99940975.94247948 0 0 99092131.72990675 0 0 94986313.1068787 0 0 98116524.46916364 0 0 96322345.25858651 0 0 97451243.21821487 0 0 110758572.4908247 0 0 110977004.8226397 0 0 111147943.7521509 0 0 110425813.9970853 0 0 110167366.4348428 0 0 111501643.0743365 0 0 111952165.9707971 0 0 112460109.9023491 0 0 112993699.6684854 0 0 113523885.5912423 0 0 114025899.9521347 0 0 114484325.9321362 0 0 114872963.9387647 0 0 115201893.4857666 0 0 115457082.9137171 0 0 115633647.8153444 0 0 115738862.3655361 0 0 116669638.8649129 0 0 116696962.6409698 0 0 116548016.1368789 0 0 117253827.510929 0 0 116963421.6718411 0 0 106455189.8171538 0 0 108137878.2256911 0 0 109747586.5064119 0 0 104718535.1333529 0 0 111261354.1103783 0 0 112661767.5804288 0 0 102948988.7530505 0 0 113931957.4751204 0 0 115056877.0299268 0 0 116023484.345367 0 0 116820530.7380379 0 0 117440583.1345172 0 0 117883695.3702463 0 0 118147305.2504588 0 0 118233999.8042625 0 0 118149907.3174677 0 0 117903269.2267708 0 0 117504955.1847301 0 0 101635989.793972 0 0 100753426.2538491 0 0 99600061.50807934 0 0 95400808.8794937 0 0 98843416.65371913 0 0 97019701.42742753 0 0 97936697.26946934 0 0 109762761.5410552 0 0 109913712.7297138 0 0 110262729.3261791 0 0 109255102.566462 0 0 109410778.2377657 0 0 110712654.4993644 0 0 111247246.1513792 0 0 111831049.8338566 0 0 112437326.7915001 0 0 113033495.5107081 0 0 113595047.7070604 0 0 114112756.3680214 0 0 114548657.2795946 0 0 114922123.0077755 0 0 115223942.4263797 0 0 115432448.2389265 0 0 115571425.8786748 0 0 115764558.8830156 0 0 116613248.1724757 0 0 116484223.56065 0 0 116350500.7311866 0 0 116967555.3958754 0 0 104985339.8885811 0 0 106610806.6694447 0 0 108179114.2912083 0 0 109670439.7757662 0 0 103321581.6721481 0 0 111067069.6431204 0 0 112351180.3378513 0 0 113510666.3146671 0 0 114532409.1926251 0 0 115403831.6126077 0 0 116117792.1996796 0 0 116669707.231134 0 0 117056806.0215299 0 0 117278897.900456 0 0 117338616.3879873 0 0 117241602.0631202 0 0 116995921.9654468 0 0 116611294.6198384 0 0 102436999.3594201 0 0 101213769.5958908 0 0 100372385.6658349 0 0 96316112.6789466 0 0 99322160.87179549 0 0 97559357.3691657 0 0 98596753.62485291 0 0 109443999.8336988 0 0 109496976.6482211 0 0 109812909.8923348 0 0 109076699.9413487 0 0 108704031.9281895 0 0 110227525.3091465 0 0 110722206.2879939 0 0 111264112.8211518 0 0 111822925.8597336 0 0 112374920.387723 0 0 112899395.9161164 0 0 113368750.6412097 0 0 113767043.8034511 0 0 114116617.5603793 0 0 114390888.4577042 0 0 114601477.9884283 0 0 114736400.6881566 0 0 115635157.8942294 0 0 115720164.3407564 0 0 115627094.0701704 0 0 116306694.4610383 0 0 116099331.2086537 0 0 105751377.6477785 0 0 107353543.926511 0 0 108893791.4246676 0 0 110352533.3615594 0 0 104106882.1616443 0 0 111713835.6384115 0 0 112958162.6340545 0 0 114072076.9700456 0 0 115045523.2346072 0 0 115865982.9446606 0 0 116526448.2328806 0 0 117021870.0219549 0 0 117351620.4816023 0 0 117515825.3135387 0 0 117518855.8826919 0 0 117366986.9113959 0 0 117068462.3009817 0 0 116634448.1175059 0 0 102804563.4604026 0 0 101976421.8115276 0 0 100841996.2311972 0 0 96870760.78043422 0 0 100034235.7990844 0 0 98189519.05089107 0 0 99046864.82214203 0 0 108485725.8007969 0 0 108088381.8890413 0 0 108690770.0454986 0 0 109068489.2084535 0 0 108049724.4104442 0 0 107888667.7199838 0 0 109552877.0394913 0 0 110112849.6892645 0 0 110714861.4892227 0 0 111329778.4222151 0 0 111932979.8433702 0 0 112499679.4659348 0 0 113032823.6196848 0 0 113463542.7162234 0 0 113848794.802052 0 0 114163577.2307429 0 0 114401034.8573428 0 0 114565512.8718093 0 0 114797351.1281137 0 0 115617105.7766758 0 0 115541221.9095209 0 0 115474512.3225316 0 0 116076463.0128492 0 0 105921985.828194 0 0 104377343.3973572 0 0 107421191.7304167 0 0 108854785.6557511 0 0 110206043.1148666 0 0 111459818.9042193 0 0 112601389.5329612 0 0 113618775.876405 0 0 114502204.4295872 0 0 115242058.853473 0 0 115832787.8357373 0 0 116270610.3242178 0 0 116555568.0473483 0 0 116688455.7836081 0 0 116672812.3701376 0 0 116514292.2692719 0 0 116221515.1859324 0 0 115804314.8607609 0 0 103552145.3501477 0 0 102339303.0899531 0 0 101586382.5308934 0 0 97630860.80808893 0 0 100512355.4241912 0 0 98849257.55408463 0 0 99801332.64221694 0 0 108117928.3081247 0 0 107979052.5366433 0 0 108323444.210178 0 0 108674816.7885069 0 0 107317063.1612154 0 0 107289933.5317228 0 0 109127814.815378 0 0 109645728.9528027 0 0 110211055.7351666 0 0 110787007.6312318 0 0 111347906.0346981 0 0 111866435.3300375 0 0 112314943.3768274 0 0 112750545.3892555 0 0 113116256.1818381 0 0 113411402.9369122 0 0 113647893.2557827 0 0 113813924.677808 0 0 114658988.4823064 0 0 114800960.6029377 0 0 114749141.0739239 0 0 115412246.3537185 0 0 115273442.2688761 0 0 106631572.676445 0 0 105107444.8502275 0 0 108104721.2072697 0 0 109507960.6994576 0 0 110825098.0499348 0 0 112040224.3286626 0 0 113140949.1626338 0 0 114113830.5353192 0 0 114949385.1581107 0 0 115639255.4092044 0 0 116178369.8259897 0 0 116564237.3043428 0 0 116795737.8422828 0 0 116875104.0394778 0 0 116807567.4159825 0 0 116599776.307941 0 0 116260975.043209 0 0 115801523.9683332 0 0 103822788.9218361 0 0 103051230.7525979 0 0 101929201.5070637 0 0 98091119.81207725 0 0 101280533.4333161 0 0 99408894.11044294 0 0 100133829.4778811 0 0 107324992.5155014 0 0 107175772.7636872 0 0 107620431.3042947 0 0 108038136.1463475 0 0 106896019.7891509 0 0 106565907.6778205 0 0 108550202.5427887 0 0 109118053.7938322 0 0 109729335.9719894 0 0 110349384.7218638 0 0 110955616.3999159 0 0 111506988.4993978 0 0 112004573.1080476 0 0 112462857.8463678 0 0 112860649.4270349 0 0 113187140.913944 0 0 113448811.9246956 0 0 113641766.8347539 0 0 113906121.6280863 0 0 114681868.6039701 0 0 114650605.0956193 0 0 114641843.9246625 0 0 115232800.5532758 0 0 106721046.5816371 0 0 105287970.9343781 0 0 108097371.2107574 0 0 109401941.6934502 0 0 110620637.1502962 0 0 111740435.0178986 0 0 112749527.4353046 0 0 113637226.5943276 0 0 114395499.761496 0 0 115017279.7302988 0 0 115498381.6693603 0 0 115836532.3877041 0 0 116032494.7397397 0 0 116089196.6937353 0 0 116009792.7068831 0 0 115800609.3230826 0 0 115470058.3648334 0 0 115027571.6554387 0 0 104516970.3906933 0 0 103317073.7672693 0 0 102605174.587779 0 0 98875350.51831424 0 0 101658820.6339492 0 0 99902108.21796098 0 0 100853742.2059739 0 0 107039177.4853095 0 0 106913371.2356442 0 0 107307636.0601603 0 0 107697179.7514694 0 0 106218590.5152095 0 0 106084167.0107375 0 0 108171731.4582436 0 0 108713166.1128179 0 0 109285017.9047498 0 0 109863766.156256 0 0 110402453.1788485 0 0 110923946.3865203 0 0 111389890.158849 0 0 111830772.8883881 0 0 112207131.8318782 0 0 112516852.4559833 0 0 112766538.8099523 0 0 112953863.0688658 0 0 113759094.1655919 0 0 113939978.4056237 0 0 113921762.7725191 0 0 114569555.4025767 0 0 114480198.1226303 0 0 107375671.8629506 0 0 105967170.0681773 0 0 108723395.0659055 0 0 109995414.5923391 0 0 111178558.9532519 0 0 112260040.8124464 0 0 113227808.741696 0 0 114072044.6243682 0 0 114783915.0997223 0 0 115358272.1346871 0 0 115790691.1692638 0 0 116079714.6144966 0 0 116226295.3943726 0 0 116233061.7135625 0 0 116107109.3293696 0 0 115853306.4686232 0 0 115483495.0565982 0 0 115002909.0381266 0 0 104702031.2419417 0 0 103982349.3581514 0 0 102852576.893038 0 0 99339150.91502462 0 0 102304978.0787545 0 0 100443562.8148318 0 0 100895366.0170058 0 0 106379448.3886852 0 0 106211269.7813117 0 0 106715185.5873874 0 0 107155202.9751415 0 0 105892215.0738858 0 0 105533256.8661093 0 0 107676052.6060127 0 0 108255706.4895997 0 0 108864289.9067084 0 0 109480259.2776078 0 0 110055849.5341518 0 0 110602677.7807915 0 0 111098269.8943061 0 0 111563434.6827973 0 0 111967214.499385 0 0 112301949.4221866 0 0 112573613.9560654 0 0 112784197.1924748 0 0 113073615.0389914 0 0 113812000.4741483 0 0 113817125.4322938 0 0 113844252.4307081 0 0 114422673.561027 0 0 107395347.834477 0 0 106074878.512605 0 0 108652551.8697601 0 0 109833789.7616148 0 0 110928491.4511391 0 0 111924572.3660397 0 0 112811868.7011902 0 0 113581750.0436426 0 0 114227198.2886726 0 0 114742954.8908411 0 0 115125917.3675487 0 0 115376626.9198032 0 0 115495691.4971721 0 0 115488617.188115 0 0 115354972.4362697 0 0 115103899.6070016 0 0 114742037.8749326 0 0 114281827.5987275 0 0 105355292.9802314 0 0 104159245.2143436 0 0 103572166.8458317 0 0 100025492.2101808 0 0 102593839.788457 0 0 102048571.7505378 0 0 101053889.5049228 0 0 106138902.5315164 0 0 105966518.7823891 0 0 106445755.9727773 0 0 106856554.9950969 0 0 105222075.0681528 0 0 105176583.3282324 0 0 107347434.925041 0 0 107894786.4776815 0 0 108466326.7507627 0 0 109024885.6569761 0 0 109557738.4597021 0 0 110071463.5392735 0 0 110557782.0763717 0 0 110991216.6991604 0 0 111372480.4988358 0 0 111690630.2290406 0 0 111948942.1900343 0 0 112158581.1294481 0 0 112923726.1752362 0 0 113128082.2906905 0 0 113135073.3750625 0 0 113763559.2761034 0 0 113731524.2875612 0 0 107994809.9736297 0 0 106701538.254975 0 0 109221365.4198091 0 0 110370192.5195865 0 0 111429708.5453345 0 0 112387422.4047957 0 0 113233936.0097455 0 0 113960693.3359382 0 0 114561728.5578801 0 0 115032843.0506226 0 0 115371603.2300576 0 0 115577289.1332949 0 0 115653083.0571223 0 0 115597597.9929691 0 0 115421729.1655657 0 0 115129683.0449385 0 0 114735632.3718463 0 0 114241895.282922 0 0 105478605.1245427 0 0 104804809.8244488 0 0 103715333.7110087 0 0 100484435.6807869 0 0 103271194.396858 0 0 102120525.2224004 0 0 101333043.6063471 0 0 105586948.8506449 0 0 105375895.5277486 0 0 105939398.5764378 0 0 106393809.4764423 0 0 104968915.8906231 0 0 104680962.1635652 0 0 106921205.1358398 0 0 107498525.6483368 0 0 108094461.9368791 0 0 108690630.1989602 0 0 109247661.0218139 0 0 109781055.4034889 0 0 110288385.8672678 0 0 110745868.8382999 0 0 111149395.1603363 0 0 111484206.6716125 0 0 111763249.5949522 0 0 111991598.9047299 0 0 112294429.0394333 0 0 112998692.3900486 0 0 113029980.4200992 0 0 113101000.5454041 0 0 113659223.1841338 0 0 107954647.6339409 0 0 106744092.9609889 0 0 109096648.0270833 0 0 110164299.9667702 0 0 111144298.8500193 0 0 112025822.4838623 0 0 112801374.2434403 0 0 113463809.3156126 0 0 114007888.6926956 0 0 114429390.4572699 0 0 114726658.0013404 0 0 114901090.6029702 0 0 114951308.4222104 0 0 114887726.7490705 0 0 114709766.6295853 0 0 114426660.1032213 0 0 114042115.5789913 0 0 113569706.0174673 0 0 106083131.3424701 0 0 104946665.395978 0 0 104316009.6770949 0 0 101089554.1972201 0 0 103255086.3829153 0 0 102230825.5509099 0 0 105364639.9727724 0 0 105142981.7793856 0 0 105701349.0273642 0 0 106131144.5260326 0 0 104438079.7494678 0 0 104237225.4173178 0 0 106630959.6109414 0 0 107176688.0076249 0 0 107726889.6696461 0 0 108264245.8350371 0 0 108798703.8044682 0 0 109318971.5787349 0 0 109792430.8670039 0 0 110224136.1429202 0 0 110607907.0974964 0 0 110924360.296166 0 0 111185143.8087543 0 0 111427976.0137232 0 0 112154635.0305389 0 0 112358189.743977 0 0 112399752.861889 0 0 113007351.3581246 0 0 113015498.9057848 0 0 108499751.3616731 0 0 107320734.7244014 0 0 109612967.8095426 0 0 110647817.9021526 0 0 111591886.0245385 0 0 112435917.9471638 0 0 113171367.7973287 0 0 113792384.2569083 0 0 114294081.1218716 0 0 114673102.3629465 0 0 114928480.6134929 0 0 115060173.0651352 0 0 115074129.8896699 0 0 114969093.0640917 0 0 114752014.8432869 0 0 114430736.0352356 0 0 114016115.2030453 0 0 113517119.5975114 0 0 106150364.1866899 0 0 105526512.6659083 0 0 104480994.0147644 0 0 101509110.9287651 0 0 103851183.2724121 0 0 102492598.3502606 0 0 104591630.9835005 0 0 104867540.85806 0 0 105268932.3859229 0 0 105734645.0103632 0 0 104399612.2121831 0 0 103993822.6327582 0 0 106261521.5328854 0 0 106832073.9644027 0 0 107399957.6944714 0 0 107967802.2484768 0 0 108519722.6362344 0 0 109054742.0893831 0 0 109547498.5128649 0 0 110001457.7964311 0 0 110397815.437385 0 0 110730505.1237066 0 0 110988908.244326 0 0 111281339.890632 0 0 111570001.4729596 0 0 112236272.4128526 0 0 112279078.1982465 0 0 112397189.8921817 0 0 112933568.614127 0 0 108405563.4582424 0 0 107308011.5740129 0 0 109445058.3728383 0 0 110405867.8328959 0 0 111278317.9884355 0 0 112055118.8844823 0 0 112728886.926491 0 0 113294428.1541797 0 0 113747419.980895 0 0 114085369.9644846 0 0 114307486.3178908 0 0 114416068.2394736 0 0 114410159.1308261 0 0 114296589.4209883 0 0 114080737.2408537 0 0 113771939.8997108 0 0 113375051.1339352 0 0 112900595.2883781 0 0 106700189.352438 0 0 105614283.6043894 0 0 105018578.35579 0 0 102060940.4085215 0 0 103076082.9076144 0 0 104051642.5082301 0 0 104471710.2456062 0 0 104704978.8404311 0 0 105061310.2927271 0 0 105504050.8105345 0 0 103565681.9483421 0 0 103820221.4654458 0 0 103561911.288743 0 0 106004950.0416161 0 0 106520720.8992813 0 0 107062535.3922488 0 0 107592565.6361283 0 0 108127819.6618055 0 0 108632665.1103212 0 0 109095449.7100002 0 0 109522269.2447785 0 0 109907482.7470404 0 0 110219640.5235341 0 0 110445670.6192639 0 0 110764758.5403149 0 0 111492940.7029628 0 0 111603872.9679542 0 0 111721745.8203094 0 0 112286579.0437368 0 0 112345827.4114883 0 0 108903842.1961108 0 0 107829789.7329648 0 0 109912354.493594 0 0 110839892.1985665 0 0 111677065.5398519 0 0 112416826.2697321 0 0 113052029.7419743 0 0 113577865.688924 0 0 113990576.6148664 0 0 114288414.3802954 0 0 114471138.4727871 0 0 114539494.4585299 0 0 114498019.5329789 0 0 114350363.7686584 0 0 114100962.5518425 0 0 113758115.3970566 0 0 113332860.1718454 0 0 112843739.4065948 0 0 106717607.0789201 0 0 106138841.8616276 0 0 105126302.2791357 0 0 102425493.4818891 0 0 103540467.2027936 0 0 104634706.532489 0 0 104022939.6429034 0 0 104322845.8223048 0 0 104702062.5571473 0 0 105164506.4091534 0 0 103643740.16261 0 0 103807181.5029766 0 0 103185300.4443617 0 0 105685519.2436437 0 0 106223872.7846449 0 0 106776281.9208141 0 0 107324649.6037349 0 0 107875979.2538635 0 0 108394011.3586791 0 0 108884390.6311625 0 0 109304955.859473 0 0 109691933.2756834 0 0 110084257.4444695 0 0 110246242.3221611 0 0 110576019.9136422 0 0 110859159.0171026 0 0 111451797.6296532 0 0 111559638.0342354 0 0 111730139.6890765 0 0 112247722.7037986 0 0 108768834.3721537 0 0 107760147.4807644 0 0 109709138.6765931 0 0 110569303.7976418 0 0 111343205.8830931 0 0 112023740.6069075 0 0 112605171.6563077 0 0 113083117.1783095 0 0 113454685.1187121 0 0 113718550.8516959 0 0 113874814.161236 0 0 113924784.7283106 0 0 113872183.2913485 0 0 113719401.5313882 0 0 113473664.2124576 0 0 113142441.1299296 0 0 112737069.4427666 0 0 112264482.0322993 0 0 107208634.647141 0 0 106156258.7708837 0 0 105656679.9306445 0 0 102917894.7997011 0 0 103863140.3543467 0 0 104771596.0491165 0 0 103879866.6748885 0 0 104161444.1385771 0 0 104523036.8489107 0 0 104963468.84786 0 0 103127937.9425587 0 0 103363062.0618511 0 0 102985183.3852539 0 0 105439699.0675164 0 0 105943735.2662666 0 0 106466980.3388078 0 0 106998134.5896916 0 0 107519810.0802415 0 0 108012797.7361572 0 0 108464594.3334013 0 0 108857999.6742835 0 0 109236768.2999752 0 0 109386043.9081692 0 0 110041309.5488555 0 0 110379549.1752887 0 0 110896578.2269539 0 0 110941785.5741795 0 0 111060622.9913788 0 0 111655795.8683893 0 0 111701953.6182334 0 0 109222720.3387167 0 0 108241269.0485486 0 0 110130160.7273273 0 0 110957601.9985169 0 0 111696931.7687296 0 0 112341528.9482851 0 0 112885884.8322193 0 0 113326155.6099471 0 0 113659876.2375136 0 0 113886052.3976661 0 0 114005152.9476367 0 0 114019704.7750707 0 0 113932860.546532 0 0 113749525.0399261 0 0 113473497.0240704 0 0 113111876.6433075 0 0 112677438.7758103 0 0 112198161.0024154 0 0 107155107.9463049 0 0 106635299.1898009 0 0 105694384.8298178 0 0 103307652.7199 0 0 104287975.337441 0 0 105266822.619437 0 0 103540088.4660972 0 0 103823349.510814 0 0 104208409.6536035 0 0 104670819.0608368 0 0 103178395.4954031 0 0 103149911.1663806 0 0 102736834.5545697 0 0 105160219.6912658 0 0 105678424.1948794 0 0 106216542.7177621 0 0 106759833.6818538 0 0 107285696.8054588 0 0 107843100.662713 0 0 108266555.2308551 0 0 108648411.6459509 0 0 109077033.5439529 0 0 109440459.9840111 0 0 109159597.2715348 0 0 109728472.0063285 0 0 110076706.2072941 0 0 110788138.1238555 0 0 110978282.8874163 0 0 110981621.8897924 0 0 111529081.1228959 0 0 108135857.849628 0 0 109054666.5026366 0 0 109897187.9133044 0 0 110665287.139054 0 0 111348548.8844485 0 0 111941272.474104 0 0 112438902.0469104 0 0 112838248.2175925 0 0 113137252.5122576 0 0 113335359.5336117 0 0 113433532.10464 0 0 113434100.7191123 0 0 113340001.7721274 0 0 113157094.4098325 0 0 112885684.5557273 0 0 112535929.8098046 0 0 112156275.2801934 0 0 111728362.6218686 0 0 107624243.1897088 0 0 106589168.9726628 0 0 106173381.6091265 0 0 103706840.5437335 0 0 104554890.0379182 0 0 105269948.8777296 0 0 103397144.3589151 0 0 103680561.3205599 0 0 104052063.5362382 0 0 104473672.9968062 0 0 102634384.2325177 0 0 102877405.8076699 0 0 102433501.5979729 0 0 104938735.2371208 0 0 105428306.9436846 0 0 105949733.7406577 0 0 106460837.7659661 0 0 106978979.155461 0 0 107561662.1866473 0 0 107882965.9492733 0 0 108262750.4090943 0 0 108824738.2820861 0 0 108482898.8273033 0 0 109167836.3505885 0 0 109657089.1796106 0 0 110074417.1735864 0 0 110440218.7443243 0 0 110436288.8338993 0 0 111026374.2041562 0 0 111352898.137317 0 0 108578453.4583736 0 0 109462933.3506847 0 0 110276332.0065877 0 0 111011667.2005193 0 0 111661246.1219185 0 0 112219297.1051035 0 0 112681612.7512482 0 0 113045286.3327115 0 0 113308711.2861501 0 0 113471694.8189065 0 0 113535961.5511319 0 0 113504126.9975125 0 0 113380052.8304016 0 0 113169871.6248699 0 0 112877073.4165264 0 0 112509037.5122769 0 0 112104956.5971828 0 0 111618008.5755144 0 0 107544073.1243045 0 0 107064105.2271486 0 0 106043303.6499875 0 0 104071850.1384127 0 0 104829302.5517591 0 0 105519416.5000807 0 0 103063986.4291727 0 0 103379373.7737814 0 0 103778461.0776955 0 0 104221894.4438141 0 0 102645236.7209644 0 0 102778052.6949329 0 0 102257309.7473162 0 0 104696623.3262968 0 0 105194448.5635083 0 0 105731540.0937564 0 0 106265681.639103 0 0 106772554.4576674 0 0 107365407.6503697 0 0 107790731.8321389 0 0 108080355.8709985 0 0 108513881.4312944 0 0 108297292.8006453 0 0 108853636.8016325 0 0 109340290.2135618 0 0 109815897.1445305 0 0 110279860.3467832 0 0 110456131.2510613 0 0 110670959.6048591 0 0 110257455.140246 0 0 111014566.2330628 0 0 108444457.06215 0 0 109261882.9739608 0 0 110021768.1595894 0 0 110703744.086448 0 0 111303676.6103732 0 0 111816299.3934201 0 0 112237968.7485462 0 0 112566582.7430104 0 0 112800841.4366517 0 0 112941133.4893999 0 0 112989250.3775222 0 0 112947464.5294436 0 0 112819618.2382587 0 0 112615699.7424758 0 0 112325580.5378773 0 0 111961614.8770452 0 0 111585113.249363 0 0 111328423.8744307 0 0 107964407.4773621 0 0 106989662.7929355 0 0 106354799.4098017 0 0 104460448.6678971 0 0 105446644.8092971 0 0 102967641.986081 0 0 103264576.5388671 0 0 103634398.1804558 0 0 104050281.4774704 0 0 102328221.8788368 0 0 102365367.4866263 0 0 102477280.6716295 0 0 102060135.3916902 0 0 104495800.7240268 0 0 104974610.6692751 0 0 105493170.1459326 0 0 105903685.8853389 0 0 106829728.5077441 0 0 106852195.1681888 0 0 107164324.4142002 0 0 107971391.527944 0 0 107708355.2164197 0 0 108299035.1304713 0 0 108829288.5074397 0 0 109295032.4405975 0 0 109744215.9081799 0 0 110058115.4874318 0 0 109769709.6911378 0 0 110709801.6705067 0 0 110122326.8943494 0 0 110856978.2676615 0 0 108831337.0743168 0 0 109631440.0790108 0 0 110360935.6982787 0 0 111011404.9639129 0 0 111578515.7106471 0 0 112057971.9046574 0 0 112446412.7184988 0 0 112741566.3475194 0 0 112942872.7749057 0 0 113050707.6106569 0 0 113067795.0689778 0 0 112996425.8359844 0 0 112840064.656655 0 0 112604876.2302557 0 0 112278066.1550318 0 0 111956348.4611928 0 0 111643788.6283002 0 0 111037140.0424065 0 0 107864454.3852901 0 0 107371682.6234352 0 0 106265055.3810904 0 0 104790804.071719 0 0 105776663.9267525 0 0 102687320.4457468 0 0 103014775.2096979 0 0 103402894.2784501 0 0 103827629.9705406 0 0 102262255.2120466 0 0 102121057.6814123 0 0 102419032.457836 0 0 101875401.77639 0 0 104292921.4177847 0 0 104764484.1348834 0 0 105350918.1629795 0 0 105825089.8810949 0 0 105900122.9383308 0 0 106854225.7736539 0 0 107202196.0445558 0 0 107073481.2300535 0 0 107709879.1021297 0 0 108032624.2476952 0 0 107481234.4692554 0 0 108546398.7993077 0 0 109012851.1770083 0 0 109418912.6884037 0 0 110344638.5443668 0 0 110551600.8251463 0 0 108654227.3918415 0 0 109411797.906917 0 0 110089455.1974905 0 0 110692734.2066724 0 0 111215947.1274754 0 0 111655799.2203057 0 0 112009073.3956207 0 0 112274332.1808412 0 0 112451179.7315136 0 0 112540731.6392763 0 0 112545791.8121375 0 0 112467249.9435208 0 0 112310036.7469201 0 0 112103188.7037769 0 0 111813969.30078 0 0 111388139.8134681 0 0 110979483.7557302 0 0 108259305.8520298 0 0 106958227.4397876 0 0 107378737.5821633 0 0 105878808.257632 0 0 105020828.1884894 0 0 102607516.1259025 0 0 102910793.424542 0 0 103276763.3273901 0 0 103670846.8876769 0 0 102024606.0603201 0 0 101947614.7660485 0 0 102145919.251696 0 0 101698514.4472536 0 0 104122961.120766 0 0 104602359.9106848 0 0 105108867.592113 0 0 105352541.5076899 0 0 105979558.7044149 0 0 106587504.5291798 0 0 106389914.8021283 0 0 107107071.2865514 0 0 106889391.5801679 0 0 109029423.1679435 0 0 109745938.4137172 0 0 110392566.000661 0 0 110964492.6720415 0 0 111456316.5475664 0 0 111864537.0484918 0 0 112186813.9504146 0 0 112421116.8077736 0 0 112567438.0449113 0 0 112627682.0919839 0 0 112604418.4008869 0 0 112500235.530412 0 0 112312302.6529581 0 0 112080782.1865247 0 0 111667533.1629416 0 0 111345873.548789 0 0 110690247.6970569 0 0 108098555.7991302 0 0 106939774.5020024 0 0 107753145.1295056 0 0 106227959.8966889 0 0 105387860.9003309 0 0 102382438.0924451 0 0 102699925.2818442 0 0 103061711.0922927 0 0 103498130.4611212 0 0 101932891.2160314 0 0 101739364.5836556 0 0 102068116.39417 0 0 101549231.2974533 0 0 103975936.9528986 0 0 104451486.6494527 0 0 105008432.3741882 0 0 105199768.5995351 0 0 105825588.1514404 0 0 106428930.8835495 0 0 106274957.3477763 0 0 108843182.706348 0 0 109507181.5858971 0 0 110109466.5264992 0 0 110638940.8103368 0 0 111092177.710692 0 0 111465922.1532637 0 0 111757814.6062574 0 0 111966125.1054721 0 0 112092434.755669 0 0 112137819.4633017 0 0 112106571.4786878 0 0 112002227.7421355 0 0 111844949.8133514 0 0 111642678.3691294 0 0 111568824.1330227 0 0 110979505.5785717 0 0 111120381.5282978 0 0 108459998.967796 0 0 107017878.9238239 0 0 107587811.097336 0 0 105587442.4836753 0 0 106219238.2019126 0 0 102311556.388139 0 0 102615800.0418401 0 0 102968899.7411675 0 0 103386904.2779299 0 0 101729732.1323919 0 0 101579112.8128883 0 0 101853802.5055699 0 0 101386941.3114107 0 0 103774211.3059343 0 0 104492668.7193112 0 0 104426074.3339256 0 0 105178432.8252516 0 0 105836880.909843 0 0 105637023.8548028 0 0 109163648.0387933 0 0 109802974.9750917 0 0 110376861.0847461 0 0 110877316.3482572 0 0 111300684.1645218 0 0 111644621.2832074 0 0 111907544.8524135 0 0 112087878.4755006 0 0 112186649.082793 0 0 112205340.7509993 0 0 112144743.0159851 0 0 112037643.9129301 0 0 111859304.3486118 0 0 111666800.1213178 0 0 111162687.3611171 0 0 110780601.9799919 0 0 111144270.491335 0 0 108308828.2156796 0 0 106998079.6459173 0 0 107912427.6536638 0 0 105901957.0125047 0 0 106631866.899469 0 0 102132749.3312431 0 0 102403738.7875052 0 0 102798146.3751011 0 0 103249823.9515296 0 0 101614869.2169389 0 0 101435038.731618 0 0 101832674.583023 0 0 101239875.7071124 0 0 103781302.7462531 0 0 103742473.7089008 0 0 104511344.0551497 0 0 105002767.87154 0 0 104356010.0733865 0 0 108951090.6359466 0 0 109551524.8991218 0 0 110085294.1604172 0 0 110548146.8914125 0 0 110937555.4377731 0 0 111251789.4712878 0 0 111488768.6962987 0 0 111646853.2713044 0 0 111730248.1619313 0 0 111737040.3580634 0 0 111675211.7089374 0 0 111589898.6552678 0 0 111376716.941886 0 0 111169439.3911852 0 0 110805636.0081354 0 0 108604040.2593073 0 0 107192149.0228169 0 0 106754008.0581202 0 0 107767399.8138358 0 0 106054905.4725442 0 0 102091498.45349 0 0 102320815.8980382 0 0 102790243.7552271 0 0 103251910.7317548 0 0 101388587.1612174 0 0 101305365.7676104 0 0 101644289.3867439 0 0 101088576.0723872 0 0 103168841.1683605 0 0 103824578.3425792 0 0 103731278.2638589 0 0 109239856.0419555 0 0 109814897.6425993 0 0 110321239.9461188 0 0 110756031.7658679 0 0 111117200.4631916 0 0 111403462.2682074 0 0 111613420.0123401 0 0 111747791.5596493 0 0 111808753.4849039 0 0 111790042.7652284 0 0 111720897.338598 0 0 111563755.3910218 0 0 111280392.8957598 0 0 110814971.1137104 0 0 108414648.6954983 0 0 107529756.6671193 0 0 106792982.2655877 0 0 108070098.7766654 0 0 106351097.7637347 0 0 101974348.6384544 0 0 102192190.0183384 0 0 102632156.0355889 0 0 101307878.9774387 0 0 101203561.9266639 0 0 101732986.9487855 0 0 100954488.169689 0 0 103244968.6174425 0 0 103140109.7932952 0 0 109019682.3427068 0 0 109554712.6592443 0 0 110024405.2606916 0 0 110425791.7282408 0 0 110757334.5761715 0 0 111018171.2170055 0 0 111205052.158402 0 0 111320956.7744495 0 0 111374611.3169504 0 0 111314734.7853311 0 0 111190151.3956498 0 0 111225460.2386542 0 0 111035864.3219693 0 0 108710087.8981846 0 0 107334604.5278339 0 0 106527183.7777055 0 0 107942523.3001602 0 0 101669435.3544038 0 0 102250510.4080632 0 0 102702151.7282758 0 0 101221831.3353885 0 0 100969846.1522144 0 0 101285250.4693204 0 0 100895979.9091272 0 0 102589284.5650094 0 0 109280753.258777 0 0 109788815.5600489 0 0 110231553.7883568 0 0 110606025.6281893 0 0 110910296.8573235 0 0 111141727.1142645 0 0 111291398.4944352 0 0 111374781.6183349 0 0 111383431.6590546 0 0 111259490.8326854 0 0 111271199.5273934 0 0 111044048.3323962 0 0 110768384.7354317 0 0 108523457.4461007 0 0 107562502.8282087 0 0 106748890.5544823 0 0 108199015.7179747 0 0 101747483.0605828 0 0 101642142.1658284 0 0 102086162.07503 0 0 101240248.3192669 0 0 101035365.1997049 0 0 101340212.8903345 0 0 100726733.8812472 0 0 109049847.9098101 0 0 109521409.4129953 0 0 109931785.7812822 0 0 110276948.7269069 0 0 110556492.574897 0 0 110769050.1625903 0 0 110898960.1735776 0 0 111031634.2234873 0 0 111038212.8596448 0 0 111009442.4649808 0 0 110985299.5485808 0 0 110911905.4603267 0 0 108766590.3577322 0 0 107441396.7089767 0 0 106812486.1010731 0 0 108036044.0219452 0 0 101283447.3875398 0 0 100815405.7115543 0 0 101007908.7680861 0 0 109277969.9955684 0 0 109728313.4662432 0 0 110113261.5215662 0 0 110434665.6704769 0 0 110690528.6590949 0 0 110885456.7489353 0 0 111002009.9894105 0 0 111022838.9084741 0 0 110941781.7221851 0 0 110766067.4177609 0 0 110788458.9262495 0 0 110670766.0677099 0 0 108572810.1684311 0 0 107714667.9100519 0 0 107061147.0689497 0 0 108294333.3052195 0 0 109047790.007772 0 0 109456831.4794319 0 0 109812186.7944422 0 0 110109367.0141637 0 0 110343198.5513931 0 0 110506233.4737022 0 0 110565570.8184153 0 0 110783613.9167398 0 0 110732355.0430576 0 0 110639220.9748491 0 0 110533647.3723733 0 0 108803735.4478458 0 0 107074092.038394 0 0 107644953.6713103 0 0 108144864.2080432 0 0 109246457.0433473 0 0 109638831.4496795 0 0 109973491.4916812 0 0 110244763.7360867 0 0 110451205.7898802 0 0 110573731.4233357 0 0 110670653.3250575 0 0 110618581.5553187 0 0 110543527.6198218 0 0 110376549.3806175 0 0 108613351.9864518 0 0 107332337.1737486 0 0 107890426.8980409 0 0 108389260.4057406 0 0 109020081.9619424 0 0 109367007.4122986 0 0 109676025.6657287 0 0 109924545.7355988 0 0 110112626.7140605 0 0 110252583.8244859 0 0 110422449.9054805 0 0 110508074.0389777 0 0 110416620.0503923 0 0 108815861.218932 0 0 107302116.3901784 0 0 107817623.2889795 0 0 108222354.6578541 0 0 109176671.2393929 0 0 109527892.3081858 0 0 109816006.7021841 0 0 110047786.0725119 0 0 110231553.7721772 0 0 110292943.5639938 0 0 110250361.390701 0 0 110313321.0822655 0 0 110182133.1998955 0 0 108582145.5381077 0 0 107538117.1528516 0 0 108044746.6881889 0 0 108445866.0872071 0 0 108919329.7451072 0 0 109254449.7579914 0 0 109519657.3141493 0 0 109723287.3009745 0 0 109843731.8272876 0 0 109898433.3327492 0 0 110209303.8182362 0 0 108451962.037267 0 0 107487715.9063625 0 0 107951863.9809437 0 0 109056701.7334883 0 0 109390712.3868341 0 0 109630464.265671 0 0 109812082.995049 0 0 109913657.3985909 0 0 109992745.5260625 0 0 109961267.5485378 0 0 108562797.0634471 0 0 107710031.7569315 0 0 108167934.2393832 0 0 108829518.1780654 0 0 108540649.2616601 0 0 109120479.025416 0 0 109354723.7182338 0 0 109495272.6603886 0 0 109548889.1110606 0 0 109714415.2977476 0 0 108047234.1639372 0 0 107632317.4630777 0 0 108979288.8687322 0 0 108654045.7543399 0 0 109225655.6049178 0 0 109402825.5104531 0 0 109488976.7392093 0 0 109437785.729836 0 0 108209552.3985005 0 0 107833616.0445116 0 0 108716305.5793145 0 0 108478529.6382793 0 0 108212718.3688409 0 0 108975158.82428 0 0 109172422.7245439 0 0 109283069.0011666 0 0 107706653.0368319 0 0 108844766.2423697 0 0 108630417.4542791 0 0 108235615.9566823 0 0 109040694.4950795 0 0 109137214.7997747 0 0 109152216.4955556 0 0 107898130.7758384 0 0 108408632.2561741 0 0 108590586.9217051 0 0 108123540.8957669 0 0 108857369.2448547 0 0 108984543.4757286 0 0 107730534.4462768 0 0 108446936.2996973 0 0 108686786.2086678 0 0 108090086.8294865 0 0 108769636.6634684 0 0 108857554.8774061 0 0 107909665.6701299 0 0 108339565.5891422 0 0 108272246.0751841 0 0 108432586.758769 0 0 107794367.7506522 0 0 108693250.8165977 0 0 108153287.1740858 0 0 108408968.7202458 0 0 107930529.852155 0 0 108547768.4486375 0 0 108184880.8523598 0 0 108226701.0600037 0 0 107789471.4161174 0 0 107983427.8571844 0 0 107885277.2772078 0 0 107899488.7309274 0 0 </DataArray>
      </CellData>
      <PointData>
        <DataArray type="Int64" IdType="1" Name="vtkOriginalPointIds" format="ascii" RangeMin="0" RangeMax="1811">154 0 1771 5 214 1214 153 6 1102 1213 209 7 152 1731 1211 8 185 1098 975 1212 181 151 1757 9 1591 1766 766 749 1050 1263 1714 150 1166 10 1768 1065 673 1173 672 1421 1783 1047 11 149 1071 999 1088 171 165 1806 757 571 1415 1191 668 681 1027 12 148 1131 659 1722 1320 13 1101 1700 756 565 514 1414 570 669 682 1077 1389 203 147 1129 625 1761 14 188 1797 984 1130 513 1538 464 480 504 1018 1310 914 1070 1394 1704 15 146 983 1464 160 16 1112 1128 755 1484 418 1323 1565 441 481 509 1577 913 689 1371 1082 1730 145 1079 692 1161 1794 17 155 219 1526 560 763 414 413 454 776 1500 1003 1160 1163 676 675 951 1066 204 1275 144 221 629 1388 18 217 218 220 223 225 916 394 1522 412 703 1007 1198 1193 773 1278 615 670 952 1274 1441 1133 143 222 1509 1672 19 1799 189 1109 500 1668 224 226 1669 391 393 634 1448 1524 1561 636 696 765 614 546 1427 1276 1039 1737 1068 1038 20 21 168 142 1458 229 988 1456 22 1111 1699 1132 1695 992 227 228 1417 390 389 423 635 1301 786 1332 695 764 769 543 544 582 1418 702 1248 974 1791 207 23 25 26 1696 176 24 1472 141 1457 230 1134 1726 1759 1764 27 28 190 166 1069 904 1692 940 941 1471 231 233 388 1331 387 1468 705 392 521 540 1277 1533 1292 542 545 583 600 683 1393 1067 1150 1245 1254 1749 29 30 216 140 1798 1010 232 1293 1042 1255 1253 1244 1777 1 1118 1756 1242 881 859 857 858 1009 1550 1557 234 385 1322 1251 386 1250 1252 520 539 541 986 611 534 1465 586 587 601 684 743 1149 1697 1205 704 1702 31 139 1505 235 237 744 778 680 1202 1201 1116 985 962 882 860 841 840 1513 1442 994 1425 236 384 383 1365 889 1487 890 1335 1469 709 900 700 610 243 1537 708 1470 685 686 1151 1204 1773 630 211 32 138 853 1568 238 1493 777 574 1203 1200 186 1043 963 884 883 1529 822 821 1367 839 879 987 239 376 1373 382 469 487 1566 1190 993 1022 1016 1017 701 1651 1508 1604 1608 929 771 1625 631 573 1701 1199 33 137 1753 851 1156 240 1159 1222 486 1732 1075 1103 1139 1044 1045 1519 1154 1155 1532 815 816 820 838 901 1138 241 375 365 642 445 470 488 1579 1189 1031 1221 1586 1273 1653 1424 537 1272 1631 1021 459 1688 572 1074 34 184 136 1478 475 242 1620 458 484 1788 1073 215 1104 1140 1246 1763 824 1188 1562 811 812 817 825 850 1543 1157 244 364 1370 324 1368 1511 612 613 1572 1656 1652 345 1303 1271 953 1423 1639 378 1614 442 1479 1684 1054 35 1284 135 1141 856 1192 245 401 457 485 1072 1770 1781 1685 1136 837 823 818 813 808 809 1536 1489 852 854 1544 1636 246 321 1299 1558 323 329 711 706 707 334 894 896 344 354 366 927 1144 1385 377 440 1053 1346 1052 36 4 1262 1747 1488 1547 247 399 1680 1682 1712 1746 134 210 1808 1095 835 819 1336 814 807 805 1329 1582 923 855 880 1183 1184 248 320 319 1279 1280 325 332 1580 892 893 340 895 897 350 362 374 1143 536 250 1679 1041 1040 174 1051 37 133 1135 1142 262 249 400 1220 1325 1800 132 1175 1094 877 836 848 1525 1396 804 803 1300 1594 1451 885 995 368 266 256 318 1507 317 781 1587 548 1665 1261 1152 1482 361 1146 1549 1670 1673 1145 252 251 1219 967 736 38 1283 1265 182 1182 263 1503 1675 768 734 131 878 1096 870 869 849 1606 1209 802 801 826 1602 1187 1186 1623 270 267 538 316 907 1662 315 1288 518 1185 1667 1260 395 1289 1270 517 1576 1033 254 253 915 1218 966 735 39 194 130 1809 280 1616 1601 958 733 1097 627 1474 1137 1769 887 1611 1206 1207 810 800 799 1362 1599 1605 289 282 271 1624 1309 314 1447 1257 1177 304 302 300 1005 961 298 296 294 770 292 257 255 1516 1411 1330 973 1514 40 1282 129 281 1298 1006 661 597 1706 626 1196 1728 172 128 1194 998 1000 1208 1210 798 797 1285 886 1290 287 283 369 1637 780 313 331 1258 1256 1176 303 301 299 1004 662 297 295 293 261 258 259 647 1341 595 1556 910 41 164 1540 1297 779 594 596 1736 909 1195 1197 1691 127 866 865 1461 1486 1439 796 794 792 790 306 288 1521 1548 1644 652 322 1658 1181 1343 699 1180 1646 1643 398 1467 1634 1632 535 1498 260 264 1490 1008 551 1046 911 42 1296 1012 653 633 550 1515 1776 1552 1443 1328 206 126 864 862 861 1312 806 795 793 791 789 307 308 1302 955 1647 621 1648 1178 1002 926 698 585 1243 1268 1267 1638 1026 1311 1628 908 265 268 1387 1386 533 1087 1686 43 195 714 1337 499 531 580 1014 876 1058 1792 125 863 834 831 828 827 1485 912 1535 1438 309 310 476 945 1650 620 1030 1338 1174 1001 784 584 530 772 1266 946 947 996 1259 1483 269 272 402 404 532 1355 1356 1744 44 1395 555 950 439 529 1013 1551 888 1056 1750 124 1426 832 830 829 868 1570 1363 516 326 311 312 552 1422 1654 891 715 716 718 1179 1520 1333 528 720 722 724 948 1148 645 274 273 284 403 405 1499 45 1357 1358 161 618 957 1455 527 1531 1774 1495 1057 1113 123 842 833 1466 905 1019 1585 1264 333 330 1569 1542 619 739 1655 1546 589 588 717 719 1249 524 525 721 723 1459 1153 1364 276 275 1491 1492 424 425 568 46 158 741 1359 1718 738 1409 1342 526 632 1786 1234 1501 1224 122 843 844 1527 1020 1589 353 341 339 1564 1172 990 989 1657 1307 640 515 1384 489 1510 787 490 523 1428 1318 1462 446 278 277 644 1563 918 426 427 569 47 1360 740 205 991 1306 431 1477 666 976 1076 875 846 121 845 867 1613 1232 1233 352 346 347 1596 1171 1170 1164 1660 463 433 461 1287 1011 462 1321 1314 522 1315 1317 1440 285 279 1497 1588 1291 1480 428 429 920 48 964 1361 1775 1165 435 432 1541 1574 1733 959 871 847 1081 120 1619 1229 1228 1231 363 357 1663 1286 960 1223 650 649 1659 437 434 451 422 420 419 1450 1313 519 1316 1319 290 286 305 1600 933 732 549 430 1463 1567 49 1727 180 1738 1241 436 1593 1437 924 1375 1326 1689 872 873 119 1618 1227 411 379 367 1664 1032 783 782 1366 556 507 448 447 438 450 467 421 397 371 360 351 348 327 291 1539 1607 934 928 731 726 785 1168 725 50 925 1374 169 466 1640 1635 566 742 1767 968 1710 874 1626 118 1230 1226 410 380 381 1666 956 660 590 557 508 506 465 547 1345 1506 468 1419 396 370 359 349 335 328 1410 1340 1603 1609 1612 1621 942 1167 944 674 51 1810 1376 1377 1240 505 1642 1344 567 752 969 1083 970 1641 117 512 443 417 1671 1216 1215 1327 591 559 558 1453 602 1512 1645 949 1598 648 1597 1590 616 1554 1502 336 337 1339 1334 637 932 1392 1633 1169 654 655 1380 52 1378 156 208 603 1372 657 651 1379 971 1238 1147 1622 116 477 444 1674 1217 767 727 593 592 1504 1553 898 697 943 1649 694 1029 1610 1025 1444 1573 1434 1435 338 342 471 473 491 1391 617 1627 606 607 656 1693 53 1683 1381 1239 1785 737 751 693 1617 1719 1237 1236 577 553 115 478 479 1676 1324 728 623 622 624 1023 1575 972 1715 1630 954 750 712 1369 906 1305 1308 713 355 343 358 472 474 492 496 498 503 605 1481 902 938 54 197 1398 177 1742 1784 939 1724 935 1739 1086 1235 576 554 114 1678 1162 1034 730 729 1517 748 758 1024 1790 1350 1352 1354 1629 1105 638 639 1304 788 1433 372 356 1460 641 1475 493 494 497 502 604 687 1518 1725 936 55 1397 1780 1085 1705 1349 1106 1107 667 997 762 658 578 581 113 1681 1035 754 753 965 1741 1080 1496 1729 159 1351 1353 179 1740 1793 157 609 562 483 455 406 373 1429 1534 1560 917 495 1452 564 1476 688 977 1117 1796 937 56 1399 1811 1048 1530 1348 89 1158 1584 1760 759 663 1555 1687 112 1037 1036 1523 1055 1295 1807 1347 94 93 92 91 90 88 87 608 561 482 449 407 408 903 1413 1581 1015 1247 1592 1595 1028 980 1084 196 1716 1403 57 163 1782 1225 191 1754 192 95 86 1431 760 761 1063 1690 111 1093 1108 1765 1281 167 1294 96 1571 563 1545 1449 409 415 1412 710 1578 1583 930 931 1615 1110 1803 1734 85 1126 1402 58 1743 1061 1709 97 1401 1125 1752 1060 1062 1064 1755 110 1805 193 99 98 1420 1559 1383 1430 416 452 598 646 665 746 922 1049 1721 162 84 1804 1124 59 200 1092 1078 1711 1707 100 83 1123 1789 1269 1703 175 109 101 1390 919 1382 456 453 501 599 664 745 921 1446 1772 1400 82 1127 1122 60 212 187 1779 102 775 104 103 1723 3 678 643 510 460 1445 1494 671 1454 1059 1119 198 81 173 61 1120 105 107 108 106 1720 774 677 628 511 575 1416 1528 1677 1801 1735 170 80 1713 62 1121 79 1748 899 1436 579 679 979 1090 1405 1404 78 63 1717 1408 1762 1787 1473 691 690 978 1089 1115 199 77 64 183 1407 981 747 1432 1114 178 76 1661 65 1406 75 982 1758 1091 1745 1694 74 202 66 1099 1100 1802 201 73 67 1751 1795 1698 1708 72 68 213 71 69 1778 70 2 </DataArray>
        <DataArray type="UInt8" Name="vtkGhostType" format="ascii" RangeMin="0" RangeMax="0">0 0 0 0 0 0 0 0 0 0 0 0 0 0 0 0 0 0 0 0 0 0 0 0 0 0 0 0 0 0 0 0 0 0 0 0 0 0 0 0 0 0 0 0 0 0 0 0 0 0 0 0 0 0 0 0 0 0 0 0 0 0 0 0 0 0 0 0 0 0 0 0 0 0 0 0 0 0 0 0 0 0 0 0 0 0 0 0 0 0 0 0 0 0 0 0 0 0 0 0 0 0 0 0 0 0 0 0 0 0 0 0 0 0 0 0 0 0 0 0 0 0 0 0 0 0 0 0 0 0 0 0 0 0 0 0 0 0 0 0 0 0 0 0 0 0 0 0 0 0 0 0 0 0 0 0 0 0 0 0 0 0 0 0 0 0 0 0 0 0 0 0 0 0 0 0 0 0 0 0 0 0 0 0 0 0 0 0 0 0 0 0 0 0 0 0 0 0 0 0 0 0 0 0 0 0 0 0 0 0 0 0 0 0 0 0 0 0 0 0 0 0 0 0 0 0 0 0 0 0 0 0 0 0 0 0 0 0 0 0 0 0 0 0 0 0 0 0 0 0 0 0 0 0 0 0 0 0 0 0 0 0 0 0 0 0 0 0 0 0 0 0 0 0 0 0 0 0 0 0 0 0 0 0 0 0 0 0 0 0 0 0 0 0 0 0 0 0 0 0 0 0 0 0 0 0 0 0 0 0 0 0 0 0 0 0 0 0 0 0 0 0 0 0 0 0 0 0 0 0 0 0 0 0 0 0 0 0 0 0 0 0 0 0 0 0 0 0 0 0 0 0 0 0 0 0 0 0 0 0 0 0 0 0 0 0 0 0 0 0 0 0 0 0 0 0 0 0 0 0 0 0 0 0 0 0 0 0 0 0 0 0 0 0 0 0 0 0 0 0 0 0 0 0 0 0 0 0 0 0 0 0 0 0 0 0 0 0 0 0 0 0 0 0 0 0 0 0 0 0 0 0 0 0 0 0 0 0 0 0 0 0 0 0 0 0 0 0 0 0 0 0 0 0 0 0 0 0 0 0 0 0 0 0 0 0 0 0 0 0 0 0 0 0 0 0 0 0 0 0 0 0 0 0 0 0 0 0 0 0 0 0 0 0 0 0 0 0 0 0 0 0 0 0 0 0 0 0 0 0 0 0 0 0 0 0 0 0 0 0 0 0 0 0 0 0 0 0 0 0 0 0 0 0 0 0 0 0 0 0 0 0 0 0 0 0 0 0 0 0 0 0 0 0 0 0 0 0 0 0 0 0 0 0 0 0 0 0 0 0 0 0 0 0 0 0 0 0 0 0 0 0 0 0 0 0 0 0 0 0 0 0 0 0 0 0 0 0 0 0 0 0 0 0 0 0 0 0 0 0 0 0 0 0 0 0 0 0 0 0 0 0 0 0 0 0 0 0 0 0 0 0 0 0 0 0 0 0 0 0 0 0 0 0 0 0 0 0 0 0 0 0 0 0 0 0 0 0 0 0 0 0 0 0 0 0 0 0 0 0 0 0 0 0 0 0 0 0 0 0 0 0 0 0 0 0 0 0 0 0 0 0 0 0 0 0 0 0 0 0 0 0 0 0 0 0 0 0 0 0 0 0 0 0 0 0 0 0 0 0 0 0 0 0 0 0 0 0 0 0 0 0 0 0 0 0 0 0 0 0 0 0 0 0 0 0 0 0 0 0 0 0 0 0 0 0 0 0 0 0 0 0 0 0 0 0 0 0 0 0 0 0 0 0 0 0 0 0 0 0 0 0 0 0 0 0 0 0 0 0 0 0 0 0 0 0 0 0 0 0 0 0 0 0 0 0 0 0 0 0 0 0 0 0 0 0 0 0 0 0 0 0 0 0 0 0 0 0 0 0 0 0 0 0 0 0 0 0 0 0 0 0 0 0 0 0 0 0 0 0 0 0 0 0 0 0 0 0 0 0 0 0 0 0 0 0 0 0 0 0 0 0 0 0 0 0 0 0 0 0 0 0 0 0 0 0 0 0 0 0 0 0 0 0 0 0 0 0 0 0 0 0 0 0 0 0 0 0 0 0 0 0 0 0 0 0 0 0 0 0 0 0 0 0 0 0 0 0 0 0 0 0 0 0 0 0 0 0 0 0 0 0 0 0 0 0 0 0 0 0 0 0 0 0 0 0 0 0 0 0 0 0 0 0 0 0 0 0 0 0 0 0 0 0 0 0 0 0 0 0 0 0 0 0 0 0 0 0 0 0 0 0 0 0 0 0 0 0 0 0 0 0 0 0 0 0 0 0 0 0 0 0 0 0 0 0 0 0 0 0 0 0 0 0 0 0 0 0 0 0 0 0 0 0 0 0 0 0 0 0 0 0 0 0 0 0 0 0 0 0 0 0 0 0 0 0 0 0 0 0 0 0 0 0 0 0 0 0 0 0 0 0 0 0 0 0 0 0 0 0 0 0 0 0 0 0 0 0 0 0 0 0 0 0 0 0 0 0 0 0 0 0 0 0 0 0 0 0 0 0 0 0 0 0 0 0 0 0 0 0 0 0 0 0 0 0 0 0 0 0 0 0 0 0 0 0 0 0 0 0 0 0 0 0 0 0 0 0 0 0 0 0 0 0 0 0 0 0 0 0 0 0 0 0 0 0 0 0 0 0 0 0 0 0 0 0 0 0 0 0 0 0 0 0 0 0 0 0 0 0 0 0 0 0 0 0 0 0 0 0 0 0 0 0 0 0 0 0 0 0 0 0 0 0 0 0 0 0 0 0 0 0 0 0 0 0 0 0 0 0 0 0 0 0 0 0 0 0 0 0 0 0 0 0 0 0 0 0 0 0 0 0 0 0 0 0 0 0 0 0 0 0 0 0 0 0 0 0 0 0 0 0 0 0 0 0 0 0 0 0 0 0 0 0 0 0 0 0 0 0 0 0 0 0 0 0 0 0 0 0 0 0 0 0 0 0 0 0 0 0 0 0 0 0 0 0 0 0 0 0 0 0 0 0 0 0 0 0 0 0 0 0 0 0 0 0 0 0 0 0 0 0 0 0 0 0 0 0 0 0 0 0 0 0 0 0 0 0 0 0 0 0 0 0 0 0 0 0 0 0 0 0 0 0 0 0 0 0 0 0 0 0 0 0 0 0 0 0 0 0 0 0 0 0 0 0 0 0 0 0 0 0 0 0 0 0 0 0 0 0 0 0 0 0 0 0 0 0 0 0 0 0 0 0 0 0 0 0 0 0 0 0 0 0 0 0 0 0 0 0 0 0 0 0 0 0 0 0 0 0 0 0 0 0 0 0 0 0 0 0 0 0 0 0 0 0 0 0 0 0 0 0 0 0 0 0 0 0 0 0 0 0 0 0 0 0 0 0 0 0 0 0 0 0 0 0 0 0 0 0 0 0 0 0 0 0 0 0 0 0 0 0 0 0 0 0 0 0 0 0 0 0 0 0 0 0 0 0 0 0 0 0 0 0 0 0 0 0 0 0 0 0 0 0 0 0 0 0 0 0 0 0 0 0 0 0 0 0 0 0 0 0 0 0 0 0 0 0 0 0 0 0 0 0 0 0 0 0 0 0 0 0 0 0 0 0 0 0 0 0 0 0 0 0 0 0 0 0 0 0 0 0 0 0 0 0 0 0 0 0 0 0 0 0 0 0 0 0 0 0 0 0 0 0 0 0 0 0 0 0 0 0 0 0 0 0 0 0 0 0 0 0 0 0 0 0 0 0 0 0 0 0 0 0 0 0 0 0 0 0 0 0 0 0 0 0 0 0 0 0 0 0 0 0 0 0 0 0 0 0 0 0 0 0 0 0 0 0 0 0 0 0 0 0 0 0 0 0 0 0 0 0 0 0 0 0 0 0 0 0 0 0 0 0 0 0 0 0 0 0 0 0 0 0 0 0 0 0 0 0 0 0 0 0 0 0 0 0 0 0 0 0 0 0 0 0 0 0 0 0 0 0 0 0 0 0 0 0 0 0 0 0 0 0 0 0 0 0 0 0 0 0 0 0 0 0 0 0 0 0 0 0 0 0 0 0 0 0 0 0 0 0 0 0 0 0 0 0 0 0 0 0 0 0 0 0 0 0 0 0 0 0 </DataArray>
      </PointData>
    </Piece>
  </UnstructuredGrid>
</VTKFile>
