<?xml version="1.0"?>
<VTKFile type="UnstructuredGrid" version="2.2">
  <UnstructuredGrid>
    <Piece NumberOfPoints="541" NumberOfCells="250">
      <Points>
        <DataArray type="Float64" NumberOfComponents="3" format="ascii">0.100000000000416 1 0 1.560150154043339e-18 1 0 0.07242270094929615 0.9287161546587119 0 0.03621135047464808 0.9643580773293561 0 0.08621135047485609 0.9643580773293561 0 0.05000000000020802 1 0 1.927864805481964e-18 0.9042857142860055 0 0.03621135047464808 0.9165009344723587 0 0 0.9521428571430028 0 0.1504496488130522 0.9205296551412812 0 0.1114361748811742 0.9246229048999965 0 0.1252248244067341 0.9602648275706405 0 0.08949214017397381 0.8499193320747833 0 0.08095742056163498 0.8893177433667476 0 0.0447460700869869 0.8771025231803944 0 0.2000000000008322 1 0 0.1752248244069422 0.9602648275706407 0 0.1500000000006241 1 0 0.119970894493513 0.8852244936080322 0 1.719486532321706e-18 0.8085714285720079 0 0.0447460700869869 0.8292453803233957 0 0 0.8564285714290067 0 0.2499721953899355 0.918592877179916 0 0.2002109221014939 0.9195612661605985 0 0.2249860976953839 0.9592964385899579 0 0.1985034546041365 0.8442209309262435 0 0.1439977973890552 0.8470701315005135 0 0.1744765517085943 0.8823752930337623 0 0.07981914983884167 0.755185374623065 0 0.08465564500640774 0.8025523533489243 0 0.03990957491942083 0.7818784015975364 0 0.3000000000012484 1 0 0.2749860976955919 0.9592964385899579 0 0.2500000000010403 1 0 0.224237824997036 0.8814069040530798 0 0.1647172437488297 0.7772037251192008 0 0.1271046919614018 0.8135615285969922 0 0.1816103491764831 0.8107123280227222 0 1.707883688867638e-18 0.7128571428580415 0 0.03990957491942084 0.7340212587405534 0 0 0.7607142857150249 0 0.1222681967938357 0.7661945498711329 0 0.3498228780409012 0.9196059643157829 0 0.2998975367154184 0.9190994207478494 0 0.3249114390210747 0.9598029821578914 0 0.2982782210027112 0.8494663949677289 0 0.2483908378034239 0.8468436629469862 0 0.2741252081963234 0.8840296360738225 0 0.2569918719072125 0.7888812511490499 0 0.2108545578280211 0.7830424881341255 0 0.2277476632556745 0.8165510910376468 0 0.07928054189815228 0.6639934880868408 0 0.03964027094907614 0.6884253154724411 0 0.07954984586849698 0.709589431354953 0 0.1576018681684929 0.6958879033414609 0 0.1611595559586613 0.7365458142303308 0 0.1187105090036673 0.7255366389822628 0 0.4000000000016645 1 0 0.3749114390212828 0.9598029821578915 0 0.3500000000014564 1 0 0.3240505495218062 0.8845361796417559 0 0.2776350464549618 0.8191738230583895 0 0.2419461962682328 0.7223495853541092 0 0.2494690340877226 0.7556154182515797 0 0.2033317200085313 0.7497766552366552 0 1.712151821491122e-18 0.6171428571437529 0 0.03964027094907614 0.6405681726152969 0 0 0.6650000000008973 0 0.1184412050333226 0.6799406957141508 0 0.1997740322183628 0.7091187443477851 0 0.4518775995084199 0.9201756490083465 0 0.4008502387746605 0.9198908066620647 0 0.4259387997550421 0.9600878245041732 0 0.3974942312260538 0.8548415168737088 0 0.3478862261143825 0.852153955920719 0 0.3736585546334775 0.8872237405947458 0 0.3344732598673679 0.7636851317483527 0 0.2957325658872902 0.7762831914487014 0 0.3163757404350396 0.806575763358041 0 0.2882097280678004 0.7430173585512311 0 0.07947867006665031 0.5692879274259949 0 0.07937960598240131 0.6166407077564179 0 0.03973933503332516 0.593215392284874 0 0.1512795608247463 0.6093594627734521 0 0.1152800513614493 0.6366764754301464 0 0.1544407144966196 0.6526236830574563 0 0.2341354436318248 0.6391200624061723 0 0.2380408199500288 0.6807348238801408 0 0.1958686559001589 0.6675039828738166 0 0.5000000000020588 1 0 0.4759387997552393 0.9600878245041732 0 0.4500000000018616 1 0 0.4246859153672369 0.8875085829410276 0 0.3659837455467109 0.8092633243110309 0 0.3187788313139659 0.6664952828410461 0 0.2803625137910994 0.6944224340975778 0 0.326626045590667 0.7150902072946995 0 1.624205945531439e-18 0.5214285714291634 0 0.03973933503332516 0.5453582494275793 0 0 0.5692857142864582 0 0.1153791154456983 0.5893236950997235 0 0.1927075022282856 0.6242397625898122 0 0.2764571374728954 0.6528076726236093 0 0.5501260307078504 0.9157080124274183 0 0.5010018151081351 0.9179418307178824 0 0.5250630153549545 0.9578540062137091 0 0.4982783550718213 0.828329071072998 0 0.4478862931489376 0.8415852939733535 0 0.4750779772901206 0.8742523600406722 0 0.4270018182274791 0.7748455103032578 0 0.4122480247267665 0.8148435135884834 0 0.3807375390474236 0.7692653210258054 0 0.4034544631785331 0.6976365327000736 0 0.3611166472462496 0.68206590777056 0 0.3689638615229506 0.7306608322242133 0 0.07539619258341246 0.4768398233222965 0 0.03769809629170623 0.4991341973757299 0 0.07743743132503139 0.5230638753741458 0 0.1430235002041239 0.5157881957117132 0 0.1112510851353871 0.542538061568854 0 0.1471515305144351 0.5625738292425826 0 0.2175071670521008 0.5477913784569416 0 0.1843933639384236 0.5785754206151968 0 0.2258213053419628 0.5934557204315569 0 0.3009805024027953 0.5741244054537948 0 0.3098796668583807 0.6203098441474205 0 0.2675579730173101 0.6066222339299836 0 0.600000000001387 1 0 0.5750630153546186 0.9578540062137092 0 0.5500000000017229 1 0 0.5242021928898358 0.8720185417502082 0 0.4626400866496502 0.801587290688128 0 0.4152281407030062 0.7362410215016658 0 0.3874961043363944 0.6045058593620657 0 0.3531374678251802 0.635500571101556 0 0.3954752837574638 0.6510711960310698 0 1.72722572933646e-18 0.4257142857145927 0 0.03769809629170624 0.4512770545184447 0 0 0.4735714285718781 0 0.1092098463937682 0.4963140095170049 0 0.1802653336281124 0.5317897870843273 0 0.2592438347274481 0.5609578919553682 0 0.3442383033695949 0.5893151324079303 0 0.6547996067305862 0.9007657125087727 0 0.6024628187192183 0.9082368624680955 0 0.6273998033659866 0.9503828562543863 0 0.5904037090299777 0.8429143001748771 0 0.5443410320508996 0.8356216856239376 0 0.5702648698689141 0.8793111563011478 0 0.4913158036241168 0.7286208351528234 0 0.4947970793479691 0.7784749531129109 0 0.459158810925798 0.7517331727280407 0 0.447385133401325 0.7131286839264486 0 0.474518797626666 0.6356120108154574 0 0.4310074509815303 0.6200589350887616 0 0.4389866304025997 0.6666242717577656 0 0.08017840599731758 0.3963300372632158 0 0.0400892029986588 0.4110221614889042 0 0.07778729929036504 0.4365849302927562 0 0.1336105784902603 0.4361702689152495 0 0.1045033855368364 0.456505046118773 0 0.1383170393471921 0.4759792323134814 0 0.2005261160939736 0.4579553459022219 0 0.1717748081490488 0.4868717708069676 0 0.2090166415730372 0.5028733621795818 0 0.2845914509445012 0.4848763822704992 0 0.251049308998301 0.5163338803637204 0 0.2927859766736483 0.529500393862147 0 0.3706525465932459 0.5134749221234858 0 0.3790743254648202 0.5589903907427758 0 0.3358165244980207 0.5437996637886403 0 0.7000000000006935 1 0 0.6773998033656399 0.9503828562543863 0 0.6500000000010402 1 0 0.622601657880282 0.871840006341825 0 0.5766230053207845 0.7565871944151589 0 0.5835133571753812 0.799750747295018 0 0.5374506801963029 0.7924581327440785 0 0.5339694044724507 0.7426040147839912 0 0.4829173006253914 0.6821164229841405 0 0.4575639698313756 0.5427700263992947 0 0.422530037083885 0.5736379428806803 0 0.4660413837290209 0.5891910186073761 0 1.72722572933646e-18 0.33 0 0.0400892029986588 0.3631650186316079 0 0 0.3778571428572964 0 0.1068944922437889 0.4162501530892326 0 0.1670683472921169 0.4470628074087357 0 0.2425587835192374 0.4714158640863606 0 0.3276219987688735 0.4991756521969924 0 0.4141082582123108 0.5281224742613903 0 0.7543567317552735 0.9205245603072644 0 0.7045781692429299 0.9106451364080186 0 0.7271783658779833 0.9602622801536321 0 0.6561937267356621 0.7952487042046709 0 0.62329871788282 0.8190815021897742 0 0.6554966667331243 0.8480072083567219 0 0.6164083660282234 0.775917949309915 0 0.5631276294601403 0.6660590632334465 0 0.5698753173904625 0.7113231288243028 0 0.5272217165421286 0.6973399491931351 0 0.5188232135434032 0.6508355370244521 0 0.544952063405022 0.5736116874732444 0 0.5012580166181988 0.5581908569362696 0 0.509735430515844 0.604611849144351 0 0.08541028510984704 0.318755522614832 0 0.08279434555358231 0.3575427799390239 0 0.04270514255492352 0.324377761307416 0 0.1640593670304531 0.3719448045044551 0 0.1488349727603567 0.4040575367098523 0 0.1221188865138853 0.3841374208838355 0 0.1822927415622134 0.4149500752033386 0 0.2643248175403595 0.3987638367146988 0 0.2324254668171666 0.4283595913084604 0 0.2744581342424303 0.441820109492599 0 0.353929926613926 0.4249789751401973 0 0.3192606887792137 0.4549276787053483 0 0.362291236603586 0.4692269486318416 0 0.4393289521925454 0.4527926137698597 0 0.4484464610119605 0.4977813200845772 0 0.4049907493928957 0.4831337679466727 0 0.7999999999999999 1 0 0.7771783658776368 0.9602622801536322 0 0.7500000000003467 1 0 0.7337357535262906 0.8320636705966576 0 0.6942676801284384 0.8664146915527152 0 0.7440462426407821 0.8762941154519611 0 0.6949647401309764 0.8136561874006644 0 0.6531478674937994 0.703048518595867 0 0.614885436407292 0.729817856505513 0 0.6546707971147308 0.749148611400269 0 0.6081377484769699 0.6845537909146568 0 0.5540398464325812 0.6198353753533455 0 0.5264916765173424 0.482014321273292 0 0.4920278231743591 0.5123921738362933 0 0.5357218699611822 0.5278130043732682 0 0.1247348260701501 0.3453501635596435 0 0.2141920922854063 0.385354320609577 0 0.3091273720771428 0.4118714059274481 0 0.3966294394032358 0.4388857944550285 0 0.4829103143549439 0.4674034675215759 0 0.8469936203174671 0.926623085876644 0 0.8006751760363704 0.9235738230919542 0 0.8234968101587334 0.963311542938322 0 0.8112077680726292 0.8636996853073268 0 0.77247176079946 0.8478816779519923 0 0.7827822499139514 0.8921121228072956 0 0.7394722959461434 0.7432808756465731 0 0.7366040247362171 0.7876722731216155 0 0.6978330113409028 0.7692647899256221 0 0.6963100817199714 0.7231646971212201 0 0.6374023867008554 0.606243392783513 0 0.6452751270973274 0.6546459556896901 0 0.6002650080804979 0.6361512280084798 0 0.5911772250529387 0.5899275401283788 0 0.6148622751988871 0.5113105424968968 0 0.5799071693019546 0.5424611149850707 0 0.5706769758581147 0.4966624318850943 0 0.1650000004123211 0.2857883830108111 0 0.1645296837213871 0.3288665937576332 0 0.1252051427610841 0.3022719528128216 0 0.2462583128866442 0.3160366088760196 0 0.2552915652135018 0.3574002227953592 0 0.2051588399585487 0.3439907066902373 0 0.336583731672659 0.336790903594801 0 0.3004542746065093 0.36777737015475 0 0.3452568291432925 0.3808849393674992 0 0.4214663514838095 0.3644860395280298 0 0.4303976518381775 0.4086393266489448 0 0.3876981390488678 0.3947325073341136 0 0.5075735780009721 0.3921138040433801 0 0.5170326272591572 0.4370640626583361 0 0.4734512650967587 0.4224532089066199 0 0.8999999999995837 1 0 0.8734968101585254 0.9633115429383221 0 0.8499999999997918 1 0 0.8291006941950482 0.8951613855919854 0 0.8192566252644851 0.7890860954018275 0 0.8152321966685572 0.8263928903545772 0 0.7764961893953879 0.8105748829992426 0 0.7793644606053143 0.7661834855242003 0 0.7391175425538949 0.6347508717092359 0 0.7392949192500191 0.6890158736779045 0 0.6961327050238471 0.6688996951525514 0 0.688259964627375 0.6204971322463744 0 0.6261323309498712 0.5587769676402049 0 0.5953929619415562 0.4201954588069572 0 0.6051276185702217 0.465753000651927 0 0.5609423192294494 0.4511048900401246 0 0.2056291566494827 0.3009124959434153 0 0.2914210222796516 0.3264137562354103 0 0.3790250415782342 0.3506384715614154 0 0.4645199647423908 0.378299921785705 0 0.5514832699712642 0.4061546314251687 0 0.9267949192429045 0.9267949192429457 0 0.8868942697801858 0.9267090025597948 0 0.9133974596212441 0.9633974596214729 0 0.9016961094996302 0.8502010143542411 0 0.8564519387861298 0.856950349830784 0 0.8743448649085488 0.8884120501154427 0 0.8604763673820578 0.8196435548780345 0 0.8288651147231505 0.6986797578104889 0 0.8240608699938179 0.7438829266061584 0 0.7841687053346471 0.7209803167285311 0 0.7839913286385227 0.6667153147598623 0 0.7022966507855875 0.5383879929024822 0 0.7207070966697412 0.586569432305859 0 0.6698495187432214 0.5723156928429975 0 0.6585794629922372 0.5248492676996894 0 0.6812846140658225 0.4460449155380939 0 0.6383387880036894 0.4331201871725255 0 0.6480734446323548 0.4786777290174953 0 0.2333452383332417 0.2333452372498797 0 0.2398017756099429 0.2746909230629496 0 0.1991726193727814 0.2595668101303454 0 0.3251853837111932 0.241899025735952 0 0.3308845576919262 0.2893449646653765 0 0.2857218482989187 0.2789678173059858 0 0.4070425547868018 0.2792204871458516 0 0.4142544531353057 0.3218532633369408 0 0.3718131432297304 0.3080056953703263 0 0.4889892423409983 0.3038076761812549 0 0.4552277969124039 0.3341468578546424 0 0.4982814101709852 0.3479607401123175 0 0.575807666628034 0.3296092559785411 0 0.541690622314503 0.3608615300109606 0 0.5856003142847951 0.3749023573927491 0 1 1 0 0.9633974596214523 0.9633974596214729 0 0.9499999999997919 1 0 0.9142455143712674 0.8884979667985935 0 0.9105973158643605 0.7479451577286276 0 0.8649269705644229 0.7685156265652275 0 0.9061467126819955 0.7990730860414345 0 0.8697312152937556 0.7233124577695583 0 0.8337113423576483 0.5996960087510012 0 0.7864144424557716 0.6172234402301184 0 0.8312882285403994 0.6491878832807449 0 0.7760953731342628 0.5499323499660974 0 0.7391960119599252 0.5441601714342899 0 0.7576064578440789 0.5923416108376667 0 0.691790632425705 0.4922164542202881 0 0.6649137530048489 0.3577436960937128 0 0.6730991835353357 0.4018943058159034 0 0.6301533574732026 0.388969577450335 0 0.2792653110222174 0.2376221314929159 0 0.3661139692489975 0.2605597564409018 0 0.4480158985639001 0.2915140816635533 0 0.5323984544845161 0.316708466079898 0 0.6203607098164414 0.3436764760361269 0 1 0.8999999999997369 0 0.9633974596214523 0.9133974596213412 0 1 0.9499999999998685 0 0.9508480547498152 0.8751005071769891 0 1 0.7999999999994735 0 0.9552986579321803 0.7739725788640506 0 0.9508480547498152 0.8251005071768573 0 0.913766045698899 0.6497040788065255 0 0.9121816807816296 0.6988246182675766 0 0.8713155802110247 0.6741919183085072 0 0.8737386940282735 0.6247000437787632 0 0.8049033577459556 0.5748141793585493 0 0.7640906286465546 0.4727193298261639 0 0.7700930008904088 0.5113258398961307 0 0.7331936397160711 0.5055536613643231 0 0.7226876213561886 0.459382122682129 0 0.7509658875245231 0.3837908847455452 0 0.7161252507951729 0.4149179001418196 0 0.707939820264686 0.370767290419629 0 0.2857883835188696 0.1649999995323379 0 0.3054868836150314 0.203449512634145 0 0.2595668109260557 0.1991726183911088 0 0.4035780772005115 0.2107049125168711 0 0.3643817304558524 0.2263019691264115 0 0.4053103159936567 0.2449626998313614 0 0.4711446762158895 0.2206591250799017 0 0.4390936155013456 0.2499398061128767 0 0.4800669592784438 0.2622334006305783 0 0.553343199670507 0.2396037875864198 0 0.5211662210057526 0.2717057318838374 0 0.5645754331492704 0.2846065217824804 0 0.6436084351024102 0.2642353864160775 0 0.609708050865222 0.2969223211973093 0 0.6542610940536295 0.3109895412548952 0 1 0.8499999999996052 0 1 0.6999999999992101 0 0.9552986579321803 0.7239725788639189 0 1 0.7499999999993417 0 0.9568830228494494 0.6748520394028676 0 0.9143104164701787 0.5502457745878089 0 0.8740108794139136 0.574970891669405 0 0.9140382310845389 0.5999749266971671 0 0.8396680954092652 0.504123702910957 0 0.807881734271764 0.5270280264385272 0 0.8366897188834567 0.551909855830979 0 0.8018793620279099 0.4884215163685605 0 0.7575282580855389 0.4282551072858546 0 0.7333924436513715 0.2993780895277814 0 0.7421791655879474 0.3415844871366633 0 0.6991530983281102 0.3285608928107471 0 0.3648957752756742 0.1555527535917359 0 0.3253420793972719 0.1602763765620369 0 0.3450405794934337 0.198725889663844 0 0.3842369262380929 0.1831288330543035 0 0.4373613767082005 0.2156820187983864 0 0.5122439379431982 0.2301314563331608 0 0.5984758173864586 0.2519195870012487 0 0.6885004393768908 0.2818067379719295 0 1 0.5999999999989468 0 0.9568830228494496 0.6248520394027361 0 1 0.6499999999990784 0 0.9571552082350894 0.5751228872933778 0 0.876989255939722 0.5271847387493829 0 0.8342331509598675 0.4140361328938086 0 0.7991618898032111 0.4433777313599864 0 0.8369506231845664 0.4590799179023828 0 0.7925995192421953 0.3989135088196769 0 0.8263642252375109 0.323507212697176 0 0.7798783344444413 0.3114426511124787 0 0.7886650563810171 0.3536490487213607 0 0.3187555227447488 0.08541028462499076 0 0.3418256490102115 0.1204815191083633 0 0.3022719531318092 0.1252051420786643 0 0.4407949288198664 0.150333809495205 0 0.422186503010189 0.180519361006038 0 0.4028453520477703 0.1529432815434704 0 0.4559698025178779 0.1854964672875534 0 0.5280186054746174 0.1570647193166024 0 0.4995816408452535 0.1888619221982521 0 0.5406809025725623 0.1983342534515111 0 0.6132366197634967 0.1702836711304234 0 0.5832899097170019 0.2049437293584216 0 0.6284225274329535 0.2172595287732504 0 0.7180649979298037 0.1971965142701444 0 0.6808367165161069 0.230715950343111 0 0.7257287207905876 0.2482873018989629 0 1 0.4999999999986944 0 0.9571552082350894 0.5251228872932516 0 1 0.5499999999988207 0 0.916368709794095 0.4515076337505133 0 0.8780184026016802 0.4778156683307352 0 0.9153395631321368 0.5008767041691611 0 0.8753009303769812 0.432771883322161 0 0.8302986880986892 0.3687716727954924 0 0.7983682599879577 0.2535536781780329 0 0.7658803518196646 0.2764658838529072 0 0.8123662426127343 0.2885304454376045 0 0.3966376598987704 0.07841900855955966 0 0.3576965913217596 0.08191464659227521 0 0.3807667175872224 0.1169858810756478 0 0.4187162943593185 0.1143764090273823 0 0.484406767147242 0.1536992644059037 0 0.5706276126190573 0.1636741952235129 0 0.6656508088466503 0.1837400927002839 0 0.7582166289588808 0.2253750962240887 0 0.9581843548970475 0.4757538168746038 0 0.9127558318542787 0.3564464450756911 0 0.8734944914070732 0.3852412889847499 0 0.9145622708241868 0.4039770394131022 0 0.8695600285458949 0.3399768288864335 0 0.8955554813341942 0.2551442917808648 0 0.846961870661076 0.2543489849794489 0 0.8609598532858526 0.2893257522390205 0 0.33 1.689324295841689e-18 0 0.3633188299493852 0.03920950427977983 0 0.3243777613723744 0.04270514231249539 0 0.4804947788537359 0.07960233790655932 0 0.4606448538368012 0.1149680737008822 0 0.4385662193762532 0.07901067323305949 0 0.5042566921641767 0.1183335286115809 0 0.5713844804045297 0.08071061625978788 0 0.5497015429395737 0.1188876677881952 0 0.5923105500840133 0.1254971436951056 0 0.6649999999991135 0.08289100293350836 0 0.6391183098813052 0.1265873370319659 0 0.6915324989644587 0.1400437586018264 0 0.8239593393545865 0.1758659824302894 0 0.8111637996712722 0.2147098303041611 0 0.7710121686421951 0.1865312483502169 0 1 0.399999999998975 0 0.9581843548970476 0.4257538168747441 0 1 0.4499999999988347 0 0.9563779159271394 0.378223222537333 0 0.9041556565942364 0.3057953684282779 0 0.8597574103443903 0.2155051371055771 0 0.4257142857140301 1.714815908813953e-18 0 0.4111759728064003 0.03920950427977983 0 0.3778571428570151 0 0 0.453104532283883 0.03980116895327966 0 0.5259396296291329 0.08015647708317361 0 0.6181922402018217 0.08180080959664812 0 0.7614399244730015 0.1024449366002657 0 0.7132199622360575 0.09266796976688703 0 0.7397524612014027 0.1498207254352051 0 0.792699631913794 0.1391554595152776 0 1 0.2999999999992664 0 0.9563779159271394 0.3282232225374788 0 1 0.3499999999991207 0 0.9477777406670971 0.2775721458900656 0 0.9177753013165794 0.1474028499315248 0 0.8708673203355829 0.1616344161809071 0 0.9066653913253866 0.2012735708561948 0 0.521428571427989 1.738690752210404e-18 0 0.5009616751408625 0.03980116895327967 0 0.4735714285710096 0 0 0.5464065259162594 0.04035530812989394 0 0.6171428571420018 1.785661254004595e-18 0 0.5942636687732659 0.04035530812989394 0 0.6410714285705577 0.04144550146675418 0 0.7128571428562255 2.206897582151248e-18 0 0.7371485336646135 0.05122246830013285 0 0.6889285714276696 0.04144550146675418 0 0.8564285714281221 0.08289100293390847 0 0.8401939553913544 0.1293784926820989 0 0.8089342479505619 0.09266796976708708 0 1 0.1999999999995579 0 0.9477777406670971 0.2275721458902114 0 1 0.2499999999994122 0 0.9588876506582896 0.1737014249655414 0 0.8871019363723508 0.1151469264327167 0 0.5692857142849954 0 0 0.6649999999991136 0 0 0.808571428570815 1.785661254013214e-18 0 0.7850056765219082 0.05122246830013285 0 0.7607142857135203 0 0 0.8324999999994686 0.04144550146695423 0 1 0.09999999999981467 0 0.9588876506582897 0.1237014249656697 0 1 0.1499999999996863 0 0.9307084157825725 0.07051582244471351 0 0.8935684936053474 0.076703412689311 0 0.924241858549576 0.1089593361881191 0 0.904285714285429 1.519071642006769e-18 0 0.8803571428567757 0.04144550146695424 0 0.8564285714281221 0 0 0.9653542078912862 0.08525791122226409 0 0.9174970650340009 0.03525791122235675 0 1 -1.519071642006769e-18 0 0.9653542078912862 0.03525791122235675 0 1 0.04999999999990733 0 0.9521428571427146 0 0 </DataArray>
      </Points>
      <Cells>
        <DataArray type="Int32" Name="connectivity" format="ascii">0 1 2 5 3 4 1 6 2 8 7 3 9 0 2 11 4 10 6 12 2 14 13 7 15 0 9 17 11 16 12 9 2 18 10 13 6 19 12 21 20 14 15 9 22 16 23 24 25 9 12 27 18 26 19 28 12 30 29 20 31 15 22 33 24 32 22 9 25 23 27 34 25 12 35 26 36 37 19 38 28 40 39 30 12 28 35 29 41 36 42 31 22 44 32 43 22 25 45 34 46 47 25 35 48 37 49 50 28 38 51 39 52 53 28 54 35 56 55 41 57 31 42 59 44 58 42 22 45 43 47 60 45 25 48 46 50 61 35 62 48 64 63 49 38 65 51 67 66 52 28 51 54 53 68 56 54 62 35 69 64 55 57 42 70 58 71 72 42 45 73 60 74 75 76 45 48 78 61 77 62 76 48 79 77 63 65 80 51 82 81 66 54 51 83 68 84 85 54 86 62 88 87 69 89 57 70 91 72 90 70 42 73 71 75 92 45 76 73 78 93 74 94 76 62 96 79 95 65 97 80 99 98 82 51 80 83 81 100 84 86 54 83 88 85 101 86 94 62 102 95 87 103 89 70 105 90 104 106 70 73 108 92 107 76 109 73 111 110 93 112 76 94 114 96 113 80 97 115 98 116 117 83 80 118 100 119 120 121 86 83 123 101 122 86 124 94 126 125 102 127 89 103 129 105 128 103 70 106 104 108 130 109 106 73 131 107 110 112 109 76 132 111 114 133 112 94 135 113 134 97 136 115 138 137 116 80 115 118 117 139 119 121 83 118 122 120 140 121 124 86 141 126 123 124 133 94 142 134 125 127 103 143 128 144 145 103 106 146 130 147 148 109 149 106 151 150 131 112 149 109 152 151 132 153 112 133 155 135 154 115 136 156 137 157 158 118 115 159 139 160 161 162 121 118 164 140 163 165 124 121 167 141 166 124 168 133 170 169 142 171 127 143 173 145 172 143 103 146 144 148 174 106 175 146 177 176 147 106 149 175 150 178 177 153 149 112 179 152 155 180 153 133 182 154 181 136 183 156 185 184 157 115 156 159 158 186 160 162 118 159 163 161 187 165 121 162 166 164 188 165 168 124 189 170 167 168 180 133 190 181 169 191 171 143 193 172 192 194 143 146 196 174 195 175 194 146 197 195 176 149 198 175 200 199 178 153 198 149 201 200 179 202 153 180 204 182 203 183 205 156 207 206 184 156 208 159 210 209 186 208 162 159 211 187 209 165 162 212 188 213 214 215 168 165 217 189 216 168 218 180 220 219 190 221 171 191 223 193 222 191 143 224 192 225 226 143 194 224 196 227 225 228 194 175 230 197 229 198 228 175 231 229 199 202 198 153 232 201 204 233 202 180 235 203 234 205 208 156 236 210 206 162 208 212 211 237 213 215 165 212 216 214 238 215 218 168 239 220 217 218 233 180 240 234 219 221 191 241 222 242 243 191 224 244 226 245 246 194 247 224 249 248 227 228 247 194 250 249 230 198 251 228 253 252 231 202 251 198 254 253 232 233 255 202 257 256 235 205 258 208 260 259 236 208 261 212 263 262 237 264 215 212 266 238 265 215 267 218 269 268 239 218 270 233 272 271 240 273 221 241 275 243 274 241 191 244 242 246 276 224 277 244 279 278 245 247 277 224 280 279 248 228 281 247 283 282 250 228 251 281 252 284 283 202 255 251 256 285 254 233 286 255 288 287 257 208 258 261 259 289 263 261 264 212 290 265 262 264 267 215 291 269 266 218 267 270 268 292 272 233 270 286 271 293 288 273 241 294 274 295 296 297 241 244 299 276 298 277 297 244 300 298 278 247 301 277 303 302 280 281 301 247 304 303 282 251 305 281 307 306 284 251 255 305 285 308 307 255 286 309 287 310 311 258 312 261 314 313 289 261 315 264 317 316 290 264 318 267 320 319 291 270 267 321 292 322 323 286 270 324 293 325 326 327 273 294 329 296 328 241 297 294 299 330 295 297 277 331 300 332 333 277 301 331 302 334 332 335 301 281 337 304 336 281 305 338 306 339 340 305 255 309 308 311 341 286 342 309 344 343 310 312 315 261 345 317 313 264 315 318 316 346 320 267 318 321 319 347 322 324 270 321 325 323 348 286 324 342 326 349 344 350 327 294 352 328 351 297 350 294 353 351 330 354 297 331 356 333 355 301 357 331 359 358 334 335 357 301 360 359 337 335 281 338 336 340 361 305 362 338 364 363 339 305 309 362 341 365 364 342 366 309 368 367 343 312 369 315 371 370 345 318 315 372 346 373 374 321 318 375 347 376 377 378 324 321 380 348 379 342 324 381 349 382 383 354 350 297 384 353 356 385 354 331 387 355 386 357 385 331 388 386 358 389 357 335 391 360 390 392 335 338 394 361 393 362 392 338 395 393 363 309 366 362 367 396 365 342 397 366 399 398 368 315 369 400 370 401 402 315 400 372 402 403 373 375 318 372 376 374 404 378 321 375 379 377 405 381 324 378 382 380 406 342 381 397 383 407 399 408 385 357 410 388 409 408 357 389 409 391 411 389 335 392 390 394 412 413 392 362 415 395 414 366 413 362 416 414 396 366 397 417 398 418 419 369 420 400 422 421 401 400 423 372 425 424 403 423 375 372 426 404 424 378 375 427 405 428 429 381 378 430 406 431 432 397 381 433 407 434 435 436 408 389 438 411 437 439 389 392 441 412 440 439 392 413 440 415 442 366 417 413 419 443 416 417 397 444 418 445 446 400 420 447 421 448 449 400 447 423 449 450 425 427 375 423 428 426 451 430 378 427 431 429 452 433 381 430 434 432 453 397 433 444 435 454 445 439 436 389 455 437 441 456 439 413 458 442 457 417 456 413 459 457 443 460 417 444 462 446 461 420 463 447 465 464 448 447 466 423 468 467 450 466 427 423 469 451 467 470 430 427 472 452 471 473 433 430 475 453 474 433 476 444 478 477 454 479 436 439 481 455 480 479 439 456 480 458 482 417 460 456 462 483 459 476 460 444 484 461 477 463 485 447 487 486 464 485 466 447 488 468 486 466 470 427 489 471 469 470 473 430 490 474 472 433 473 491 475 492 493 433 491 476 493 494 478 495 479 456 497 482 496 460 495 456 498 496 483 460 476 499 484 500 501 485 502 466 504 503 488 466 502 470 503 505 489 506 473 470 508 490 507 473 509 491 511 510 492 491 512 476 514 513 494 515 495 460 517 498 516 515 460 499 516 501 518 476 512 499 513 519 500 502 506 470 520 507 505 506 509 473 521 511 508 509 522 491 524 523 510 522 512 491 525 514 523 526 515 499 528 518 527 499 512 529 519 530 531 522 532 512 534 533 525 526 499 529 527 531 535 512 532 529 533 536 530 537 526 529 539 535 538 532 537 529 540 538 536 </DataArray>
        <DataArray type="Int32" Name="offsets" format="ascii">6 12 18 24 30 36 42 48 54 60 66 72 78 84 90 96 102 108 114 120 126 132 138 144 150 156 162 168 174 180 186 192 198 204 210 216 222 228 234 240 246 252 258 264 270 276 282 288 294 300 306 312 318 324 330 336 342 348 354 360 366 372 378 384 390 396 402 408 414 420 426 432 438 444 450 456 462 468 474 480 486 492 498 504 510 516 522 528 534 540 546 552 558 564 570 576 582 588 594 600 606 612 618 624 630 636 642 648 654 660 666 672 678 684 690 696 702 708 714 720 726 732 738 744 750 756 762 768 774 780 786 792 798 804 810 816 822 828 834 840 846 852 858 864 870 876 882 888 894 900 906 912 918 924 930 936 942 948 954 960 966 972 978 984 990 996 1002 1008 1014 1020 1026 1032 1038 1044 1050 1056 1062 1068 1074 1080 1086 1092 1098 1104 1110 1116 1122 1128 1134 1140 1146 1152 1158 1164 1170 1176 1182 1188 1194 1200 1206 1212 1218 1224 1230 1236 1242 1248 1254 1260 1266 1272 1278 1284 1290 1296 1302 1308 1314 1320 1326 1332 1338 1344 1350 1356 1362 1368 1374 1380 1386 1392 1398 1404 1410 1416 1422 1428 1434 1440 1446 1452 1458 1464 1470 1476 1482 1488 1494 1500 </DataArray>
        <DataArray type="Int8" Name="types" format="ascii">69 69 69 69 69 69 69 69 69 69 69 69 69 69 69 69 69 69 69 69 69 69 69 69 69 69 69 69 69 69 69 69 69 69 69 69 69 69 69 69 69 69 69 69 69 69 69 69 69 69 69 69 69 69 69 69 69 69 69 69 69 69 69 69 69 69 69 69 69 69 69 69 69 69 69 69 69 69 69 69 69 69 69 69 69 69 69 69 69 69 69 69 69 69 69 69 69 69 69 69 69 69 69 69 69 69 69 69 69 69 69 69 69 69 69 69 69 69 69 69 69 69 69 69 69 69 69 69 69 69 69 69 69 69 69 69 69 69 69 69 69 69 69 69 69 69 69 69 69 69 69 69 69 69 69 69 69 69 69 69 69 69 69 69 69 69 69 69 69 69 69 69 69 69 69 69 69 69 69 69 69 69 69 69 69 69 69 69 69 69 69 69 69 69 69 69 69 69 69 69 69 69 69 69 69 69 69 69 69 69 69 69 69 69 69 69 69 69 69 69 69 69 69 69 69 69 69 69 69 69 69 69 69 69 69 69 69 69 69 69 69 69 69 69 69 69 69 69 69 69 </DataArray>
      </Cells>
      <CellData>
        <DataArray type="UInt8" Name="vtkGhostType" format="ascii" RangeMin="0" RangeMax="1">0 0 0 0 0 0 0 0 0 0 0 0 0 0 0 0 0 0 0 0 0 0 0 0 0 0 0 0 0 0 0 0 0 0 0 0 0 0 0 0 0 0 0 0 0 0 0 0 0 0 0 0 0 0 0 0 0 0 0 0 0 0 0 0 0 0 0 0 0 0 0 0 0 0 0 0 0 0 0 0 0 0 0 0 0 0 0 0 0 0 0 0 0 0 0 0 0 0 0 0 0 0 0 0 0 0 0 0 0 0 0 0 0 0 0 0 0 0 0 0 0 0 0 0 0 0 0 0 0 0 0 0 0 0 0 0 0 0 0 0 0 0 0 0 0 0 0 0 0 0 0 0 0 0 0 0 0 0 0 0 0 0 0 0 0 0 0 0 0 0 0 0 0 0 0 0 0 0 0 0 0 0 0 0 0 0 0 0 0 0 0 0 0 0 0 0 0 0 0 0 0 0 0 0 0 0 0 0 0 0 0 0 0 0 0 0 0 0 0 0 0 0 0 0 0 0 0 0 0 0 0 0 0 0 0 0 0 0 0 0 0 0 0 0 0 0 0 0 0 0 </DataArray>
        <DataArray type="Int64" IdType="1" Name="vtkOriginalCellIds" format="ascii" RangeMin="0" RangeMax="249">0 1 2 3 4 5 6 7 8 9 10 11 12 13 14 15 16 17 18 19 20 21 22 23 24 25 26 27 28 29 30 31 32 33 34 35 36 37 38 39 40 41 42 43 44 45 46 47 48 49 50 51 52 53 54 55 56 57 58 59 60 61 62 63 64 65 66 67 68 69 70 71 72 73 74 75 76 77 78 79 80 81 82 83 84 85 86 87 88 89 90 91 92 93 94 95 96 97 98 99 100 101 102 103 104 105 106 107 108 109 110 111 112 113 114 115 116 117 118 119 120 121 122 123 124 125 126 127 128 129 130 131 132 133 134 135 136 137 138 139 140 141 142 143 144 145 146 147 148 149 150 151 152 153 154 155 156 157 158 159 160 161 162 163 164 165 166 167 168 169 170 171 172 173 174 175 176 177 178 179 180 181 182 183 184 185 186 187 188 189 190 191 192 193 194 195 196 197 198 199 200 201 202 203 204 205 206 207 208 209 210 211 212 213 214 215 216 217 218 219 220 221 222 223 224 225 226 227 228 229 230 231 232 233 234 235 236 237 238 239 240 241 242 243 244 245 246 247 248 249 </DataArray>
      </CellData>
      <PointData Vectors="u" Tensors="stress">
        <DataArray type="Int64" IdType="1" Name="vtkOriginalPointIds" format="ascii" RangeMin="0" RangeMax="540">0 1 2 3 4 5 6 7 8 9 10 11 12 13 14 15 16 17 18 19 20 21 22 23 24 25 26 27 28 29 30 31 32 33 34 35 36 37 38 39 40 41 42 43 44 45 46 47 48 49 50 51 52 53 54 55 56 57 58 59 60 61 62 63 64 65 66 67 68 69 70 71 72 73 74 75 76 77 78 79 80 81 82 83 84 85 86 87 88 89 90 91 92 93 94 95 96 97 98 99 100 101 102 103 104 105 106 107 108 109 110 111 112 113 114 115 116 117 118 119 120 121 122 123 124 125 126 127 128 129 130 131 132 133 134 135 136 137 138 139 140 141 142 143 144 145 146 147 148 149 150 151 152 153 154 155 156 157 158 159 160 161 162 163 164 165 166 167 168 169 170 171 172 173 174 175 176 177 178 179 180 181 182 183 184 185 186 187 188 189 190 191 192 193 194 195 196 197 198 199 200 201 202 203 204 205 206 207 208 209 210 211 212 213 214 215 216 217 218 219 220 221 222 223 224 225 226 227 228 229 230 231 232 233 234 235 236 237 238 239 240 241 242 243 244 245 246 247 248 249 250 251 252 253 254 255 256 257 258 259 260 261 262 263 264 265 266 267 268 269 270 271 272 273 274 275 276 277 278 279 280 281 282 283 284 285 286 287 288 289 290 291 292 293 294 295 296 297 298 299 300 301 302 303 304 305 306 307 308 309 310 311 312 313 314 315 316 317 318 319 320 321 322 323 324 325 326 327 328 329 330 331 332 333 334 335 336 337 338 339 340 341 342 343 344 345 346 347 348 349 350 351 352 353 354 355 356 357 358 359 360 361 362 363 364 365 366 367 368 369 370 371 372 373 374 375 376 377 378 379 380 381 382 383 384 385 386 387 388 389 390 391 392 393 394 395 396 397 398 399 400 401 402 403 404 405 406 407 408 409 410 411 412 413 414 415 416 417 418 419 420 421 422 423 424 425 426 427 428 429 430 431 432 433 434 435 436 437 438 439 440 441 442 443 444 445 446 447 448 449 450 451 452 453 454 455 456 457 458 459 460 461 462 463 464 465 466 467 468 469 470 471 472 473 474 475 476 477 478 479 480 481 482 483 484 485 486 487 488 489 490 491 492 493 494 495 496 497 498 499 500 501 502 503 504 505 506 507 508 509 510 511 512 513 514 515 516 517 518 519 520 521 522 523 524 525 526 527 528 529 530 531 532 533 534 535 536 537 538 539 540 </DataArray>
        <DataArray type="UInt8" Name="vtkGhostType" format="ascii" RangeMin="0" RangeMax="0">0 0 0 0 0 0 0 0 0 0 0 0 0 0 0 0 0 0 0 0 0 0 0 0 0 0 0 0 0 0 0 0 0 0 0 0 0 0 0 0 0 0 0 0 0 0 0 0 0 0 0 0 0 0 0 0 0 0 0 0 0 0 0 0 0 0 0 0 0 0 0 0 0 0 0 0 0 0 0 0 0 0 0 0 0 0 0 0 0 0 0 0 0 0 0 0 0 0 0 0 0 0 0 0 0 0 0 0 0 0 0 0 0 0 0 0 0 0 0 0 0 0 0 0 0 0 0 0 0 0 0 0 0 0 0 0 0 0 0 0 0 0 0 0 0 0 0 0 0 0 0 0 0 0 0 0 0 0 0 0 0 0 0 0 0 0 0 0 0 0 0 0 0 0 0 0 0 0 0 0 0 0 0 0 0 0 0 0 0 0 0 0 0 0 0 0 0 0 0 0 0 0 0 0 0 0 0 0 0 0 0 0 0 0 0 0 0 0 0 0 0 0 0 0 0 0 0 0 0 0 0 0 0 0 0 0 0 0 0 0 0 0 0 0 0 0 0 0 0 0 0 0 0 0 0 0 0 0 0 0 0 0 0 0 0 0 0 0 0 0 0 0 0 0 0 0 0 0 0 0 0 0 0 0 0 0 0 0 0 0 0 0 0 0 0 0 0 0 0 0 0 0 0 0 0 0 0 0 0 0 0 0 0 0 0 0 0 0 0 0 0 0 0 0 0 0 0 0 0 0 0 0 0 0 0 0 0 0 0 0 0 0 0 0 0 0 0 0 0 0 0 0 0 0 0 0 0 0 0 0 0 0 0 0 0 0 0 0 0 0 0 0 0 0 0 0 0 0 0 0 0 0 0 0 0 0 0 0 0 0 0 0 0 0 0 0 0 0 0 0 0 0 0 0 0 0 0 0 0 0 0 0 0 0 0 0 0 0 0 0 0 0 0 0 0 0 0 0 0 0 0 0 0 0 0 0 0 0 0 0 0 0 0 0 0 0 0 0 0 0 0 0 0 0 0 0 0 0 0 0 0 0 0 0 0 0 0 0 0 0 0 0 0 0 0 0 0 0 0 0 0 0 0 0 0 0 0 0 0 0 0 0 0 0 0 0 0 0 0 0 0 0 0 0 0 0 0 0 0 0 0 0 0 0 0 0 0 0 0 0 0 0 0 0 0 0 0 0 0 0 0 0 0 0 0 0 0 0 0 0 0 </DataArray>
        <DataArray type="Float64" Name="u" format="ascii" NumberOfComponents="3">4.907320117591014e-05 -0.000207393556231221 0 2.99913219267704e-20 -0.0002091935778571692 0 3.582055325253132e-05 -0.0002022508042006834 0 1.781344298833466e-05 -0.0002059723719454926 0 4.246282846141519e-05 -0.000204758519636465 0 2.450165476632655e-05 -0.0002087383221715165 0 0 -0.0002015441357521268 0 1.792861383505467e-05 -0.0002021730549818417 0 0 -0.0002052521966152753 0 7.482363214965708e-05 -0.0001978133386469635 0 5.525738077970143e-05 -0.0002003455903042496 0 6.181921884071821e-05 -0.000202787747984062 0 4.493993043467169e-05 -0.0001954455555163424 0 4.032418089657667e-05 -0.0001988204718517897 0 2.230937629149029e-05 -0.0001990519801028736 0 9.866581594329971e-05 -0.0002023137831519159 0 8.675815468393924e-05 -0.0001999489316444442 0 7.377774946111533e-05 -0.0002052202774125334 0 5.991940855973313e-05 -0.0001965900293207339 0 0 -0.0001949775247664936 0 2.253549304638153e-05 -0.0001956952637813758 0 0 -0.0001981185918708159 0 0.0001253740324191457 -0.0001897464207276864 0 9.996002194453492e-05 -0.0001941400842821102 0 0.0001118214979331378 -0.0001962890687464839 0 0.0001006815109380307 -0.0001868160940925639 0 7.262102365155368e-05 -0.0001918119058128544 0 8.753801863976976e-05 -0.0001925894113744296 0 4.117223132517904e-05 -0.0001894315702467269 0 4.300960989626371e-05 -0.0001922868844689566 0 2.036093506060679e-05 -0.0001927993626189838 0 0.0001491092846151302 -0.0001948012976487428 0 0.0001372434444935411 -0.0001921258871304656 0 0.0001237712451317278 -0.0001987951728579616 0 0.0001130380398613217 -0.0001881291650426409 0 8.490615027482293e-05 -0.000184007284466297 0 6.456848474419039e-05 -0.0001903404967260413 0 9.279514119325169e-05 -0.0001852932492600164 0 0 -0.0001896478087533284 0 2.072013810530083e-05 -0.0001900587610947487 0 0 -0.0001921494954100446 0 6.301534435127793e-05 -0.0001871180090376685 0 0.0001771124567325955 -0.0001798794029836688 0 0.0001511153427204985 -0.0001849737636978248 0 0.0001628658605960724 -0.0001876152060679989 0 0.000152719144837787 -0.0001764835014969053 0 0.0001265619336175027 -0.000181901849421047 0 0.0001387997271338572 -0.0001834041399214849 0 0.000133372534956076 -0.0001742250833912081 0 0.0001090422370765214 -0.0001793844426998118 0 0.0001167507645492471 -0.0001808995486981538 0 4.279477658084904e-05 -0.0001842032412587868 0 2.103686842027377e-05 -0.0001877521170740177 0 4.184167106503716e-05 -0.0001867044697391647 0 8.410348972442329e-05 -0.000177958412590409 0 8.436248484628555e-05 -0.0001809149841932531 0 6.216936619692323e-05 -0.0001845130992844225 0 0.0002004545469448641 -0.0001859533263860347 0 0.0001887734867567454 -0.0001827843445166815 0 0.0001746768346341107 -0.0001904745003070863 0 0.0001649160412943666 -0.00017802717310485 0 0.0001430415355329646 -0.0001752294264155553 0 0.0001287664778223257 -0.0001685615280393439 0 0.0001309766393166155 -0.0001713459909304259 0 0.0001063790829860401 -0.0001769589284258853 0 0 -0.0001856540657452786 0 2.170944038409054e-05 -0.0001856215097179619 0 0 -0.0001874943466578081 0 6.351179481498838e-05 -0.0001814326361409741 0 0.0001064270105571573 -0.0001733880929974843 0 0.0002309120280298772 -0.0001691254387453066 0 0.000203921543599939 -0.000174497064304404 0 0.0002154085098163783 -0.0001777895432151809 0 0.0002053987730404843 -0.0001652328300961129 0 0.0001789658888710056 -0.0001708692709843301 0 0.0001910105468225943 -0.0001727879408804809 0 0.000176926877396248 -0.0001600346586368284 0 0.000154936715239834 -0.0001673827344930759 0 0.0001644092812657588 -0.0001686054910749558 0 0.0001528892350943659 -0.0001640774250974149 0 4.678706719744108e-05 -0.000179490157167993 0 4.444007164831093e-05 -0.0001817865764852138 0 2.271681947484763e-05 -0.000183762491792453 0 8.581101037084658e-05 -0.0001718327501737961 0 6.364880140858004e-05 -0.0001789774808522288 0 8.462457647098347e-05 -0.0001748536492248701 0 0.0001308649624904662 -0.0001599128243830109 0 0.0001294777752761675 -0.0001642663463998312 0 0.0001068085664624507 -0.0001698141910427802 0 0.0002525028449992037 -0.0001768204351084088 0 0.0002416739257490731 -0.0001728861676994964 0 0.0002264102189553175 -0.0001813650485569894 0 0.0002181509891202329 -0.0001670426559970118 0 0.0001911112369772525 -0.0001623675672220693 0 0.0001767274624292824 -0.0001478406783332975 0 0.0001521680852045006 -0.0001587877411760921 0 0.0001764021557628329 -0.000154009277863887 0 0 -0.0001825383859569462 0 2.413976106502171e-05 -0.0001820266048559314 0 0 -0.0001840577921988137 0 6.652743041865597e-05 -0.0001759616242919942 0 0.0001084082093738993 -0.0001659623950689245 0 0.0001538487614049546 -0.0001536861900539731 0 0.0002834631712555036 -0.0001584671036523544 0 0.0002571465032771624 -0.0001636961273297681 0 0.0002676960938147136 -0.0001678442215406835 0 0.0002618124827654599 -0.0001488658556029619 0 0.0002334370454679082 -0.0001570500210626724 0 0.0002459425890058234 -0.0001592867930379536 0 0.000227144065139337 -0.0001485725450975816 0 0.0002159261455727401 -0.0001571434825635019 0 0.0002020327480152652 -0.0001541417424505256 0 0.0002216605403358018 -0.0001385491595303555 0 0.0001992770518680894 -0.0001428536610620236 0 0.0001987621921384295 -0.0001496717469284162 0 5.23448207790689e-05 -0.0001752008658132244 0 2.489675471504659e-05 -0.0001803788848274241 0 4.881280499425008e-05 -0.0001774805989838793 0 9.127514466725694e-05 -0.0001655691586108289 0 6.801180371881346e-05 -0.0001736135982734849 0 8.771909861787215e-05 -0.0001687269420000405 0 0.000132674588979378 -0.0001518501764076783 0 0.0001082239344248573 -0.0001628522722059872 0 0.0001310713817484846 -0.0001558708484467678 0 0.000179133013046122 -0.0001361585477343119 0 0.000177257381792995 -0.0001420797627218241 0 0.0001541161480486877 -0.00014876773731994 0 0.0003049152145054695 -0.0001682071388361951 0 0.0002941236510910568 -0.0001632892166069606 0 0.000278686731478208 -0.0001724108076589509 0 0.0002725402624233283 -0.0001535950629750282 0 0.000244515746629978 -0.0001484998330578344 0 0.0002241749542324689 -0.0001435820168918168 0 0.0002256086931769081 -0.0001237263299411422 0 0.0002005434355405676 -0.0001361530988950447 0 0.0002230116086451696 -0.0001312955288823089 0 0 -0.0001777208867716094 0 2.812574287820175e-05 -0.0001778915470730861 0 0 -0.000180637752783032 0 7.235408314116244e-05 -0.0001708469682297924 0 0.0001121993382426269 -0.0001587587441851682 0 0.0001560406945463968 -0.0001437240225908643 0 0.0002025158527673152 -0.000129432114436997 0 0.000340313887841344 -0.0001465217417982849 0 0.0003118814348619168 -0.0001523208745046806 0 0.000322262302688223 -0.0001575397522873674 0 0.0003105698272551401 -0.0001417309445854605 0 0.0002862609347608309 -0.0001450590676221027 0 0.0002967767447004907 -0.0001502158804985431 0 0.000267649879368165 -0.0001315259361797107 0 0.0002642998735196692 -0.0001403812491262582 0 0.0002471789736932401 -0.0001401200387276059 0 0.000244764404990607 -0.0001346723698512877 0 0.0002710638742893143 -0.0001153475624623435 0 0.0002484852787213832 -0.0001190497887626255 0 0.0002459252776140655 -0.0001270680397170772 0 7.281072004600531e-05 -0.0001670962288939974 0 3.463217020007526e-05 -0.0001742534311565093 0 6.054793695888485e-05 -0.0001719106761524763 0 0.0001021691385113321 -0.0001601303921453554 0 7.608471799338183e-05 -0.0001687138865622879 0 9.542105242788249e-05 -0.0001629981144143989 0 0.0001422130945457873 -0.0001440683606637569 0 0.0001153766621867516 -0.0001558131252580139 0 0.0001359848024033 -0.0001479584467278365 0 0.0001891267489602988 -0.0001238873765333868 0 0.0001597365008847451 -0.0001386996999075296 0 0.0001829418396669178 -0.0001301301657078843 0 0.0002349900629438178 -0.0001081018069124255 0 0.0002293169673379217 -0.0001160904170492033 0 0.0002063370696326502 -0.0001224509903711815 0 0.0003573318149321577 -0.0001606052249919963 0 0.000348665182850823 -0.0001535888416523903 0 0.000331143688023604 -0.0001642607649092672 0 0.0003254365775913813 -0.000144021876216216 0 0.0003117157581714083 -0.000126844096531042 0 0.000310857230268145 -0.0001343908085950657 0 0.0002864058565115225 -0.0001379336045668241 0 0.0002897868793904721 -0.0001288957704461829 0 0.0002688251066897444 -0.0001235961552132483 0 0.0002796523019573056 -9.781823430221869e-05 0 0.0002521835382088126 -0.0001107759109542015 0 0.0002745463059681092 -0.0001067675115077812 0 0 -0.0001583166816285515 0 4.407262462907989e-05 -0.0001667925190931726 0 0 -0.0001710298997692848 0 8.835804059702849e-05 -0.0001644468981286678 0 0.0001226240112688863 -0.0001523200551140122 0 0.0001659395260504609 -0.000133591542629722 0 0.0002122529248773925 -0.0001152857628190289 0 0.0002575037249824864 -0.0001023035499149912 0 0.0003913635678156111 -0.000142846483942915 0 0.0003659288374133317 -0.0001444717419536149 0 0.0003741565043134918 -0.0001517694018032616 0 0.0003506940050308424 -0.0001267881903208647 0 0.0003305303939797095 -0.0001342080703537472 0 0.0003451229203493843 -0.000136808713066751 0 0.0003312697117971088 -0.0001266166525210731 0 0.0003163285077106674 -0.0001101317045486912 0 0.0003135817347603792 -0.0001186259469071648 0 0.0002917103054685021 -0.0001207936757179793 0 0.0002938422510619505 -0.0001123381474428351 0 0.0003228450228403925 -9.238935701054984e-05 0 0.0003014009047572837 -9.461214872953624e-05 0 0.0002967167976159574 -0.0001037081060945299 0 0.0001204423888644 -0.0001523140984399728 0 9.120504374243009e-05 -0.0001611516126790686 0 6.171043715634617e-05 -0.0001548166999761505 0 0.0001531642820979406 -0.0001432632038632032 0 0.0001251786317567234 -0.0001523213527976098 0 0.0001132030627997434 -0.0001571772058097791 0 0.0001449503885238542 -0.0001434040386847364 0 0.0002084338603719188 -0.0001130034568741687 0 0.0001740832884513641 -0.0001293383635869143 0 0.0001967066868791544 -0.0001183769758425886 0 0.0002536580971555593 -9.173820034695304e-05 0 0.0002207397398204842 -0.0001079813391004341 0 0.000242801751092101 -0.0001000393239738888 0 0.0002945051494915797 -7.978934453317704e-05 0 0.0002859458499459606 -8.89455269691093e-05 0 0.0002644352032249526 -9.373649297080671e-05 0 0.0004094547038448955 -0.0001542270886297032 0 0.0004003121013080076 -0.0001485476994432785 0 0.0003834449263823093 -0.0001572587610814149 0 0.0003883105659963002 -0.000127884793164813 0 0.0003641498907168507 -0.0001371463178161522 0 0.0003896236827478837 -0.0001354366890617263 0 0.0003695546421790045 -0.0001271962269087964 0 0.0003603261607634494 -0.0001088886822694487 0 0.0003359270227722938 -0.000117712015582045 0 0.0003551327500975199 -0.0001179525963368993 0 0.0003384337973566967 -0.0001092113001820403 0 0.0003189530903943994 -0.0001014055744679759 0 0.000334923075748466 -7.379222349445813e-05 0 0.0003072100555665687 -8.544323315700415e-05 0 0.000328027482890648 -8.320580644616645e-05 0 0.000138725071402137 -0.0001510701409014264 0 0.0001816403114256231 -0.0001283053520820791 0 0.0002312145017411186 -0.0001013549703180132 0 0.0002741998906669482 -8.490157289455796e-05 0 0.0003148259525226592 -7.617689646701103e-05 0 0.000439172416393315 -0.0001385971138133031 0 0.0004153469091191746 -0.0001405635351935159 0 0.0004241908322333959 -0.0001464152495546479 0 0.0004259817285508692 -0.0001290232586936975 0 0.0004071949849527864 -0.0001283443974269052 0 0.000408596866042202 -0.0001358927774402454 0 0.0004012101252561427 -0.0001104886085214942 0 0.0003944748393552944 -0.0001192577081857789 0 0.0003759367269651474 -0.0001184443336064026 0 0.000380823900841053 -0.0001095050557605296 0 0.0003673267485932492 -9.019837251370428e-05 0 0.0003632947178658659 -9.965576705917165e-05 0 0.0003417677139883177 -9.990938328334791e-05 0 0.0003452180930298045 -9.092128750315735e-05 0 0.0003751399684919488 -7.168132840686982e-05 0 0.0003490414305278995 -8.164656374933973e-05 0 0.000355121549750616 -7.234135105714462e-05 0 0.0002331874384926554 -0.0001360372492720205 0 0.0001854212875176162 -0.000138169453868563 0 0.0001801819302126451 -0.0001442888322080312 0 0.00024996674446907 -0.0001049706432105187 0 0.0002255677372802694 -0.0001082907545899501 0 0.0002018208723336857 -0.0001253940842451069 0 0.0002870598096573099 -7.570342051673053e-05 0 0.0002476809520969454 -9.432522930157408e-05 0 0.0002680403198641206 -8.354141530562242e-05 0 0.0003195160739663333 -6.148259708187292e-05 0 0.0003055094474887628 -7.062977762493439e-05 0 0.0002867021307591934 -7.60803222756913e-05 0 0.0003539080840657978 -5.511192253921718e-05 0 0.0003433586078899966 -6.445904357645924e-05 0 0.0003244771731640589 -6.680488862833207e-05 0 0.0004610829548348751 -0.000149084623008265 0 0.0004500513645925513 -0.0001438440560706614 0 0.0004353392858683978 -0.000151506145239284 0 0.000432495107221418 -0.0001338267871182637 0 0.0004376823355132718 -0.0001146878115111097 0 0.0004316708283554011 -0.000121886418262331 0 0.0004130405949798635 -0.0001211013494550211 0 0.0004194513973714403 -0.0001124946943078593 0 0.0004163976122198288 -8.909010901605912e-05 0 0.0004083076222204173 -9.985459718324686e-05 0 0.000388397035437284 -9.864769435772638e-05 0 0.0003920177854924452 -8.933578142917657e-05 0 0.0003705524188681405 -8.101978635649278e-05 0 0.000389427431057462 -5.346778444345809e-05 0 0.0003815321898601626 -6.255994173567662e-05 0 0.0003625043326867718 -6.303432520193533e-05 0 0.0002402723114008198 -0.0001208611594735681 0 0.000268136844889568 -8.889299155567961e-05 0 0.0003030321836395182 -6.734541286380959e-05 0 0.0003366373022319632 -5.75309407716917e-05 0 0.0003716287563317318 -5.384740437768783e-05 0 0.0004802453424185617 -0.0001349658196987631 0 0.0004597705433382583 -0.0001366759594000906 0 0.0004705624918459365 -0.0001420326070639956 0 0.0004740270473066387 -0.0001222094883720957 0 0.0004500991953953818 -0.0001254562670794241 0 0.0004565026348939789 -0.0001303495873765602 0 0.0004558063772101176 -0.0001183993457539527 0 0.0004535190937077382 -9.714400031195714e-05 0 0.0004453584169384268 -0.0001059244675536305 0 0.0004275011907823088 -0.0001035457714264063 0 0.0004348270684440896 -9.305092412200303e-05 0 0.0004147265617220916 -7.169835602079571e-05 0 0.0004150053442538427 -8.045482299221103e-05 0 0.0003910853398286801 -8.062547353522374e-05 0 0.0003950044244631245 -7.14489167004274e-05 0 0.0004248533918316433 -5.418506754378188e-05 0 0.000407122406904662 -5.35906976034242e-05 0 0.0004002962138309393 -6.245002249569496e-05 0 0.0003308348462444385 -0.0001102477805674718 0 0.0002852718046437519 -0.0001043238069201856 0 0.0002864676863415971 -0.0001243257986644584 0 0.0003488765788904667 -6.090399882109964e-05 0 0.0003152978863294117 -6.733318867731837e-05 0 0.0003018903772861691 -8.310427518100446e-05 0 0.0003571763968016718 -4.455145697147963e-05 0 0.0003368837306701493 -5.269543295855902e-05 0 0.0003233374858205039 -5.91111293812894e-05 0 0.0003811666815663849 -3.754213292435373e-05 0 0.0003512622731017314 -4.852841285159705e-05 0 0.0003664534613419901 -4.611928703924065e-05 0 0.000409604603649303 -3.613563553678322e-05 0 0.0003825488148990229 -4.479186938349902e-05 0 0.0003987611477406567 -4.462453238836703e-05 0 0.0005121117245833982 -0.0001450712483928754 0 0.0004961163853219892 -0.0001400042263905124 0 0.0004866755492732682 -0.0001469461745951435 0 0.0004770032414538878 -0.0001286198906729324 0 0.0004891466936734324 -0.0001032174555727873 0 0.0004635464215148882 -0.0001087288032119403 0 0.0004813444970753948 -0.0001127169669174066 0 0.0004712895829623399 -0.0001001326347219961 0 0.0004701964637937663 -7.830741319088269e-05 0 0.0004435859291216964 -8.334965533249242e-05 0 0.000461567654585008 -8.76809770106401e-05 0 0.0004498188885172076 -7.079313493445895e-05 0 0.0004323658417018646 -7.110962679615778e-05 0 0.0004329786939828507 -7.976583815804857e-05 0 0.0004192332850265592 -6.290902432131349e-05 0 0.0004403440760845025 -3.806689899482863e-05 0 0.0004321492491338284 -4.59670452377459e-05 0 0.0004155525336367578 -4.512600471205701e-05 0 0.0003373126939478536 -8.220716350076671e-05 0 0.0003512579715887658 -5.046683413553425e-05 0 0.0003687334036673629 -4.006743508585673e-05 0 0.0003951012438011649 -3.632529521102051e-05 0 0.0004247290734086623 -3.68559789638271e-05 0 0.0005196634180622479 -0.0001275620392864604 0 0.0005000021323110755 -0.0001311722589374149 0 0.0005157140864905675 -0.0001363460329727001 0 0.0004968602234955378 -0.0001248063242247148 0 0.0005286666937401388 -0.0001099030197564951 0 0.0005088686898148897 -0.0001065191365289937 0 0.0005014713669727851 -0.0001158437398333275 0 0.0005027927388900181 -8.527638559297856e-05 0 0.0004957439964952378 -9.421118005537909e-05 0 0.0004783449660160679 -9.095807993172592e-05 0 0.0004863853579683637 -8.176781804541495e-05 0 0.0004598483784492188 -7.45454346429132e-05 0 0.0004588319318978859 -5.661876371133549e-05 0 0.0004540548176415139 -6.365893317303775e-05 0 0.0004370236903328958 -6.379976935039798e-05 0 0.0004417979351170791 -5.528597995469142e-05 0 0.0004719496567311757 -4.11205188960905e-05 0 0.0004489424501202782 -4.717456221745761e-05 0 0.0004559838931740362 -3.948399875021781e-05 0 0.00040635058844369 -7.737828332728555e-05 0 0.0003753829622091052 -6.560115445145369e-05 0 0.0003729895868131062 -9.565674240169602e-05 0 0.0003971954900497047 -3.180716467636947e-05 0 0.0003743059475753898 -4.458747245153762e-05 0 0.0003768888179646208 -3.779180183348401e-05 0 0.0004135381618842463 -2.356728529280539e-05 0 0.0003869836569520944 -3.284276797773974e-05 0 0.000396724721503576 -3.012829465148316e-05 0 0.0004336491443151819 -2.135053768203034e-05 0 0.0004087737436686656 -2.845223948446268e-05 0 0.0004210874398106805 -2.835795421459334e-05 0 0.0004583920814745628 -2.312790884111204e-05 0 0.0004350950118117797 -2.888393373676388e-05 0 0.0004490310777678849 -3.026468400970148e-05 0 0.000523976944879967 -0.000118739106173876 0 0.0005391830453820826 -9.232734065869311e-05 0 0.0005143356530405878 -9.756024250355929e-05 0 0.0005337372372720301 -0.0001010860692391198 0 0.0005209043551114557 -8.878219724357766e-05 0 0.000517038590280978 -6.770057327772258e-05 0 0.0004938875139326804 -7.273654692561836e-05 0 0.0005097149945655412 -7.639287145506471e-05 0 0.0004889306917938638 -6.075098774218447e-05 0 0.0004695909785544441 -6.55450614019133e-05 0 0.0004793565198102282 -6.939983443165525e-05 0 0.0004737904040985333 -5.864417757496681e-05 0 0.0004651045760785584 -4.871638694078663e-05 0 0.0004839320655499036 -2.795919336954423e-05 0 0.0004777760814987959 -3.432076665745815e-05 0 0.0004628829411307008 -3.254199865045639e-05 0 0.0004217036298788674 -3.296887963898107e-05 0 0.0004128400744343616 -5.054215240796666e-05 0 0.0003884317964451467 -4.671126005481476e-05 0 0.0004087312798892453 -3.170308426389263e-05 0 0.0004050410171786167 -2.678326483837704e-05 0 0.000423112658666411 -2.186469462620969e-05 0 0.0004455275148764507 -2.195970667917256e-05 0 0.0004706615809082563 -2.544731721760383e-05 0 0.0005511097999009145 -7.517361786588029e-05 0 0.0005271879888880907 -7.999997038111927e-05 0 0.0005449855117502445 -8.367260257638815e-05 0 0.0005339291536893203 -7.143353720996327e-05 0 0.0005028237403500775 -6.422032044309944e-05 0 0.0005027416117029146 -4.552232596140975e-05 0 0.0004812093764415532 -5.07280386412954e-05 0 0.000495678731033915 -5.298033265896278e-05 0 0.000487172942586944 -4.328332244558337e-05 0 0.0005163413152147289 -3.180644631680107e-05 0 0.0004998839878110375 -2.983042263378866e-05 0 0.0004947755603807359 -3.609278038607466e-05 0 0.0004540400098609579 -3.957374868176126e-05 0 0.0004393985228071088 -3.615639281063236e-05 0 0.0004339704566041888 -6.035508899191866e-05 0 0.0004391201721003489 -1.635942542559573e-05 0 0.0004197404758064209 -2.334121442605878e-05 0 0.0004302783616506109 -2.269732593607583e-05 0 0.0004260656472396804 -1.95853795604124e-05 0 0.0004561141533110437 -1.130191008172363e-05 0 0.0004365937568167961 -1.647072263854695e-05 0 0.0004448893974675903 -1.587110165850975e-05 0 0.0004747720586610395 -1.154102345905833e-05 0 0.0004557120989196143 -1.571986286164243e-05 0 0.0004665690896067929 -1.686155722796567e-05 0 0.0005008567919021909 -1.499644400293785e-05 0 0.0004807999145772201 -1.855364763808585e-05 0 0.0004926748451153852 -2.100475032135166e-05 0 0.0005640851970135783 -5.887046404551643e-05 0 0.0005408738429127396 -6.306119529868015e-05 0 0.0005575017499863284 -6.688671319722061e-05 0 0.000533141089106721 -5.130940294671161e-05 0 0.000511387720990524 -5.57683689348939e-05 0 0.0005249933298947272 -5.933161243705846e-05 0 0.0005177547276029141 -4.840757674070772e-05 0 0.0005095114891447006 -3.843424382014666e-05 0 0.0005183262753604605 -2.238650412020547e-05 0 0.0005016346751777306 -2.494466735560606e-05 0 0.0005172392960588239 -2.694428471664353e-05 0 0.0004619465281639531 -1.29517727098757e-05 0 0.0004580947760411251 -2.231631871203336e-05 0 0.0004452621626528658 -2.222555079076626e-05 0 0.0004511979152212923 -1.46105825660132e-05 0 0.0004470892453218906 -1.291041479231325e-05 0 0.0004648901497783183 -1.111933376714463e-05 0 0.0004870316231557217 -1.311597648160927e-05 0 0.0005090186718966065 -1.856431182086793e-05 0 0.0005484052546273429 -5.509414933690777e-05 0 0.0005464809061782358 -3.707024000646682e-05 0 0.0005250979877013499 -4.102790475378599e-05 0 0.0005398231943529693 -4.397943199949433e-05 0 0.0005311568493297997 -3.443013831128234e-05 0 0.0005546814037821952 -2.380381207146029e-05 0 0.0005363809477642275 -2.30605556338693e-05 0 0.0005361171765072544 -2.755522967351365e-05 0 0.0004705764229215322 0 0 0.0004698001944508914 -1.046359314775635e-05 0 0.0004653915190201734 -2.062462966651674e-05 0 0.0004704742079744166 -5.779200087099261e-06 0 0.0004571339945303297 -1.021363823412124e-05 0 0.0004657431260183947 -8.150051076700754e-06 0 0.0004635563174191164 -8.212565652717517e-06 0 0.0004848012965887676 -4.276823669037744e-06 0 0.0004723859245016299 -7.195696773287773e-06 0 0.0004803102751725753 -7.457619231851047e-06 0 0.0005049010568888909 -4.735485746369669e-06 0 0.0004916196179243092 -7.679654224442553e-06 0 0.0005034639419016676 -9.243932366217145e-06 0 0.0005397259669533066 -1.422500770664506e-05 0 0.0005296012777923382 -1.805980080777129e-05 0 0.0005203222453311389 -1.455292251837937e-05 0 0.0005774024232665028 -4.387490819178487e-05 0 0.000555634081566673 -4.740112903576134e-05 0 0.0005707601579524745 -5.118241972635193e-05 0 0.0005616868403124499 -4.04738585449402e-05 0 0.0005506906973949825 -3.016614839987808e-05 0 0.000546900570334883 -1.882282396872325e-05 0 0.0004765732382932681 0 0 0.000472538358100194 -5.463004831777217e-06 0 0.0004738931649744519 0 0 0.0004753345668745735 -3.437107386215486e-06 0 0.0004769431731286799 -4.628208687890872e-06 0 0.0004942086573598522 -4.394024714676114e-06 0 0.000528715660463422 -7.021416985332014e-06 0 0.0005161772485961301 -5.813081388744407e-06 0 0.0005161922342841489 -1.067067118881977e-05 0 0.000534144316580164 -1.041060109551408e-05 0 0.0005899825995275331 -3.055489405082372e-05 0 0.000568666955930301 -3.365883478673551e-05 0 0.0005838651037647953 -3.699012342313164e-05 0 0.0005719232893462391 -2.716079678035228e-05 0 0.000575176040527068 -1.271786673540775e-05 0 0.0005574805879346611 -1.349922670281395e-05 0 0.0005657169712484528 -1.797165358268671e-05 0 0.0004846589036889702 0 0 0.0004800110546292761 -2.38609773407909e-06 0 0.0004797118288267642 0 0 0.0004860054416693015 -2.043377787591827e-06 0 0.0004999094357927912 0 0 0.0004940423972886247 -1.981490957113208e-06 0 0.0005033485469781987 -2.155438265395532e-06 0 0.0005213846672343114 0 0 0.0005261129705259317 -3.206931506843697e-06 0 0.0005143228108916587 -2.353788199091648e-06 0 0.0005594892502754908 -6.396350126900753e-06 0 0.0005505107606816443 -1.014969219043991e-05 0 0.0005438841675859839 -6.763575462370746e-06 0 0.0006004685450568216 -1.903486356187408e-05 0 0.0005779661291580449 -2.136109213802043e-05 0 0.0005955772456872841 -2.457572692383995e-05 0 0.0005875586878279704 -1.580078831302566e-05 0 0.0005672977353995842 -9.427231315305812e-06 0 0.0004914258138671864 0 0 0.000509965760027989 0 0 0.0005475447618427238 0 0 0.000539488553037913 -3.495240546016752e-06 0 0.0005339546927831487 0 0 0.0005540268333253308 -3.042472971864493e-06 0 0.0006074737071035254 -9.065186088459707e-06 0 0.0005914665889735763 -1.093355936240775e-05 0 0.0006044844525203339 -1.38881231946128e-05 0 0.0005846269640451392 -5.914668723696724e-06 0 0.0005719104866043523 -6.197678496412554e-06 0 0.0005803492448246238 -9.247711330329932e-06 0 0.00057738392568603 0 0 0.0005690461684491555 -3.253228058722796e-06 0 0.0005620850215260516 0 0 0.0005959072019103978 -7.457506241210653e-06 0 0.0005813477594449834 -2.8914043259485e-06 0 0.000609941196904839 1.352700452708196e-22 0 0.0005975453107702258 -3.047039060830379e-06 0 0.000609317825793471 -4.472679585118769e-06 0 0.0005933668549212012 0 0 </DataArray>
        <DataArray type="Float64" Name="stress" format="ascii" NumberOfComponents="9">107399272.6233055 2442138.643362922 2442138.643362922 13535447.35984165 0 0 0 0 0 107078919.0291191 -29401.066723232 -29401.066723232 14491076.68248107 0 0 0 0 0 108803641.873454 2153986.883238526 2153986.883238526 15743714.69201026 0 0 0 0 0 107941280.4512866 1062292.908257647 1062292.908257647 15117395.68724566 0 0 0 0 0 108101457.2483797 2298062.763300724 2298062.763300724 14639581.02592595 0 0 0 0 0 107239095.8262123 1206368.788319845 1206368.788319845 14013262.02116136 0 0 0 0 0 109173181.2342672 -46105.75421033146 -46105.75421033146 17222906.14588939 0 0 0 0 0 108988411.5538606 1053940.564514097 1053940.564514097 16483310.41894983 0 0 0 0 0 108126050.1316932 -37753.4104667818 -37753.4104667818 15856991.41418523 0 0 0 0 0 109585151.0273608 4191124.391452905 4191124.391452905 13943042.40475128 0 0 0 0 0 109194396.4504074 3172555.637345715 3172555.637345715 14843378.54838077 0 0 0 0 0 108492211.8253331 3316631.517407913 3316631.517407913 13739244.88229646 0 0 0 0 0 111118181.5340768 3228475.982088148 3228475.982088148 17867814.4312116 0 0 0 0 0 109960911.7037654 2691231.432663337 2691231.432663337 16805764.56161093 0 0 0 0 0 110145681.384172 1591185.113938908 1591185.113938908 17545360.2885505 0 0 0 0 0 108187049.135086 4292224.057832712 4292224.057832712 10975905.84983963 0 0 0 0 0 108886100.0812234 4241674.224642809 4241674.224642809 12459474.12729545 0 0 0 0 0 107793160.8791957 3367181.350597817 3367181.350597817 12255676.60484064 0 0 0 0 0 110351666.2807188 3709800.186770527 3709800.186770527 15905428.41798144 0 0 0 0 0 112255077.5309779 23087.33616757407 23087.33616757407 20783152.22437278 0 0 0 0 0 111686629.5325274 1625781.659127861 1625781.659127861 19325483.32779219 0 0 0 0 0 110714129.3826226 -11509.20902137878 -11509.20902137878 19003029.18513109 0 0 0 0 0 110682071.4524773 5621498.191745233 5621498.191745233 9877355.176410116 0 0 0 0 0 110133611.239919 4906311.291599069 4906311.291599069 11910198.7905807 0 0 0 0 0 109434560.2937816 4956861.124788972 4956861.124788972 10426630.51312487 0 0 0 0 0 112521510.2082849 5929423.768848903 5929423.768848903 13257447.51929634 0 0 0 0 0 111819845.8711809 4578949.875468525 4578949.875468525 15562630.97525397 0 0 0 0 0 111053330.6178228 5060274.080150903 5060274.080150903 13600244.96202381 0 0 0 0 0 115081709.2131921 3626900.507165842 3626900.507165842 21578246.13041753 0 0 0 0 0 113099945.3736345 3427688.244626995 3427688.244626995 19723030.28081457 0 0 0 0 0 113668393.372085 1824993.921666708 1824993.921666708 21180699.17739515 0 0 0 0 0 109106348.4748555 5095521.483333548 5095521.483333548 7452916.11191018 0 0 0 0 0 109894209.9636664 5358509.83753939 5358509.83753939 8665135.644160148 0 0 0 0 0 108646698.8049708 4693872.770583129 4693872.770583129 9214410.980874907 0 0 0 0 0 111601790.8303811 5775460.980297067 5775460.980297067 11567401.34785323 0 0 0 0 0 114921753.8883627 6115235.75716342 6115235.75716342 16481902.79969486 0 0 0 0 0 113019967.7112198 4671855.869625784 4671855.869625784 17174858.61545323 0 0 0 0 0 113721632.0483238 6022329.763006162 6022329.763006162 14869675.1594956 0 0 0 0 0 117209052.2494964 8184.701933376155 8184.701933376155 25291607.66008101 0 0 0 0 0 116145380.7313442 1817542.604549609 1817542.604549609 23434926.89524927 0 0 0 0 0 114732064.8902372 15636.01905047503 15636.01905047503 23037379.94222689 0 0 0 0 0 115001731.5507774 4871068.132164631 4871068.132164631 19030074.4650562 0 0 0 0 0 111500641.6384932 5606794.523246524 5606794.523246524 5213963.692546126 0 0 0 0 0 111091356.5454852 5614146.357495878 5614146.357495878 7545659.434478121 0 0 0 0 0 110303495.0566744 5351158.003290035 5351158.003290035 6333439.902228152 0 0 0 0 0 113336978.3078925 6366990.720406727 6366990.720406727 7527791.618460047 0 0 0 0 0 112929244.2580887 6148207.244627815 6148207.244627815 10392619.56887819 0 0 0 0 0 112009524.8801849 5994244.456075979 5994244.456075979 8702573.397435082 0 0 0 0 0 115455160.4393834 6931425.52401597 6931425.52401597 9974239.480805404 0 0 0 0 0 115188457.1638731 6523330.640589695 6523330.640589695 13228071.14025014 0 0 0 0 0 113988335.3238342 6430424.646432436 6430424.646432436 11615843.50005087 0 0 0 0 0 121303010.6091426 4364304.52930863 4364304.52930863 25678635.0797184 0 0 0 0 0 119256031.4293195 2186244.615621003 2186244.615621003 25485121.3698997 0 0 0 0 0 118192359.9111674 3995602.518237236 3995602.518237236 23628440.60506796 0 0 0 0 0 119594191.6602386 6893699.894369698 6893699.894369698 18826679.28776268 0 0 0 0 0 117257972.7743007 6504467.82576656 6504467.82576656 17654291.04372877 0 0 0 0 0 117337950.4367153 5260300.200767769 5260300.200767769 20202462.7090901 0 0 0 0 0 109787497.2392495 4851079.452119224 4851079.452119224 3741524.182187359 0 0 0 0 0 110644069.4388714 5228936.987682873 5228936.987682873 4477743.937366743 0 0 0 0 0 109446922.8570525 4973300.467726385 4973300.467726385 5597220.14704877 0 0 0 0 0 112418809.9731929 5986892.621826625 5986892.621826625 6370877.655503087 0 0 0 0 0 114396069.3736379 6649208.122211348 6649208.122211348 8751015.549632726 0 0 0 0 0 118692629.663417 7524299.40030751 7524299.40030751 11108897.56012952 0 0 0 0 0 117073895.0514002 7227862.46216174 7227862.46216174 10541568.52046746 0 0 0 0 0 116807191.7758899 6819767.578735466 6819767.578735466 13795400.17991219 0 0 0 0 0 125849973.7477091 30359.79112565055 30359.79112565055 30884588.29034949 0 0 0 0 0 123576492.1784258 2197332.16021714 2197332.16021714 28281611.68503395 0 0 0 0 0 121529512.9986027 19272.24652951326 19272.24652951326 28088097.97521526 0 0 0 0 0 120448601.1346906 5629002.211839165 5629002.211839165 22252657.18374054 0 0 0 0 0 119143410.6618278 7208999.647338605 7208999.647338605 14967788.4239461 0 0 0 0 0 111727298.0913009 4433847.6005517 4433847.6005517 942684.2998793068 0 0 0 0 0 111613969.8648971 5020321.061899113 5020321.061899113 3078323.996212716 0 0 0 0 0 110757397.6652752 4642463.526335462 4642463.526335462 2342104.241033333 0 0 0 0 0 113536342.9112449 5236837.537423708 5236837.537423708 2144025.834271485 0 0 0 0 0 113436660.6095687 5801914.128915218 5801914.128915218 4835908.726365766 0 0 0 0 0 112518492.274869 5421816.030335115 5421816.030335115 3678994.763408805 0 0 0 0 0 116848429.7401038 6327544.217022968 6327544.217022968 4246794.564150316 0 0 0 0 0 116151795.0897436 6629484.870519469 6629484.870519469 7110517.02247786 0 0 0 0 0 115092704.0239981 6347267.468714848 6347267.468714848 5887293.091305182 0 0 0 0 0 117770529.7017604 6925921.80866524 6925921.80866524 7677846.062139917 0 0 0 0 0 132433912.8522804 4672685.569780041 4672685.569780041 30403162.69204754 0 0 0 0 0 126868461.7307115 4518495.049544336 4518495.049544336 28040898.88588297 0 0 0 0 0 129141943.2999948 2351522.680452846 2351522.680452846 30643875.49119852 0 0 0 0 0 127134213.2789563 7317637.177868785 7317637.177868785 21335116.49691511 0 0 0 0 0 124218611.9440494 5840970.853588708 5840970.853588708 23506875.78831675 0 0 0 0 0 123364202.4695974 7105668.536119241 7105668.536119241 20080897.89233889 0 0 0 0 0 124264560.0885102 7772586.334615695 7772586.334615695 11442299.23582753 0 0 0 0 0 121478594.8759636 7648442.867461603 7648442.867461603 11275598.39797853 0 0 0 0 0 121929375.8743744 7333143.114492698 7333143.114492698 15134489.26179511 0 0 0 0 0 109972560.9392514 3814859.720609623 3814859.720609623 479360.0618136047 0 0 0 0 0 110849929.5152761 4124353.660580661 4124353.660580661 711022.180846456 0 0 0 0 0 109880029.0892505 4332969.586364424 4332969.586364424 2110442.122000482 0 0 0 0 0 112631820.5012729 4835342.568987705 4835342.568987705 1543355.067075396 0 0 0 0 0 115192386.3256743 5782190.877223339 5782190.877223339 3195410.1992109 0 0 0 0 0 121746275.2541101 6157563.52060697 6157563.52060697 3194488.553102251 0 0 0 0 0 120219452.4587636 6840931.460457241 6840931.460457241 7151693.056615885 0 0 0 0 0 119297352.4971069 6242553.868814969 6242553.868814969 3720641.558626283 0 0 0 0 0 142373838.9434721 3580.773943605544 3580.773943605544 36890301.71183536 0 0 0 0 0 137403875.8978763 2338133.171861824 2338133.171861824 33646732.20194145 0 0 0 0 0 134111906.3455906 16970.28253462798 16970.28253462798 33887445.00109243 0 0 0 0 0 129784063.0656184 5995161.373824414 5995161.373824414 25869139.59448133 0 0 0 0 0 125699386.6837333 7545111.75624224 7545111.75624224 16388707.86637132 0 0 0 0 0 123005417.6713102 6965074.927611333 6965074.927611333 7318393.894464892 0 0 0 0 0 111316768.5453951 2599828.340128181 2599828.340128181 -2343762.74394442 0 0 0 0 0 111522033.318348 3516837.970339941 3516837.970339941 -700539.2220325565 0 0 0 0 0 110644664.7423233 3207344.030368902 3207344.030368902 -932201.3410654074 0 0 0 0 0 113647000.4254122 2916447.210479982 2916447.210479982 -2683319.635177733 0 0 0 0 0 113591671.6683285 4076642.373951845 4076642.373951845 -269646.9004531242 0 0 0 0 0 112687149.2583565 3675147.405515841 3675147.405515841 -870317.667649213 0 0 0 0 0 115879330.2696903 4129549.79396871 4129549.79396871 -1070568.020248322 0 0 0 0 0 114707836.5904676 4683193.665696209 4683193.665696209 536728.9070115811 0 0 0 0 0 116363880.0048971 5228547.005495839 5228547.005495839 1588113.271950996 0 0 0 0 0 118920885.3465692 3743097.24429781 3743097.24429781 -2226584.672850641 0 0 0 0 0 120333580.3003397 4950330.38245239 4950330.38245239 483951.9401258042 0 0 0 0 0 117884657.5433365 5035320.730660389 5035320.730660389 1010104.945649837 0 0 0 0 0 154211673.3485197 1928582.81938212 1928582.81938212 33852866.36572245 0 0 0 0 0 148292756.1459959 966081.796662863 966081.796662863 35371584.0387789 0 0 0 0 0 143322793.1004001 3300634.194581081 3300634.194581081 32128014.528885 0 0 0 0 0 140386931.4017596 5420929.017662523 5420929.017662523 24116940.33872807 0 0 0 0 0 136410422.12702 5046807.293721283 5046807.293721283 27260051.5153878 0 0 0 0 0 133760572.3403579 6369283.097765654 6369283.097765654 22726028.41782159 0 0 0 0 0 133066354.9528891 6465397.434739176 6465397.434739176 12323344.81158199 0 0 0 0 0 130100284.1159227 6891517.306303982 6891517.306303982 16829230.65424855 0 0 0 0 0 128665457.5206997 7118991.884677436 7118991.884677436 11882822.02370476 0 0 0 0 0 127782541.6409625 4615730.417337757 4615730.417337757 1565294.597228117 0 0 0 0 0 124764408.4475363 5386646.968972364 5386646.968972364 2379891.575165184 0 0 0 0 0 126023550.8647364 6194158.375976726 6194158.375976726 6503796.916527825 0 0 0 0 0 109625591.7027272 2364846.77592868 2364846.77592868 -2021387.088602849 0 0 0 0 0 110471180.1240612 2482337.558028431 2482337.558028431 -2182574.916273634 0 0 0 0 0 109799076.3209893 3089853.248269151 3089853.248269151 -771013.513394622 0 0 0 0 0 112481884.4854037 2758137.775304082 2758137.775304082 -2513541.189561076 0 0 0 0 0 114763165.3475513 3522998.502224346 3522998.502224346 -1876943.827713028 0 0 0 0 0 117400107.8081298 3936323.51913326 3936323.51913326 -1648576.346549482 0 0 0 0 0 122787866.8091546 1605017.904879788 1605017.904879788 -5176067.523377857 0 0 0 0 0 122267071.0316324 3881290.712743379 3881290.712743379 -990789.4851378037 0 0 0 0 0 120854376.0778619 2674057.574588799 2674057.574588799 -3701326.09811425 0 0 0 0 0 179746757.8904988 286973.5081605724 286973.5081605724 39678022.74262127 0 0 0 0 0 166979215.6195093 1107778.163771347 1107778.163771347 36765444.55417186 0 0 0 0 0 161060298.4169855 145277.141052089 145277.141052089 38284162.22722831 0 0 0 0 0 147299302.3751397 3674755.918522323 3674755.918522323 28984903.35222526 0 0 0 0 0 136726643.1773243 5943163.22620085 5943163.22620085 18220142.57515503 0 0 0 0 0 130424448.2969258 5540563.926038466 5540563.926038466 6944319.704405052 0 0 0 0 0 125285204.2250586 3110374.161108772 3110374.161108772 -1805386.46307487 0 0 0 0 0 110304141.9081014 355274.3723565892 355274.3723565892 -4796134.561396817 0 0 0 0 0 110810455.2267483 1477551.356242385 1477551.356242385 -3569948.652670619 0 0 0 0 0 109964866.8054143 1360060.574142635 1360060.574142635 -3408760.824999833 0 0 0 0 0 111960482.9705905 781721.0927083608 781721.0927083608 -4894831.704346478 0 0 0 0 0 112803741.6980014 1849084.151594171 1849084.151594171 -3789075.669762106 0 0 0 0 0 111638625.7579928 1690774.716418271 1690774.716418271 -3619297.224145449 0 0 0 0 0 115987881.5429035 1287837.865948329 1287837.865948329 -5394396.970496008 0 0 0 0 0 114817440.9841578 2102142.538214155 2102142.538214155 -4038858.302836871 0 0 0 0 0 115933605.9062969 2708693.829958519 2708693.829958519 -3232482.495372166 0 0 0 0 0 117454383.4447363 2515467.555123069 2515467.555123069 -3810490.821673326 0 0 0 0 0 118291102.8351974 -1167710.660439926 -1167710.660439926 -8404235.4562463 0 0 0 0 0 120539484.822176 218653.6222199308 218653.6222199308 -6790151.48981208 0 0 0 0 0 118605994.0908833 1287693.291928942 1287693.291928942 -5315410.064548472 0 0 0 0 0 187938035.3934924 -11325555.45126466 -11325555.45126466 32716542.00824533 0 0 0 0 0 183842396.6419956 -5519290.971552049 -5519290.971552049 36197282.3754333 0 0 0 0 0 171074854.3710061 -4698486.315941274 -4698486.315941274 33284704.18698389 0 0 0 0 0 160273621.6174916 -3047871.86042677 -3047871.86042677 26033231.76078258 0 0 0 0 0 157242647.4830057 -559644.5205223247 -559644.5205223247 29943049.06325252 0 0 0 0 0 150330276.5096256 1186528.578617876 1186528.578617876 25075086.04975533 0 0 0 0 0 145331552.4797282 507413.6527045551 507413.6527045551 13078697.18567553 0 0 0 0 0 142859241.9407439 2964171.335183539 2964171.335183539 18597818.7622018 0 0 0 0 0 139198953.7163087 3486405.543721866 3486405.543721866 12701020.99862876 0 0 0 0 0 134289313.5153014 -122350.1629560355 -122350.1629560355 -805853.5722439016 0 0 0 0 0 133677834.2340953 3171523.635891571 3171523.635891571 5758745.619669043 0 0 0 0 0 131035927.578132 2246690.127190861 2246690.127190861 379720.5124921086 0 0 0 0 0 126079602.5579428 -2911641.418829224 -2911641.418829224 -9004380.686744912 0 0 0 0 0 124433734.6835487 -653311.7569747184 -653311.7569747184 -7090224.105061386 0 0 0 0 0 126931072.0994527 852044.4992542658 852044.4992542658 -3719543.044758398 0 0 0 0 0 108783699.2867537 782027.5609256502 782027.5609256502 -3692221.431909105 0 0 0 0 0 109543920.5974275 568650.9666411198 568650.9666411198 -4244177.996652961 0 0 0 0 0 109204645.4947405 1573437.168427165 1573437.168427165 -2856804.260255977 0 0 0 0 0 111132312.439346 568497.7325324749 568497.7325324749 -4845483.132871648 0 0 0 0 0 113358281.451681 -683973.2127505864 -683973.2127505864 -6899871.894676568 0 0 0 0 0 112659382.2111358 48873.93997888692 48873.93997888692 -5897351.799511524 0 0 0 0 0 113502640.9385466 1116236.998864698 1116236.998864698 -4791595.764927151 0 0 0 0 0 114673081.4972923 301932.326598871 301932.326598871 -6147134.432586288 0 0 0 0 0 117139492.1890504 60063.60275420139 60063.60275420139 -6899316.213371156 0 0 0 0 0 119570647.5320327 -5603484.340249605 -5603484.340249605 -12176817.18134411 0 0 0 0 0 121179257.1705937 -1999233.217684909 -1999233.217684909 -8676442.352360984 0 0 0 0 0 118930875.1836151 -3385597.500344766 -3385597.500344766 -10290526.31879521 0 0 0 0 0 289612165.2759579 -8334146.943169128 -8334146.943169128 8397694.496329043 0 0 0 0 0 238775100.3347251 -9829851.197216898 -9829851.197216898 20557118.25228719 0 0 0 0 0 234679461.5832283 -4023586.717504278 -4023586.717504278 24037858.61947516 0 0 0 0 0 174105828.505492 -7186713.655845719 -7186713.655845719 29374886.88451396 0 0 0 0 0 152802587.0486099 -1270229.103861107 -1270229.103861107 19555964.47322905 0 0 0 0 0 139810432.9975148 192531.7448742604 192531.7448742604 6136421.806715813 0 0 0 0 0 130184458.0366221 -1516995.79089263 -1516995.79089263 -4905117.129494406 0 0 0 0 0 122825125.0449878 -4257562.879539415 -4257562.879539415 -10590598.93404451 0 0 0 0 0 108570872.1957262 -1132074.526483972 -1132074.526483972 -5479818.980219124 0 0 0 0 0 109437507.0519138 -388400.0770636913 -388400.0770636913 -5137976.77080797 0 0 0 0 0 108677285.7412399 -175023.4827791607 -175023.4827791607 -4586020.206064113 0 0 0 0 0 111024587.0924126 -1745370.680404205 -1745370.680404205 -7036553.341458841 0 0 0 0 0 111492535.0315016 -481824.7938479224 -481824.7938479224 -5965692.52290266 0 0 0 0 0 110664364.500257 -695048.154023808 -695048.154023808 -5916343.95142783 0 0 0 0 0 112191434.2720468 -1214671.946577396 -1214671.946577396 -6968212.618067706 0 0 0 0 0 114335207.8210723 -3293921.766049191 -3293921.766049191 -9488475.216634812 0 0 0 0 0 113846744.6363767 -1988947.489399889 -1988947.489399889 -8194173.555655692 0 0 0 0 0 115161544.6819879 -1003041.950050432 -1003041.950050432 -7441436.093565412 0 0 0 0 0 116313155.3281349 -2230816.213244559 -2230816.213244559 -8946355.336440558 0 0 0 0 0 114371625.5176968 -7287578.197777813 -7287578.197777813 -12460563.84625055 0 0 0 0 0 116971136.5248648 -6445531.26901371 -6445531.26901371 -12318690.51379733 0 0 0 0 0 116331364.1764471 -4227644.429108869 -4227644.429108869 -10432399.65124843 0 0 0 0 0 251822553.9926055 -64699899.11893032 -64699899.11893032 21462213.52031927 0 0 0 0 0 219880294.693049 -38012727.28509749 -38012727.28509749 27089377.7642823 0 0 0 0 0 270717359.6342818 -36517023.03104972 -36517023.03104972 14929954.00832416 0 0 0 0 0 165052019.7756414 -20036173.81885822 -20036173.81885822 21983229.11241002 0 0 0 0 0 162662820.6965665 -11542022.83964249 -11542022.83964249 24008230.4365963 0 0 0 0 0 176495027.5845669 -15680864.63506144 -15680864.63506144 27349885.56032768 0 0 0 0 0 155191786.1276848 -9764380.083076831 -9764380.083076831 17530963.14904277 0 0 0 0 0 137924732.132038 -10843226.85667919 -10843226.85667919 -1399866.922113501 0 0 0 0 0 141628142.3058831 -5167906.60198732 -5167906.60198732 5839415.131781012 0 0 0 0 0 136107022.8236697 -5482788.509817615 -5482788.509817615 -1102860.247178701 0 0 0 0 0 126043490.7041921 -11139913.45338906 -11139913.45338906 -13116838.67540368 0 0 0 0 0 130166402.1097468 -5631131.80817255 -5631131.80817255 -6961346.123823792 0 0 0 0 0 126061546.6310674 -7025777.436109144 -7025777.436109144 -11060609.6810743 0 0 0 0 0 117914084.2583015 -12552993.05259888 -12552993.05259888 -16105608.68282616 0 0 0 0 0 118742365.8951671 -9078238.696424242 -9078238.696424242 -14141212.93208514 0 0 0 0 0 121996843.4081222 -7732317.235714051 -7732317.235714051 -12554994.68478554 0 0 0 0 0 107638917.2267015 -658748.2869754944 -658748.2869754944 -4634317.238084545 0 0 0 0 0 108104894.7112138 -895411.4067297329 -895411.4067297329 -5057068.109151835 0 0 0 0 0 108211308.2567276 61639.63697507803 61639.63697507803 -4163269.334996825 0 0 0 0 0 109171541.7029318 -2455841.2157069 -2455841.2157069 -6858529.052017787 0 0 0 0 0 109737841.8055166 -1050283.421675156 -1050283.421675156 -5827331.806707302 0 0 0 0 0 108871206.949329 -1793957.871095436 -1793957.871095436 -6169174.016118456 0 0 0 0 0 110098064.3976722 -2100605.948055553 -2100605.948055553 -6947541.196738314 0 0 0 0 0 111062419.460831 -4438156.239156479 -4438156.239156479 -9218159.571795736 0 0 0 0 0 112210350.456256 -2561064.725953533 -2561064.725953533 -8059015.733236153 0 0 0 0 0 111043503.2766218 -3091763.459780342 -3091763.459780342 -8127356.456627289 0 0 0 0 0 112698813.6409517 -3866039.002602835 -3866039.002602835 -9353317.394215275 0 0 0 0 0 114353416.6693845 -5290749.981913502 -5290749.981913502 -10974519.53144268 0 0 0 0 0 111871354.1488296 -13138598.09288182 -13138598.09288182 -15444007.16214911 0 0 0 0 0 115721000.8404312 -9371041.216565715 -9371041.216565715 -13810412.17174661 0 0 0 0 0 113121489.8332632 -10213088.14532982 -10213088.14532982 -13952285.50419983 0 0 0 0 0 208437286.8841234 -42368036.46889427 -42368036.46889427 21722721.31636464 0 0 0 0 0 151488375.9538397 -15439700.33776871 -15439700.33776871 10291681.09514826 0 0 0 0 0 131984111.418115 -10991570.15503413 -10991570.15503413 -7258352.798758591 0 0 0 0 0 121978787.4812468 -11846453.25299397 -11846453.25299397 -14611223.67911492 0 0 0 0 0 114892719.2035656 -12845795.57274035 -12845795.57274035 -15774807.92248764 0 0 0 0 0 107070419.5952905 -2320861.745599108 -2320861.745599108 -5753175.502120214 0 0 0 0 0 107820645.8955083 -1726468.13604154 -1726468.13604154 -5616497.241169669 0 0 0 0 0 107354668.410996 -1489805.016287301 -1489805.016287301 -5193746.370102379 0 0 0 0 0 107561753.2811102 -3000491.291243763 -3000491.291243763 -6509113.847788111 0 0 0 0 0 108366647.492021 -2728166.253475332 -2728166.253475332 -6683821.44990295 0 0 0 0 0 108066312.7384182 -2066282.908863868 -2066282.908863868 -5994466.414003618 0 0 0 0 0 108628230.5539481 -4832831.619134347 -4832831.619134347 -8399947.753489172 0 0 0 0 0 108899886.1284399 -3644336.417420624 -3644336.417420624 -7629238.402753481 0 0 0 0 0 109826408.8231804 -3289101.149769276 -3289101.149769276 -7718250.547474008 0 0 0 0 0 109845325.0073895 -4635493.929145413 -4635493.929145413 -8809053.662642455 0 0 0 0 0 110173480.6734126 -8096237.650213384 -8096237.650213384 -11436218.16266112 0 0 0 0 0 110617950.0671218 -6267196.944684932 -6267196.944684932 -10327188.86722843 0 0 0 0 0 112254344.2472425 -5695079.708131288 -5695079.708131288 -10462346.68964797 0 0 0 0 0 112272553.0955547 -7691907.923995598 -7691907.923995598 -11948391.00445584 0 0 0 0 0 107494167.7112068 -12890250.55050302 -12890250.55050302 -13472698.45625177 0 0 0 0 0 110932896.6144518 -10088914.37414042 -10088914.37414042 -12966631.15125116 0 0 0 0 0 109682760.9300182 -13014424.32169242 -13014424.32169242 -14458352.80920044 0 0 0 0 0 152930543.1867515 -81882300.06749506 -81882300.06749506 47649852.09783573 0 0 0 0 0 158991281.4811965 -50959236.94317664 -50959236.94317664 34816540.60512288 0 0 0 0 0 202376548.5896786 -73291099.59321269 -73291099.59321269 34556032.8090775 0 0 0 0 0 126424777.8208366 -31800845.52534398 -31800845.52534398 6492252.419334743 0 0 0 0 0 132174754.9764373 -21322036.19101159 -21322036.19101159 2546192.748610622 0 0 0 0 0 145738398.798239 -25918509.6721011 -25918509.6721011 14237740.76587238 0 0 0 0 0 115115249.7601892 -23888859.90847158 -23888859.90847158 -14713287.29642128 0 0 0 0 0 126519990.9461136 -17366043.38257539 -17366043.38257539 -8056577.109267389 0 0 0 0 0 120579370.2321906 -17514386.68093032 -17514386.68093032 -13915062.98591248 0 0 0 0 0 109229486.1712805 -22172776.58843189 -22172776.58843189 -19179892.26803627 0 0 0 0 0 113571785.214791 -17362884.82051538 -17362884.82051538 -17642750.47543122 0 0 0 0 0 117636488.4377363 -16656345.02091048 -16656345.02091048 -16148365.47171998 0 0 0 0 0 104526674.0805687 -20686355.03420735 -20686355.03420735 -17591975.68804552 0 0 0 0 0 108199014.1146992 -16912476.56354459 -16912476.56354459 -16517991.42509732 0 0 0 0 0 111220379.1694351 -16619674.04340311 -16619674.04340311 -16848792.18543584 0 0 0 0 0 106321542.0529352 -1839395.962282541 -1839395.962282541 -5002103.375475978 0 0 0 0 0 106695980.8241129 -2080128.853940825 -2080128.853940825 -5377639.438798096 0 0 0 0 0 106980229.6398183 -1249072.124629018 -1249072.124629018 -4818210.306780262 0 0 0 0 0 107316086.4382004 -2660676.518421436 -2660676.518421436 -6131144.674954163 0 0 0 0 0 106923708.4000573 -4742376.920996943 -4742376.920996943 -7458138.290017588 0 0 0 0 0 107242730.8405838 -3871434.106120353 -3871434.106120353 -6983626.06890285 0 0 0 0 0 108047625.0514945 -3599109.068351922 -3599109.068351922 -7158333.671017688 0 0 0 0 0 107775969.4770027 -4787604.270065645 -4787604.270065645 -7929043.021753381 0 0 0 0 0 106654401.5529457 -8473936.299648914 -8473936.299648914 -9938568.367072599 0 0 0 0 0 107641316.0534469 -6653383.95939163 -6653383.95939163 -9169258.060280886 0 0 0 0 0 108858410.5068884 -6456046.269402696 -6456046.269402696 -9578363.969434166 0 0 0 0 0 108413941.1131792 -8285086.974931148 -8285086.974931148 -10687393.26486686 0 0 0 0 0 108833824.1923097 -10493244.1003582 -10493244.1003582 -12454458.30945644 0 0 0 0 0 101127549.7917513 -18670484.88962084 -18670484.88962084 -14567150.84083116 0 0 0 0 0 104310858.751479 -15780367.72006193 -15780367.72006193 -14019924.64854147 0 0 0 0 0 106499451.9702905 -15904541.49125133 -15904541.49125133 -15005579.00149013 0 0 0 0 0 139677660.5037941 -56841572.79641952 -56841572.79641952 27071052.25858524 0 0 0 0 0 120770013.7905129 -27844852.71690778 -27844852.71690778 -4110517.438543265 0 0 0 0 0 112172367.9657349 -23030818.24845173 -23030818.24845173 -16946589.78222878 0 0 0 0 0 106878080.1259246 -21429565.81131962 -21429565.81131962 -18385933.9780409 0 0 0 0 0 102827111.93616 -19678419.9619141 -19678419.9619141 -16079563.26443835 0 0 0 0 0 105772830.9802402 -3146737.602202574 -3146737.602202574 -5696169.858608232 0 0 0 0 0 106421625.2877654 -2733799.673900841 -2733799.673900841 -5724672.680364223 0 0 0 0 0 106047186.5165877 -2493066.782242558 -2493066.782242558 -5349136.617042106 0 0 0 0 0 105735723.1281091 -4266944.832229872 -4266944.832229872 -6482732.125700532 0 0 0 0 0 106648738.2046097 -3633718.061736818 -3633718.061736818 -6495922.986744323 0 0 0 0 0 106403071.3616998 -3293903.28891449 -3293903.28891449 -6117953.813910374 0 0 0 0 0 106329715.7640832 -4504660.876613408 -4504660.876613408 -6970435.207859062 0 0 0 0 0 105291877.4976083 -7195953.000048542 -7195953.000048542 -8271454.153411235 0 0 0 0 0 106107792.9488328 -5969164.960522743 -5969164.960522743 -7864796.221714413 0 0 0 0 0 106960054.0257782 -6014392.309591446 -6014392.309591446 -8335700.953450205 0 0 0 0 0 105973139.525277 -7834944.649848728 -7834944.649848728 -9105011.260241916 0 0 0 0 0 104382268.5584782 -12192088.74522935 -12192088.74522935 -11332920.07339673 0 0 0 0 0 105518335.055712 -10333012.52243913 -10333012.52243913 -10635744.22023467 0 0 0 0 0 107277874.6159454 -10144163.19772137 -10144163.19772137 -11384569.11802893 0 0 0 0 0 105938218.1348425 -12541169.64786619 -12541169.64786619 -12402809.26482425 0 0 0 0 0 98904485.72210126 -16625849.00288704 -16625849.00288704 -11733201.03982 0 0 0 0 0 100016017.7569263 -17648166.94625394 -17648166.94625394 -13150175.94032558 0 0 0 0 0 103199326.716654 -14758049.77669503 -14758049.77669503 -12602949.74803588 0 0 0 0 0 54741544.80557453 -49251664.52439267 -49251664.52439267 44618691.78457887 0 0 0 0 0 90583161.31320557 -40526255.02486832 -40526255.02486832 25555472.10195681 0 0 0 0 0 103836043.9961631 -65566982.29594387 -65566982.29594387 46134271.9412073 0 0 0 0 0 74837985.86228922 -33476550.58637138 -33476550.58637138 -12643384.16295666 0 0 0 0 0 94976617.81123924 -28682705.24742148 -28682705.24742148 -13678335.72968897 0 0 0 0 0 100631381.8415629 -32638698.05585768 -32638698.05585768 -3075565.871810958 0 0 0 0 0 88430626.97374797 -31391742.48897282 -31391742.48897282 -20100418.28451443 0 0 0 0 0 98830056.57251425 -26782259.53870235 -26782259.53870235 -19640155.27627535 0 0 0 0 0 101772938.3669686 -27640301.1987222 -27640301.1987222 -17406852.79046785 0 0 0 0 0 89028382.03065591 -28329402.8066062 -28329402.8066062 -17720028.17413083 0 0 0 0 0 99128934.1009682 -25251089.69751904 -25251089.69751904 -18449960.22108355 0 0 0 0 0 96777528.0556123 -24507878.92040677 -24507878.92040677 -17656001.93108818 0 0 0 0 0 89336322.56516725 -24466673.24892511 -24466673.24892511 -13960512.06845484 0 0 0 0 0 96931498.32286799 -22576514.14156623 -22576514.14156623 -15776243.87825018 0 0 0 0 0 95231936.17845927 -21568579.06927298 -21568579.06927298 -14263831.454643 0 0 0 0 0 105026593.368281 -2708677.226467943 -2708677.226467943 -4997807.584168572 0 0 0 0 0 105399712.1742606 -2927707.414335259 -2927707.414335259 -5346988.721388401 0 0 0 0 0 105674067.7106081 -2274036.594375242 -2274036.594375242 -4999955.479822274 0 0 0 0 0 105754277.0541747 -3706841.217216224 -3706841.217216224 -6089450.992154383 0 0 0 0 0 104217765.5380028 -6456329.447227916 -6456329.447227916 -7140522.541234618 0 0 0 0 0 105570736.9690301 -5599353.18411243 -5599353.18411243 -7299330.415626103 0 0 0 0 0 104976744.333056 -5361637.139728894 -5361637.139728894 -6811627.333467577 0 0 0 0 0 104754821.5178056 -6826141.223638229 -6826141.223638229 -7705988.347322928 0 0 0 0 0 102212729.8356083 -10142190.52733488 -10142190.52733488 -8578569.454931 0 0 0 0 0 104433565.694277 -9308063.413491897 -9308063.413491897 -9258568.9110018 0 0 0 0 0 103752303.6666083 -8669071.763691712 -8669071.763691712 -8425011.804171119 0 0 0 0 0 101918995.5607794 -11815762.45966772 -11815762.45966772 -9658902.919455893 0 0 0 0 0 103150632.0596288 -12003925.60244854 -12003925.60244854 -10495911.49642631 0 0 0 0 0 104286698.5568626 -10144849.37965832 -10144849.37965832 -9798735.643264245 0 0 0 0 0 101643377.1402898 -14408968.8740582 -14408968.8740582 -11533060.55660837 0 0 0 0 0 89970063.82270664 -20591365.94233957 -20591365.94233957 -10626661.64986433 0 0 0 0 0 94437274.77240396 -18608607.4726133 -18608607.4726133 -11179931.34484217 0 0 0 0 0 95548806.80722895 -19630925.4159802 -19630925.4159802 -12596906.24534775 0 0 0 0 0 64789765.33393188 -41364107.55538203 -41364107.55538203 15987653.81081111 0 0 0 0 0 81634306.41801861 -32434146.5376721 -32434146.5376721 -16371901.22373555 0 0 0 0 0 88729504.50220194 -29860572.64778951 -29860572.64778951 -18910223.22932263 0 0 0 0 0 89182352.29791155 -26398038.02776565 -26398038.02776565 -15840270.12129283 0 0 0 0 0 89653193.19393694 -22529019.59563234 -22529019.59563234 -12293586.85915959 0 0 0 0 0 104452885.038079 -4119433.11614995 -4119433.11614995 -5677833.316263716 0 0 0 0 0 105112858.0091596 -3633085.359176262 -3633085.359176262 -5687001.587435974 0 0 0 0 0 104739739.20318 -3414055.171308947 -3414055.171308947 -5337820.450216143 0 0 0 0 0 105094304.0830941 -4193188.974189911 -4193188.974189911 -6080282.720982124 0 0 0 0 0 103316437.8695106 -5776164.234469778 -5776164.234469778 -6144460.484655916 0 0 0 0 0 103767101.7037567 -6116246.840848846 -6116246.840848846 -6642491.512945266 0 0 0 0 0 104526080.4988099 -5021554.533349825 -5021554.533349825 -6313596.305178224 0 0 0 0 0 101800159.395532 -8735064.024468595 -8735064.024468595 -7306996.677347847 0 0 0 0 0 103008962.4667674 -7595696.735848255 -7595696.735848255 -7223759.609291233 0 0 0 0 0 103546018.4465702 -7965508.512258569 -7965508.512258569 -7789225.415379541 0 0 0 0 0 102006444.6155702 -9438627.275901737 -9438627.275901737 -7942783.066139423 0 0 0 0 0 102065862.6981939 -10978976.4935013 -10978976.4935013 -9118736.187193448 0 0 0 0 0 97709048.12257591 -14635149.17794274 -14635149.17794274 -9459313.678988403 0 0 0 0 0 99814021.84167768 -13225455.81880523 -13225455.81880523 -9559108.299222149 0 0 0 0 0 101045658.3405271 -13413618.96158605 -13413618.96158605 -10396116.87619257 0 0 0 0 0 98306766.92233859 -15630499.09041489 -15630499.09041489 -10596257.3594042 0 0 0 0 0 90561859.9566846 -17432658.6519972 -17432658.6519972 -8134123.044330307 0 0 0 0 0 94733172.83939293 -17029253.82744212 -17029253.82744212 -9933662.042075155 0 0 0 0 0 90265961.88969561 -19012012.29716839 -19012012.29716839 -9380392.34709732 0 0 0 0 0 2833066.827290558 -3563435.02422426 -3563435.02422426 -2653845.863737203 0 0 0 0 0 38835526.34478989 -18519992.80529783 -18519992.80529783 -7648615.013346933 0 0 0 0 0 28787305.81643255 -26407549.77430847 -26407549.77430847 20982422.96042084 0 0 0 0 0 58983354.61495434 -32379773.34339685 -32379773.34339685 -19291847.88592411 0 0 0 0 0 66910670.23862179 -32928161.96488412 -32928161.96488412 -15967616.02444038 0 0 0 0 0 73706990.79435116 -31885757.91618484 -31885757.91618484 -19696133.08521927 0 0 0 0 0 64855029.37371255 -31895453.31467098 -31895453.31467098 -15778330.40818952 0 0 0 0 0 76642828.17373027 -31643597.9018219 -31643597.9018219 -17939374.34635198 0 0 0 0 0 76941705.70218422 -30112428.06063859 -30112428.06063859 -16749179.29116018 0 0 0 0 0 70885645.9519283 -27801902.46530136 -27801902.46530136 -11311456.48510128 0 0 0 0 0 79957013.9912921 -28065652.63595378 -28065652.63595378 -14515742.32961605 0 0 0 0 0 80110984.25854777 -26134287.85711323 -26134287.85711323 -12635984.27677806 0 0 0 0 0 76265030.07265285 -23003187.75654757 -23003187.75654757 -7733081.520525215 0 0 0 0 0 82800676.31891003 -23734930.50273634 -23734930.50273634 -10846796.79449003 0 0 0 0 0 83117546.94767974 -21797276.84944357 -21797276.84944357 -9179871.585194776 0 0 0 0 0 103884661.4537948 -4947798.675309864 -4947798.675309864 -5911146.900459815 0 0 0 0 0 101358760.7854161 -7579742.05341981 -7579742.05341981 -6225751.65113851 0 0 0 0 0 102788263.1617095 -7018035.750323863 -7018035.750323863 -6683137.096186563 0 0 0 0 0 102337599.3274634 -6677953.143944794 -6677953.143944794 -6185106.067897212 0 0 0 0 0 101579460.0904741 -8157403.038944202 -8157403.038944202 -6766374.164243178 0 0 0 0 0 98091150.21916007 -10978722.67210127 -10978722.67210127 -6802453.808142588 0 0 0 0 0 100151940.0273842 -10560456.59971808 -10560456.59971808 -7690511.631536796 0 0 0 0 0 99945654.80734605 -9856893.348284934 -9856893.348284934 -7054725.242745218 0 0 0 0 0 97497833.36660016 -12804305.76310063 -12804305.76310063 -7882879.226199159 0 0 0 0 0 99708414.46368979 -12310034.11138417 -12310034.11138417 -8770891.072827527 0 0 0 0 0 99855281.60110423 -11473248.14521775 -11473248.14521775 -8230724.34056508 0 0 0 0 0 97603440.74458803 -13719727.47052168 -13719727.47052168 -8671096.452593781 0 0 0 0 0 94135454.03963026 -16033903.91496997 -16033903.91496997 -8796718.361659355 0 0 0 0 0 81578543.69008853 -18979309.65269688 -18979309.65269688 -5889469.939931769 0 0 0 0 0 86070201.82338658 -18205984.15234704 -18205984.15234704 -7011796.49213104 0 0 0 0 0 85774303.75639758 -19785337.79751822 -19785337.79751822 -8258065.794898052 0 0 0 0 0 28648404.92301124 -25354253.26563242 -25354253.26563242 -23145784.42239664 0 0 0 0 0 15740735.8751509 -14458844.14492834 -14458844.14492834 -12899815.14306692 0 0 0 0 0 51743195.39265024 -29415401.92600191 -29415401.92600191 -17894584.29267665 0 0 0 0 0 43815879.76898279 -28867013.30451464 -28867013.30451464 -21218816.15416037 0 0 0 0 0 61919191.99433345 -32137613.32903392 -32137613.32903392 -17535089.14705681 0 0 0 0 0 67870337.66282043 -29848677.88998617 -29848677.88998617 -13544893.4466454 0 0 0 0 0 73575338.01229057 -25402545.11092446 -25402545.11092446 -9522269.002813246 0 0 0 0 0 78921786.88137069 -20991248.70462222 -20991248.70462222 -6811275.730228493 0 0 0 0 0 98452460.31927523 -9338064.275948027 -9338064.275948027 -5783155.366361609 0 0 0 0 0 100126309.8574036 -9036564.150208309 -9036564.150208309 -6545076.021854728 0 0 0 0 0 99905610.55234568 -8458903.164683918 -8458903.164683918 -6004453.508750059 0 0 0 0 0 98271805.26921764 -10158393.47402465 -10158393.47402465 -6292804.587252099 0 0 0 0 0 97794491.79288012 -11891514.21760095 -11891514.21760095 -7342666.517170874 0 0 0 0 0 91640464.60205592 -14827352.28611575 -14827352.28611575 -6476174.315047218 0 0 0 0 0 94674756.36231592 -14731250.73202924 -14731250.73202924 -7967743.99701781 0 0 0 0 0 94569148.98432803 -13815829.02460819 -13815829.02460819 -7179526.770623188 0 0 0 0 0 91101162.27937028 -16130005.46905648 -16130005.46905648 -7305148.679688763 0 0 0 0 0 84224695.11337626 -15617021.8252856 -15617021.8252856 -4110294.291111327 0 0 0 0 0 82901619.4017324 -17298165.73899124 -17298165.73899124 -4999882.115521548 0 0 0 0 0 87393277.53503044 -16524840.23864141 -16524840.23864141 -6122208.667720818 0 0 0 0 0 -6656486.3128762 14739439.04082602 14739439.04082602 -67325924.53251635 0 0 0 0 0 10995959.30506752 -5307407.112403204 -5307407.112403204 -45235854.4774565 0 0 0 0 0 -1911709.742792821 5588002.008300882 5588002.008300882 -34989885.19812677 0 0 0 0 0 37900221.60503589 -28503023.47400294 -28503023.47400294 -16449612.55076957 0 0 0 0 0 48441788.10999513 -30441398.4086999 -30441398.4086999 -17870730.21834684 0 0 0 0 0 33274313.26402357 -26928638.36981768 -26928638.36981768 -19797698.48658311 0 0 0 0 0 51377625.48937422 -30199238.39433696 -30199238.39433696 -16113971.47947955 0 0 0 0 0 48597785.47650605 -25572641.84220083 -25572641.84220083 -7854981.131362874 0 0 0 0 0 56726407.4251093 -28734047.57843591 -28734047.57843591 -11816655.7697762 0 0 0 0 0 59741715.71421718 -26687272.15375109 -26687272.15375109 -9583218.808232075 0 0 0 0 0 58341741.22763819 -21463561.0273257 -21463561.0273257 -3729982.671837037 0 0 0 0 0 64613693.58978326 -24632731.74631353 -24632731.74631353 -7520719.578469156 0 0 0 0 0 67303385.65014552 -22233374.39193664 -22233374.39193664 -5731532.096181126 0 0 0 0 0 68438834.95119891 -17465265.58037598 -17465265.58037598 -1605733.005841566 0 0 0 0 0 72351932.51192588 -20234226.66846178 -20234226.66846178 -4669407.263183391 0 0 0 0 0 75008689.32064372 -18222287.61653643 -18222287.61653643 -3747601.472886668 0 0 0 0 0 94515730.43662938 -10713898.94805222 -10713898.94805222 -4679598.986385678 0 0 0 0 0 96303440.32789472 -10846310.81007675 -10846310.81007675 -5741026.397264134 0 0 0 0 0 96484095.37795231 -10025981.61200012 -10025981.61200012 -5231377.176373644 0 0 0 0 0 92993528.81909025 -12622841.86218932 -12622841.86218932 -5384666.936974314 0 0 0 0 0 95245681.0928452 -12713573.81264497 -12713573.81264497 -6633773.081586737 0 0 0 0 0 95542339.51912516 -11800782.26714529 -11800782.26714529 -6093560.372558452 0 0 0 0 0 92316996.71057308 -13725097.07415253 -13725097.07415253 -5930420.626010766 0 0 0 0 0 87932579.8577161 -15222187.05570067 -15222187.05570067 -5293234.303079273 0 0 0 0 0 77529514.41922227 -15632440.86355705 -15632440.86355705 -2261790.946914672 0 0 0 0 0 79554029.0546554 -17305875.25812697 -17305875.25812697 -4075630.44342322 0 0 0 0 0 80877104.76629928 -15624731.34442133 -15624731.34442133 -3186042.619012999 0 0 0 0 0 6230247.652617628 -14394199.77274932 -14394199.77274932 -27028618.09327448 0 0 0 0 0 -213119.3301292853 172619.6340383533 172619.6340383533 -47177271.31289541 0 0 0 0 0 17439326.28781444 -19874226.51919087 -19874226.51919087 -25087201.25783556 0 0 0 0 0 22065234.62882676 -21448611.62337613 -21448611.62337613 -21739115.32202202 0 0 0 0 0 43249003.54077098 -27037832.65810189 -27037832.65810189 -12152296.84106622 0 0 0 0 0 53469763.35207213 -23518101.43476327 -23518101.43476327 -5792481.901599956 0 0 0 0 0 63390288.08941855 -19464413.30385084 -19464413.30385084 -2667857.838839301 0 0 0 0 0 72984174.68521059 -16548853.22196652 -16548853.22196652 -1933761.976378119 0 0 0 0 0 93754629.6278598 -11668370.40512077 -11668370.40512077 -5032132.961679996 0 0 0 0 0 87039836.45426956 -13232050.97271181 -13232050.97271181 -3315898.695379709 0 0 0 0 0 89340150.52816275 -14029701.62941378 -14029701.62941378 -4896036.505213464 0 0 0 0 0 90016682.6366799 -12927446.41745056 -12927446.41745056 -4350282.816177011 0 0 0 0 0 85632265.78382292 -14424536.3989987 -14424536.3989987 -3713096.493245518 0 0 0 0 0 79818908.60077323 -12482635.27598074 -12482635.27598074 -662334.1362784054 0 0 0 0 0 78674211.50999776 -14057538.0697689 -14057538.0697689 -1462062.541596539 0 0 0 0 0 82021801.85707474 -14049828.55063317 -14049828.55063317 -2386314.213694867 0 0 0 0 0 -6539966.775482418 4732273.99172214 4732273.99172214 -90746490.96312468 0 0 0 0 0 -154859.5614323942 -4830962.890513589 -4830962.890513589 -58887554.52819958 0 0 0 0 0 -6598226.54417931 9735856.516274083 9735856.516274083 -79036207.74782053 0 0 0 0 0 23544247.06402816 -16939533.76609313 -16939533.76609313 -9441557.210099503 0 0 0 0 0 30722234.33453203 -22721278.62004804 -22721278.62004804 -12945584.88043454 0 0 0 0 0 14887247.3583229 -15666866.76942123 -15666866.76942123 -18235087.65168699 0 0 0 0 0 36071016.27026711 -21256087.80414698 -21256087.80414698 -8648269.170731189 0 0 0 0 0 38847450.539913 -13778412.78902908 -13778412.78902908 -904245.8044967869 0 0 0 0 0 43722618.00820953 -19675527.31561495 -19675527.31561495 -4379613.467929831 0 0 0 0 0 48594595.8837756 -17620986.90817739 -17620986.90817739 -2317114.238166912 0 0 0 0 0 51436838.1072739 -10626748.97087698 -10626748.97087698 2214676.449073 0 0 0 0 0 54889289.66745605 -16045154.99910134 -16045154.99910134 -757653.1113820181 0 0 0 0 0 59937836.52923641 -14046007.27562648 -14046007.27562648 304471.7216157173 0 0 0 0 0 71501096.68643314 -11936898.48721352 -11936898.48721352 1044862.049871135 0 0 0 0 0 74515305.55282772 -13784669.67538529 -13784669.67538529 -608464.4485217687 0 0 0 0 0 69969965.81881602 -14701082.03379475 -14701082.03379475 -280435.4779852157 0 0 0 0 0 89685682.5919887 -11255753.64023374 -11255753.64023374 -2902106.412817169 0 0 0 0 0 91339605.70553946 -11939297.75121153 -11939297.75121153 -4143386.674895742 0 0 0 0 0 92100706.51430903 -10984826.29414298 -10984826.29414298 -3790852.699601423 0 0 0 0 0 88362759.52312914 -12243902.30647277 -12243902.30647277 -3109002.554098439 0 0 0 0 0 83429372.5275214 -12857343.12434627 -12857343.12434627 -1989116.415829058 0 0 0 0 0 75660002.64360318 -12209766.88159713 -12209766.88159713 191263.9567963644 0 0 0 0 0 1739421.453579913 -345153.3597518809 -345153.3597518809 -20377451.35025712 0 0 0 0 0 3984834.553098771 -7369676.566250599 -7369676.566250599 -23703034.7217658 0 0 0 0 0 -2400272.660951253 2193560.315985131 2193560.315985131 -55561971.1566909 0 0 0 0 0 12641834.25880404 -8642343.562922508 -8642343.562922508 -14909504.28017831 0 0 0 0 0 31195848.80197058 -15358973.27756111 -15358973.27756111 -5172901.507298145 0 0 0 0 0 45142144.32359345 -12202580.87995303 -12202580.87995303 655215.3222881069 0 0 0 0 0 62116805.92203023 -9352023.704240493 -9352023.704240493 2868347.862034712 0 0 0 0 0 56776822.01465207 -9989386.337558739 -9989386.337558739 2541512.155553856 0 0 0 0 0 65277820.43661458 -13408644.64230824 -13408644.64230824 631307.4280965729 0 0 0 0 0 66808951.30423169 -10644461.09572701 -10644461.09572701 1956604.955952923 0 0 0 0 0 84529296.13591674 -10493931.19347862 -10493931.19347862 -670505.3334147228 0 0 0 0 0 85784566.29509315 -11862991.08309521 -11862991.08309521 -1993202.014397216 0 0 0 0 0 87107489.36395271 -10874842.41685618 -10874842.41685618 -1786305.873115946 0 0 0 0 0 82174102.36834496 -11488283.23472968 -11488283.23472968 -666419.7348465644 0 0 0 0 0 74242010.45733187 -8079813.942962815 -8079813.942962815 2400278.89415263 0 0 0 0 0 72871553.57188249 -10008356.21508817 -10008356.21508817 1722570.472011882 0 0 0 0 0 77030459.52905253 -10281224.60947178 -10281224.60947178 868972.3789371117 0 0 0 0 0 23730439.04186469 -59400.38003534088 -59400.38003534088 -2732078.0573602 0 0 0 0 0 23637343.05294643 -8499467.07306424 -8499467.07306424 -6086817.633729853 0 0 0 0 0 12734930.2477223 -202276.8698936106 -202276.8698936106 -11554764.70380866 0 0 0 0 0 31288944.79088885 -6918906.584532211 -6918906.584532211 -1818161.930928493 0 0 0 0 0 41023796.56568439 36318.40973690364 36318.40973690364 2619819.399715181 0 0 0 0 0 39935623.55279869 -6871047.189646089 -6871047.189646089 857786.7976091972 0 0 0 0 0 46230317.33647914 -5295215.28057004 -5295215.28057004 2417247.924394091 0 0 0 0 0 53522384.55048413 -134798.3101634876 -134798.3101634876 4207583.311789986 0 0 0 0 0 57819595.23625718 -4743411.00720199 -4743411.00720199 3537965.586912349 0 0 0 0 0 52479611.32887901 -5380773.640520236 -5380773.640520236 3211129.880431493 0 0 0 0 0 68117482.30102217 -5739339.467595267 -5739339.467595267 3584830.510432927 0 0 0 0 0 69809289.49372765 -8838118.977404395 -8838118.977404395 2314846.280152031 0 0 0 0 0 65117144.11152621 -7545681.585917881 -7545681.585917881 3226589.186233819 0 0 0 0 0 79581612.08954473 -8246006.920088733 -8246006.920088733 1590426.806822111 0 0 0 0 0 79700260.34515896 -10364321.09803474 -10364321.09803474 464046.3352718525 0 0 0 0 0 82055454.11273073 -9369969.056783676 -9369969.056783676 459960.7367036938 0 0 0 0 0 76911811.27343827 -8162910.431525772 -8162910.431525772 1995352.85048737 0 0 0 0 0 71179746.37917702 -6909576.705279041 -6909576.705279041 2992554.702292779 0 0 0 0 0 32377117.80377454 -11540.98514921837 -11540.98514921837 -56129.32882250939 0 0 0 0 0 47273090.55808426 -49239.95021329177 -49239.95021329177 3413701.355752584 0 0 0 0 0 62776685.29585422 42863.58613443871 42863.58613443871 4467384.423248341 0 0 0 0 0 62446745.60894223 -4654580.059053027 -4654580.059053027 3667866.142641527 0 0 0 0 0 58149534.92316918 -45967.3620145243 -45967.3620145243 4337483.867519164 0 0 0 0 0 65447083.79843819 -2848237.940730414 -2848237.940730414 4026107.466840634 0 0 0 0 0 76217042.66772783 -4546410.239506007 -4546410.239506007 3268416.584982602 0 0 0 0 0 75229526.56252983 -6313112.091234411 -6313112.091234411 2834347.739567616 0 0 0 0 0 77899327.37863627 -6396208.57979737 -6396208.57979737 2429421.695902356 0 0 0 0 0 72218763.5090961 -3937848.800400328 -3937848.800400328 3680046.644076104 0 0 0 0 0 70168122.90505914 -4838594.133997798 -4838594.133997798 3632438.577254516 0 0 0 0 0 73230386.98321399 -6008831.371681571 -6008831.371681571 3040162.769114367 0 0 0 0 0 69885964.37832078 43045.1838829343 43045.1838829343 4161534.536867722 0 0 0 0 0 69001723.33967149 -2848147.141856167 -2848147.141856167 3873182.523650325 0 0 0 0 0 66331324.83708751 42954.38500868662 42954.38500868662 4314459.480058032 0 0 0 0 0 74217903.08841196 -4242129.519953168 -4242129.519953168 3474231.614529353 0 0 0 0 0 71052363.94370845 -1947401.808258697 -1947401.808258697 3920790.590471913 0 0 0 0 0 74921002.66126029 75496.88181204432 75496.88181204432 3894978.21931091 0 0 0 0 0 73569883.0851782 -1931175.959294142 -1931175.959294142 3787512.431693507 0 0 0 0 0 75569022.66449405 -2235456.678846981 -2235456.678846981 3581697.402146756 0 0 0 0 0 72403483.51979053 59271.03284748931 59271.03284748931 4028256.378089316 0 0 0 0 0 </DataArray>
      </PointData>
    </Piece>
  </UnstructuredGrid>
</VTKFile>
