<?xml version="1.0"?>
<VTKFile type="UnstructuredGrid" version="2.2">
  <UnstructuredGrid>
    <Piece NumberOfPoints="1812" NumberOfCells="3467">
      <Points>
        <DataArray type="Float64" NumberOfComponents="3" format="ascii">0.3290772530756402 0.02466093080544897 0 0.33 3.963480440928215e-19 0 0.3477603422905585 0.01839861105341754 0 0.3548148148147337 4.630134921681266e-19 0 0.3507861334052509 0.04005222258411303 0 0.3672204995160676 0.0214932438341765 0 0.3263141726786754 0.04918394767636801 0 0.3796296296294943 4.635691842951552e-19 0 0.3448127603585294 0.06610442189858873 0 0.3780611605573652 0.0425232455597328 0 0.3919769333065202 0.02151903925177228 0 0.404444444444236 4.433514025652474e-19 0 0.3217262110736951 0.07343190797033794 0 0.3650109033840933 0.05964178392983693 0 0.4165442445722782 0.02058052294532029 0 0.429259259258989 4.480976873507073e-19 0 0.3391261126044723 0.09007757257192725 0 0.3649055898503318 0.08365216733339799 0 0.3864888727489889 0.06587686227335214 0 0.4058761818286127 0.04596939215959447 0 0.4405772947657787 0.02080084709985549 0 0.3153390260015788 0.09726920725684816 0 0.4285630946167989 0.03820887713581588 0 0.4540740740737054 4.732518429814173e-19 0 0.3313897820070589 0.1159582995615523 0 0.3533509462037516 0.1047617729990905 0 0.3914107554151015 0.09134599131653218 0 0.4098477245426513 0.07378689454961444 0 0.428431598920234 0.05863137714667976 0 0.466852549243945 0.02196851156224951 0 0.4480127478803628 0.04291429821036039 0 0.3071883371964377 0.1205625376743858 0 0.3729245579637737 0.1079930397932544 0 0.4788888888884407 3.125466872942091e-19 0 0.3169894199718211 0.1387378323742147 0 0.3551548351400843 0.1251882976242687 0 0.4149291095989798 0.09936475714925143 0 0.3964254772509267 0.1158107081002692 0 0.4334400653383185 0.08289615664424298 0 0.4522340780300758 0.06660495341394825 0 0.4912962962958273 0.01450852355969636 0 0.4708385766176656 0.04956002347906796 0 0.5037037037032137 4.758940736231984e-19 0 0.297319726619258 0.1431816334696936 0 0.3381281364473843 0.1417027333316622 0 0.3779400200285454 0.1323558881973517 0 0.4916193393547786 0.03491121915192943 0 0.5155147264493946 0.02209116480758801 0 0.3076477269636629 0.1624242386286197 0 0.3256145625129711 0.1581321093557302 0 0.3593233659322229 0.1490653393899266 0 0.4384446285536586 0.1071604122177423 0 0.4199361642825133 0.1236123261958419 0 0.4014488670649475 0.1400839342300094 0 0.4569596620756636 0.09069448160533504 0 0.4754804443950109 0.07422038363777614 0 0.4938730199048005 0.0581428547956639 0 0.528518518517892 4.629338550052431e-19 0 0.2857883835153975 0.164999999538352 0 0.3427596712612405 0.165791343527768 0 0.382932978999989 0.156603801948471 0 0.5105263283628496 0.04530514595357992 0 0.5409271608251781 0.02148954704998107 0 0.5533333333326754 4.377411766758892e-19 0 0.2973950200830063 0.1848972762637482 0 0.3225478579207471 0.1820043989163864 0 0.3642198883290629 0.173633414191809 0 0.4619603416931679 0.1149647770553633 0 0.443448356617725 0.1314306902588108 0 0.4249419354473413 0.1478986675760378 0 0.4064339139643389 0.1643630990332189 0 0.4804826420516641 0.09849633850217543 0 0.4990134146757 0.08202294354339054 0 0.5342389869493428 0.04587637116373335 0 0.5173855691559317 0.06550411984898495 0 0.5657407600236528 0.0203200943508097 0 0.2726587958555122 0.1858956186751646 0 0.3457277194962421 0.190697135196451 0 0.3878720693808646 0.1810194001096686 0 0.5538405116648928 0.03741161606973839 0 0.5781481481473866 4.575719282990269e-19 0 0.2855771411838928 0.2101435945636222 0 0.3090199521256669 0.2016582935559767 0 0.3271293505021492 0.2071132266495216 0 0.3691115430207552 0.1983427621748444 0 0.4669690804670152 0.1392322812528209 0 0.4854920779879627 0.122765886163247 0 0.448451079291724 0.1557030613108026 0 0.4299341026991274 0.1721686521936192 0 0.4114213047943107 0.1886231928901923 0 0.5040115358579572 0.1062970267608967 0 0.5225520835271635 0.0898153757609518 0 0.5411581918168265 0.07315698998008288 0 0.5594640016454443 0.05772361831126685 0 0.5905647037920245 0.02124064458802897 0 0.5760353844308248 0.04099873564183428 0 0.6029629629621371 4.467759533079095e-19 0 0.2580043896129065 0.2057516341137332 0 0.3505024454469453 0.2147945080109271 0 0.3928197339843232 0.2054138279563803 0 0.6147850966795247 0.0207394917559048 0 0.6277777777768812 4.243238582248624e-19 0 0.2660354752083495 0.2294035904898122 0 0.3095105846892885 0.2225772540929119 0 0.3315470401577503 0.2306871043840231 0 0.3741128864144215 0.2225193637513387 0 0.4719761752458377 0.1635070506703933 0 0.4905031301309138 0.1470339805126678 0 0.5090257377270574 0.1305709128955582 0 0.4534471286896889 0.1799734770973241 0 0.4349250294854343 0.196430402345225 0 0.4164118842229841 0.2128829309449493 0 0.5275762672643627 0.1140632179156658 0 0.5461520790886206 0.09748538663253746 0 0.5647167515539724 0.08095681941184016 0 0.5835061993874542 0.06435055757990224 0 0.603603149747014 0.0449001542187802 0 0.6389935515711936 0.01969725786343581 0 0.241907118200752 0.2244570029288625 0 0.2895171280496963 0.237776273081605 0 0.3555897160792276 0.2391239874341718 0 0.397780528194028 0.2297465081110407 0 0.6254137307624505 0.03715880521153149 0 0.6525925925915987 5.048767379961821e-19 0 0.2477497814038131 0.2484777948331383 0 0.2714181047242128 0.2559296731647976 0 0.3135612023329353 0.2471120632699129 0 0.3371029200933782 0.2555550241059145 0 0.3791268859013064 0.2467270796406775 0 0.4769763191459779 0.187794118611364 0 0.4955154421270966 0.1713139111474323 0 0.5140502559661636 0.1548365952468509 0 0.5325803252316178 0.1383587982966326 0 0.4584475874640624 0.2042510512426852 0 0.4399137625501234 0.2206934587113098 0 0.4213175571010658 0.237392427432306 0 0.551135842153761 0.1218518071474183 0 0.5697111576517748 0.1052963081152184 0 0.5882762940738012 0.08876926695240488 0 0.6068288941120609 0.07226935938244235 0 0.6262219233571706 0.05670904074539615 0 0.6649854432336193 0.02343654994834423 0 0.6455467477117766 0.04131957653036501 0 0.22445700400432 0.2419071172028733 0 0.2950911061181822 0.2641090809555036 0 0.3605777547330665 0.2633520910735562 0 0.4026083956222111 0.2543695373376331 0 0.6774074074063781 4.300913597468976e-19 0 0.2286900013370919 0.2656901975130598 0 0.2525403453415387 0.2732222059223987 0 0.2764973199697249 0.2805542187655543 0 0.3185984348893173 0.2719676429995195 0 0.342063182728248 0.2797835470453021 0 0.3840658430999134 0.2711555390534486 0 0.5005211120907931 0.1956065047283605 0 0.4819830695232343 0.2120751411741752 0 0.5190604087612075 0.1791261434602389 0 0.5375999295234831 0.1626421992328058 0 0.5561391558405527 0.1461554053229105 0 0.4634382223477083 0.2285453859970476 0 0.4448804873974853 0.2450512934300566 0 0.4262158747236888 0.2617756206105377 0 0.5747044892585571 0.1296314418938163 0 0.5932772187481489 0.1131002279582561 0 0.611839504664118 0.09658709893633118 0 0.6303914673611982 0.08008502031252557 0 0.6490641336929408 0.06403846605012915 0 0.6911864113281021 0.01996498724632402 0 0.6674100700402389 0.04874020447399105 0 0.2057516351193665 0.2580043888109407 0 0.3000337548840351 0.288383010769096 0 0.3655091041552008 0.2875162156121828 0 0.4075142723438999 0.2785055672440707 0 0.7022222222212797 3.768858900301765e-19 0 0.683560162709098 0.03819146930941937 0 0.2088575852771715 0.2817950579402376 0 0.2336318670569428 0.2897585344184831 0 0.2577718962753719 0.29742108706549 0 0.2814416487476838 0.3044737257683682 0 0.3234471018979397 0.2962310105124547 0 0.3470489792382189 0.3040158051398565 0 0.3889369708215286 0.295102155425485 0 0.5240670025708895 0.2034284760041239 0 0.5055237693597227 0.2199092667798214 0 0.4869799268080236 0.2363772162124963 0 0.5426060692224078 0.186939742013663 0 0.5611553769548022 0.1704500373351951 0 0.5797070956114482 0.1539476626527791 0 0.4684397526265293 0.2528396654522703 0 0.449908763620242 0.2693251419679204 0 0.4312779870997517 0.285912713956552 0 0.5982797686920621 0.1374259440782351 0 0.6168531621577599 0.1209017554752988 0 0.6354105645313254 0.1044028453174096 0 0.6539799724300271 0.08800438322933588 0 0.672469472363607 0.07158917043242669 0 0.714629629628724 0.01749517124036163 0 0.7044116995835512 0.04041201738612531 0 0.6906625935783904 0.05618246751530408 0 0.7270370370361676 3.768858900301765e-19 0 0.7518518518510555 4.365217721965796e-19 0 0.7394444444436118 0.02149026001989936 0 0.1858956196144319 0.2726587952151305 0 0.3048127041679842 0.3125861474902573 0 0.3705578259618474 0.3117405798810806 0 0.4126385077882504 0.3024926943503115 0 0.7642592592585037 0.02026348918001098 0 0.7766666666659507 4.629492140033958e-19 0 0.1873547267769993 0.2997702288298769 0 0.2143655087014811 0.3063187914065136 0 0.2392090145395759 0.3140144268447695 0 0.2626455874324278 0.3214602668243732 0 0.2861547377859903 0.3289637576199154 0 0.3282831037804361 0.320500934692416 0 0.3520102570076687 0.3282610642755303 0 0.3940806513322549 0.3192343444103095 0 0.5290733926024476 0.2277363574680981 0 0.5476239879106711 0.2112457213506971 0 0.5105240240917285 0.2442165355698687 0 0.4919788374860541 0.2606874598003158 0 0.5661743507078074 0.1947531631545617 0 0.5847289639695196 0.1782507555463701 0 0.6032907465045673 0.1617452811287552 0 0.4734411955162263 0.2771618106630103 0 0.4549050335438354 0.2936317920572637 0 0.436375671209584 0.3100956176552974 0 0.6218646104236432 0.1452246915548477 0 0.640425263469882 0.1287226467197892 0 0.6589894526036083 0.1122124484045718 0 0.6775417642535716 0.09575913774475452 0 0.6961153987166327 0.07919135904457505 0 0.7323344480306977 0.04475924833636961 0 0.7146736259056639 0.06268348218682315 0 0.7518518518510562 0.0357471157668899 0 0.789074074073402 0.0214902600199008 0 0.8014814814808532 1.840835598781431e-18 0 0.8511111111106725 -3.593450226931312e-19 0 0.875925925925582 3.465773815075085e-19 0 0.8642349252629359 0.02239881074473123 0 0.8389068005443953 0.01668091821077354 0 0.826296296295737 5.450625491461035e-19 0 0.8164218827675218 0.0253019889740515 0 0.1650000004140786 0.2857883830097965 0 0.3095158779118202 0.3369644455792936 0 0.3755935416461845 0.3359022887252776 0 0.4177896573070337 0.3266821528570411 0 0.7734607443995031 0.039959841486588 0 0.8883333333330138 0.01608823996309471 0 0.8410148017596474 0.03957286496020975 0 0.9007407407404482 3.465773815075085e-19 0 0.9255555555553578 3.540272661562686e-19 0 0.913256545510119 0.02213960461137841 0 0.1624140856898295 0.3096297665071095 0 0.1968718679678434 0.3222749352005131 0 0.2202679905903537 0.3302995652052024 0 0.2438297294324619 0.338240930807274 0 0.2674664978134838 0.345647672840423 0 0.2908134622526127 0.3534667924596017 0 0.3333240663104564 0.3447242420918695 0 0.3570454161774326 0.3524713822106875 0 0.3991633361203042 0.343538619168294 0 0.5526311324398021 0.2355617326658616 0 0.5340758390222056 0.252049776491689 0 0.571190505362915 0.2190648905508976 0 0.5155222759778809 0.2685402160668147 0 0.4969744511151041 0.2849983315997202 0 0.5897503239111941 0.2025639229100756 0 0.6083121105811379 0.1860582823807501 0 0.6268752328959984 0.169553054471469 0 0.4784002353656192 0.3015672815762395 0 0.4598747471597244 0.3179686431459852 0 0.4413689760614287 0.3343696468387066 0 0.6454378078729973 0.1530495528787476 0 0.6640004471696335 0.1365447067959722 0 0.6825656536645763 0.1200343787773243 0 0.7011306357429795 0.1035230865802935 0 0.7196929184340476 0.08701246763238236 0 0.7381502718698442 0.07051363686482594 0 0.7570779941622763 0.0554759994637733 0 0.7978753307413606 0.04457410093641027 0 0.8895138849828448 0.03586285761335464 0 0.8661342330349008 0.04655127814770891 0 0.9371185286786123 0.01643406614311053 0 0.950370370370224 3.540272661562686e-19 0 0.9751851851851336 3.917263456937006e-19 0 0.9604164173529303 0.0226197449238678 0 0.1431816342877394 0.2973197262253079 0 0.1784327828897505 0.3207063683733316 0 0.3145508252903745 0.3612203034781731 0 0.3805495922406977 0.3602796834535357 0 0.4227922470941285 0.3510075419151114 0 0.7806259563104215 0.06220808355254276 0 0.8216000083277614 0.05276026237308902 0 0.8462536963992723 0.0620193573193563 0 0.9359937546044309 0.03741098118030645 0 0.9818661039166056 0.01818407024132333 0 1 3.917263456937006e-19 0 0.1410187125783315 0.3219593476917741 0 0.1596306368966954 0.3330196511129248 0 0.178959913450931 0.3393369983281461 0 0.2018359521341633 0.3465257614711665 0 0.2252646310084213 0.3544542196516381 0 0.2487551675487775 0.3622349892112589 0 0.2722795886625021 0.3699290302598731 0 0.2957816799690199 0.377708647561572 0 0.3383752937541186 0.368958476309421 0 0.3618192501938983 0.3767697661262163 0 0.4041162520852193 0.3679293325438315 0 0.5761995634131734 0.2433877884755007 0 0.5576370559023731 0.2598862606506355 0 0.5390737389911615 0.2763877423346089 0 0.5947611299773875 0.2268873939250825 0 0.520506765161033 0.2929014506046859 0 0.5019280852997953 0.3094479827899598 0 0.6133212509537825 0.2103859093990888 0 0.6318847795260223 0.1938836883507083 0 0.650450034629468 0.1773794881146775 0 0.4832614789736361 0.3262548350041869 0 0.4646571233915242 0.3429106457977369 0 0.4461248050584989 0.359381713023375 0 0.6690153472674224 0.1608740104460699 0 0.6875786117838114 0.1443679846993359 0 0.7061454570424638 0.1278583620524827 0 0.7247112723663174 0.11134611739911 0 0.7432774208189062 0.09483335653366801 0 0.7618452238674752 0.07831726703593941 0 0.8040671634502812 0.06960899402962981 0 0.8932358480385251 0.06255374085947414 0 0.9136335572235774 0.05004009695940603 0 0.870489722745974 0.07136754625234719 0 0.9795377420586798 0.03825381024092724 0 1 0.02499999999995287 0 0.1205625383695983 0.3071883369235869 0 0.3194844102349648 0.3854794295319147 0 0.385442677220333 0.3845463616812941 0 0.4276267785630697 0.3757597408431024 0 0.7854337321723612 0.08613779333238081 0 0.8277957825782164 0.07726048065504423 0 0.8514827428287817 0.08509226346071952 0 0.9352152905893345 0.06248766295456605 0 0.9575671315417379 0.04977783338120936 0 0.1153279426828525 0.336012413988859 0 0.1391935554434067 0.3467590619949619 0 0.1604506364155789 0.3557439817754399 0 0.1833470876569236 0.3629246773030032 0 0.2068093876131531 0.3707497792482792 0 0.23029519428879 0.3785361892531146 0 0.2537851983676759 0.3863481420036806 0 0.2772824732849912 0.3941595415622989 0 0.300807931511865 0.4019637278999417 0 0.3428812062822165 0.3932915994965436 0 0.3666213154885916 0.4010710936058158 0 0.4090402226555248 0.3923546989329605 0 0.5997742890855456 0.2512140630295613 0 0.5812074644438786 0.267719074752945 0 0.5626399474279101 0.2842284720898994 0 0.5440677086981821 0.3007476626081341 0 0.6183333872847134 0.2347106244003826 0 0.5254613583802259 0.317339572168488 0 0.5068553731736788 0.3339334709279783 0 0.636895913886359 0.2182115885330546 0 0.6554636701263493 0.2017129918884271 0 0.6740317110256114 0.1852061092194791 0 0.4882093364445976 0.3506780717540458 0 0.469609825833974 0.3672229639900663 0 0.451082294722944 0.3836823812930408 0 0.6925890704452878 0.1686884078633445 0 0.711156735411102 0.1521905368282127 0 0.729719931231585 0.1356678617566468 0 0.7482970399607967 0.1191718262514591 0 0.7668658715475088 0.1026549753048071 0 0.8090892638827476 0.09388108384668306 0 0.9131448032517911 0.07932733074366775 0 0.8917698944093131 0.08219160458757215 0 0.8748190929372102 0.09375067264496986 0 0.9784800336079593 0.06272122387550884 0 1 0.04999999999989965 0 0.09726920781918053 0.3153390258281222 0 0.3243459006613066 0.4097649764401416 0 0.390277926993312 0.4088644186376985 0 0.4325735458286237 0.4001780082744086 0 0.7904610277625699 0.1104393685277462 0 0.8328141761228973 0.1015850698028329 0 0.8565482073811164 0.1092957859343451 0 0.9383777816389592 0.08867376418390695 0 0.9571684556330188 0.0743942333130789 0 0.09088202270384112 0.3391763252588055 0 0.1192670609572117 0.3629810116835155 0 0.141484165168862 0.3716276840463262 0 0.1648510897141037 0.3793361378455522 0 0.1883185800095777 0.3871526458207754 0 0.2117905148634212 0.394966152519339 0 0.2352688712691891 0.4027926232200001 0 0.2587777669153801 0.4106073483746668 0 0.2822935346856641 0.4184193635240298 0 0.3058225000716858 0.4262264574571055 0 0.3478770096022575 0.417570785348277 0 0.3715046898472574 0.4253680048038153 0 0.4139424361930027 0.4166701156320396 0 0.6047859649576531 0.2755467427788353 0 0.6233507879895807 0.2590395124505623 0 0.5862139185890767 0.292054324791441 0 0.567643268683414 0.3085572488410246 0 0.5490374285679154 0.3251508317255638 0 0.641910969251397 0.2425358611010147 0 0.530349350586803 0.3419302267732081 0 0.5117620136695129 0.3584792365212613 0 0.6604731690572219 0.2260511388694739 0 0.6790428907185289 0.2095389724661914 0 0.6976183741856941 0.1929953453139312 0 0.4931648628487288 0.3749983121768699 0 0.4745994341886962 0.3914140839202029 0 0.4560848446483141 0.4079188649836822 0 0.7161489248686773 0.1764744061788924 0 0.7347385472628795 0.1599630373107981 0 0.7533154524979635 0.1434816431502765 0 0.7718882531467618 0.1269980628228628 0 0.8141139211321767 0.1181781283419987 0 0.8987758629632716 0.1005957105551913 0 0.8801553088625975 0.117097954368688 0 0.9209945908090719 0.1066346801336122 0 0.9789285260356272 0.08687397750644049 0 1 0.07499999999985282 0 0.07343190839507768 0.3217262109767511 0 0.09856833527558083 0.3581691150677636 0 0.329348929467324 0.4340366488424355 0 0.3951162205551633 0.4331762371702663 0 0.4375585056697874 0.4244992664884041 0 0.7955185746908847 0.1347458817535492 0 0.8378519743358005 0.1259022094951245 0 0.8615497790705158 0.1336715981771326 0 0.9598465399105121 0.09913205665393421 0 0.9446335831732778 0.1147517096691806 0 0.06406863068888002 0.3456731966763422 0 0.0790726933584589 0.3639882737073947 0 0.1240002052495442 0.3876435943803863 0 0.09827580920965331 0.3817528354042413 0 0.146507645473521 0.395746892438638 0 0.169819616045836 0.403568949808732 0 0.1932908737484338 0.4113975068222209 0 0.2167699420100017 0.4192362505321509 0 0.2402614232974457 0.4270593853240711 0 0.2637713864643558 0.4348761564099787 0 0.2872935207330394 0.442690105906752 0 0.3108188327590737 0.4505049042838595 0 0.3528767787269951 0.4418491570785931 0 0.3764638734203427 0.449665157959188 0 0.4189120243359719 0.4409778255552058 0 0.6097944638527725 0.2998879753456527 0 0.6283708210119159 0.2833749233078766 0 0.6469410392275916 0.2668655428964726 0 0.591219313093129 0.3163907928819155 0 0.5726470790682174 0.3328872786529943 0 0.5540566647229483 0.3494367958719987 0 0.6655052316144522 0.2503665675585152 0 0.5352948954089146 0.36635332588274 0 0.5167376803125251 0.3827687495734698 0 0.6840689761179155 0.233867206957901 0 0.7026670241837659 0.2173179655306673 0 0.7212838763670747 0.2007374452006669 0 0.4982327290317946 0.3991602769419901 0 0.4797062171258887 0.4155664865267416 0 0.4611160500209806 0.4321986011143346 0 0.7398222890460221 0.1842414539724053 0 0.758386540288664 0.1677446126051957 0 0.7769498695938803 0.1512840584184919 0 0.8192927899910122 0.1424184707919865 0 0.9036060133361349 0.1245981076152737 0 0.8851075257055716 0.1411197837412661 0 0.9274295004909987 0.1318614580344534 0 1 0.09999999999981467 0 0.9797511356289614 0.1118027676995142 0 0.04918394795157357 0.3263141726371948 0 0.3343560053762801 0.4583184011639614 0 0.4003538050365805 0.4574620361275121 0 0.4425182873018103 0.4487745096171368 0 0.800642216469058 0.1590173929780209 0 0.8429364223141068 0.1502239181582554 0 0.8665008823105411 0.157983455440999 0 0.962977920288175 0.1232702243959762 0 0.9515738227516192 0.1392571593621231 0 0.03839907693726518 0.3519361876313311 0 0.05469448199863473 0.3699390237956708 0 0.07073102724879157 0.3883578467501009 0 0.1276699542868539 0.4122573012806752 0 0.1097924908798322 0.4031345907384096 0 0.1512208423759261 0.4200476872701572 0 0.1747435115760374 0.4278555505413202 0 0.1982393390795901 0.4356854404531669 0 0.221739147960874 0.4435104480863047 0 0.2452442282124253 0.4513348375264268 0 0.2687607906830984 0.4591544995014732 0 0.2922847931602404 0.4669750747755249 0 0.3158169243074883 0.4747928331116292 0 0.3579873038273714 0.4661206811986364 0 0.3816433454252693 0.4739326556440995 0 0.4239774044135646 0.465275889968002 0 0.6333814948899742 0.3077263502701703 0 0.6148020521007626 0.3242311698600224 0 0.6519660865974357 0.2912095449212652 0 0.6705426410688287 0.2746975446842512 0 0.5962217832093134 0.3407264756884943 0 0.577647543303988 0.3572262171495247 0 0.5589750485558675 0.3738757606252139 0 0.6891172266578214 0.2581917026817414 0 0.5403753418020057 0.3904664586643635 0 0.5218346211614494 0.4069887956573576 0 0.7076958581340057 0.2416600577187316 0 0.7262921695793785 0.2251087655265817 0 0.7449173306921847 0.2085503048466248 0 0.5033535585534796 0.4232252337972989 0 0.4847443318701202 0.4397995345928939 0 0.4661319647283492 0.4564509160121381 0 0.7635117250657313 0.1920179553020634 0 0.7820435006125144 0.1755477531849621 0 0.8243122323384034 0.1667927203023511 0 0.9090868195129675 0.148223415014632 0 0.8903434502373556 0.1652217953182105 0 0.93279324461769 0.1559121501855273 0 1 0.1249999999997738 0 0.9760818880138178 0.1395466186140394 0 0.0246609309410076 0.3290772530654815 0 0.08981445595792484 0.4050596014309591 0 0.3393996715587022 0.4825993537465608 0 0.4053241753922234 0.4817553074065661 0 0.4475437313226527 0.473014887360181 0 0.8057363315876532 0.1833154734167846 0 0.8479000304776806 0.1745446567126481 0 0.8716579911047824 0.1819588569840351 0 0.9579564497087876 0.1641613808417229 0 0.01840467357416554 0.3477661511690116 0 0.0368681824275823 0.3760889201784263 0 0.04723601827855266 0.3933675051415201 0 0.06209613988623113 0.4130185081326868 0 0.1069688165291733 0.4257523976790194 0 0.1326480233007362 0.4365162404567949 0 0.156175300575115 0.4443231987278488 0 0.1796955550125701 0.4521392662176059 0 0.2031970041696235 0.4599736205193997 0 0.2267153892320009 0.4677998681105762 0 0.2502348127180882 0.4756195118726352 0 0.2737485883460608 0.4834419806455224 0 0.2972750455414594 0.4912678239594332 0 0.3208161074897888 0.4990900286640176 0 0.3630593261672365 0.4903921712098094 0 0.3866957976961297 0.4982304333671038 0 0.4289836983067584 0.4895778093888185 0 0.656978655719491 0.3155651813803205 0 0.6383934661402706 0.3320771095746967 0 0.6198079475337973 0.348581429316602 0 0.675565996219776 0.2990428360271802 0 0.6941509010468224 0.2825255395105168 0 0.6012184369631388 0.3650753336362814 0 0.5826322925652182 0.3815804581769059 0 0.5639972723186633 0.3981409760705126 0 0.7127425477604944 0.2659897671929058 0 0.5454125330546156 0.4146711441768869 0 0.5269096882632823 0.4310912219344191 0 0.7313275680845165 0.2494496660638966 0 0.7499215086720743 0.2329133610630104 0 0.7685248661662826 0.2163839893744327 0 0.5083523634421144 0.4475555895671607 0 0.48974657928413 0.4641349946529016 0 0.4711228085704016 0.4807829687353806 0 0.7871315193001454 0.1998557308804348 0 0.8293279175988093 0.1911193659878628 0 0.9141003436236392 0.1726171638622248 0 0.8956071391666338 0.1894280968661062 0 0.9373017375337754 0.1804484831962166 0 1 0.1499999999997036 0 -3.9647864461662e-19 0.3300000000000001 0 0.01961697483078856 0.367623325370907 0 0.08324458500125045 0.4253954162437076 0 0.3444411951983681 0.5068898863163387 0 0.4104188363894256 0.5060849854145026 0 0.4525718370532545 0.4973376279754879 0 0.8106852661622576 0.2076180155142064 0 0.8531448667322522 0.1985881930665873 0 0.8769720503581012 0.2060642525660208 0 0.9816340229511492 0.1630391404180838 0 0.9551537078556818 0.1895113718309231 0 -4.225943785988627e-19 0.3548148148148881 0 0.02366547199876628 0.3934299386512742 0 0.03946641553820805 0.4109628226661957 0 0.06675850705545067 0.4380193197495473 0 0.1141103619768384 0.4529622438142493 0 0.1376267912104174 0.4607838857856336 0 0.09058500557747233 0.4451272542263262 0 0.1611370083275241 0.4686082794343558 0 0.1846466193002904 0.4764411947884737 0 0.2081773995062988 0.4842694373648354 0 0.2317070107661483 0.4920885720199665 0 0.2552289802128822 0.4999054358205581 0 0.2787225652067487 0.507739086506318 0 0.3022669212154292 0.5155702459598286 0 0.3258172564422752 0.523395705523035 0 0.3680169047173962 0.5146907255217029 0 0.3917121980852274 0.5225267550059424 0 0.4339897431838469 0.513890252819179 0 0.6805811231964262 0.3234016658754201 0 0.6619913436712915 0.3399256815421925 0 0.6434016558123772 0.3564408489542835 0 0.6248102909769229 0.3729376381858339 0 0.6991700225969415 0.3068785490846949 0 0.7177123314800805 0.290301871460064 0 0.6062216744079318 0.3894094465814317 0 0.5876385711105235 0.4059107198553349 0 0.5690824653555113 0.4223944508551398 0 0.7362982463825978 0.2737655536649066 0 0.5504887005961515 0.4389135520265803 0 0.5319267152922534 0.4553926915181561 0 0.7548873050131769 0.2572281183219419 0 0.7735171981369355 0.2407324007857291 0 0.7920911522194383 0.2241662235230579 0 0.5133631185334728 0.4719266182625534 0 0.4947531339376178 0.4885624100378835 0 0.4761447617730177 0.5051651097920901 0 0.8342860278121945 0.2151238423619227 0 0.9196171270837241 0.1968635406397503 0 0.9010085212086842 0.2135372750333493 0 0.9771947152846163 0.1875659834721558 0 0.9430558036989722 0.2047400567236996 0 1 0.1749999999996307 0 -5.098082410684017e-19 0.3796296296297977 0 0.04348039372306705 0.4299211580966208 0 0.3494130825254077 0.5312041428433014 0 0.4153873491178693 0.5303538448525936 0 0.4575577331997529 0.5217185536852725 0 0.8158282555344891 0.2316416965434485 0 0.8582276804855524 0.2226309149195793 0 0.8821861034507038 0.230242178526468 0 0.9616395598737415 0.20455621946396 0 -4.627884048370964e-19 0.4044444444446639 0 0.02148279520369024 0.419162565971419 0 0.04809908011042541 0.4537166734689868 0 0.07205009078900823 0.461579545239191 0 0.1190910212784755 0.4772386238602664 0 0.09557109104249639 0.4694116330158209 0 0.1425897024413112 0.4850516273750871 0 0.1661071006513714 0.492892308696283 0 0.1896127201496366 0.5007376405041146 0 0.2131762606468171 0.5085653678754556 0 0.236709891733869 0.5163902917752549 0 0.2602209172974992 0.524217046346142 0 0.283723891435523 0.5320481884892264 0 0.3072612340071453 0.5398819798871085 0 0.3308254908866375 0.5476932662161685 0 0.3730763178943322 0.5389967219618659 0 0.3968058176106002 0.546835784388528 0 0.4389884445912844 0.5382210931038974 0 0.6855989708005522 0.3477642031539331 0 0.7041376353251457 0.3311200307109858 0 0.6670053716359621 0.3642913702073435 0 0.6484130946674908 0.3808048244579846 0 0.6298304974460732 0.3972719722516865 0 0.7227331355390032 0.3144652778377005 0 0.7412026679735654 0.2978760864104023 0 0.6112513721788507 0.413723745830084 0 0.5926677726674391 0.4302332368044097 0 0.5740812582573307 0.4467332424883904 0 0.759942064410709 0.2813080440587959 0 0.5555039812914797 0.4632332270088725 0 0.5369286078397852 0.4797788314417522 0 0.7785534859770592 0.2647888799409275 0 0.7973224965620042 0.2482483868163189 0 0.5183972702741498 0.496325454487629 0 0.4997281145066587 0.513006144932068 0 0.4811285206919571 0.5295526495991241 0 0.8396991390470104 0.23915412967954 0 0.9256495817562213 0.2210819367510612 0 0.9057840375161945 0.2379309600792439 0 1 0.1999999999995579 0 0.9544360273899092 0.2278712338834097 0 0.9783575451395287 0.2130924514096117 0 0.02241547775361405 0.4457255982648827 0 0.3544929234157251 0.5555076971490535 0 0.420401405655734 0.554701299209581 0 0.4625401922116554 0.5460452665908497 0 0.8210769406332865 0.255770504654629 0 0.8634759150475421 0.2466816630039632 0 0.8871509135317561 0.2545207366891967 0 -4.828805141462467e-19 0.4292592592595735 0 0.05350969879468399 0.4780341553108908 0 0.03117837424801704 0.4716251531571973 0 0.07702974174530888 0.4858647390415279 0 0.1240227372404373 0.5015112577278066 0 0.1005436545860326 0.4936852161913819 0 0.1475181496827587 0.5093706765473315 0 0.1710529167628759 0.5171977391986126 0 0.1946011430714606 0.525046639001413 0 0.2181720997698946 0.5328778225435994 0 0.2417196191953195 0.5407058452307175 0 0.2652253062202882 0.5485386961200406 0 0.2887302582461858 0.5563581777308554 0 0.3122950084835824 0.5641693757672958 0 0.335936788499638 0.5720143961982155 0 0.3782091694143944 0.5633695962481244 0 0.401842928895319 0.5712148344703982 0 0.4439357847821789 0.5625426428886248 0 0.6906183858268521 0.3721310410513989 0 0.7092175522740416 0.3554253806231332 0 0.7279031377864201 0.3386443704541964 0 0.6720173024296744 0.3886630024976299 0 0.653425441182956 0.4051717093636941 0 0.6348302935024945 0.4216857305330097 0 0.7466133189901566 0.3218564495334593 0 0.7651453821305619 0.3054926412598749 0 0.6162311162040708 0.4382258585001619 0 0.5976325096608425 0.4547706042203195 0 0.5790482843371215 0.4712754639732569 0 0.7837244533485199 0.2889181845301051 0 0.560462293818452 0.4878018264892037 0 0.5419077942851339 0.5043189599485259 0 0.802410139944953 0.2723043579662008 0 0.5233209919065852 0.5208363392619576 0 0.5047068872232431 0.5373916561815187 0 0.4861079137346034 0.5538983097053296 0 0.8449183787024126 0.2633511564286316 0 0.9305265643014906 0.2455559707625413 0 0.9108327183427698 0.2623644192024103 0 1 0.224999999999485 0 0.9783493649054522 0.2374999999994485 0 -2.72646314896424e-19 0.454074074074455 0 0.01265633469797602 0.4664814814819018 0 0.3595795821704133 0.5798548466969164 0 0.4253508506926836 0.5789975465989978 0 0.4674844071790886 0.5704109193665746 0 0.8262832340088507 0.2799233004936347 0 0.868520095268991 0.2711060889572627 0 0.954878904464971 0.2534816535021241 0 0.8921968589228045 0.2789495630451255 0 0.0594065613627475 0.5023671740394664 0 0.03681559108962285 0.495672250285324 0 0.01627669664467032 0.4890828888974427 0 0.08194846435399185 0.5101678537652242 0 0.1054241643666082 0.5180187449207543 0 0.1288898268141743 0.5258796468518272 0 0.1524466141863824 0.5336914794343738 0 0.1759963665787632 0.5415429588093156 0 0.1996074171702327 0.5493610244371214 0 0.2231688021141407 0.5571983709670782 0 0.2467236727160513 0.5650313624364797 0 0.2702334784311505 0.5728715564868235 0 0.2938006997319547 0.5806870290777005 0 0.3173889939954087 0.5885064514685286 0 0.3410387320460618 0.5963547398913315 0 0.3832441340939857 0.587701327351574 0 0.4067757641642384 0.5955180652546541 0 0.44882727978363 0.5869353325432843 0 0.6956300929661642 0.3964988570600397 0 0.714276119874245 0.3798430592683468 0 0.733066240988437 0.3627830839267371 0 0.7516509436017379 0.3462160000931636 0 0.6770307788698663 0.4130332375277856 0 0.6584306801821375 0.429571488914069 0 0.6398281971402671 0.4460998818076379 0 0.7703381682778933 0.3296454947967 0 0.7889589940639473 0.3130702053432369 0 0.6212322891162608 0.4626312871049096 0 0.6026399433958881 0.4791617802848995 0 0.5840459106701787 0.4956840124977445 0 0.8076018241491715 0.2964304573393657 0 0.5654621349794288 0.5122088740850829 0 0.5468868887241906 0.5287164340017173 0 0.5282937438246087 0.5452320360795568 0 0.5096868087796788 0.5617501686361693 0 0.4910714853220878 0.5782565423657823 0 0.8498886459295708 0.2876983069602642 0 0.9345194777485992 0.2702151213417461 0 0.9158814000780667 0.2867976679274566 0 1 0.2499999999994121 0 0.978280388252987 0.2631802189185795 0 -3.506371682447711e-19 0.4788888888893493 0 0.3646638306366188 0.6042123497539433 0 0.4302775659102083 0.6034021462547107 0 0.4724237872403761 0.5947874221055779 0 0.8312622700746783 0.30427320549251 0 0.8735634203386862 0.295534560869598 0 0.9574466490171454 0.2775247331808742 0 0.8972434240563517 0.3033806937563712 0 0.06389556877225333 0.5265231357510568 0 0.04099107311904937 0.5200679840750896 0 0.0190502886292451 0.5128136781082065 0 -4.103866653674653e-19 0.5037037037042374 0 0.08679963481994654 0.5345199903933056 0 0.110340668385067 0.5423485045949811 0 0.1338657588989269 0.5502014820286015 0 0.1574265495312374 0.5580284091486785 0 0.1810083957513302 0.5658598353624222 0 0.2045895348301391 0.573693244280312 0 0.2281698323036109 0.5815232064281388 0 0.2517259396390925 0.5893631815382986 0 0.2752900119035216 0.5971918917205851 0 0.2988664473318793 0.6050247212921156 0 0.3225153188647178 0.6128792472419983 0 0.346087438344956 0.6207179956631809 0 0.3882365916310755 0.6120345960092012 0 0.4117502981503187 0.6198924221768082 0 0.4538012514709782 0.6113214063583158 0 0.7006184103527596 0.4208433247414494 0 0.7192898293899483 0.4042101690385272 0 0.7380781092423283 0.3872693207882336 0 0.756782725504198 0.3705049409137441 0 0.7753908214372121 0.3539800961765073 0 0.6820245809121561 0.4373891721689543 0 0.6634334018090881 0.4539337087516127 0 0.6448215061414202 0.4704483112863774 0 0.7940120218039455 0.3374112321240085 0 0.8126381387144195 0.3208394021630566 0 0.6262304832485388 0.4869828650288552 0 0.6076522706792747 0.5035278061321161 0 0.5890436962870514 0.5200305511581855 0 0.5704677989547996 0.5365706217217467 0 0.5518830807274955 0.5530827664410283 0 0.5332905129777327 0.5695984544352163 0 0.5146503095957985 0.5861240130496133 0 0.4960211723091589 0.6026480998374008 0 0.8549311942495412 0.3121155451040616 0 0.9387444297120942 0.2939171881517417 0 0.9209315166952791 0.3112313990808915 0 1 0.2749999999993392 0 0.9790846051735232 0.2878207790717968 0 0.3696849538685769 0.6285601831739577 0 0.4352321321658359 0.6278117203973524 0 0.4774116478877088 0.6191701858566511 0 0.8363009966088301 0.3286893589891072 0 0.8786061207988342 0.3199621939968615 0 0.9603158273593373 0.3018016466823144 0 0.9022882485031692 0.3278131821066076 0 0.06822075955823491 0.5510095643476173 0 0.04511196868381368 0.5448387735916179 0 0.02166646017661383 0.5381928926748673 0 -4.667449672414689e-19 0.5285185185191253 0 0.09175879248643939 0.5588491222944362 0 0.1153057155716078 0.566684204475628 0 0.1388603362264167 0.5745163882254712 0 0.1624346389646312 0.5823511690607923 0 0.1860165166400862 0.5901890665581354 0 0.2095923717648717 0.5980173841843811 0 0.2331702494407522 0.605858952295967 0 0.256750370710937 0.613699935189394 0 0.2803348035260436 0.6215434435860034 0 0.3039252896708921 0.6293865285206608 0 0.3275156694648217 0.637229277139977 0 0.3511056181234445 0.6450723876236383 0 0.3933174989802973 0.6363930910178787 0 0.4167657282703661 0.6442708012242271 0 0.4588056491022948 0.6356933648336645 0 0.7056733573641646 0.44505582983184 0 0.7243645772440818 0.4284263093068876 0 0.743078329876699 0.4116663470734739 0 0.7617903952407249 0.394998660072213 0 0.7804169156839805 0.37840782738368 0 0.7990430589076039 0.3618273053632355 0 0.6870513016184941 0.4616359429351973 0 0.668469630606757 0.4781649983992495 0 0.6498659372721041 0.4946973936934139 0 0.8176721370312984 0.3452562734455698 0 0.6312426367938166 0.5112531780854382 0 0.6126008152888996 0.5277728876676776 0 0.5940610821959522 0.5443210060637034 0 0.5754645160841025 0.5608894347805841 0 0.5568874390333316 0.5774474966715087 0 0.5382789556046588 0.5939695578431663 0 0.5196513875430734 0.6104954460879579 0 0.5010273338374926 0.6270200750039684 0 0.8599718367689306 0.3365398539376921 0 0.9433299950925366 0.3183333261875484 0 0.9259045111512834 0.335584568548027 0 1 0.2999999999992664 0 0.9793053585062566 0.3125293719473917 0 0.3747346193364651 0.6529071752675325 0 0.4402085177590328 0.6522064627881019 0 0.4824219054696667 0.6435476141322659 0 0.8413379607019836 0.3531183416933104 0 0.8836498532996082 0.3443905237040605 0 0.9631816573173331 0.3244480856044328 0 0.9072424377726558 0.3521364418539099 0 0.07332786377828847 0.575298379653724 0 0.04965995951471774 0.567480242832343 0 0.0249834466136083 0.5651528626093365 0 -5.382004201975752e-19 0.553333333334035 0 0.09674629113333985 0.5831635492489901 0 0.1202995322314759 0.5910010870880075 0 0.1438619260270901 0.5988369531349075 0 0.1674341096116265 0.6066763619351399 0 0.1910142718493342 0.6145146190024782 0 0.2145897866820808 0.6223551487168085 0 0.2381669067264795 0.6301995848411021 0 0.2617472225305263 0.6380451383868863 0 0.2853302738534718 0.6458941109732877 0 0.3089227236655345 0.653742750957645 0 0.3325253064840016 0.6615852543130245 0 0.3561435024972864 0.669420296188409 0 0.3983658381531883 0.6607359091990701 0 0.4217755321705908 0.6686470060548895 0 0.4638097301798895 0.6600735695466978 0 0.7108010400063445 0.4693270578475873 0 0.7294117247240505 0.4527426002303832 0 0.7481158117568694 0.4360395849256525 0 0.766816542352655 0.4194143902773143 0 0.7854405115607854 0.4028493619330692 0 0.8040719568823036 0.386271539570224 0 0.8227040856730495 0.3696960597727779 0 0.6921935356161348 0.4858525897164935 0 0.6735805317196339 0.502422497544296 0 0.6549639428832412 0.5189835335225862 0 0.6363420309394154 0.5355144200056595 0 0.6177833071746501 0.5519918237477425 0 0.5991257405618408 0.568636953615557 0 0.5804981324914821 0.5852355905919382 0 0.5618973407954219 0.6018174714202146 0 0.5432757029603912 0.6183425451920801 0 0.524654850950941 0.6348683856015193 0 0.5060449438615434 0.6513999900007929 0 0.8650133327288215 0.360969831523728 0 0.9531236649677879 0.3442266817912836 0 0.9305828502323457 0.3600532203643892 0 1 0.3249999999991935 0 0.9783493649054522 0.337499999999157 0 0.37976153145563 0.6772665981490399 0 0.445218410228413 0.6765827080334709 0 0.4874325970471131 0.6679314364763976 0 0.8463760247410618 0.3775511812289832 0 0.8886951414929455 0.3688217870948847 0 0.9118292369950952 0.3759890111440766 0 0.07818058966719027 0.5996435249157955 0 0.05540079030980872 0.5916442742831634 0 0.03838623718898841 0.5824496453057706 0 -4.470718343595266e-19 0.5781481481489229 0 0.1017345219090115 0.6074844702252006 0 0.1252947759976517 0.6153252171622717 0 0.1488627021432321 0.6231658900264534 0 0.1724352512524938 0.6310073339478939 0 0.1960101373004101 0.6388506250090223 0 0.2195821933944969 0.6466922125729972 0 0.2431523941232186 0.6545439789138249 0 0.2667318254315694 0.6624017651405384 0 0.2903236403605666 0.6702533133055604 0 0.3139230764078482 0.678105302628867 0 0.3375365177192305 0.6859505507139365 0 0.3611532981919824 0.6937965450147711 0 0.4033793584280095 0.6851146518424078 0 0.4267869831139908 0.6930374461193748 0 0.4688143396576477 0.6844621815144964 0 0.7345649575848195 0.4770313415892311 0 0.715911363130404 0.4936440427823793 0 0.753212119739653 0.460395018036497 0 0.7718438659668442 0.4438247237915237 0 0.7904723633719652 0.4272681592662371 0 0.8091054078411366 0.4107042650678926 0 0.8277394582686749 0.3941301941491444 0 0.6973216157707713 0.5101406465108457 0 0.6786861027901733 0.5267336425537018 0 0.6600664177843051 0.5432800692530083 0 0.6414579396281882 0.5598002138991411 0 0.6228064378481597 0.5763694828691406 0 0.6041409675766989 0.5930143836402342 0 0.5855204742135039 0.6096386096011653 0 0.5669079556584625 0.6261935447424415 0 0.5483026600023247 0.642721271150267 0 0.5296780944562514 0.6592536045050564 0 0.5110614215785023 0.6757887281097951 0 0.8700545744599018 0.3854010696095286 0 0.9759124781737945 0.360856907644136 0 0.9521705116159291 0.3714799610271255 0 0.9326759828065195 0.3807850395286783 0 1 0.3499999999991206 0 0.02075322665498634 0.5921571194528481 0 0.3847730366458322 0.7016477224027958 0 0.4502085299801141 0.7009834057249427 0 0.4924417505775523 0.6923227999562013 0 0.8514155483601389 0.4019802006026212 0 0.8937386311899413 0.3932537459647111 0 0.9205253414277579 0.4004712168232333 0 0.08316705355004718 0.6239649230399691 0 0.06038843474089779 0.6159643402682691 0 0.03988365789851508 0.605514568233554 0 -4.401687625195474e-19 0.6029629629638108 0 0.1067245716698605 0.6318118969259948 0 0.1302861626406518 0.6396565226927227 0 0.1538560798783825 0.6475000906546177 0 0.177429803313966 0.6553446647663955 0 0.2010041757305205 0.6631885324842871 0 0.2245677744624026 0.6710469287795714 0 0.2481291040693195 0.6789077388401683 0 0.2717083176523139 0.686766310423504 0 0.2953166513230287 0.6946232392850149 0 0.3189273278311548 0.7024714852203655 0 0.3425418151169876 0.710321757154695 0 0.3661632670696052 0.7181777851752489 0 0.4083741369504624 0.7095025923552656 0 0.431792832847068 0.717431509186042 0 0.4738192410578559 0.7088551908740551 0 0.7582329148794614 0.4848457527928728 0 0.7395977487247378 0.5014290582719352 0 0.7209687843961012 0.5179901733861971 0 0.7768680722122887 0.4682572252873384 0 0.7955036770030257 0.4516974437779702 0 0.8141385724700801 0.4351276641694066 0 0.8327767604527331 0.4185595385116758 0 0.7023420748730158 0.5345451230923752 0 0.6837181060577385 0.5510980167532773 0 0.6650954260860554 0.5676496129576578 0 0.6464756228838013 0.5841892860205145 0 0.6278437904717107 0.6007553090477934 0 0.6091968818772852 0.6173828206069084 0 0.5905361402522432 0.6340417618833772 0 0.5719244862549815 0.6505749868762685 0 0.5533107356452442 0.667109201283317 0 0.5346929400415403 0.6836440951755387 0 0.516072680020112 0.7001824456824616 0 0.8750980140692401 0.4098353720027987 0 1 0.3749999999990478 0 0.9753264527031406 0.385847313284891 0 0.9482719737614708 0.3959317882845669 0 0.02043278371159229 0.6169019114365836 0 0.3897881576540718 0.7260338366845781 0 0.4552264080966278 0.7253703513636246 0 0.4974493922164513 0.7167186024500982 0 0.8564543810865807 0.4264138926801548 0 0.898589091072043 0.4179891175995042 0 0.9374829460293037 0.4154585788044616 0 0.08798693052857362 0.6482029125836934 0 0.06472843152490766 0.6404172100294033 0 0.04194071194350339 0.6296198354088209 0 -4.291744270554547e-19 0.6277777777786987 0 0.1117082054575221 0.6561448476330706 0 0.135277269657037 0.6639911897003149 0 0.1588494412395862 0.6718370785008787 0 0.1824246205872022 0.6796871404430678 0 0.2059893219874037 0.6875358339623557 0 0.2295494574694565 0.695413275903795 0 0.2531118814613222 0.7032837992115549 0 0.2767075885434211 0.71114249448416 0 0.3003184907848835 0.7189921806593648 0 0.3239217094384719 0.72684285698634 0 0.3475443955216395 0.7347018222577462 0 0.3711721311472348 0.7425684700838106 0 0.4133750153884546 0.7338794850891992 0 0.4367859235527586 0.7418157744638462 0 0.4788276550908763 0.7332520901675509 0 0.7632519454924658 0.509290897812643 0 0.7818916095477957 0.49271273631707 0 0.7446199854045628 0.5258478994415462 0 0.7259893538767105 0.5424002128675841 0 0.8005288092243438 0.4761416799589274 0 0.8191703787726331 0.4595652101943881 0 0.8378125250940236 0.4429933581209849 0 0.7073634266680984 0.5589540464797527 0 0.6887315236904955 0.5755230955312326 0 0.6701082738607773 0.5920676642980007 0 0.6514871861597039 0.6085975262734279 0 0.6328412578748751 0.625208500979454 0 0.6141836362346647 0.6418551812411641 0 0.5955529026734456 0.6584310605833048 0 0.5769368974438647 0.6749619895603549 0 0.5583215900635802 0.6915002606135723 0 0.539707845349117 0.7080421403757226 0 0.5210804196182607 0.7245844938642947 0 0.8801389300647815 0.4342712322213128 0 1 0.3999999999989749 0 0.9756037526676504 0.4118152227554959 0 0.9213103396682539 0.4273419196628803 0 0.9548932158404102 0.4205568438126591 0 0.01992242291882586 0.6404324285070512 0 0.3947719414038556 0.7503947984605072 0 0.4602296618279889 0.7497682927832648 0 0.5024473739345889 0.7411263537713156 0 0.8614914529695862 0.4508500196970016 0 0.9038321410407988 0.4421283793861039 0 0.9440994591673879 0.4375111603718728 0 0.0684543395299238 0.664245243714781 0 0.09291860411778395 0.6725280948757518 0 0.04453978177836572 0.6544745428854658 0 -4.834140132190953e-19 0.6525925925936004 0 0.1166986267346086 0.6804814578836577 0 0.1402684416348842 0.6883266958876695 0 0.1638159760556962 0.6961666426686377 0 0.18736998309911 0.7040338177617562 0 0.2109353118360714 0.7119170212557809 0 0.2345043389913581 0.7197926524340628 0 0.25809664260701 0.7276655325376629 0 0.2817107237837704 0.7355175210339725 0 0.3052826078436244 0.743354075761527 0 0.3289156195325418 0.7512158208643421 0 0.3525284888161149 0.759101344111881 0 0.3761808199352289 0.766967126995684 0 0.4182320584903965 0.7583209355123095 0 0.4416067571987429 0.7662785430898098 0 0.4837938534117456 0.7576737497629482 0 0.7869161514642252 0.51715232075046 0 0.7682792240767599 0.5337144185791692 0 0.8055599728586708 0.5005804606157079 0 0.7496433710053342 0.5502765145847826 0 0.7310104436712932 0.5668089734082306 0 0.8242034525305254 0.4840049923478297 0 0.8428475675109482 0.4674283565715802 0 0.7123736745592129 0.5834003810915358 0 0.693721874834086 0.6000043330977101 0 0.675090057078553 0.6165768555725247 0 0.6564536625284824 0.6331457147102527 0 0.6378267252152968 0.6497001678135367 0 0.6191902190074561 0.666281988194575 0 0.6005696847183914 0.6828148294302177 0 0.5819615507483389 0.699351369834717 0 0.5633539621017442 0.7158977489795554 0 0.5447245278097893 0.7324470084791915 0 0.5260894349271272 0.7489948521171799 0 0.8851786503831663 0.4587131670692922 0 1 0.4249999999989021 0 0.9721633022313162 0.4381861634066376 0 0.9271590142243279 0.451108985530584 0 0.02244024296208421 0.6654433106631751 0 0.3997265930613653 0.7748024374980461 0 0.4651437450243828 0.774228414009499 0 0.5074490618191403 0.7655436525360297 0 0.8665279863862101 0.475287070416319 0 0.9088681796689149 0.4665741416420401 0 0.9524085324875775 0.4573430387231406 0 0.04561500420768735 0.6805406386002657 0 0.07455133293969705 0.6891220499865387 0 0.09811218951637864 0.6969720574527707 0 -4.137738907523005e-19 0.6774074074084014 0 0.1216762774909054 0.7048080632944981 0 0.1451988305909639 0.7126692140983959 0 0.1687467165260395 0.7205563307052553 0 0.192308325507287 0.7284210671335972 0 0.2158904439618135 0.7363054803391195 0 0.2394737538904325 0.7441820301941526 0 0.2630566931569376 0.7519940352114608 0 0.2865177321578201 0.7598723949557622 0 0.3101677546954226 0.767759460013749 0 0.3338621832517872 0.7756089142815433 0 0.3574806568656952 0.7835754204179021 0 0.3811272793178245 0.7913948670530758 0 0.4231440460496553 0.7827702295595479 0 0.4464961582565884 0.790778283799753 0 0.4888030824154309 0.7820951077212417 0 0.8105903098256149 0.5250136577723965 0 0.7919471164465173 0.5415861891717243 0 0.7733031098549397 0.5581532026254479 0 0.8292360251007388 0.508439407742924 0 0.7546581091477401 0.5747343805867184 0 0.7360083295012037 0.5913167217330415 0 0.8478806698429094 0.4918638187725178 0 0.7173775266858647 0.6078665582170002 0 0.6987358150779457 0.6244462521140954 0 0.680097284228861 0.6410208407517949 0 0.6614619652784739 0.6575891317054207 0 0.6428329521985653 0.6741390916992703 0 0.6242063078846973 0.690676706328708 0 0.6056020970979396 0.707203176719567 0 0.5869934170714212 0.7237479104428987 0 0.568370455447722 0.7403067140391727 0 0.5497423325785559 0.7568597420329264 0 0.5311042163470272 0.7734121165826411 0 0.8902115685512563 0.4831489113903307 0 1 0.4499999999988292 0 0.9324695774718122 0.4742446667017045 0 0.9769746177691515 0.4644829463040773 0 0.01920752478402035 0.6870985649256889 0 0.4047482662064574 0.7992619088998197 0 0.470155676210311 0.7986491679287873 0 0.5124561952776021 0.7899581500538182 0 0.8715669057127869 0.4997267902566472 0 0.9132246291525837 0.491107095807068 0 0.9575096759645637 0.4793607368097574 0 0.0560043950991018 0.7054972211460016 0 0.07952918660092168 0.713463624235109 0 0.1030902758670643 0.7212975498540822 0 0.0342430373884291 0.7002669988051548 0 -3.930884503831619e-19 0.702222222223143 0 0.1266137128192611 0.7291784913538567 0 0.1501358400701763 0.7370644787605134 0 0.1736513438330034 0.7449827638086322 0 0.1972289207864246 0.7528590340323061 0 0.2208571900011832 0.7607099998745748 0 0.24446339770714 0.7685412864815585 0 0.2678110478606905 0.7762711723743245 0 0.2909796950856128 0.7844945896198502 0 0.3146118714856875 0.7923850526857833 0 0.3382973205720158 0.8002490927239123 0 0.3618507668528468 0.8081511455525046 0 0.3855735786733273 0.8159967617893588 0 0.4281576951881151 0.8072694418592352 0 0.4515566133224416 0.8151919123999953 0 0.4938112534122743 0.8065125246291014 0 0.8342685564787701 0.5328770022959975 0 0.8156205247949729 0.5494513648405533 0 0.7969737944509403 0.566026461276864 0 0.7783278462280756 0.5825999788037878 0 0.8529169721495443 0.5163021415565917 0 0.7596814273026052 0.5991723225201175 0 0.7410359198801614 0.6157423146129216 0 0.7223957630335884 0.6323042029151978 0 0.703752808432472 0.6488619825818601 0 0.6851141026949555 0.6654480257434607 0 0.6664774111177661 0.6820077548062392 0 0.6478471061784008 0.6985494919997649 0 0.6292496820490879 0.7150654038970331 0 0.6106556356179554 0.7315964000636213 0 0.5920447108625294 0.7481595210178896 0 0.573402705442361 0.7647223725945207 0 0.5547619683471777 0.7812798746693133 0 0.5360976646213482 0.7978257982629858 0 0.8951345925181617 0.5076178808337952 0 1 0.4749999999987564 0 0.9344644825163589 0.4994541646129634 0 0.9786587875276578 0.4880466552356785 0 0.01824729960442715 0.7130198012370442 0 0.4093588874913374 0.8238327497448249 0 0.4751498669913934 0.8230531698288421 0 0.5174246461383223 0.8143545225399788 0 0.8766092129826443 0.5241687347953811 0 0.9181993741889982 0.5156028096615743 0 0.9584941364775129 0.5034641699499568 0 0.06120311468429579 0.7300545946532699 0 0.03875993627916079 0.7226541127315292 0 0.08451646271688336 0.7377999303313882 0 0.1080367636121987 0.745670332686288 0 -4.371775525074102e-19 0.7270370370379063 0 0.1315442892842583 0.7535613094293636 0 0.1550372283086403 0.7615347716791003 0 0.1786296655991145 0.7693882904378202 0 0.2022409763752517 0.77723259541663 0 0.2258231275649372 0.7850408332957984 0 0.249164123129814 0.7930524106206811 0 0.2724963639488193 0.8009699366641132 0 0.2958799727690006 0.808965328152835 0 0.3195319206837414 0.8168377857861092 0 0.3432162183245426 0.8247018948854156 0 0.3668636627996443 0.832576878694042 0 0.3905374462838021 0.8404333611852459 0 0.4329186131879578 0.831731634009669 0 0.4565070260104145 0.8396077996741665 0 0.4987181643009094 0.830917091636255 0 0.8393002811114627 0.5573161561756499 0 0.8579525158363206 0.540740088184399 0 0.8206499262342156 0.5738906153957656 0 0.8020018884510545 0.5904640483077562 0 0.7833527329649781 0.6070343279509479 0 0.7647056260934726 0.6236062114332886 0 0.7460598568504844 0.6401738308274229 0 0.727416706968062 0.6567387052467184 0 0.7087743267228469 0.6733064841817281 0 0.6901301982844008 0.689871754404158 0 0.6714983775377142 0.7064131643983118 0 0.652884282599274 0.7229380124443737 0 0.6342996548109008 0.739468509254694 0 0.6156867287809997 0.756008896546335 0 0.5970632894379271 0.7725776872402388 0 0.5784130568579198 0.7891345073406895 0 0.5597598116343698 0.8057104590854673 0 0.5410632995035629 0.8222484638498829 0 0.9003357758240814 0.5320548118415828 0 1 0.4999999999986943 0 0.941462293721084 0.525690772951228 0 0.9793957259705779 0.5125897029775612 0 0.02029393072515113 0.7378077053223812 0 0.4142177254083659 0.8483033907256221 0 0.4800588805719308 0.8474528052946391 0 0.5223159902521995 0.8388581040249474 0 0.8816431454430992 0.5486040544089793 0 0.9225799748982123 0.5402247952566367 0 0.9633995159833472 0.5250178219964824 0 0.06610757633098412 0.7544983380538742 0 0.0426544725999395 0.7463623280155632 0 0.08947675622208814 0.7621529959990546 0 0.1129826351942807 0.7700428983927 0 -4.786648532144478e-19 0.7518518518526135 0 0.1364804826172271 0.7779872886551386 0 0.160021501878905 0.7859072220446173 0 0.1836247468971111 0.793760154955781 0 0.2071979186769334 0.8015580913798072 0 0.2304967436195755 0.8095092405862745 0 0.2538762321404401 0.8175542563805905 0 0.277280456919011 0.8255679895020401 0 0.300885877193884 0.8333842211374886 0 0.3245440389970305 0.8412602420303608 0 0.3482096000419775 0.8491362245255656 0 0.3718768600851677 0.8570088430743199 0 0.3955441224192577 0.8648892755768016 0 0.4378797834827166 0.8561892706731925 0 0.4614529046791603 0.8640556177026 0 0.503516728542832 0.8555021672854813 0 0.8443283558103336 0.5817492196838934 0 0.8629848927083482 0.5651851272873862 0 0.8256769759826139 0.5983244506244129 0 0.8070289631178849 0.61490137780676 0 0.7883733269954071 0.631464720395854 0 0.7697294095763465 0.6480382673175346 0 0.7510827430966481 0.6646049036565876 0 0.7324391445286655 0.6811733832681365 0 0.7137921114620467 0.697738835622616 0 0.6951424081394643 0.7143005552224284 0 0.6765058508016207 0.7308512909414373 0 0.6578978047650571 0.7473759104034737 0 0.639268795068435 0.7639215323856089 0 0.6206529963020713 0.7804240694515225 0 0.6020157040789255 0.7969951635706324 0 0.5834030811425339 0.8135701803478556 0 0.5646986480563806 0.8301761899742913 0 0.5459599122729116 0.8467606740132775 0 0.9055301699603683 0.5566836017761458 0 1 0.5249999999987492 0 0.9400572834835309 0.5496719522413976 0 0.9795180805401479 0.537513373363237 0 0.9596026851425439 0.5458749112855853 0 0.02221978533889611 0.7623746137307322 0 0.4192221615995876 0.8727592505238186 0 0.4849723353401565 0.8720428716040761 0 0.5272131907546603 0.8633657048248092 0 0.8868388326962634 0.5732390061060308 0 0.9283628037946519 0.5655574414550555 0 0.07091407349463492 0.7786560941324794 0 0.04734249224114913 0.7707846036015938 0 0.09446689132203294 0.7865006414425411 0 0.1179496127037743 0.7944597721022588 0 -4.790847075102737e-19 0.7766666666673897 0 0.1414377216460096 0.8024059942450911 0 0.16501227617352 0.8102963409389146 0 0.1886138733221236 0.8181237027457825 0 0.2119167330060564 0.8259054708720135 0 0.2351887974729961 0.8341006697819511 0 0.2586309077524249 0.8421252911284841 0 0.2822364376434487 0.849925685182456 0 0.3058904459925652 0.8578139056250199 0 0.3295549585847792 0.865692086190964 0 0.3532214787128273 0.873568332463283 0 0.3768932545164256 0.8814396398733241 0 0.4005611535211024 0.8893313962134479 0 0.4428109949514725 0.8806792491963702 0 0.466351811043652 0.8886412674949481 0 0.5084868954132656 0.8799978631164952 0 0.8493752657065123 0.6061599122562437 0 0.8680410149164179 0.5896389722201565 0 0.8307093562215316 0.6227172745560058 0 0.812052815813498 0.6392986500132215 0 0.7934018709161819 0.6558755268961528 0 0.7747473200976157 0.672461757194235 0 0.7561091837761296 0.6890342785870995 0 0.7374644141095901 0.7056032873133605 0 0.7188106746601314 0.7221718217396396 0 0.7001537421765502 0.7387367648395846 0 0.6815202438292803 0.7552993372562163 0 0.6628776156406853 0.7718532385103484 0 0.6441793787482816 0.788446423495423 0 0.6255937518100229 0.8049318513785756 0 0.6069747136613554 0.82149273753994 0 0.5883914843363353 0.8380544363258761 0 0.5695760710580789 0.8547059114298868 0 0.5508361366267366 0.8713141493690585 0 0.9102562874764708 0.581486255584615 0 1 0.5499999999988151 0 0.9537171211769888 0.5715497880180289 0 0.9783491899070614 0.5624967757087331 0 0.02223927511815234 0.7894683281085733 0 0.424241147336498 0.8972083794211474 0 0.4898457555301258 0.8965456696992796 0 0.532151586502237 0.8878954370762224 0 0.8918635378306613 0.5977937202602778 0 0.9338331342610152 0.5896571831857453 0 0.07571908381766404 0.803148465116764 0 0.05123146156818962 0.7955465057843925 0 0.09943387229372865 0.8108903724188359 0 0.1228960731493669 0.8189314374592471 0 -3.111333081194568e-19 0.8014814814820663 0 0.1464012202999251 0.8268327195613123 0 0.169966895026147 0.8346232232003679 0 0.1932724058338706 0.8426661455121672 0 0.216595510167095 0.8505605624778427 0 0.2399059307342791 0.8586062571695949 0 0.2635674892062141 0.8664868653527269 0 0.2872336489884993 0.8743672071684112 0 0.3108995669194621 0.8822490424288624 0 0.3345708876925642 0.890127542723261 0 0.3582368398719147 0.8979978433056798 0 0.381921265465493 0.9058432698490482 0 0.405682812146422 0.9134674252303389 0 0.447677422323644 0.9054117583303432 0 0.4708996786245622 0.9136339471497604 0 0.5134245705105318 0.9044137094260006 0 0.8544234127768139 0.630525291586327 0 0.8731017124101411 0.6140641450247541 0 0.8357569257294362 0.6471138809053252 0 0.8170911677922631 0.663715755709111 0 0.7984405092075354 0.6803042672939855 0 0.7797862026540341 0.6968915778019866 0 0.7611429382888387 0.7134641039952302 0 0.7424893362109249 0.7300379597207697 0 0.7238335834782543 0.7466083791996178 0 0.7051770863473839 0.7631774450196511 0 0.6865181826361677 0.7797494137703052 0 0.6678589912101677 0.7963210384113789 0 0.6491967595175879 0.8128932509847174 0 0.6305355730224207 0.8294612647810587 0 0.6119919165383001 0.8460152153840449 0 0.5932608389587409 0.8625928361891259 0 0.5745237613258167 0.8791956813971381 0 0.5558414498135195 0.8957762757511712 0 0.9149294035020171 0.605743478068229 0 1 0.574999999998881 0 0.9567530219514779 0.5997636235423951 0 0.9779770871774341 0.5869246431328137 0 0.03453677871100044 0.814278248380665 0 0.01444291401754058 0.8138888888894577 0 0.4292653241025681 0.9211623317885358 0 0.4947709213156178 0.9209622113367711 0 0.5368535930004315 0.9119985546957926 0 0.8966496857615499 0.6221692495730522 0 0.9379484251366037 0.6153801054361767 0 0.05781575895378591 0.8195138932547881 0 0.08072759981536902 0.827528200742523 0 0.1042281190618504 0.8354561758516006 0 0.1277931649850329 0.8433479157969132 0 -4.698943391286072e-19 0.8262962962968514 0 0.15133907904844 0.8511441445906385 0 0.1745903301871124 0.859107445849558 0 0.197963662484356 0.8671892472398399 0 0.2213737964823002 0.8752077854296596 0 0.2449070072859731 0.8830388471007271 0 0.2685725614202968 0.8909232706941539 0 0.2922408057353049 0.8988073809847688 0 0.3159141022921216 0.9066908614293597 0 0.3396005727514895 0.9145682117640528 0 0.3621924985248928 0.9218671453691408 0 0.3857970190597724 0.9332910616521531 0 0.4131655322028426 0.9371121600396993 0 0.4519250213486328 0.9319023912755365 0 0.4748271401857018 0.9383403847616859 0 0.5181192030649283 0.9285094834493541 0 0.8594774965766855 0.6549552251390943 0 0.8781325450993688 0.6383939863723915 0 0.8408124725566882 0.6715436307845799 0 0.8221393138887135 0.6881404404218184 0 0.8034771798964049 0.7047405457406102 0 0.7848247810121527 0.7213230051470745 0 0.7661694937674393 0.7379046545876132 0 0.7475131054610534 0.7544782968380916 0 0.7288572664058901 0.7710498634842096 0 0.7101995962950485 0.7876221136561596 0 0.6915407348334136 0.804195413506213 0 0.6728798764755566 0.820769666232427 0 0.6542123676236612 0.8373450127390759 0 0.6355667209699229 0.8539185029520038 0 0.6169004977811127 0.8704969407396069 0 0.5982067713468127 0.8870809044645964 0 0.5795306453549851 0.9036580357518997 0 0.560863124361125 0.920236819994811 0 0.9198497274124586 0.6305276821852722 0 1 0.5999999999989468 0 0.9784557823649038 0.6124992939669998 0 0.9594109584585798 0.6251240553303727 0 0.02181265509110281 0.8378756231687815 0 0.04384351282362327 0.834939021970341 0 0.4345791820109262 0.9400937638509881 0 0.499760883370395 0.9454096159774545 0 0.5424231033335518 0.9359521525833704 0 0.901841345500807 0.6462493828711838 0 0.9425566432143246 0.6402696075306215 0 0.06248246201662783 0.843821424961496 0 0.08563495422851906 0.8519754252901199 0 0.1091548177688167 0.8598817827073867 0 0.1327208300654305 0.8676732528934445 0 -4.23025796955788e-19 0.8511111111115716 0 0.1560150997907191 0.8757968784042577 0 0.1793103561032236 0.8838205794361029 0 0.202639576132534 0.8917729647337104 0 0.2262436612792308 0.899591613168645 0 0.2499117804644401 0.9074790303256671 0 0.2735809603648098 0.915362915705894 0 0.2974706958558073 0.9225925868942311 0 0.3209676028307907 0.9310309865829797 0 0.3440905558493241 0.9379920905025213 0 0.3635087381513625 0.9415103951413893 0 0.3994783974698984 0.9568717541487703 0 0.4241904584274694 0.9577866235674118 0 0.4511897328101531 0.9559718867111325 0 0.4801575592588382 0.9619372430611696 0 0.5242545733282515 0.9562820574071762 0 0.8645097117710606 0.6794144134777496 0 0.8831784134776565 0.662825290623768 0 0.8458420761227295 0.6960064009334146 0 0.8271767169789149 0.7125956677747607 0 0.8085137414276612 0.7291882129998556 0 0.7898520901122558 0.7457735000650116 0 0.7711943005462094 0.7623504110337262 0 0.7525365661371987 0.7789226132489636 0 0.7338780980965969 0.7954942957668927 0 0.7152208512014256 0.8120681242038651 0 0.696566554963909 0.828645154688292 0 0.6779022469543394 0.8452229798142257 0 0.6592350592158521 0.861800760295263 0 0.6405703391466653 0.8783805487270523 0 0.6219014714662047 0.8949619265509743 0 0.6032270540718856 0.9115448113482429 0 0.58508375439239 0.927845760098331 0 0.5675850982587946 0.9429716913281467 0 0.9253349210229852 0.6547657541374281 0 1 0.6249999999990126 0 0.9791624950327835 0.6369927481993429 0 0.9612545521109083 0.6458555409306757 0 0.04256990934559939 0.8592059200859747 0 0.01963700141769538 0.8646402808229501 0 0.3748873527725706 0.9582037673789144 0 0.5027808157689179 0.9709878500224217 0 0.5507472810296753 0.9576505965832124 0 0.9068777487804405 0.6706923418367947 0 0.9492670037874444 0.6619779313286484 0 0.06692423260257788 0.8685844704677095 0 0.09054087698637316 0.8764288296151315 0 0.1141581955774513 0.8842755942001411 0 0.137486642373028 0.8922163649418168 0 -4.285846020299963e-19 0.8759259259263068 0 0.1607478272240353 0.9002724519886751 0 0.1839848821007641 0.9083443650197829 0 0.2075761341408545 0.9161467584904613 0 0.2312467797982391 0.924036981863202 0 0.2571609727803095 0.9352949370182568 0 0.2811050320636451 0.9349644365081814 0 0.2998803480387806 0.9445451268025383 0 0.3236114093603473 0.956855291725071 0 0.3500032715461974 0.9603064656119202 0 0.3874964233593978 0.9783511625950546 0 0.4124060183900434 0.9783774111508964 0 0.4373436754803635 0.9785340529903612 0 0.4625000000019244 0.9783493649053083 0 0.4840876750067429 0.9822548915977797 0 0.5191218072856839 0.9821724671233008 0 0.5382556730213007 0.9779206683339865 0 0.8882115913502904 0.687288743295403 0 0.8695410507088271 0.7038771987281806 0 0.8508731908321735 0.7204670544134 0 0.8322079223661324 0.7370553254639159 0 0.8135437582001083 0.7536412338077617 0 0.7948797379448196 0.770224180736245 0 0.7762152082524238 0.786803664925124 0 0.7575585730956063 0.8033765025512212 0 0.7388977635330474 0.8199492723903578 0 0.720246189239141 0.8365202795627454 0 0.7015937985248251 0.8531002318594458 0 0.6829172568378301 0.8696715821573207 0 0.6642578481745881 0.8862564922861097 0 0.645596216311229 0.9027973878940142 0 0.6269254442254898 0.9194273030371679 0 0.6082488003150458 0.9360151305645555 0 0.5898183772274658 0.9515220972580845 0 0.5723240506240187 0.961822382612309 0 0.9347371044583986 0.6808016589989362 0 1 0.6499999999990784 0 0.975447383814988 0.6627066425554567 0 0.03354440102899791 0.8754414881034991 0 0.04924277192258593 0.8849435585390604 0 0.01989504304047218 0.8882816165415663 0 0.3625307347020075 0.9790578192477485 0 0.5000000000020588 1 0 0.5626423181334285 0.9791804535727197 0 0.9122714216724935 0.6955943195494297 0 0.9594290170792117 0.6797290205651725 0 0.07192628478819102 0.8929635237824806 0 0.09554863698749465 0.9008236890294991 0 0.1190274714835802 0.9087119103589988 0 0.1423686509877073 0.9166998529451621 0 -4.413712763914444e-19 0.9007407407410541 0 0.1655237437958775 0.9248133694171156 0 0.1889217108111295 0.9327165290978362 0 0.212981660270099 0.9397370674064546 0 0.2362495505842276 0.9484885495408351 0 0.2774321832785183 0.9570266161199878 0 0.300087269798229 0.9648181346211778 0 0.3376847128802751 0.9789813219941271 0 0.3750000000015603 1 0 0.4000000000016645 1 0 0.4250000000017685 1 0 0.4500000000018723 1 0 0.4750000000019764 1 0 0.5250000000019072 1 0 0.5500000000017337 1 0 0.8932406709046274 0.7117279148668422 0 0.8745694405640757 0.7283380902582783 0 0.8559025396082043 0.7449269894723246 0 0.8372353482705545 0.7615118766853957 0 0.8185714391542854 0.7780967280360606 0 0.7999049109318248 0.7946792791911768 0 0.7812345205678694 0.8112613824160921 0 0.7625707610246439 0.8278343260174147 0 0.7439137920895357 0.8444079945066439 0 0.7252655030153858 0.8609837249631657 0 0.7065944882621774 0.8775549054226605 0 0.6879136268060297 0.894139416444402 0 0.6692620619964416 0.9106863572572965 0 0.6506773243796975 0.9270817877193717 0 0.6323996959369196 0.9425581346322853 0 0.6154416680341184 0.9613802606361771 0 0.5882266297738362 0.9775910734942396 0 0.932363100798174 0.7052440085464924 0 0.9556622308036888 0.7024818394703988 0 1 0.6749999999991443 0 0.9788044805713576 0.6882878970116679 0 0.03616082104049125 0.8991606485023306 0 0.05535260422683484 0.9091817809710846 0 0.02048860481464835 0.9130243964959713 0 0.2542360000413355 0.9591454860263975 0 0.3126563798688131 0.9796327498871129 0 0.3500000000014564 1 0 0.5750000000015604 1 0 0.9168947122386143 0.7197372547015396 0 0.07693002838461571 0.9173595258390898 0 0.1005687385971405 0.9252283173114216 0 0.124236376185767 0.9330843419581415 0 0.1469305956324177 0.940160203710364 0 -4.267242928192321e-19 0.9255555555557315 0 0.170176042527425 0.9473224902447301 0 0.1944669341670477 0.9575483269906147 0 0.2188233490548079 0.9597407040405767 0 0.236954073527519 0.9750043147693191 0 0.2632059999294322 0.9787595090595332 0 0.2876432289732964 0.9800998404135707 0 0.3250000000013522 1 0 0.8982868144407044 0.7362927081396093 0 0.8796045826646286 0.7527848205292678 0 0.8609312289461014 0.7693769141948023 0 0.8422681643370392 0.7859645592490389 0 0.8236003283720884 0.8025543696145151 0 0.8049301797223809 0.8191381336013086 0 0.7862515568984837 0.8357253501669795 0 0.7675738732645874 0.8523091266873012 0 0.7489383597007169 0.868885153834707 0 0.7302624242561705 0.8854625528532386 0 0.7115802214744846 0.9020429637834595 0 0.6928870756123707 0.9186342859734526 0 0.6739181690305398 0.9343119036105173 0 0.6558464245426535 0.9496938748059841 0 0.6396385027933388 0.9606977949876526 0 0.6125011624060364 0.9837659019660305 0 0.600000000001387 1 0 0.9422500348176753 0.727604970012158 0 0.9792287127594378 0.7126313223766562 0 1 0.69999999999921 0 0.03844150120940828 0.9240910503628026 0 0.05904548219314176 0.9336156757783443 0 0.01980868685398895 0.9378827813624289 0 0.3000000000012483 1 0 0.6338375142196276 0.9798581756997365 0 0.9220723260219984 0.7444493038705118 0 0.9637160826460018 0.7254588490087359 0 0.08231180189519798 0.9406370426715724 0 0.1063478899167181 0.9490329276208429 0 0.1295789816093158 0.9572013610980438 0 0.1526392646455855 0.9617809366015291 0 -4.175183320276203e-19 0.9503703703705488 0 0.1751676162932621 0.9660941309604018 0 0.2105581120165657 0.979151400302691 0 0.2500000000010403 1 0 0.2750000000011442 1 0 0.9033391542502819 0.760718864611217 0 0.8846485810014851 0.7772462152269274 0 0.8659768495771518 0.7938192233234205 0 0.847301420578196 0.8104276816687433 0 0.828630292320417 0.8270156527221315 0 0.8099554018921405 0.843603384955278 0 0.7912783901284277 0.860191237157817 0 0.7726082678081153 0.8767781441606158 0 0.7539413171872982 0.893358597157714 0 0.735254655896961 0.9099499719577256 0 0.7165598700763787 0.9265518468660422 0 0.6971582986876022 0.9420148489593562 0 0.6780589084151948 0.957583924834153 0 0.6604280840244139 0.9752242958469347 0 0.6250000000012136 1 0 0.9605575770566321 0.7414900853882153 0 0.9460736412248639 0.7543866079214981 0 1 0.724999999999276 0 0.9783493649053321 0.7374999999993094 0 0.03977368987228719 0.9501009268279407 0 0.06391854305734312 0.9590290071227729 0 0.01938134302196487 0.9621452986061629 0 0.1869379492708169 0.9802561058473663 0 0.2250000000009362 1 0 0.6500000000010402 1 0 0.9270939104230748 0.7685397490501531 0 0.08921000612503391 0.9593765230410199 0 0.1101981146222572 0.9749888975639491 0 0.1378394971664275 0.9790826025462104 0 0.162560108077434 0.980465550016279 0 -3.889504694539637e-19 0.9751851851852423 0 0.2000000000008322 1 0 0.9083672062549224 0.7850937274081222 0 0.8896724643158257 0.8016837412947361 0 0.8710095687742472 0.8182918049647824 0 0.8523346372721131 0.8348908429205857 0 0.8336594740691472 0.8514815193834984 0 0.8149841850439553 0.8680699418256793 0 0.7963067583992218 0.8846602522985899 0 0.7776287284027171 0.9012506570572817 0 0.7589526774761995 0.9178416417849348 0 0.7402709404409575 0.9344356505022697 0 0.7221320089538444 0.954591969681166 0 0.6999998737602792 0.9629026133046578 0 0.6874998526486902 0.9783494499793082 0 0.6750000000008668 1 0 0.9723987616892877 0.7624999999993751 0 0.951151225324701 0.776776788641639 0 1 0.7499999999993417 0 0.03865046828365464 0.9773366052343823 0 0.08374992470322452 0.9795104246889741 0 0.01805521312185844 0.9819959226564354 0 0.1750000000007281 1 0 0.9319664786096838 0.7928416311113627 0 0.1250000000005201 1 0 0.1500000000006241 1 0 0.06226378720894849 0.9831752074092258 0 2.38660709212048e-18 1 0 0.9133158575646577 0.8094761078874025 0 0.8947214721783717 0.8261708052299942 0 0.8760431834242292 0.8427669110357977 0 0.8573655959810456 0.8593607298265238 0 0.8386885927769917 0.8759484860071624 0 0.8200156942169483 0.892528590855739 0 0.8013621073053289 0.9090453521589961 0 0.7829865157510035 0.9240238959056106 0 0.7655672888102397 0.9397820229816848 0 0.7509350797106532 0.9572692101527506 0 0.7125000000006064 0.9783493649055391 0 0.7000000000006935 1 0 0.9776291594915305 0.7875380515327299 0 1 0.7749999999994076 0 0.956161937677152 0.801624721464964 0 0.100000000000416 1 0 0.050000000000208 1 0 0.02500000000010406 1 0 0.07500000000031215 1 0 0.7373728002791756 0.9797457966891425 0 0.9365017685241022 0.8167601470604585 0 0.9179198228630395 0.8334700926153806 0 0.8997545627560775 0.8506461505404254 0 0.8810748357278674 0.8672409378034108 0 0.862394975574633 0.8838346162085495 0 0.8437145735056658 0.9004276213796637 0 0.8250690498714733 0.9169161840249753 0 0.8066312769116599 0.9360687629880354 0 0.7878775674057312 0.9431430579496004 0 0.7763840591915298 0.9592015607858525 0 0.7623386951258468 0.9791139237471457 0 0.72500000000052 1 0 0.9785045479276824 0.8132727312725351 0 1 0.7999999999994734 0 0.9578471191845155 0.8261727904892776 0 0.7500000000003467 1 0 0.9391128526801986 0.8403434994928256 0 0.9220365279740234 0.8571983503085739 0 0.9045500207496134 0.8749002583057602 0 0.886106788733611 0.8917166464217033 0 0.8674239964535654 0.9083123153680097 0 0.8487409038783109 0.9249085077009044 0 0.8300502952167822 0.9415063885533833 0 0.7988740897650843 0.9585094594757771 0 0.7879965183055391 0.9787583886863395 0 0.7750000000001733 1 0 1 0.8249999999995392 0 0.9788637985969765 0.8379581758234061 0 0.95830836981657 0.8505032137944165 0 0.8201993130662159 0.9593370028479035 0 0.9420106582883644 0.8619845925818462 0 0.9322728957351557 0.8823819684395121 0 0.90982240781781 0.899596918791439 0 0.8911388418834251 0.9161948069605781 0 0.8724544056893324 0.9327926566545817 0 0.8545858659163293 0.9502129052165714 0 0.8374999999997439 0.9700914850334239 0 0.8122917238381498 0.9781055606997103 0 0.7999999999999999 1 0 1 0.8499999999996051 0 0.9785227546530915 0.8628003193850639 0 0.9566987308811586 0.8749999999996694 0 0.9335409902090507 0.9074780711570533 0 0.9148558428489935 0.9240777970694657 0 0.8959904604035898 0.9397747407914325 0 0.8784853701622442 0.9569978691712366 0 0.863244678837301 0.9766771819693659 0 0.8249999999998264 1 0 0.9559309084930709 0.8987111038573347 0 1 0.8749999999996708 0 0.9781530512139306 0.8880930545424778 0 0.849999999999653 1 0 0.9382926456304729 0.9328115065901349 0 0.9544298725978174 0.9196756121711617 0 0.9196554759229494 0.9469137389489963 0 0.9033970037247695 0.9616579055397858 0 0.8880972945619893 0.9794009325121694 0 0.8749999999995012 1 0 0.9766321162336684 0.9157580083414927 0 1 0.8999999999997368 0 0.9438287412639099 0.9571755573708816 0 0.9622966325024225 0.9398438882854082 0 0.925019118319889 0.965686669368614 0 0.9125008924587129 0.9810589679886788 0 0.8999999999995837 1 0 1 0.9249999999998024 0 0.9835192958457385 0.9381043860998907 0 0.9615520967251761 0.958473317202839 0 0.9367139815717118 0.9800001555813419 0 0.9786677304926018 0.9599200338728818 0 0.9249999999996877 1 0 1 0.9499999999998684 0 0.9614152826417708 0.9769537892821855 0 0.9499999999997919 1 0 1 0.9749999999999343 0 0.9818260183860712 0.981826018386081 0 0.9749999999998959 1 0 1 1 0 </DataArray>
      </Points>
      <Cells>
        <DataArray type="Int32" Name="connectivity" format="ascii">0 1 2 1 3 2 4 0 2 3 5 2 6 0 4 5 4 2 3 7 5 6 4 8 9 4 5 7 10 5 7 11 10 12 6 8 8 4 13 4 9 13 10 9 5 10 11 14 11 15 14 16 12 8 17 8 13 9 18 13 10 19 9 10 14 19 15 20 14 21 12 16 17 16 8 18 17 13 19 18 9 19 14 22 15 23 20 14 20 22 21 16 24 16 17 25 18 26 17 27 18 19 28 19 22 20 23 29 20 30 22 31 21 24 24 16 25 17 32 25 27 26 18 17 26 32 28 27 19 30 28 22 23 33 29 20 29 30 31 24 34 35 24 25 32 35 25 27 36 26 32 26 37 38 27 28 39 28 30 29 33 40 29 41 30 33 42 40 43 31 34 24 44 34 35 44 24 45 35 32 38 36 27 26 36 37 45 32 37 38 28 39 41 39 30 46 29 40 46 41 29 42 47 40 48 43 34 34 44 49 35 50 44 45 50 35 38 51 36 37 36 52 45 37 53 54 38 39 41 55 39 47 46 40 56 41 46 42 57 47 58 43 48 48 34 49 44 59 49 44 50 59 60 50 45 54 51 38 36 51 52 53 37 52 60 45 53 55 54 39 56 55 41 46 47 61 56 46 61 47 57 62 57 63 62 58 48 64 65 48 49 59 65 49 50 66 59 60 66 50 67 51 54 51 68 52 69 53 52 70 60 53 71 54 55 72 55 56 47 73 61 74 56 61 73 47 62 63 75 62 76 58 64 64 48 65 59 77 65 66 77 59 60 78 66 67 68 51 67 54 71 68 69 52 70 53 69 70 78 60 71 55 72 72 56 74 73 74 61 73 62 79 63 80 75 62 75 79 81 76 64 64 65 82 77 83 65 77 66 84 66 78 84 85 68 67 67 71 86 68 87 69 88 70 69 70 89 78 71 72 90 91 72 74 73 92 74 93 73 79 75 80 94 75 95 79 80 96 94 97 76 81 81 64 82 65 83 82 98 83 77 98 77 84 84 78 99 85 87 68 85 67 86 71 90 86 87 88 69 88 89 70 78 89 99 90 72 91 92 91 74 93 92 73 95 93 79 75 94 95 96 100 94 96 101 100 97 81 102 103 81 82 83 103 82 98 104 83 98 84 105 84 99 105 106 87 85 107 85 86 86 90 108 87 109 88 88 110 89 89 111 99 90 91 112 92 113 91 114 92 93 115 93 95 94 116 95 100 116 94 100 101 117 118 97 102 81 119 102 119 81 103 83 104 103 120 104 98 120 98 105 99 121 105 106 109 87 106 85 107 107 86 108 108 90 112 88 109 110 89 110 111 111 121 99 91 113 112 114 113 92 114 93 115 116 115 95 116 100 122 101 123 117 100 117 122 124 118 102 119 125 102 119 103 126 103 104 126 120 127 104 128 120 105 121 128 105 106 129 109 130 106 107 131 107 108 132 108 112 110 109 133 111 110 134 111 135 121 113 136 112 114 137 113 138 114 115 116 139 115 140 116 122 123 141 117 117 142 122 143 118 124 125 124 102 144 125 119 144 119 126 104 127 126 145 127 120 145 120 128 128 121 146 130 129 106 109 129 133 131 130 107 132 131 108 136 132 112 134 110 133 111 134 135 121 135 146 113 137 136 138 137 114 139 138 115 140 139 116 142 140 122 123 147 141 141 142 117 143 124 148 149 124 125 150 125 144 151 144 126 127 151 126 152 127 145 145 128 153 153 128 146 130 154 129 133 129 155 156 130 131 157 131 132 158 132 136 159 134 133 135 134 160 135 161 146 136 137 162 138 163 137 164 138 139 165 139 140 166 140 142 141 147 167 141 168 142 169 143 148 148 124 149 149 125 150 150 144 170 170 144 151 152 151 127 152 145 171 145 153 171 153 146 172 156 154 130 129 154 155 159 133 155 156 131 157 157 132 158 158 136 162 160 134 159 161 135 160 146 161 172 137 163 162 164 163 138 164 139 165 165 140 166 168 166 142 147 173 167 141 167 174 168 141 174 175 169 148 148 149 176 149 150 177 150 170 178 170 151 179 179 151 152 180 152 171 171 153 181 181 153 172 182 154 156 154 183 155 184 159 155 156 157 185 157 158 186 158 162 187 188 160 159 189 161 160 161 190 172 163 191 162 192 163 164 164 165 193 165 166 194 168 195 166 167 173 196 167 197 174 198 168 174 173 199 196 199 200 201 202 169 175 175 148 176 149 177 176 177 150 178 170 203 178 170 179 203 179 152 180 204 180 171 204 171 181 205 181 172 182 183 154 182 156 185 183 184 155 184 188 159 185 157 186 186 158 187 162 191 187 188 189 160 189 190 161 190 205 172 192 191 163 192 164 193 165 194 193 166 195 194 198 195 168 197 167 196 197 198 174 199 201 196 201 200 206 200 207 206 202 175 208 175 176 209 176 177 210 177 178 211 203 212 178 179 213 203 179 180 213 214 180 204 215 204 181 205 215 181 182 216 183 217 182 185 183 218 184 184 219 188 220 185 186 221 186 187 191 222 187 188 223 189 189 224 190 190 225 205 192 226 191 227 192 193 194 228 193 194 195 229 198 230 195 231 197 196 232 198 197 201 231 196 201 206 233 207 234 206 207 235 234 236 237 238 239 236 238 240 236 239 235 240 241 242 202 208 208 175 209 176 210 209 210 177 211 178 212 211 243 212 203 213 243 203 213 180 214 214 204 244 244 204 215 205 245 215 217 216 182 183 216 218 220 217 185 184 218 219 188 219 223 221 220 186 222 221 187 191 226 222 189 223 224 190 224 225 205 225 245 227 226 192 228 227 193 228 194 229 195 230 229 232 230 198 232 197 231 231 201 233 206 246 233 206 234 246 234 235 241 238 237 247 239 238 248 240 239 241 237 249 247 249 250 251 252 242 208 253 208 209 210 254 209 255 210 211 212 256 211 257 212 243 243 213 258 213 214 258 214 244 259 260 244 215 245 260 215 217 261 216 218 216 262 263 217 220 219 218 264 223 219 265 221 266 220 267 221 222 226 268 222 224 223 269 225 224 270 245 225 271 272 226 227 273 227 228 274 228 229 230 275 229 276 230 232 232 231 277 278 231 233 246 278 233 234 279 246 279 234 241 280 238 247 241 239 248 238 281 248 249 251 247 251 250 282 250 283 282 283 284 285 286 242 252 252 208 287 208 253 287 254 253 209 254 210 255 256 255 211 257 256 212 288 257 243 288 243 258 214 259 258 259 244 289 289 244 260 260 245 290 263 261 217 216 261 262 218 262 264 266 263 220 265 219 264 223 265 269 267 266 221 268 267 222 272 268 226 224 269 270 271 225 270 245 271 290 272 227 273 273 228 274 275 274 229 276 275 230 276 232 277 231 278 277 291 278 246 279 291 246 292 279 241 280 281 238 251 280 247 292 241 248 281 293 248 294 251 282 283 285 282 285 284 295 284 296 295 286 252 297 298 252 287 253 299 287 254 300 253 301 254 255 256 302 255 303 256 257 304 257 288 288 258 305 258 259 305 259 289 306 289 260 307 307 260 290 263 308 261 261 309 262 262 310 264 311 263 266 312 265 264 265 313 269 314 266 267 315 267 268 316 268 272 269 317 270 318 271 270 271 319 290 272 273 320 273 274 321 322 274 275 323 275 276 324 276 277 278 325 277 291 325 278 326 291 279 326 279 292 281 280 327 251 328 280 293 292 248 329 293 281 328 251 294 285 294 282 330 285 295 296 331 295 332 286 297 297 252 298 299 298 287 253 300 299 301 300 254 302 301 255 303 302 256 303 257 304 304 288 333 333 288 305 305 259 306 289 334 306 289 307 334 335 307 290 311 308 263 261 308 309 309 310 262 310 312 264 311 266 314 265 312 313 313 317 269 314 267 315 315 268 316 316 272 320 317 318 270 318 319 271 319 335 290 273 321 320 321 274 322 322 275 323 323 276 324 325 324 277 336 325 291 336 291 326 337 326 292 280 328 327 329 281 327 293 337 292 329 338 293 339 328 294 285 340 294 340 285 330 331 330 295 341 332 297 342 297 298 299 343 298 300 344 299 301 345 300 302 346 301 347 302 303 303 304 348 349 304 333 350 333 305 350 305 306 334 351 306 334 307 352 352 307 335 353 308 311 308 354 309 310 309 355 356 312 310 311 314 357 312 358 313 317 313 359 314 315 360 315 316 361 362 316 320 363 318 317 364 319 318 365 335 319 320 321 366 321 322 367 322 323 368 323 324 369 370 324 325 370 325 336 336 326 371 326 337 371 328 372 327 329 327 373 338 337 293 374 338 329 339 372 328 340 339 294 375 340 330 331 376 330 377 332 341 342 341 297 343 342 298 344 343 299 300 345 344 301 346 345 347 346 302 347 303 348 304 349 348 378 349 333 350 378 333 351 350 306 351 334 379 334 352 379 352 335 380 353 354 308 353 311 357 309 354 355 356 310 355 356 358 312 314 360 357 313 358 359 363 317 359 315 361 360 361 316 362 362 320 366 364 318 363 365 319 364 380 335 365 321 367 366 367 322 368 323 369 368 369 324 370 370 336 381 336 371 381 337 382 371 327 372 373 374 329 373 338 382 337 374 383 338 339 384 372 340 385 339 375 385 340 376 375 330 386 377 341 342 387 341 343 388 342 344 389 343 344 345 390 345 346 391 347 392 346 393 347 348 349 394 348 378 395 349 396 378 350 396 350 351 397 351 379 352 398 379 352 380 398 399 354 353 400 353 357 354 401 355 402 356 355 356 403 358 357 360 404 358 405 359 406 363 359 361 407 360 361 362 408 409 362 366 364 363 410 365 364 411 380 365 412 366 367 413 367 368 414 369 415 368 369 370 416 416 370 381 381 371 417 371 382 417 372 418 373 418 374 373 338 383 382 419 383 374 339 385 384 372 384 420 375 421 385 376 422 375 423 377 386 386 341 424 342 388 387 341 387 424 343 389 388 344 390 389 390 345 391 346 392 391 393 392 347 394 393 348 395 394 349 425 395 378 425 378 396 397 396 351 426 397 379 398 426 379 398 380 427 399 401 354 399 353 400 400 357 404 401 402 355 402 403 356 358 403 405 360 407 404 405 406 359 410 363 406 361 408 407 408 362 409 409 366 413 364 410 411 412 365 411 427 380 412 413 367 414 368 415 414 369 416 415 428 416 381 428 381 417 382 429 417 418 372 420 419 374 418 382 383 429 419 430 383 384 385 431 384 432 420 375 422 421 385 421 431 423 386 433 434 386 424 387 388 435 387 436 424 388 389 437 389 390 438 439 390 391 391 392 440 393 441 392 442 393 394 395 443 394 444 395 425 425 396 445 445 396 397 446 397 426 398 447 426 398 427 447 399 448 401 449 399 400 450 400 404 401 451 402 402 452 403 403 453 405 404 407 454 455 406 405 410 406 456 407 408 457 408 409 458 459 409 413 411 410 460 461 412 411 462 427 412 463 413 414 414 415 464 415 416 465 465 416 428 466 428 417 429 466 417 467 418 420 419 418 467 383 430 429 468 430 419 432 384 431 432 469 420 422 470 421 421 471 431 472 423 433 433 386 434 436 434 424 435 388 437 387 435 436 389 438 437 438 390 439 439 391 440 392 441 440 442 441 393 443 442 394 444 443 395 444 425 473 425 445 473 445 397 446 474 446 426 447 474 426 447 427 475 449 448 399 401 448 451 450 449 400 450 404 454 402 451 452 403 452 453 453 455 405 407 457 454 456 406 455 410 456 460 457 408 458 409 459 458 463 459 413 461 411 460 461 462 412 475 427 462 463 414 464 415 465 464 465 428 476 428 466 476 477 466 429 469 467 420 468 419 467 430 477 429 478 430 468 432 431 479 480 469 432 470 471 421 431 471 479 481 472 433 482 433 434 434 436 483 484 435 437 436 435 485 438 486 437 438 439 487 439 440 488 441 489 440 490 441 442 491 442 443 492 443 444 493 444 473 473 445 494 445 446 494 446 474 495 447 496 474 447 475 496 449 497 448 451 448 498 499 449 450 500 450 454 452 451 501 453 452 502 453 503 455 457 504 454 456 455 505 456 506 460 507 457 458 459 508 458 463 509 459 510 461 460 511 462 461 475 462 512 513 463 464 465 514 464 514 465 476 466 515 476 477 515 466 469 516 467 516 468 467 478 477 430 478 468 517 480 432 479 480 518 469 470 519 471 471 520 479 521 472 481 481 433 482 482 434 483 483 436 522 435 484 485 486 484 437 522 436 485 486 438 487 487 439 488 440 489 488 490 489 441 490 442 491 491 443 492 492 444 493 523 493 473 523 473 494 446 495 494 495 474 524 474 496 524 496 475 525 499 497 449 448 497 498 451 498 501 499 450 500 504 500 454 502 452 501 453 502 503 455 503 505 457 507 504 506 456 505 506 510 460 508 507 458 459 509 508 513 509 463 510 511 461 462 511 512 525 475 512 514 513 464 526 514 476 515 526 476 527 515 477 469 518 516 468 516 517 527 477 478 528 478 517 520 480 479 529 518 480 471 519 520 521 481 530 481 482 531 482 483 532 533 483 522 484 534 485 486 535 484 534 522 485 536 486 487 537 487 488 489 538 488 539 489 490 490 491 540 491 492 541 492 493 542 543 493 523 523 494 544 494 495 544 495 524 545 496 546 524 496 525 546 499 547 497 497 548 498 501 498 549 550 499 500 551 500 504 552 502 501 503 502 553 503 554 505 507 555 504 556 506 505 557 510 506 558 507 508 509 559 508 513 560 509 510 561 511 511 562 512 563 525 512 564 513 514 526 564 514 565 526 515 565 515 527 518 566 516 516 566 517 527 478 528 567 528 517 529 480 520 568 518 529 519 569 520 570 521 530 481 571 530 571 481 531 482 532 531 483 533 532 533 522 572 535 534 484 536 535 486 522 534 572 537 536 487 538 537 488 539 538 489 539 490 540 491 541 540 492 542 541 542 493 543 543 523 573 573 523 544 544 495 545 524 574 545 524 546 574 546 525 575 550 547 499 497 547 548 498 548 549 552 501 549 551 550 500 555 551 504 553 502 552 503 553 554 554 556 505 558 555 507 556 557 506 557 561 510 559 558 508 560 559 509 564 560 513 561 562 511 562 563 512 575 525 563 576 564 526 576 526 565 565 527 577 568 566 518 566 567 517 527 528 577 528 567 578 529 520 579 568 529 580 520 569 579 581 570 530 571 581 530 582 571 531 532 582 531 532 533 583 584 533 572 535 585 534 536 586 535 534 587 572 537 588 536 538 589 537 590 538 539 591 539 540 540 541 592 542 593 541 542 543 594 595 543 573 596 573 544 596 544 545 574 597 545 546 598 574 546 575 598 599 547 550 547 600 548 548 601 549 602 552 549 603 550 551 604 551 555 553 552 605 554 553 606 554 607 556 608 555 558 556 609 557 557 610 561 611 558 559 612 559 560 613 560 564 561 614 562 562 615 563 616 575 563 613 564 576 576 565 617 617 565 577 568 618 566 566 618 567 577 528 578 567 619 578 620 529 579 621 568 580 529 620 580 569 622 579 623 581 571 582 623 571 582 532 583 533 624 583 584 624 533 587 584 572 535 586 585 534 585 587 536 588 586 537 589 588 590 589 538 590 539 591 591 540 592 541 593 592 542 594 593 594 543 595 625 595 573 596 625 573 597 596 545 626 597 574 598 626 574 598 575 627 599 600 547 599 550 603 600 601 548 601 602 549 552 602 605 603 551 604 604 555 608 606 553 605 554 606 607 556 607 609 608 558 611 557 609 610 561 610 614 611 559 612 612 560 613 614 615 562 615 616 563 627 575 616 613 576 628 628 576 617 629 617 577 621 618 568 618 619 567 629 577 578 619 630 578 622 620 579 621 580 631 580 620 631 632 623 582 633 582 583 624 633 583 584 634 624 635 584 587 585 586 636 585 637 587 586 588 638 588 589 639 590 640 589 641 590 591 642 591 592 592 593 643 593 594 644 594 595 645 646 595 625 647 625 596 647 596 597 626 648 597 598 649 626 598 627 649 650 600 599 599 603 651 600 652 601 601 653 602 605 602 654 603 604 655 604 608 656 657 606 605 607 606 658 609 607 659 608 611 660 610 609 661 614 610 662 611 612 663 612 613 664 615 614 665 666 616 615 627 616 667 613 628 664 668 628 617 629 668 617 669 618 621 669 619 618 630 629 578 619 670 630 622 671 620 672 621 631 620 673 631 632 582 633 624 674 633 635 634 584 634 674 624 637 635 587 636 586 638 585 636 637 588 639 638 589 640 639 641 640 590 642 641 591 642 592 643 593 644 643 594 645 644 645 595 646 646 625 675 625 647 675 648 647 597 626 676 648 626 649 676 649 627 677 650 652 600 650 599 651 603 655 651 652 653 601 602 653 654 657 605 654 655 604 656 608 660 656 658 606 657 607 658 659 661 609 659 660 611 663 610 661 662 665 614 662 663 612 664 666 615 665 667 616 666 627 667 677 664 628 678 628 668 678 679 668 629 669 621 672 669 670 619 679 629 630 670 680 630 620 671 673 673 672 631 681 632 633 674 681 633 635 682 634 674 634 683 637 684 635 685 636 638 637 636 686 638 639 687 640 688 639 641 689 640 690 641 642 691 642 643 643 644 692 645 693 644 645 646 694 646 675 695 647 696 675 648 696 647 648 676 697 676 649 698 698 649 677 699 652 650 700 650 651 651 655 701 652 702 653 653 703 654 704 657 654 705 655 656 656 660 706 707 658 657 658 708 659 709 661 659 710 660 663 661 711 662 665 662 712 713 663 664 714 666 665 667 666 715 667 716 677 713 664 678 668 717 678 679 717 668 718 669 672 718 670 669 680 679 630 719 680 670 671 720 673 673 721 672 722 681 674 635 684 682 634 682 683 674 683 723 637 686 684 686 636 685 685 638 687 639 688 687 640 689 688 690 689 641 691 690 642 691 643 692 644 693 692 645 694 693 694 646 695 675 724 695 696 724 675 648 697 696 697 676 725 676 698 725 698 677 726 699 702 652 699 650 700 700 651 701 655 705 701 653 702 703 703 704 654 704 707 657 705 656 706 660 710 706 708 658 707 708 709 659 711 661 709 713 710 663 662 711 712 714 665 712 715 666 714 667 715 716 677 716 726 727 713 678 717 727 678 679 728 717 729 718 672 719 670 718 680 728 679 730 680 719 720 721 673 721 729 672 722 674 723 682 684 731 683 682 732 683 733 723 684 686 734 686 685 735 736 685 687 688 737 687 689 738 688 690 739 689 740 690 691 741 691 692 693 742 692 693 694 743 744 694 695 724 745 695 696 746 724 696 697 746 697 725 747 698 748 725 748 698 726 749 702 699 699 700 750 751 700 701 705 752 701 702 753 703 754 704 703 704 755 707 756 705 706 710 757 706 758 708 707 708 759 709 760 711 709 713 761 710 711 762 712 763 714 712 715 714 764 716 715 765 716 766 726 727 761 713 727 717 767 717 728 767 768 718 729 719 718 768 730 728 680 730 719 769 720 770 721 729 721 771 772 722 723 684 734 731 732 682 731 683 732 733 733 772 723 734 686 735 685 736 735 737 736 687 738 737 688 689 739 738 740 739 690 740 691 741 742 741 692 742 693 743 694 744 743 745 744 695 724 773 745 724 746 773 746 697 747 725 774 747 748 774 725 775 748 726 749 753 702 749 699 750 700 751 750 752 751 701 756 752 705 753 754 703 754 755 704 755 758 707 757 756 706 761 757 710 758 759 708 759 760 709 760 762 711 762 763 712 764 714 763 715 764 765 766 716 765 766 775 726 776 761 727 776 727 767 728 777 767 768 729 778 719 768 769 730 777 728 779 730 769 721 770 771 729 771 778 734 780 731 732 731 781 732 782 733 783 772 733 784 734 735 736 785 735 786 736 737 737 738 787 738 739 788 740 789 739 790 740 741 791 741 742 792 742 743 744 793 743 745 794 744 745 773 795 773 746 796 796 746 747 747 774 797 798 774 748 775 798 748 799 753 749 800 749 750 751 801 750 752 802 751 756 803 752 804 754 753 805 755 754 806 758 755 757 807 756 761 808 757 809 759 758 810 760 759 811 762 760 812 763 762 764 763 813 764 814 765 815 766 765 816 775 766 776 808 761 817 776 767 777 817 767 818 768 778 769 768 818 779 777 730 819 779 769 770 820 771 771 821 778 734 784 780 731 780 781 782 732 781 782 783 733 785 784 735 786 785 736 786 737 787 787 738 788 739 789 788 790 789 740 791 790 741 792 791 742 793 792 743 744 794 793 745 795 794 795 773 822 773 796 822 796 747 797 774 823 797 798 823 774 824 798 775 804 753 799 799 749 800 801 800 750 751 802 801 752 803 802 756 807 803 805 754 804 806 755 805 809 758 806 757 808 807 810 759 809 811 760 810 812 762 811 813 763 812 764 813 814 814 815 765 815 816 766 824 775 816 776 825 808 817 825 776 826 817 777 818 778 827 819 769 818 826 777 779 828 779 819 820 821 771 778 821 827 784 829 780 780 830 781 831 782 781 832 783 782 785 833 784 834 785 786 786 787 835 787 788 836 788 789 837 790 838 789 839 790 791 792 840 791 841 792 793 794 842 793 794 795 843 844 795 822 822 796 845 845 796 797 797 823 846 798 847 823 824 847 798 804 799 848 799 800 849 850 800 801 801 802 851 803 852 802 803 807 853 805 804 854 806 805 855 809 806 856 807 808 857 810 809 858 811 810 859 812 811 860 813 812 861 814 813 862 814 863 815 816 815 864 865 824 816 808 825 857 866 825 817 866 817 826 867 818 827 867 819 818 826 779 828 828 819 868 820 869 821 821 870 827 784 833 829 780 829 830 830 831 781 832 782 831 834 833 785 834 786 835 835 787 836 788 837 836 789 838 837 839 838 790 840 839 791 841 840 792 842 841 793 794 843 842 843 795 844 871 844 822 871 822 845 845 797 846 823 872 846 847 872 823 873 847 824 804 848 854 848 799 849 800 850 849 850 801 851 802 852 851 852 803 853 853 807 857 855 805 854 856 806 855 809 856 858 859 810 858 860 811 859 812 860 861 862 813 861 814 862 863 815 863 864 865 816 864 873 824 865 825 874 857 866 874 825 866 826 875 867 827 876 868 819 867 826 828 875 828 868 877 821 869 870 827 870 876 829 833 878 830 829 879 830 880 831 881 832 831 834 882 833 883 834 835 884 835 836 837 885 836 838 886 837 839 887 838 840 888 839 841 889 840 842 890 841 842 843 891 892 843 844 871 893 844 894 871 845 894 845 846 846 872 895 847 896 872 873 896 847 854 848 897 898 848 849 850 899 849 900 850 851 852 901 851 902 852 853 903 853 857 904 855 854 905 856 855 858 856 906 907 859 858 908 860 859 861 860 909 910 862 861 863 862 911 863 912 864 913 865 864 873 865 914 874 903 857 915 874 866 915 866 875 916 867 876 868 867 916 875 828 877 877 868 917 869 918 870 870 919 876 833 882 878 879 829 878 880 830 879 880 881 831 883 882 834 884 883 835 885 884 836 886 885 837 838 887 886 839 888 887 840 889 888 841 890 889 842 891 890 891 843 892 893 892 844 871 920 893 894 920 871 894 846 895 872 921 895 872 896 921 922 896 873 848 898 897 904 854 897 899 898 849 900 899 850 901 900 851 902 901 852 902 853 903 904 905 855 856 905 906 907 858 906 907 908 859 860 908 909 910 861 909 911 862 910 863 911 912 912 913 864 914 865 913 922 873 914 874 923 903 915 923 874 924 915 875 919 916 876 868 916 917 924 875 877 925 877 917 918 919 870 882 926 878 927 879 878 880 879 928 929 881 880 883 930 882 884 931 883 932 884 885 886 933 885 886 887 934 887 888 935 888 889 936 889 890 937 890 891 938 891 892 939 940 892 893 920 941 893 942 920 894 942 894 895 895 921 943 896 944 921 922 944 896 898 945 897 946 904 897 899 947 898 900 948 899 901 949 900 902 950 901 951 902 903 952 905 904 905 953 906 954 907 906 907 955 908 908 956 909 957 910 909 911 910 958 912 911 959 912 960 913 961 914 913 962 922 914 923 951 903 963 923 915 963 915 924 916 919 964 916 965 917 925 924 877 925 917 966 918 967 919 882 930 926 926 927 878 879 927 928 968 880 928 929 880 968 883 931 930 932 931 884 933 932 885 886 934 933 934 887 935 888 936 935 936 889 937 890 938 937 891 939 938 939 892 940 941 940 893 969 941 920 969 920 942 942 895 943 921 970 943 944 970 921 922 971 944 947 945 898 945 946 897 952 904 946 899 948 947 900 949 948 901 950 949 951 950 902 952 953 905 953 954 906 954 955 907 955 956 908 956 957 909 910 957 958 959 911 958 912 959 960 960 961 913 961 962 914 962 971 922 972 951 923 972 923 963 963 924 973 919 967 964 916 964 965 917 965 966 973 924 925 974 925 966 926 930 975 926 976 927 927 977 928 977 968 928 978 929 968 930 931 979 932 980 931 933 981 932 933 934 982 983 934 935 935 936 984 985 936 937 938 986 937 939 987 938 939 940 988 989 940 941 990 941 969 969 942 991 991 942 943 943 970 992 944 993 970 944 971 993 994 945 947 945 995 946 996 952 946 947 948 997 948 949 998 949 950 999 951 1000 950 952 1001 953 1002 954 953 954 1003 955 955 1004 956 956 1005 957 957 1006 958 1007 959 958 960 959 1008 960 1009 961 961 1010 962 962 1011 971 972 1000 951 972 963 1012 963 973 1012 967 1013 964 965 964 1014 965 1015 966 973 925 974 1015 974 966 975 930 979 926 975 976 927 976 977 1016 968 977 1016 978 968 931 980 979 932 981 980 933 982 981 982 934 983 983 935 984 936 985 984 986 985 937 987 986 938 939 988 987 988 940 989 989 941 990 990 969 1017 1017 969 991 991 943 992 970 1018 992 970 993 1018 993 971 1019 994 995 945 994 947 997 995 996 946 996 1001 952 997 948 998 949 999 998 950 1000 999 1001 1002 953 1002 1003 954 955 1003 1004 956 1004 1005 1005 1006 957 1006 1007 958 1008 959 1007 960 1008 1009 961 1009 1010 962 1010 1011 971 1011 1019 1020 1000 972 1020 972 1012 1012 973 1021 964 1013 1014 965 1014 1015 1021 973 974 974 1015 1022 975 979 1023 976 975 1024 976 1025 977 1025 1016 977 1026 978 1016 980 1027 979 980 981 1028 981 982 1029 982 983 1030 1031 983 984 984 985 1032 986 1033 985 987 1034 986 987 988 1035 988 989 1036 989 990 1037 990 1017 1038 1039 1017 991 1039 991 992 992 1018 1040 1018 993 1041 993 1019 1041 994 1042 995 1043 994 997 995 1044 996 996 1045 1001 1046 997 998 999 1047 998 1000 1048 999 1001 1049 1002 1002 1050 1003 1004 1003 1051 1005 1004 1052 1006 1005 1053 1054 1007 1006 1008 1007 1055 1009 1008 1056 1010 1009 1057 1011 1010 1058 1011 1059 1019 1020 1048 1000 1060 1020 1012 1060 1012 1021 1013 1061 1014 1014 1062 1015 1063 1021 974 1015 1064 1022 1063 974 1022 1024 975 1023 979 1027 1023 976 1024 1025 1016 1025 1065 1026 1016 1065 980 1028 1027 1028 981 1029 982 1030 1029 1030 983 1031 1031 984 1032 985 1033 1032 986 1034 1033 987 1035 1034 1035 988 1036 989 1037 1036 990 1038 1037 1038 1017 1066 1066 1017 1039 1039 992 1040 1018 1067 1040 1067 1018 1041 1019 1068 1041 1043 1042 994 995 1042 1044 1043 997 1046 996 1044 1045 1001 1045 1049 1047 1046 998 1048 1047 999 1002 1049 1050 1003 1050 1051 1052 1004 1051 1005 1052 1053 1054 1006 1053 1055 1007 1054 1008 1055 1056 1009 1056 1057 1058 1010 1057 1011 1058 1059 1059 1068 1019 1069 1048 1020 1069 1020 1060 1070 1060 1021 1061 1062 1014 1015 1062 1064 1063 1070 1021 1022 1064 1071 1063 1022 1071 1072 1024 1023 1023 1027 1073 1025 1024 1074 1025 1074 1065 1075 1026 1065 1027 1028 1076 1077 1028 1029 1029 1030 1078 1030 1031 1079 1031 1032 1080 1033 1081 1032 1034 1082 1033 1034 1035 1083 1084 1035 1036 1037 1085 1036 1038 1086 1037 1038 1066 1087 1066 1039 1088 1039 1040 1088 1067 1089 1040 1090 1067 1041 1068 1090 1041 1043 1091 1042 1044 1042 1092 1093 1043 1046 1045 1044 1094 1049 1045 1095 1047 1096 1046 1097 1047 1048 1050 1049 1098 1050 1099 1051 1052 1051 1100 1052 1101 1053 1102 1054 1053 1055 1054 1103 1055 1104 1056 1057 1056 1105 1106 1058 1057 1059 1058 1107 1059 1108 1068 1097 1048 1069 1069 1060 1109 1109 1060 1070 1061 1110 1062 1064 1062 1111 1112 1070 1063 1064 1111 1071 1112 1063 1071 1074 1024 1072 1072 1023 1073 1027 1076 1073 1074 1113 1065 1113 1075 1065 1076 1028 1077 1077 1029 1078 1030 1079 1078 1079 1031 1080 1032 1081 1080 1082 1081 1033 1034 1083 1082 1083 1035 1084 1085 1084 1036 1086 1085 1037 1038 1087 1086 1087 1066 1114 1114 1066 1088 1040 1089 1088 1115 1089 1067 1090 1115 1067 1116 1090 1068 1093 1091 1043 1042 1091 1092 1044 1092 1094 1096 1093 1046 1095 1045 1094 1049 1095 1098 1097 1096 1047 1099 1050 1098 1051 1099 1100 1101 1052 1100 1101 1102 1053 1103 1054 1102 1055 1103 1104 1056 1104 1105 1106 1057 1105 1107 1058 1106 1059 1107 1108 1108 1116 1068 1097 1069 1117 1069 1109 1117 1109 1070 1118 1062 1110 1111 1118 1070 1112 1111 1119 1071 1119 1112 1071 1120 1074 1072 1121 1072 1073 1076 1122 1073 1120 1113 1074 1123 1075 1113 1076 1077 1124 1125 1077 1078 1078 1079 1126 1127 1079 1080 1081 1128 1080 1082 1129 1081 1082 1083 1130 1131 1083 1084 1084 1085 1132 1086 1133 1085 1086 1087 1134 1087 1114 1135 1114 1088 1136 1088 1089 1136 1115 1137 1089 1090 1138 1115 1116 1138 1090 1093 1139 1091 1091 1140 1092 1092 1141 1094 1142 1093 1096 1143 1095 1094 1095 1144 1098 1145 1096 1097 1146 1099 1098 1099 1147 1100 1148 1101 1100 1149 1102 1101 1103 1102 1150 1104 1103 1151 1105 1104 1152 1153 1106 1105 1107 1106 1154 1108 1107 1155 1108 1156 1116 1145 1097 1117 1109 1157 1117 1109 1118 1157 1110 1158 1111 1118 1112 1159 1119 1111 1160 1159 1112 1119 1121 1120 1072 1122 1121 1073 1076 1124 1122 1113 1120 1161 1123 1113 1161 1124 1077 1125 1125 1078 1126 1079 1127 1126 1128 1127 1080 1081 1129 1128 1082 1130 1129 1130 1083 1131 1131 1084 1132 1085 1133 1132 1086 1134 1133 1087 1135 1134 1135 1114 1162 1162 1114 1136 1089 1137 1136 1163 1137 1115 1138 1163 1115 1116 1164 1138 1142 1139 1093 1091 1139 1140 1140 1141 1092 1141 1143 1094 1142 1096 1145 1144 1095 1143 1144 1146 1098 1146 1147 1099 1147 1148 1100 1149 1101 1148 1150 1102 1149 1103 1150 1151 1104 1151 1152 1153 1105 1152 1106 1153 1154 1155 1107 1154 1108 1155 1156 1116 1156 1164 1145 1117 1165 1117 1157 1165 1157 1118 1166 1111 1158 1160 1118 1159 1166 1119 1160 1167 1159 1119 1167 1121 1168 1120 1122 1169 1121 1122 1124 1170 1120 1171 1161 1172 1123 1161 1124 1125 1173 1174 1125 1126 1127 1175 1126 1176 1127 1128 1129 1177 1128 1129 1130 1178 1130 1131 1179 1180 1131 1132 1133 1181 1132 1133 1134 1182 1135 1183 1134 1184 1135 1162 1185 1162 1136 1137 1185 1136 1163 1186 1137 1138 1187 1163 1138 1164 1187 1188 1139 1142 1139 1189 1140 1190 1141 1140 1141 1191 1143 1142 1145 1192 1193 1144 1143 1144 1194 1146 1146 1195 1147 1147 1196 1148 1197 1149 1148 1150 1149 1198 1150 1199 1151 1152 1151 1200 1201 1153 1152 1153 1202 1154 1203 1155 1154 1156 1155 1204 1164 1156 1205 1192 1145 1165 1165 1157 1206 1206 1157 1166 1158 1207 1160 1166 1159 1208 1160 1209 1167 1208 1159 1167 1121 1169 1168 1120 1168 1171 1122 1170 1169 1170 1124 1173 1171 1210 1161 1210 1172 1161 1125 1174 1173 1175 1174 1126 1176 1175 1127 1177 1176 1128 1129 1178 1177 1178 1130 1179 1131 1180 1179 1181 1180 1132 1181 1133 1182 1134 1183 1182 1184 1183 1135 1184 1162 1211 1211 1162 1185 1137 1186 1185 1163 1212 1186 1163 1187 1212 1187 1164 1213 1188 1189 1139 1188 1142 1192 1189 1190 1140 1190 1191 1141 1191 1193 1143 1193 1194 1144 1146 1194 1195 1147 1195 1196 1196 1197 1148 1198 1149 1197 1150 1198 1199 1151 1199 1200 1201 1152 1200 1201 1202 1153 1202 1203 1154 1204 1155 1203 1156 1204 1205 1164 1205 1213 1214 1192 1165 1214 1165 1206 1215 1206 1166 1207 1209 1160 1215 1166 1208 1209 1216 1167 1216 1208 1167 1168 1169 1217 1171 1168 1218 1169 1170 1219 1220 1170 1173 1171 1218 1210 1221 1172 1210 1174 1222 1173 1175 1223 1174 1224 1175 1176 1177 1225 1176 1177 1178 1226 1178 1179 1227 1180 1228 1179 1181 1229 1180 1230 1181 1182 1182 1183 1231 1184 1232 1183 1233 1184 1211 1234 1211 1185 1186 1234 1185 1186 1212 1235 1212 1187 1236 1236 1187 1213 1237 1189 1188 1238 1188 1192 1239 1190 1189 1240 1191 1190 1191 1241 1193 1242 1194 1193 1194 1243 1195 1195 1244 1196 1245 1197 1196 1198 1197 1246 1199 1198 1247 1200 1199 1248 1249 1201 1200 1250 1202 1201 1251 1203 1202 1204 1203 1252 1204 1253 1205 1205 1254 1213 1214 1238 1192 1255 1214 1206 1215 1255 1206 1207 1256 1209 1257 1215 1208 1209 1258 1216 1216 1257 1208 1169 1219 1217 1168 1217 1218 1219 1170 1220 1222 1220 1173 1218 1259 1210 1259 1221 1210 1174 1223 1222 1224 1223 1175 1225 1224 1176 1177 1226 1225 1226 1178 1227 1179 1228 1227 1229 1228 1180 1230 1229 1181 1230 1182 1231 1183 1232 1231 1233 1232 1184 1260 1233 1211 1234 1260 1211 1186 1235 1234 1235 1212 1261 1212 1236 1261 1236 1213 1262 1239 1189 1237 1237 1188 1238 1240 1190 1239 1240 1241 1191 1241 1242 1193 1242 1243 1194 1243 1244 1195 1244 1245 1196 1246 1197 1245 1198 1246 1247 1199 1247 1248 1249 1200 1248 1250 1201 1249 1251 1202 1250 1252 1203 1251 1204 1252 1253 1253 1254 1205 1213 1254 1262 1263 1238 1214 1255 1263 1214 1264 1255 1215 1209 1256 1258 1264 1215 1257 1216 1258 1265 1257 1216 1265 1219 1266 1217 1218 1217 1267 1219 1220 1268 1220 1222 1269 1259 1218 1267 1270 1221 1259 1223 1271 1222 1224 1272 1223 1225 1273 1224 1225 1226 1274 1275 1226 1227 1227 1228 1276 1229 1277 1228 1230 1278 1229 1279 1230 1231 1232 1280 1231 1233 1281 1232 1260 1282 1233 1234 1283 1260 1234 1235 1283 1284 1235 1261 1236 1285 1261 1285 1236 1262 1239 1237 1286 1237 1238 1287 1240 1239 1288 1289 1241 1240 1290 1242 1241 1291 1243 1242 1292 1244 1243 1293 1245 1244 1246 1245 1294 1246 1295 1247 1247 1296 1248 1297 1249 1248 1250 1249 1298 1251 1250 1299 1252 1251 1300 1253 1252 1301 1253 1302 1254 1254 1303 1262 1287 1238 1263 1304 1263 1255 1304 1255 1264 1256 1305 1258 1264 1257 1306 1258 1307 1265 1308 1257 1265 1219 1268 1266 1217 1266 1267 1268 1220 1269 1222 1271 1269 1309 1259 1267 1270 1259 1309 1223 1272 1271 1224 1273 1272 1225 1274 1273 1274 1226 1275 1275 1227 1276 1228 1277 1276 1229 1278 1277 1279 1278 1230 1280 1279 1231 1232 1281 1280 1233 1282 1281 1260 1310 1282 1260 1283 1310 1283 1235 1284 1284 1261 1311 1261 1285 1311 1312 1285 1262 1288 1239 1286 1237 1287 1286 1289 1240 1288 1290 1241 1289 1291 1242 1290 1292 1243 1291 1293 1244 1292 1294 1245 1293 1246 1294 1295 1295 1296 1247 1296 1297 1248 1249 1297 1298 1250 1298 1299 1251 1299 1300 1301 1252 1300 1253 1301 1302 1302 1303 1254 1303 1312 1262 1287 1263 1313 1313 1263 1304 1304 1264 1314 1258 1305 1307 1314 1264 1306 1257 1308 1306 1307 1308 1265 1266 1268 1315 1266 1316 1267 1317 1268 1269 1269 1271 1318 1316 1309 1267 1319 1270 1309 1272 1320 1271 1273 1321 1272 1273 1274 1322 1274 1275 1323 1324 1275 1276 1277 1325 1276 1277 1278 1326 1279 1327 1278 1280 1328 1279 1280 1281 1329 1281 1282 1330 1282 1310 1331 1310 1283 1332 1283 1284 1332 1284 1311 1333 1285 1334 1311 1312 1334 1285 1288 1286 1335 1287 1336 1286 1289 1288 1337 1290 1289 1338 1291 1290 1339 1292 1291 1340 1293 1292 1341 1294 1293 1342 1294 1343 1295 1344 1296 1295 1296 1345 1297 1297 1346 1298 1298 1347 1299 1299 1348 1300 1301 1300 1349 1302 1301 1350 1351 1303 1302 1303 1352 1312 1287 1313 1336 1313 1304 1353 1304 1314 1353 1305 1354 1307 1355 1314 1306 1308 1355 1306 1307 1356 1308 1315 1268 1317 1266 1315 1316 1317 1269 1318 1271 1320 1318 1316 1357 1309 1357 1319 1309 1321 1320 1272 1273 1322 1321 1322 1274 1323 1275 1324 1323 1325 1324 1276 1325 1277 1326 1278 1327 1326 1279 1328 1327 1280 1329 1328 1329 1281 1330 1282 1331 1330 1331 1310 1358 1358 1310 1332 1332 1284 1333 1311 1359 1333 1334 1359 1311 1360 1334 1312 1337 1288 1335 1286 1336 1335 1338 1289 1337 1339 1290 1338 1291 1339 1340 1341 1292 1340 1342 1293 1341 1294 1342 1343 1343 1344 1295 1344 1345 1296 1345 1346 1297 1346 1347 1298 1347 1348 1299 1300 1348 1349 1350 1301 1349 1351 1302 1350 1351 1352 1303 1352 1360 1312 1336 1313 1361 1361 1313 1353 1314 1362 1353 1354 1356 1307 1314 1355 1362 1308 1356 1355 1315 1317 1363 1316 1315 1364 1365 1317 1318 1320 1366 1318 1357 1316 1364 1367 1319 1357 1321 1368 1320 1321 1322 1369 1322 1323 1370 1324 1371 1323 1325 1372 1324 1373 1325 1326 1327 1374 1326 1327 1328 1375 1328 1329 1376 1329 1330 1377 1331 1378 1330 1331 1358 1379 1380 1358 1332 1380 1332 1333 1333 1359 1381 1334 1382 1359 1360 1382 1334 1383 1337 1335 1335 1336 1384 1385 1338 1337 1386 1339 1338 1340 1339 1387 1388 1341 1340 1389 1342 1341 1343 1342 1390 1343 1391 1344 1392 1345 1344 1393 1346 1345 1346 1394 1347 1347 1395 1348 1348 1396 1349 1397 1350 1349 1398 1351 1350 1351 1399 1352 1352 1400 1360 1336 1361 1384 1361 1353 1401 1353 1362 1401 1354 1402 1356 1362 1355 1403 1355 1356 1404 1315 1363 1364 1363 1317 1365 1366 1365 1318 1320 1368 1366 1357 1364 1405 1367 1357 1406 1321 1369 1368 1369 1322 1370 1323 1371 1370 1324 1372 1371 1373 1372 1325 1374 1373 1326 1327 1375 1374 1375 1328 1376 1376 1329 1377 1330 1378 1377 1331 1379 1378 1379 1358 1407 1407 1358 1380 1380 1333 1381 1359 1408 1381 1382 1408 1359 1360 1409 1382 1383 1385 1337 1383 1335 1384 1385 1386 1338 1339 1386 1387 1388 1340 1387 1388 1389 1341 1390 1342 1389 1343 1390 1391 1391 1392 1344 1392 1393 1345 1393 1394 1346 1347 1394 1395 1395 1396 1348 1396 1397 1349 1398 1350 1397 1398 1399 1351 1352 1399 1400 1360 1400 1409 1384 1361 1410 1410 1361 1401 1401 1362 1411 1356 1402 1404 1355 1404 1403 1362 1403 1411 1363 1412 1364 1363 1365 1413 1414 1365 1366 1368 1415 1366 1357 1405 1406 1364 1412 1405 1416 1367 1406 1368 1369 1417 1418 1369 1370 1370 1371 1419 1371 1372 1420 1373 1421 1372 1374 1422 1373 1374 1375 1423 1424 1375 1376 1425 1376 1377 1377 1378 1426 1378 1379 1427 1379 1407 1428 1407 1380 1429 1429 1380 1381 1408 1430 1381 1382 1431 1408 1382 1409 1431 1432 1385 1383 1433 1383 1384 1385 1434 1386 1386 1435 1387 1436 1388 1387 1388 1437 1389 1438 1390 1389 1391 1390 1439 1391 1440 1392 1392 1441 1393 1393 1442 1394 1394 1443 1395 1444 1396 1395 1396 1445 1397 1446 1398 1397 1398 1447 1399 1400 1399 1448 1409 1400 1449 1433 1384 1410 1450 1410 1401 1450 1401 1411 1402 1451 1404 1404 1452 1403 1403 1453 1411 1363 1413 1412 1365 1414 1413 1415 1414 1366 1368 1417 1415 1405 1454 1406 1405 1412 1455 1454 1416 1406 1417 1369 1418 1418 1370 1419 1371 1420 1419 1372 1421 1420 1373 1422 1421 1374 1423 1422 1423 1375 1424 1425 1424 1376 1425 1377 1426 1378 1427 1426 1427 1379 1428 1428 1407 1456 1407 1429 1456 1430 1429 1381 1408 1457 1430 1408 1431 1457 1431 1409 1458 1432 1434 1385 1432 1383 1433 1434 1435 1386 1435 1436 1387 1436 1437 1388 1437 1438 1389 1439 1390 1438 1391 1439 1440 1392 1440 1441 1393 1441 1442 1394 1442 1443 1443 1444 1395 1444 1445 1396 1445 1446 1397 1446 1447 1398 1399 1447 1448 1449 1400 1448 1409 1449 1458 1459 1433 1410 1450 1459 1410 1450 1411 1460 1451 1452 1404 1452 1453 1403 1411 1453 1460 1413 1461 1412 1414 1462 1413 1415 1463 1414 1415 1417 1464 1454 1405 1455 1412 1461 1455 1465 1416 1454 1417 1418 1466 1467 1418 1419 1420 1468 1419 1421 1469 1420 1421 1422 1470 1422 1423 1471 1423 1424 1472 1473 1424 1425 1474 1425 1426 1426 1427 1475 1476 1427 1428 1477 1428 1456 1429 1478 1456 1430 1478 1429 1430 1457 1479 1457 1431 1480 1480 1431 1458 1432 1481 1434 1482 1432 1433 1434 1483 1435 1435 1484 1436 1437 1436 1485 1486 1438 1437 1439 1438 1487 1440 1439 1488 1441 1440 1489 1442 1441 1490 1443 1442 1491 1443 1492 1444 1444 1493 1445 1445 1494 1446 1446 1495 1447 1447 1496 1448 1449 1448 1497 1458 1449 1498 1459 1482 1433 1499 1459 1450 1499 1450 1460 1451 1500 1452 1452 1501 1453 1460 1453 1502 1462 1461 1413 1414 1463 1462 1415 1464 1463 1464 1417 1466 1503 1454 1455 1461 1503 1455 1465 1454 1504 1418 1467 1466 1468 1467 1419 1469 1468 1420 1421 1470 1469 1470 1422 1471 1423 1472 1471 1472 1424 1473 1473 1425 1474 1474 1426 1475 1427 1505 1475 1505 1427 1476 1477 1476 1428 1478 1477 1456 1478 1430 1479 1457 1506 1479 1457 1480 1506 1507 1480 1458 1482 1481 1432 1434 1481 1483 1483 1484 1435 1436 1484 1485 1486 1437 1485 1487 1438 1486 1439 1487 1488 1489 1440 1488 1441 1489 1490 1491 1442 1490 1443 1491 1492 1444 1492 1493 1445 1493 1494 1446 1494 1495 1447 1495 1496 1448 1496 1497 1449 1497 1498 1507 1458 1498 1508 1482 1459 1508 1459 1499 1509 1499 1460 1452 1500 1501 1453 1501 1502 1509 1460 1502 1510 1461 1462 1463 1511 1462 1463 1464 1512 1513 1464 1466 1454 1503 1504 1510 1503 1461 1514 1465 1504 1466 1467 1515 1468 1516 1467 1469 1517 1468 1469 1470 1518 1519 1470 1471 1471 1472 1520 1472 1473 1521 1473 1474 1522 1523 1474 1475 1505 1523 1475 1524 1505 1476 1525 1476 1477 1526 1477 1478 1527 1478 1479 1479 1506 1528 1506 1480 1529 1530 1480 1507 1531 1481 1482 1481 1532 1483 1533 1484 1483 1484 1534 1485 1535 1486 1485 1487 1486 1536 1487 1537 1488 1489 1488 1538 1490 1489 1539 1540 1491 1490 1492 1491 1541 1493 1492 1542 1494 1493 1543 1495 1494 1544 1496 1495 1545 1496 1546 1497 1497 1547 1498 1507 1498 1548 1531 1482 1508 1508 1499 1549 1549 1499 1509 1500 1550 1501 1501 1551 1502 1551 1509 1502 1511 1510 1462 1463 1512 1511 1512 1464 1513 1513 1466 1515 1504 1503 1552 1510 1553 1503 1554 1514 1504 1467 1516 1515 1468 1517 1516 1469 1518 1517 1518 1470 1519 1519 1471 1520 1472 1521 1520 1521 1473 1522 1522 1474 1523 1505 1555 1523 1524 1555 1505 1524 1476 1525 1525 1477 1526 1527 1526 1478 1527 1479 1528 1506 1556 1528 1480 1530 1529 1556 1506 1529 1530 1507 1557 1531 1532 1481 1532 1533 1483 1533 1534 1484 1534 1535 1485 1536 1486 1535 1487 1536 1537 1488 1537 1538 1489 1538 1539 1540 1490 1539 1541 1491 1540 1492 1541 1542 1543 1493 1542 1494 1543 1544 1545 1495 1544 1496 1545 1546 1546 1547 1497 1498 1547 1548 1557 1507 1548 1531 1508 1558 1508 1549 1558 1549 1509 1559 1501 1550 1551 1509 1551 1559 1511 1560 1510 1511 1512 1561 1512 1513 1562 1513 1515 1563 1503 1553 1552 1554 1504 1552 1510 1560 1553 1564 1514 1554 1516 1565 1515 1516 1517 1566 1517 1518 1567 1518 1519 1568 1569 1519 1520 1521 1569 1520 1521 1522 1570 1571 1522 1523 1555 1571 1523 1524 1572 1555 1573 1524 1525 1574 1525 1526 1527 1575 1526 1576 1527 1528 1556 1576 1528 1530 1577 1529 1577 1556 1529 1578 1530 1557 1579 1532 1531 1580 1533 1532 1581 1534 1533 1582 1535 1534 1536 1535 1583 1536 1584 1537 1537 1585 1538 1538 1586 1539 1540 1539 1587 1541 1540 1588 1541 1589 1542 1543 1542 1590 1544 1543 1591 1592 1545 1544 1546 1545 1593 1546 1594 1547 1547 1595 1548 1595 1557 1548 1579 1531 1558 1558 1549 1596 1597 1549 1559 1550 1598 1551 1551 1599 1559 1511 1561 1560 1561 1512 1562 1562 1513 1563 1515 1565 1563 1553 1600 1552 1600 1554 1552 1553 1560 1601 1602 1564 1554 1516 1566 1565 1566 1517 1567 1518 1568 1567 1568 1519 1603 1519 1569 1603 1569 1521 1570 1522 1604 1570 1571 1604 1522 1605 1571 1555 1573 1572 1524 1572 1605 1555 1574 1573 1525 1575 1574 1526 1576 1575 1527 1578 1577 1530 1606 1578 1557 1580 1532 1579 1581 1533 1580 1582 1534 1581 1583 1535 1582 1536 1583 1584 1584 1585 1537 1585 1586 1538 1539 1586 1587 1588 1540 1587 1541 1588 1589 1542 1589 1590 1543 1590 1591 1592 1544 1591 1593 1545 1592 1546 1593 1594 1594 1595 1547 1595 1606 1557 1607 1579 1558 1549 1597 1596 1607 1558 1596 1599 1597 1559 1598 1599 1551 1560 1561 1608 1609 1561 1562 1610 1562 1563 1563 1565 1611 1553 1601 1600 1602 1554 1600 1560 1608 1601 1612 1564 1602 1565 1566 1613 1614 1566 1567 1567 1568 1615 1616 1568 1603 1569 1617 1603 1618 1569 1570 1604 1618 1570 1619 1604 1571 1605 1619 1571 1580 1579 1620 1581 1580 1621 1582 1581 1622 1583 1582 1623 1584 1583 1624 1584 1625 1585 1585 1626 1586 1586 1627 1587 1628 1588 1587 1589 1588 1629 1589 1630 1590 1590 1631 1591 1592 1591 1632 1593 1592 1633 1594 1593 1634 1595 1594 1635 1636 1606 1595 1579 1607 1620 1597 1637 1596 1637 1607 1596 1599 1638 1597 1598 1639 1599 1608 1561 1609 1610 1609 1562 1610 1563 1611 1565 1613 1611 1601 1640 1600 1640 1602 1600 1608 1641 1601 1612 1602 1642 1613 1566 1614 1614 1567 1615 1568 1616 1615 1617 1616 1603 1618 1617 1569 1604 1643 1618 1619 1643 1604 1621 1580 1620 1581 1621 1622 1623 1582 1622 1624 1583 1623 1584 1624 1625 1585 1625 1626 1626 1627 1586 1627 1628 1587 1588 1628 1629 1630 1589 1629 1630 1631 1590 1591 1631 1632 1633 1592 1632 1593 1633 1634 1644 1594 1634 1636 1595 1635 1594 1644 1635 1607 1645 1620 1637 1597 1646 1637 1645 1607 1599 1639 1638 1597 1638 1646 1608 1609 1647 1648 1609 1610 1649 1610 1611 1611 1613 1650 1601 1641 1640 1642 1602 1640 1608 1647 1641 1651 1612 1642 1613 1614 1652 1653 1614 1615 1616 1653 1615 1617 1654 1616 1655 1617 1618 1643 1655 1618 1656 1621 1620 1622 1621 1657 1658 1623 1622 1659 1624 1623 1625 1624 1660 1625 1661 1626 1662 1627 1626 1627 1663 1628 1628 1664 1629 1665 1630 1629 1630 1666 1631 1631 1667 1632 1633 1632 1668 1633 1669 1634 1669 1644 1634 1670 1636 1635 1644 1670 1635 1645 1656 1620 1637 1646 1671 1672 1645 1637 1639 1673 1638 1638 1674 1646 1647 1609 1648 1648 1610 1649 1649 1611 1650 1650 1613 1652 1641 1675 1640 1675 1642 1640 1641 1647 1676 1651 1642 1677 1614 1678 1652 1614 1653 1678 1679 1653 1616 1655 1654 1617 1654 1679 1616 1621 1656 1657 1658 1622 1657 1658 1659 1623 1660 1624 1659 1625 1660 1661 1661 1662 1626 1662 1663 1627 1663 1664 1628 1664 1665 1629 1665 1666 1630 1631 1666 1667 1632 1667 1668 1669 1633 1668 1669 1680 1644 1680 1670 1644 1645 1681 1656 1672 1637 1671 1646 1674 1671 1672 1681 1645 1673 1674 1638 1647 1648 1682 1648 1649 1683 1684 1649 1650 1685 1650 1652 1641 1676 1675 1642 1675 1677 1676 1647 1682 1686 1651 1677 1678 1685 1652 1653 1687 1678 1679 1687 1653 1656 1688 1657 1689 1658 1657 1658 1690 1659 1691 1660 1659 1661 1660 1692 1661 1693 1662 1662 1694 1663 1663 1695 1664 1664 1696 1665 1665 1697 1666 1667 1666 1698 1668 1667 1699 1700 1669 1668 1701 1680 1669 1681 1688 1656 1702 1672 1671 1674 1702 1671 1703 1681 1672 1673 1704 1674 1648 1683 1682 1683 1649 1684 1685 1684 1650 1676 1705 1675 1675 1705 1677 1706 1676 1682 1686 1677 1707 1708 1685 1678 1687 1708 1678 1688 1689 1657 1689 1690 1658 1690 1691 1659 1692 1660 1691 1661 1692 1693 1662 1693 1694 1663 1694 1695 1664 1695 1696 1665 1696 1697 1666 1697 1698 1667 1698 1699 1700 1668 1699 1701 1669 1700 1681 1709 1688 1703 1672 1702 1674 1704 1702 1703 1709 1681 1683 1706 1682 1710 1683 1684 1685 1711 1684 1705 1676 1712 1677 1705 1707 1676 1706 1712 1713 1686 1707 1708 1711 1685 1714 1689 1688 1689 1715 1690 1716 1691 1690 1692 1691 1717 1693 1692 1718 1694 1693 1719 1695 1694 1720 1696 1695 1721 1697 1696 1722 1697 1723 1698 1698 1724 1699 1724 1700 1699 1725 1701 1700 1709 1714 1688 1726 1703 1702 1704 1727 1702 1728 1709 1703 1729 1706 1683 1710 1729 1683 1711 1710 1684 1730 1705 1712 1705 1731 1707 1706 1732 1712 1731 1713 1707 1714 1715 1689 1715 1716 1690 1717 1691 1716 1692 1717 1718 1693 1718 1719 1720 1694 1719 1695 1720 1721 1722 1696 1721 1697 1722 1723 1698 1723 1733 1724 1698 1733 1724 1725 1700 1734 1714 1709 1726 1728 1703 1727 1726 1702 1734 1709 1728 1729 1732 1706 1730 1731 1705 1732 1730 1712 1735 1715 1714 1736 1716 1715 1717 1716 1737 1717 1738 1718 1718 1739 1719 1720 1719 1740 1721 1720 1741 1722 1721 1742 1723 1722 1743 1723 1744 1733 1745 1724 1733 1745 1725 1724 1735 1714 1734 1728 1726 1746 1727 1747 1726 1734 1728 1748 1736 1715 1735 1737 1716 1736 1717 1737 1738 1738 1739 1718 1719 1739 1740 1720 1740 1741 1721 1741 1742 1743 1722 1742 1744 1723 1743 1744 1749 1733 1749 1745 1733 1735 1734 1750 1726 1747 1746 1748 1728 1746 1734 1748 1750 1736 1735 1751 1737 1736 1752 1738 1737 1753 1738 1754 1739 1739 1755 1740 1740 1756 1741 1741 1757 1742 1757 1743 1742 1758 1744 1743 1759 1749 1744 1751 1735 1750 1747 1760 1746 1748 1746 1761 1748 1762 1750 1736 1751 1752 1753 1737 1752 1738 1753 1754 1754 1755 1739 1755 1756 1740 1741 1756 1763 1757 1741 1763 1757 1758 1743 1759 1744 1758 1751 1750 1764 1746 1760 1761 1762 1748 1761 1750 1762 1764 1752 1751 1765 1766 1753 1752 1754 1753 1767 1754 1768 1755 1755 1769 1756 1756 1770 1763 1771 1757 1763 1771 1758 1757 1772 1759 1758 1765 1751 1764 1760 1773 1761 1774 1762 1761 1762 1775 1764 1766 1752 1765 1767 1753 1766 1754 1767 1768 1755 1768 1769 1756 1769 1770 1770 1771 1763 1771 1772 1758 1775 1765 1764 1773 1774 1761 1774 1775 1762 1776 1766 1765 1767 1766 1777 1768 1767 1778 1769 1768 1779 1769 1780 1770 1781 1771 1770 1781 1772 1771 1765 1775 1782 1773 1783 1774 1774 1784 1775 1777 1766 1776 1776 1765 1782 1767 1777 1778 1779 1768 1778 1780 1769 1779 1780 1785 1770 1785 1781 1770 1775 1784 1782 1774 1783 1784 1777 1776 1786 1776 1782 1787 1777 1788 1778 1779 1778 1789 1780 1779 1790 1791 1785 1780 1784 1792 1782 1783 1793 1784 1777 1786 1788 1786 1776 1787 1782 1792 1787 1778 1788 1789 1790 1779 1789 1791 1780 1790 1793 1792 1784 1788 1786 1794 1795 1786 1787 1792 1795 1787 1789 1788 1796 1797 1790 1789 1798 1791 1790 1793 1799 1792 1794 1786 1795 1788 1794 1796 1795 1792 1800 1797 1789 1796 1797 1798 1790 1792 1799 1800 1794 1795 1801 1794 1802 1796 1803 1795 1800 1802 1797 1796 1804 1798 1797 1799 1805 1800 1806 1794 1801 1795 1803 1801 1794 1806 1802 1805 1803 1800 1804 1797 1802 1803 1806 1801 1806 1807 1802 1805 1808 1803 1807 1804 1802 1806 1803 1809 1810 1807 1806 1803 1808 1809 1810 1806 1809 1808 1811 1809 1811 1810 1809 </DataArray>
        <DataArray type="Int32" Name="offsets" format="ascii">3 6 9 12 15 18 21 24 27 30 33 36 39 42 45 48 51 54 57 60 63 66 69 72 75 78 81 84 87 90 93 96 99 102 105 108 111 114 117 120 123 126 129 132 135 138 141 144 147 150 153 156 159 162 165 168 171 174 177 180 183 186 189 192 195 198 201 204 207 210 213 216 219 222 225 228 231 234 237 240 243 246 249 252 255 258 261 264 267 270 273 276 279 282 285 288 291 294 297 300 303 306 309 312 315 318 321 324 327 330 333 336 339 342 345 348 351 354 357 360 363 366 369 372 375 378 381 384 387 390 393 396 399 402 405 408 411 414 417 420 423 426 429 432 435 438 441 444 447 450 453 456 459 462 465 468 471 474 477 480 483 486 489 492 495 498 501 504 507 510 513 516 519 522 525 528 531 534 537 540 543 546 549 552 555 558 561 564 567 570 573 576 579 582 585 588 591 594 597 600 603 606 609 612 615 618 621 624 627 630 633 636 639 642 645 648 651 654 657 660 663 666 669 672 675 678 681 684 687 690 693 696 699 702 705 708 711 714 717 720 723 726 729 732 735 738 741 744 747 750 753 756 759 762 765 768 771 774 777 780 783 786 789 792 795 798 801 804 807 810 813 816 819 822 825 828 831 834 837 840 843 846 849 852 855 858 861 864 867 870 873 876 879 882 885 888 891 894 897 900 903 906 909 912 915 918 921 924 927 930 933 936 939 942 945 948 951 954 957 960 963 966 969 972 975 978 981 984 987 990 993 996 999 1002 1005 1008 1011 1014 1017 1020 1023 1026 1029 1032 1035 1038 1041 1044 1047 1050 1053 1056 1059 1062 1065 1068 1071 1074 1077 1080 1083 1086 1089 1092 1095 1098 1101 1104 1107 1110 1113 1116 1119 1122 1125 1128 1131 1134 1137 1140 1143 1146 1149 1152 1155 1158 1161 1164 1167 1170 1173 1176 1179 1182 1185 1188 1191 1194 1197 1200 1203 1206 1209 1212 1215 1218 1221 1224 1227 1230 1233 1236 1239 1242 1245 1248 1251 1254 1257 1260 1263 1266 1269 1272 1275 1278 1281 1284 1287 1290 1293 1296 1299 1302 1305 1308 1311 1314 1317 1320 1323 1326 1329 1332 1335 1338 1341 1344 1347 1350 1353 1356 1359 1362 1365 1368 1371 1374 1377 1380 1383 1386 1389 1392 1395 1398 1401 1404 1407 1410 1413 1416 1419 1422 1425 1428 1431 1434 1437 1440 1443 1446 1449 1452 1455 1458 1461 1464 1467 1470 1473 1476 1479 1482 1485 1488 1491 1494 1497 1500 1503 1506 1509 1512 1515 1518 1521 1524 1527 1530 1533 1536 1539 1542 1545 1548 1551 1554 1557 1560 1563 1566 1569 1572 1575 1578 1581 1584 1587 1590 1593 1596 1599 1602 1605 1608 1611 1614 1617 1620 1623 1626 1629 1632 1635 1638 1641 1644 1647 1650 1653 1656 1659 1662 1665 1668 1671 1674 1677 1680 1683 1686 1689 1692 1695 1698 1701 1704 1707 1710 1713 1716 1719 1722 1725 1728 1731 1734 1737 1740 1743 1746 1749 1752 1755 1758 1761 1764 1767 1770 1773 1776 1779 1782 1785 1788 1791 1794 1797 1800 1803 1806 1809 1812 1815 1818 1821 1824 1827 1830 1833 1836 1839 1842 1845 1848 1851 1854 1857 1860 1863 1866 1869 1872 1875 1878 1881 1884 1887 1890 1893 1896 1899 1902 1905 1908 1911 1914 1917 1920 1923 1926 1929 1932 1935 1938 1941 1944 1947 1950 1953 1956 1959 1962 1965 1968 1971 1974 1977 1980 1983 1986 1989 1992 1995 1998 2001 2004 2007 2010 2013 2016 2019 2022 2025 2028 2031 2034 2037 2040 2043 2046 2049 2052 2055 2058 2061 2064 2067 2070 2073 2076 2079 2082 2085 2088 2091 2094 2097 2100 2103 2106 2109 2112 2115 2118 2121 2124 2127 2130 2133 2136 2139 2142 2145 2148 2151 2154 2157 2160 2163 2166 2169 2172 2175 2178 2181 2184 2187 2190 2193 2196 2199 2202 2205 2208 2211 2214 2217 2220 2223 2226 2229 2232 2235 2238 2241 2244 2247 2250 2253 2256 2259 2262 2265 2268 2271 2274 2277 2280 2283 2286 2289 2292 2295 2298 2301 2304 2307 2310 2313 2316 2319 2322 2325 2328 2331 2334 2337 2340 2343 2346 2349 2352 2355 2358 2361 2364 2367 2370 2373 2376 2379 2382 2385 2388 2391 2394 2397 2400 2403 2406 2409 2412 2415 2418 2421 2424 2427 2430 2433 2436 2439 2442 2445 2448 2451 2454 2457 2460 2463 2466 2469 2472 2475 2478 2481 2484 2487 2490 2493 2496 2499 2502 2505 2508 2511 2514 2517 2520 2523 2526 2529 2532 2535 2538 2541 2544 2547 2550 2553 2556 2559 2562 2565 2568 2571 2574 2577 2580 2583 2586 2589 2592 2595 2598 2601 2604 2607 2610 2613 2616 2619 2622 2625 2628 2631 2634 2637 2640 2643 2646 2649 2652 2655 2658 2661 2664 2667 2670 2673 2676 2679 2682 2685 2688 2691 2694 2697 2700 2703 2706 2709 2712 2715 2718 2721 2724 2727 2730 2733 2736 2739 2742 2745 2748 2751 2754 2757 2760 2763 2766 2769 2772 2775 2778 2781 2784 2787 2790 2793 2796 2799 2802 2805 2808 2811 2814 2817 2820 2823 2826 2829 2832 2835 2838 2841 2844 2847 2850 2853 2856 2859 2862 2865 2868 2871 2874 2877 2880 2883 2886 2889 2892 2895 2898 2901 2904 2907 2910 2913 2916 2919 2922 2925 2928 2931 2934 2937 2940 2943 2946 2949 2952 2955 2958 2961 2964 2967 2970 2973 2976 2979 2982 2985 2988 2991 2994 2997 3000 3003 3006 3009 3012 3015 3018 3021 3024 3027 3030 3033 3036 3039 3042 3045 3048 3051 3054 3057 3060 3063 3066 3069 3072 3075 3078 3081 3084 3087 3090 3093 3096 3099 3102 3105 3108 3111 3114 3117 3120 3123 3126 3129 3132 3135 3138 3141 3144 3147 3150 3153 3156 3159 3162 3165 3168 3171 3174 3177 3180 3183 3186 3189 3192 3195 3198 3201 3204 3207 3210 3213 3216 3219 3222 3225 3228 3231 3234 3237 3240 3243 3246 3249 3252 3255 3258 3261 3264 3267 3270 3273 3276 3279 3282 3285 3288 3291 3294 3297 3300 3303 3306 3309 3312 3315 3318 3321 3324 3327 3330 3333 3336 3339 3342 3345 3348 3351 3354 3357 3360 3363 3366 3369 3372 3375 3378 3381 3384 3387 3390 3393 3396 3399 3402 3405 3408 3411 3414 3417 3420 3423 3426 3429 3432 3435 3438 3441 3444 3447 3450 3453 3456 3459 3462 3465 3468 3471 3474 3477 3480 3483 3486 3489 3492 3495 3498 3501 3504 3507 3510 3513 3516 3519 3522 3525 3528 3531 3534 3537 3540 3543 3546 3549 3552 3555 3558 3561 3564 3567 3570 3573 3576 3579 3582 3585 3588 3591 3594 3597 3600 3603 3606 3609 3612 3615 3618 3621 3624 3627 3630 3633 3636 3639 3642 3645 3648 3651 3654 3657 3660 3663 3666 3669 3672 3675 3678 3681 3684 3687 3690 3693 3696 3699 3702 3705 3708 3711 3714 3717 3720 3723 3726 3729 3732 3735 3738 3741 3744 3747 3750 3753 3756 3759 3762 3765 3768 3771 3774 3777 3780 3783 3786 3789 3792 3795 3798 3801 3804 3807 3810 3813 3816 3819 3822 3825 3828 3831 3834 3837 3840 3843 3846 3849 3852 3855 3858 3861 3864 3867 3870 3873 3876 3879 3882 3885 3888 3891 3894 3897 3900 3903 3906 3909 3912 3915 3918 3921 3924 3927 3930 3933 3936 3939 3942 3945 3948 3951 3954 3957 3960 3963 3966 3969 3972 3975 3978 3981 3984 3987 3990 3993 3996 3999 4002 4005 4008 4011 4014 4017 4020 4023 4026 4029 4032 4035 4038 4041 4044 4047 4050 4053 4056 4059 4062 4065 4068 4071 4074 4077 4080 4083 4086 4089 4092 4095 4098 4101 4104 4107 4110 4113 4116 4119 4122 4125 4128 4131 4134 4137 4140 4143 4146 4149 4152 4155 4158 4161 4164 4167 4170 4173 4176 4179 4182 4185 4188 4191 4194 4197 4200 4203 4206 4209 4212 4215 4218 4221 4224 4227 4230 4233 4236 4239 4242 4245 4248 4251 4254 4257 4260 4263 4266 4269 4272 4275 4278 4281 4284 4287 4290 4293 4296 4299 4302 4305 4308 4311 4314 4317 4320 4323 4326 4329 4332 4335 4338 4341 4344 4347 4350 4353 4356 4359 4362 4365 4368 4371 4374 4377 4380 4383 4386 4389 4392 4395 4398 4401 4404 4407 4410 4413 4416 4419 4422 4425 4428 4431 4434 4437 4440 4443 4446 4449 4452 4455 4458 4461 4464 4467 4470 4473 4476 4479 4482 4485 4488 4491 4494 4497 4500 4503 4506 4509 4512 4515 4518 4521 4524 4527 4530 4533 4536 4539 4542 4545 4548 4551 4554 4557 4560 4563 4566 4569 4572 4575 4578 4581 4584 4587 4590 4593 4596 4599 4602 4605 4608 4611 4614 4617 4620 4623 4626 4629 4632 4635 4638 4641 4644 4647 4650 4653 4656 4659 4662 4665 4668 4671 4674 4677 4680 4683 4686 4689 4692 4695 4698 4701 4704 4707 4710 4713 4716 4719 4722 4725 4728 4731 4734 4737 4740 4743 4746 4749 4752 4755 4758 4761 4764 4767 4770 4773 4776 4779 4782 4785 4788 4791 4794 4797 4800 4803 4806 4809 4812 4815 4818 4821 4824 4827 4830 4833 4836 4839 4842 4845 4848 4851 4854 4857 4860 4863 4866 4869 4872 4875 4878 4881 4884 4887 4890 4893 4896 4899 4902 4905 4908 4911 4914 4917 4920 4923 4926 4929 4932 4935 4938 4941 4944 4947 4950 4953 4956 4959 4962 4965 4968 4971 4974 4977 4980 4983 4986 4989 4992 4995 4998 5001 5004 5007 5010 5013 5016 5019 5022 5025 5028 5031 5034 5037 5040 5043 5046 5049 5052 5055 5058 5061 5064 5067 5070 5073 5076 5079 5082 5085 5088 5091 5094 5097 5100 5103 5106 5109 5112 5115 5118 5121 5124 5127 5130 5133 5136 5139 5142 5145 5148 5151 5154 5157 5160 5163 5166 5169 5172 5175 5178 5181 5184 5187 5190 5193 5196 5199 5202 5205 5208 5211 5214 5217 5220 5223 5226 5229 5232 5235 5238 5241 5244 5247 5250 5253 5256 5259 5262 5265 5268 5271 5274 5277 5280 5283 5286 5289 5292 5295 5298 5301 5304 5307 5310 5313 5316 5319 5322 5325 5328 5331 5334 5337 5340 5343 5346 5349 5352 5355 5358 5361 5364 5367 5370 5373 5376 5379 5382 5385 5388 5391 5394 5397 5400 5403 5406 5409 5412 5415 5418 5421 5424 5427 5430 5433 5436 5439 5442 5445 5448 5451 5454 5457 5460 5463 5466 5469 5472 5475 5478 5481 5484 5487 5490 5493 5496 5499 5502 5505 5508 5511 5514 5517 5520 5523 5526 5529 5532 5535 5538 5541 5544 5547 5550 5553 5556 5559 5562 5565 5568 5571 5574 5577 5580 5583 5586 5589 5592 5595 5598 5601 5604 5607 5610 5613 5616 5619 5622 5625 5628 5631 5634 5637 5640 5643 5646 5649 5652 5655 5658 5661 5664 5667 5670 5673 5676 5679 5682 5685 5688 5691 5694 5697 5700 5703 5706 5709 5712 5715 5718 5721 5724 5727 5730 5733 5736 5739 5742 5745 5748 5751 5754 5757 5760 5763 5766 5769 5772 5775 5778 5781 5784 5787 5790 5793 5796 5799 5802 5805 5808 5811 5814 5817 5820 5823 5826 5829 5832 5835 5838 5841 5844 5847 5850 5853 5856 5859 5862 5865 5868 5871 5874 5877 5880 5883 5886 5889 5892 5895 5898 5901 5904 5907 5910 5913 5916 5919 5922 5925 5928 5931 5934 5937 5940 5943 5946 5949 5952 5955 5958 5961 5964 5967 5970 5973 5976 5979 5982 5985 5988 5991 5994 5997 6000 6003 6006 6009 6012 6015 6018 6021 6024 6027 6030 6033 6036 6039 6042 6045 6048 6051 6054 6057 6060 6063 6066 6069 6072 6075 6078 6081 6084 6087 6090 6093 6096 6099 6102 6105 6108 6111 6114 6117 6120 6123 6126 6129 6132 6135 6138 6141 6144 6147 6150 6153 6156 6159 6162 6165 6168 6171 6174 6177 6180 6183 6186 6189 6192 6195 6198 6201 6204 6207 6210 6213 6216 6219 6222 6225 6228 6231 6234 6237 6240 6243 6246 6249 6252 6255 6258 6261 6264 6267 6270 6273 6276 6279 6282 6285 6288 6291 6294 6297 6300 6303 6306 6309 6312 6315 6318 6321 6324 6327 6330 6333 6336 6339 6342 6345 6348 6351 6354 6357 6360 6363 6366 6369 6372 6375 6378 6381 6384 6387 6390 6393 6396 6399 6402 6405 6408 6411 6414 6417 6420 6423 6426 6429 6432 6435 6438 6441 6444 6447 6450 6453 6456 6459 6462 6465 6468 6471 6474 6477 6480 6483 6486 6489 6492 6495 6498 6501 6504 6507 6510 6513 6516 6519 6522 6525 6528 6531 6534 6537 6540 6543 6546 6549 6552 6555 6558 6561 6564 6567 6570 6573 6576 6579 6582 6585 6588 6591 6594 6597 6600 6603 6606 6609 6612 6615 6618 6621 6624 6627 6630 6633 6636 6639 6642 6645 6648 6651 6654 6657 6660 6663 6666 6669 6672 6675 6678 6681 6684 6687 6690 6693 6696 6699 6702 6705 6708 6711 6714 6717 6720 6723 6726 6729 6732 6735 6738 6741 6744 6747 6750 6753 6756 6759 6762 6765 6768 6771 6774 6777 6780 6783 6786 6789 6792 6795 6798 6801 6804 6807 6810 6813 6816 6819 6822 6825 6828 6831 6834 6837 6840 6843 6846 6849 6852 6855 6858 6861 6864 6867 6870 6873 6876 6879 6882 6885 6888 6891 6894 6897 6900 6903 6906 6909 6912 6915 6918 6921 6924 6927 6930 6933 6936 6939 6942 6945 6948 6951 6954 6957 6960 6963 6966 6969 6972 6975 6978 6981 6984 6987 6990 6993 6996 6999 7002 7005 7008 7011 7014 7017 7020 7023 7026 7029 7032 7035 7038 7041 7044 7047 7050 7053 7056 7059 7062 7065 7068 7071 7074 7077 7080 7083 7086 7089 7092 7095 7098 7101 7104 7107 7110 7113 7116 7119 7122 7125 7128 7131 7134 7137 7140 7143 7146 7149 7152 7155 7158 7161 7164 7167 7170 7173 7176 7179 7182 7185 7188 7191 7194 7197 7200 7203 7206 7209 7212 7215 7218 7221 7224 7227 7230 7233 7236 7239 7242 7245 7248 7251 7254 7257 7260 7263 7266 7269 7272 7275 7278 7281 7284 7287 7290 7293 7296 7299 7302 7305 7308 7311 7314 7317 7320 7323 7326 7329 7332 7335 7338 7341 7344 7347 7350 7353 7356 7359 7362 7365 7368 7371 7374 7377 7380 7383 7386 7389 7392 7395 7398 7401 7404 7407 7410 7413 7416 7419 7422 7425 7428 7431 7434 7437 7440 7443 7446 7449 7452 7455 7458 7461 7464 7467 7470 7473 7476 7479 7482 7485 7488 7491 7494 7497 7500 7503 7506 7509 7512 7515 7518 7521 7524 7527 7530 7533 7536 7539 7542 7545 7548 7551 7554 7557 7560 7563 7566 7569 7572 7575 7578 7581 7584 7587 7590 7593 7596 7599 7602 7605 7608 7611 7614 7617 7620 7623 7626 7629 7632 7635 7638 7641 7644 7647 7650 7653 7656 7659 7662 7665 7668 7671 7674 7677 7680 7683 7686 7689 7692 7695 7698 7701 7704 7707 7710 7713 7716 7719 7722 7725 7728 7731 7734 7737 7740 7743 7746 7749 7752 7755 7758 7761 7764 7767 7770 7773 7776 7779 7782 7785 7788 7791 7794 7797 7800 7803 7806 7809 7812 7815 7818 7821 7824 7827 7830 7833 7836 7839 7842 7845 7848 7851 7854 7857 7860 7863 7866 7869 7872 7875 7878 7881 7884 7887 7890 7893 7896 7899 7902 7905 7908 7911 7914 7917 7920 7923 7926 7929 7932 7935 7938 7941 7944 7947 7950 7953 7956 7959 7962 7965 7968 7971 7974 7977 7980 7983 7986 7989 7992 7995 7998 8001 8004 8007 8010 8013 8016 8019 8022 8025 8028 8031 8034 8037 8040 8043 8046 8049 8052 8055 8058 8061 8064 8067 8070 8073 8076 8079 8082 8085 8088 8091 8094 8097 8100 8103 8106 8109 8112 8115 8118 8121 8124 8127 8130 8133 8136 8139 8142 8145 8148 8151 8154 8157 8160 8163 8166 8169 8172 8175 8178 8181 8184 8187 8190 8193 8196 8199 8202 8205 8208 8211 8214 8217 8220 8223 8226 8229 8232 8235 8238 8241 8244 8247 8250 8253 8256 8259 8262 8265 8268 8271 8274 8277 8280 8283 8286 8289 8292 8295 8298 8301 8304 8307 8310 8313 8316 8319 8322 8325 8328 8331 8334 8337 8340 8343 8346 8349 8352 8355 8358 8361 8364 8367 8370 8373 8376 8379 8382 8385 8388 8391 8394 8397 8400 8403 8406 8409 8412 8415 8418 8421 8424 8427 8430 8433 8436 8439 8442 8445 8448 8451 8454 8457 8460 8463 8466 8469 8472 8475 8478 8481 8484 8487 8490 8493 8496 8499 8502 8505 8508 8511 8514 8517 8520 8523 8526 8529 8532 8535 8538 8541 8544 8547 8550 8553 8556 8559 8562 8565 8568 8571 8574 8577 8580 8583 8586 8589 8592 8595 8598 8601 8604 8607 8610 8613 8616 8619 8622 8625 8628 8631 8634 8637 8640 8643 8646 8649 8652 8655 8658 8661 8664 8667 8670 8673 8676 8679 8682 8685 8688 8691 8694 8697 8700 8703 8706 8709 8712 8715 8718 8721 8724 8727 8730 8733 8736 8739 8742 8745 8748 8751 8754 8757 8760 8763 8766 8769 8772 8775 8778 8781 8784 8787 8790 8793 8796 8799 8802 8805 8808 8811 8814 8817 8820 8823 8826 8829 8832 8835 8838 8841 8844 8847 8850 8853 8856 8859 8862 8865 8868 8871 8874 8877 8880 8883 8886 8889 8892 8895 8898 8901 8904 8907 8910 8913 8916 8919 8922 8925 8928 8931 8934 8937 8940 8943 8946 8949 8952 8955 8958 8961 8964 8967 8970 8973 8976 8979 8982 8985 8988 8991 8994 8997 9000 9003 9006 9009 9012 9015 9018 9021 9024 9027 9030 9033 9036 9039 9042 9045 9048 9051 9054 9057 9060 9063 9066 9069 9072 9075 9078 9081 9084 9087 9090 9093 9096 9099 9102 9105 9108 9111 9114 9117 9120 9123 9126 9129 9132 9135 9138 9141 9144 9147 9150 9153 9156 9159 9162 9165 9168 9171 9174 9177 9180 9183 9186 9189 9192 9195 9198 9201 9204 9207 9210 9213 9216 9219 9222 9225 9228 9231 9234 9237 9240 9243 9246 9249 9252 9255 9258 9261 9264 9267 9270 9273 9276 9279 9282 9285 9288 9291 9294 9297 9300 9303 9306 9309 9312 9315 9318 9321 9324 9327 9330 9333 9336 9339 9342 9345 9348 9351 9354 9357 9360 9363 9366 9369 9372 9375 9378 9381 9384 9387 9390 9393 9396 9399 9402 9405 9408 9411 9414 9417 9420 9423 9426 9429 9432 9435 9438 9441 9444 9447 9450 9453 9456 9459 9462 9465 9468 9471 9474 9477 9480 9483 9486 9489 9492 9495 9498 9501 9504 9507 9510 9513 9516 9519 9522 9525 9528 9531 9534 9537 9540 9543 9546 9549 9552 9555 9558 9561 9564 9567 9570 9573 9576 9579 9582 9585 9588 9591 9594 9597 9600 9603 9606 9609 9612 9615 9618 9621 9624 9627 9630 9633 9636 9639 9642 9645 9648 9651 9654 9657 9660 9663 9666 9669 9672 9675 9678 9681 9684 9687 9690 9693 9696 9699 9702 9705 9708 9711 9714 9717 9720 9723 9726 9729 9732 9735 9738 9741 9744 9747 9750 9753 9756 9759 9762 9765 9768 9771 9774 9777 9780 9783 9786 9789 9792 9795 9798 9801 9804 9807 9810 9813 9816 9819 9822 9825 9828 9831 9834 9837 9840 9843 9846 9849 9852 9855 9858 9861 9864 9867 9870 9873 9876 9879 9882 9885 9888 9891 9894 9897 9900 9903 9906 9909 9912 9915 9918 9921 9924 9927 9930 9933 9936 9939 9942 9945 9948 9951 9954 9957 9960 9963 9966 9969 9972 9975 9978 9981 9984 9987 9990 9993 9996 9999 10002 10005 10008 10011 10014 10017 10020 10023 10026 10029 10032 10035 10038 10041 10044 10047 10050 10053 10056 10059 10062 10065 10068 10071 10074 10077 10080 10083 10086 10089 10092 10095 10098 10101 10104 10107 10110 10113 10116 10119 10122 10125 10128 10131 10134 10137 10140 10143 10146 10149 10152 10155 10158 10161 10164 10167 10170 10173 10176 10179 10182 10185 10188 10191 10194 10197 10200 10203 10206 10209 10212 10215 10218 10221 10224 10227 10230 10233 10236 10239 10242 10245 10248 10251 10254 10257 10260 10263 10266 10269 10272 10275 10278 10281 10284 10287 10290 10293 10296 10299 10302 10305 10308 10311 10314 10317 10320 10323 10326 10329 10332 10335 10338 10341 10344 10347 10350 10353 10356 10359 10362 10365 10368 10371 10374 10377 10380 10383 10386 10389 10392 10395 10398 10401 </DataArray>
        <DataArray type="Int8" Name="types" format="ascii">69 69 69 69 69 69 69 69 69 69 69 69 69 69 69 69 69 69 69 69 69 69 69 69 69 69 69 69 69 69 69 69 69 69 69 69 69 69 69 69 69 69 69 69 69 69 69 69 69 69 69 69 69 69 69 69 69 69 69 69 69 69 69 69 69 69 69 69 69 69 69 69 69 69 69 69 69 69 69 69 69 69 69 69 69 69 69 69 69 69 69 69 69 69 69 69 69 69 69 69 69 69 69 69 69 69 69 69 69 69 69 69 69 69 69 69 69 69 69 69 69 69 69 69 69 69 69 69 69 69 69 69 69 69 69 69 69 69 69 69 69 69 69 69 69 69 69 69 69 69 69 69 69 69 69 69 69 69 69 69 69 69 69 69 69 69 69 69 69 69 69 69 69 69 69 69 69 69 69 69 69 69 69 69 69 69 69 69 69 69 69 69 69 69 69 69 69 69 69 69 69 69 69 69 69 69 69 69 69 69 69 69 69 69 69 69 69 69 69 69 69 69 69 69 69 69 69 69 69 69 69 69 69 69 69 69 69 69 69 69 69 69 69 69 69 69 69 69 69 69 69 69 69 69 69 69 69 69 69 69 69 69 69 69 69 69 69 69 69 69 69 69 69 69 69 69 69 69 69 69 69 69 69 69 69 69 69 69 69 69 69 69 69 69 69 69 69 69 69 69 69 69 69 69 69 69 69 69 69 69 69 69 69 69 69 69 69 69 69 69 69 69 69 69 69 69 69 69 69 69 69 69 69 69 69 69 69 69 69 69 69 69 69 69 69 69 69 69 69 69 69 69 69 69 69 69 69 69 69 69 69 69 69 69 69 69 69 69 69 69 69 69 69 69 69 69 69 69 69 69 69 69 69 69 69 69 69 69 69 69 69 69 69 69 69 69 69 69 69 69 69 69 69 69 69 69 69 69 69 69 69 69 69 69 69 69 69 69 69 69 69 69 69 69 69 69 69 69 69 69 69 69 69 69 69 69 69 69 69 69 69 69 69 69 69 69 69 69 69 69 69 69 69 69 69 69 69 69 69 69 69 69 69 69 69 69 69 69 69 69 69 69 69 69 69 69 69 69 69 69 69 69 69 69 69 69 69 69 69 69 69 69 69 69 69 69 69 69 69 69 69 69 69 69 69 69 69 69 69 69 69 69 69 69 69 69 69 69 69 69 69 69 69 69 69 69 69 69 69 69 69 69 69 69 69 69 69 69 69 69 69 69 69 69 69 69 69 69 69 69 69 69 69 69 69 69 69 69 69 69 69 69 69 69 69 69 69 69 69 69 69 69 69 69 69 69 69 69 69 69 69 69 69 69 69 69 69 69 69 69 69 69 69 69 69 69 69 69 69 69 69 69 69 69 69 69 69 69 69 69 69 69 69 69 69 69 69 69 69 69 69 69 69 69 69 69 69 69 69 69 69 69 69 69 69 69 69 69 69 69 69 69 69 69 69 69 69 69 69 69 69 69 69 69 69 69 69 69 69 69 69 69 69 69 69 69 69 69 69 69 69 69 69 69 69 69 69 69 69 69 69 69 69 69 69 69 69 69 69 69 69 69 69 69 69 69 69 69 69 69 69 69 69 69 69 69 69 69 69 69 69 69 69 69 69 69 69 69 69 69 69 69 69 69 69 69 69 69 69 69 69 69 69 69 69 69 69 69 69 69 69 69 69 69 69 69 69 69 69 69 69 69 69 69 69 69 69 69 69 69 69 69 69 69 69 69 69 69 69 69 69 69 69 69 69 69 69 69 69 69 69 69 69 69 69 69 69 69 69 69 69 69 69 69 69 69 69 69 69 69 69 69 69 69 69 69 69 69 69 69 69 69 69 69 69 69 69 69 69 69 69 69 69 69 69 69 69 69 69 69 69 69 69 69 69 69 69 69 69 69 69 69 69 69 69 69 69 69 69 69 69 69 69 69 69 69 69 69 69 69 69 69 69 69 69 69 69 69 69 69 69 69 69 69 69 69 69 69 69 69 69 69 69 69 69 69 69 69 69 69 69 69 69 69 69 69 69 69 69 69 69 69 69 69 69 69 69 69 69 69 69 69 69 69 69 69 69 69 69 69 69 69 69 69 69 69 69 69 69 69 69 69 69 69 69 69 69 69 69 69 69 69 69 69 69 69 69 69 69 69 69 69 69 69 69 69 69 69 69 69 69 69 69 69 69 69 69 69 69 69 69 69 69 69 69 69 69 69 69 69 69 69 69 69 69 69 69 69 69 69 69 69 69 69 69 69 69 69 69 69 69 69 69 69 69 69 69 69 69 69 69 69 69 69 69 69 69 69 69 69 69 69 69 69 69 69 69 69 69 69 69 69 69 69 69 69 69 69 69 69 69 69 69 69 69 69 69 69 69 69 69 69 69 69 69 69 69 69 69 69 69 69 69 69 69 69 69 69 69 69 69 69 69 69 69 69 69 69 69 69 69 69 69 69 69 69 69 69 69 69 69 69 69 69 69 69 69 69 69 69 69 69 69 69 69 69 69 69 69 69 69 69 69 69 69 69 69 69 69 69 69 69 69 69 69 69 69 69 69 69 69 69 69 69 69 69 69 69 69 69 69 69 69 69 69 69 69 69 69 69 69 69 69 69 69 69 69 69 69 69 69 69 69 69 69 69 69 69 69 69 69 69 69 69 69 69 69 69 69 69 69 69 69 69 69 69 69 69 69 69 69 69 69 69 69 69 69 69 69 69 69 69 69 69 69 69 69 69 69 69 69 69 69 69 69 69 69 69 69 69 69 69 69 69 69 69 69 69 69 69 69 69 69 69 69 69 69 69 69 69 69 69 69 69 69 69 69 69 69 69 69 69 69 69 69 69 69 69 69 69 69 69 69 69 69 69 69 69 69 69 69 69 69 69 69 69 69 69 69 69 69 69 69 69 69 69 69 69 69 69 69 69 69 69 69 69 69 69 69 69 69 69 69 69 69 69 69 69 69 69 69 69 69 69 69 69 69 69 69 69 69 69 69 69 69 69 69 69 69 69 69 69 69 69 69 69 69 69 69 69 69 69 69 69 69 69 69 69 69 69 69 69 69 69 69 69 69 69 69 69 69 69 69 69 69 69 69 69 69 69 69 69 69 69 69 69 69 69 69 69 69 69 69 69 69 69 69 69 69 69 69 69 69 69 69 69 69 69 69 69 69 69 69 69 69 69 69 69 69 69 69 69 69 69 69 69 69 69 69 69 69 69 69 69 69 69 69 69 69 69 69 69 69 69 69 69 69 69 69 69 69 69 69 69 69 69 69 69 69 69 69 69 69 69 69 69 69 69 69 69 69 69 69 69 69 69 69 69 69 69 69 69 69 69 69 69 69 69 69 69 69 69 69 69 69 69 69 69 69 69 69 69 69 69 69 69 69 69 69 69 69 69 69 69 69 69 69 69 69 69 69 69 69 69 69 69 69 69 69 69 69 69 69 69 69 69 69 69 69 69 69 69 69 69 69 69 69 69 69 69 69 69 69 69 69 69 69 69 69 69 69 69 69 69 69 69 69 69 69 69 69 69 69 69 69 69 69 69 69 69 69 69 69 69 69 69 69 69 69 69 69 69 69 69 69 69 69 69 69 69 69 69 69 69 69 69 69 69 69 69 69 69 69 69 69 69 69 69 69 69 69 69 69 69 69 69 69 69 69 69 69 69 69 69 69 69 69 69 69 69 69 69 69 69 69 69 69 69 69 69 69 69 69 69 69 69 69 69 69 69 69 69 69 69 69 69 69 69 69 69 69 69 69 69 69 69 69 69 69 69 69 69 69 69 69 69 69 69 69 69 69 69 69 69 69 69 69 69 69 69 69 69 69 69 69 69 69 69 69 69 69 69 69 69 69 69 69 69 69 69 69 69 69 69 69 69 69 69 69 69 69 69 69 69 69 69 69 69 69 69 69 69 69 69 69 69 69 69 69 69 69 69 69 69 69 69 69 69 69 69 69 69 69 69 69 69 69 69 69 69 69 69 69 69 69 69 69 69 69 69 69 69 69 69 69 69 69 69 69 69 69 69 69 69 69 69 69 69 69 69 69 69 69 69 69 69 69 69 69 69 69 69 69 69 69 69 69 69 69 69 69 69 69 69 69 69 69 69 69 69 69 69 69 69 69 69 69 69 69 69 69 69 69 69 69 69 69 69 69 69 69 69 69 69 69 69 69 69 69 69 69 69 69 69 69 69 69 69 69 69 69 69 69 69 69 69 69 69 69 69 69 69 69 69 69 69 69 69 69 69 69 69 69 69 69 69 69 69 69 69 69 69 69 69 69 69 69 69 69 69 69 69 69 69 69 69 69 69 69 69 69 69 69 69 69 69 69 69 69 69 69 69 69 69 69 69 69 69 69 69 69 69 69 69 69 69 69 69 69 69 69 69 69 69 69 69 69 69 69 69 69 69 69 69 69 69 69 69 69 69 69 69 69 69 69 69 69 69 69 69 69 69 69 69 69 69 69 69 69 69 69 69 69 69 69 69 69 69 69 69 69 69 69 69 69 69 69 69 69 69 69 69 69 69 69 69 69 69 69 69 69 69 69 69 69 69 69 69 69 69 69 69 69 69 69 69 69 69 69 69 69 69 69 69 69 69 69 69 69 69 69 69 69 69 69 69 69 69 69 69 69 69 69 69 69 69 69 69 69 69 69 69 69 69 69 69 69 69 69 69 69 69 69 69 69 69 69 69 69 69 69 69 69 69 69 69 69 69 69 69 69 69 69 69 69 69 69 69 69 69 69 69 69 69 69 69 69 69 69 69 69 69 69 69 69 69 69 69 69 69 69 69 69 69 69 69 69 69 69 69 69 69 69 69 69 69 69 69 69 69 69 69 69 69 69 69 69 69 69 69 69 69 69 69 69 69 69 69 69 69 69 69 69 69 69 69 69 69 69 69 69 69 69 69 69 69 69 69 69 69 69 69 69 69 69 69 69 69 69 69 69 69 69 69 69 69 69 69 69 69 69 69 69 69 69 69 69 69 69 69 69 69 69 69 69 69 69 69 69 69 69 69 69 69 69 69 69 69 69 69 69 69 69 69 69 69 69 69 69 69 69 69 69 69 69 69 69 69 69 69 69 69 69 69 69 69 69 69 69 69 69 69 69 69 69 69 69 69 69 69 69 69 69 69 69 69 69 69 69 69 69 69 69 69 69 69 69 69 69 69 69 69 69 69 69 69 69 69 69 69 69 69 69 69 69 69 69 69 69 69 69 69 69 69 69 69 69 69 69 69 69 69 69 69 69 69 69 69 69 69 69 69 69 69 69 69 69 69 69 69 69 69 69 69 69 69 69 69 69 69 69 69 69 69 69 69 69 69 69 69 69 69 69 69 69 69 69 69 69 69 69 69 69 69 69 69 69 69 69 69 69 69 69 69 69 69 69 69 69 69 69 69 69 69 69 69 69 69 69 69 69 69 69 69 69 69 69 69 69 69 69 69 69 69 69 69 69 69 69 69 69 69 69 69 69 69 69 69 69 69 69 69 69 69 69 69 69 69 69 69 69 69 69 69 69 69 69 69 69 69 69 69 69 69 69 69 69 69 69 69 69 69 69 69 69 69 69 69 69 69 69 69 69 69 69 69 69 69 69 69 69 69 69 69 69 69 69 69 69 69 69 69 69 69 69 69 69 69 69 69 69 69 69 69 69 69 69 69 69 69 69 69 69 69 69 69 69 69 69 69 69 69 69 69 69 69 69 69 69 69 69 69 69 69 69 69 69 69 69 69 69 69 69 69 69 69 69 69 69 69 69 69 69 69 69 69 69 69 69 69 69 69 69 69 69 69 69 69 69 69 69 69 69 69 69 69 69 69 69 69 69 69 69 69 69 69 69 69 69 69 69 69 69 69 69 69 69 69 69 69 69 69 69 69 69 69 69 69 69 69 69 69 69 69 69 69 69 69 69 69 69 69 69 69 69 69 69 69 69 69 69 69 69 69 69 69 69 69 69 69 69 69 69 69 69 69 69 69 69 69 69 69 69 69 69 69 69 69 69 69 69 69 69 69 69 69 69 69 69 69 69 69 69 69 69 69 69 69 69 69 69 69 69 69 69 69 69 69 69 69 69 69 69 69 69 69 69 69 69 69 69 69 69 69 69 69 69 69 69 69 69 69 69 69 69 69 69 69 69 69 69 69 69 69 69 69 69 69 69 69 69 69 69 69 69 69 69 69 69 69 69 69 69 69 69 69 69 69 69 69 69 69 69 69 69 69 69 69 69 69 69 69 69 69 69 69 69 69 69 69 69 69 69 69 69 69 69 69 69 69 69 69 69 69 69 69 69 69 69 69 69 69 69 69 69 69 69 69 69 69 69 69 69 69 69 69 69 69 69 69 69 69 69 69 69 69 69 69 69 69 69 69 69 69 69 69 69 69 69 69 69 69 69 69 69 69 69 69 69 69 69 69 69 69 69 69 69 69 69 69 69 69 69 69 69 69 69 69 69 69 69 69 69 69 69 69 69 69 69 69 69 69 69 69 69 69 69 69 69 69 69 69 69 69 69 69 69 69 69 69 69 69 69 69 69 69 69 69 69 69 69 69 69 69 69 69 69 69 69 69 69 69 69 69 69 69 69 69 69 69 69 69 69 69 69 69 69 69 69 69 69 69 69 69 69 69 69 69 69 69 69 69 69 69 69 69 69 69 69 69 69 69 69 69 69 69 69 69 69 69 69 69 69 69 69 69 69 69 69 69 69 69 69 69 69 69 69 69 69 69 69 69 69 69 69 69 69 69 69 69 69 69 69 69 69 69 69 69 69 69 69 69 69 69 69 69 69 69 69 69 69 69 69 69 69 69 69 69 69 69 69 69 69 69 69 69 69 69 69 69 69 69 69 69 69 69 69 69 69 69 69 69 69 69 69 69 69 69 69 69 69 69 69 69 69 69 69 69 69 69 69 69 69 69 69 69 69 69 69 69 69 69 69 69 69 69 69 69 69 69 69 69 69 69 69 69 69 69 69 69 69 69 69 69 69 69 69 69 69 69 69 69 69 69 69 69 69 69 69 69 69 69 69 69 69 69 69 69 69 69 69 69 69 69 69 69 69 69 69 69 69 69 69 69 69 69 69 69 69 69 69 69 69 69 69 69 69 69 69 69 69 69 69 69 69 69 69 69 69 69 69 69 69 69 69 69 69 69 69 69 69 69 69 69 69 69 69 69 69 69 69 69 69 69 69 69 69 69 69 69 69 69 69 69 69 69 69 69 69 69 69 69 69 69 69 69 69 69 69 69 69 69 69 69 69 69 69 69 69 69 69 69 69 69 69 69 69 69 69 69 69 69 69 69 69 69 69 69 69 69 69 69 69 69 69 69 69 69 69 69 69 69 69 69 69 69 69 69 69 69 69 69 69 69 69 69 69 69 69 69 69 69 69 69 69 69 69 69 69 69 69 69 69 69 69 69 69 69 69 69 69 69 69 69 69 69 69 69 69 69 69 69 69 69 69 69 69 69 69 69 69 69 69 69 69 69 69 69 69 69 69 69 69 69 69 69 69 69 69 69 69 69 69 69 69 69 69 69 69 69 69 69 69 69 69 69 69 69 69 69 69 69 69 69 69 69 69 69 69 69 69 69 69 69 69 69 69 69 69 69 69 69 69 69 69 69 69 69 69 69 69 69 69 69 69 69 69 69 69 69 69 69 69 69 69 69 69 69 69 69 69 69 69 69 69 69 69 69 69 69 69 69 69 69 69 69 69 69 69 69 69 69 69 69 69 69 69 69 69 69 69 69 69 69 69 69 69 69 69 69 69 69 69 69 69 69 69 69 69 69 69 69 69 69 69 69 69 69 69 69 69 69 69 69 69 69 69 </DataArray>
      </Cells>
      <CellData>
        <DataArray type="UInt8" Name="vtkGhostType" format="ascii" RangeMin="0" RangeMax="1">0 0 0 0 0 0 0 0 0 0 0 0 0 0 0 0 0 0 0 0 0 0 0 0 0 0 0 0 0 0 0 0 0 0 0 0 0 0 0 0 0 0 0 0 0 0 0 0 0 0 0 0 0 0 0 0 0 0 0 0 0 0 0 0 0 0 0 0 0 0 0 0 0 0 0 0 0 0 0 0 0 0 0 0 0 0 0 0 0 0 0 0 0 0 0 0 0 0 0 0 0 0 0 0 0 0 0 0 0 0 0 0 0 0 0 0 0 0 0 0 0 0 0 0 0 0 0 0 0 0 0 0 0 0 0 0 0 0 0 0 0 0 0 0 0 0 0 0 0 0 0 0 0 0 0 0 0 0 0 0 0 0 0 0 0 0 0 0 0 0 0 0 0 0 0 0 0 0 0 0 0 0 0 0 0 0 0 0 0 0 0 0 0 0 0 0 0 0 0 0 0 0 0 0 0 0 0 0 0 0 0 0 0 0 0 0 0 0 0 0 0 0 0 0 0 0 0 0 0 0 0 0 0 0 0 0 0 0 0 0 0 0 0 0 0 0 0 0 0 0 0 0 0 0 0 0 0 0 0 0 0 0 0 0 0 0 0 0 0 0 0 0 0 0 0 0 0 0 0 0 0 0 0 0 0 0 0 0 0 0 0 0 0 0 0 0 0 0 0 0 0 0 0 0 0 0 0 0 0 0 0 0 0 0 0 0 0 0 0 0 0 0 0 0 0 0 0 0 0 0 0 0 0 0 0 0 0 0 0 0 0 0 0 0 0 0 0 0 0 0 0 0 0 0 0 0 0 0 0 0 0 0 0 0 0 0 0 0 0 0 0 0 0 0 0 0 0 0 0 0 0 0 0 0 0 0 0 0 0 0 0 0 0 0 0 0 0 0 0 0 0 0 0 0 0 0 0 0 0 0 0 0 0 0 0 0 0 0 0 0 0 0 0 0 0 0 0 0 0 0 0 0 0 0 0 0 0 0 0 0 0 0 0 0 0 0 0 0 0 0 0 0 0 0 0 0 0 0 0 0 0 0 0 0 0 0 0 0 0 0 0 0 0 0 0 0 0 0 0 0 0 0 0 0 0 0 0 0 0 0 0 0 0 0 0 0 0 0 0 0 0 0 0 0 0 0 0 0 0 0 0 0 0 0 0 0 0 0 0 0 0 0 0 0 0 0 0 0 0 0 0 0 0 0 0 0 0 0 0 0 0 0 0 0 0 0 0 0 0 0 0 0 0 0 0 0 0 0 0 0 0 0 0 0 0 0 0 0 0 0 0 0 0 0 0 0 0 0 0 0 0 0 0 0 0 0 0 0 0 0 0 0 0 0 0 0 0 0 0 0 0 0 0 0 0 0 0 0 0 0 0 0 0 0 0 0 0 0 0 0 0 0 0 0 0 0 0 0 0 0 0 0 0 0 0 0 0 0 0 0 0 0 0 0 0 0 0 0 0 0 0 0 0 0 0 0 0 0 0 0 0 0 0 0 0 0 0 0 0 0 0 0 0 0 0 0 0 0 0 0 0 0 0 0 0 0 0 0 0 0 0 0 0 0 0 0 0 0 0 0 0 0 0 0 0 0 0 0 0 0 0 0 0 0 0 0 0 0 0 0 0 0 0 0 0 0 0 0 0 0 0 0 0 0 0 0 0 0 0 0 0 0 0 0 0 0 0 0 0 0 0 0 0 0 0 0 0 0 0 0 0 0 0 0 0 0 0 0 0 0 0 0 0 0 0 0 0 0 0 0 0 0 0 0 0 0 0 0 0 0 0 0 0 0 0 0 0 0 0 0 0 0 0 0 0 0 0 0 0 0 0 0 0 0 0 0 0 0 0 0 0 0 0 0 0 0 0 0 0 0 0 0 0 0 0 0 0 0 0 0 0 0 0 0 0 0 0 0 0 0 0 0 0 0 0 0 0 0 0 0 0 0 0 0 0 0 0 0 0 0 0 0 0 0 0 0 0 0 0 0 0 0 0 0 0 0 0 0 0 0 0 0 0 0 0 0 0 0 0 0 0 0 0 0 0 0 0 0 0 0 0 0 0 0 0 0 0 0 0 0 0 0 0 0 0 0 0 0 0 0 0 0 0 0 0 0 0 0 0 0 0 0 0 0 0 0 0 0 0 0 0 0 0 0 0 0 0 0 0 0 0 0 0 0 0 0 0 0 0 0 0 0 0 0 0 0 0 0 0 0 0 0 0 0 0 0 0 0 0 0 0 0 0 0 0 0 0 0 0 0 0 0 0 0 0 0 0 0 0 0 0 0 0 0 0 0 0 0 0 0 0 0 0 0 0 0 0 0 0 0 0 0 0 0 0 0 0 0 0 0 0 0 0 0 0 0 0 0 0 0 0 0 0 0 0 0 0 0 0 0 0 0 0 0 0 0 0 0 0 0 0 0 0 0 0 0 0 0 0 0 0 0 0 0 0 0 0 0 0 0 0 0 0 0 0 0 0 0 0 0 0 0 0 0 0 0 0 0 0 0 0 0 0 0 0 0 0 0 0 0 0 0 0 0 0 0 0 0 0 0 0 0 0 0 0 0 0 0 0 0 0 0 0 0 0 0 0 0 0 0 0 0 0 0 0 0 0 0 0 0 0 0 0 0 0 0 0 0 0 0 0 0 0 0 0 0 0 0 0 0 0 0 0 0 0 0 0 0 0 0 0 0 0 0 0 0 0 0 0 0 0 0 0 0 0 0 0 0 0 0 0 0 0 0 0 0 0 0 0 0 0 0 0 0 0 0 0 0 0 0 0 0 0 0 0 0 0 0 0 0 0 0 0 0 0 0 0 0 0 0 0 0 0 0 0 0 0 0 0 0 0 0 0 0 0 0 0 0 0 0 0 0 0 0 0 0 0 0 0 0 0 0 0 0 0 0 0 0 0 0 0 0 0 0 0 0 0 0 0 0 0 0 0 0 0 0 0 0 0 0 0 0 0 0 0 0 0 0 0 0 0 0 0 0 0 0 0 0 0 0 0 0 0 0 0 0 0 0 0 0 0 0 0 0 0 0 0 0 0 0 0 0 0 0 0 0 0 0 0 0 0 0 0 0 0 0 0 0 0 0 0 0 0 0 0 0 0 0 0 0 0 0 0 0 0 0 0 0 0 0 0 0 0 0 0 0 0 0 0 0 0 0 0 0 0 0 0 0 0 0 0 0 0 0 0 0 0 0 0 0 0 0 0 0 0 0 0 0 0 0 0 0 0 0 0 0 0 0 0 0 0 0 0 0 0 0 0 0 0 0 0 0 0 0 0 0 0 0 0 0 0 0 0 0 0 0 0 0 0 0 0 0 0 0 0 0 0 0 0 0 0 0 0 0 0 0 0 0 0 0 0 0 0 0 0 0 0 0 0 0 0 0 0 0 0 0 0 0 0 0 0 0 0 0 0 0 0 0 0 0 0 0 0 0 0 0 0 0 0 0 0 0 0 0 0 0 0 0 0 0 0 0 0 0 0 0 0 0 0 0 0 0 0 0 0 0 0 0 0 0 0 0 0 0 0 0 0 0 0 0 0 0 0 0 0 0 0 0 0 0 0 0 0 0 0 0 0 0 0 0 0 0 0 0 0 0 0 0 0 0 0 0 0 0 0 0 0 0 0 0 0 0 0 0 0 0 0 0 0 0 0 0 0 0 0 0 0 0 0 0 0 0 0 0 0 0 0 0 0 0 0 0 0 0 0 0 0 0 0 0 0 0 0 0 0 0 0 0 0 0 0 0 0 0 0 0 0 0 0 0 0 0 0 0 0 0 0 0 0 0 0 0 0 0 0 0 0 0 0 0 0 0 0 0 0 0 0 0 0 0 0 0 0 0 0 0 0 0 0 0 0 0 0 0 0 0 0 0 0 0 0 0 0 0 0 0 0 0 0 0 0 0 0 0 0 0 0 0 0 0 0 0 0 0 0 0 0 0 0 0 0 0 0 0 0 0 0 0 0 0 0 0 0 0 0 0 0 0 0 0 0 0 0 0 0 0 0 0 0 0 0 0 0 0 0 0 0 0 0 0 0 0 0 0 0 0 0 0 0 0 0 0 0 0 0 0 0 0 0 0 0 0 0 0 0 0 0 0 0 0 0 0 0 0 0 0 0 0 0 0 0 0 0 0 0 0 0 0 0 0 0 0 0 0 0 0 0 0 0 0 0 0 0 0 0 0 0 0 0 0 0 0 0 0 0 0 0 0 0 0 0 0 0 0 0 0 0 0 0 0 0 0 0 0 0 0 0 0 0 0 0 0 0 0 0 0 0 0 0 0 0 0 0 0 0 0 0 0 0 0 0 0 0 0 0 0 0 0 0 0 0 0 0 0 0 0 0 0 0 0 0 0 0 0 0 0 0 0 0 0 0 0 0 0 0 0 0 0 0 0 0 0 0 0 0 0 0 0 0 0 0 0 0 0 0 0 0 0 0 0 0 0 0 0 0 0 0 0 0 0 0 0 0 0 0 0 0 0 0 0 0 0 0 0 0 0 0 0 0 0 0 0 0 0 0 0 0 0 0 0 0 0 0 0 0 0 0 0 0 0 0 0 0 0 0 0 0 0 0 0 0 0 0 0 0 0 0 0 0 0 0 0 0 0 0 0 0 0 0 0 0 0 0 0 0 0 0 0 0 0 0 0 0 0 0 0 0 0 0 0 0 0 0 0 0 0 0 0 0 0 0 0 0 0 0 0 0 0 0 0 0 0 0 0 0 0 0 0 0 0 0 0 0 0 0 0 0 0 0 0 0 0 0 0 0 0 0 0 0 0 0 0 0 0 0 0 0 0 0 0 0 0 0 0 0 0 0 0 0 0 0 0 0 0 0 0 0 0 0 0 0 0 0 0 0 0 0 0 0 0 0 0 0 0 0 0 0 0 0 0 0 0 0 0 0 0 0 0 0 0 0 0 0 0 0 0 0 0 0 0 0 0 0 0 0 0 0 0 0 0 0 0 0 0 0 0 0 0 0 0 0 0 0 0 0 0 0 0 0 0 0 0 0 0 0 0 0 0 0 0 0 0 0 0 0 0 0 0 0 0 0 0 0 0 0 0 0 0 0 0 0 0 0 0 0 0 0 0 0 0 0 0 0 0 0 0 0 0 0 0 0 0 0 0 0 0 0 0 0 0 0 0 0 0 0 0 0 0 0 0 0 0 0 0 0 0 0 0 0 0 0 0 0 0 0 0 0 0 0 0 0 0 0 0 0 0 0 0 0 0 0 0 0 0 0 0 0 0 0 0 0 0 0 0 0 0 0 0 0 0 0 0 0 0 0 0 0 0 0 0 0 0 0 0 0 0 0 0 0 0 0 0 0 0 0 0 0 0 0 0 0 0 0 0 0 0 0 0 0 0 0 0 0 0 0 0 0 0 0 0 0 0 0 0 0 0 0 0 0 0 0 0 0 0 0 0 0 0 0 0 0 0 0 0 0 0 0 0 0 0 0 0 0 0 0 0 0 0 0 0 0 0 0 0 0 0 0 0 0 0 0 0 0 0 0 0 0 0 0 0 0 0 0 0 0 0 0 0 0 0 0 0 0 0 0 0 0 0 0 0 0 0 0 0 0 0 0 0 0 0 0 0 0 0 0 0 0 0 0 0 0 0 0 0 0 0 0 0 0 0 0 0 0 0 0 0 0 0 0 0 0 0 0 0 0 0 0 0 0 0 0 0 0 0 0 0 0 0 0 0 0 0 0 0 0 0 0 0 0 0 0 0 0 0 0 0 0 0 0 0 0 0 0 0 0 0 0 0 0 0 0 0 0 0 0 0 0 0 0 0 0 0 0 0 0 0 0 0 0 0 0 0 0 0 0 0 0 0 0 0 0 0 0 0 0 0 0 0 0 0 0 0 0 0 0 0 0 0 0 0 0 0 0 0 0 0 0 0 0 0 0 0 0 0 0 0 0 0 0 0 0 0 0 0 0 0 0 0 0 0 0 0 0 0 0 0 0 0 0 0 0 0 0 0 0 0 0 0 0 0 0 0 0 0 0 0 0 0 0 0 0 0 0 0 0 0 0 0 0 0 0 0 0 0 0 0 0 0 0 0 0 0 0 0 0 0 0 0 0 0 0 0 0 0 0 0 0 0 0 0 0 0 0 0 0 0 0 0 0 0 0 0 0 0 0 0 0 0 0 0 0 0 0 0 0 0 0 0 0 0 0 0 0 0 0 0 0 0 0 0 0 0 0 0 0 0 0 0 0 0 0 0 0 0 0 0 0 0 0 0 0 0 0 0 0 0 0 0 0 0 0 0 0 0 0 0 0 0 0 0 0 0 0 0 0 0 0 0 0 0 0 0 0 0 0 0 0 0 0 0 0 0 0 0 0 0 0 0 0 0 0 0 0 0 0 0 0 0 0 0 0 0 0 0 0 0 0 0 0 0 0 0 0 0 0 0 0 0 0 0 0 0 0 0 0 0 0 0 0 0 0 0 0 0 0 0 0 0 0 0 0 0 0 0 0 0 0 0 0 0 0 0 0 0 0 0 0 0 0 0 0 0 0 0 0 0 0 0 0 0 0 0 0 0 0 0 0 0 0 0 0 0 0 0 0 0 0 0 0 0 0 0 0 0 0 0 0 0 0 0 0 0 0 0 0 0 0 0 0 0 0 0 0 0 0 0 0 0 0 0 0 0 0 0 0 0 0 0 0 0 0 0 0 0 0 0 0 0 0 0 0 0 0 0 0 0 0 0 0 0 0 0 0 0 0 0 0 0 0 0 0 0 0 0 0 0 0 0 0 0 0 0 0 0 0 0 0 0 0 0 0 0 0 0 0 0 0 0 0 0 0 0 0 0 0 0 0 0 0 0 0 0 0 0 0 0 0 0 0 0 0 0 0 0 0 0 0 0 0 0 0 0 0 0 0 0 0 0 0 0 0 0 0 0 0 0 0 0 0 0 0 0 0 0 0 0 0 0 0 0 0 0 0 0 0 0 0 0 0 0 0 0 0 0 0 0 0 0 0 0 0 0 0 0 0 0 0 0 0 0 0 0 0 0 0 0 0 0 0 0 0 0 0 0 0 0 0 0 0 0 0 0 0 0 0 0 0 0 0 0 0 0 0 0 0 0 0 0 0 0 0 0 0 0 0 0 0 0 0 0 0 0 0 0 0 0 0 0 0 0 0 0 0 0 0 0 0 0 0 0 0 0 0 0 0 0 0 0 0 0 0 0 0 0 0 0 0 0 0 0 0 0 0 0 0 0 0 0 0 0 0 0 0 0 0 0 0 0 0 0 0 0 0 0 0 0 0 0 0 0 0 0 0 0 0 0 0 0 0 0 0 0 0 0 0 0 0 0 0 0 0 0 0 0 0 0 0 0 0 0 0 0 0 0 0 0 0 0 0 0 0 0 0 0 0 0 0 0 0 0 0 0 0 0 0 0 0 0 0 0 0 0 0 0 0 0 0 0 0 0 0 0 0 0 0 0 0 0 0 0 0 0 0 0 0 0 0 0 0 0 0 0 0 0 0 0 0 0 0 0 0 0 0 0 0 0 0 0 0 0 0 0 0 0 0 0 0 0 0 0 0 0 0 0 0 0 0 0 0 0 0 0 0 0 0 0 0 0 0 0 0 0 0 0 0 0 0 0 0 0 0 0 0 0 0 0 0 0 0 0 0 0 0 0 0 0 0 0 0 0 0 0 0 0 0 0 0 0 0 0 0 0 0 0 0 0 0 0 0 0 0 0 0 0 0 0 0 0 0 0 0 0 0 0 0 0 0 0 0 0 0 0 0 0 0 0 0 0 0 0 0 0 0 0 0 0 0 0 0 0 0 0 0 0 0 0 0 </DataArray>
        <DataArray type="Int64" IdType="1" Name="vtkOriginalCellIds" format="ascii" RangeMin="0" RangeMax="3466">0 1 2 3 4 5 6 7 8 9 10 11 12 13 14 15 16 17 18 19 20 21 22 23 24 25 26 27 28 29 30 31 32 33 34 35 36 37 38 39 40 41 42 43 44 45 46 47 48 49 50 51 52 53 54 55 56 57 58 59 60 61 62 63 64 65 66 67 68 69 70 71 72 73 74 75 76 77 78 79 80 81 82 83 84 85 86 87 88 89 90 91 92 93 94 95 96 97 98 99 100 101 102 103 104 105 106 107 108 109 110 111 112 113 114 115 116 117 118 119 120 121 122 123 124 125 126 127 128 129 130 131 132 133 134 135 136 137 138 139 140 141 142 143 144 145 146 147 148 149 150 151 152 153 154 155 156 157 158 159 160 161 162 163 164 165 166 167 168 169 170 171 172 173 174 175 176 177 178 179 180 181 182 183 184 185 186 187 188 189 190 191 192 193 194 195 196 197 198 199 200 201 202 203 204 205 206 207 208 209 210 211 212 213 214 215 216 217 218 219 220 221 222 223 224 225 226 227 228 229 230 231 232 233 234 235 236 237 238 239 240 241 242 243 244 245 246 247 248 249 250 251 252 253 254 255 256 257 258 259 260 261 262 263 264 265 266 267 268 269 270 271 272 273 274 275 276 277 278 279 280 281 282 283 284 285 286 287 288 289 290 291 292 293 294 295 296 297 298 299 300 301 302 303 304 305 306 307 308 309 310 311 312 313 314 315 316 317 318 319 320 321 322 323 324 325 326 327 328 329 330 331 332 333 334 335 336 337 338 339 340 341 342 343 344 345 346 347 348 349 350 351 352 353 354 355 356 357 358 359 360 361 362 363 364 365 366 367 368 369 370 371 372 373 374 375 376 377 378 379 380 381 382 383 384 385 386 387 388 389 390 391 392 393 394 395 396 397 398 399 400 401 402 403 404 405 406 407 408 409 410 411 412 413 414 415 416 417 418 419 420 421 422 423 424 425 426 427 428 429 430 431 432 433 434 435 436 437 438 439 440 441 442 443 444 445 446 447 448 449 450 451 452 453 454 455 456 457 458 459 460 461 462 463 464 465 466 467 468 469 470 471 472 473 474 475 476 477 478 479 480 481 482 483 484 485 486 487 488 489 490 491 492 493 494 495 496 497 498 499 500 501 502 503 504 505 506 507 508 509 510 511 512 513 514 515 516 517 518 519 520 521 522 523 524 525 526 527 528 529 530 531 532 533 534 535 536 537 538 539 540 541 542 543 544 545 546 547 548 549 550 551 552 553 554 555 556 557 558 559 560 561 562 563 564 565 566 567 568 569 570 571 572 573 574 575 576 577 578 579 580 581 582 583 584 585 586 587 588 589 590 591 592 593 594 595 596 597 598 599 600 601 602 603 604 605 606 607 608 609 610 611 612 613 614 615 616 617 618 619 620 621 622 623 624 625 626 627 628 629 630 631 632 633 634 635 636 637 638 639 640 641 642 643 644 645 646 647 648 649 650 651 652 653 654 655 656 657 658 659 660 661 662 663 664 665 666 667 668 669 670 671 672 673 674 675 676 677 678 679 680 681 682 683 684 685 686 687 688 689 690 691 692 693 694 695 696 697 698 699 700 701 702 703 704 705 706 707 708 709 710 711 712 713 714 715 716 717 718 719 720 721 722 723 724 725 726 727 728 729 730 731 732 733 734 735 736 737 738 739 740 741 742 743 744 745 746 747 748 749 750 751 752 753 754 755 756 757 758 759 760 761 762 763 764 765 766 767 768 769 770 771 772 773 774 775 776 777 778 779 780 781 782 783 784 785 786 787 788 789 790 791 792 793 794 795 796 797 798 799 800 801 802 803 804 805 806 807 808 809 810 811 812 813 814 815 816 817 818 819 820 821 822 823 824 825 826 827 828 829 830 831 832 833 834 835 836 837 838 839 840 841 842 843 844 845 846 847 848 849 850 851 852 853 854 855 856 857 858 859 860 861 862 863 864 865 866 867 868 869 870 871 872 873 874 875 876 877 878 879 880 881 882 883 884 885 886 887 888 889 890 891 892 893 894 895 896 897 898 899 900 901 902 903 904 905 906 907 908 909 910 911 912 913 914 915 916 917 918 919 920 921 922 923 924 925 926 927 928 929 930 931 932 933 934 935 936 937 938 939 940 941 942 943 944 945 946 947 948 949 950 951 952 953 954 955 956 957 958 959 960 961 962 963 964 965 966 967 968 969 970 971 972 973 974 975 976 977 978 979 980 981 982 983 984 985 986 987 988 989 990 991 992 993 994 995 996 997 998 999 1000 1001 1002 1003 1004 1005 1006 1007 1008 1009 1010 1011 1012 1013 1014 1015 1016 1017 1018 1019 1020 1021 1022 1023 1024 1025 1026 1027 1028 1029 1030 1031 1032 1033 1034 1035 1036 1037 1038 1039 1040 1041 1042 1043 1044 1045 1046 1047 1048 1049 1050 1051 1052 1053 1054 1055 1056 1057 1058 1059 1060 1061 1062 1063 1064 1065 1066 1067 1068 1069 1070 1071 1072 1073 1074 1075 1076 1077 1078 1079 1080 1081 1082 1083 1084 1085 1086 1087 1088 1089 1090 1091 1092 1093 1094 1095 1096 1097 1098 1099 1100 1101 1102 1103 1104 1105 1106 1107 1108 1109 1110 1111 1112 1113 1114 1115 1116 1117 1118 1119 1120 1121 1122 1123 1124 1125 1126 1127 1128 1129 1130 1131 1132 1133 1134 1135 1136 1137 1138 1139 1140 1141 1142 1143 1144 1145 1146 1147 1148 1149 1150 1151 1152 1153 1154 1155 1156 1157 1158 1159 1160 1161 1162 1163 1164 1165 1166 1167 1168 1169 1170 1171 1172 1173 1174 1175 1176 1177 1178 1179 1180 1181 1182 1183 1184 1185 1186 1187 1188 1189 1190 1191 1192 1193 1194 1195 1196 1197 1198 1199 1200 1201 1202 1203 1204 1205 1206 1207 1208 1209 1210 1211 1212 1213 1214 1215 1216 1217 1218 1219 1220 1221 1222 1223 1224 1225 1226 1227 1228 1229 1230 1231 1232 1233 1234 1235 1236 1237 1238 1239 1240 1241 1242 1243 1244 1245 1246 1247 1248 1249 1250 1251 1252 1253 1254 1255 1256 1257 1258 1259 1260 1261 1262 1263 1264 1265 1266 1267 1268 1269 1270 1271 1272 1273 1274 1275 1276 1277 1278 1279 1280 1281 1282 1283 1284 1285 1286 1287 1288 1289 1290 1291 1292 1293 1294 1295 1296 1297 1298 1299 1300 1301 1302 1303 1304 1305 1306 1307 1308 1309 1310 1311 1312 1313 1314 1315 1316 1317 1318 1319 1320 1321 1322 1323 1324 1325 1326 1327 1328 1329 1330 1331 1332 1333 1334 1335 1336 1337 1338 1339 1340 1341 1342 1343 1344 1345 1346 1347 1348 1349 1350 1351 1352 1353 1354 1355 1356 1357 1358 1359 1360 1361 1362 1363 1364 1365 1366 1367 1368 1369 1370 1371 1372 1373 1374 1375 1376 1377 1378 1379 1380 1381 1382 1383 1384 1385 1386 1387 1388 1389 1390 1391 1392 1393 1394 1395 1396 1397 1398 1399 1400 1401 1402 1403 1404 1405 1406 1407 1408 1409 1410 1411 1412 1413 1414 1415 1416 1417 1418 1419 1420 1421 1422 1423 1424 1425 1426 1427 1428 1429 1430 1431 1432 1433 1434 1435 1436 1437 1438 1439 1440 1441 1442 1443 1444 1445 1446 1447 1448 1449 1450 1451 1452 1453 1454 1455 1456 1457 1458 1459 1460 1461 1462 1463 1464 1465 1466 1467 1468 1469 1470 1471 1472 1473 1474 1475 1476 1477 1478 1479 1480 1481 1482 1483 1484 1485 1486 1487 1488 1489 1490 1491 1492 1493 1494 1495 1496 1497 1498 1499 1500 1501 1502 1503 1504 1505 1506 1507 1508 1509 1510 1511 1512 1513 1514 1515 1516 1517 1518 1519 1520 1521 1522 1523 1524 1525 1526 1527 1528 1529 1530 1531 1532 1533 1534 1535 1536 1537 1538 1539 1540 1541 1542 1543 1544 1545 1546 1547 1548 1549 1550 1551 1552 1553 1554 1555 1556 1557 1558 1559 1560 1561 1562 1563 1564 1565 1566 1567 1568 1569 1570 1571 1572 1573 1574 1575 1576 1577 1578 1579 1580 1581 1582 1583 1584 1585 1586 1587 1588 1589 1590 1591 1592 1593 1594 1595 1596 1597 1598 1599 1600 1601 1602 1603 1604 1605 1606 1607 1608 1609 1610 1611 1612 1613 1614 1615 1616 1617 1618 1619 1620 1621 1622 1623 1624 1625 1626 1627 1628 1629 1630 1631 1632 1633 1634 1635 1636 1637 1638 1639 1640 1641 1642 1643 1644 1645 1646 1647 1648 1649 1650 1651 1652 1653 1654 1655 1656 1657 1658 1659 1660 1661 1662 1663 1664 1665 1666 1667 1668 1669 1670 1671 1672 1673 1674 1675 1676 1677 1678 1679 1680 1681 1682 1683 1684 1685 1686 1687 1688 1689 1690 1691 1692 1693 1694 1695 1696 1697 1698 1699 1700 1701 1702 1703 1704 1705 1706 1707 1708 1709 1710 1711 1712 1713 1714 1715 1716 1717 1718 1719 1720 1721 1722 1723 1724 1725 1726 1727 1728 1729 1730 1731 1732 1733 1734 1735 1736 1737 1738 1739 1740 1741 1742 1743 1744 1745 1746 1747 1748 1749 1750 1751 1752 1753 1754 1755 1756 1757 1758 1759 1760 1761 1762 1763 1764 1765 1766 1767 1768 1769 1770 1771 1772 1773 1774 1775 1776 1777 1778 1779 1780 1781 1782 1783 1784 1785 1786 1787 1788 1789 1790 1791 1792 1793 1794 1795 1796 1797 1798 1799 1800 1801 1802 1803 1804 1805 1806 1807 1808 1809 1810 1811 1812 1813 1814 1815 1816 1817 1818 1819 1820 1821 1822 1823 1824 1825 1826 1827 1828 1829 1830 1831 1832 1833 1834 1835 1836 1837 1838 1839 1840 1841 1842 1843 1844 1845 1846 1847 1848 1849 1850 1851 1852 1853 1854 1855 1856 1857 1858 1859 1860 1861 1862 1863 1864 1865 1866 1867 1868 1869 1870 1871 1872 1873 1874 1875 1876 1877 1878 1879 1880 1881 1882 1883 1884 1885 1886 1887 1888 1889 1890 1891 1892 1893 1894 1895 1896 1897 1898 1899 1900 1901 1902 1903 1904 1905 1906 1907 1908 1909 1910 1911 1912 1913 1914 1915 1916 1917 1918 1919 1920 1921 1922 1923 1924 1925 1926 1927 1928 1929 1930 1931 1932 1933 1934 1935 1936 1937 1938 1939 1940 1941 1942 1943 1944 1945 1946 1947 1948 1949 1950 1951 1952 1953 1954 1955 1956 1957 1958 1959 1960 1961 1962 1963 1964 1965 1966 1967 1968 1969 1970 1971 1972 1973 1974 1975 1976 1977 1978 1979 1980 1981 1982 1983 1984 1985 1986 1987 1988 1989 1990 1991 1992 1993 1994 1995 1996 1997 1998 1999 2000 2001 2002 2003 2004 2005 2006 2007 2008 2009 2010 2011 2012 2013 2014 2015 2016 2017 2018 2019 2020 2021 2022 2023 2024 2025 2026 2027 2028 2029 2030 2031 2032 2033 2034 2035 2036 2037 2038 2039 2040 2041 2042 2043 2044 2045 2046 2047 2048 2049 2050 2051 2052 2053 2054 2055 2056 2057 2058 2059 2060 2061 2062 2063 2064 2065 2066 2067 2068 2069 2070 2071 2072 2073 2074 2075 2076 2077 2078 2079 2080 2081 2082 2083 2084 2085 2086 2087 2088 2089 2090 2091 2092 2093 2094 2095 2096 2097 2098 2099 2100 2101 2102 2103 2104 2105 2106 2107 2108 2109 2110 2111 2112 2113 2114 2115 2116 2117 2118 2119 2120 2121 2122 2123 2124 2125 2126 2127 2128 2129 2130 2131 2132 2133 2134 2135 2136 2137 2138 2139 2140 2141 2142 2143 2144 2145 2146 2147 2148 2149 2150 2151 2152 2153 2154 2155 2156 2157 2158 2159 2160 2161 2162 2163 2164 2165 2166 2167 2168 2169 2170 2171 2172 2173 2174 2175 2176 2177 2178 2179 2180 2181 2182 2183 2184 2185 2186 2187 2188 2189 2190 2191 2192 2193 2194 2195 2196 2197 2198 2199 2200 2201 2202 2203 2204 2205 2206 2207 2208 2209 2210 2211 2212 2213 2214 2215 2216 2217 2218 2219 2220 2221 2222 2223 2224 2225 2226 2227 2228 2229 2230 2231 2232 2233 2234 2235 2236 2237 2238 2239 2240 2241 2242 2243 2244 2245 2246 2247 2248 2249 2250 2251 2252 2253 2254 2255 2256 2257 2258 2259 2260 2261 2262 2263 2264 2265 2266 2267 2268 2269 2270 2271 2272 2273 2274 2275 2276 2277 2278 2279 2280 2281 2282 2283 2284 2285 2286 2287 2288 2289 2290 2291 2292 2293 2294 2295 2296 2297 2298 2299 2300 2301 2302 2303 2304 2305 2306 2307 2308 2309 2310 2311 2312 2313 2314 2315 2316 2317 2318 2319 2320 2321 2322 2323 2324 2325 2326 2327 2328 2329 2330 2331 2332 2333 2334 2335 2336 2337 2338 2339 2340 2341 2342 2343 2344 2345 2346 2347 2348 2349 2350 2351 2352 2353 2354 2355 2356 2357 2358 2359 2360 2361 2362 2363 2364 2365 2366 2367 2368 2369 2370 2371 2372 2373 2374 2375 2376 2377 2378 2379 2380 2381 2382 2383 2384 2385 2386 2387 2388 2389 2390 2391 2392 2393 2394 2395 2396 2397 2398 2399 2400 2401 2402 2403 2404 2405 2406 2407 2408 2409 2410 2411 2412 2413 2414 2415 2416 2417 2418 2419 2420 2421 2422 2423 2424 2425 2426 2427 2428 2429 2430 2431 2432 2433 2434 2435 2436 2437 2438 2439 2440 2441 2442 2443 2444 2445 2446 2447 2448 2449 2450 2451 2452 2453 2454 2455 2456 2457 2458 2459 2460 2461 2462 2463 2464 2465 2466 2467 2468 2469 2470 2471 2472 2473 2474 2475 2476 2477 2478 2479 2480 2481 2482 2483 2484 2485 2486 2487 2488 2489 2490 2491 2492 2493 2494 2495 2496 2497 2498 2499 2500 2501 2502 2503 2504 2505 2506 2507 2508 2509 2510 2511 2512 2513 2514 2515 2516 2517 2518 2519 2520 2521 2522 2523 2524 2525 2526 2527 2528 2529 2530 2531 2532 2533 2534 2535 2536 2537 2538 2539 2540 2541 2542 2543 2544 2545 2546 2547 2548 2549 2550 2551 2552 2553 2554 2555 2556 2557 2558 2559 2560 2561 2562 2563 2564 2565 2566 2567 2568 2569 2570 2571 2572 2573 2574 2575 2576 2577 2578 2579 2580 2581 2582 2583 2584 2585 2586 2587 2588 2589 2590 2591 2592 2593 2594 2595 2596 2597 2598 2599 2600 2601 2602 2603 2604 2605 2606 2607 2608 2609 2610 2611 2612 2613 2614 2615 2616 2617 2618 2619 2620 2621 2622 2623 2624 2625 2626 2627 2628 2629 2630 2631 2632 2633 2634 2635 2636 2637 2638 2639 2640 2641 2642 2643 2644 2645 2646 2647 2648 2649 2650 2651 2652 2653 2654 2655 2656 2657 2658 2659 2660 2661 2662 2663 2664 2665 2666 2667 2668 2669 2670 2671 2672 2673 2674 2675 2676 2677 2678 2679 2680 2681 2682 2683 2684 2685 2686 2687 2688 2689 2690 2691 2692 2693 2694 2695 2696 2697 2698 2699 2700 2701 2702 2703 2704 2705 2706 2707 2708 2709 2710 2711 2712 2713 2714 2715 2716 2717 2718 2719 2720 2721 2722 2723 2724 2725 2726 2727 2728 2729 2730 2731 2732 2733 2734 2735 2736 2737 2738 2739 2740 2741 2742 2743 2744 2745 2746 2747 2748 2749 2750 2751 2752 2753 2754 2755 2756 2757 2758 2759 2760 2761 2762 2763 2764 2765 2766 2767 2768 2769 2770 2771 2772 2773 2774 2775 2776 2777 2778 2779 2780 2781 2782 2783 2784 2785 2786 2787 2788 2789 2790 2791 2792 2793 2794 2795 2796 2797 2798 2799 2800 2801 2802 2803 2804 2805 2806 2807 2808 2809 2810 2811 2812 2813 2814 2815 2816 2817 2818 2819 2820 2821 2822 2823 2824 2825 2826 2827 2828 2829 2830 2831 2832 2833 2834 2835 2836 2837 2838 2839 2840 2841 2842 2843 2844 2845 2846 2847 2848 2849 2850 2851 2852 2853 2854 2855 2856 2857 2858 2859 2860 2861 2862 2863 2864 2865 2866 2867 2868 2869 2870 2871 2872 2873 2874 2875 2876 2877 2878 2879 2880 2881 2882 2883 2884 2885 2886 2887 2888 2889 2890 2891 2892 2893 2894 2895 2896 2897 2898 2899 2900 2901 2902 2903 2904 2905 2906 2907 2908 2909 2910 2911 2912 2913 2914 2915 2916 2917 2918 2919 2920 2921 2922 2923 2924 2925 2926 2927 2928 2929 2930 2931 2932 2933 2934 2935 2936 2937 2938 2939 2940 2941 2942 2943 2944 2945 2946 2947 2948 2949 2950 2951 2952 2953 2954 2955 2956 2957 2958 2959 2960 2961 2962 2963 2964 2965 2966 2967 2968 2969 2970 2971 2972 2973 2974 2975 2976 2977 2978 2979 2980 2981 2982 2983 2984 2985 2986 2987 2988 2989 2990 2991 2992 2993 2994 2995 2996 2997 2998 2999 3000 3001 3002 3003 3004 3005 3006 3007 3008 3009 3010 3011 3012 3013 3014 3015 3016 3017 3018 3019 3020 3021 3022 3023 3024 3025 3026 3027 3028 3029 3030 3031 3032 3033 3034 3035 3036 3037 3038 3039 3040 3041 3042 3043 3044 3045 3046 3047 3048 3049 3050 3051 3052 3053 3054 3055 3056 3057 3058 3059 3060 3061 3062 3063 3064 3065 3066 3067 3068 3069 3070 3071 3072 3073 3074 3075 3076 3077 3078 3079 3080 3081 3082 3083 3084 3085 3086 3087 3088 3089 3090 3091 3092 3093 3094 3095 3096 3097 3098 3099 3100 3101 3102 3103 3104 3105 3106 3107 3108 3109 3110 3111 3112 3113 3114 3115 3116 3117 3118 3119 3120 3121 3122 3123 3124 3125 3126 3127 3128 3129 3130 3131 3132 3133 3134 3135 3136 3137 3138 3139 3140 3141 3142 3143 3144 3145 3146 3147 3148 3149 3150 3151 3152 3153 3154 3155 3156 3157 3158 3159 3160 3161 3162 3163 3164 3165 3166 3167 3168 3169 3170 3171 3172 3173 3174 3175 3176 3177 3178 3179 3180 3181 3182 3183 3184 3185 3186 3187 3188 3189 3190 3191 3192 3193 3194 3195 3196 3197 3198 3199 3200 3201 3202 3203 3204 3205 3206 3207 3208 3209 3210 3211 3212 3213 3214 3215 3216 3217 3218 3219 3220 3221 3222 3223 3224 3225 3226 3227 3228 3229 3230 3231 3232 3233 3234 3235 3236 3237 3238 3239 3240 3241 3242 3243 3244 3245 3246 3247 3248 3249 3250 3251 3252 3253 3254 3255 3256 3257 3258 3259 3260 3261 3262 3263 3264 3265 3266 3267 3268 3269 3270 3271 3272 3273 3274 3275 3276 3277 3278 3279 3280 3281 3282 3283 3284 3285 3286 3287 3288 3289 3290 3291 3292 3293 3294 3295 3296 3297 3298 3299 3300 3301 3302 3303 3304 3305 3306 3307 3308 3309 3310 3311 3312 3313 3314 3315 3316 3317 3318 3319 3320 3321 3322 3323 3324 3325 3326 3327 3328 3329 3330 3331 3332 3333 3334 3335 3336 3337 3338 3339 3340 3341 3342 3343 3344 3345 3346 3347 3348 3349 3350 3351 3352 3353 3354 3355 3356 3357 3358 3359 3360 3361 3362 3363 3364 3365 3366 3367 3368 3369 3370 3371 3372 3373 3374 3375 3376 3377 3378 3379 3380 3381 3382 3383 3384 3385 3386 3387 3388 3389 3390 3391 3392 3393 3394 3395 3396 3397 3398 3399 3400 3401 3402 3403 3404 3405 3406 3407 3408 3409 3410 3411 3412 3413 3414 3415 3416 3417 3418 3419 3420 3421 3422 3423 3424 3425 3426 3427 3428 3429 3430 3431 3432 3433 3434 3435 3436 3437 3438 3439 3440 3441 3442 3443 3444 3445 3446 3447 3448 3449 3450 3451 3452 3453 3454 3455 3456 3457 3458 3459 3460 3461 3462 3463 3464 3465 3466 </DataArray>
      </CellData>
      <PointData Vectors="u" Tensors="stress">
        <DataArray type="Int64" IdType="1" Name="vtkOriginalPointIds" format="ascii" RangeMin="0" RangeMax="1811">0 1 2 3 4 5 6 7 8 9 10 11 12 13 14 15 16 17 18 19 20 21 22 23 24 25 26 27 28 29 30 31 32 33 34 35 36 37 38 39 40 41 42 43 44 45 46 47 48 49 50 51 52 53 54 55 56 57 58 59 60 61 62 63 64 65 66 67 68 69 70 71 72 73 74 75 76 77 78 79 80 81 82 83 84 85 86 87 88 89 90 91 92 93 94 95 96 97 98 99 100 101 102 103 104 105 106 107 108 109 110 111 112 113 114 115 116 117 118 119 120 121 122 123 124 125 126 127 128 129 130 131 132 133 134 135 136 137 138 139 140 141 142 143 144 145 146 147 148 149 150 151 152 153 154 155 156 157 158 159 160 161 162 163 164 165 166 167 168 169 170 171 172 173 174 175 176 177 178 179 180 181 182 183 184 185 186 187 188 189 190 191 192 193 194 195 196 197 198 199 200 201 202 203 204 205 206 207 208 209 210 211 212 213 214 215 216 217 218 219 220 221 222 223 224 225 226 227 228 229 230 231 232 233 234 235 236 237 238 239 240 241 242 243 244 245 246 247 248 249 250 251 252 253 254 255 256 257 258 259 260 261 262 263 264 265 266 267 268 269 270 271 272 273 274 275 276 277 278 279 280 281 282 283 284 285 286 287 288 289 290 291 292 293 294 295 296 297 298 299 300 301 302 303 304 305 306 307 308 309 310 311 312 313 314 315 316 317 318 319 320 321 322 323 324 325 326 327 328 329 330 331 332 333 334 335 336 337 338 339 340 341 342 343 344 345 346 347 348 349 350 351 352 353 354 355 356 357 358 359 360 361 362 363 364 365 366 367 368 369 370 371 372 373 374 375 376 377 378 379 380 381 382 383 384 385 386 387 388 389 390 391 392 393 394 395 396 397 398 399 400 401 402 403 404 405 406 407 408 409 410 411 412 413 414 415 416 417 418 419 420 421 422 423 424 425 426 427 428 429 430 431 432 433 434 435 436 437 438 439 440 441 442 443 444 445 446 447 448 449 450 451 452 453 454 455 456 457 458 459 460 461 462 463 464 465 466 467 468 469 470 471 472 473 474 475 476 477 478 479 480 481 482 483 484 485 486 487 488 489 490 491 492 493 494 495 496 497 498 499 500 501 502 503 504 505 506 507 508 509 510 511 512 513 514 515 516 517 518 519 520 521 522 523 524 525 526 527 528 529 530 531 532 533 534 535 536 537 538 539 540 541 542 543 544 545 546 547 548 549 550 551 552 553 554 555 556 557 558 559 560 561 562 563 564 565 566 567 568 569 570 571 572 573 574 575 576 577 578 579 580 581 582 583 584 585 586 587 588 589 590 591 592 593 594 595 596 597 598 599 600 601 602 603 604 605 606 607 608 609 610 611 612 613 614 615 616 617 618 619 620 621 622 623 624 625 626 627 628 629 630 631 632 633 634 635 636 637 638 639 640 641 642 643 644 645 646 647 648 649 650 651 652 653 654 655 656 657 658 659 660 661 662 663 664 665 666 667 668 669 670 671 672 673 674 675 676 677 678 679 680 681 682 683 684 685 686 687 688 689 690 691 692 693 694 695 696 697 698 699 700 701 702 703 704 705 706 707 708 709 710 711 712 713 714 715 716 717 718 719 720 721 722 723 724 725 726 727 728 729 730 731 732 733 734 735 736 737 738 739 740 741 742 743 744 745 746 747 748 749 750 751 752 753 754 755 756 757 758 759 760 761 762 763 764 765 766 767 768 769 770 771 772 773 774 775 776 777 778 779 780 781 782 783 784 785 786 787 788 789 790 791 792 793 794 795 796 797 798 799 800 801 802 803 804 805 806 807 808 809 810 811 812 813 814 815 816 817 818 819 820 821 822 823 824 825 826 827 828 829 830 831 832 833 834 835 836 837 838 839 840 841 842 843 844 845 846 847 848 849 850 851 852 853 854 855 856 857 858 859 860 861 862 863 864 865 866 867 868 869 870 871 872 873 874 875 876 877 878 879 880 881 882 883 884 885 886 887 888 889 890 891 892 893 894 895 896 897 898 899 900 901 902 903 904 905 906 907 908 909 910 911 912 913 914 915 916 917 918 919 920 921 922 923 924 925 926 927 928 929 930 931 932 933 934 935 936 937 938 939 940 941 942 943 944 945 946 947 948 949 950 951 952 953 954 955 956 957 958 959 960 961 962 963 964 965 966 967 968 969 970 971 972 973 974 975 976 977 978 979 980 981 982 983 984 985 986 987 988 989 990 991 992 993 994 995 996 997 998 999 1000 1001 1002 1003 1004 1005 1006 1007 1008 1009 1010 1011 1012 1013 1014 1015 1016 1017 1018 1019 1020 1021 1022 1023 1024 1025 1026 1027 1028 1029 1030 1031 1032 1033 1034 1035 1036 1037 1038 1039 1040 1041 1042 1043 1044 1045 1046 1047 1048 1049 1050 1051 1052 1053 1054 1055 1056 1057 1058 1059 1060 1061 1062 1063 1064 1065 1066 1067 1068 1069 1070 1071 1072 1073 1074 1075 1076 1077 1078 1079 1080 1081 1082 1083 1084 1085 1086 1087 1088 1089 1090 1091 1092 1093 1094 1095 1096 1097 1098 1099 1100 1101 1102 1103 1104 1105 1106 1107 1108 1109 1110 1111 1112 1113 1114 1115 1116 1117 1118 1119 1120 1121 1122 1123 1124 1125 1126 1127 1128 1129 1130 1131 1132 1133 1134 1135 1136 1137 1138 1139 1140 1141 1142 1143 1144 1145 1146 1147 1148 1149 1150 1151 1152 1153 1154 1155 1156 1157 1158 1159 1160 1161 1162 1163 1164 1165 1166 1167 1168 1169 1170 1171 1172 1173 1174 1175 1176 1177 1178 1179 1180 1181 1182 1183 1184 1185 1186 1187 1188 1189 1190 1191 1192 1193 1194 1195 1196 1197 1198 1199 1200 1201 1202 1203 1204 1205 1206 1207 1208 1209 1210 1211 1212 1213 1214 1215 1216 1217 1218 1219 1220 1221 1222 1223 1224 1225 1226 1227 1228 1229 1230 1231 1232 1233 1234 1235 1236 1237 1238 1239 1240 1241 1242 1243 1244 1245 1246 1247 1248 1249 1250 1251 1252 1253 1254 1255 1256 1257 1258 1259 1260 1261 1262 1263 1264 1265 1266 1267 1268 1269 1270 1271 1272 1273 1274 1275 1276 1277 1278 1279 1280 1281 1282 1283 1284 1285 1286 1287 1288 1289 1290 1291 1292 1293 1294 1295 1296 1297 1298 1299 1300 1301 1302 1303 1304 1305 1306 1307 1308 1309 1310 1311 1312 1313 1314 1315 1316 1317 1318 1319 1320 1321 1322 1323 1324 1325 1326 1327 1328 1329 1330 1331 1332 1333 1334 1335 1336 1337 1338 1339 1340 1341 1342 1343 1344 1345 1346 1347 1348 1349 1350 1351 1352 1353 1354 1355 1356 1357 1358 1359 1360 1361 1362 1363 1364 1365 1366 1367 1368 1369 1370 1371 1372 1373 1374 1375 1376 1377 1378 1379 1380 1381 1382 1383 1384 1385 1386 1387 1388 1389 1390 1391 1392 1393 1394 1395 1396 1397 1398 1399 1400 1401 1402 1403 1404 1405 1406 1407 1408 1409 1410 1411 1412 1413 1414 1415 1416 1417 1418 1419 1420 1421 1422 1423 1424 1425 1426 1427 1428 1429 1430 1431 1432 1433 1434 1435 1436 1437 1438 1439 1440 1441 1442 1443 1444 1445 1446 1447 1448 1449 1450 1451 1452 1453 1454 1455 1456 1457 1458 1459 1460 1461 1462 1463 1464 1465 1466 1467 1468 1469 1470 1471 1472 1473 1474 1475 1476 1477 1478 1479 1480 1481 1482 1483 1484 1485 1486 1487 1488 1489 1490 1491 1492 1493 1494 1495 1496 1497 1498 1499 1500 1501 1502 1503 1504 1505 1506 1507 1508 1509 1510 1511 1512 1513 1514 1515 1516 1517 1518 1519 1520 1521 1522 1523 1524 1525 1526 1527 1528 1529 1530 1531 1532 1533 1534 1535 1536 1537 1538 1539 1540 1541 1542 1543 1544 1545 1546 1547 1548 1549 1550 1551 1552 1553 1554 1555 1556 1557 1558 1559 1560 1561 1562 1563 1564 1565 1566 1567 1568 1569 1570 1571 1572 1573 1574 1575 1576 1577 1578 1579 1580 1581 1582 1583 1584 1585 1586 1587 1588 1589 1590 1591 1592 1593 1594 1595 1596 1597 1598 1599 1600 1601 1602 1603 1604 1605 1606 1607 1608 1609 1610 1611 1612 1613 1614 1615 1616 1617 1618 1619 1620 1621 1622 1623 1624 1625 1626 1627 1628 1629 1630 1631 1632 1633 1634 1635 1636 1637 1638 1639 1640 1641 1642 1643 1644 1645 1646 1647 1648 1649 1650 1651 1652 1653 1654 1655 1656 1657 1658 1659 1660 1661 1662 1663 1664 1665 1666 1667 1668 1669 1670 1671 1672 1673 1674 1675 1676 1677 1678 1679 1680 1681 1682 1683 1684 1685 1686 1687 1688 1689 1690 1691 1692 1693 1694 1695 1696 1697 1698 1699 1700 1701 1702 1703 1704 1705 1706 1707 1708 1709 1710 1711 1712 1713 1714 1715 1716 1717 1718 1719 1720 1721 1722 1723 1724 1725 1726 1727 1728 1729 1730 1731 1732 1733 1734 1735 1736 1737 1738 1739 1740 1741 1742 1743 1744 1745 1746 1747 1748 1749 1750 1751 1752 1753 1754 1755 1756 1757 1758 1759 1760 1761 1762 1763 1764 1765 1766 1767 1768 1769 1770 1771 1772 1773 1774 1775 1776 1777 1778 1779 1780 1781 1782 1783 1784 1785 1786 1787 1788 1789 1790 1791 1792 1793 1794 1795 1796 1797 1798 1799 1800 1801 1802 1803 1804 1805 1806 1807 1808 1809 1810 1811 </DataArray>
        <DataArray type="UInt8" Name="vtkGhostType" format="ascii" RangeMin="0" RangeMax="0">0 0 0 0 0 0 0 0 0 0 0 0 0 0 0 0 0 0 0 0 0 0 0 0 0 0 0 0 0 0 0 0 0 0 0 0 0 0 0 0 0 0 0 0 0 0 0 0 0 0 0 0 0 0 0 0 0 0 0 0 0 0 0 0 0 0 0 0 0 0 0 0 0 0 0 0 0 0 0 0 0 0 0 0 0 0 0 0 0 0 0 0 0 0 0 0 0 0 0 0 0 0 0 0 0 0 0 0 0 0 0 0 0 0 0 0 0 0 0 0 0 0 0 0 0 0 0 0 0 0 0 0 0 0 0 0 0 0 0 0 0 0 0 0 0 0 0 0 0 0 0 0 0 0 0 0 0 0 0 0 0 0 0 0 0 0 0 0 0 0 0 0 0 0 0 0 0 0 0 0 0 0 0 0 0 0 0 0 0 0 0 0 0 0 0 0 0 0 0 0 0 0 0 0 0 0 0 0 0 0 0 0 0 0 0 0 0 0 0 0 0 0 0 0 0 0 0 0 0 0 0 0 0 0 0 0 0 0 0 0 0 0 0 0 0 0 0 0 0 0 0 0 0 0 0 0 0 0 0 0 0 0 0 0 0 0 0 0 0 0 0 0 0 0 0 0 0 0 0 0 0 0 0 0 0 0 0 0 0 0 0 0 0 0 0 0 0 0 0 0 0 0 0 0 0 0 0 0 0 0 0 0 0 0 0 0 0 0 0 0 0 0 0 0 0 0 0 0 0 0 0 0 0 0 0 0 0 0 0 0 0 0 0 0 0 0 0 0 0 0 0 0 0 0 0 0 0 0 0 0 0 0 0 0 0 0 0 0 0 0 0 0 0 0 0 0 0 0 0 0 0 0 0 0 0 0 0 0 0 0 0 0 0 0 0 0 0 0 0 0 0 0 0 0 0 0 0 0 0 0 0 0 0 0 0 0 0 0 0 0 0 0 0 0 0 0 0 0 0 0 0 0 0 0 0 0 0 0 0 0 0 0 0 0 0 0 0 0 0 0 0 0 0 0 0 0 0 0 0 0 0 0 0 0 0 0 0 0 0 0 0 0 0 0 0 0 0 0 0 0 0 0 0 0 0 0 0 0 0 0 0 0 0 0 0 0 0 0 0 0 0 0 0 0 0 0 0 0 0 0 0 0 0 0 0 0 0 0 0 0 0 0 0 0 0 0 0 0 0 0 0 0 0 0 0 0 0 0 0 0 0 0 0 0 0 0 0 0 0 0 0 0 0 0 0 0 0 0 0 0 0 0 0 0 0 0 0 0 0 0 0 0 0 0 0 0 0 0 0 0 0 0 0 0 0 0 0 0 0 0 0 0 0 0 0 0 0 0 0 0 0 0 0 0 0 0 0 0 0 0 0 0 0 0 0 0 0 0 0 0 0 0 0 0 0 0 0 0 0 0 0 0 0 0 0 0 0 0 0 0 0 0 0 0 0 0 0 0 0 0 0 0 0 0 0 0 0 0 0 0 0 0 0 0 0 0 0 0 0 0 0 0 0 0 0 0 0 0 0 0 0 0 0 0 0 0 0 0 0 0 0 0 0 0 0 0 0 0 0 0 0 0 0 0 0 0 0 0 0 0 0 0 0 0 0 0 0 0 0 0 0 0 0 0 0 0 0 0 0 0 0 0 0 0 0 0 0 0 0 0 0 0 0 0 0 0 0 0 0 0 0 0 0 0 0 0 0 0 0 0 0 0 0 0 0 0 0 0 0 0 0 0 0 0 0 0 0 0 0 0 0 0 0 0 0 0 0 0 0 0 0 0 0 0 0 0 0 0 0 0 0 0 0 0 0 0 0 0 0 0 0 0 0 0 0 0 0 0 0 0 0 0 0 0 0 0 0 0 0 0 0 0 0 0 0 0 0 0 0 0 0 0 0 0 0 0 0 0 0 0 0 0 0 0 0 0 0 0 0 0 0 0 0 0 0 0 0 0 0 0 0 0 0 0 0 0 0 0 0 0 0 0 0 0 0 0 0 0 0 0 0 0 0 0 0 0 0 0 0 0 0 0 0 0 0 0 0 0 0 0 0 0 0 0 0 0 0 0 0 0 0 0 0 0 0 0 0 0 0 0 0 0 0 0 0 0 0 0 0 0 0 0 0 0 0 0 0 0 0 0 0 0 0 0 0 0 0 0 0 0 0 0 0 0 0 0 0 0 0 0 0 0 0 0 0 0 0 0 0 0 0 0 0 0 0 0 0 0 0 0 0 0 0 0 0 0 0 0 0 0 0 0 0 0 0 0 0 0 0 0 0 0 0 0 0 0 0 0 0 0 0 0 0 0 0 0 0 0 0 0 0 0 0 0 0 0 0 0 0 0 0 0 0 0 0 0 0 0 0 0 0 0 0 0 0 0 0 0 0 0 0 0 0 0 0 0 0 0 0 0 0 0 0 0 0 0 0 0 0 0 0 0 0 0 0 0 0 0 0 0 0 0 0 0 0 0 0 0 0 0 0 0 0 0 0 0 0 0 0 0 0 0 0 0 0 0 0 0 0 0 0 0 0 0 0 0 0 0 0 0 0 0 0 0 0 0 0 0 0 0 0 0 0 0 0 0 0 0 0 0 0 0 0 0 0 0 0 0 0 0 0 0 0 0 0 0 0 0 0 0 0 0 0 0 0 0 0 0 0 0 0 0 0 0 0 0 0 0 0 0 0 0 0 0 0 0 0 0 0 0 0 0 0 0 0 0 0 0 0 0 0 0 0 0 0 0 0 0 0 0 0 0 0 0 0 0 0 0 0 0 0 0 0 0 0 0 0 0 0 0 0 0 0 0 0 0 0 0 0 0 0 0 0 0 0 0 0 0 0 0 0 0 0 0 0 0 0 0 0 0 0 0 0 0 0 0 0 0 0 0 0 0 0 0 0 0 0 0 0 0 0 0 0 0 0 0 0 0 0 0 0 0 0 0 0 0 0 0 0 0 0 0 0 0 0 0 0 0 0 0 0 0 0 0 0 0 0 0 0 0 0 0 0 0 0 0 0 0 0 0 0 0 0 0 0 0 0 0 0 0 0 0 0 0 0 0 0 0 0 0 0 0 0 0 0 0 0 0 0 0 0 0 0 0 0 0 0 0 0 0 0 0 0 0 0 0 0 0 0 0 0 0 0 0 0 0 0 0 0 0 0 0 0 0 0 0 0 0 0 0 0 0 0 0 0 0 0 0 0 0 0 0 0 0 0 0 0 0 0 0 0 0 0 0 0 0 0 0 0 0 0 0 0 0 0 0 0 0 0 0 0 0 0 0 0 0 0 0 0 0 0 0 0 0 0 0 0 0 0 0 0 0 0 0 0 0 0 0 0 0 0 0 0 0 0 0 0 0 0 0 0 0 0 0 0 0 0 0 0 0 0 0 0 0 0 0 0 0 0 0 0 0 0 0 0 0 0 0 0 0 0 0 0 0 0 0 0 0 0 0 0 0 0 0 0 0 0 0 0 0 0 0 0 0 0 0 0 0 0 0 0 0 0 0 0 0 0 0 0 0 0 0 0 0 0 0 0 0 0 0 0 0 0 0 0 0 0 0 0 0 0 0 0 0 0 0 0 0 0 0 0 0 0 0 0 0 0 0 0 0 0 0 0 0 0 0 0 0 0 0 0 0 0 0 0 0 0 0 0 0 0 0 0 0 0 0 0 0 0 0 0 0 0 0 0 0 0 0 0 0 0 0 0 0 0 0 0 0 0 0 0 0 0 0 0 0 0 0 0 0 0 0 0 0 0 0 0 0 0 0 0 0 0 0 0 0 0 0 0 0 0 0 0 0 0 0 0 0 0 0 0 0 0 0 0 0 0 0 0 0 0 0 0 0 0 0 0 0 0 0 0 0 0 0 0 0 0 0 0 0 0 0 0 0 0 0 0 0 0 0 0 0 0 0 0 0 0 0 0 0 0 0 0 0 0 0 0 0 0 0 0 0 0 0 0 0 0 0 0 0 0 0 0 0 0 0 0 0 0 0 0 0 0 0 0 0 0 0 0 0 0 0 0 0 0 0 0 0 0 0 0 0 0 0 0 0 0 0 0 0 0 0 0 0 0 0 0 0 0 0 0 0 </DataArray>
        <DataArray type="Float64" Name="u" format="ascii" NumberOfComponents="3">0.0004694412739341044 -1.182503623438846e-05 0 0.0004711149984073321 0 0 0.0004721583915612467 -6.474722472577044e-06 0 0.0004734354611402186 0 0 0.0004697254429057098 -1.318436297233755e-05 0 0.000473467512682883 -5.666426628551559e-06 0 0.0004655162130350456 -2.316205658328897e-05 0 0.0004750935183695694 0 0 0.0004631425482787706 -2.276539872155852e-05 0 0.0004710671339908285 -9.385570253088896e-06 0 0.000474793968390847 -3.998360047672529e-06 0 0.0004763442873513585 0 0 0.0004589610283483676 -3.457263237073356e-05 0 0.0004663989401204685 -1.557624775777809e-05 0 0.0004760992594164019 -2.726445111466162e-06 0 0.0004775981391909141 0 0 0.0004544612598305833 -3.132290192741756e-05 0 0.0004589300428645149 -2.084954291197881e-05 0 0.0004662503339538579 -1.26934189736159e-05 0 0.0004721510872830689 -6.989765474357449e-06 0 0.0004774617930435521 -2.10923279586492e-06 0 0.0004498125807420264 -4.579008477007243e-05 0 0.0004747141630852572 -4.433955216069397e-06 0 0.0004791744526484003 0 0 0.0004420394221485555 -4.087375125491056e-05 0 0.0004492320147432344 -2.904883389892812e-05 0 0.0004582530530160701 -1.611287717481226e-05 0 0.0004656869991488615 -1.057583185679836e-05 0 0.0004709659826681074 -6.788028396030731e-06 0 0.000479330329984939 -1.69685426965906e-06 0 0.0004754423532710181 -4.001326540713577e-06 0 0.0004382062472734712 -5.670595495601033e-05 0 0.0004496391432981585 -2.328897431890858e-05 0 0.0004811163099039197 0 0 0.0004278100855897239 -5.312383076348811e-05 0 0.00043916561203952 -3.203922290789073e-05 0 0.0004576336272696864 -1.335252542009029e-05 0 0.0004487091030344814 -1.885171208560391e-05 0 0.0004651221627143357 -9.143375045622495e-06 0 0.0004712631160936518 -6.052899101708182e-06 0 0.0004818799439929591 -9.195797187010451e-07 0 0.0004764108958146844 -3.770020343068274e-06 0 0.0004835103901955147 0 0 0.0004239849688735844 -6.770461435241173e-05 0 0.0004278784060464642 -4.206071879187186e-05 0 0.0004382043400551089 -2.585495369268201e-05 0 0.0004803785691128006 -2.226782080689781e-06 0 0.0004841467153733882 -1.209738276216879e-06 0 0.0004105317691289505 -6.187531450647529e-05 0 0.0004155359011537818 -5.08225597357743e-05 0 0.0004260936060756918 -3.43835418142169e-05 0 0.0004576422402454716 -1.14334065836157e-05 0 0.0004484503981833825 -1.581129550894997e-05 0 0.0004377792676589501 -2.136752559041896e-05 0 0.0004654617939848115 -8.089915869547992e-06 0 0.0004720407800696039 -5.591953386006186e-06 0 0.0004774526310774675 -3.758510224203813e-06 0 0.0004863976200347801 0 0 0.0004074399089473729 -7.803175099113493e-05 0 0.0004126633076062669 -4.351049843899695e-05 0 0.0004255659110644376 -2.819999290599262e-05 0 0.0004813476319117786 -2.61501140270428e-06 0 0.0004874548031066112 -1.074669789244428e-06 0 0.0004897669807339256 0 0 0.0003914407095583547 -6.999084969446823e-05 0 0.0003974012266784896 -5.506452005905946e-05 0 0.0004113954118333688 -3.643797965296618e-05 0 0.0004582754954188639 -1.021006517596377e-05 0 0.0004488891983403335 -1.378627199382137e-05 0 0.0004381093610305209 -1.833001028755924e-05 0 0.0004258732762262957 -2.393861607206513e-05 0 0.0004663726459374253 -7.456282422906043e-06 0 0.0004733126142957376 -5.356954029327465e-06 0 0.0004844706641325879 -2.401710594043586e-06 0 0.0004792244841373155 -3.76041997029268e-06 0 0.0004911664722262628 -9.94929160241442e-07 0 0.0003885630534282891 -8.790058019983708e-05 0 0.000395568010049274 -4.572068015844141e-05 0 0.0004119963895372627 -3.070730224512278e-05 0 0.0004881621953442066 -1.880837542543634e-06 0 0.0004936254896954703 0 0 0.0003666765444521476 -7.811534963830287e-05 0 0.0003788766019939344 -6.4310530471067e-05 0 0.0003785556514001539 -5.587397558742339e-05 0 0.0003960617030615712 -3.873895797326032e-05 0 0.0004500361170886368 -1.251759230506491e-05 0 0.0004595586839047231 -9.50957093293803e-06 0 0.0004392154853630307 -1.63269625509883e-05 0 0.000427026344698958 -2.104453281429282e-05 0 0.0004134242659501542 -2.673984160595849e-05 0 0.0004678881074860808 -7.170838069568453e-06 0 0.0004751556557219615 -5.367537690662321e-06 0 0.0004815290392597678 -3.974349014175757e-06 0 0.0004868345003500217 -2.922060004009469e-06 0 0.0004952661187809278 -1.021210118836073e-06 0 0.0004914557254371047 -2.002673252348594e-06 0 0.0004979370640737487 0 0 0.0003676918271102736 -9.722003014423698e-05 0 0.0003791866239821898 -4.755911538222684e-05 0 0.0003981452700219597 -3.352028869599618e-05 0 0.0004997497401453204 -1.00697237049973e-06 0 0.0005026745228143804 0 0 0.0003434825320574939 -9.022008542513154e-05 0 0.0003610598470906206 -6.581739547899399e-05 0 0.0003611757687177267 -5.719492072856145e-05 0 0.0003811672152321343 -4.135405909186732e-05 0 0.0004410426992050919 -1.509193746192867e-05 0 0.0004518589022860743 -1.181773201815467e-05 0 0.0004614746159821972 -9.217761665164274e-06 0 0.0004289579746162739 -1.914407307331177e-05 0 0.0004155606327854301 -2.405534681016395e-05 0 0.0004008295260638101 -2.98775119992237e-05 0 0.0004700098132615069 -7.171412674451592e-06 0 0.0004775736254671313 -5.566971917968202e-06 0 0.0004842486825217522 -4.293227273376485e-06 0 0.0004902277863450997 -3.259960829302645e-06 0 0.000496132356705024 -2.210436498172132e-06 0 0.000504623122325335 -9.982934035661858e-07 0 0.000344632780910515 -0.0001061880473386217 0 0.0003416696785539632 -7.731001905612449e-05 0 0.0003631849276909709 -4.99123785818904e-05 0 0.0003844814527539823 -3.671813737554769e-05 0 0.0005009569031058182 -1.876396463462018e-06 0 0.0005078252303753955 0 0 0.0003180763262379223 -0.0001004303841216252 0 0.0003183048122312036 -8.788542913872696e-05 0 0.0003416819318855438 -6.696912693838309e-05 0 0.0003440419822005505 -5.912495709723739e-05 0 0.0003667442184596309 -4.446875411191986e-05 0 0.0004315803179412766 -1.798633123057608e-05 0 0.0004435358310797288 -1.443320887002035e-05 0 0.000454319956602252 -1.155282704823058e-05 0 0.0004640051556120756 -9.246879625568864e-06 0 0.0004184223320803661 -2.229224090417806e-05 0 0.0004040363259062556 -2.741536430771473e-05 0 0.00038825538588773 -3.345219398792924e-05 0 0.0004726941608548696 -7.410310639866827e-06 0 0.0004804876956680917 -5.939243132737408e-06 0 0.000487468718584086 -4.750858208955689e-06 0 0.0004937592427298302 -3.747974636084311e-06 0 0.0004995216238623069 -2.907922338629828e-06 0 0.0005101314818609265 -1.243776874925706e-06 0 0.000504915301600881 -2.15360665034267e-06 0 0.0003197432799071934 -0.0001145063252544494 0 0.0003200560092823399 -7.739969814123263e-05 0 0.00034805818776972 -5.291471127233469e-05 0 0.0003710627970485764 -4.042228183425339e-05 0 0.0005133478651569164 0 0 0.0002919348795867218 -0.0001101073749663421 0 0.0002937146695209392 -9.834517218823599e-05 0 0.0002975653213648077 -8.779397520131875e-05 0 0.0003236616015027993 -6.884271604769172e-05 0 0.0003284133090776835 -6.197013370502319e-05 0 0.0003529206029626989 -4.813020630503272e-05 0 0.000434834956573848 -1.738571384101207e-05 0 0.0004219220747205163 -2.122242597569301e-05 0 0.0004466382615611791 -1.421336733745086e-05 0 0.0004573724886505134 -1.162486162169041e-05 0 0.0004671020815079592 -9.530547182209165e-06 0 0.0004078707584436665 -2.579419307344623e-05 0 0.0003926655371864898 -3.115588134645389e-05 0 0.0003761991143350788 -3.738079774738518e-05 0 0.0004759222561535868 -7.834729731923966e-06 0 0.0004839083889645168 -6.453303652715044e-06 0 0.0004911495139139058 -5.302107776374933e-06 0 0.0004977490306308606 -4.307161088791632e-06 0 0.0005037888301842845 -3.447768856046589e-06 0 0.0005162796784572698 -1.130629928943807e-06 0 0.0005093097905501787 -2.648842286064495e-06 0 0.000293009757844388 -0.0001222006042419277 0 0.0003021668906445397 -7.893619113467782e-05 0 0.0003340338283399974 -5.647621636175788e-05 0 0.0003586733728763545 -4.440835202007146e-05 0 0.0005192300121719825 0 0 0.0005137177726659148 -2.117060164569729e-06 0 0.0002644768139499185 -0.000119219214405691 0 0.0002682821307622982 -0.0001082556593820455 0 0.0002734708830508582 -9.814522038848007e-05 0 0.0002799952240244754 -8.911938144854228e-05 0 0.0003077527243965733 -7.15636073036267e-05 0 0.0003142415228008977 -6.542988474237105e-05 0 0.0003403415565476547 -5.212716535136426e-05 0 0.0004386488590672475 -1.721259670167574e-05 0 0.0004259807447062303 -2.068251513036956e-05 0 0.0004122772140717116 -2.48063745377844e-05 0 0.0004502986015443548 -1.43299901943134e-05 0 0.0004609730499137465 -1.195784051440467e-05 0 0.0004707324732956068 -1.001313420400812e-05 0 0.0003975404281818667 -2.96376230261865e-05 0 0.0003817891963125693 -3.521198281750433e-05 0 0.0003649946750917054 -4.156805059306096e-05 0 0.0004796542120807809 -8.413668240302515e-06 0 0.0004878091935479037 -7.082136258134922e-06 0 0.0004952757525011332 -5.948653059714441e-06 0 0.0005021389361571413 -4.956935226411326e-06 0 0.0005084890622440559 -4.033900411495825e-06 0 0.0005220958435985191 -1.022487058635453e-06 0 0.0005186825547579368 -2.335247894906576e-06 0 0.000514275564976061 -3.19904140596957e-06 0 0.0005254386570309128 0 0 0.0005319468631354313 0 0 0.0005283921517371604 -1.311198620681743e-06 0 0.0002645320296778171 -0.0001293045353707526 0 0.0002863603783739769 -8.149484776988988e-05 0 0.0003212785193866736 -6.046579722244095e-05 0 0.0003473322139373015 -4.865312857299837e-05 0 0.000535095043984152 -1.316143177187839e-06 0 0.0005387544098301584 0 0 0.0002319054813453079 -0.0001282049787549212 0 0.0002412893197430242 -0.0001178268133138916 0 0.000248779621465263 -0.0001081472452511178 0 0.0002562991491263213 -9.950498976389332e-05 0 0.0002643453229611749 -9.161766678965885e-05 0 0.0002935999471118034 -7.494840305482987e-05 0 0.0003015619770940883 -6.936947054247745e-05 0 0.0003288618201911755 -5.643781444537506e-05 0 0.0004305465428872769 -2.054690401443511e-05 0 0.0004429770371681118 -1.736599795054822e-05 0 0.0004171678109604193 -2.431252302599846e-05 0 0.0004028432281604857 -2.871653104822906e-05 0 0.0004544757194726858 -1.47057368958928e-05 0 0.0004650850951929704 -1.249318322084414e-05 0 0.0004748569236543613 -1.065499849694713e-05 0 0.0003875929894276001 -3.380019971569785e-05 0 0.0003714717384597934 -3.957832608555898e-05 0 0.0003545595730579558 -4.60430349893381e-05 0 0.0004838599860658569 -9.116812832152291e-06 0 0.000492152244002543 -7.81253541461479e-06 0 0.0004998207138423511 -6.677531170871444e-06 0 0.0005069306500421453 -5.657968694844322e-06 0 0.000513591163617328 -4.695083788536087e-06 0 0.0005256277077831457 -2.744654773209012e-06 0 0.0005198472223659474 -3.771912816279778e-06 0 0.000531232540719012 -2.273367343014928e-06 0 0.0005420273779303117 -1.447927791786062e-06 0 0.0005458249467278287 0 0 0.000560684852095507 0 0 0.0005684394956261193 0 0 0.0005645574138219118 -1.701103226785837e-06 0 0.000556816709635129 -1.229170120673273e-06 0 0.0005531465255794337 0 0 0.00054991714244653 -1.790085695903006e-06 0 0.000235020016096603 -0.0001355590013639354 0 0.0002724459341536366 -8.479594155886647e-05 0 0.000309862557168996 -6.478367301251945e-05 0 0.000336853875264437 -5.320830483110561e-05 0 0.0005370310851464381 -2.639644611264715e-06 0 0.0005722913850822966 -1.269653634190204e-06 0 0.0005569221786476746 -2.923396795924998e-06 0 0.0005763974610855577 0 0 0.0005845399365087192 0 0 0.0005803221126417595 -1.798260284025019e-06 0 0.0002040811250073428 -0.0001370894384980835 0 0.0002153805455273868 -0.0001260073170854596 0 0.0002236581840667254 -0.000117907374161709 0 0.0002323644456281434 -0.0001097010121386804 0 0.0002417828132294879 -0.0001018178742315955 0 0.000251009992401593 -9.479565089705631e-05 0 0.0002813326355345567 -7.872836034224416e-05 0 0.0002904423951885866 -7.361046163717358e-05 0 0.000318404704803018 -6.105748793675039e-05 0 0.0004355650559382008 -2.072501269353894e-05 0 0.0004224944250218425 -2.4199868459874e-05 0 0.0004477688826950439 -1.777300172189973e-05 0 0.0004085505853376197 -2.825325250573936e-05 0 0.0003937706819298831 -3.291919643426253e-05 0 0.0004591223490186008 -1.528307710044551e-05 0 0.0004696616116008822 -1.318909860724605e-05 0 0.0004794334214794425 -1.14246139351115e-05 0 0.0003781169658651769 -3.825700638829858e-05 0 0.000361820737262911 -4.420401525920284e-05 0 0.0003448803819893295 -5.078074697036302e-05 0 0.0004884953115800232 -9.924422722378874e-06 0 0.0004969126401049238 -8.627576054958897e-06 0 0.0005047549181197432 -7.47764705467919e-06 0 0.0005120903477773591 -6.426940521639327e-06 0 0.0005189856273250414 -5.436256256846821e-06 0 0.0005254804388258919 -4.466681176838991e-06 0 0.0005316889900131537 -3.583148080601211e-06 0 0.0005438390418941669 -3.079556421439068e-06 0 0.0005723030026915768 -2.837921624224618e-06 0 0.0005645207818113061 -3.574033384705298e-06 0 0.0005883027360840304 -1.371630758867571e-06 0 0.0005928505886508288 0 0 0.0006013181069539342 0 0 0.0005961142866319335 -1.933995146596888e-06 0 0.0002036236710178519 -0.0001410525715563757 0 0.000204493612693979 -0.0001328027404445443 0 0.0002607520980300031 -8.841080222593224e-05 0 0.0002995866555982458 -6.940759880714349e-05 0 0.0003272383700839254 -5.802400074009932e-05 0 0.0005379432505271158 -4.214188505318262e-06 0 0.0005505324091463853 -3.804020755464483e-06 0 0.0005576469533833369 -4.654474595908503e-06 0 0.0005875627753340727 -3.125393123736095e-06 0 0.0006035313599811777 -1.593515404348305e-06 0 0.0006099411969047543 -3.488238411570331e-23 0 0.0001742862177482916 -0.000143925881157006 0 0.0001791187210513021 -0.0001401291416312871 0 0.0001883492844196848 -0.0001345160176767182 0 0.0001988034850754534 -0.0001270508196691838 0 0.0002089446071594316 -0.0001194172409733545 0 0.0002192314497756411 -0.0001118704223513373 0 0.0002296581593715374 -0.0001047289730971179 0 0.0002401102782641848 -9.822262155197137e-05 0 0.0002707239536747163 -8.282136255048798e-05 0 0.0002805514498206246 -7.815396928656675e-05 0 0.0003089780322833287 -6.589973980517556e-05 0 0.0004409921572813243 -2.11476883133978e-05 0 0.0004282074512836169 -2.438668211156719e-05 0 0.0004146210423543475 -2.814766497051833e-05 0 0.0004529801376429628 -1.837784604245592e-05 0 0.0004002428323304054 -3.247569517197741e-05 0 0.0003850951087101143 -3.74055295303509e-05 0 0.0004641900131357891 -1.601974925610356e-05 0 0.000474655978684366 -1.401314414760869e-05 0 0.000484421453616836 -1.229776424659644e-05 0 0.0003690945834252941 -4.301244851126711e-05 0 0.0003525641977473946 -4.91909072311216e-05 0 0.0003356265592628985 -5.58975785750987e-05 0 0.0004935375512813571 -1.081581095822883e-05 0 0.0005020607906935347 -9.513083178154594e-06 0 0.0005100536875335425 -8.340831171456917e-06 0 0.0005175756155852556 -7.256453235709567e-06 0 0.0005246868291003449 -6.221452444360625e-06 0 0.0005314458669935885 -5.202165175305091e-06 0 0.0005443693183823156 -4.930421327746832e-06 0 0.0005726050489003814 -5.007351395651457e-06 0 0.0005797847146058652 -4.081328808084949e-06 0 0.0005648550903091566 -5.57498055670759e-06 0 0.000602414622229352 -3.346322831355658e-06 0 0.0006097849432091015 -2.228739418017577e-06 0 0.0001712373624128875 -0.0001459020987453727 0 0.0002507653571797496 -9.234120626641716e-05 0 0.0002905805156366678 -7.416364792647862e-05 0 0.0003183390754879146 -6.310775294239553e-05 0 0.0005376556418357256 -5.995370135724717e-06 0 0.0005510852984438841 -5.698508884170603e-06 0 0.0005579970920259459 -6.521997415805266e-06 0 0.0005865604324641234 -5.248945582038232e-06 0 0.0005945754754048283 -4.264459800758179e-06 0 0.0001382777764872688 -0.0001513954270375444 0 0.0001512186907846751 -0.0001476647524469116 0 0.000161875998951718 -0.0001426729021458504 0 0.0001741107338463309 -0.0001359640860963144 0 0.0001858029721453814 -0.0001287461720055114 0 0.0001972502673634854 -0.0001215075877964334 0 0.0002085516320666688 -0.0001144949046488625 0 0.0002198040199679312 -0.0001079115971610797 0 0.0002310535200861811 -0.0001018747867960886 0 0.0002612594710565458 -8.727592670784736e-05 0 0.0002720004872125323 -8.280263557076694e-05 0 0.0003006225788960307 -7.085598489890611e-05 0 0.0004467882862085661 -2.176182834956559e-05 0 0.0004342706399068574 -2.480789316108021e-05 0 0.0004210174217354115 -2.832458931529969e-05 0 0.0004070359141424247 -3.235556282684747e-05 0 0.0004585733748169829 -1.913706168463679e-05 0 0.0003923149463145307 -3.694924935859768e-05 0 0.0003769439111345053 -4.210864706828389e-05 0 0.0004696474749336835 -1.688062680667004e-05 0 0.0004800421767634565 -1.493753821648282e-05 0 0.0004897971413170896 -1.325285192394212e-05 0 0.0003609056118061061 -4.78764151689357e-05 0 0.0003444701449771193 -5.415255478987979e-05 0 0.0003277059419570259 -6.091995744737003e-05 0 0.0004989552560255868 -1.177460104192547e-05 0 0.0005075676617068959 -1.045818192551294e-05 0 0.0005156915038157486 -9.256137468216803e-06 0 0.0005233786070872208 -8.134326464518424e-06 0 0.0005306832701573352 -7.055084932018726e-06 0 0.0005441411396403864 -6.820596569396341e-06 0 0.0005784288594307592 -6.536227518865933e-06 0 0.0005711820511621866 -6.62355986213183e-06 0 0.0005649413652742584 -7.444548533181579e-06 0 0.0006014055935729548 -5.508046514230553e-06 0 0.0006093178257933864 -4.472679585117454e-06 0 0.0001386285880854659 -0.0001496649493897242 0 0.0002422896447786002 -9.645033411984366e-05 0 0.0002826818628331437 -7.901383326001541e-05 0 0.0003106456451155626 -6.816216842073541e-05 0 0.0005369581012763859 -7.93010490898638e-06 0 0.0005508894296068256 -7.678528915581263e-06 0 0.0005578629210461454 -8.570410240543202e-06 0 0.000586479830834328 -7.543093847081026e-06 0 0.0005935865654048398 -6.415756671892772e-06 0 0.0001113676627534702 -0.0001558716652261069 0 0.0001229972080024181 -0.0001546526463149435 0 0.0001364976383510565 -0.000150320711158561 0 0.000150258196178251 -0.0001443447968476836 0 0.0001632109411689998 -0.0001376815783436857 0 0.0001756801632630431 -0.000130799559079653 0 0.0001878431022386646 -0.0001239870352990101 0 0.0001998486817122527 -0.0001174297536437775 0 0.0002117415595438196 -0.0001112884350360982 0 0.0002235561804106143 -0.0001056531415014263 0 0.0002534899645286696 -9.166356510435271e-05 0 0.0002647105816690711 -8.746998610157752e-05 0 0.0002933442079367985 -7.583101875607772e-05 0 0.0004406509922085588 -2.541378322208827e-05 0 0.0004529187296040533 -2.252633520130552e-05 0 0.0004277073658949101 -2.872527203343296e-05 0 0.0004141016285884294 -3.249982083244156e-05 0 0.0003998045606315988 -3.679126576489744e-05 0 0.000464516031834699 -2.001760856820606e-05 0 0.0003847891279589339 -4.165200985919937e-05 0 0.0003693614107224934 -4.698782666356479e-05 0 0.0004754587114966818 -1.784078455281358e-05 0 0.0004857879884894634 -1.594082893521194e-05 0 0.0004955371950953669 -1.426970705008921e-05 0 0.000353464170505122 -5.284141939115038e-05 0 0.0003372326406499061 -5.916938499409503e-05 0 0.0003206974321487206 -6.59743570523244e-05 0 0.0005047192320919399 -1.278657227462315e-05 0 0.0005134158904221573 -1.144863520067902e-05 0 0.0005216499764284827 -1.021745107818348e-05 0 0.0005294786804839927 -9.056104182398605e-06 0 0.000543511517131497 -8.837740586780366e-06 0 0.0005723923977933691 -8.237680411709132e-06 0 0.0005649913813970225 -9.491342320060008e-06 0 0.0005794993522304252 -8.986765937724956e-06 0 0.000600620580637455 -7.685915517746505e-06 0 0.0006085447374667164 -6.746723047471454e-06 0 0.0001044799798726309 -0.0001530182246911451 0 0.000107058806192955 -0.0001582034298781056 0 0.0002352897730315413 -0.0001005768348356017 0 0.0002758638685048372 -8.387340174005217e-05 0 0.0003039388832986778 -7.320853548994497e-05 0 0.0005358752674227389 -1.000989929969517e-05 0 0.0005503343149662762 -9.776568883284914e-06 0 0.0005573641284694733 -1.074525647059392e-05 0 0.0005933382887458756 -8.651862024395889e-06 0 0.0005871119265430037 -9.9488136144739e-06 0 7.816323817642584e-05 -0.0001603773198060291 0 8.490309344208424e-05 -0.0001626502447088749 0 0.0001137824536660421 -0.0001569342853624999 0 9.468544137818058e-05 -0.0001620779277378706 0 0.0001277572708796735 -0.0001519881859938929 0 0.0001415832047720867 -0.0001460187933199641 0 0.0001548968230291257 -0.0001395868727174191 0 0.0001677934773614528 -0.0001330550739527947 0 0.0001804240910356639 -0.0001266402536863631 0 0.0001928754221722088 -0.0001205015657833249 0 0.0002051914253484711 -0.000114756546665647 0 0.0002173906288595199 -0.0001094802071124356 0 0.0002469458458139947 -9.607039112906267e-05 0 0.0002585559011335774 -9.210814033605393e-05 0 0.0002870667016061779 -8.078432941521599e-05 0 0.0004346553017612892 -2.930752585751779e-05 0 0.0004473175579303456 -2.616671802477811e-05 0 0.0004593581529392996 -2.340944028152921e-05 0 0.0004213848208221448 -3.286743796586928e-05 0 0.0004075246566836468 -3.68787263123365e-05 0 0.0003930763121540164 -4.137867807249872e-05 0 0.0004707815367678539 -2.099414303117009e-05 0 0.0003778945461166245 -4.646341154438138e-05 0 0.0003625393188623777 -5.191845150409345e-05 0 0.0004816091690632605 -1.887496672600578e-05 0 0.00049188867712675 -1.700193940543712e-05 0 0.0005016385643149887 -1.533514435353419e-05 0 0.0003468451126730444 -5.783498878702774e-05 0 0.0003308374858195372 -6.420568085017711e-05 0 0.0003145102511001399 -7.104781377887156e-05 0 0.0005108411360832707 -1.384420713894139e-05 0 0.0005195904918187422 -1.248196606498002e-05 0 0.000527914981460785 -1.121735556356063e-05 0 0.0005425835811809552 -1.099045423422545e-05 0 0.0005722928267716884 -1.04130074726544e-05 0 0.0005645890236889519 -1.170726800680461e-05 0 0.0005799239156612278 -1.134809783635931e-05 0 0.0006074737071034411 -9.065186088458449e-06 0 0.000599641994355317 -9.990957079634091e-06 0 6.994541041111863e-05 -0.0001551418104809945 0 0.0002294907493147349 -0.0001047059173644379 0 0.000270269467716903 -8.860999937104434e-05 0 0.0002980931437122256 -7.823274040953714e-05 0 0.0005344801314718521 -1.224457446370591e-05 0 0.0005494746289800436 -1.200770874358554e-05 0 0.0005565677334866778 -1.304338925682373e-05 0 0.000592983168764046 -1.091497696030616e-05 0 0.0005878314126504202 -1.231708693263126e-05 0 4.598573616511993e-05 -0.0001638205025330053 0 5.791554380791422e-05 -0.00016676463742496 0 6.731521526705572e-05 -0.0001678150714192474 0 0.0001063048038048542 -0.0001590215977789797 0 9.56915415609533e-05 -0.0001622376237851703 0 0.0001210584109517551 -0.0001536631174129573 0 0.0001350599202626997 -0.0001477484521043918 0 0.0001485463643371981 -0.0001415914127751184 0 0.0001616944663853224 -0.0001354104153768343 0 0.0001745993220228223 -0.0001293809522772514 0 0.000187328247058082 -0.0001236293983669359 0 0.000199913339807251 -0.0001182490627842498 0 0.0002123763191309134 -0.0001132959258262335 0 0.0002415495464472295 -0.0001004211308371483 0 0.0002535161629236689 -9.664234582615741e-05 0 0.0002817270497992428 -8.567651852567724e-05 0 0.0004418399375141213 -3.003499645934208e-05 0 0.0004288756884696312 -3.341241755065196e-05 0 0.0004542457058862925 -2.703750078297973e-05 0 0.0004660785143997848 -2.43872068163736e-05 0 0.0004153654288151497 -3.720076978719792e-05 0 0.000401335084324289 -4.142620840706163e-05 0 0.0003867217524133634 -4.614369944602231e-05 0 0.0004773468402152426 -2.204524645267169e-05 0 0.0003717345481139644 -5.130241502175829e-05 0 0.0003564331363322178 -5.689302401550774e-05 0 0.0004880756370917598 -1.996732597568221e-05 0 0.0004982892186153292 -1.811478304974828e-05 0 0.0005080158300246996 -1.645037182843582e-05 0 0.0003409710184384076 -6.283937789350156e-05 0 0.0003251098563326073 -6.928003410598345e-05 0 0.0003090949399070709 -7.609762343347784e-05 0 0.0005172618815760722 -1.494022741640849e-05 0 0.0005260498600820014 -1.355194747385543e-05 0 0.0005412857042268518 -1.330296425754706e-05 0 0.0005721879482173003 -1.266500373905324e-05 0 0.000564020453731746 -1.405415376347958e-05 0 0.0005798247072072955 -1.3694667740003e-05 0 0.0006061157162313275 -1.144153041904821e-05 0 0.0005965654874792077 -1.259923794047252e-05 0 3.557956189227488e-05 -0.0001560537775039418 0 7.85992284027964e-05 -0.0001667691763909063 0 0.0002247560165906431 -0.000108786957999656 0 0.0002653895986467038 -9.334831321887919e-05 0 0.0002930864652270905 -8.319206286623809e-05 0 0.000532790870327921 -1.464753180073526e-05 0 0.0005483014865471129 -1.438073286573324e-05 0 0.0005556347916526904 -1.544710427908626e-05 0 0.0005881102884118259 -1.4804758219123e-05 0 2.280880257985798e-05 -0.0001631574993144567 0 3.807162980786057e-05 -0.000169204710037099 0 4.44122878960784e-05 -0.0001712390680786429 0 5.321094743593188e-05 -0.0001720923170570375 0 8.590410689935534e-05 -0.000165469092148303 0 0.0001018736862827733 -0.0001605098805977583 0 0.0001163198079021586 -0.0001551693005611059 0 0.0001302407111146006 -0.000149473610396796 0 0.0001437656044923662 -0.0001436306069619116 0 0.000157026751773461 -0.0001378065986663143 0 0.0001700801806949494 -0.0001321479475543041 0 0.0001829622791037715 -0.0001267633590309778 0 0.0001957108827094865 -0.0001217220068025761 0 0.0002083435086297265 -0.0001170688538746232 0 0.0002370722430663056 -0.0001047253045540151 0 0.000249246792770236 -0.0001011427687510365 0 0.0002771464666087646 -9.051656476628411e-05 0 0.0004492445733061334 -3.087843300257351e-05 0 0.000436558319457845 -3.410097630658513e-05 0 0.0004233659341148415 -3.76985573049237e-05 0 0.0004614140599720639 -2.800124787098371e-05 0 0.0004730578862586713 -2.543875049529978e-05 0 0.0004096894306922734 -4.169444430074176e-05 0 0.0003955578358673043 -4.610990993962488e-05 0 0.0003809778851083797 -5.096535267137866e-05 0 0.0004841914417249234 -2.3152179217605e-05 0 0.0003660784965548986 -5.623501837443149e-05 0 0.0003509706198249443 -6.188149010196967e-05 0 0.0004948195259566814 -2.110746511290424e-05 0 0.0005049665999579257 -1.926896344562556e-05 0 0.0005146577825734124 -1.760194186026926e-05 0 0.0003355994039015276 -6.792995434353185e-05 0 0.0003200235806009215 -7.436396664720645e-05 0 0.0003043555902594081 -8.112508934393058e-05 0 0.0005239217584685821 -1.607198668443688e-05 0 0.0005397370344082902 -1.576886779516623e-05 0 0.000571621337528221 -1.509618954795056e-05 0 0.0005632324404909023 -1.653841555374681e-05 0 0.0005791590775583236 -1.618879864941576e-05 0 0.0006044844525202488 -1.388812319461259e-05 0 0 -0.0001571573992989635 0 2.147711667598611e-05 -0.000168486273314017 0 6.757808945112424e-05 -0.0001700691290127361 0 0.0002209151950413246 -0.0001128082088445291 0 0.0002613567328031685 -9.799088371744874e-05 0 0.0002887770178421649 -8.810458719476022e-05 0 0.0005308223277818683 -1.721989879344098e-05 0 0.0005470338761261057 -1.687801857822438e-05 0 0.0005545433239140345 -1.80037189705606e-05 0 0.0005967987935190987 -1.499113957945505e-05 0 0.0005847871018869191 -1.735300486272418e-05 0 0 -0.0001653556585014788 0 2.237879224550156e-05 -0.0001729907532534487 0 3.438790324975104e-05 -0.0001741642494034217 0 5.21174098977177e-05 -0.0001737562669446794 0 8.406209370702998e-05 -0.0001664722030943034 0 9.876761867363287e-05 -0.0001617753762960418 0 6.870255053266521e-05 -0.0001705740712745455 0 0.0001129428962090573 -0.0001566181766226978 0 0.0001267255897197125 -0.0001511978915775431 0 0.0001402323783078424 -0.0001456776321165759 0 0.0001535193485507921 -0.0001402087543502521 0 0.0001666272528258623 -0.0001349105355580626 0 0.0001795680493775461 -0.0001298793048861931 0 0.0001924143520780324 -0.0001251522530097784 0 0.0002051478141762733 -0.0001207807739811508 0 0.00023333924624482 -0.0001089854018050905 0 0.0002457119993080841 -0.0001055646680027298 0 0.0002732784162812301 -9.527732391463316e-05 0 0.0004568507006229044 -3.181483716401146e-05 0 0.00044441774796976 -3.490580601328249e-05 0 0.0004315160648360615 -3.83388602233806e-05 0 0.0004181667505686675 -4.21351956057966e-05 0 0.0004688021970294747 -2.903975838886002e-05 0 0.0004802663073791059 -2.654161139030137e-05 0 0.0004044024332953039 -4.631028829244598e-05 0 0.0003902465085327231 -5.088480930510342e-05 0 0.0003757722800186448 -5.58481489959212e-05 0 0.0004912602697197226 -2.430278209571906e-05 0 0.000360985181764686 -6.121031120919282e-05 0 0.0003460045557953609 -6.693217106446033e-05 0 0.0005017920945359488 -2.228322695571528e-05 0 0.00051188549181682 -2.045589165531546e-05 0 0.0005215500381848072 -1.877404387048362e-05 0 0.0003308536780043438 -7.301035254244974e-05 0 0.0003155656526593263 -7.942570705260548e-05 0 0.0003002810161404799 -8.609485531776333e-05 0 0.0005380090853577781 -1.836035215524919e-05 0 0.0005710465499555523 -1.764058410804333e-05 0 0.0005623243910915119 -1.91449761782293e-05 0 0.0005930779824506471 -1.743253922384602e-05 0 0.0005787810719683354 -1.87919052256528e-05 0 0.0006025960096875327 -1.641603248492072e-05 0 0 -0.0001712462009965226 0 3.510280828923751e-05 -0.0001758116060756289 0 0.0002177995995550273 -0.0001167739866247062 0 0.000257960672951411 -0.000102553747654916 0 0.0002850850527037562 -9.295682819517501e-05 0 0.0005287895247464402 -1.993539284439292e-05 0 0.000545531203294424 -1.952118121286828e-05 0 0.0005532459210865114 -2.070607659278109e-05 0 0.0005856941697826548 -1.901565099557235e-05 0 0 -0.0001750271639171482 0 1.810228292652196e-05 -0.0001761957260874256 0 3.58516915797851e-05 -0.0001771510489970185 0 5.229108031744615e-05 -0.0001747822528887767 0 8.242984129987652e-05 -0.0001675047692400006 0 6.765555203171036e-05 -0.000171527505265802 0 9.671262193454228e-05 -0.0001629529335655683 0 0.0001106290767488399 -0.0001580326379281928 0 0.0001242508244869828 -0.0001529147403047192 0 0.0001376939002917597 -0.0001477235171460196 0 0.0001509451266087868 -0.0001426060752040055 0 0.0001640398597411523 -0.0001376588148759667 0 0.0001770062231544383 -0.000132952490680296 0 0.000189881860465429 -0.0001285283602329265 0 0.0002026723824491075 -0.0001244183119638818 0 0.0002303838911526162 -0.0001131361913532439 0 0.0002428852949365255 -0.0001098795084151647 0 0.0002700435340604714 -9.995136400906878e-05 0 0.0004524456780181625 -3.580318839359096e-05 0 0.0004646515345852335 -3.280769735787471e-05 0 0.0004398101090365451 -3.909375392354113e-05 0 0.000426757143427669 -4.271811881764089e-05 0 0.0004133249066570078 -4.668628334695805e-05 0 0.0004764357267290049 -3.009939999447815e-05 0 0.0004877068662955186 -2.766145735902154e-05 0 0.0003995351794797697 -5.101488842870017e-05 0 0.0003854033522039896 -5.572391316629366e-05 0 0.0003709969905379319 -6.079636928095365e-05 0 0.000498637313502473 -2.54588434980713e-05 0 0.0003563739097037017 -6.622137179802283e-05 0 0.0003415771510985642 -7.198944379693809e-05 0 0.000509079184727584 -2.34617508855427e-05 0 0.0005191726264145674 -2.163319270603979e-05 0 0.0003267075318900169 -7.805506056950868e-05 0 0.0003116935217765972 -8.443453659247516e-05 0 0.0002967884420241846 -9.099350632255944e-05 0 0.0005362874237031122 -2.111863904672828e-05 0 0.0005705053442856045 -2.03139095673916e-05 0 0.0005610030101309734 -2.190475850020309e-05 0 0.0006004685450567382 -1.903486356187144e-05 0 0.0005805136855890491 -2.145376260170579e-05 0 0.0005910912054761938 -2.016247603481015e-05 0 1.721904398409234e-05 -0.0001784754292111848 0 0.0002154203400933855 -0.0001206300369707045 0 0.0002551894642340843 -0.0001070278844739974 0 0.0002819995685843649 -9.770619902164296e-05 0 0.0005266550614711974 -2.282981909421406e-05 0 0.0005439491448855092 -2.231523963928305e-05 0 0.0005517135169436553 -2.355659262591351e-05 0 0 -0.0001776130282364023 0 3.726219956033061e-05 -0.0001780529431146695 0 2.212459015002031e-05 -0.0001795443673974636 0 5.251819606871624e-05 -0.0001755988431958984 0 8.149738289319281e-05 -0.0001684508468200606 0 6.723306298433748e-05 -0.0001723399820428742 0 9.542455627495316e-05 -0.0001641063005602161 0 0.0001091141512647472 -0.0001594487917258552 0 0.0001225992322155158 -0.0001546327130910483 0 0.0001359374548528314 -0.0001497751846668643 0 0.0001491280589868597 -0.0001449946483422206 0 0.000162178626711567 -0.0001403801141963701 0 0.0001751299622928219 -0.000135981889826195 0 0.0001880238229097484 -0.0001318315017980616 0 0.0002008639109580627 -0.0001279651164776914 0 0.0002280824029922571 -0.0001171950123243182 0 0.000240593171019721 -0.0001141241134071443 0 0.0002673547128436004 -0.0001045342875772019 0 0.0004482384147544406 -3.994225309895516e-05 0 0.0004606724394209194 -3.6746936548627e-05 0 0.0004727528776628068 -3.382763523825763e-05 0 0.0004354533648829522 -4.341690814346127e-05 0 0.0004223065168795292 -4.721220003315295e-05 0 0.0004088125718115496 -5.134588609076914e-05 0 0.0004844227814223892 -3.117682678857868e-05 0 0.0004955098375736706 -2.882705519075932e-05 0 0.0003950000511793026 -5.582881596770864e-05 0 0.000380919169718364 -6.065587449764646e-05 0 0.0003666375556585006 -6.580807609189116e-05 0 0.0005062579882085639 -2.665403956824852e-05 0 0.0003521826357383003 -7.128425563098538e-05 0 0.0003376381086429848 -7.705021095822475e-05 0 0.0005166583180066392 -2.465935176952379e-05 0 0.0003230249139006415 -8.308376616200313e-05 0 0.0003083960775651794 -8.935554585283487e-05 0 0.0002938539322459993 -9.579621784315315e-05 0 0.0005343599047449527 -2.40489630632228e-05 0 0.0005693731779410922 -2.311751492615197e-05 0 0.0005596545387185425 -2.480556833216588e-05 0 0.0005981219070953726 -2.175263941853878e-05 0 0.0005885548594210554 -2.286068853533179e-05 0 0 -0.000179402687950749 0 9.102199082630286e-06 -0.0001800167870605711 0 0.0002136109272930415 -0.0001244111085662385 0 0.0002529380474822595 -0.000111402670338858 0 0.0002794173805634954 -0.0001023748428465029 0 0.00052442149122117 -2.588808927483472e-05 0 0.0005421317279850584 -2.529719790313286e-05 0 0.00057772798782161 -2.436712588391555e-05 0 0.0005500923442155729 -2.656505368896012e-05 0 3.909630419454836e-05 -0.00017867443199207 0 2.460845015712087e-05 -0.0001803467224737993 0 1.105584329636293e-05 -0.0001810654908973236 0 5.30493714230134e-05 -0.0001762847277619233 0 6.722606277323298e-05 -0.0001731064588530452 0 8.108555159558491e-05 -0.0001693890425451762 0 9.476324446970323e-05 -0.0001652603084705707 0 0.0001082383557251182 -0.000160883403773393 0 0.0001216050867767909 -0.0001563612668969174 0 0.0001348169648172575 -0.0001518330814865911 0 0.0001479245167183429 -0.0001473770027015466 0 0.0001609145923880586 -0.0001430762622193087 0 0.0001738609199667042 -0.0001389571252368605 0 0.000186738547675485 -0.0001350732712156408 0 0.0001995667352747588 -0.0001314482847779297 0 0.0002262743083885462 -0.0001211744827355334 0 0.0002387681212677668 -0.0001182757261456757 0 0.0002651309665430117 -0.0001090420507745017 0 0.0004442551870199541 -4.420890715292481e-05 0 0.0004568363608354777 -4.08463252515096e-05 0 0.0004692058533401892 -3.770082826323359e-05 0 0.0004809844118963833 -3.490747559720538e-05 0 0.0004313753256449107 -4.784896759532397e-05 0 0.00041816886084156 -5.180179986382995e-05 0 0.0004046689730779002 -5.607234235982238e-05 0 0.0004924236565250754 -3.235306432701662e-05 0 0.0005034521103761215 -3.001500637986144e-05 0 0.000390913350721199 -6.066412901845847e-05 0 0.000376943994167851 -6.557149744733346e-05 0 0.0003628065486036465 -7.078181821077206e-05 0 0.00051412516797716 -2.785952669379457e-05 0 0.0003485550901726468 -7.627764441118328e-05 0 0.0003342467560566133 -8.202892139457737e-05 0 0.0003199144730711633 -8.801227580556647e-05 0 0.0003056147775478794 -9.418878809867681e-05 0 0.0002914046540337724 -0.0001005123863911445 0 0.0005322379187566971 -2.714697741240122e-05 0 0.0005677599188288747 -2.606193966045986e-05 0 0.0005582179348180879 -2.783965216008454e-05 0 0.0005955772456872014 -2.457572692383654e-05 0 0.0005856670308319621 -2.582041567106634e-05 0 0 -0.0001808005615449327 0 0.0002122952866256285 -0.0001281143808802156 0 0.0002511357613789379 -0.0001157047340608932 0 0.0002773107024070853 -0.0001069485072065944 0 0.0005220225628252273 -2.912441445912067e-05 0 0.0005402424280221408 -2.842414871042395e-05 0 0.0005757863927443315 -2.724988816845978e-05 0 0.0005484074425871606 -2.970940315275623e-05 0 4.015214577670893e-05 -0.0001793203883887709 0 2.606070789781218e-05 -0.0001810817256106982 0 1.228585359163607e-05 -0.0001819493148433659 0 0 -0.0001819058055665607 0 5.3825469164761e-05 -0.0001769300386666375 0 6.763286233270523e-05 -0.0001738565603898863 0 8.120424352591366e-05 -0.0001703174176324465 0 9.462617157149616e-05 -0.0001664328410474643 0 0.0001079243731455397 -0.0001623295159569139 0 0.0001211146579358005 -0.0001581204266584581 0 0.000134217302544167 -0.000153900022992814 0 0.00014722889600211 -0.0001497540676293301 0 0.0001601782870998603 -0.0001457362542297813 0 0.0001730682144134183 -0.0001418963326814176 0 0.0001859308840471093 -0.0001382614426186354 0 0.0001986811648905075 -0.0001348808763826025 0 0.0002249136301432119 -0.0001250739502804621 0 0.000237404500435319 -0.0001223397157106624 0 0.000263414645526183 -0.0001134347133694757 0 0.0004405165955105064 -4.857638919005714e-05 0 0.0004531982376224106 -4.505871355512818e-05 0 0.0004656721880748029 -4.176587323958554e-05 0 0.0004777181727013492 -3.87697912630267e-05 0 0.0004893130011311275 -3.605676381667837e-05 0 0.0004275845113985493 -5.236503979362315e-05 0 0.0004143736702545909 -5.644978353312405e-05 0 0.0004009112172214538 -6.08294676391932e-05 0 0.0005005679486582866 -3.355597752374604e-05 0 0.0005114704046328256 -3.125268224130625e-05 0 0.0003872426638427065 -6.550961109722621e-05 0 0.0003734081222507939 -7.048018450064164e-05 0 0.0003594422295976141 -7.571895650692012e-05 0 0.000345406725124181 -8.121736838476156e-05 0 0.0003313438983884011 -8.693791265172797e-05 0 0.0003172951609167495 -9.285581915965541e-05 0 0.0003032837233555962 -9.894130272370515e-05 0 0.000289390184293366 -0.000105143996310514 0 0.0005300906516724586 -3.040191743489849e-05 0 0.0005662678870007294 -2.901642570358635e-05 0 0.000556723735938616 -3.100047602021266e-05 0 0.0005928566176873948 -2.750880807548835e-05 0 0.0005830714844729101 -2.878833003846255e-05 0 0.000211373757123168 -0.0001317517134171444 0 0.0002497790061843786 -0.0001199059909859732 0 0.0002756614699511565 -0.0001114187308975443 0 0.0005196260219373089 -3.251822402661494e-05 0 0.0005383160058534854 -3.168912516718201e-05 0 0.0005738269994712328 -3.027885656681921e-05 0 0.000546688323716458 -3.298285711308474e-05 0 4.124283088408476e-05 -0.0001799593160986756 0 2.750349613729244e-05 -0.0001817521524326541 0 1.334779678253268e-05 -0.0001827733120586869 0 0 -0.0001828342359149589 0 5.490752911379802e-05 -0.0001775622008623186 0 6.837638931214064e-05 -0.0001746295650294814 0 8.169374713758794e-05 -0.0001712857718518715 0 9.490165737420676e-05 -0.0001676456985068158 0 0.0001080200110004213 -0.0001638192961047072 0 0.0001210617270844059 -0.000159903698540418 0 0.0001340416235630323 -0.0001559828117865397 0 0.0001469684307604546 -0.0001521245449102124 0 0.0001598456593490568 -0.0001483848009801095 0 0.0001726743294636526 -0.0001448063415909687 0 0.0001854483795069358 -0.0001414224161525993 0 0.0001981639876785718 -0.0001382560240999015 0 0.0002240128623287839 -0.000128877758348507 0 0.0002364601752586031 -0.0001263081345751961 0 0.0002621248783267197 -0.0001177231854397511 0 0.0004371053189052085 -5.299965253337809e-05 0 0.0004498488637515679 -4.934218619569297e-05 0 0.0004623389595597842 -4.593116175477137e-05 0 0.0004744960121633771 -4.279362740610299e-05 0 0.0004862756030614791 -3.991034626387082e-05 0 0.0004977234031920724 -3.725042178722888e-05 0 0.0004241375178439353 -5.692282622661241e-05 0 0.0004109624378429317 -6.11142359787932e-05 0 0.0003975690195546526 -6.558672802641384e-05 0 0.0005088396898491411 -3.479359584641948e-05 0 0.000383989547618707 -7.033985235236796e-05 0 0.0003702778869629363 -7.53506203238133e-05 0 0.0003565261057030727 -8.060577099575364e-05 0 0.0003426965644656839 -8.60948311919807e-05 0 0.0003288812841320854 -9.177718006364136e-05 0 0.0003151007597919674 -9.762119481171054e-05 0 0.0003013950329772535 -0.0001035994893332394 0 0.0002878172530800504 -0.0001096697575168409 0 0.0005279337144917958 -3.379670595538433e-05 0 0.000564759186968278 -3.218137306062065e-05 0 0.0005551800172269463 -3.427179341696254e-05 0 0.0005899825995274512 -3.055489405081948e-05 0 0.000580105734785638 -3.18757801827639e-05 0 0.0002108413670608029 -0.0001353125261599337 0 0.0002488168526178017 -0.0001240086103910221 0 0.0002744111940450756 -0.0001157900845213798 0 0.0005172504100382751 -3.605140293565175e-05 0 0.0005363832806094309 -3.508441013767083e-05 0 0.0005720059251269698 -3.321526911091348e-05 0 0.0005449440863298883 -3.636150771581756e-05 0 4.293279107813852e-05 -0.0001805273854451234 0 2.935046809410937e-05 -0.0001822787954028889 0 1.478133339847375e-05 -0.0001835911487308772 0 0 -0.0001836748804764328 0 5.618734148610152e-05 -0.0001782344656997687 0 6.938221683377336e-05 -0.0001754563506302561 0 8.247389620976822e-05 -0.0001723168567861345 0 9.548896771001784e-05 -0.0001689199256295393 0 0.000108446195195917 -0.0001653602101525962 0 0.0001213512423413809 -0.0001617247450584815 0 0.0001342154096598807 -0.0001580856231207607 0 0.0001470432736261272 -0.0001545034155380884 0 0.0001598344024514967 -0.0001510281745646385 0 0.0001725908142806079 -0.0001476968775106532 0 0.000185309955452884 -0.0001445377697456676 0 0.000197990751412708 -0.0001415706398978092 0 0.0002234548207429008 -0.0001326068322577469 0 0.0002358605004031238 -0.0001301939011655238 0 0.0002611945043850002 -0.0001219216199643648 0 0.0004339876565515345 -5.749458777129426e-05 0 0.0004467026893338027 -5.372441278367901e-05 0 0.0004592327218629522 -5.018743086976585e-05 0 0.0004714671876103602 -4.691376409508504e-05 0 0.000483363643805356 -4.388669219354977e-05 0 0.0004949660190076697 -4.107745887978254e-05 0 0.0005062615814418355 -3.847203982243678e-05 0 0.000421058097726969 -6.151432741093942e-05 0 0.0004079139397315593 -6.58059161660816e-05 0 0.0003946010519227153 -7.035519285298852e-05 0 0.0003811584892896905 -7.514983836703134e-05 0 0.0003676658344174228 -8.016589316400175e-05 0 0.0003540285029572901 -8.544685214715881e-05 0 0.0003404027404845548 -9.091308011179334e-05 0 0.0003268213487961043 -9.654332876064824e-05 0 0.0003133040490825228 -0.0001023031136170578 0 0.0002998884400334136 -0.0001081689250943615 0 0.0002866138098025528 -0.0001141042817497859 0 0.0005257974099268141 -3.732143987155295e-05 0 0.0005651638781205516 -3.571970238528978e-05 0 0.0005534909926081862 -3.766480055575513e-05 0 0.0005869779173784536 -3.371537825828241e-05 0 0.0005765025100729831 -3.510125862365671e-05 0 0.0002106172715415146 -0.0001388150323814705 0 0.00024821129240769 -0.0001280160628556408 0 0.0002735042542418524 -0.0001200721037906902 0 0.0005149272420439532 -3.971089757301663e-05 0 0.0005344685029283918 -3.860197704194185e-05 0 0.0005431282171703102 -3.978217440382425e-05 0 4.45498401103054e-05 -0.0001811817838440069 0 3.179848724456862e-05 -0.00018280710478173 0 2.225573664055651e-05 -0.0001835385707268036 0 0 -0.000184468910150378 0 5.761720762278083e-05 -0.0001789788483095661 0 7.058666947201845e-05 -0.0001763603063758475 0 8.348677064432542e-05 -0.0001734239751999755 0 9.633560992184436e-05 -0.0001702614420341295 0 0.0001091462085410709 -0.0001669570310482196 0 0.0001219249156258095 -0.0001635857103773466 0 0.0001346756803076535 -0.0001602131631496187 0 0.0001474060817433122 -0.0001568911986513727 0 0.0001601174275756425 -0.0001536618498745547 0 0.0001728029901244656 -0.000150561789979989 0 0.0001854627312951687 -0.0001476155059912991 0 0.0001980847813520226 -0.0001448453880373483 0 0.0002231862949699751 -0.0001362767695727883 0 0.0002355655423327387 -0.0001340050906002463 0 0.000260584229534898 -0.0001260349761608034 0 0.0004438624334331477 -5.816024594447818e-05 0 0.0004311296776661857 -6.20440579674879e-05 0 0.000456375511216044 -5.451736129690793e-05 0 0.0004686253959812338 -5.112492633895982e-05 0 0.0004806121865996327 -4.796298053420647e-05 0 0.0004923307921423282 -4.501623541510971e-05 0 0.0005037711372031958 -4.227036724806253e-05 0 0.0004182581414158463 -6.614864747860806e-05 0 0.0004051762548335731 -7.051913543240075e-05 0 0.0003919772262551158 -7.511823067396605e-05 0 0.0003786888897183429 -7.99393827946208e-05 0 0.0003653016375102599 -8.498871242977268e-05 0 0.0003518637594429232 -9.025138863148589e-05 0 0.000338464323521822 -9.567790231277347e-05 0 0.0003251285153369352 -0.0001012340147307952 0 0.0003118816319376227 -0.0001068990736666559 0 0.0002987357281181099 -0.0001126510478781565 0 0.0002857360235429942 -0.0001184525991541928 0 0.000523708906826169 -4.09641721771801e-05 0 0.0005723805770505797 -3.820776596310694e-05 0 0.000560911855864622 -3.946192657448147e-05 0 0.0005512699463396959 -4.062485219631443e-05 0 0.0005838651037647144 -3.699012342312651e-05 0 1.1899557531876e-05 -0.000184609361128909 0 0.0002106634545928104 -0.00014226520078129 0 0.0002478869420845846 -0.0001319512233821697 0 0.0002729030883153879 -0.0001242697463400914 0 0.0005126834004272655 -4.348327037233199e-05 0 0.0005325976468466598 -4.22313759373199e-05 0 0.0005430333206354681 -4.342406384268351e-05 0 4.633084723488579e-05 -0.0001818983098395149 0 3.383228381094913e-05 -0.0001834651439585359 0 2.255413470397482e-05 -0.0001843282698217501 0 0 -0.0001852781453339174 0 5.917495019304663e-05 -0.0001798083554652823 0 7.195315107148528e-05 -0.0001773523331612888 0 8.468740165086305e-05 -0.0001746141287613025 0 9.739116228414262e-05 -0.0001716759297031746 0 0.0001100732594306974 -0.0001686120018602881 0 0.0001227320082702607 -0.0001654917135354682 0 0.0001353751418164497 -0.000162369677420835 0 0.0001480137072208552 -0.0001592899130879766 0 0.0001606512666424776 -0.0001562901146351792 0 0.0001732692678559257 -0.0001534055622896125 0 0.0001858626522147281 -0.0001506617735715926 0 0.0001984274783710795 -0.0001480769011682251 0 0.0002231820707531492 -0.000139885547029136 0 0.0002355362888343015 -0.0001377469477512791 0 0.0002602591626053671 -0.0001300678546063197 0 0.0004536896601725034 -5.892828776007604e-05 0 0.0004411936273433603 -6.266688714033591e-05 0 0.0004285164231051846 -6.663156718255347e-05 0 0.0004659757870997783 -5.541584445360912e-05 0 0.0004780268384361205 -5.212909591204088e-05 0 0.0004898352959416879 -4.905197974586799e-05 0 0.0005013894893418854 -4.617520385449971e-05 0 0.0004156776845156143 -7.082542982658615e-05 0 0.0004027056791942842 -7.524491993366535e-05 0 0.0003896299265044513 -7.98825846943833e-05 0 0.0003764852309024387 -8.472440184410805e-05 0 0.0003632899248330158 -8.976396031678333e-05 0 0.0003500705212010691 -9.498990699368779e-05 0 0.0003368675161975352 -0.0001003730773020962 0 0.0003237750335161312 -0.000105847411526091 0 0.0003107731310035813 -0.0001114164995132053 0 0.000297889196880427 -0.0001170504279610741 0 0.0002851492165998694 -0.0001227182963287912 0 0.0005216938669875947 -4.471398636601276e-05 0 0.0005806661876743137 -4.037757692949942e-05 0 0.0005687299154718481 -4.167491869460273e-05 0 0.0005557000005940651 -4.29168587768943e-05 0 1.142685903104548e-05 -0.000185498779316202 0 0.0002109571756133033 -0.0001456630000753143 0 0.0002478420656931608 -0.0001358058023448267 0 0.0002725757991877164 -0.0001283873452164262 0 0.0005105350850389252 -4.73581186306004e-05 0 0.0005306612981022412 -4.600200124818534e-05 0 0.0005481217892730259 -4.573716824259162e-05 0 4.809169017341232e-05 -0.000182712212276326 0 3.553283462034659e-05 -0.0001842569824204181 0 2.319792137298161e-05 -0.0001851748465350095 0 0 -0.0001861514104208268 0 6.083736469229428e-05 -0.0001807334955318963 0 7.34555585616922e-05 -0.0001784361249952327 0 8.60469494166735e-05 -0.0001758890320899622 0 9.862323760136577e-05 -0.0001731641926286681 0 0.0001111847243295364 -0.0001703286323117871 0 0.0001237362596493413 -0.0001674432528018159 0 0.0001362845110412443 -0.0001645540334495403 0 0.0001488454223801922 -0.0001616978997238918 0 0.0001614053152046391 -0.00015891381806473 0 0.000173946191346614 -0.0001562354925847414 0 0.0001864773497849619 -0.0001536815980085529 0 0.0001989852572777949 -0.0001512718520956731 0 0.0002234247362988853 -0.0001434317219645438 0 0.0002357385452089879 -0.0001414244741240034 0 0.0002601899298998902 -0.0001340255169801191 0 0.0004512357681271346 -6.338540163654849e-05 0 0.0004635279353439019 -5.977189415232076e-05 0 0.0004387695629887429 -6.721009807114345e-05 0 0.0004261452308411996 -7.125026175191962e-05 0 0.0004756161718153804 -5.637118796502301e-05 0 0.0004874897306106701 -5.317430190458862e-05 0 0.0004991318789537303 -5.017423296261308e-05 0 0.0004133884086738926 -7.550460764620571e-05 0 0.0004005184476831686 -7.997062334277546e-05 0 0.0003875795126725047 -8.463004925711534e-05 0 0.0003745966186507105 -8.947223353833366e-05 0 0.0003615690869010959 -9.450315253091608e-05 0 0.0003485437985139881 -9.969300338705772e-05 0 0.0003355906300454827 -0.0001049931114341185 0 0.0003227263663199075 -0.0001103847561457405 0 0.0003099619809096251 -0.0001158533405004421 0 0.0002973233380860323 -0.0001213697330564902 0 0.0002848242882712489 -0.000126906201334143 0 0.0005197622487142217 -4.85611470203032e-05 0 0.0005774024232664226 -4.387490819177877e-05 0 0.000565254426720403 -4.540644266288142e-05 0 0.0005391885644029816 -4.749736068383508e-05 0 0.0005549791953066864 -4.657728984981904e-05 0 1.091876787133039e-05 -0.0001864017331863347 0 0.0002114506948970843 -0.0001490147568613138 0 0.0002480199161268137 -0.0001395968457533601 0 0.0002724881267213639 -0.0001324326205022066 0 0.0005085001499312015 -5.132169254928747e-05 0 0.0005290705294388091 -4.978249443783623e-05 0 0.0005477261872445348 -4.910240335439539e-05 0 3.694516096104874e-05 -0.0001851434609096016 0 4.997618942799536e-05 -0.0001836185869866799 0 2.417783018143906e-05 -0.0001861050492491105 0 0 -0.0001871026668037271 0 6.259217077475753e-05 -0.0001817548255188636 0 7.507096790149211e-05 -0.0001796138610416005 0 8.75243960610564e-05 -0.0001772525020155401 0 9.997536656141544e-05 -0.0001747337856927063 0 0.000112432113050256 -0.0001721143812947817 0 0.0001248937932665589 -0.0001694449375902155 0 0.0001373704693314917 -0.0001667680647816112 0 0.0001498602578683655 -0.0001641195948863284 0 0.0001623233884176551 -0.0001615431370548881 0 0.0001748095737355299 -0.0001590535125636772 0 0.0001872686618462169 -0.0001566837320670855 0 0.0001997312936588308 -0.0001544350243910847 0 0.0002237941872452998 -0.0001469563516046 0 0.0002360477566907891 -0.0001450807541810479 0 0.0002603212582094901 -0.0001379235178933228 0 0.0004612953679195389 -6.417190686113467e-05 0 0.0004490230165549328 -6.787162045881218e-05 0 0.0004733979317130698 -6.067156711240176e-05 0 0.0004365958241571204 -7.17745680417974e-05 0 0.0004240427381784528 -7.58737210677477e-05 0 0.0004853087997307992 -5.736764397119276e-05 0 0.0004970135636297444 -5.425384421959719e-05 0 0.0004113682614285137 -8.018287925199662e-05 0 0.000398601280697168 -8.468651421266618e-05 0 0.0003857957937599029 -8.936280825627891e-05 0 0.0003729620340068508 -9.420513170472935e-05 0 0.0003601380526295049 -9.919334748728246e-05 0 0.0003473349423242941 -0.0001043182302840478 0 0.0003346055691870009 -0.0001095397068541593 0 0.0003219653219482826 -0.0001148449202783536 0 0.0003094308072412659 -0.0001202108763972103 0 0.0002970120828195595 -0.0001256124373051871 0 0.0002847373344041864 -0.0001310203433913988 0 0.0005179360668814653 -5.249319034537488e-05 0 0.0005740940603448526 -4.747816171888667e-05 0 0.0005600569366037533 -4.929120896606551e-05 0 0.0005381121671719865 -5.11950914439488e-05 0 1.208041041286465e-05 -0.000187364016777395 0 0.0002121127596119628 -0.0001523368710011374 0 0.0002483489125022077 -0.0001433484550742628 0 0.0002726222500421534 -0.0001364084600880199 0 0.0005065931800363203 -5.536234341054258e-05 0 0.0005274341150175981 -5.368476728241468e-05 0 0.0005485151388008438 -5.217049639605797e-05 0 2.434117388932571e-05 -0.0001872569509682636 0 3.965107423119093e-05 -0.0001860107222183699 0 5.204421345467111e-05 -0.0001846053459761744 0 0 -0.0001881298358917864 0 6.44142901568839e-05 -0.0001828767167857962 0 7.674795115949554e-05 -0.0001808936387125724 0 8.909109877116658e-05 -0.0001787103995130363 0 0.000101446279682012 -0.0001763806169063414 0 0.0001138192476642932 -0.0001739586022023565 0 0.0001262019642217852 -0.0001714904654246585 0 0.0001385956641609966 -0.0001690100108291166 0 0.0001509238574204299 -0.0001665843785686256 0 0.0001633543388613868 -0.0001641929905524588 0 0.000175807393154166 -0.0001618726385141864 0 0.0001882015837604827 -0.0001596823585098782 0 0.0002006065777175838 -0.0001575829466543742 0 0.0002243830295017558 -0.0001504249209150669 0 0.0002365799737948434 -0.0001486794654372843 0 0.0002606792281302353 -0.0001417512318660496 0 0.0004713738826541967 -6.501733677751586e-05 0 0.0004592804931347683 -6.860485545278265e-05 0 0.0004470369955780867 -7.238225026591578e-05 0 0.000483300744019872 -6.161784585075908e-05 0 0.0004346596319704184 -7.63532581794989e-05 0 0.0004221704653618541 -8.051291948042678e-05 0 0.0004950442321534432 -5.840172982932781e-05 0 0.0004096116030206494 -8.484744485811353e-05 0 0.0003969816572907983 -8.936232067974619e-05 0 0.0003843196381214755 -9.403836166488405e-05 0 0.0003716521829313942 -9.886091179331893e-05 0 0.0003590087361349568 -0.0001038103289886904 0 0.0003464114717108949 -0.0001088690272543801 0 0.0003338950979789528 -0.0001140142097090849 0 0.0003214636574988503 -0.0001192315911780227 0 0.0003091334092200794 -0.0001244975839080836 0 0.000296930398736887 -0.0001297829706841397 0 0.0002848672047315389 -0.0001350647898156346 0 0.0005162253515545953 -5.649591529755738e-05 0 0.0005707601579523959 -5.118241972634401e-05 0 0.000536981670201429 -5.486012946503949e-05 0 0.0005585075760000098 -5.331628618117318e-05 0 1.020226162749493e-05 -0.0001883800242205446 0 0.0002129742711174592 -0.0001556215119582752 0 0.0002489201347267804 -0.0001470233510520199 0 0.0002729576359554814 -0.000140317785225709 0 0.000504823148085353 -5.946889119579963e-05 0 0.0005255824536098245 -5.766963458108498e-05 0 0.0005476119413050036 -5.562832549330519e-05 0 2.94881706469124e-05 -0.0001879739020597595 0 4.177190404320942e-05 -0.00018702583706735 0 5.404353958436219e-05 -0.0001857081656758007 0 1.80712645236642e-05 -0.0001885948221708936 0 0 -0.0001892477051531082 0 6.627805898224609e-05 -0.000184105205404344 0 7.850760916596333e-05 -0.0001822691407584169 0 9.07368728729077e-05 -0.0001802576008425284 0 0.0001030111047903516 -0.0001781058404812561 0 0.0001153265829769296 -0.0001758612606275558 0 0.0001276444964296312 -0.0001735747209217561 0 0.0001398393762523197 -0.000171305484855816 0 0.0001519192562438688 -0.0001691484456906924 0 0.0001642715492087487 -0.0001669383689291405 0 0.0001766538503379089 -0.0001647909406469879 0 0.0001889567242035343 -0.0001627580095198095 0 0.0002013448890249714 -0.0001607983214519238 0 0.0002251909454561846 -0.000153844803521755 0 0.0002373794527298442 -0.0001521934057151022 0 0.0002612178176779547 -0.0001455196244335018 0 0.000481469254786544 -6.591428546539185e-05 0 0.0004695448146089361 -6.939849684887734e-05 0 0.0004574749635650558 -7.306203646276845e-05 0 0.0004452775176609764 -7.690511417724757e-05 0 0.0004932328905010847 -6.260616818652553e-05 0 0.0004329714166290639 -8.092613128806376e-05 0 0.0004205789597624742 -8.512053065124324e-05 0 0.0004081258489806391 -8.948004123673971e-05 0 0.0003956307133668292 -9.399637894951078e-05 0 0.0003831161694858156 -9.866366486499108e-05 0 0.0003706137218720046 -0.0001034564050449292 0 0.0003581478185220254 -0.0001083592113549749 0 0.0003457565049965836 -0.0001133494727947508 0 0.0003334396575411533 -0.0001184176884032741 0 0.000321204436597 -0.0001235477414073434 0 0.0003090653985208971 -0.0001287126395451588 0 0.0002970566974582377 -0.0001338855490120637 0 0.0002851787436177829 -0.0001390456028829302 0 0.0005145811828500215 -6.056924517410377e-05 0 0.0005674184408181956 -5.498196858833148e-05 0 0.0005341099518837871 -5.892971210883098e-05 0 0.0005559934065804057 -5.699405934483244e-05 0 9.564784754849877e-06 -0.0001896066509113996 0 0.0002137522448459507 -0.0001589443212657142 0 0.0002496464101227168 -0.0001506467363997479 0 0.0002734509598405293 -0.0001441681777875081 0 0.0005031975052366397 -6.36305083346425e-05 0 0.0005241291127577551 -6.171242345067063e-05 0 0.0005445997528732926 -5.949476095183909e-05 0 3.186671063230744e-05 -0.0001890468607548453 0 2.022695407636253e-05 -0.0001895820891033391 0 4.392278330314917e-05 -0.0001881433975804169 0 5.606507581611769e-05 -0.0001869176247256999 0 0 -0.00019045277870764 0 6.819351059108969e-05 -0.0001854322093641062 0 8.03151941351923e-05 -0.0001837446132132276 0 9.250329447763201e-05 -0.0001818746819598891 0 0.00010471696809492 -0.0001798830550074301 0 0.0001169337637342181 -0.0001778137084114307 0 0.0001290296831049727 -0.0001757583540642287 0 0.0001411384884134356 -0.0001736888234632344 0 0.0001532808044029761 -0.0001716464415263095 0 0.0001655806435669865 -0.0001695980875974498 0 0.0001779012721826349 -0.0001676095841914369 0 0.0001901993623766719 -0.0001657094312906795 0 0.0002025059536510798 -0.0001638972733244204 0 0.0002260124578703803 -0.0001572517533500527 0 0.000238265315260066 -0.0001556785565047199 0 0.0002618639408649907 -0.0001492439416107591 0 0.0004798172433555685 -7.024575431255792e-05 0 0.0004915836611439743 -6.68553776919867e-05 0 0.0004679108024322714 -7.380412384022218e-05 0 0.0004558803591719659 -7.753166009956878e-05 0 0.0004437422476859954 -8.142717575526665e-05 0 0.0004315165183528042 -8.548837385365297e-05 0 0.0004192241697457177 -8.970873776474691e-05 0 0.0004068869815113957 -9.408067525206842e-05 0 0.0003945250652583276 -9.85952548893095e-05 0 0.0003821601773422499 -0.000103239184306272 0 0.0003698247851326181 -0.0001079925991950299 0 0.0003575420053725532 -0.0001128400139953315 0 0.0003453355859783733 -0.0001177666714104367 0 0.0003331930068510402 -0.0001227593553692024 0 0.0003211394943732626 -0.0001278000136508549 0 0.0003091866645059826 -0.000132861906941349 0 0.0002973579185624538 -0.0001379276037596402 0 0.0002856482391688416 -0.0001429703955755192 0 0.000513202953189101 -6.468734948561979e-05 0 0.0005640851970135 -5.887046404550825e-05 0 0.0005335016983506126 -6.321559718154987e-05 0 0.000552940972112148 -6.090680543771684e-05 0 1.051565947641833e-05 -0.00019083317228262 0 0.0002148037299897476 -0.0001621899477903676 0 0.0002504727127435276 -0.0001542331002534802 0 0.0002740531395070787 -0.0001479908086750078 0 0.0005017179206017413 -6.783463826531219e-05 0 0.000522491532415909 -6.583193990789805e-05 0 0.0005438146730520339 -6.299050349599142e-05 0 3.409039477350295e-05 -0.0001902248361767597 0 2.204025676972401e-05 -0.0001907348015903047 0 4.607713217265929e-05 -0.0001893638521983855 0 5.812033000933842e-05 -0.0001882256573705757 0 0 -0.0001917500410179514 0 7.015823872597643e-05 -0.0001868559451234865 0 8.222791021260452e-05 -0.0001852906184981515 0 9.434714594357744e-05 -0.0001835652617656414 0 0.000106471112101485 -0.0001817296533268754 0 0.0001184648329750183 -0.0001798707492552754 0 0.000130514520482726 -0.0001779795169861087 0 0.0001425939973084158 -0.0001760767267158102 0 0.0001548017032659172 -0.0001741442800315333 0 0.000167044745873915 -0.0001722518308027273 0 0.0001792973796827145 -0.0001704163659607416 0 0.0001915517362845643 -0.0001686536039547454 0 0.0002038016146243418 -0.0001669774540749353 0 0.0002270742170492261 -0.0001605986734986356 0 0.000239277102747466 -0.0001591313385278338 0 0.0002625835230095063 -0.0001529619858419225 0 0.0004783448665242544 -7.460139571064624e-05 0 0.0004900980910633044 -7.114053614032693e-05 0 0.0004664701194800483 -7.822374702407485e-05 0 0.0004544905568316517 -8.200560775092048e-05 0 0.0004424205208042302 -8.59423591540191e-05 0 0.0004302845090919286 -9.003364921645353e-05 0 0.0004180972244924377 -9.427040165406293e-05 0 0.0004058803999611071 -9.864557237634688e-05 0 0.0003936518040839432 -0.0001031479946966483 0 0.0003814323015723321 -0.0001077649986686694 0 0.0003692512713166538 -0.0001124796149960891 0 0.0003571381271881479 -0.0001172715146253481 0 0.0003450784934461375 -0.000122136844137996 0 0.0003331153515036917 -0.000127042172614426 0 0.0003212327053155367 -0.000131993346712796 0 0.0003094769107882979 -0.0001369540708385609 0 0.0002977940372454384 -0.0001419215755931494 0 0.0002862300331359982 -0.0001468619620535839 0 0.0005119310343331859 -6.888221517441023e-05 0 0.0005607752140688669 -6.284109083190954e-05 0 0.0005293855992881144 -6.726433030227795e-05 0 0.0005495993780905669 -6.4950848762753e-05 0 0.0005391357352059453 -6.645563497983729e-05 0 1.141160543543587e-05 -0.0001921421013163383 0 0.0002160497487614533 -0.0001653918751609319 0 0.0002514194024021538 -0.0001578086508708318 0 0.0002748032839575336 -0.0001517614630119158 0 0.0005004411053359342 -7.210545926739229e-05 0 0.0005215484285387603 -7.011289610053116e-05 0 3.627004384904264e-05 -0.0001914835705176525 0 2.424872361834487e-05 -0.0001919861523735175 0 4.826378794291944e-05 -0.0001906790937914493 0 6.021482022261521e-05 -0.0001896304067018878 0 0 -0.0001931442079809406 0 7.217443268102094e-05 -0.0001883682025158679 0 8.419321400941174e-05 -0.0001869213713230041 0 9.624617354102869e-05 -0.0001853308159044882 0 0.0001081652813839385 -0.0001836683054210114 0 0.0001200756688589536 -0.0001819899660530159 0 0.0001320993010228574 -0.0001802437549359593 0 0.0001442346932065787 -0.0001784451671907748 0 0.0001564075723891679 -0.0001766660044621135 0 0.000168598128748954 -0.0001749194156604189 0 0.0001807976251226813 -0.0001732234211249257 0 0.0001930024894885979 -0.000171591584983921 0 0.0002052024504566844 -0.0001700422273302878 0 0.0002282339837697335 -0.0001639242768293482 0 0.0002403722998522545 -0.0001625774694260563 0 0.0002635346148935622 -0.0001566001276755247 0 0.0004770639019085429 -7.896890433284828e-05 0 0.0004887893328916703 -7.545268291013591e-05 0 0.0004652280566985193 -8.264217349116062e-05 0 0.000453304803946827 -8.646881541773218e-05 0 0.0004413130463835574 -9.044054083437772e-05 0 0.0004292637065226769 -9.455532661444157e-05 0 0.00041718898908334 -9.880052376935067e-05 0 0.0004050942053660155 -0.0001031702900954636 0 0.0003929965199367735 -0.0001076546656620965 0 0.0003809180114775973 -0.0001122402504879645 0 0.0003688909669204052 -0.0001169112049530707 0 0.0003569160527646566 -0.0001216533302283798 0 0.0003449790679357807 -0.0001264636676398345 0 0.0003332016076124608 -0.0001312820913304859 0 0.000321498806648348 -0.0001361389609083956 0 0.0003099277850798943 -0.0001409954030649031 0 0.0002983464404300743 -0.0001458763767275575 0 0.0002869409615263368 -0.0001507100540557994 0 0.0005105575462543782 -7.314977140966272e-05 0 0.0005575017499862518 -6.688671319721045e-05 0 0.0005328017755476608 -7.083193912833266e-05 0 0.0005456965545059992 -6.908153985447244e-05 0 1.131628007171131e-05 -0.000193726875959174 0 0.0002174047368540997 -0.00016857140539781 0 0.0002524693121817198 -0.0001613363149495198 0 0.0002757044653188366 -0.0001554844912628454 0 0.0004992501112340816 -7.639311709127762e-05 0 0.0005207794285262314 -7.420425526324625e-05 0 3.845282424352812e-05 -0.0001928526387866654 0 2.604843263605355e-05 -0.0001933740066559574 0 5.045293929321595e-05 -0.000192090765664148 0 6.232340428697078e-05 -0.0001911328056485582 0 0 -0.0001946151314586641 0 7.422870709575775e-05 -0.0001899678078201498 0 8.61839856821247e-05 -0.0001886301767033159 0 9.801920279964536e-05 -0.0001872173936941849 0 0.000109888237516843 -0.0001857019660021696 0 0.0001217674207839992 -0.0001841465663818433 0 0.0001338553071102629 -0.0001825040397474504 0 0.000145965177933481 -0.0001808508812480838 0 0.0001580911292124257 -0.0001792105640432568 0 0.0001702336389004416 -0.0001776010204196371 0 0.000182382588210663 -0.0001760340477038344 0 0.000194546467116494 -0.0001745203988625973 0 0.0002067582188963533 -0.0001730415810506344 0 0.0002294501923278236 -0.0001672678317147892 0 0.0002413645417612761 -0.0001660957806615597 0 0.0002645909478346076 -0.00016018732955174 0 0.0004759655395464511 -8.333679843086885e-05 0 0.0004876528085225239 -7.977772458466437e-05 0 0.0004641781932885243 -8.706022426255769e-05 0 0.0004523161252080567 -9.092570178911341e-05 0 0.0004404066733910761 -9.492337949885522e-05 0 0.0004284555180539228 -9.905040777344103e-05 0 0.0004164893187600707 -0.0001032957903004329 0 0.0004045122067967003 -0.0001076544808359755 0 0.0003925464354303054 -0.0001121142500035507 0 0.000380609542959402 -0.0001166630599366801 0 0.0003687165894905505 -0.0001212882203300663 0 0.0003568847184276919 -0.0001259741971599612 0 0.0003451269695279595 -0.0001307058868762237 0 0.0003334590569857099 -0.0001354657186951116 0 0.000321956351003524 -0.00014022489985376 0 0.0003104613926062899 -0.0001450015977617056 0 0.0002990807303362094 -0.0001497637088633966 0 0.0002878572741245765 -0.0001544809836044447 0 0.0005093769900732736 -7.734892709891391e-05 0 0.0005542765350321792 -7.100001362761013e-05 0 0.0005304365937714222 -7.562931028138619e-05 0 0.0005422942358980581 -7.318721401244873e-05 0 1.745489264602314e-05 -0.0001950165229751388 0 7.298938982056868e-06 -0.0001953038937001448 0 0.00021887567374417 -0.000171659606508137 0 0.0002536587683669145 -0.0001648097910163245 0 0.0002766240990994749 -0.00015911633814307 0 0.0004981202149227443 -8.067306848405642e-05 0 0.0005192573255522871 -7.863111173799729e-05 0 2.920565400792203e-05 -0.0001946990961549281 0 4.073586563494282e-05 -0.0001942941070642732 0 5.256377996783214e-05 -0.0001936176588254351 0 6.443053898354847e-05 -0.0001927227448386747 0 0 -0.0001961699124990282 0 7.630251545689459e-05 -0.0001916426852442949 0 8.803898682570844e-05 -0.0001904575398649149 0 9.985553716102515e-05 -0.0001891649945780932 0 0.0001117141693438264 -0.0001877828837378594 0 0.0001236635377370273 -0.0001863149560082565 0 0.000135702551601372 -0.0001848067481134422 0 0.0001477630326133857 -0.0001832867945711375 0 0.0001598449161873678 -0.0001817788378868015 0 0.0001719452517029641 -0.0001802970717649147 0 0.0001835033885402717 -0.0001788871633715781 0 0.0001954348293320948 -0.00017800105097298 0 0.0002096622256220005 -0.0001757123659626905 0 0.0002303490103339539 -0.0001709224473306172 0 0.0002421456138517243 -0.0001696015417167119 0 0.0002656417218665185 -0.0001637080887895545 0 0.0004750331954589932 -8.771811732112026e-05 0 0.0004866767639571562 -8.40968956813152e-05 0 0.0004633071737473673 -9.147763993820275e-05 0 0.0004515167583471034 -9.536875609041266e-05 0 0.0004396881127835549 -9.938487925696721e-05 0 0.0004278393010026377 -0.0001035155002478068 0 0.0004159776524408343 -0.0001077564529221068 0 0.0004041211583525666 -0.0001120967661930828 0 0.0003922858976222079 -0.000116526611001562 0 0.0003804858135402956 -0.0001210345647602213 0 0.0003687360934790342 -0.0001256074781039761 0 0.0003570503164418501 -0.0001302313314054787 0 0.0003454388136380318 -0.0001348918623068638 0 0.0003339287521337381 -0.0001395709438743751 0 0.0003225068965903286 -0.00014425801577204 0 0.0003111784170820255 -0.0001489385137763873 0 0.0002999755993899308 -0.0001535918210722109 0 0.0002888977506076831 -0.0001582065481698361 0 0.0005083794045423108 -8.165767969270999e-05 0 0.000551109799900838 -7.517361786586986e-05 0 0.0005392162916544802 -7.753564642919225e-05 0 0.0005283979955352302 -7.998340417225096e-05 0 1.095693504745985e-05 -0.0001967852747884344 0 2.205159783259381e-05 -0.0001961538285450605 0 0.0002208076715156175 -0.0001739540535975738 0 0.000254974043753252 -0.0001682476738856928 0 0.0002781158989409729 -0.0001626020420515904 0 0.0004973773032249355 -8.490160537300122e-05 0 0.0005182231056107389 -8.292982866332153e-05 0 3.13781203835469e-05 -0.0001961991923784633 0 4.297481894988342e-05 -0.0001958345096282691 0 5.475811331474996e-05 -0.0001952134063863123 0 6.6574867208327e-05 -0.0001943867474877651 0 0 -0.0001978112770310322 0 7.826413259220307e-05 -0.0001934457444473091 0 8.997347527688724e-05 -0.0001923688809693536 0 0.0001017220793794102 -0.0001911831336594987 0 0.0001136373704630848 -0.0001898835596973953 0 0.0001256077351187407 -0.0001885330388901028 0 0.000137600627725747 -0.0001871496508684554 0 0.0001497561143033542 -0.0001856515787112051 0 0.0001616827471436392 -0.0001843528904475815 0 0.0001734732649199972 -0.0001829274672542946 0 0.0001834753215130313 -0.0001814286499283346 0 0.0002016911817582481 -0.0001799482856074068 0 0.0002145903532515039 -0.0001776206337002633 0 0.0002288333433399114 -0.0001746790449242821 0 0.0002438086980711334 -0.0001727586853105642 0 0.0002673506203557549 -0.0001676593304363145 0 0.0004742536834620746 -9.210163309735941e-05 0 0.0004858548232244877 -8.843711331221337e-05 0 0.0004625918199552444 -9.589058519911366e-05 0 0.0004508856939329356 -9.979875199317439e-05 0 0.0004391488037143872 -0.0001038221109389457 0 0.0004273968246558269 -0.000107951836821671 0 0.0004156462310321481 -0.0001121793034920803 0 0.0004039094898981346 -0.0001164958431990331 0 0.0003922002957876599 -0.0001208915713851179 0 0.0003805335306295913 -0.0001253550715839673 0 0.000368923436390686 -0.0001298737187140949 0 0.0003573758191066543 -0.0001344346988319044 0 0.0003459059034155317 -0.0001390235182050665 0 0.0003345264846435203 -0.0001436259408603025 0 0.0003232427288770138 -0.0001482282826295388 0 0.0003120614879744221 -0.0001528154517717008 0 0.0003012933854514535 -0.0001572770777245981 0 0.0002910493902876267 -0.0001614455075270717 0 0.0005078746741403914 -8.586976214266688e-05 0 0.0005480103257548935 -7.940020506692319e-05 0 0.0005364700684874548 -8.174154315420774e-05 0 0.0005266538075449186 -8.357364768544871e-05 0 2.129555311911282e-05 -0.0001978684853831456 0 9.807045907159014e-06 -0.000198631195524675 0 0.0001888155261952685 -0.0001825675097445226 0 0.0002552872530689815 -0.0001720266721436952 0 0.0002812848667251661 -0.0001654327231655794 0 0.0004966597258667868 -8.920474157584958e-05 0 0.0005187579634692727 -8.664177792542225e-05 0 3.344159114430907e-05 -0.0001978245206655709 0 4.522030202234478e-05 -0.0001974581465759378 0 5.700380551157972e-05 -0.0001968844433515414 0 6.865296165872975e-05 -0.0001961586453456063 0 0 -0.00019952600795355 0 8.028253623530626e-05 -0.0001953028094706772 0 9.191802447128373e-05 -0.0001943336483631621 0 0.0001037592652180674 -0.0001932189121329707 0 0.00011566444705482 -0.0001920326494057676 0 0.0001286643267005685 -0.0001909752595212584 0 0.0001409695007013459 -0.0001887255597660746 0 0.0001503774520080299 -0.0001881010309238374 0 0.0001622742314989924 -0.0001873711601601015 0 0.0001758278085685167 -0.0001852792379735565 0 0.0001946843644671355 -0.0001841201443818897 0 0.0002076349255840754 -0.0001817476846950267 0 0.0002206355792048008 -0.0001793881456261456 0 0.0002338037678013561 -0.0001769724434302929 0 0.0002449536084796486 -0.0001755326767368131 0 0.0002633442821932546 -0.0001722944758252031 0 0.0002736153292701627 -0.0001698846554465092 0 0.0004851793818620566 -9.278243456235395e-05 0 0.0004736347977111175 -9.647725616702823e-05 0 0.0004620446404509672 -0.0001002868932326459 0 0.0004504209940693043 -0.0001042069708659029 0 0.0004387771124935297 -0.0001082314593443654 0 0.0004271264642486147 -0.0001123531956287047 0 0.0004154826871505722 -0.000116563760493194 0 0.000403864278400212 -0.0001208525139088178 0 0.0003922775133367667 -0.0001252108812707723 0 0.0003807424448484156 -0.0001296262435614562 0 0.0003692647479290866 -0.0001340891621237777 0 0.0003578447151238432 -0.0001385855988203143 0 0.0003465123535223044 -0.0001431035092689275 0 0.0003352708866350747 -0.0001476207723353345 0 0.0003241135023755414 -0.0001521496346062586 0 0.0003130587130989245 -0.0001566500007766915 0 0.0003023077847986804 -0.0001609110270215519 0 0.0002924528863678372 -0.0001641907173972623 0 0.000509238257538736 -9.031525028397361e-05 0 0.0005449855117501688 -8.367260257637654e-05 0 0.0005315058328035429 -8.626511861954993e-05 0 1.6726154334804e-05 -0.00019919019020303 0 2.45149564596243e-05 -0.0001995531112912072 0 9.894647507458059e-06 -0.0002003103124997105 0 0.0001817295497764441 -0.000186573093413452 0 0.0002525028449991687 -0.0001768204351083843 0 0.0002863894493769457 -0.0001679193382010182 0 0.0004962098211167148 -9.357873296687946e-05 0 0.0005215840892928535 -8.957451241008263e-05 0 3.578444828116984e-05 -0.0001994802645060701 0 4.75201196937205e-05 -0.0001991522519897544 0 5.919185758959567e-05 -0.0001986450276232747 0 7.08069329593737e-05 -0.0001979938134614706 0 0 -0.0002013213820387669 0 8.234274631437769e-05 -0.0001972326505482239 0 9.402440969076029e-05 -0.0001963275887868833 0 0.0001060768161375557 -0.0001951945826433227 0 0.000117728720915782 -0.0001942372641381314 0 0.0001385391306114084 -0.0001916540553778075 0 0.0001499665197740161 -0.000190542740223342 0 0.0001689145539105263 -0.0001888739365436329 0 0.0001875411777132121 -0.000188229918919977 0 0.0002004545469448363 -0.0001859533263860089 0 0.0002134125437311055 -0.0001836602203183321 0 0.0002264102189552916 -0.0001813650485569632 0 0.0002394422051063922 -0.0001790811007824014 0 0.0002655863137630427 -0.0001745938370591362 0 0.000278686731478175 -0.0001724108076589261 0 0.0004846533935989278 -9.71169005992228e-05 0 0.0004731719126665133 -0.0001008389621841073 0 0.0004616565108389299 -0.0001046635808592514 0 0.0004501166329353107 -0.0001085890690327606 0 0.0004385664617979052 -0.0001126100787181089 0 0.0004270162395211339 -0.000116719191559007 0 0.000415477960135054 -0.0001209084928990074 0 0.0004039706376115714 -0.0001251663272784175 0 0.0003925055267165612 -0.0001294841933511077 0 0.0003810950611355634 -0.0001338511708916411 0 0.0003697339936972209 -0.0001382567507674565 0 0.0003584372898204074 -0.0001426917306593744 0 0.0003472386699918588 -0.0001471313867252073 0 0.0003361733441307523 -0.0001515401185104954 0 0.0003254225564423785 -0.0001557560786924858 0 0.000315252244397953 -0.0001604163491136307 0 0.0002999439894683682 -0.000165452805151695 0 0.0005050843341142115 -9.477798104248983e-05 0 0.0005170146656981745 -9.369196436599256e-05 0 0.0005420414558884141 -8.798386537211155e-05 0 0.0005301080408288483 -9.068135386853871e-05 0 1.795389897251717e-05 -0.0002008847615591485 0 2.744734202994591e-05 -0.0002012267357715481 0 1.014854874225994e-05 -0.0002021387858118186 0 0.0001266674526598228 -0.0001939037460814117 0 0.0001560419705145397 -0.000191224060516103 0 0.0001746768346340864 -0.0001904745003070598 0 0.0002917982645400611 -0.0001702795769250406 0 0.0004956081611517251 -9.784183077200033e-05 0 3.812448247012812e-05 -0.0002012130230674751 0 4.983062720633363e-05 -0.0002009232600534527 0 6.156073803208893e-05 -0.0002004573655377612 0 7.282523447274693e-05 -0.0001998254734142315 0 0 -0.0002031895376529683 0 8.438543689121293e-05 -0.0001990436872357305 0 9.645102441908703e-05 -0.0001983875516415273 0 0.0001087020429154291 -0.0001968167930821621 0 0.0001176049264763034 -0.0001970534556073166 0 0.0001308358074122456 -0.0001953689929290666 0 0.0001432471616409007 -0.000193472707656315 0 0.0001618652342444324 -0.000192670668192531 0 0.0004842725469746272 -0.000101464501188469 0 0.0004728644921431791 -0.0001051820234554627 0 0.0004614219154164801 -0.0001090161050071018 0 0.000449969085350875 -0.0001129423430012097 0 0.0004385096979546403 -0.0001169562089887679 0 0.0004270579027825602 -0.0001210487223702594 0 0.0004156213616221471 -0.0001252137228599254 0 0.0004042172049664938 -0.0001294401688685684 0 0.000392878636683491 -0.0001337145177986304 0 0.0003815717047494321 -0.0001380333150036257 0 0.0003703237739586101 -0.0001423838015348379 0 0.0003591402877365714 -0.0001467572555649358 0 0.0003479557716510196 -0.0001509969140245594 0 0.000337342255562832 -0.0001551154354833972 0 0.0003280720429765529 -0.0001583213401195187 0 0.0003123789195584686 -0.0001644641257876123 0 0.0003049152145054272 -0.0001682071388361717 0 0.0005074159431277461 -9.853652229004282e-05 0 0.0005275176565422059 -9.496555496238248e-05 0 0.0005391830453820077 -9.232734065868026e-05 0 1.901123665262379e-05 -0.0002027414355221663 0 2.917328344660583e-05 -0.0002030484236741175 0 9.776613534220593e-06 -0.0002040575675902293 0 0.0001491092846151095 -0.0001948012976487157 0 0.00032383537604453 -0.0001620814803324094 0 0.0004953603820478841 -0.0001021778523982161 0 0.0005183738225562641 -9.75928362975871e-05 0 4.066045449427347e-05 -0.0002029128899800157 0 5.252928440743021e-05 -0.0002026836783422433 0 6.400337938070055e-05 -0.0002023106153015353 0 7.544818398289707e-05 -0.0002014820820099971 0 0 -0.0002051264787670291 0 8.665834817228683e-05 -0.0002005239780292748 0 0.000104236100071385 -0.0001994512011547394 0 0.0001237712451317106 -0.000198795172857934 0 0.0001364109690567497 -0.0001968487595759479 0 0.0004840501179948307 -0.0001057723816231054 0 0.0004727034837154043 -0.0001095075557662941 0 0.0004613417171566975 -0.0001133416662389804 0 0.0004499659920577515 -0.0001172679368406788 0 0.000438597727141489 -0.0001212690622709772 0 0.0004272418089726624 -0.0001253418416398803 0 0.0004159099423844331 -0.0001294781265833161 0 0.0004046175042396119 -0.0001336680744086212 0 0.0003933731609169476 -0.0001379010187597678 0 0.0003821724127908395 -0.0001421719628237964 0 0.0003710297136594395 -0.0001464690944452109 0 0.0003596703341087171 -0.0001506312775306102 0 0.0003485280592525972 -0.0001548007128735191 0 0.0003381028221139012 -0.0001592099763096119 0 0.0003180320937782651 -0.0001661993038178167 0 0.0005150167412991917 -0.0001005340025544627 0 0.0005063347940719369 -0.0001032536299385462 0 0.0005364140531206122 -9.669671845148854e-05 0 0.000524318461331865 -9.93855505892618e-05 0 1.960179839569923e-05 -0.0002047706768013163 0 3.14748952739655e-05 -0.0002049901050854101 0 9.532641956166132e-06 -0.0002059929301218547 0 9.23778004073177e-05 -0.0002011650014288967 0 0.0001111899641407441 -0.0002006226861100199 0 0.0003311436880235579 -0.0001642607649092444 0 0.0004952299794472129 -0.0001063943152124247 0 4.397088096939601e-05 -0.0002042360683640949 0 5.425379420538715e-05 -0.0002047869663787211 0 6.792418459965012e-05 -0.0002038831151039319 0 8.020416687812894e-05 -0.0002026758722873999 0 0 -0.0002071262369455266 0 9.8665815943286e-05 -0.0002023137831518878 0 0.0004839565802540043 -0.0001100537503359959 0 0.0004726717724932363 -0.0001138074348789454 0 0.000461389288102765 -0.0001176468210397531 0 0.0004501002042193324 -0.0001215627158404918 0 0.0004388210083791472 -0.0001255482383433303 0 0.0004275614650789488 -0.0001295973066747793 0 0.0004163301043474614 -0.0001337029420793993 0 0.0004051378915403046 -0.0001378557302778879 0 0.0003939949285177255 -0.0001420458818673116 0 0.000382903455000581 -0.0001462658324065414 0 0.0003719069373589719 -0.0001510971274544729 0 0.0003597140178106611 -0.0001541257895354443 0 0.0003521312843525151 -0.0001577341265265985 0 0.0003442451056352389 -0.0001623951740178438 0 0.0005186673607941448 -0.000103969486529807 0 0.0005064967478515871 -0.0001071310682489092 0 0.0005337372372719559 -0.0001010860692391058 0 1.897905548491303e-05 -0.0002070144802392358 0 4.11687907407734e-05 -0.0002061426018480577 0 8.85838441422496e-06 -0.0002076226609417515 0 8.61963033565553e-05 -0.0002038516047089795 0 0.0004951315126131501 -0.0001106406627741717 0 6.14053399431359e-05 -0.00020640524004082 0 7.37777494611051e-05 -0.000205220277412505 0 3.057900153729128e-05 -0.0002070438062374729 0 2.999132192676623e-20 -0.0002091935778571402 0 0.0004839506884635933 -0.0001143209850904597 0 0.0004727780957501672 -0.0001180917168137425 0 0.0004615675277532731 -0.0001219244973252502 0 0.0004503621587678298 -0.0001258271981288791 0 0.0004391720276658698 -0.0001297927015805692 0 0.0004280082339206273 -0.0001338134879826333 0 0.0004168917875803212 -0.0001378708440763974 0 0.0004060879740703722 -0.0001416731698820811 0 0.0003957589954470566 -0.0001455897096229791 0 0.0003868171908108783 -0.0001496513825045685 0 0.0003652392851995822 -0.0001559603336692603 0 0.0003573318149321081 -0.000160605224991974 0 0.0005186966786698829 -0.0001082902181481969 0 0.0005311544415016361 -0.0001054898699770254 0 0.0005064750459054416 -0.0001114412865227488 0 4.907320117590322e-05 -0.0002073935562311922 0 2.450165476632315e-05 -0.0002087383221714876 0 1.224637720398024e-05 -0.0002090794317728002 0 3.677451315684507e-05 -0.0002081742026772789 0 0.0003781704322613244 -0.0001545242622230342 0 0.0004950173461780216 -0.0001148122168784093 0 0.0004839287797282963 -0.0001185094024077727 0 0.0004730013432077731 -0.0001223494850960463 0 0.0004618682927784293 -0.0001261732887882527 0 0.0004507453521076563 -0.0001300604785396584 0 0.0004396406052919426 -0.0001340049466158032 0 0.0004285898923964781 -0.0001379792908833466 0 0.0004174720293483143 -0.000142465147704003 0 0.0004071631728447957 -0.0001448279841080039 0 0.0003999789055044211 -0.0001483972759737064 0 0.0003912564791155447 -0.0001528036979378136 0 0.0003703996700134997 -0.0001588927406217223 0 0.0005165879353965 -0.0001128501006537923 0 0.0005286666937400654 -0.0001099030197564799 0 0.0005049190134623234 -0.0001157929421855047 0 0.0003834449263822561 -0.000157258761081393 0 0.0004940689390052058 -0.0001189758073432651 0 0.0004837949613347985 -0.0001226476269572148 0 0.0004732400717381159 -0.0001265513937068024 0 0.0004622864462462488 -0.0001303932202491882 0 0.000451243102285996 -0.0001342624892629641 0 0.0004402216463554404 -0.0001381828273098128 0 0.0004292254042582086 -0.0001421485835398482 0 0.0004117486957435362 -0.000146936152961397 0 0.0004046523475661299 -0.0001511760545848534 0 0.0003964642475455026 -0.0001557036317360394 0 0.0005262743018434786 -0.0001143208465200072 0 0.000514426123752844 -0.0001172344695435377 0 0.000502867859023041 -0.000120136607660203 0 0.0004227745378197927 -0.0001458838101107422 0 0.0004935439457895258 -0.0001227664712488411 0 0.0004867655524861876 -0.0001267863873341941 0 0.0004737961496049182 -0.0001307857456736999 0 0.0004628144753283654 -0.0001345842416489445 0 0.0004518502789435029 -0.0001384333779250777 0 0.0004412704620991958 -0.0001424340148553543 0 0.0004309562042507854 -0.0001468637584292918 0 0.0004173288883593094 -0.0001496579653269473 0 0.0004094547038448387 -0.0001542270886296818 0 0.0005239769448798943 -0.0001187391061738595 0 0.0005119932514377851 -0.0001216630957014167 0 0.00049985042841425 -0.000124566838078728 0 0.000485273523995363 -0.0001312350103243191 0 0.0004743532332022334 -0.0001349651353087991 0 0.0004634242363129764 -0.0001385932126266532 0 0.0004530959235045515 -0.0001424761338290505 0 0.0004437938264509935 -0.0001467155116027415 0 0.0004224137647583206 -0.000152828340342449 0 0.0004974279838389185 -0.0001288228468140592 0 0.0005217737591138153 -0.000123153975387844 0 0.0005096046240286905 -0.0001261667664816112 0 0.0004353392858682656 -0.0001515061452392701 0 0.0004856485616146164 -0.0001355645868063633 0 0.000494935025012914 -0.0001326083251103106 0 0.0004750175192615563 -0.0001388340331636447 0 0.0004655632353135503 -0.000142158501724114 0 0.0004564048563499829 -0.0001460012897467341 0 0.0004482294916118301 -0.0001502588834290285 0 0.0005065407438225542 -0.0001311166001836627 0 0.0005196634180621758 -0.0001275620392864427 0 0.0004866003257867214 -0.0001396651169867501 0 0.0004973458154223963 -0.0001358900679505338 0 0.0004763535000636118 -0.000141936720221881 0 0.000468821226534654 -0.0001451890097799712 0 0.0004610829548348111 -0.0001490846230082443 0 0.0005176442062481526 -0.0001319602751303512 0 0.0005082688629202838 -0.0001348201644738201 0 0.0004955430441105838 -0.0001392072421176966 0 0.0004812935143606924 -0.0001439747869342229 0 0.00050414744431635 -0.0001388275886996992 0 0.0004738985740604372 -0.0001479811803776517 0 0.0005157140864904958 -0.0001363460329726811 0 0.0004941204302942615 -0.0001424603022519392 0 0.0004866755492732007 -0.0001469461745951231 0 0.0005138707607367918 -0.0001407170141552804 0 0.000504157804892293 -0.0001425529005251463 0 0.0004994133569025225 -0.0001459770758677823 0 0.0005121117245833271 -0.0001450712483928553 0 </DataArray>
        <DataArray type="Float64" Name="stress" format="ascii" NumberOfComponents="9">-3042917.339337292 7970658.830114343 7970658.830114343 -92186453.88703516 0 0 0 0 0 -2783748.900489185 -2710352.462844303 -2710352.462844303 -74736992.33252211 0 0 0 0 0 -2256413.168395279 -2556325.039160851 -2556325.039160851 -68473419.94859487 0 0 0 0 0 -2832470.793406811 -2994519.044415438 -2994519.044415438 -56213631.45284776 0 0 0 0 0 -591628.368700145 -4771599.250739038 -4771599.250739038 -50357968.254256 0 0 0 0 0 -2257106.298776257 -5996065.877555048 -5996065.877555048 -45133309.4404171 0 0 0 0 0 -4130293.902453321 10827676.76150343 10827676.76150343 -84754693.49657594 0 0 0 0 0 -1231750.478218276 -3460264.016419096 -3460264.016419096 -39388721.13020446 0 0 0 0 0 1204539.927978231 -318463.9439627132 -318463.9439627132 -57801677.65326876 0 0 0 0 0 3069513.345364471 -9861517.992826438 -9861517.992826438 -37049083.96427943 0 0 0 0 0 783465.625678316 -7209296.710279944 -7209296.710279944 -30960711.71042865 0 0 0 0 0 2488908.407346087 -3361025.129224047 -3361025.129224047 -27073489.04167346 0 0 0 0 0 -3236491.547536331 11821030.76992668 11821030.76992668 -71265438.03786145 0 0 0 0 0 4073369.004061872 -9124969.387505138 -9124969.387505138 -44717241.25117825 0 0 0 0 0 5365021.478093531 -7368256.234264901 -7368256.234264901 -22559509.76396107 0 0 0 0 0 7639082.692198321 -3321121.212452936 -3321121.212452936 -19002546.76720874 0 0 0 0 0 5551001.801576809 -3026660.873849703 -3026660.873849703 -49888157.75665669 0 0 0 0 0 9576181.244756198 -14779569.4842805 -14779569.4842805 -34069630.30623598 0 0 0 0 0 9057305.196124008 -14970489.38891647 -14970489.38891647 -31388002.50660371 0 0 0 0 0 9746447.263112161 -12605586.66725236 -12605586.66725236 -26798351.39840648 0 0 0 0 0 11226255.81430528 -7849840.407021129 -7849840.407021129 -15997934.0770533 0 0 0 0 0 -2057632.157132787 10572429.68882906 10572429.68882906 -54548138.67342851 0 0 0 0 0 10899258.90654441 -10738550.88174206 -10738550.88174206 -20868952.59727291 0 0 0 0 0 12711198.73979341 -3103369.275371733 -3103369.275371733 -12407101.90631285 0 0 0 0 0 12763988.50154893 -11576575.90448206 -11576575.90448206 -29693957.88364418 0 0 0 0 0 11811990.29630628 -14443146.14760755 -14443146.14760755 -33192682.06945054 0 0 0 0 0 16343141.4793195 -19900862.11461828 -19900862.11461828 -25805017.028419 0 0 0 0 0 15356905.03953825 -18149198.36848998 -18149198.36848998 -22827693.76686762 0 0 0 0 0 15402113.37470189 -15619316.50395934 -15619316.50395934 -18716089.78446139 0 0 0 0 0 18971766.40285446 -8217060.442662825 -8217060.442662825 -10673788.77486544 0 0 0 0 0 16373737.67292664 -12660985.29091689 -12660985.29091689 -14668543.29912579 0 0 0 0 0 914715.1718174324 7843920.502194281 7843920.502194281 -37660681.7837154 0 0 0 0 0 18158883.2915037 -20580669.72075779 -20580669.72075779 -27059053.26919727 0 0 0 0 0 17876135.21638193 -2412779.885633648 -2412779.885633648 -7947386.360151052 0 0 0 0 0 16866523.47788697 -8266479.325917954 -8266479.325917954 -24350211.66956262 0 0 0 0 0 21087507.15130027 -20323427.12831471 -20323427.12831471 -26019353.56328674 0 0 0 0 0 22405038.00358608 -22853327.99464172 -22853327.99464172 -19937004.76397628 0 0 0 0 0 24603253.19661602 -24655265.32665489 -24655265.32665489 -22024219.83683479 0 0 0 0 0 21195778.45695992 -20388295.84391061 -20388295.84391061 -16998132.27953734 0 0 0 0 0 21162538.22455141 -17250771.39250176 -17250771.39250176 -13501387.51371046 0 0 0 0 0 22605718.95170077 -5437686.251012917 -5437686.251012917 -6699998.05369952 0 0 0 0 0 22103340.44727733 -13697747.57982415 -13697747.57982415 -10075510.35326135 0 0 0 0 0 23059084.36196591 -2697892.862703691 -2697892.862703691 -4582122.717453816 0 0 0 0 0 6713851.616834859 -18788.64886796517 -18788.64886796517 -16504580.26460278 0 0 0 0 0 23802181.18782107 -20107310.60879633 -20107310.60879633 -22074514.32236243 0 0 0 0 0 27834848.40536699 -25541239.14648922 -25541239.14648922 -22286757.44582157 0 0 0 0 0 24696189.33344838 -9829304.371509857 -9829304.371509857 -6775164.721989987 0 0 0 0 0 25873704.82513458 -6718295.530583889 -6718295.530583889 -3431880.287119688 0 0 0 0 0 27314310.64044392 -16153846.35311892 -16153846.35311892 -11838584.31612919 0 0 0 0 0 29450376.13358996 -21030108.98054649 -21030108.98054649 -15574513.13446848 0 0 0 0 0 31527751.1925276 -26326170.22506826 -26326170.22506826 -21002673.69441827 0 0 0 0 0 28319143.49972557 -24450223.7960738 -24450223.7960738 -15775572.27445782 0 0 0 0 0 30674311.47068915 -26796777.61519665 -26796777.61519665 -18181347.62109743 0 0 0 0 0 34041218.75922812 -28498837.45515072 -28498837.45515072 -19639702.43948886 0 0 0 0 0 27012645.16641815 -21514130.88782698 -21514130.88782698 -12837504.93855334 0 0 0 0 0 26701901.32767123 -18133799.05121771 -18133799.05121771 -9763284.297625719 0 0 0 0 0 27109980.73602324 -14611551.723771 -14611551.723771 -6935452.875116535 0 0 0 0 0 27871735.57134466 -2359101.161736914 -2359101.161736914 -2140359.857601457 0 0 0 0 0 17679182.22542505 -10385691.49774039 -10385691.49774039 1564473.425657548 0 0 0 0 0 36997348.20984732 -26800448.67860844 -26800448.67860844 -17008210.50082106 0 0 0 0 0 38271381.38062529 -29702595.25708178 -29702595.25708178 -19881953.96658233 0 0 0 0 0 27061444.87615531 -11358174.48356876 -11358174.48356876 -4534866.031300733 0 0 0 0 0 30163445.80739309 -5917172.654354323 -5917172.654354323 -1719425.971267762 0 0 0 0 0 32493070.52744369 -2105737.823351297 -2105737.823351297 -534271.4361323457 0 0 0 0 0 42100850.71477839 -25760639.84409713 -25760639.84409713 960089.6490365734 0 0 0 0 0 42290788.73177267 -23225154.65027674 -23225154.65027674 -13365580.28596237 0 0 0 0 0 43505482.5362951 -30495655.34493256 -30495655.34493256 -18529018.8413547 0 0 0 0 0 33867546.13304219 -25099017.75764133 -25099017.75764133 -12659702.95354321 0 0 0 0 0 36218953.19279455 -27737587.08304961 -27737587.08304961 -15234837.76332399 0 0 0 0 0 39588542.89644115 -29820943.57639544 -29820943.57639544 -17282804.43888283 0 0 0 0 0 43907136.81485285 -31357973.29353052 -31357973.29353052 -18559187.41878564 0 0 0 0 0 32540433.63085933 -22011622.57684899 -22011622.57684899 -9874210.937212862 0 0 0 0 0 32166697.22481914 -18661931.10829434 -18661931.10829434 -7169297.700150655 0 0 0 0 0 33697597.28447505 -11475198.36525801 -11475198.36525801 -2386304.379721527 0 0 0 0 0 32589848.27259822 -15231896.58879214 -15231896.58879214 -4693654.126979201 0 0 0 0 0 35306000.77820531 -5552899.476265217 -5552899.476265217 278025.0535099115 0 0 0 0 0 29572872.46564572 -22452351.05333677 -22452351.05333677 16767669.7961538 0 0 0 0 0 50028638.38347656 -31131574.76542843 -31131574.76542843 -15406711.00549586 0 0 0 0 0 49172075.31391013 -32358091.17727364 -32358091.17727364 -18839571.15142331 0 0 0 0 0 34795363.4943691 -8764089.605269738 -8764089.605269738 -496434.0412411052 0 0 0 0 0 36767671.90256871 -1964973.651813802 -1964973.651813802 933897.7602930428 0 0 0 0 0 55385754.98942643 -32520816.40726287 -32520816.40726287 6609004.494016835 0 0 0 0 0 49722113.06961894 -29586722.28103793 -29586722.28103793 -2628893.354537153 0 0 0 0 0 58935899.34618609 -28310147.75549547 -28310147.75549547 -11497037.00919452 0 0 0 0 0 55464893.17370314 -32871359.10269554 -32871359.10269554 -17760475.59171747 0 0 0 0 0 41271955.65479496 -27878946.26672477 -27878946.26672477 -12906269.03126003 0 0 0 0 0 38978110.69658923 -25157822.90327354 -25157822.90327354 -10325443.21424613 0 0 0 0 0 44535297.55983287 -30134806.46068797 -30134806.46068797 -15236705.87193476 0 0 0 0 0 48744257.66046765 -31855048.31718555 -31855048.31718555 -17094550.17593668 0 0 0 0 0 53872291.88010172 -33002633.34616572 -33002633.34616572 -18287058.97956734 0 0 0 0 0 37594142.71212637 -22104682.64593874 -22104682.64593874 -7722746.121914521 0 0 0 0 0 37024356.15615579 -18854804.17086859 -18854804.17086859 -5249006.437018558 0 0 0 0 0 37254588.86284788 -15437607.57998641 -15437607.57998641 -2947360.670648936 0 0 0 0 0 38162405.649648 -12144925.93247831 -12144925.93247831 -1057022.027790087 0 0 0 0 0 38947903.01954064 -5259122.614889033 -5259122.614889033 1180629.95697507 0 0 0 0 0 39073896.80932366 -9032988.985972431 -9032988.985972431 409685.7094359919 0 0 0 0 0 40695346.89029858 -1730378.013483739 -1730378.013483739 2012394.811154612 0 0 0 0 0 45525204.81746996 -35268335.62432433 -35268335.62432433 29737960.05669769 0 0 0 0 0 62813786.13771063 -33014963.41661667 -33014963.41661667 -15347398.31209508 0 0 0 0 0 59868965.36304798 -33563322.56954919 -33563322.56954919 -18608982.17563108 0 0 0 0 0 42324912.33342465 -4613602.924177331 -4613602.924177331 1831779.686328968 0 0 0 0 0 44391063.01722702 -1555790.340473488 -1555790.340473488 2674131.096876345 0 0 0 0 0 74604919.60985337 -38723752.01318448 -38723752.01318448 17998137.30643036 0 0 0 0 0 64486908.32018889 -32860380.310324 -32860380.310324 -5593061.409612733 0 0 0 0 0 75695643.61385879 -30762474.80973755 -30762474.80973755 -12004063.97003948 0 0 0 0 0 66809061.53613169 -33595812.95577631 -33595812.95577631 -17896387.99798917 0 0 0 0 0 48953324.64841972 -29812288.62045304 -29812288.62045304 -13473171.7466896 0 0 0 0 0 45850046.49409625 -27520980.16397651 -27520980.16397651 -11051151.68091445 0 0 0 0 0 43631698.95287625 -24842079.26593558 -24842079.26593558 -8546054.788079759 0 0 0 0 0 52952013.17804818 -31614068.05085529 -31614068.05085529 -15631898.62644058 0 0 0 0 0 57815159.77390307 -32856970.47433008 -32856970.47433008 -17344574.84760186 0 0 0 0 0 63509709.361371 -33494355.24478038 -33494355.24478038 -18475122.460547 0 0 0 0 0 42256476.06379081 -21885807.25439816 -21885807.25439816 -6102569.497210863 0 0 0 0 0 41678567.09654363 -18738917.00534096 -18738917.00534096 -3810691.327820419 0 0 0 0 0 41803964.94638516 -15562392.1182475 -15562392.1182475 -1799324.200764552 0 0 0 0 0 42682617.63254183 -12349962.6347233 -12349962.6347233 -8348.704840822167 0 0 0 0 0 44101866.07348106 -9112153.792783808 -9112153.792783808 1472998.538878506 0 0 0 0 0 47005999.24353837 -4431548.612547054 -4431548.612547054 2998155.827834692 0 0 0 0 0 66430933.62507131 -47822696.89778989 -47822696.89778989 40832127.86104529 0 0 0 0 0 73134971.57919063 -34276199.19135205 -34276199.19135205 331532.6252992781 0 0 0 0 0 74518674.95061284 -33239930.74464043 -33239930.74464043 -16232921.97410039 0 0 0 0 0 70015887.18844168 -33537233.37555356 -33537233.37555356 -18837415.82797293 0 0 0 0 0 45649947.22425312 -6876274.805379407 -6876274.805379407 2639872.484400971 0 0 0 0 0 47684526.82897515 -1557125.852868453 -1557125.852868453 3160665.493257294 0 0 0 0 0 93938515.28514849 -45803981.68455456 -45803981.68455456 25674592.13085489 0 0 0 0 0 96644678.91388102 -37596505.40174415 -37596505.40174415 9463104.319025351 0 0 0 0 0 78984867.33969803 -33540496.26304868 -33540496.26304868 -8666938.451107386 0 0 0 0 0 90183958.81944109 -30728670.00067407 -30728670.00067407 -12923773.79790063 0 0 0 0 0 77237578.19409217 -33023413.93314685 -33023413.93314685 -18353570.34965321 0 0 0 0 0 56641771.50656222 -30912517.39473006 -30912517.39473006 -14236883.65349522 0 0 0 0 0 52901854.94194081 -29100378.21393013 -29100378.21393013 -11959471.31093544 0 0 0 0 0 49980187.59776757 -26853822.85336954 -26853822.85336954 -9553963.640799532 0 0 0 0 0 47862508.02318119 -24271028.26341322 -24271028.26341322 -7154793.032658164 0 0 0 0 0 61187947.20069242 -32204534.22667341 -32204534.22667341 -16237820.36599597 0 0 0 0 0 66493314.24813866 -32924061.10436836 -32924061.10436836 -17822266.60026931 0 0 0 0 0 72504588.5140014 -33028680.39968106 -33028680.39968106 -18845831.43687987 0 0 0 0 0 46512003.88237111 -21447906.33433776 -21447906.33433776 -4867138.187355044 0 0 0 0 0 45867835.20737855 -18493659.90447476 -18493659.90447476 -2780751.269885279 0 0 0 0 0 45868749.55049668 -15482457.83156041 -15482457.83156041 -924823.1146089472 0 0 0 0 0 46373739.31422793 -12548211.67408353 -12548211.67408353 608798.0997596866 0 0 0 0 0 47597530.0136122 -9730532.0691381 -9730532.0691381 1884974.781175922 0 0 0 0 0 50846063.90035163 -4710323.742272574 -4710323.742272574 3656188.955049667 0 0 0 0 0 49149654.13080478 -7162547.735496188 -7162547.735496188 2896258.949799548 0 0 0 0 0 91352232.62615666 -59752923.34588461 -59752923.34588461 47756045.06924638 0 0 0 0 0 88780227.54497473 -33196397.12639754 -33196397.12639754 -4331637.748699452 0 0 0 0 0 84947518.90778087 -32054775.7561273 -32054775.7561273 -17083126.50646049 0 0 0 0 0 79173239.79080941 -32514771.29013557 -32514771.29013557 -19165534.12379164 0 0 0 0 0 50781358.73781912 -1352772.563965003 -1352772.563965003 3341974.025029978 0 0 0 0 0 114967532.667345 -51580220.69190933 -51580220.69190933 31358482.55385325 0 0 0 0 0 112934647.9931998 -40483234.85038614 -40483234.85038614 15327883.36252507 0 0 0 0 0 111703857.653894 -33885352.49774805 -33885352.49774805 3472025.28813029 0 0 0 0 0 91399914.22279727 -31660882.54643802 -31660882.54643802 -10976399.64843797 0 0 0 0 0 101244698.8978828 -28977592.4582576 -28977592.4582576 -13838580.4560341 0 0 0 0 0 86327648.17882352 -31415776.45988468 -31415776.45988468 -18782299.05190223 0 0 0 0 0 59910058.78269767 -29932857.79619564 -29932857.79619564 -12946827.99503174 0 0 0 0 0 64117198.1766054 -31239629.03313088 -31239629.03313088 -15072463.84479608 0 0 0 0 0 56435449.03409014 -28156778.87915481 -28156778.87915481 -10657958.93748183 0 0 0 0 0 53705478.34216259 -25994907.19389133 -25994907.19389133 -8325661.705041667 0 0 0 0 0 51701535.48011523 -23537916.08531695 -23537916.08531695 -6055142.665897928 0 0 0 0 0 69015629.49082796 -32009048.03178907 -32009048.03178907 -16908127.60743555 0 0 0 0 0 74546041.19288424 -32189690.0222768 -32189690.0222768 -18315824.05595846 0 0 0 0 0 80630457.50595286 -31753471.60487988 -31753471.60487988 -19170320.62472827 0 0 0 0 0 50389818.58308363 -20880297.7552848 -20880297.7552848 -3930882.173683653 0 0 0 0 0 49721380.2881491 -18106052.43157825 -18106052.43157825 -2006858.92917955 0 0 0 0 0 49625796.09955846 -15313287.35275639 -15313287.35275639 -339301.229073768 0 0 0 0 0 50012760.50335451 -12583602.93731809 -12583602.93731809 1055938.213219708 0 0 0 0 0 50827449.46705509 -9926119.526001422 -9926119.526001422 2242324.595427186 0 0 0 0 0 52263372.27014921 -3368478.918370932 -3368478.918370932 3509730.602095262 0 0 0 0 0 51770934.95000482 -7603589.813989421 -7603589.813989421 3014722.308906176 0 0 0 0 0 120535199.9000676 -68979013.48717047 -68979013.48717047 51217709.12941419 0 0 0 0 0 100608216.4961291 -30260768.44582358 -30260768.44582358 -7573522.980283905 0 0 0 0 0 93722242.94124717 -29769290.1229268 -29769290.1229268 -17684467.38386804 0 0 0 0 0 87181439.99871281 -30713861.46225173 -30713861.46225173 -19402713.88326285 0 0 0 0 0 53692138.54301418 -1101031.512483018 -1101031.512483018 3834410.317354768 0 0 0 0 0 52514779.34812526 -5653444.123644596 -5653444.123644596 3476305.216729896 0 0 0 0 0 138573573.8220328 -55786564.58232011 -55786564.58232011 35016515.54758056 0 0 0 0 0 130450871.5112364 -42187388.00626324 -42187388.00626324 19890201.25170868 0 0 0 0 0 125397709.0919261 -33897340.21800265 -33897340.21800265 8142420.864505055 0 0 0 0 0 122012687.3506875 -28986715.58639345 -28986715.58639345 -667159.7289064544 0 0 0 0 0 101245198.735375 -28705105.62383434 -28705105.62383434 -12613926.03921347 0 0 0 0 0 109668747.0528641 -26260004.7432162 -26260004.7432162 -14498181.66629889 0 0 0 0 0 94013816.26840295 -29096138.14153184 -29096138.14153184 -19005888.66713152 0 0 0 0 0 62814845.71668368 -28795945.35261375 -28795945.35261375 -11772066.81124588 0 0 0 0 0 66688848.30809666 -30088404.3649227 -30088404.3649227 -13922971.41024138 0 0 0 0 0 71194165.76138806 -30888838.8402957 -30888838.8402957 -15873944.26792025 0 0 0 0 0 59605531.05660156 -27081604.88192539 -27081604.88192539 -9534202.214683961 0 0 0 0 0 57066297.95369118 -25025279.91319377 -25025279.91319377 -7308849.352417625 0 0 0 0 0 55183289.11299561 -22712168.96983998 -22712168.96983998 -5178659.693569242 0 0 0 0 0 76276991.19935147 -31140992.20991936 -31140992.20991936 -17516469.8910322 0 0 0 0 0 81847546.02049455 -30810467.22374266 -30810467.22374266 -18721180.36167096 0 0 0 0 0 87802234.67987578 -29893839.92485027 -29893839.92485027 -19397108.94105667 0 0 0 0 0 53923494.99960551 -20225051.1249904 -20225051.1249904 -3207798.657490194 0 0 0 0 0 53240007.05259 -17647632.91572607 -17647632.91572607 -1444984.992772777 0 0 0 0 0 53057755.05699291 -15058760.80124466 -15058760.80124466 79737.61736623565 0 0 0 0 0 53343081.09347224 -12498705.76686434 -12498705.76686434 1373705.659935324 0 0 0 0 0 53972932.12788025 -10057306.19061556 -10057306.19061556 2381733.837890963 0 0 0 0 0 55715575.72022605 -3309542.505687801 -3309542.505687801 3672902.664627425 0 0 0 0 0 55503209.02718767 -5823653.284567408 -5823653.284567408 3585992.703448846 0 0 0 0 0 54814720.88373666 -7853189.466195595 -7853189.466195595 3122782.323506232 0 0 0 0 0 54780330.73388629 -967906.6478768727 -967906.6478768727 3863403.531693206 0 0 0 0 0 58811200.08913312 -1018778.618153631 -1018778.618153631 4003553.735033147 0 0 0 0 0 58046563.95869303 -3324688.434282641 -3324688.434282641 4156067.12897661 0 0 0 0 0 148112952.8795932 -74582767.00036556 -74582767.00036556 49400005.73024356 0 0 0 0 0 109632561.5676711 -26408709.67965424 -26408709.67965424 -9612047.489864901 0 0 0 0 0 100993795.1541684 -26949138.31666461 -26949138.31666461 -17927030.01201744 0 0 0 0 0 94037383.7490242 -28409169.51976444 -28409169.51976444 -19506354.30785576 0 0 0 0 0 60258392.26001081 -2827894.961367126 -2827894.961367126 4166236.887371799 0 0 0 0 0 61089065.41815741 -985832.5294305487 -985832.5294305487 4177759.306051489 0 0 0 0 0 152110186.090202 -52259874.83226971 -52259874.83226971 32955437.91648043 0 0 0 0 0 146037469.9124452 -41897746.83653222 -41897746.83653222 23495831.02482422 0 0 0 0 0 137791130.5156115 -32640256.85034922 -32640256.85034922 12035088.16955867 0 0 0 0 0 132399512.8666541 -27232361.23033845 -27232361.23033845 3411726.339106926 0 0 0 0 0 128511433.1821046 -23735916.97172083 -23735916.97172083 -3361108.286793412 0 0 0 0 0 108880538.6066497 -25141863.50262713 -25141863.50262713 -13524806.87397545 0 0 0 0 0 115874796.7652618 -23067586.39448467 -23067586.39448467 -14814132.16703507 0 0 0 0 0 100447921.7529557 -26351955.20802355 -26351955.20802355 -18991042.13379816 0 0 0 0 0 68967713.29663959 -28840015.73800043 -28840015.73800043 -12825035.66298998 0 0 0 0 0 65414008.11904819 -27579051.75404944 -27579051.75404944 -10710948.22992007 0 0 0 0 0 73095000.66733232 -29656389.7779479 -29656389.7779479 -14811428.17417666 0 0 0 0 0 77748415.74829128 -29973479.98247116 -29973479.98247116 -16561468.50766084 0 0 0 0 0 62458838.36724825 -25941329.15075587 -25941329.15075587 -8561829.569477148 0 0 0 0 0 60107132.59993577 -24001758.75710553 -24001758.75710553 -6459774.67353195 0 0 0 0 0 58345015.84535505 -21837921.86273031 -21837921.86273031 -4471613.200348679 0 0 0 0 0 82853099.37295853 -29746281.02259358 -29746281.02259358 -17989746.34406041 0 0 0 0 0 88315350.73906155 -28965086.2918654 -28965086.2918654 -18967113.86777849 0 0 0 0 0 93987457.26108308 -27642976.5672975 -27642976.5672975 -19455511.59441707 0 0 0 0 0 57142899.52323124 -19525836.43431009 -19525836.43431009 -2649159.249013925 0 0 0 0 0 56450111.89826496 -17139773.72809453 -17139773.72809453 -1027752.254656962 0 0 0 0 0 56224644.5423605 -14734636.70086022 -14734636.70086022 378602.3105790507 0 0 0 0 0 56404364.48717039 -12378881.19554905 -12378881.19554905 1549340.008541026 0 0 0 0 0 56934821.87346326 -10114570.12453603 -10114570.12453603 2496855.39425297 0 0 0 0 0 58748386.72968933 -5905412.416997263 -5905412.416997263 3842225.153676186 0 0 0 0 0 57759904.11299381 -7953452.338269188 -7953452.338269188 3277215.879866587 0 0 0 0 0 59680657.57352068 -4424824.06002672 -4424824.06002672 4197582.596275974 0 0 0 0 0 62827522.71364686 -2915123.418282577 -2915123.418282577 4229785.750037737 0 0 0 0 0 62098405.62995332 -991814.6776094332 -991814.6776094332 4130398.705644202 0 0 0 0 0 65002418.77035191 -777998.4197189945 -777998.4197189945 4026414.080637432 0 0 0 0 0 68542775.71992768 -638057.7343100959 -638057.7343100959 3990027.748401556 0 0 0 0 0 68646630.11946617 -2468326.002385245 -2468326.002385245 4372532.297125407 0 0 0 0 0 63688490.4069462 -2112597.674231205 -2112597.674231205 3628575.182800286 0 0 0 0 0 65025054.34627232 -955538.7945584259 -955538.7945584259 4440174.871408093 0 0 0 0 0 65413780.26106686 -3158860.954539873 -3158860.954539873 4378228.301716324 0 0 0 0 0 181660343.4394146 -79148529.16257815 -79148529.16257815 46281698.44658416 0 0 0 0 0 116286167.1244995 -22191023.21927966 -22191023.21927966 -10597000.6820058 0 0 0 0 0 106831777.5404107 -23835662.05060716 -23835662.05060716 -17817703.43176075 0 0 0 0 0 99816195.50747149 -25781321.55101167 -25781321.55101167 -19382382.00242642 0 0 0 0 0 61826768.50080559 -4596786.417676385 -4596786.417676385 4020349.573904371 0 0 0 0 0 69936178.00939204 -1688539.193224599 -1688539.193224599 4351210.898119571 0 0 0 0 0 64685047.17438044 -3593950.349427576 -3593950.349427576 3507477.544007699 0 0 0 0 0 69119847.51996979 -596762.6896719489 -596762.6896719489 3883770.672446311 0 0 0 0 0 71508018.80455667 -539243.9929265219 -539243.9929265219 3925248.524323108 0 0 0 0 0 71512401.86632673 -2198502.502654575 -2198502.502654575 4279396.858983566 0 0 0 0 0 185817563.8973405 -56961341.14644678 -56961341.14644678 35017822.64811653 0 0 0 0 0 157563415.7060349 -37744941.75424633 -37744941.75424633 22619308.35452126 0 0 0 0 0 148888000.8656131 -30545188.11585049 -30545188.11585049 15332240.03723368 0 0 0 0 0 141704704.320381 -24786896.02648591 -24786896.02648591 7279389.386493384 0 0 0 0 0 136345664.5741641 -21109328.36487913 -21109328.36487913 468437.2147183625 0 0 0 0 0 132232398.526423 -18813981.0553497 -18813981.0553497 -4959516.595443963 0 0 0 0 0 114610959.924659 -21397848.23640855 -21397848.23640855 -13808479.74048655 0 0 0 0 0 120254078.5845031 -19707845.35688102 -19707845.35688102 -14731124.41026649 0 0 0 0 0 105700620.0959979 -23412968.53756723 -23412968.53756723 -18690520.25042461 0 0 0 0 0 71003609.26568386 -27552412.75016258 -27552412.75016258 -11797867.56755444 0 0 0 0 0 74776352.12877284 -28371470.13620443 -28371470.13620443 -13760769.95452021 0 0 0 0 0 67750076.7750507 -26334437.23432163 -26334437.23432163 -9757759.696490865 0 0 0 0 0 79029032.64265057 -28736132.53408993 -28736132.53408993 -15559636.44690351 0 0 0 0 0 83696620.85913682 -28607366.86596241 -28607366.86596241 -17098269.41040989 0 0 0 0 0 65036133.96905485 -24781525.86039227 -24781525.86039227 -7717625.027663612 0 0 0 0 0 62863421.30183058 -22962873.85439093 -22962873.85439093 -5745881.95241203 0 0 0 0 0 61216822.50008646 -20948733.28117467 -20948733.28117467 -3897076.455481394 0 0 0 0 0 88715405.73892619 -27943993.43107156 -27943993.43107156 -18295212.103048 0 0 0 0 0 93986142.07894301 -26773922.35215336 -26773922.35215336 -19052871.78654221 0 0 0 0 0 99318595.37548125 -25128056.24372088 -25128056.24372088 -19315777.03333955 0 0 0 0 0 60067555.4715654 -18807346.4381985 -18807346.4381985 -2212505.898821756 0 0 0 0 0 59379518.63480381 -16598038.88008316 -16598038.88008316 -715651.1120307136 0 0 0 0 0 59106755.07106026 -14379480.67180851 -14379480.67180851 577188.0553366386 0 0 0 0 0 59192124.49379717 -12199362.75025571 -12199362.75025571 1663874.786551195 0 0 0 0 0 59591434.22323781 -10081813.59404482 -10081813.59404482 2563664.594629214 0 0 0 0 0 60217149.59140044 -8070738.63674269 -8070738.63674269 3258943.520070071 0 0 0 0 0 61120781.97692339 -6236879.432961463 -6236879.432961463 3755729.194928225 0 0 0 0 0 64312554.24240361 -4735172.46450555 -4735172.46450555 4053594.722148081 0 0 0 0 0 70714330.68623702 -3142236.291400475 -3142236.291400475 4265999.381599256 0 0 0 0 0 69237290.47970201 -3979116.008216701 -3979116.008216701 4055795.893734141 0 0 0 0 0 72624436.25216654 -1531995.484471506 -1531995.484471506 4208861.295039354 0 0 0 0 0 71826813.94264221 -555210.1727339877 -555210.1727339877 3744956.171519966 0 0 0 0 0 74124901.59144978 -481266.9300063058 -481266.9300063058 3834646.991157469 0 0 0 0 0 73910403.25598297 -1918674.314312143 -1918674.314312143 4077714.507785323 0 0 0 0 0 211882850.6211151 -75709182.42757924 -75709182.42757924 42210496.9938108 0 0 0 0 0 170197412.7011178 -45621056.37850674 -45621056.37850674 29825786.92357102 0 0 0 0 0 120912886.2170839 -18123003.2162744 -18123003.2162744 -10884473.72526019 0 0 0 0 0 111407751.0257192 -20657425.21068728 -20657425.21068728 -17362521.82971083 0 0 0 0 0 104623940.8185766 -23009013.43708416 -23009013.43708416 -19015139.05404695 0 0 0 0 0 63433342.99243115 -6394679.21426291 -6394679.21426291 3716660.682584077 0 0 0 0 0 66175051.69171171 -4985809.237386831 -4985809.237386831 3934298.149963174 0 0 0 0 0 66072919.77304327 -5147800.532182483 -5147800.532182483 3236231.945375601 0 0 0 0 0 73026508.15919565 -2708924.194179786 -2708924.194179786 4097398.913133489 0 0 0 0 0 74818359.01212375 -1380553.286344294 -1380553.286344294 4053554.171265954 0 0 0 0 0 73952393.07719201 -627692.3690659266 -627692.3690659266 3464306.81177466 0 0 0 0 0 205343355.0297602 -52069773.63913208 -52069773.63913208 33296861.88749965 0 0 0 0 0 184181946.4310121 -40577220.01809834 -40577220.01809834 29576031.71093709 0 0 0 0 0 168823739.963978 -33517263.85982013 -33517263.85982013 24803034.08480085 0 0 0 0 0 157902113.4968107 -26706673.45155939 -26706673.45155939 17354239.13550916 0 0 0 0 0 149521576.1983805 -21732476.75429996 -21732476.75429996 10745320.15500954 0 0 0 0 0 143097998.7055767 -18098319.50248632 -18098319.50248632 4316349.6083863 0 0 0 0 0 138090452.8152404 -15759022.12802497 -15759022.12802497 -1231938.256382494 0 0 0 0 0 134044105.1808803 -14391360.31724969 -14391360.31724969 -5732442.71285112 0 0 0 0 0 118743367.5247817 -17775223.90119838 -17775223.90119838 -13599705.64881369 0 0 0 0 0 123173711.9497362 -16422841.58721599 -16422841.58721599 -14361290.93363916 0 0 0 0 0 109846368.7054662 -20434413.97745943 -20434413.97745943 -18114246.9587799 0 0 0 0 0 72834234.41350442 -26264827.33732838 -26264827.33732838 -10848736.09445941 0 0 0 0 0 76278399.04219803 -27077796.22031347 -27077796.22031347 -12751289.73148147 0 0 0 0 0 80158320.371742 -27482972.01648402 -27482972.01648402 -14536112.14507949 0 0 0 0 0 69857949.08494376 -25096586.17828669 -25096586.17828669 -8903279.655793959 0 0 0 0 0 84421098.89666994 -27440421.81075947 -27440421.81075947 -16131678.93894037 0 0 0 0 0 88997770.48775949 -26922788.25375988 -26922788.25375988 -17434540.10836923 0 0 0 0 0 67367119.98791155 -23632410.26589733 -23632410.26589733 -6982033.599716261 0 0 0 0 0 65360089.20733552 -21934421.29302194 -21934421.29302194 -5141178.042563912 0 0 0 0 0 63821919.89120455 -20064835.07771669 -20064835.07771669 -3426046.644938083 0 0 0 0 0 93816006.8464566 -25904051.36990621 -25904051.36990621 -18374178.63699519 0 0 0 0 0 98789576.50955842 -24413144.19863946 -24413144.19863946 -18866020.81987575 0 0 0 0 0 103719952.5817437 -22487632.6868491 -22487632.6868491 -18874422.93445295 0 0 0 0 0 62728074.05170587 -18082138.32523899 -18082138.32523899 -1867464.565766951 0 0 0 0 0 62049810.90935813 -16042257.73997636 -16042257.73997636 -483873.8104243884 0 0 0 0 0 61740383.52775933 -13992701.36102614 -13992701.36102614 712367.6615855079 0 0 0 0 0 61768631.25515621 -11970044.50377264 -11970044.50377264 1726242.140977451 0 0 0 0 0 62086448.42608612 -10010180.35869089 -10010180.35869089 2552470.991560457 0 0 0 0 0 62642084.17976025 -8151977.413735157 -8151977.413735157 3194482.647827017 0 0 0 0 0 65454271.50689957 -6509893.491602969 -6509893.491602969 3620581.067915866 0 0 0 0 0 71031623.96680304 -4413440.712198735 -4413440.712198735 3916420.162820965 0 0 0 0 0 72054199.15294656 -3744970.508809005 -3744970.508809005 3993770.120651233 0 0 0 0 0 69914917.83627287 -5414635.475813179 -5414635.475813179 3739954.587712891 0 0 0 0 0 75169298.62227054 -2441962.658321573 -2441962.658321573 3958710.110460631 0 0 0 0 0 74114137.18577832 -1793534.126782343 -1793534.126782343 3385143.752054401 0 0 0 0 0 234459018.7503063 -68515978.61847506 -68515978.61847506 34178600.73807468 0 0 0 0 0 123970298.7140931 -14350596.43983199 -14350596.43983199 -10638963.16269706 0 0 0 0 0 114824777.0886772 -17572889.35983595 -17572889.35983595 -16651387.28031739 0 0 0 0 0 108501652.3825752 -20182421.77982304 -20182421.77982304 -18370636.9413321 0 0 0 0 0 64813727.01236101 -8164997.035477782 -8164997.035477782 3136493.876812684 0 0 0 0 0 67411832.81849284 -6596902.259145221 -6596902.259145221 3494639.153133314 0 0 0 0 0 67494222.87337187 -6683187.47859589 -6683187.47859589 2950831.488175255 0 0 0 0 0 73432179.99486561 -4093740.175818479 -4093740.175818479 3784585.282150495 0 0 0 0 0 74245454.28556445 -3219445.717941324 -3219445.717941324 3903039.275515102 0 0 0 0 0 204956859.1130214 -40086258.55920757 -40086258.55920757 29785298.91911464 0 0 0 0 0 191626359.0201329 -34461911.55369813 -34461911.55369813 30314394.25583849 0 0 0 0 0 176007870.3308733 -27813078.36320967 -27813078.36320967 26270521.52999472 0 0 0 0 0 164235439.0198883 -22158779.05349942 -22158779.05349942 20159248.22217565 0 0 0 0 0 155293470.3824429 -17849205.59848589 -17849205.59848589 13876621.59778002 0 0 0 0 0 148326244.8379683 -14721589.71781808 -14721589.71781808 8046287.238881338 0 0 0 0 0 142788677.2058404 -12545948.2784695 -12545948.2784695 2625399.46464199 0 0 0 0 0 138306493.8702836 -11221931.9776099 -11221931.9776099 -2055396.166638738 0 0 0 0 0 134556830.3838183 -10545523.68258117 -10545523.68258117 -5903741.844689563 0 0 0 0 0 121613969.615403 -14330024.90210398 -14330024.90210398 -12940881.07487975 0 0 0 0 0 124959175.9809825 -13374266.02861395 -13374266.02861395 -13741579.87365061 0 0 0 0 0 113065577.8158948 -17549155.88651594 -17549155.88651594 -17328277.40819216 0 0 0 0 0 74489114.49167822 -25002368.95107779 -25002368.95107779 -9978291.169792084 0 0 0 0 0 77632255.61217712 -25801387.10737522 -25801387.10737522 -11801686.64512486 0 0 0 0 0 81168177.85656101 -26236029.056976 -26236029.056976 -13542028.06838036 0 0 0 0 0 85055548.63919117 -26266925.69618259 -26266925.69618259 -15135232.85460416 0 0 0 0 0 71767172.50740723 -23888288.24222367 -23888288.24222367 -8138366.823549389 0 0 0 0 0 89256450.20716186 -25863560.75660858 -25863560.75660858 -16514664.36546766 0 0 0 0 0 93666486.78127296 -25009019.60766361 -25009019.60766361 -17566688.42337622 0 0 0 0 0 69482763.46513779 -22512592.61688637 -22512592.61688637 -6338130.706610856 0 0 0 0 0 67626189.28590742 -20930720.27505469 -20930720.27505469 -4625372.066431453 0 0 0 0 0 66184644.17437539 -19196956.1461931 -19196956.1461931 -3034962.348994781 0 0 0 0 0 98199338.33065327 -23713766.89828436 -23713766.89828436 -18245972.57900009 0 0 0 0 0 102748213.5546502 -21998377.24530473 -21998377.24530473 -18494840.01648801 0 0 0 0 0 107195944.964267 -19910671.83120191 -19910671.83120191 -18285350.25687332 0 0 0 0 0 65145881.67226174 -17362998.18360687 -17362998.18360687 -1591580.829963514 0 0 0 0 0 64480718.49717575 -15480595.22511601 -15480595.22511601 -309513.0920381317 0 0 0 0 0 64156759.13362451 -13584647.91554584 -13584647.91554584 801284.7755153861 0 0 0 0 0 64132736.38529475 -11716995.86259697 -11716995.86259697 1740209.989537066 0 0 0 0 0 64357010.83150448 -9907646.018749295 -9907646.018749295 2508257.908513619 0 0 0 0 0 66840304.86474999 -8133582.208027219 -8133582.208027219 3046315.126847344 0 0 0 0 0 71391924.56686562 -5438224.503941773 -5438224.503941773 3182877.284825133 0 0 0 0 0 69833870.21604374 -5499190.875782322 -5499190.875782322 3254086.448675173 0 0 0 0 0 70704491.75702308 -6653926.197584634 -6653926.197584634 3214997.093388303 0 0 0 0 0 75467140.21090108 -3654956.023579643 -3654956.023579643 3728391.685331608 0 0 0 0 0 74330960.02080585 -2954728.870376881 -2954728.870376881 3197322.922432374 0 0 0 0 0 263370254.5520735 -59942653.89798664 -59942653.89798664 28630035.61889914 0 0 0 0 0 125850796.8785888 -10983539.59438265 -10983539.59438265 -10019666.73222377 0 0 0 0 0 117333627.416189 -14667487.94913525 -14667487.94913525 -15740597.08139048 0 0 0 0 0 111448173.2788207 -17497626.34366985 -17497626.34366985 -17586223.92638467 0 0 0 0 0 66455057.09167893 -9757004.501688717 -9757004.501688717 2454392.921901395 0 0 0 0 0 68705838.50181718 -8074956.120756278 -8074956.120756278 2938694.743798256 0 0 0 0 0 69053564.05658306 -8049387.770224661 -8049387.770224661 2516601.796195671 0 0 0 0 0 74131243.71940461 -5405379.542173793 -5405379.542173793 3249189.72595837 0 0 0 0 0 74745599.45860498 -4440231.511699303 -4440231.511699303 3599602.160827875 0 0 0 0 0 240491527.4721239 -34270196.82865139 -34270196.82865139 26281844.49271187 0 0 0 0 0 190365376.682834 -24919529.34444516 -24919529.34444516 28359596.84154379 0 0 0 0 0 178848051.919714 -21572158.88525416 -21572158.88525416 27568406.53109621 0 0 0 0 0 167705117.2338994 -17376982.41540939 -17376982.41540939 22893101.7468251 0 0 0 0 0 158827381.9000314 -13786067.08536459 -13786067.08536459 17264769.27084915 0 0 0 0 0 151806711.3383186 -11135630.98772829 -11135630.98772829 11723268.77703187 0 0 0 0 0 146125462.2839715 -9266194.163226508 -9266194.163226508 6522693.363381993 0 0 0 0 0 141461927.6197577 -8073202.346822336 -8073202.346822336 1794723.152958945 0 0 0 0 0 137555620.1641763 -7459486.381489031 -7459486.381489031 -2287652.007939302 0 0 0 0 0 134200174.8296955 -7284194.881190872 -7284194.881190872 -5675713.565792129 0 0 0 0 0 123407837.741061 -11261852.01169324 -11261852.01169324 -12109869.05664529 0 0 0 0 0 125884495.0163232 -10614913.14276923 -10614913.14276923 -12952567.70129753 0 0 0 0 0 115429578.1089264 -14847616.13145645 -14847616.13145645 -16389423.51807457 0 0 0 0 0 78863167.85929118 -24560008.08838058 -24560008.08838058 -10915501.37732638 0 0 0 0 0 75992654.99446791 -23781107.27612279 -23781107.27612279 -9183467.680210635 0 0 0 0 0 82089541.15066937 -25014951.19355052 -25014951.19355052 -12592583.96692183 0 0 0 0 0 85631133.57833087 -25110691.79221413 -25110691.79221413 -14155727.43168636 0 0 0 0 0 89441778.70624113 -24815325.97388876 -24815325.97388876 -15543741.0306972 0 0 0 0 0 73502688.78106722 -22722353.43417594 -22722353.43417594 -7453069.836839705 0 0 0 0 0 93489648.45390844 -24093540.04428659 -24093540.04428659 -16681678.51219335 0 0 0 0 0 97691681.97033967 -22973550.86103372 -22973550.86103372 -17487277.04595095 0 0 0 0 0 71400304.97981085 -21432856.06177159 -21432856.06177159 -5773225.012285803 0 0 0 0 0 69678985.52748299 -19960840.34660878 -19960840.34660878 -4181416.532963706 0 0 0 0 0 68331093.71060157 -18352483.07761713 -18352483.07761713 -2703787.310135985 0 0 0 0 0 101846423.7923778 -21467713.84822276 -21467713.84822276 -17923197.80887427 0 0 0 0 0 105971019.3753108 -19610869.5394903 -19610869.5394903 -17952687.7057053 0 0 0 0 0 109937573.0676335 -17424120.29584906 -17424120.29584906 -17548265.69912364 0 0 0 0 0 67349086.77521487 -16657215.86784341 -16657215.86784341 -1365721.547158723 0 0 0 0 0 66706748.75494062 -14916251.97407808 -14916251.97407808 -178599.0159096906 0 0 0 0 0 66368942.83505174 -13167736.56493727 -13167736.56493727 852873.7436548374 0 0 0 0 0 66291033.40474439 -11442583.9506616 -11442583.9506616 1724502.770569871 0 0 0 0 0 68393620.52473833 -9577895.96056138 -9577895.96056138 2382254.564816413 0 0 0 0 0 70999623.50552881 -6657428.231625727 -6657428.231625727 2733637.277373367 0 0 0 0 0 72009399.19510137 -7845994.123412593 -7845994.123412593 2685278.018279599 0 0 0 0 0 72593897.642617 -6620214.172436157 -6620214.172436157 2743525.205189089 0 0 0 0 0 76007173.05971351 -4770154.782453087 -4770154.782453087 3440087.326567235 0 0 0 0 0 74791818.11074391 -4081148.897410993 -4081148.897410993 2962455.8889027 0 0 0 0 0 282692101.0384093 -44714688.4620508 -44714688.4620508 22882742.91286272 0 0 0 0 0 215738290.544346 -26874930.89049013 -26874930.89049013 30689358.35743175 0 0 0 0 0 126802640.0561896 -8061836.655444928 -8061836.655444928 -9198210.400098477 0 0 0 0 0 119049380.9596024 -12005546.28052447 -12005546.28052447 -14685637.07106467 0 0 0 0 0 113684968.6386254 -14984293.29493567 -14984293.29493567 -16684815.56568199 0 0 0 0 0 68276648.68468551 -11144213.05447376 -11144213.05447376 1696863.529176082 0 0 0 0 0 70181382.26276888 -9378895.727904176 -9378895.727904176 2299240.537792393 0 0 0 0 0 70774331.22887599 -9253291.164033104 -9253291.164033104 1969441.680066874 0 0 0 0 0 75601491.75385512 -5580731.451435461 -5580731.451435461 3217007.784362365 0 0 0 0 0 74906417.23969401 -6423921.928263121 -6423921.928263121 2710450.795347951 0 0 0 0 0 251349724.1042624 -24990928.39472175 -24990928.39472175 26390011.47569277 0 0 0 0 0 222754071.8485022 -19895105.26930638 -19895105.26930638 31499481.60301249 0 0 0 0 0 178638714.9666236 -14786735.03137611 -14786735.03137611 28220356.5416543 0 0 0 0 0 180156798.1849405 -14409283.73254451 -14409283.73254451 28165334.02799511 0 0 0 0 0 168600094.6980085 -12673198.30535944 -12673198.30535944 25210968.12957732 0 0 0 0 0 160261169.5928639 -9888471.935360223 -9888471.935360223 20565485.44621764 0 0 0 0 0 153585245.4744883 -7699964.431834824 -7699964.431834824 15452674.40279661 0 0 0 0 0 148069949.927322 -6107118.73427273 -6107118.73427273 10419622.71219707 0 0 0 0 0 143471804.8945358 -5074853.598079589 -5074853.598079589 5725706.317585553 0 0 0 0 0 139581617.0469735 -4534540.656734635 -4534540.656734635 1506093.305378648 0 0 0 0 0 136230966.57318 -4401194.885449486 -4401194.885449486 -2142218.817617433 0 0 0 0 0 133283565.3651546 -4574380.698665573 -4574380.698665573 -5191181.303718029 0 0 0 0 0 124412847.7496039 -8560152.257240774 -8560152.257240774 -11127485.69989523 0 0 0 0 0 126159355.8947131 -8185474.113905652 -8185474.113905652 -12066880.21488206 0 0 0 0 0 117105486.8185805 -12364427.7237829 -12364427.7237829 -15358265.25135155 0 0 0 0 0 82934700.44692828 -23831431.08889924 -23831431.08889924 -11699282.54870916 0 0 0 0 0 79988897.28038611 -23365082.36032185 -23365082.36032185 -10096979.21299529 0 0 0 0 0 77365621.40059078 -22609875.50641573 -22609875.50641573 -8460811.362434106 0 0 0 0 0 86169313.75745237 -23975453.4808328 -23975453.4808328 -13215081.37897778 0 0 0 0 0 89650844.51181504 -23768338.55101146 -23768338.55101146 -14585602.65390171 0 0 0 0 0 93332809.12761812 -23196321.28658472 -23196321.28658472 -15768495.39235303 0 0 0 0 0 75083201.9828196 -21606969.10831954 -21606969.10831954 -6839850.036848349 0 0 0 0 0 97163964.58956669 -22225110.26191374 -22225110.26191374 -16656595.12042967 0 0 0 0 0 101043114.0570045 -20900012.92568443 -20900012.92568443 -17228988.62960331 0 0 0 0 0 73145066.77335043 -20399375.50749038 -20399375.50749038 -5274498.491916195 0 0 0 0 0 71555544.78535818 -19028845.82320383 -19028845.82320383 -3793120.031268706 0 0 0 0 0 70306881.83501054 -17536272.93191085 -17536272.93191085 -2420090.850415376 0 0 0 0 0 104846940.0196152 -19262132.13113838 -19262132.13113838 -17451381.64729343 0 0 0 0 0 108535964.9272424 -17307203.95660139 -17307203.95660139 -17292185.64576698 0 0 0 0 0 112068485.1886721 -15079100.0333566 -15079100.0333566 -16703207.35893007 0 0 0 0 0 69374177.40677524 -15968845.75008287 -15968845.75008287 -1178596.874287691 0 0 0 0 0 68750130.69641896 -14360031.21338425 -14360031.21338425 -78987.28968401279 0 0 0 0 0 68391494.76660347 -12745662.39820956 -12745662.39820956 877369.5203364266 0 0 0 0 0 70128108.48806165 -10830104.1721556 -10830104.1721556 1657697.987233469 0 0 0 0 0 72454872.10100071 -7775964.689100703 -7775964.689100703 2331147.003058747 0 0 0 0 0 73320403.69790266 -8936919.994239692 -8936919.994239692 2088725.44058568 0 0 0 0 0 73910456.89891692 -7640779.57532629 -7640779.57532629 2279137.550819179 0 0 0 0 0 75368003.62210017 -5169670.38942154 -5169670.38942154 2649108.709643389 0 0 0 0 0 76682697.54835515 -5872260.908739601 -5872260.908739601 2997086.840848957 0 0 0 0 0 290489602.5850497 -29356946.35673879 -29356946.35673879 15925051.84175466 0 0 0 0 0 127089020.0822158 -5565832.315848053 -5565832.315848053 -8259894.149892726 0 0 0 0 0 120124327.6516561 -9652055.542413274 -9652055.542413274 -13618121.37335666 0 0 0 0 0 115322414.5325248 -12662360.09199449 -12662360.09199449 -15692830.67670833 0 0 0 0 0 70261833.54540615 -12320070.78434183 -12320070.78434183 888812.2639844 0 0 0 0 0 71821752.22407135 -10519661.67779447 -10519661.67779447 1599553.648380888 0 0 0 0 0 72636612.31330949 -10294843.51250757 -10294843.51250757 1395293.424687224 0 0 0 0 0 75839532.13583423 -6288069.979156874 -6288069.979156874 2777813.114329596 0 0 0 0 0 75728049.00535585 -7329318.965666625 -7329318.965666625 2299413.482702407 0 0 0 0 0 236130741.3874867 -15584279.02728089 -15584279.02728089 24899894.29351176 0 0 0 0 0 225571159.4997072 -13699576.53601083 -13699576.53601083 32896750.85963425 0 0 0 0 0 203532342.7901995 -10636550.13623788 -10636550.13623788 33278204.82196776 0 0 0 0 0 168701202.2909347 -8080282.476237901 -8080282.476237901 27408994.37482748 0 0 0 0 0 182073081.9400678 -9226709.112375088 -9226709.112375088 30272458.90493868 0 0 0 0 0 159974756.059839 -6318723.625062805 -6318723.625062805 23580758.3539685 0 0 0 0 0 153895982.2077804 -4625023.886377166 -4625023.886377166 19041348.61933747 0 0 0 0 0 148743249.7551081 -3266646.014679334 -3266646.014679334 14269134.52151122 0 0 0 0 0 144380904.6277761 -2359923.297540916 -2359923.297540916 9648147.226707555 0 0 0 0 0 140655339.4245178 -1878527.860454785 -1878527.860454785 5369985.558081108 0 0 0 0 0 137428307.8424878 -1763970.325661605 -1763970.325661605 1543782.60089894 0 0 0 0 0 134580777.848749 -1947773.695889264 -1947773.695889264 -1771615.841454 0 0 0 0 0 132022914.1847279 -2352134.607519187 -2352134.607519187 -4562680.131286973 0 0 0 0 0 124820112.8716601 -6235765.316937251 -6235765.316937251 -10084151.80043687 0 0 0 0 0 125993168.1881807 -6057341.504766102 -6057341.504766102 -11087662.54581301 0 0 0 0 0 118225377.0553009 -10131933.17894235 -10131933.17894235 -14283009.42294584 0 0 0 0 0 83714603.47441521 -22693688.77934013 -22693688.77934013 -10865621.21687241 0 0 0 0 0 86671948.88276446 -22876237.71550344 -22876237.71550344 -12322902.82236151 0 0 0 0 0 81022028.29571471 -22222707.84393492 -22222707.84393492 -9344628.003606811 0 0 0 0 0 78621545.5231903 -21494470.70986121 -21494470.70986121 -7805626.789367597 0 0 0 0 0 89857190.88821104 -22745265.23894824 -22745265.23894824 -13665890.41347338 0 0 0 0 0 93222847.80158393 -22284697.35429324 -22284697.35429324 -14848480.41907956 0 0 0 0 0 96726850.08399343 -21467651.88857696 -21467651.88857696 -15792927.74135933 0 0 0 0 0 76523909.68147081 -20545776.66367852 -20545776.66367852 -6290252.907676223 0 0 0 0 0 100287182.6882321 -20325275.00807351 -20325275.00807351 -16481260.51189116 0 0 0 0 0 103833521.5196151 -18855372.40645376 -18855372.40645376 -16840021.21736287 0 0 0 0 0 74740229.71594572 -19414949.84816625 -19414949.84816625 -4829427.162090617 0 0 0 0 0 73271997.68386343 -18139676.33545807 -18139676.33545807 -3453585.173998932 0 0 0 0 0 72109880.50220689 -16757865.10276473 -16757865.10276473 -2181249.956543082 0 0 0 0 0 107271033.5110049 -17123824.88873272 -17123824.88873272 -16876622.80970448 0 0 0 0 0 110571881.9530708 -15116445.47804425 -15116445.47804425 -16524234.53045385 0 0 0 0 0 113663478.6233487 -12900101.36242008 -12900101.36242008 -15782458.23740586 0 0 0 0 0 71235296.50248359 -15304923.49549394 -15304923.49549394 -1028524.429817121 0 0 0 0 0 70620506.96124627 -13819186.21299841 -13819186.21299841 -6566.025044497018 0 0 0 0 0 71978173.49231741 -11901284.38889727 -11901284.38889727 881439.256441131 0 0 0 0 0 73957910.57817592 -8786201.519780079 -8786201.519780079 1849816.922025908 0 0 0 0 0 74789755.3775574 -9879788.543680679 -9879788.543680679 1468485.111414409 0 0 0 0 0 75319259.27805346 -8577100.631388623 -8577100.631388623 1774985.857376591 0 0 0 0 0 76210408.31912597 -6168083.671772094 -6168083.671772094 2311743.180939297 0 0 0 0 0 77211061.8824648 -6999185.367927315 -6999185.367927315 2301737.481217431 0 0 0 0 0 305591946.140309 -13891242.51483848 -13891242.51483848 14029190.34066204 0 0 0 0 0 172406224.7611758 -7721268.404485845 -7721268.404485845 30900549.91774382 0 0 0 0 0 126894267.3514911 -3464853.607663007 -3464853.607663007 -7279189.822789268 0 0 0 0 0 120734063.7986201 -7552809.033595135 -7552809.033595135 -12487186.26631632 0 0 0 0 0 116455406.7341998 -10554619.93389899 -10554619.93389899 -14661011.57529408 0 0 0 0 0 72345155.1215544 -13291590.67660758 -13291590.67660758 49511.60852005408 0 0 0 0 0 73519790.54687569 -11485864.52348075 -11485864.52348075 857290.1795924064 0 0 0 0 0 74542935.79849288 -11169511.08037721 -11169511.08037721 784950.5437613552 0 0 0 0 0 77908753.51483297 -8318377.224597231 -8318377.224597231 1970247.868228563 0 0 0 0 0 255017926.1221471 -9949445.16209686 -9949445.16209686 19942098.46150829 0 0 0 0 0 204381745.0632899 -9672052.423684869 -9672052.423684869 27278970.50260073 0 0 0 0 0 206376190.1757163 -6716998.459505277 -6716998.459505277 33859423.94101045 0 0 0 0 0 177986566.5494313 -5925246.746404238 -5925246.746404238 34751806.8114345 0 0 0 0 0 164532118.3126643 -4639350.258911577 -4639350.258911577 30345622.67133022 0 0 0 0 0 158499425.5602248 -3399369.614130223 -3399369.614130223 26561782.77541427 0 0 0 0 0 152989369.8315106 -1995369.2959629 -1995369.2959629 22355543.64439326 0 0 0 0 0 148315089.4774686 -856700.5777900148 -856700.5777900148 17927127.07693362 0 0 0 0 0 144306230.7713789 -40162.87239344502 -40162.87239344502 13465522.36542946 0 0 0 0 0 140852936.2809065 419166.8856770186 419166.8856770186 9198326.362972572 0 0 0 0 0 137840490.7542048 543937.972128683 543937.972128683 5271254.316966518 0 0 0 0 0 135175732.1429903 386293.996496752 386293.996496752 1767653.08024926 0 0 0 0 0 132768359.6926302 -33.66562401823736 -33.66562401823736 -1279708.986477318 0 0 0 0 0 130567024.6200115 -551675.2147954726 -551675.2147954726 -3863714.693282212 0 0 0 0 0 124784442.3982597 -4245907.084946588 -4245907.084946588 -9019678.798324334 0 0 0 0 0 125507592.1853962 -4225670.251820228 -4225670.251820228 -10086318.47562603 0 0 0 0 0 118902991.3428112 -8139700.412525581 -8139700.412525581 -13180922.42835282 0 0 0 0 0 84437714.62639315 -21606815.16179634 -21606815.16179634 -10092471.07799677 0 0 0 0 0 87144974.57610799 -21819225.32078666 -21819225.32078666 -11484686.55081685 0 0 0 0 0 90062505.68388939 -21750740.55000383 -21750740.55000383 -12786928.85795563 0 0 0 0 0 81974163.03978238 -21136725.1202162 -21136725.1202162 -8655196.530041019 0 0 0 0 0 79768524.69446349 -20436244.50020729 -20436244.50020729 -7214166.772336768 0 0 0 0 0 93148670.9786398 -21384138.60106058 -21384138.60106058 -13953751.00029889 0 0 0 0 0 96358618.24196821 -20702326.83304956 -20702326.83304956 -14932442.44961324 0 0 0 0 0 99629993.78721155 -19714267.40073176 -19714267.40073176 -15678950.54746888 0 0 0 0 0 77842428.16687766 -19541481.31191274 -19541481.31191274 -5794013.818585911 0 0 0 0 0 102915576.0481324 -18425951.00538159 -18425951.00538159 -16155787.85552624 0 0 0 0 0 106131379.1282677 -16875274.091082 -16875274.091082 -16339658.05542875 0 0 0 0 0 76200879.87172146 -18483169.6210223 -18483169.6210223 -4435399.559998977 0 0 0 0 0 74845885.99677873 -17297600.89684198 -17297600.89684198 -3155361.633886931 0 0 0 0 0 73753150.04579706 -16014897.3011549 -16014897.3011549 -1979385.487911025 0 0 0 0 0 109226416.6928601 -15071945.55399214 -15071945.55399214 -16182018.9822075 0 0 0 0 0 112145221.5180753 -13063739.77303608 -13063739.77303608 -15673445.02989851 0 0 0 0 0 114820396.6915567 -10900266.75657236 -10900266.75657236 -14808192.66806333 0 0 0 0 0 72924757.23709853 -14671605.11254526 -14671605.11254526 -907550.8618584379 0 0 0 0 0 73888342.60236436 -12780040.25639992 -12780040.25639992 84950.1829103801 0 0 0 0 0 75582311.72240449 -9659176.156962736 -9659176.156962736 1326627.321394071 0 0 0 0 0 76318185.35614844 -10675387.45294698 -10675387.45294698 819407.999335089 0 0 0 0 0 76863356.67465559 -9375428.764921512 -9375428.764921512 1263728.825622617 0 0 0 0 0 77194350.00760101 -7048639.626064967 -7048639.626064967 1923866.963630097 0 0 0 0 0 263118640.1574531 -572971.2408804026 -572971.2408804026 9556294.020184547 0 0 0 0 0 222601159.5844604 -7586962.898804269 -7586962.898804269 29107554.78177138 0 0 0 0 0 170411140.4663453 -5521028.659412376 -5521028.659412376 33342374.89468887 0 0 0 0 0 126358514.907476 -1713532.26186982 -1713532.26186982 -6298533.840913729 0 0 0 0 0 120964373.3324177 -5727121.202588769 -5727121.202588769 -11374201.27483972 0 0 0 0 0 117196044.5209385 -8655577.898557886 -8655577.898557886 -13607755.83148879 0 0 0 0 0 74441706.82459512 -14056256.09140629 -14056256.09140629 -807694.4172076487 0 0 0 0 0 75332804.11908092 -12273550.31589012 -12273550.31589012 119552.10628381 0 0 0 0 0 76483033.35113361 -11883622.84825431 -11883622.84825431 151445.1500210045 0 0 0 0 0 78522367.94477932 -7754821.866736499 -7754821.866736499 2219543.185647518 0 0 0 0 0 77539923.32083708 -8966151.182329103 -8966151.182329103 1219705.263211002 0 0 0 0 0 236217473.5936225 -371092.0913891982 -371092.0913891982 21015427.23216056 0 0 0 0 0 200157123.8295389 -4868649.767194096 -4868649.767194096 34412610.89053345 0 0 0 0 0 187204157.9761853 -5942982.381322313 -5942982.381322313 34939688.8024388 0 0 0 0 0 165485019.5974568 -2928958.970346131 -2928958.970346131 34736507.36316218 0 0 0 0 0 155356533.5631175 -946892.617799418 -946892.617799418 29111369.79702584 0 0 0 0 0 150921829.1979214 74334.97118662987 74334.97118662987 25417286.11738899 0 0 0 0 0 160333571.927818 -2235456.094075515 -2235456.094075515 32845901.18704567 0 0 0 0 0 146916809.9569878 1061565.597201021 1061565.597201021 21296808.96908084 0 0 0 0 0 143387297.0149515 1821087.814321206 1821087.814321206 17060662.47614622 0 0 0 0 0 140284761.2758771 2290357.978288093 2290357.978288093 12887440.49331258 0 0 0 0 0 137555575.2958472 2463036.90935995 2463036.90935995 8936726.53597277 0 0 0 0 0 135124469.6274214 2363926.997897114 2363926.997897114 5317330.016976528 0 0 0 0 0 132924221.0294215 2035814.777314031 2035814.777314031 2086637.866676529 0 0 0 0 0 130901187.2871649 1529137.587194885 1529137.587194885 -735738.8723467394 0 0 0 0 0 129015417.0753552 891579.2766682399 891579.2766682399 -3143149.334583408 0 0 0 0 0 124440824.477332 -2553813.08615133 -2553813.08615133 -7958055.172997025 0 0 0 0 0 124800237.9395109 -2672075.505082545 -2672075.505082545 -9095001.700880462 0 0 0 0 0 119234252.8214218 -6380558.169723456 -6380558.169723456 -12085091.7816609 0 0 0 0 0 85102201.85011345 -20573193.45186303 -20573193.45186303 -9381108.826032547 0 0 0 0 0 87591363.40030268 -20808321.52132289 -20808321.52132289 -10701098.9395954 0 0 0 0 0 90268358.48711796 -20791074.23566787 -20791074.23566787 -11954567.70022027 0 0 0 0 0 93101621.22892417 -20505127.06479032 -20505127.06479032 -13095537.94372528 0 0 0 0 0 82824236.9162121 -20108239.0494688 -20108239.0494688 -8027607.483847062 0 0 0 0 0 80797680.97331692 -19438355.86084094 -19438355.86084094 -6671608.306554354 0 0 0 0 0 96048701.71707003 -19938135.5700103 -19938135.5700103 -14081894.56138232 0 0 0 0 0 99065879.27332991 -19086286.82902177 -19086286.82902177 -14872595.74725901 0 0 0 0 0 102102698.972523 -17964166.71279247 -17964166.71279247 -15435136.07516181 0 0 0 0 0 79023598.33042298 -18596579.7248417 -18596579.7248417 -5343023.169042953 0 0 0 0 0 105101266.9369039 -16583386.99769422 -16583386.99769422 -15730249.73633379 0 0 0 0 0 108007474.8086299 -14965680.59656968 -14965680.59656968 -15729824.47454861 0 0 0 0 0 77506958.53298052 -17601990.62473679 -17601990.62473679 -4080101.751135077 0 0 0 0 0 76247416.10498792 -16496817.46494848 -16496817.46494848 -2894290.110043495 0 0 0 0 0 75218173.96725382 -15303376.46931526 -15303376.46931526 -1801862.069977805 0 0 0 0 0 110760070.1218367 -13149020.17242669 -13149020.17242669 -15412772.35455447 0 0 0 0 0 113317583.7849073 -11171432.60201123 -11171432.60201123 -14772939.61503081 0 0 0 0 0 115615743.8683184 -9091843.808886766 -9091843.808886766 -13813873.90759207 0 0 0 0 0 75856011.26084182 -13463228.32184676 -13463228.32184676 -711814.5887435187 0 0 0 0 0 77264168.78830022 -10377572.93783436 -10377572.93783436 771023.7484086057 0 0 0 0 0 77925393.93356843 -11338216.64851674 -11338216.64851674 178955.8802178831 0 0 0 0 0 79367796.14023362 -8659217.963625627 -8659217.963625627 1469064.065541487 0 0 0 0 0 78665872.81715281 -9923294.041849662 -9923294.041849662 889521.4728720651 0 0 0 0 0 78240989.96732742 -7935219.297810222 -7935219.297810222 1474115.943748131 0 0 0 0 0 207673928.4476757 1222390.264269169 1222390.264269169 30305074.41504508 0 0 0 0 0 170886267.490949 -3460959.149494601 -3460959.149494601 36448353.96815421 0 0 0 0 0 125601052.3845898 -266544.7430470742 -266544.7430470742 -5348248.450939162 0 0 0 0 0 120906514.355107 -4139300.089108361 -4139300.089108361 -10282563.64243848 0 0 0 0 0 117619483.7840193 -6963568.705261148 -6963568.705261148 -12552093.06995288 0 0 0 0 0 76595015.16535148 -14618782.64265693 -14618782.64265693 -1633058.700240563 0 0 0 0 0 77186423.69550137 -12895968.26340351 -12895968.26340351 -622573.5132631257 0 0 0 0 0 78429634.94418485 -12452984.58433918 -12452984.58433918 -502455.2827982437 0 0 0 0 0 79440903.85564034 -9603346.960495988 -9603346.960495988 1020005.292324359 0 0 0 0 0 187241309.2416664 1372903.368406748 1372903.368406748 34289033.53352272 0 0 0 0 0 181748078.0643061 -2955786.129824747 -2955786.129824747 36315745.0073697 0 0 0 0 0 159155322.931243 -1327826.675744095 -1327826.675744095 36093346.02162367 0 0 0 0 0 155793758.0602902 -703450.5294890788 -703450.5294890788 34337362.2845401 0 0 0 0 0 148160522.3053906 1453738.986426595 1453738.986426595 28087333.78215879 0 0 0 0 0 151810291.3336956 357350.225851078 357350.225851078 31601997.24278768 0 0 0 0 0 144819443.5143791 2398438.229879507 2398438.229879507 24320288.97355194 0 0 0 0 0 141790310.8069355 3169430.546539911 3169430.546539911 20342844.27655325 0 0 0 0 0 139093306.4043643 3695089.53752008 3695089.53752008 16336520.13821674 0 0 0 0 0 136683104.1856292 3952463.090117466 3952463.090117466 12440704.41467151 0 0 0 0 0 134519789.5852988 3948007.010287024 3948007.010287024 8780753.164305257 0 0 0 0 0 132556145.4087542 3714475.840135785 3714475.840135785 5433643.416665678 0 0 0 0 0 130742298.819823 3288166.864324361 3288166.864324361 2441178.471267946 0 0 0 0 0 129044228.940338 2714696.349214436 2714696.349214436 -185428.9367451868 0 0 0 0 0 127438774.1520854 2034663.393257728 2034663.393257728 -2447547.628033455 0 0 0 0 0 123862006.2020561 -1139064.412930478 -1139064.412930478 -6951073.69712793 0 0 0 0 0 123951388.2253339 -1358181.162418954 -1358181.162418954 -8122835.635046917 0 0 0 0 0 119299558.4585726 -4841187.445555091 -4841187.445555091 -11015669.49620571 0 0 0 0 0 87995294.70225671 -19844192.17147996 -19844192.17147996 -9974880.961588735 0 0 0 0 0 85698997.43758228 -19596002.56933066 -19596002.56933066 -8720272.922563087 0 0 0 0 0 90474116.3825146 -19869378.49491851 -19869378.49491851 -11172718.22467288 0 0 0 0 0 93079290.33749937 -19651217.45480972 -19651217.45480972 -12281846.43513741 0 0 0 0 0 95795557.09202224 -19178963.51300913 -19178963.51300913 -13263193.04284744 0 0 0 0 0 83588009.92815532 -19134463.3136119 -19134463.3136119 -7429344.87033924 0 0 0 0 0 81740330.85251169 -18493309.78268121 -18493309.78268121 -6157977.434838199 0 0 0 0 0 98583265.47217549 -18450040.26957741 -18450040.26957741 -14080553.71199236 0 0 0 0 0 101396953.4660382 -17468038.30654526 -17468038.30654526 -14697741.58966753 0 0 0 0 0 104187763.7378372 -16245301.21261616 -16245301.21261616 -15081280.84114686 0 0 0 0 0 80117993.29630488 -17690676.57557225 -17690676.57557225 -4935404.029312118 0 0 0 0 0 106904074.4640701 -14801888.35428377 -14801888.35428377 -15206863.22262813 0 0 0 0 0 109500934.3719926 -13161593.85409381 -13161593.85409381 -15046682.78113166 0 0 0 0 0 78713700.8144917 -16762498.23439035 -16762498.23439035 -3757439.295066398 0 0 0 0 0 77550256.48137552 -15727186.04835314 -15727186.04835314 -2650493.846364844 0 0 0 0 0 111924460.0284829 -11368742.32728743 -11368742.32728743 -14600134.6718437 0 0 0 0 0 114147092.355171 -9448373.765789902 -9448373.765789902 -13847506.71064985 0 0 0 0 0 116109987.9468245 -7467674.104756408 -7467674.104756408 -12818056.87458554 0 0 0 0 0 77866785.17689279 -13970035.36743071 -13970035.36743071 -1488788.046281333 0 0 0 0 0 78950891.80329356 -10961885.59601541 -10961885.59601541 240235.4879491285 0 0 0 0 0 79538780.71868509 -11862629.41341874 -11862629.41341874 -494221.5572969241 0 0 0 0 0 79358739.67826495 -8684923.321597692 -8684923.321597692 978304.7074072764 0 0 0 0 0 80461472.6004035 -10379787.6846174 -10379787.6846174 297131.4072042105 0 0 0 0 0 80491144.94853671 -9404557.250086214 -9404557.250086214 931314.5590201005 0 0 0 0 0 169558417.10821 -1583011.18813718 -1583011.18813718 36913625.52364571 0 0 0 0 0 124681292.2390934 907643.5870290925 907643.5870290925 -4462439.608835611 0 0 0 0 0 120641212.4864752 -2774359.683430883 -2774359.683430883 -9236446.088991858 0 0 0 0 0 117784326.1754813 -5470816.762741751 -5470816.762741751 -11524092.96478371 0 0 0 0 0 78758244.43819518 -15002353.68343531 -15002353.68343531 -2434617.07899708 0 0 0 0 0 79072443.92186211 -13364285.72020199 -13364285.72020199 -1357992.336873835 0 0 0 0 0 80404320.18100782 -12880737.70334814 -12880737.70334814 -1146890.799666251 0 0 0 0 0 172278541.9141959 1171647.853901861 1171647.853901861 36538233.34990264 0 0 0 0 0 150649391.1081111 135191.0075228496 135191.0075228496 35357491.36082567 0 0 0 0 0 153275732.0464473 -497243.4841386937 -497243.4841386937 36543129.24222492 0 0 0 0 0 148025064.1773128 1073298.46068675 1073298.46068675 33189485.11919142 0 0 0 0 0 142268412.6188506 3155203.981083028 3155203.981083028 26894577.38269507 0 0 0 0 0 145049574.5718752 2122130.505926575 2122130.505926575 30312240.89421022 0 0 0 0 0 139716745.7993556 3996091.99484402 3996091.99484402 23236934.00461407 0 0 0 0 0 137424502.0042349 4621243.329038768 4621243.329038768 19453089.61540282 0 0 0 0 0 135343161.0804506 4994067.798868594 4994067.798868594 15694161.22659506 0 0 0 0 0 133468473.6512419 5119747.764493398 5119747.764493398 12067721.14491279 0 0 0 0 0 131751153.7488763 5011077.399449006 5011077.399449006 8675916.501995955 0 0 0 0 0 130163255.276072 4701555.964273083 4701555.964273083 5576112.438325991 0 0 0 0 0 128666266.2715476 4224378.506371152 4224378.506371152 2794105.961265763 0 0 0 0 0 127245895.3546983 3621583.277531898 3621583.277531898 338684.7973245683 0 0 0 0 0 125880947.0283193 2932141.225412341 2932141.225412341 -1785296.148943749 0 0 0 0 0 123125835.1854628 32701.62913909447 32701.62913909447 -6004027.57037987 0 0 0 0 0 123017263.3341072 -253679.3675020797 -253679.3675020797 -7191967.570253433 0 0 0 0 0 119156788.6850547 -3500627.312524559 -3500627.312524559 -9986932.249390008 0 0 0 0 0 90666328.18176617 -18989569.56126005 -18989569.56126005 -10443051.21267005 0 0 0 0 0 88355731.91300516 -18933523.45454172 -18933523.45454172 -9297677.171010386 0 0 0 0 0 86248312.08153659 -18670636.72927914 -18670636.72927914 -8095368.801235322 0 0 0 0 0 93076768.92980246 -18829405.44053486 -18829405.44053486 -11511425.48542221 0 0 0 0 0 95581706.81962866 -18440904.21361982 -18440904.21361982 -12475744.79882417 0 0 0 0 0 98160009.9177839 -17817647.66669518 -17817647.66669518 -13300554.42559428 0 0 0 0 0 84351998.57017121 -18213521.49546456 -18213521.49546456 -6888456.478692891 0 0 0 0 0 82637766.19659352 -17592794.13222422 -17592794.13222422 -5699675.245416091 0 0 0 0 0 100773202.131665 -16960254.3943694 -16960254.3943694 -13951283.61507433 0 0 0 0 0 103376451.9317661 -15877731.19767617 -15877731.19767617 -14399203.97104829 0 0 0 0 0 105924014.9661078 -14588442.0164245 -14588442.0164245 -14621509.23189033 0 0 0 0 0 81124527.4305537 -16841020.06111208 -16841020.06111208 -4558511.814466462 0 0 0 0 0 108373984.3381077 -13112152.68303821 -13112152.68303821 -14592894.96450723 0 0 0 0 0 110676953.917772 -11481793.44857199 -11481793.44857199 -14304233.86756697 0 0 0 0 0 79842569.87716222 -15966964.12598266 -15966964.12598266 -3459049.077958899 0 0 0 0 0 112799083.0012181 -9729469.232832151 -9729469.232832151 -13744674.35529552 0 0 0 0 0 114704664.961299 -7895728.582383335 -7895728.582383335 -12918488.11457244 0 0 0 0 0 116361858.2648113 -6025966.867269486 -6025966.867269486 -11840562.23925705 0 0 0 0 0 79896084.09765096 -14324570.21191717 -14324570.21191717 -2243212.115774026 0 0 0 0 0 80626008.69286482 -11462211.97232427 -11462211.97232427 -403381.6244755152 0 0 0 0 0 81186014.14570393 -12259391.828177 -12259391.828177 -1168107.068133881 0 0 0 0 0 80593734.45845644 -9353422.058392432 -9353422.058392432 464185.2929665964 0 0 0 0 0 81712212.89987133 -10020441.25568682 -10020441.25568682 303356.9975444364 0 0 0 0 0 162064989.6048752 541410.6773034715 541410.6773034715 36789730.79340863 0 0 0 0 0 156971388.8522389 -860127.8672517275 -860127.8672517275 36869466.4253796 0 0 0 0 0 123679972.8713735 1863125.250860085 1863125.250860085 -3639138.588041792 0 0 0 0 0 120212678.4457135 -1607355.375528907 -1607355.375528907 -8242256.176312762 0 0 0 0 0 117753083.4846187 -4159831.638732451 -4159831.638732451 -10525838.90001639 0 0 0 0 0 80905177.5780804 -15222998.55440351 -15222998.55440351 -3199503.284819544 0 0 0 0 0 80941106.23351848 -13689549.17961347 -13689549.17961347 -2079958.314051269 0 0 0 0 0 81791394.41701025 -10935328.78897963 -10935328.78897963 -350320.1350196066 0 0 0 0 0 82345951.63065161 -13163417.01667224 -13163417.01667224 -1782125.959257443 0 0 0 0 0 143824391.2660149 1177485.159795468 1177485.159795468 34054459.20426319 0 0 0 0 0 146049946.9969845 135065.1978400051 135065.1978400051 35602000.28734646 0 0 0 0 0 148867563.0881637 -685951.0798552564 -685951.0798552564 36435436.76814872 0 0 0 0 0 141785047.3808151 2305680.069596139 2305680.069596139 31862407.36633131 0 0 0 0 0 139480915.1427239 3377594.587606471 3377594.587606471 28963856.83917627 0 0 0 0 0 137359902.998034 4337851.218932881 4337851.218932881 25667408.54192257 0 0 0 0 0 135429491.9721303 5085087.098506979 5085087.098506979 22171717.29540534 0 0 0 0 0 133674074.2425417 5601972.504575803 5601972.504575803 18611044.22029829 0 0 0 0 0 132075570.3700238 5877908.876837384 5877908.876837384 15097088.56578666 0 0 0 0 0 130604402.2653378 5921007.022130555 5921007.022130555 11736051.92462855 0 0 0 0 0 129239391.9693626 5754442.186877836 5754442.186877836 8592602.069739165 0 0 0 0 0 127949931.5157979 5406238.825772248 5406238.825772248 5715335.897472306 0 0 0 0 0 126720652.9977954 4913270.884062703 4913270.884062703 3122892.655879569 0 0 0 0 0 125530864.3547873 4308017.336885802 4308017.336885802 827575.320550211 0 0 0 0 0 124372881.3660666 3628470.073991701 3628470.073991701 -1168226.236157809 0 0 0 0 0 122301582.0012197 1002625.262868223 1002625.262868223 -5119587.566711889 0 0 0 0 0 122040309.2796661 662329.7605856527 662329.7605856527 -6312978.188440062 0 0 0 0 0 118864493.0597219 -2339480.006664645 -2339480.006664645 -8999352.443086486 0 0 0 0 0 93083933.95253366 -18042732.12462689 -18042732.12462689 -10789519.53403405 0 0 0 0 0 90829898.76603243 -18158186.96857193 -18158186.96857193 -9760719.312973494 0 0 0 0 0 88729323.27545351 -18068463.13341748 -18068463.13341748 -8657568.063316125 0 0 0 0 0 86806855.81458288 -17787016.81605196 -17787016.81605196 -7522478.991682634 0 0 0 0 0 95403937.83472823 -17724410.71041055 -17724410.71041055 -11728413.0692134 0 0 0 0 0 97789825.23863907 -17193374.38377696 -17193374.38377696 -12548705.58897687 0 0 0 0 0 100216134.5757417 -16449121.70735388 -16449121.70735388 -13221760.57926911 0 0 0 0 0 85052320.23622355 -17347007.90527119 -17347007.90527119 -6404613.701531621 0 0 0 0 0 83481289.97802913 -16755889.75453256 -16755889.75453256 -5292711.529239639 0 0 0 0 0 102639903.8683609 -15495485.82065216 -15495485.82065216 -13719257.80867016 0 0 0 0 0 105025293.0356527 -14346220.87319012 -14346220.87319012 -14016263.95037435 0 0 0 0 0 107334350.0740407 -13020965.27110425 -13020965.27110425 -14093188.28485829 0 0 0 0 0 82100573.42613199 -16040349.67524262 -16040349.67524262 -4219205.586596106 0 0 0 0 0 109523152.1586661 -11540982.03935624 -11540982.03935624 -13935090.8136641 0 0 0 0 0 111553913.4687138 -9939433.580932602 -9939433.580932602 -13533484.74450878 0 0 0 0 0 113398493.7830479 -8248603.19220845 -8248603.19220845 -12886750.22507139 0 0 0 0 0 115029082.2910941 -6506683.648076028 -6506683.648076028 -12002295.72838479 0 0 0 0 0 116422349.4384571 -4750545.156327299 -4750545.156327299 -10891071.95093738 0 0 0 0 0 81880461.88630508 -14529046.67136514 -14529046.67136514 -2972644.102278802 0 0 0 0 0 82352963.4733095 -11832476.4971618 -11832476.4971618 -969286.5481553599 0 0 0 0 0 82753954.3456459 -12526949.4442441 -12526949.4442441 -1821104.123399011 0 0 0 0 0 81933161.82077634 -9911501.398016073 -9911501.398016073 -57933.12771415453 0 0 0 0 0 82927234.7642394 -10552390.51726179 -10552390.51726179 -330932.2999863457 0 0 0 0 0 153665024.485675 938404.3627528325 938404.3627528325 36746173.61045996 0 0 0 0 0 122635966.6971437 2628324.499144461 2628324.499144461 -2881876.947275389 0 0 0 0 0 119681375.7836879 -614691.0955432141 -614691.0955432141 -7305688.668531049 0 0 0 0 0 117566198.1141554 -3017448.276766798 -3017448.276766798 -9571312.699008087 0 0 0 0 0 82990772.04262601 -15294980.43021971 -15294980.43021971 -3924093.041042432 0 0 0 0 0 82785646.63160798 -13874651.95681472 -13874651.95681472 -2767881.451512369 0 0 0 0 0 83179973.43135276 -11316667.86668045 -11316667.86668045 -938675.9881068955 0 0 0 0 0 84238164.91111481 -13315301.49488484 -13315301.49488484 -2388883.362307689 0 0 0 0 0 138223537.2967244 2040648.460591249 2040648.460591249 32695979.30411557 0 0 0 0 0 139735621.6839948 765289.525929734 765289.525929734 34358779.18716589 0 0 0 0 0 142129816.4617396 -368567.8464461151 -368567.8464461151 35428014.22019899 0 0 0 0 0 146236758.2997844 1260636.215042486 1260636.215042486 36014012.45202148 0 0 0 0 0 136588576.7717695 3174553.087164105 3174553.087164105 30445724.3604953 0 0 0 0 0 134850570.6994292 4242918.741039654 4242918.741039654 27574138.90125575 0 0 0 0 0 133253517.5880653 5131814.790991648 5131814.790991648 24427037.56222616 0 0 0 0 0 131788857.9942449 5804489.254347778 5804489.254347778 21128816.15039157 0 0 0 0 0 130446165.0954554 6245306.936953687 6245306.936953687 17800931.45419526 0 0 0 0 0 129207572.3478828 6456429.642081482 6456429.642081482 14538806.31956149 0 0 0 0 0 128055458.3957043 6452030.208478603 6452030.208478603 11423374.87338169 0 0 0 0 0 126965125.7331689 6255339.631471094 6255339.631471094 8510234.890600681 0 0 0 0 0 125921234.9677406 5895858.113453042 5895858.113453042 5837165.751885551 0 0 0 0 0 124907506.8930686 5406107.073607192 5406107.073607192 3422211.770952579 0 0 0 0 0 123913633.9951217 4818931.655519982 4818931.655519982 1276459.042109474 0 0 0 0 0 122932642.1828533 4162187.29610436 4162187.29610436 -598496.3704277123 0 0 0 0 0 121413282.4691425 1795691.862057913 1795691.862057913 -4301944.236461311 0 0 0 0 0 121040886.795961 1416776.529918364 1416776.529918364 -5496811.375600879 0 0 0 0 0 118450563.1443666 -1347855.359243424 -1347855.359243424 -8074893.033089042 0 0 0 0 0 95243517.34365113 -17035056.27880014 -17035056.27880014 -11016298.75744566 0 0 0 0 0 93077130.45197049 -17295384.36144149 -17295384.36144149 -10106669.59335655 0 0 0 0 0 91027671.31718156 -17360696.82479058 -17360696.82479058 -9112560.879249113 0 0 0 0 0 89109365.54175127 -17244062.74300598 -17244062.74300598 -8073624.201174821 0 0 0 0 0 87337764.52193919 -16958836.02582216 -16958836.02582216 -7013903.773963032 0 0 0 0 0 97463360.47087975 -16583656.12774386 -16583656.12774386 -11827494.03248118 0 0 0 0 0 99717057.85164137 -15938026.36340366 -15938026.36340366 -12510717.69735315 0 0 0 0 0 101977129.2025647 -15100736.45572786 -15100736.45572786 -13041222.67318364 0 0 0 0 0 85720278.77179444 -16530327.08108164 -16530327.08108164 -5960163.406342191 0 0 0 0 0 84272309.77509722 -15967608.45820478 -15967608.45820478 -4922606.533381869 0 0 0 0 0 104212192.4763403 -14079420.86502251 -14079420.86502251 -13399246.84199963 0 0 0 0 0 106387827.7282684 -12890146.84648905 -12890146.84648905 -13564078.27703481 0 0 0 0 0 108465014.7419084 -11551253.47409379 -11551253.47409379 -13513497.83897323 0 0 0 0 0 110406546.0794641 -10088180.5017273 -10088180.5017273 -13244386.39624563 0 0 0 0 0 112188982.330975 -8531833.032928893 -8531833.032928893 -12750606.19180144 0 0 0 0 0 113781742.4426959 -6915516.268587153 -6915516.268587153 -12035951.07476761 0 0 0 0 0 115170218.4802514 -5268870.893811392 -5268870.893811392 -11105174.83383151 0 0 0 0 0 116333792.4997514 -3628695.253072581 -3628695.253072581 -9976449.590410607 0 0 0 0 0 83817800.05805238 -14592942.73494774 -14592942.73494774 -3656731.721265355 0 0 0 0 0 84024737.95454644 -12091466.02383404 -12091466.02383404 -1526495.013425451 0 0 0 0 0 84332603.25705782 -12675801.79721373 -12675801.79721373 -2444642.751187948 0 0 0 0 0 83266521.12630661 -10376631.83661082 -10376631.83661082 -607165.854964045 0 0 0 0 0 84222630.57026194 -10935010.91031875 -10935010.91031875 -951591.3849374767 0 0 0 0 0 121578354.6401017 3234625.262340535 3234625.262340535 -2194421.488898863 0 0 0 0 0 119071573.3496938 220852.4589543239 220852.4589543239 -6437677.926066706 0 0 0 0 0 117261713.9411519 -2029865.298455839 -2029865.298455839 -8670821.38612468 0 0 0 0 0 85006241.13441534 -15228882.94113616 -15228882.94113616 -4589659.099473089 0 0 0 0 0 84584601.69278252 -13930150.93998534 -13930150.93998534 -3414402.468345502 0 0 0 0 0 84592893.97605471 -11578043.32067147 -11578043.32067147 -1541051.910884825 0 0 0 0 0 86072808.66820771 -13342333.36696479 -13342333.36696479 -2957649.583542077 0 0 0 0 0 133719176.2005455 2659263.929881264 2659263.929881264 31326264.59527727 0 0 0 0 0 134673325.3238 1511247.533836636 1511247.533836636 33136354.72215155 0 0 0 0 0 136547600.5729669 -164371.6725650827 -164371.6725650827 34108223.17335625 0 0 0 0 0 139821926.3256316 1448864.441058389 1448864.441058389 34832466.45957179 0 0 0 0 0 132346114.46229 3793758.379031818 3793758.379031818 28938288.06105907 0 0 0 0 0 131027156.8080374 4818399.515709424 4818399.515709424 26184429.16848058 0 0 0 0 0 129802960.6130558 5648785.556759452 5648785.556759452 23207460.87518548 0 0 0 0 0 128681886.0359551 6258862.903379182 6258862.903379182 20120976.07473399 0 0 0 0 0 127647980.6374983 6644170.637273154 6644170.637273154 17026047.95453076 0 0 0 0 0 126687346.0259674 6812543.717159183 6812543.717159183 14004750.47948364 0 0 0 0 0 125780586.4552474 6781565.594475318 6781565.594475318 11120515.99593967 0 0 0 0 0 124910779.6606442 6574772.46101467 6574772.46101467 8421392.330821577 0 0 0 0 0 124064217.0291282 6220723.748242998 6220723.748242998 5938577.795414721 0 0 0 0 0 123229524.5918523 5748425.115301768 5748425.115301768 3690965.61932763 0 0 0 0 0 122398426.2891871 5186276.025840482 5186276.025840482 1682776.67834924 0 0 0 0 0 121566548.2018229 4560035.988962762 4560035.988962762 -86541.65732695239 0 0 0 0 0 120495917.9616589 2434378.649584206 2434378.649584206 -3560396.329442216 0 0 0 0 0 120047041.3540101 2033740.133500327 2033740.133500327 -4740783.85289728 0 0 0 0 0 117952678.5897132 -504176.9040402775 -504176.9040402775 -7213713.877406898 0 0 0 0 0 97170901.31161436 -15989968.72722542 -15989968.72722542 -11141825.00609517 0 0 0 0 0 95107790.31329519 -16371686.85816151 -16371686.85816151 -10349076.33078669 0 0 0 0 0 93123435.08974864 -16570301.51184514 -16570301.51184514 -9461304.328561263 0 0 0 0 0 91241013.7338388 -16596575.64917336 -16596575.64917336 -8519700.020996075 0 0 0 0 0 89472499.98535068 -16463415.00577829 -16463415.00577829 -7542522.507225782 0 0 0 0 0 87837167.30546023 -16178845.32844967 -16178845.32844967 -6547106.447591537 0 0 0 0 0 99267809.83610913 -15430229.83135481 -15430229.83135481 -11823220.43858274 0 0 0 0 0 101378576.1132765 -14695591.95911632 -14695591.95911632 -12378239.13625959 0 0 0 0 0 103470938.3095401 -13790213.52095629 -13790213.52095629 -12780280.70719635 0 0 0 0 0 86345052.42150407 -15762686.00656643 -15762686.00656643 -5557613.29140162 0 0 0 0 0 105519552.0075918 -12724774.01288114 -12724774.01288114 -13009159.9563118 0 0 0 0 0 107487460.4585782 -11516129.28294861 -11516129.28294861 -13046939.96718232 0 0 0 0 0 109345701.5756049 -10184617.56322295 -10184617.56322295 -12894228.5751898 0 0 0 0 0 111066019.5240969 -8754262.898428805 -8754262.898428805 -12533654.59465648 0 0 0 0 0 112620338.7237556 -7255205.546264462 -7255205.546264462 -11967082.8076621 0 0 0 0 0 113990097.2187926 -5719426.569828212 -5719426.569828212 -11200117.12855593 0 0 0 0 0 115162503.4233884 -4173749.121993538 -4173749.121993538 -10241910.68109437 0 0 0 0 0 116123696.4014947 -2650260.534878674 -2650260.534878674 -9110044.353492109 0 0 0 0 0 85693215.2370342 -14534204.47028897 -14534204.47028897 -4286077.135122771 0 0 0 0 0 85727371.19670765 -12200337.81384704 -12200337.81384704 -2092957.687247982 0 0 0 0 0 86029249.55456513 -12754419.9480523 -12754419.9480523 -2919530.724130176 0 0 0 0 0 84594166.93519536 -10734168.69529152 -10734168.69529152 -1169817.262207411 0 0 0 0 0 85547407.50437787 -11261042.90219204 -11261042.90219204 -1548533.012991527 0 0 0 0 0 120529229.8631645 3709011.95615478 3709011.95615478 -1577735.247590143 0 0 0 0 0 118410171.7486526 918987.3881604699 918987.3881604699 -5637262.050862904 0 0 0 0 0 116868358.5134166 -1179597.282302652 -1179597.282302652 -7826377.583540873 0 0 0 0 0 86927201.68730628 -15041792.9589917 -15041792.9589917 -5190497.068454217 0 0 0 0 0 86334827.23603347 -13877608.25309271 -13877608.25309271 -4015798.194950622 0 0 0 0 0 86230361.57991867 -11829841.29810801 -11829841.29810801 -1864463.877214588 0 0 0 0 0 87808118.69489798 -13286295.29744322 -13286295.29744322 -3490601.349247516 0 0 0 0 0 130051737.4533968 3094560.922411338 3094560.922411338 29734442.33552385 0 0 0 0 0 131450673.2694256 2118970.981096353 2118970.981096353 31706796.48990019 0 0 0 0 0 132272277.882631 130721.0142485498 130721.0142485498 32319380.64151899 0 0 0 0 0 134318220.4395438 1493395.940783864 1493395.940783864 33575841.87625699 0 0 0 0 0 128862159.5654924 4223528.866409417 4223528.866409417 27436729.54839875 0 0 0 0 0 127813376.6592196 5199847.722240108 5199847.722240108 24822578.90526979 0 0 0 0 0 126869498.0232921 5969421.680564251 5969421.680564251 22030376.23292102 0 0 0 0 0 126005015.977191 6524940.208459126 6524940.208459126 19157037.08672316 0 0 0 0 0 125208466.4080399 6866558.438179808 6866558.438179808 16287609.27821085 0 0 0 0 0 124461774.7924011 7006273.443371798 7006273.443371798 13492117.72294094 0 0 0 0 0 123748957.7392662 6962306.987113128 6962306.987113128 10824347.07443219 0 0 0 0 0 123054678.1129313 6757593.802847478 6757593.802847478 8324544.519363607 0 0 0 0 0 122367284.7321951 6417748.213751841 6417748.213751841 6018979.592673091 0 0 0 0 0 121679970.4021 5970178.998018595 5970178.998018595 3922100.56638547 0 0 0 0 0 120985797.8174364 5439461.591139457 5439461.591139457 2039567.603236174 0 0 0 0 0 120282653.1096021 4849561.634434933 4849561.634434933 372327.9057443517 0 0 0 0 0 119573010.0634546 2946919.789306008 2946919.789306008 -2886210.776648497 0 0 0 0 0 119070548.4028624 2533117.379172191 2533117.379172191 -4045993.101044056 0 0 0 0 0 117398189.1399348 211762.9476389277 211762.9476389277 -6414648.071167092 0 0 0 0 0 98878071.60687171 -14926529.92142535 -14926529.92142535 -11171494.56821222 0 0 0 0 0 96921909.76624435 -15408752.57388619 -15408752.57388619 -10490252.87032178 0 0 0 0 0 95019514.04912363 -15724916.97370508 -15724916.97370508 -9716062.35685225 0 0 0 0 0 93192615.16218694 -15875398.79708801 -15875398.79708801 -8870372.568131601 0 0 0 0 0 91453617.24110326 -15873108.92488167 -15873108.92488167 -7976357.528515131 0 0 0 0 0 89821065.37173305 -15725160.62879683 -15725160.62879683 -7052737.735825837 0 0 0 0 0 88306866.56859954 -15442248.20557912 -15442248.20557912 -6117931.064985617 0 0 0 0 0 100844952.3753308 -14284741.17997346 -14284741.17997346 -11738113.61127048 0 0 0 0 0 102803294.2034445 -13481909.20305461 -13481909.20305461 -12171829.17138517 0 0 0 0 0 104731757.4195701 -12528912.84710859 -12528912.84710859 -12453778.29651642 0 0 0 0 0 106593210.1083854 -11439385.75649096 -11439385.75649096 -12567880.73289477 0 0 0 0 0 108360500.2561473 -10234715.66711961 -10234715.66711961 -12511343.12366383 0 0 0 0 0 110019303.6006208 -8921531.200394776 -8921531.200394776 -12259722.34808046 0 0 0 0 0 111533861.8217817 -7534863.153326256 -7534863.153326256 -11819090.32253682 0 0 0 0 0 112882395.5064269 -6102468.219150884 -6102468.219150884 -11193383.52944832 0 0 0 0 0 114054962.3282865 -4652063.868226182 -4652063.868226182 -10387955.26899217 0 0 0 0 0 115037675.7494389 -3208552.179295145 -3208552.179295145 -9415543.330866907 0 0 0 0 0 115824292.3902274 -1799178.663823982 -1799178.663823982 -8291989.676476335 0 0 0 0 0 87471382.00665326 -14364112.71633868 -14364112.71633868 -4854221.350541208 0 0 0 0 0 87353574.03838085 -12122438.07091017 -12122438.07091017 -2693890.367142273 0 0 0 0 0 87803857.16957419 -12757697.22612216 -12757697.22612216 -3470400.205620543 0 0 0 0 0 85997087.3364301 -10994992.00855677 -10994992.00855677 -1708733.183841625 0 0 0 0 0 86915497.40312451 -11537569.50271225 -11537569.50271225 -2071738.524651853 0 0 0 0 0 119502499.5178771 4074426.798035148 4074426.798035148 -1024013.717020352 0 0 0 0 0 117717658.9917242 1498297.437761412 1498297.437761412 -4904331.385665898 0 0 0 0 0 116413152.7754175 -449981.3624603962 -449981.3624603962 -7037546.182032285 0 0 0 0 0 88747009.79881211 -14746911.55477203 -14746911.55477203 -5723794.573007544 0 0 0 0 0 87925819.88195613 -13705850.53363538 -13705850.53363538 -4586810.339100982 0 0 0 0 0 89507850.08216766 -13102945.81781642 -13102945.81781642 -4019953.698263756 0 0 0 0 0 126802254.9746181 3469714.884863081 3469714.884863081 28182476.38484561 0 0 0 0 0 128001308.5157611 2408978.253940124 2408978.253940124 30030677.43756735 0 0 0 0 0 129892656.8586103 1301122.134952919 1301122.134952919 31226557.77226719 0 0 0 0 0 130061584.4197889 1231374.502174101 1231374.502174101 32170171.60854119 0 0 0 0 0 125878884.2937933 4531502.189855441 4531502.189855441 25976277.9439432 0 0 0 0 0 125078308.69401 5437127.944378642 5437127.944378642 23514015.11807223 0 0 0 0 0 124344621.7579519 6148336.732439432 6148336.732439432 20906743.20282984 0 0 0 0 0 123681589.181813 6654096.091618323 6654096.091618323 18239439.03294083 0 0 0 0 0 123068602.2361588 6960808.260434511 6960808.260434511 15583357.16720263 0 0 0 0 0 122490221.8132264 7081185.089117541 7081185.089117541 12998625.07001317 0 0 0 0 0 121929408.8777386 7032561.501953199 7032561.501953199 10531939.72828648 0 0 0 0 0 121374921.206772 6836886.374086406 6836886.374086406 8215939.941248096 0 0 0 0 0 120817901.7649704 6517319.419306275 6517319.419306275 6072722.900930912 0 0 0 0 0 120251963.2122321 6098011.016671885 6098011.016671885 4115534.504457428 0 0 0 0 0 119673317.3868441 5602380.228350544 5602380.228350544 2351250.604951155 0 0 0 0 0 119078191.8493248 5051050.048828625 5051050.048828625 779742.1851345804 0 0 0 0 0 118662438.0700136 3354068.495661823 3354068.495661823 -2275196.12978751 0 0 0 0 0 118122990.952415 2933895.783952518 2933895.783952518 -3409736.275157514 0 0 0 0 0 116807843.1969 815965.0889790653 815965.0889790653 -5675310.689977852 0 0 0 0 0 98539451.69819926 -14431058.62781494 -14431058.62781494 -10554984.61162613 0 0 0 0 0 100377569.5674075 -13866795.25884449 -13866795.25884449 -11125231.86455718 0 0 0 0 0 96730162.50736877 -14841014.62858742 -14841014.62858742 -9882134.204495285 0 0 0 0 0 94969528.60158765 -15100104.59297349 -15100104.59297349 -9131553.097345466 0 0 0 0 0 93274477.13665296 -15213390.94151406 -15213390.94151406 -8323643.040324335 0 0 0 0 0 91664271.62268642 -15186614.80833014 -15186614.80833014 -7474171.521471601 0 0 0 0 0 90155601.46555276 -15028096.25371757 -15028096.25371757 -6602324.18869313 0 0 0 0 0 102212263.2082242 -13158388.21470043 -13158388.21470043 -11582559.12434911 0 0 0 0 0 104021936.3675918 -12307294.76588278 -12307294.76588278 -11904168.88603088 0 0 0 0 0 105781999.6810789 -11326034.6202357 -11326034.6202357 -12077764.2169234 0 0 0 0 0 107464718.5010322 -10232097.17811339 -10232097.17811339 -12094234.45928654 0 0 0 0 0 109052984.3854168 -9035731.327040244 -9035731.327040244 -11938323.08465859 0 0 0 0 0 110521747.8888011 -7757395.479451858 -7757395.479451858 -11607786.35759511 0 0 0 0 0 111848091.2136248 -6424800.458622621 -6424800.458622621 -11106266.38144708 0 0 0 0 0 113010985.341959 -5067134.582815145 -5067134.582815145 -10437038.87139766 0 0 0 0 0 114004777.4727555 -3704953.488845954 -3704953.488845954 -9608270.23515176 0 0 0 0 0 114822365.9669954 -2361407.901596125 -2361407.901596125 -8631263.078488899 0 0 0 0 0 115459179.9195422 -1061249.646587237 -1061249.646587237 -7523522.908368007 0 0 0 0 0 89160616.57835487 -14094012.78679599 -14094012.78679599 -5357513.198436419 0 0 0 0 0 88207832.46012411 -11682745.77020733 -11682745.77020733 -2714781.823369591 0 0 0 0 0 88810574.13405386 -12290285.74746773 -12290285.74746773 -3269594.935106644 0 0 0 0 0 89530350.74408969 -12722633.70596113 -12722633.70596113 -3719591.519910582 0 0 0 0 0 87336974.9860521 -11184811.34394023 -11184811.34394023 -2253516.957799637 0 0 0 0 0 128430368.2528482 149025.6060895271 149025.6060895271 31017934.08640157 0 0 0 0 0 118510534.0924141 4349134.11624768 4349134.11624768 -531173.1775231322 0 0 0 0 0 117015137.3167653 1977487.876775815 1977487.876775815 -4233196.262085441 0 0 0 0 0 115915793.0244617 173431.7940445417 173431.7940445417 -6304295.260238556 0 0 0 0 0 90482881.11995049 -14370729.6148984 -14370729.6148984 -6187710.313934959 0 0 0 0 0 89554245.27574667 -13484477.33932415 -13484477.33932415 -4995750.72455404 0 0 0 0 0 90549038.25743984 -12791237.97419879 -12791237.97419879 -4653634.452091589 0 0 0 0 0 124012029.8882691 3714700.96537415 3714700.96537415 26677631.1088934 0 0 0 0 0 125093486.4113586 2565737.295879087 2565737.295879087 28464287.35253226 0 0 0 0 0 126516911.8483334 1346663.919485001 1346663.919485001 29903695.45320065 0 0 0 0 0 126619393.5548803 1066876.069227001 1066876.069227001 30595649.34592487 0 0 0 0 0 123360067.4427462 4718832.189359502 4718832.189359502 24584195.74476531 0 0 0 0 0 122715709.046112 5568342.582175693 5568342.582175693 22270510.59885805 0 0 0 0 0 122158449.7631853 6220602.674517321 6220602.674517321 19843239.95980762 0 0 0 0 0 121652902.3524036 6683442.737703467 6683442.737703467 17369650.40474005 0 0 0 0 0 121183300.3229303 6962104.602690678 6962104.602690678 14912463.84101355 0 0 0 0 0 120736092.8228886 7069431.951476882 7069431.951476882 12523569.21367893 0 0 0 0 0 120295979.6984943 7021528.207887925 7021528.207887925 10242079.49640841 0 0 0 0 0 119854181.0476447 6838934.804123433 6838934.804123433 8095241.879118341 0 0 0 0 0 119402998.0049744 6541806.750695218 6541806.750695218 6100417.480411852 0 0 0 0 0 118938782.8775128 6152992.38380236 6152992.38380236 4272911.934681185 0 0 0 0 0 118456084.1072095 5694029.287016603 5694029.287016603 2619638.674990866 0 0 0 0 0 117952323.6102515 5180717.497595344 5180717.497595344 1137753.614536405 0 0 0 0 0 117773496.7373166 3671963.745621649 3671963.745621649 -1725329.992942235 0 0 0 0 0 117212348.9464682 3250986.29108854 3250986.29108854 -2831968.841182063 0 0 0 0 0 116197281.9681825 1322870.561299754 1322870.561299754 -4995540.334346659 0 0 0 0 0 98258736.77645026 -13938678.42188266 -13938678.42188266 -9967522.441935036 0 0 0 0 0 99970289.38326667 -13448518.78256851 -13448518.78256851 -10538723.07764143 0 0 0 0 0 101686967.2860015 -12822082.09438233 -12822082.09438233 -11008933.06017425 0 0 0 0 0 96575652.95405866 -14289750.77683933 -14289750.77683933 -9311635.687515724 0 0 0 0 0 94938900.01279682 -14502835.67509288 -14502835.67509288 -8588953.537123999 0 0 0 0 0 93365252.92379059 -14582784.82163752 -14582784.82163752 -7816047.706917294 0 0 0 0 0 91871789.37523697 -14536435.38149649 -14536435.38149649 -7009984.617760495 0 0 0 0 0 103389719.8996309 -12062288.67593297 -12062288.67593297 -11359651.55707488 0 0 0 0 0 105050633.1955739 -11180261.03357007 -11180261.03357007 -11580634.29648505 0 0 0 0 0 106650433.9747668 -10187347.49113207 -10187347.49113207 -11658703.87924667 0 0 0 0 0 108167068.0640861 -9097468.458173413 -9097468.458173413 -11584822.82862248 0 0 0 0 0 109580655.3303181 -7926363.940030013 -7926363.940030013 -11352741.03693818 0 0 0 0 0 110873435.5894999 -6694030.829822959 -6694030.829822959 -10959088.88934312 0 0 0 0 0 112027530.3915983 -5422327.315724586 -5422327.315724586 -10405394.68619359 0 0 0 0 0 113026187.6622967 -4140921.779780299 -4140921.779780299 -9704826.073107161 0 0 0 0 0 113864942.8428889 -2866226.403877119 -2866226.403877119 -8862067.812822882 0 0 0 0 0 114538847.1649788 -1620299.062516874 -1620299.062516874 -7890003.991225545 0 0 0 0 0 115046759.6303476 -424026.7131781557 -424026.7131781557 -6805098.272047292 0 0 0 0 0 90810952.85611662 -13744113.59441784 -13744113.59441784 -5810398.117641664 0 0 0 0 0 88708990.49822877 -11265049.36297738 -11265049.36297738 -2764885.453763658 0 0 0 0 0 89494839.63024648 -11729315.24776426 -11729315.24776426 -3312819.395600165 0 0 0 0 0 90075557.55320615 -12250105.66856462 -12250105.66856462 -3878327.097315298 0 0 0 0 0 125240582.8871735 167649.8342352329 167649.8342352329 29566750.7035851 0 0 0 0 0 117559907.8241297 4548698.076115205 4548698.076115205 -95962.91098736627 0 0 0 0 0 116310800.3941816 2369121.285172818 2369121.285172818 -3623540.87395951 0 0 0 0 0 115391204.3981509 703535.7842591417 703535.7842591417 -5625722.212886669 0 0 0 0 0 92071581.23186401 -13920700.97413676 -13920700.97413676 -6580978.518004997 0 0 0 0 0 91165524.51623273 -13195072.88424041 -13195072.88424041 -5471359.935714675 0 0 0 0 0 91442830.10525151 -12372767.50285397 -12372767.50285397 -4443397.587062812 0 0 0 0 0 121771730.2949478 3852782.238185403 3852782.238185403 25280746.05694484 0 0 0 0 0 122423272.5374966 2692075.043961334 2692075.043961334 26970668.04937422 0 0 0 0 0 123810890.623626 1417494.515696589 1417494.515696589 28503906.50767908 0 0 0 0 0 123822459.4828273 951855.451179722 951855.451179722 29096553.23137634 0 0 0 0 0 121155572.2344681 4832494.463864226 4832494.463864226 23261195.82036476 0 0 0 0 0 120677652.5169748 5611876.549202225 5611876.549202225 21096562.14240897 0 0 0 0 0 120255816.8995684 6213935.026094385 6213935.026094385 18837439.26814625 0 0 0 0 0 119872850.8865682 6639781.441432104 6639781.441432104 16544805.73097834 0 0 0 0 0 119514910.9256535 6896023.276864033 6896023.276864033 14273650.81292705 0 0 0 0 0 119168887.8521702 6994444.922223447 6994444.922223447 12065944.75656134 0 0 0 0 0 118825487.5883698 6950765.511158177 6950765.511158177 9953791.295758281 0 0 0 0 0 118476161.7396988 6784309.992879818 6784309.992879818 7962272.227980995 0 0 0 0 0 118110416.8310239 6509234.497005039 6509234.497005039 6104417.476981249 0 0 0 0 0 117730129.8783583 6152132.476681035 6152132.476681035 4398316.462994186 0 0 0 0 0 117329994.4617786 5729668.73106219 5729668.73106219 2848529.038975717 0 0 0 0 0 116902030.6087351 5253097.207183535 5253097.207183535 1451308.092330914 0 0 0 0 0 116911647.2785036 3915945.941477665 3915945.941477665 -1233949.582676887 0 0 0 0 0 116344970.3239897 3502542.598873921 3502542.598873921 -2300432.111624971 0 0 0 0 0 115577897.0086737 1745636.764542021 1745636.764542021 -4372179.563922537 0 0 0 0 0 99613779.56138891 -13031968.4409548 -13031968.4409548 -9978779.444614219 0 0 0 0 0 98016761.66276352 -13459155.19877583 -13459155.19877583 -9414461.289018137 0 0 0 0 0 101221567.6835088 -12478809.29063659 -12478809.29063659 -10455549.95632814 0 0 0 0 0 102820095.7567286 -11802264.33782362 -11802264.33782362 -10828818.73128584 0 0 0 0 0 96448822.10731579 -13758514.39087437 -13758514.39087437 -8777072.336358169 0 0 0 0 0 94926478.07818399 -13931259.55022738 -13931259.55022738 -8082139.860426383 0 0 0 0 0 93461548.37302411 -13982353.20160659 -13982353.20160659 -7344882.424579674 0 0 0 0 0 104388703.8776043 -11008648.734015 -11008648.734015 -11085773.88138003 0 0 0 0 0 105909323.8718589 -10108634.78960266 -10108634.78960266 -11215481.12927266 0 0 0 0 0 107356996.6813632 -9114753.410597807 -9114753.410597807 -11208145.57621506 0 0 0 0 0 108713944.602769 -8042795.476695467 -8042795.476695467 -11057840.92342954 0 0 0 0 0 109967113.6268644 -6905957.355637136 -6905957.355637136 -10758228.14580696 0 0 0 0 0 111102737.9960767 -5723090.222932139 -5723090.222932139 -10310362.85233901 0 0 0 0 0 112100220.4992662 -4520189.967715406 -4520189.967715406 -9722646.176275613 0 0 0 0 0 112952623.574241 -3315315.948340228 -3315315.948340228 -9000449.086242404 0 0 0 0 0 113654714.6936363 -2126970.360857002 -2126970.360857002 -8152784.998098301 0 0 0 0 0 114204107.9354667 -974711.3236041045 -974711.3236041045 -7193075.336577435 0 0 0 0 0 114602142.4075099 123749.5682495504 123749.5682495504 -6135537.049620285 0 0 0 0 0 92288310.49459262 -13344518.05004276 -13344518.05004276 -6180475.305120248 0 0 0 0 0 90142152.25650106 -11255999.42892448 -11255999.42892448 -3224683.950844161 0 0 0 0 0 90827128.58527045 -11704134.65959939 -11704134.65959939 -3823250.266835387 0 0 0 0 0 91606330.07149212 -12565148.1524909 -12565148.1524909 -5132038.018051464 0 0 0 0 0 91757816.74467781 -12029349.98348019 -12029349.98348019 -4163465.990905653 0 0 0 0 0 122577756.7107009 226120.0358366247 226120.0358366247 28460652.70292647 0 0 0 0 0 116647951.7872172 4686634.972790536 4686634.972790536 290984.4608020168 0 0 0 0 0 115614744.2297192 2688231.670381398 2688231.670381398 -3064878.954604495 0 0 0 0 0 114852318.4858648 1151977.256742178 1151977.256742178 -4997736.829426783 0 0 0 0 0 93566059.97295685 -13413172.77189721 -13413172.77189721 -6905920.243170482 0 0 0 0 0 92547216.20157884 -12798628.68484904 -12798628.68484904 -5800351.468982835 0 0 0 0 0 92824125.32062037 -12006349.08783272 -12006349.08783272 -4598219.326416672 0 0 0 0 0 120249262.9188486 2831286.213297975 2831286.213297975 25789498.5507124 0 0 0 0 0 119681133.4489606 3993344.604215812 3993344.604215812 23916987.21289693 0 0 0 0 0 121335914.9820763 1481691.948963631 1481691.948963631 26823150.42376815 0 0 0 0 0 121365892.3842106 973916.2770154547 973916.2770154547 27717157.67153245 0 0 0 0 0 119279612.5575244 4869092.789633755 4869092.789633755 22009687.94555506 0 0 0 0 0 118914297.1260779 5593636.224555526 5593636.224555526 19986044.93119488 0 0 0 0 0 118592065.5584766 6151382.159487997 6151382.159487997 17891048.06990855 0 0 0 0 0 118299067.2060022 6544562.828352737 6544562.828352737 15771107.8277143 0 0 0 0 0 118028530.7186831 6781960.136535947 6781960.136535947 13669839.47887159 0 0 0 0 0 117765758.6509912 6874535.59720818 6874535.59720818 11625996.70132477 0 0 0 0 0 117498953.604242 6836101.184895273 6836101.184895273 9666537.283688644 0 0 0 0 0 117230094.0906908 6689273.45816024 6689273.45816024 7818287.234024441 0 0 0 0 0 116928999.9368971 6435584.599071916 6435584.599071916 6092261.449549487 0 0 0 0 0 116616156.0355815 6107976.003637438 6107976.003637438 4496588.931862961 0 0 0 0 0 116288228.92314 5721107.265304072 5721107.265304072 3042848.017921678 0 0 0 0 0 115923063.2760265 5280502.600995299 5280502.600995299 1726475.544843935 0 0 0 0 0 116084559.0085323 4101088.001816403 4101088.001816403 -788033.1846695477 0 0 0 0 0 115516839.5427269 3693877.405608299 3693877.405608299 -1820186.246379159 0 0 0 0 0 114962005.1471424 2096676.240316356 2096676.240316356 -3797516.377411944 0 0 0 0 0 99299847.67405596 -12621696.14709262 -12621696.14709262 -9448279.576893244 0 0 0 0 0 100806145.5147702 -12133356.79886179 -12133356.79886179 -9926492.938434757 0 0 0 0 0 97808013.50770232 -12993761.25301837 -12993761.25301837 -8893938.428288486 0 0 0 0 0 102309314.5098253 -11529975.71587501 -11529975.71587501 -10313931.99180118 0 0 0 0 0 103789944.3304132 -10818541.64194398 -10818541.64194398 -10599083.72214829 0 0 0 0 0 96347893.98861079 -13247795.48270991 -13247795.48270991 -8276469.09582586 0 0 0 0 0 94931830.46336541 -13385334.61624362 -13385334.61624362 -7609792.178117197 0 0 0 0 0 105229948.0571099 -10004608.27903717 -10004608.27903717 -10768814.80408645 0 0 0 0 0 106613396.6917324 -9098241.740725126 -9098241.740725126 -10814476.73124954 0 0 0 0 0 107920441.4343431 -8114414.877770922 -8114414.877770922 -10731550.85776256 0 0 0 0 0 109134028.6919225 -7066226.742981365 -7066226.742981365 -10514261.80797168 0 0 0 0 0 110239764.9995719 -5971689.23925402 -5971689.23925402 -10162229.198953 0 0 0 0 0 111227209.577971 -4846636.629816431 -4846636.629816431 -9675994.785967596 0 0 0 0 0 112085262.4996186 -3711387.490675481 -3711387.490675481 -9062231.029730223 0 0 0 0 0 112807369.8366331 -2582702.620389869 -2582702.620389869 -8328083.303904456 0 0 0 0 0 113389751.4591703 -1478023.89362742 -1478023.89362742 -7483550.785696485 0 0 0 0 0 113832211.889743 -414215.298254644 -414215.298254644 -6540565.757980127 0 0 0 0 0 114136748.5335448 592695.7090268664 592695.7090268664 -5514321.964511408 0 0 0 0 0 93663722.25523905 -12876869.71904195 -12876869.71904195 -6488503.472595406 0 0 0 0 0 91533542.43338691 -11179463.05891538 -11179463.05891538 -3655704.532716233 0 0 0 0 0 91901058.32095966 -11580710.10994191 -11580710.10994191 -4448891.781109156 0 0 0 0 0 92766617.41496855 -12239968.28763263 -12239968.28763263 -5461770.336180515 0 0 0 0 0 120234814.4964674 241048.2675929658 241048.2675929658 26528181.01359658 0 0 0 0 0 115783461.960946 4774556.526415213 4774556.526415213 631916.3146787452 0 0 0 0 0 114939228.4084965 2945210.003724207 2945210.003724207 -2556601.436456146 0 0 0 0 0 114307906.5051415 1528975.984553403 1528975.984553403 -4420859.885916953 0 0 0 0 0 94951574.55912979 -12863578.64297927 -12863578.64297927 -7168160.74630886 0 0 0 0 0 93794946.01284109 -12370744.99020245 -12370744.99020245 -6089947.408629351 0 0 0 0 0 93970357.30904076 -11697408.26895039 -11697408.26895039 -4860850.1725446 0 0 0 0 0 118697317.6321969 2088314.212147889 2088314.212147889 26133824.46702778 0 0 0 0 0 118433978.396112 3017192.81962216 3017192.81962216 24261490.11786376 0 0 0 0 0 117985287.3592013 4038854.085110919 4038854.085110919 22601017.70334066 0 0 0 0 0 119456557.9386494 783757.7001290865 783757.7001290865 26376790.19993316 0 0 0 0 0 117650177.9423372 4864246.465759818 4864246.465759818 20827991.97971577 0 0 0 0 0 117366163.0427014 5534449.854467462 5534449.854467462 18948584.02194151 0 0 0 0 0 117120690.2259876 6048625.439380853 6048625.439380853 17001471.23130631 0 0 0 0 0 116903322.1330466 6412945.126655382 6412945.126655382 15039532.40784002 0 0 0 0 0 116700810.7226745 6634608.654052057 6634608.654052057 13096056.95076943 0 0 0 0 0 116503272.0402718 6723032.511926966 6723032.511926966 11202351.42323979 0 0 0 0 0 116297338.2869208 6688305.082020773 6688305.082020773 9382139.270395169 0 0 0 0 0 116099364.6762404 6560935.039065772 6560935.039065772 7671266.811148822 0 0 0 0 0 115844509.6276366 6331009.282398916 6331009.282398916 6068926.261409403 0 0 0 0 0 115588205.7182676 6033995.056381879 6033995.056381879 4579012.771998464 0 0 0 0 0 115313347.4298286 5681186.471609261 5681186.471609261 3217545.733839612 0 0 0 0 0 115010926.6390839 5279986.496601169 5279986.496601169 1977748.893026995 0 0 0 0 0 115290273.5880816 4230727.772794895 4230727.772794895 -394279.765554289 0 0 0 0 0 114723137.9893003 3829405.747467192 3829405.747467192 -1394480.1446084 0 0 0 0 0 114352856.7583633 2383154.32283258 2383154.32283258 -3276731.562366259 0 0 0 0 0 99023027.98619322 -12219761.21631718 -12219761.21631718 -8946413.91724393 0 0 0 0 0 100435640.0469991 -11788958.50591804 -11788958.50591804 -9421809.930773107 0 0 0 0 0 101849076.9984029 -11252178.96233526 -11252178.96233526 -9817571.292015711 0 0 0 0 0 97629417.66230987 -12543145.17231136 -12543145.17231136 -8404264.835257318 0 0 0 0 0 103246851.0080315 -10612972.07020167 -10612972.07020167 -10122280.64824465 0 0 0 0 0 104613576.8876507 -9876391.967291228 -9876391.967291228 -10324366.13091868 0 0 0 0 0 96269751.91357593 -12757336.89420955 -12757336.89420955 -7808224.460161306 0 0 0 0 0 105930122.0839723 -9053474.295322683 -9053474.295322683 -10416984.21344588 0 0 0 0 0 107182043.3850467 -8153222.955090034 -8153222.955090034 -10391853.20256896 0 0 0 0 0 108355168.8494709 -7187650.047045773 -7187650.047045773 -10243964.1234061 0 0 0 0 0 109433646.4420826 -6172748.184730113 -6172748.184730113 -9971904.066818288 0 0 0 0 0 110406062.9224407 -5123904.517281991 -5123904.517281991 -9576189.727111088 0 0 0 0 0 111262994.3812474 -4057154.12128698 -4057154.12128698 -9059173.600946162 0 0 0 0 0 111997710.8540789 -2988896.724652895 -2988896.724652895 -8427726.854910174 0 0 0 0 0 112605772.5046212 -1934316.440712051 -1934316.440712051 -7688722.352747374 0 0 0 0 0 113084697.2414335 -909448.4162988567 -909448.4162988567 -6852858.567615045 0 0 0 0 0 113434946.1350354 70470.57366377558 70470.57366377558 -5931949.525272595 0 0 0 0 0 113659832.2098041 992183.0329223284 992183.0329223284 -4940377.865020482 0 0 0 0 0 94987347.63215806 -12364640.10263581 -12364640.10263581 -6760432.679609535 0 0 0 0 0 92875759.9401243 -11032324.11175701 -11032324.11175701 -4053482.458750477 0 0 0 0 0 93848922.73498979 -11920787.12476758 -11920787.12476758 -5784652.741783881 0 0 0 0 0 93148048.31010592 -11305893.69593295 -11305893.69593295 -4815625.652575715 0 0 0 0 0 118399912.057774 249378.406911272 249378.406911272 25645914.95844271 0 0 0 0 0 114962941.6091758 4823947.157506829 4823947.157506829 945977.7942672494 0 0 0 0 0 114280112.276988 3145442.459652206 3145442.459652206 -2102863.478915969 0 0 0 0 0 113765016.0996027 1843653.952872191 1843653.952872191 -3892346.90328911 0 0 0 0 0 96212458.31435877 -12286054.18522514 -12286054.18522514 -7372268.690558379 0 0 0 0 0 95023384.74054404 -11878829.04724468 -11878829.04724468 -6407980.464934429 0 0 0 0 0 95161358.92153014 -11348256.755779 -11348256.755779 -5165827.808751201 0 0 0 0 0 117115064.8381739 2198449.562655142 2198449.562655142 24130901.49159666 0 0 0 0 0 116784203.3202876 3156033.70937943 3156033.70937943 22897598.37776991 0 0 0 0 0 116471229.862337 4063198.716293837 4063198.716293837 21378214.81309006 0 0 0 0 0 117586899.4858458 1189178.484167952 1189178.484167952 24989597.72683063 0 0 0 0 0 117601512.8514061 732180.5577712287 732180.5577712287 25082294.07301989 0 0 0 0 0 116213382.208821 4825134.821310076 4825134.821310076 19724007.11103849 0 0 0 0 0 116000079.4453899 5443878.227153271 5443878.227153271 17972234.16054074 0 0 0 0 0 115815516.115956 5919642.911405787 5919642.911405787 16174104.76409484 0 0 0 0 0 115659312.4538985 6258485.581124767 6258485.581124767 14353066.78429749 0 0 0 0 0 115514336.2882761 6465642.707913673 6465642.707913673 12547637.22947421 0 0 0 0 0 115372177.9981841 6550570.092065207 6550570.092065207 10788708.33600378 0 0 0 0 0 115215367.8240611 6525667.598408292 6525667.598408292 9129650.388950922 0 0 0 0 0 115039107.7929316 6407818.336848945 6407818.336848945 7556099.769910713 0 0 0 0 0 114851032.421731 6207601.821945001 6207601.821945001 6052160.299656687 0 0 0 0 0 114645949.0354213 5937561.170415091 5937561.170415091 4654273.485119346 0 0 0 0 0 114416995.3982921 5612138.223164603 5612138.223164603 3371670.573230521 0 0 0 0 0 114164477.0813089 5244057.68553913 5244057.68553913 2191559.608246963 0 0 0 0 0 114538472.5712988 4317741.490923203 4317741.490923203 -37269.50894147774 0 0 0 0 0 113973702.1550832 3926083.000863173 3926083.000863173 -1006122.773672784 0 0 0 0 0 113757355.6194212 2615906.842955342 2615906.842955342 -2802857.178425979 0 0 0 0 0 98778940.66230297 -11826639.29140492 -11826639.29140492 -8472341.720636051 0 0 0 0 0 100105548.7246485 -11447271.55323899 -11447271.55323899 -8942319.004347388 0 0 0 0 0 101435347.0177818 -10969815.35964993 -10969815.35964993 -9342162.464398893 0 0 0 0 0 102754345.269816 -10396423.41265339 -10396423.41265339 -9661228.25420622 0 0 0 0 0 97477384.61027725 -12107985.33495452 -12107985.33495452 -7944472.656326382 0 0 0 0 0 104048214.0021791 -9731639.130432608 -9731639.130432608 -9889444.304423014 0 0 0 0 0 105301765.7670902 -8983132.28574736 -8983132.28574736 -10018794.1201644 0 0 0 0 0 106500616.4651759 -8159803.859125494 -8159803.859125494 -10042051.17381588 0 0 0 0 0 107630339.7658295 -7272691.891437785 -7272691.891437785 -9954145.60209146 0 0 0 0 0 108679092.1059438 -6333072.457468605 -6333072.457468605 -9751390.511400614 0 0 0 0 0 109634103.7714274 -5356007.076751473 -5356007.076751473 -9433914.401309185 0 0 0 0 0 110485978.4347795 -4355708.517762836 -4355708.517762836 -9003380.369909976 0 0 0 0 0 111226696.0823752 -3347697.679518189 -3347697.679518189 -8464320.106899215 0 0 0 0 0 111851816.3283181 -2345280.776788229 -2345280.776788229 -7822952.200587944 0 0 0 0 0 112360467.4740501 -1362264.152124447 -1362264.152124447 -7084909.192522291 0 0 0 0 0 112749625.1467654 -413158.0426452277 -413158.0426452277 -6262248.55768674 0 0 0 0 0 113021387.5481151 488550.6761253906 488550.6761253906 -5365711.598521406 0 0 0 0 0 113178506.0503267 1331627.681513909 1331627.681513909 -4410615.893495462 0 0 0 0 0 96186435.3582058 -11834895.79997099 -11834895.79997099 -6956714.962911203 0 0 0 0 0 93964502.28474613 -10833975.71165182 -10833975.71165182 -4474011.15494218 0 0 0 0 0 94984500.89809456 -11485343.30722091 -11485343.30722091 -6028800.690727524 0 0 0 0 0 94306410.28585427 -11039861.16483183 -11039861.16483183 -5195864.292453069 0 0 0 0 0 116673115.5707244 261383.9741086508 261383.9741086508 24474694.40312578 0 0 0 0 0 114197463.2974466 4841475.914889091 4841475.914889091 1210544.975954439 0 0 0 0 0 113644636.092273 3301674.217750922 3301674.217750922 -1690259.542936806 0 0 0 0 0 113227872.759182 2106438.002055387 2106438.002055387 -3407873.161610648 0 0 0 0 0 97349074.86542948 -11686485.44919921 -11686485.44919921 -7513220.330892196 0 0 0 0 0 96272767.06220239 -11399944.25988081 -11399944.25988081 -6574724.728012854 0 0 0 0 0 96168302.34446096 -11079433.25583674 -11079433.25583674 -5459840.19258808 0 0 0 0 0 115700725.9071879 2286937.635707525 2286937.635707525 22848218.79467105 0 0 0 0 0 116063654.8339811 1277299.745507192 1277299.745507192 23762081.18139688 0 0 0 0 0 115390941.8598793 3223427.384976446 3223427.384976446 21652253.9580905 0 0 0 0 0 115149928.713965 4055650.574447511 4055650.574447511 20236560.96207216 0 0 0 0 0 115957934.5183097 727031.2910827429 727031.2910827429 23809056.02788443 0 0 0 0 0 114950012.888269 4759778.237623439 4759778.237623439 18691737.36106504 0 0 0 0 0 114789122.4392713 5331003.552077654 5331003.552077654 17065086.44730104 0 0 0 0 0 114660385.3016745 5772649.882740164 5772649.882740164 15388869.83657758 0 0 0 0 0 114550236.286629 6087376.70883328 6087376.70883328 13698201.36029485 0 0 0 0 0 114452269.1793928 6283361.285053363 6283361.285053363 12026645.16622309 0 0 0 0 0 114338827.8715063 6363204.690742369 6363204.690742369 10416946.3473717 0 0 0 0 0 114221040.9893623 6345482.891166261 6345482.891166261 8868192.406215243 0 0 0 0 0 114085213.9357815 6238974.638269247 6238974.638269247 7399136.794891417 0 0 0 0 0 113942540.8404243 6060688.796978452 6060688.796978452 5990615.733728424 0 0 0 0 0 113778953.8248063 5816816.595357074 5816816.595357074 4679197.208703039 0 0 0 0 0 113590220.8531774 5519765.8371081 5519765.8371081 3472782.136944386 0 0 0 0 0 113377629.2240079 5181229.562705661 5181229.562705661 2361859.668418287 0 0 0 0 0 113825563.0441251 4369169.830123325 4369169.830123325 274846.8640388686 0 0 0 0 0 113270669.6513767 3987458.697607776 3987458.697607776 -660289.0811915009 0 0 0 0 0 113174378.0442438 2804812.49036907 2804812.49036907 -2368599.146659492 0 0 0 0 0 99811846.23530145 -11109385.02438224 -11109385.02438224 -8487749.980805686 0 0 0 0 0 98560941.00749947 -11441983.70195605 -11441983.70195605 -8026283.494954166 0 0 0 0 0 101064013.3133673 -10685438.52085262 -10685438.52085262 -8888308.53169488 0 0 0 0 0 102308722.9185598 -10171792.41638592 -10171792.41638592 -9216781.117324976 0 0 0 0 0 103533101.0024713 -9571792.022126788 -9571792.022126788 -9464785.540556991 0 0 0 0 0 104725629.7154639 -8891519.720106937 -8891519.720106937 -9623955.564278392 0 0 0 0 0 105872092.5433607 -8139151.813608832 -8139151.813608832 -9687412.09619803 0 0 0 0 0 106959512.8701772 -7323688.285970415 -7323688.285970415 -9649915.229311217 0 0 0 0 0 107975857.4220498 -6455631.596064239 -6455631.596064239 -9507733.074202653 0 0 0 0 0 108909983.5180244 -5546882.842105592 -5546882.842105592 -9259297.993487226 0 0 0 0 0 109751822.6688005 -4610942.071571872 -4610942.071571872 -8905484.090725906 0 0 0 0 0 110493559.9334362 -3661410.508859448 -3661410.508859448 -8448894.760091161 0 0 0 0 0 111130863.8208558 -2711157.129106652 -2711157.129106652 -7894502.30225611 0 0 0 0 0 111660191.889086 -1772177.459122394 -1772177.459122394 -7247903.992358561 0 0 0 0 0 112083283.743074 -857630.5568242809 -857630.5568242809 -6515669.759750677 0 0 0 0 0 112394278.0473725 19758.25620468895 19758.25620468895 -5709348.449469039 0 0 0 0 0 112598372.0033773 848243.8470569511 848243.8470569511 -4839624.246044685 0 0 0 0 0 112697528.6422723 1619432.491594136 1619432.491594136 -3919949.36474715 0 0 0 0 0 97231829.53878634 -11260054.50773512 -11260054.50773512 -7131413.277717264 0 0 0 0 0 95151440.78133085 -10549609.00655348 -10549609.00655348 -4807832.771298295 0 0 0 0 0 97007187.98633121 -10934222.64239629 -10934222.64239629 -6245318.609579816 0 0 0 0 0 95460658.39559801 -10700236.70229302 -10700236.70229302 -5439783.830508661 0 0 0 0 0 115217009.9236109 318474.3161995244 318474.3161995244 23246542.04792602 0 0 0 0 0 113473823.1308614 4829646.739332066 4829646.739332066 1433796.344357518 0 0 0 0 0 113026310.0280374 3418362.627834017 3418362.627834017 -1316319.593875955 0 0 0 0 0 112703041.1282334 2325122.620767351 2325122.620767351 -2958140.740228397 0 0 0 0 0 98368585.38959804 -11064916.66536555 -11064916.66536555 -7600980.726430254 0 0 0 0 0 97271110.11535275 -10861798.44591864 -10861798.44591864 -6819907.421644089 0 0 0 0 0 96324346.84459716 -10746479.53231074 -10746479.53231074 -5751120.585576478 0 0 0 0 0 114440064.2734606 2377288.529758118 2377288.529758118 21657008.88464408 0 0 0 0 0 114670834.2459683 1355394.862146816 1355394.862146816 22634932.60257464 0 0 0 0 0 114181046.3025428 3258535.042213706 3258535.042213706 20501370.18666757 0 0 0 0 0 113982632.3380572 4026051.20897466 4026051.20897466 19169384.04372695 0 0 0 0 0 114628548.2682977 723870.9817685641 723870.9817685641 22590166.45039801 0 0 0 0 0 113831508.9147695 4673561.030988809 4673561.030988809 17725106.84321104 0 0 0 0 0 113716786.2556843 5203150.753335754 5203150.753335754 16209959.36744056 0 0 0 0 0 113629366.9392944 5614644.054555069 5614644.054555069 14652667.86650551 0 0 0 0 0 113552709.6289655 5905578.536983919 5905578.536983919 13082857.2456932 0 0 0 0 0 113488545.9968975 6088767.189501747 6088767.189501747 11548075.35953414 0 0 0 0 0 113402442.4637556 6165788.570099247 6165788.570099247 10054515.82726649 0 0 0 0 0 113313501.8433886 6155148.31147689 6155148.31147689 8612393.310353432 0 0 0 0 0 113222108.6917084 6064116.426686161 6064116.426686161 7227118.590890558 0 0 0 0 0 113110225.7408801 5901825.403976929 5901825.403976929 5912142.380073503 0 0 0 0 0 112981186.5124592 5683320.419513607 5683320.419513607 4685899.721631332 0 0 0 0 0 112822637.1574243 5412793.230288792 5412793.230288792 3551856.283202381 0 0 0 0 0 112641705.083085 5096338.98594303 5096338.98594303 2497152.800386757 0 0 0 0 0 113147178.2507384 4388516.955910719 4388516.955910719 551514.9048087423 0 0 0 0 0 112610347.1847335 4020444.756133741 4020444.756133741 -346347.4282539522 0 0 0 0 0 112618221.055825 2956918.507781661 2956918.507781661 -1970231.697727005 0 0 0 0 0 100730214.7569282 -10400540.23797819 -10400540.23797819 -8455429.397445505 0 0 0 0 0 99551675.21926166 -10774381.51668912 -10774381.51668912 -8056439.006432444 0 0 0 0 0 101905315.625457 -9942174.575859835 -9942174.575859835 -8789667.429387337 0 0 0 0 0 103063464.365437 -9400214.798785487 -9400214.798785487 -9052327.030090982 0 0 0 0 0 104197821.8226916 -8782450.100778319 -8782450.100778319 -9235330.287234599 0 0 0 0 0 105293527.8155365 -8095140.04207827 -8095140.04207827 -9332394.202672932 0 0 0 0 0 106338084.0051275 -7346159.136974163 -7346159.136974163 -9337322.941953698 0 0 0 0 0 107320976.0545012 -6544711.479426125 -6544711.479426125 -9246636.848976692 0 0 0 0 0 108231663.8889783 -5700991.810114006 -5700991.810114006 -9058231.565941947 0 0 0 0 0 109061200.3707385 -4826290.44713018 -4826290.44713018 -8771535.449980242 0 0 0 0 0 109801303.2613934 -3932692.145626531 -3932692.145626531 -8387914.077967679 0 0 0 0 0 110445108.2920966 -3033502.112376513 -3033502.112376513 -7912287.199435975 0 0 0 0 0 110991290.4484163 -2138587.431548622 -2138587.431548622 -7347333.990587908 0 0 0 0 0 111433812.2175272 -1262724.949874944 -1262724.949874944 -6700231.009842268 0 0 0 0 0 111779704.1006164 -413155.8634886773 -413155.8634886773 -5978160.50586239 0 0 0 0 0 112023837.2412569 395547.1371366941 395547.1371366941 -5191480.834867861 0 0 0 0 0 112171757.2152973 1158104.162394204 1158104.162394204 -4350530.857587235 0 0 0 0 0 112223831.8052462 1862910.389904219 1862910.389904219 -3466196.702429576 0 0 0 0 0 98244302.14364375 -10700175.98434451 -10700175.98434451 -7219946.60592888 0 0 0 0 0 96253833.80242378 -10241471.87803577 -10241471.87803577 -5107077.727710931 0 0 0 0 0 97245232.00459167 -10489293.79747853 -10489293.79747853 -6204835.679044859 0 0 0 0 0 96508091.35151385 -10356806.74640646 -10356806.74640646 -5708430.709334988 0 0 0 0 0 97417845.3786566 -10432264.22178344 -10432264.22178344 -6126903.49918521 0 0 0 0 0 113891474.8583914 289740.3472303442 289740.3472303442 21882922.98114251 0 0 0 0 0 112790694.7709672 4794245.437147767 4794245.437147767 1625110.895494051 0 0 0 0 0 112443126.0424172 3504937.894662228 3504937.894662228 -983245.4287096893 0 0 0 0 0 112190422.2657918 2501513.115583356 2501513.115583356 -2550225.903236309 0 0 0 0 0 99337383.71021172 -10445448.38264464 -10445448.38264464 -7650969.258681361 0 0 0 0 0 98122235.82099721 -10317873.17009745 -10317873.17009745 -6807097.308864322 0 0 0 0 0 113251685.6609661 2441437.60577365 2441437.60577365 20541646.9789421 0 0 0 0 0 113470850.1340214 1402797.172329073 1402797.172329073 21455351.23725696 0 0 0 0 0 113068627.2518573 3264291.254887218 3264291.254887218 19428404.63609199 0 0 0 0 0 112943069.7653436 3971925.624430984 3971925.624430984 18168574.29005729 0 0 0 0 0 113321381.9008684 639795.8583158604 639795.8583158604 21548450.21393421 0 0 0 0 0 112836724.1356934 4573458.746417209 4573458.746417209 16820750.45431617 0 0 0 0 0 112758898.9247302 5065502.099206804 5065502.099206804 15408654.26756069 0 0 0 0 0 112702230.6487884 5445002.528187517 5445002.528187517 13950605.00871311 0 0 0 0 0 112650788.3602781 5714321.538738019 5714321.538738019 12517399.33689241 0 0 0 0 0 112602612.8782753 5886677.705369921 5886677.705369921 11095376.75193453 0 0 0 0 0 112550998.5517481 5965919.854915193 5965919.854915193 9703424.535179907 0 0 0 0 0 112499102.6831522 5963687.914455234 5963687.914455234 8351701.983039682 0 0 0 0 0 112429134.2616469 5882275.2503548 5882275.2503548 7055455.351360536 0 0 0 0 0 112347021.8130045 5735164.84815542 5735164.84815542 5822201.220013618 0 0 0 0 0 112243837.025375 5544671.27429532 5544671.27429532 4678373.707796754 0 0 0 0 0 112113683.9361845 5297901.287371422 5297901.287371422 3617039.370332171 0 0 0 0 0 111929629.7499768 4984537.78295269 4984537.78295269 2599850.80151455 0 0 0 0 0 112501410.3492229 4382928.612972622 4382928.612972622 804270.5287198394 0 0 0 0 0 111987456.1538479 4027822.899414741 4027822.899414741 -63546.3961310277 0 0 0 0 0 112076491.8348525 3069546.776322164 3069546.776322164 -1610532.249864849 0 0 0 0 0 101542760.2996583 -9709220.416914137 -9709220.416914137 -8380993.7475938 0 0 0 0 0 100440499.5451256 -10116964.54288837 -10116964.54288837 -8043121.573637648 0 0 0 0 0 102633700.4717201 -9220284.680550685 -9220284.680550685 -8653708.253604749 0 0 0 0 0 103713088.322447 -8659041.019944323 -8659041.019944323 -8855730.635921564 0 0 0 0 0 104759600.5547953 -8031640.213496619 -8031640.213496619 -8979823.964262154 0 0 0 0 0 105762365.0424183 -7343836.947289393 -7343836.947289393 -9020431.645837247 0 0 0 0 0 106711396.1886299 -6604396.977888146 -6604396.977888146 -8974101.620555129 0 0 0 0 0 107596874.4367929 -5821982.486071797 -5821982.486071797 -8837813.994905986 0 0 0 0 0 108410676.388534 -5006246.34213578 -5006246.34213578 -8610136.628451034 0 0 0 0 0 109144980.3627548 -4167790.866753017 -4167790.866753017 -8291601.766199363 0 0 0 0 0 109793116.0025774 -3318079.298928562 -3318079.298928562 -7885178.579223135 0 0 0 0 0 110351096.0095445 -2467865.347164368 -2467865.347164368 -7393670.12458314 0 0 0 0 0 110818271.9584103 -1626384.371965294 -1626384.371965294 -6820955.159389854 0 0 0 0 0 111186098.2440076 -810491.1479263662 -810491.1479263662 -6180347.195454259 0 0 0 0 0 111462478.4197895 -23786.79635633589 -23786.79635633589 -5471665.821022449 0 0 0 0 0 111646632.272938 720672.7867597861 720672.7867597861 -4708730.154761516 0 0 0 0 0 111748384.2737494 1423160.900220236 1423160.900220236 -3893709.841146402 0 0 0 0 0 111762483.7742206 2065933.084665226 2065933.084665226 -3050569.527050566 0 0 0 0 0 99177314.854761 -10119465.76145786 -10119465.76145786 -7261694.480683485 0 0 0 0 0 97253371.41425379 -9902473.331158059 -9902473.331158059 -5375712.190990163 0 0 0 0 0 98204329.99529569 -9990546.825535337 -9990546.825535337 -6505190.339477175 0 0 0 0 0 97426589.2124083 -9991460.246922374 -9991460.246922374 -6040632.27855919 0 0 0 0 0 112521553.8961124 995811.4313270793 995811.4313270793 21231496.51285363 0 0 0 0 0 112147808.984412 4738027.798604272 4738027.798604272 1781453.714846035 0 0 0 0 0 111886753.8000643 3569231.615407631 3569231.615407631 -677518.4986497478 0 0 0 0 0 111699808.5823599 2640111.990210062 2640111.990210062 -2184554.563072569 0 0 0 0 0 100191887.5019861 -9831182.206092721 -9831182.206092721 -7658793.973740559 0 0 0 0 0 99013679.462632 -9808488.81275809 -9808488.81275809 -6932006.905944295 0 0 0 0 0 112298865.4395476 2490376.232156979 2490376.232156979 19490331.98938498 0 0 0 0 0 112515682.9262183 1646662.371638641 1646662.371638641 20541322.65218982 0 0 0 0 0 112149458.6316739 3238341.221626613 3238341.221626613 18409496.07179509 0 0 0 0 0 112029348.6443715 3903583.857212884 3903583.857212884 17234824.08178132 0 0 0 0 0 112284945.7867739 495636.6759794446 495636.6759794446 20527859.11084557 0 0 0 0 0 111951566.7394768 4465980.570160404 4465980.570160404 15977364.78407316 0 0 0 0 0 111900381.0257792 4920363.894156377 4920363.894156377 14652156.90401297 0 0 0 0 0 111860388.1886855 5269826.497222587 5269826.497222587 13319888.9893168 0 0 0 0 0 111831262.8999322 5522632.385918092 5522632.385918092 11983838.24643479 0 0 0 0 0 111804516.9074594 5684165.431568435 5684165.431568435 10664401.49828326 0 0 0 0 0 111784231.1450023 5766553.784193795 5766553.784193795 9355229.956545224 0 0 0 0 0 111752501.1823762 5771895.348503395 5771895.348503395 8097058.150383253 0 0 0 0 0 111714168.1916201 5698940.356315322 5698940.356315322 6884283.190553892 0 0 0 0 0 111626357.7153472 5561559.204215759 5561559.204215759 5718790.444405231 0 0 0 0 0 111542673.6336979 5393129.005109274 5393129.005109274 4646619.963408452 0 0 0 0 0 111506922.7269152 5193201.722869984 5193201.722869984 3673807.537060807 0 0 0 0 0 111271520.7785684 4875882.73245078 4875882.73245078 2750055.831119454 0 0 0 0 0 111865099.6390257 4365594.799795583 4365594.799795583 1042670.792114158 0 0 0 0 0 111332278.0785564 3998894.325278591 3998894.325278591 192067.4311269964 0 0 0 0 0 111570194.0444528 3151496.995078367 3151496.995078367 -1275029.05110342 0 0 0 0 0 102242176.6548848 -9033679.954703031 -9033679.954703031 -8270243.103646819 0 0 0 0 0 101225066.8691697 -9474155.776769778 -9474155.776769778 -7991930.180419088 0 0 0 0 0 103267898.4312407 -8524004.942035213 -8524004.942035213 -8486672.996046059 0 0 0 0 0 104267835.1665569 -7951367.044120141 -7951367.044120141 -8632736.988198467 0 0 0 0 0 105229177.1061458 -7320316.086913112 -7320316.086913112 -8703639.353734272 0 0 0 0 0 106144321.1788836 -6638247.641442372 -6638247.641442372 -8694722.221519381 0 0 0 0 0 107003666.0525411 -5913223.68805445 -5913223.68805445 -8603572.574978663 0 0 0 0 0 107799366.7168169 -5153535.293372281 -5153535.293372281 -8427841.117351115 0 0 0 0 0 108524082.6544479 -4368527.42761178 -4368527.42761178 -8167374.080207675 0 0 0 0 0 109171707.6389586 -3568062.294941207 -3568062.294941207 -7823488.895851139 0 0 0 0 0 109737678.8265287 -2762001.946170482 -2762001.946170482 -7398762.338222812 0 0 0 0 0 110218535.9495225 -1960605.867511759 -1960605.867511759 -6897563.294145471 0 0 0 0 0 110612189.4840311 -1174021.470815779 -1174021.470815779 -6325303.500371807 0 0 0 0 0 110918466.8551367 -412010.7601051865 -412010.7601051865 -5689643.51893477 0 0 0 0 0 111135782.017599 314512.4755302434 314512.4755302434 -4999707.563933739 0 0 0 0 0 111272793.3678169 1002611.674566957 1002611.674566957 -4255429.731585863 0 0 0 0 0 111329262.1238104 1644704.741935685 1644704.741935685 -3474555.35455582 0 0 0 0 0 111310283.2420849 2230237.850126929 2230237.850126929 -2673586.95556738 0 0 0 0 0 99979579.3611058 -9547603.577218534 -9547603.577218534 -7291376.611375038 0 0 0 0 0 98172222.39016275 -9510505.569561245 -9510505.569561245 -5606608.884240556 0 0 0 0 0 99087195.13753435 -9455788.872469008 -9455788.872469008 -6631235.893355371 0 0 0 0 0 98302319.94494458 -9563713.887990924 -9563713.887990924 -6258131.848390979 0 0 0 0 0 111649722.4941866 1292401.547686354 1292401.547686354 20032190.49970211 0 0 0 0 0 111796552.9816072 264454.085638791 264454.085638791 20217126.34151678 0 0 0 0 0 111493869.7484942 4649441.353055742 4649441.353055742 1879143.201745429 0 0 0 0 0 111369275.9088096 3604898.172333035 3604898.172333035 -371597.4713030359 0 0 0 0 0 111227062.5813262 2742217.879443279 2742217.879443279 -1850893.020668522 0 0 0 0 0 100928501.7052395 -9226990.643476322 -9226990.643476322 -7620319.946158784 0 0 0 0 0 99881968.6042915 -9259125.91990892 -9259125.91990892 -6958816.761440742 0 0 0 0 0 111614745.4389897 1803338.609467575 1803338.609467575 19327543.24041161 0 0 0 0 0 111442551.3706927 2518921.388168935 2518921.388168935 18479721.84181299 0 0 0 0 0 111299577.8791139 3219256.548147622 3219256.548147622 17472570.09867664 0 0 0 0 0 111209863.2922179 3832357.714039308 3832357.714039308 16367112.19238831 0 0 0 0 0 111340785.219615 557454.5095292516 557454.5095292516 19511881.98902192 0 0 0 0 0 111157203.8428656 4349743.033660813 4349743.033660813 15177158.94142856 0 0 0 0 0 111118316.7174154 4767326.163028541 4767326.163028541 13965536.53158854 0 0 0 0 0 111093063.4394357 5091405.995111476 5091405.995111476 12722350.03433326 0 0 0 0 0 111086151.926115 5332085.110165468 5332085.110165468 11479931.61617592 0 0 0 0 0 111084566.8318449 5486002.153104346 5486002.153104346 10237342.31959656 0 0 0 0 0 111074138.8658017 5565844.062918697 5565844.062918697 9016250.060815396 0 0 0 0 0 111123848.5172734 5599341.74139124 5599341.74139124 7868170.005381091 0 0 0 0 0 111040520.8423258 5530851.004870349 5530851.004870349 6710649.775918921 0 0 0 0 0 110948594.4842498 5395284.10812318 5395284.10812318 5624953.035376373 0 0 0 0 0 110957835.1531638 5288778.634639191 5288778.634639191 4683693.175044837 0 0 0 0 0 110671926.9772381 4978097.38946716 4978097.38946716 3806682.977579623 0 0 0 0 0 110738984.5226088 4747972.700025233 4747972.700025233 2687751.451617178 0 0 0 0 0 111312441.6690416 4349580.60825192 4349580.60825192 1264323.6508277 0 0 0 0 0 110805337.383595 4027477.510785081 4027477.510785081 475601.3285056038 0 0 0 0 0 111063857.5824318 3224611.154146048 3224611.154146048 -990161.9789018901 0 0 0 0 0 102861246.6506131 -8377399.753289247 -8377399.753289247 -8130221.414395839 0 0 0 0 0 101884316.300722 -8838327.264225615 -8838327.264225615 -7901351.614492318 0 0 0 0 0 103816481.1073049 -7856867.419626099 -7856867.419626099 -8294191.929807817 0 0 0 0 0 104735050.48764 -7278186.296078925 -7278186.296078925 -8389390.605200121 0 0 0 0 0 105616910.1148251 -6649318.435862138 -6649318.435862138 -8412184.38659245 0 0 0 0 0 106449552.9884914 -5977965.088789985 -5977965.088789985 -8359804.695177075 0 0 0 0 0 107225792.8783789 -5271062.592271298 -5271062.592271298 -8229388.34047104 0 0 0 0 0 107938510.8579304 -4537097.725562818 -4537097.725562818 -8020335.080489156 0 0 0 0 0 108581893.5751586 -3784724.102270833 -3784724.102270833 -7733057.774755755 0 0 0 0 0 109151104.5598143 -3022814.183494437 -3022814.183494437 -7369205.119632767 0 0 0 0 0 109642553.06251 -2260636.760524726 -2260636.760524726 -6931903.171290411 0 0 0 0 0 110053775.1406249 -1507544.485067957 -1507544.485067957 -6426127.551678146 0 0 0 0 0 110384220.9754519 -772292.5885460075 -772292.5885460075 -5857039.532226562 0 0 0 0 0 110633445.8779182 -64083.36929947233 -64083.36929947233 -5231804.471332137 0 0 0 0 0 110804248.199556 609315.8443830217 609315.8443830217 -4558097.327259674 0 0 0 0 0 110899196.5639113 1239295.026599326 1239295.026599326 -3834433.060687034 0 0 0 0 0 110921702.6219146 1824204.508157753 1824204.508157753 -3076608.896042654 0 0 0 0 0 110893702.8820142 2355519.250906982 2355519.250906982 -2340038.661670634 0 0 0 0 0 100729563.7260853 -8981033.543937182 -8981033.543937182 -7250253.82788399 0 0 0 0 0 99093051.92021146 -9080731.305496877 -9080731.305496877 -5775416.912691213 0 0 0 0 0 99154531.61577575 -9102319.095949616 -9102319.095949616 -6394479.58058101 0 0 0 0 0 99873096.83809541 -8995811.143922769 -8995811.143922769 -6702436.144648226 0 0 0 0 0 110803909.4738792 1208514.90912487 1208514.90912487 19052188.0814354 0 0 0 0 0 111215956.8559631 2075901.119539166 2075901.119539166 18862444.24058313 0 0 0 0 0 110739948.8377229 4487786.119789088 4487786.119789088 1900746.116594105 0 0 0 0 0 110731093.9463626 3595942.037852301 3595942.037852301 -151086.7950078073 0 0 0 0 0 110823602.5309563 2823261.493539616 2823261.493539616 -1578649.156732035 0 0 0 0 0 101552914.8688344 -8625492.228897596 -8625492.228897596 -7561417.954930527 0 0 0 0 0 100536113.2503573 -8728527.148475483 -8728527.148475483 -6938306.898108017 0 0 0 0 0 110769430.6679188 1817922.205058749 1817922.205058749 18351675.70157306 0 0 0 0 0 110615632.4159157 2538472.76062648 2538472.76062648 17545531.24367628 0 0 0 0 0 110524842.881792 3187546.349175445 3187546.349175445 16597089.47360141 0 0 0 0 0 110469895.512192 3752847.432666945 3752847.432666945 15548438.31976333 0 0 0 0 0 110466079.2693713 472851.7328269003 472851.7328269003 18628593.4364721 0 0 0 0 0 110433837.6404565 4229804.588553277 4229804.588553277 14451674.20074339 0 0 0 0 0 110410464.7077096 4617632.556885385 4617632.556885385 13317736.5238585 0 0 0 0 0 110402029.6521843 4916853.694562675 4916853.694562675 12167428.59012955 0 0 0 0 0 110423881.1224476 5149492.380145581 5149492.380145581 11001855.58426722 0 0 0 0 0 110438145.8176133 5291460.842391318 5291460.842391318 9821293.426113879 0 0 0 0 0 110494632.7601145 5419035.078121642 5419035.078121642 8820140.49903411 0 0 0 0 0 110513636.7119821 5433338.776304808 5433338.776304808 7519837.673558169 0 0 0 0 0 110505766.2130405 5370892.440590071 5370892.440590071 6532670.285408183 0 0 0 0 0 110402641.8708158 5228030.524789791 5228030.524789791 5625027.037462707 0 0 0 0 0 110455677.3747245 5143540.170540162 5143540.170540162 4841046.536192997 0 0 0 0 0 110223842.2630015 4783297.076764187 4783297.076764187 3454366.991241783 0 0 0 0 0 110272137.2475262 4542825.389015984 4542825.389015984 2472712.420537866 0 0 0 0 0 110308777.4834367 4250659.805016786 4250659.805016786 1495212.947577913 0 0 0 0 0 110354182.0252743 4003975.409152479 4003975.409152479 587549.6789331943 0 0 0 0 0 110127372.6874519 3197215.652954079 3197215.652954079 -805500.8240252752 0 0 0 0 0 103407327.372245 -7750866.792706169 -7750866.792706169 -7963462.469632112 0 0 0 0 0 102490424.3988177 -8221566.469299357 -8221566.469299357 -7786388.477271993 0 0 0 0 0 104278640.1020653 -7219217.548980815 -7219217.548980815 -8079295.665414498 0 0 0 0 0 105127581.4416605 -6640315.944822362 -6640315.944822362 -8129304.410264423 0 0 0 0 0 105932763.0763677 -6019041.883355025 -6019041.883355025 -8109961.176747517 0 0 0 0 0 106688413.3526203 -5361897.913621424 -5361897.913621424 -8019018.642308277 0 0 0 0 0 107387199.098276 -4676380.023350868 -4676380.023350868 -7855334.820526189 0 0 0 0 0 108023446.2292095 -3970204.00038205 -3970204.00038205 -7618426.714512309 0 0 0 0 0 108592607.4026262 -3251476.067166789 -3251476.067166789 -7309324.886643535 0 0 0 0 0 109090807.1061221 -2528376.889074361 -2528376.889074361 -6930190.087326257 0 0 0 0 0 109515497.3768861 -1809380.365740607 -1809380.365740607 -6484760.548741378 0 0 0 0 0 109865278.3725495 -1102718.055191633 -1102718.055191633 -5978264.563695312 0 0 0 0 0 110140143.453569 -416325.7834794022 -416325.7834794022 -5415227.000893974 0 0 0 0 0 110340366.1200421 241760.2040140956 241760.2040140956 -4803507.995385133 0 0 0 0 0 110469882.9594973 865814.7685881818 865814.7685881818 -4156561.633350378 0 0 0 0 0 110528339.2543715 1439377.961882508 1439377.961882508 -3459209.726121799 0 0 0 0 0 110511838.654415 1953252.140817758 1953252.140817758 -2746733.732927826 0 0 0 0 0 110423733.515678 2431936.74776383 2431936.74776383 -2133088.183131137 0 0 0 0 0 101313178.627253 -8397428.139298087 -8397428.139298087 -7096001.349230894 0 0 0 0 0 99903929.38054739 -8641313.293362921 -8641313.293362921 -5916960.265149374 0 0 0 0 0 99992135.25961711 -8658845.389372952 -8658845.389372952 -6468418.466622337 0 0 0 0 0 100988730.104276 -8547391.206851786 -8547391.206851786 -6655708.116083362 0 0 0 0 0 110202387.05378 1240701.012122659 1240701.012122659 18249838.17031408 0 0 0 0 0 110193915.8026927 1078732.750514474 1078732.750514474 18108403.48673375 0 0 0 0 0 110107250.7291005 4969308.617681762 4969308.617681762 4442198.332755985 0 0 0 0 0 110165972.7801725 3637562.451292571 3637562.451292571 177570.7802321485 0 0 0 0 0 110469123.2529987 2805118.187765477 2805118.187765477 -1491459.774690802 0 0 0 0 0 102173388.6596638 -8063234.855374014 -8063234.855374014 -7412789.966171 0 0 0 0 0 100944933.8987033 -8253399.57945984 -8253399.57945984 -6730936.164653775 0 0 0 0 0 110043811.9277241 1862763.624987411 1862763.624987411 17485883.51613978 0 0 0 0 0 109910316.7827741 2538668.780174402 2538668.780174402 16677972.4794916 0 0 0 0 0 109844962.5085371 3141678.794715708 3141678.794715708 15768980.34846695 0 0 0 0 0 109806620.9086221 3666941.45161303 3666941.45161303 14794724.46821176 0 0 0 0 0 109762403.916737 445115.812468942 445115.812468942 17735033.02098053 0 0 0 0 0 109779341.2032867 4110585.160519747 4110585.160519747 13769624.4204543 0 0 0 0 0 109781941.5146318 4474716.798933268 4474716.798933268 12725959.49770993 0 0 0 0 0 109779500.6648039 4759362.542728116 4759362.542728116 11657951.08753351 0 0 0 0 0 109864800.9484395 4989463.83503125 4989463.83503125 10531658.99258008 0 0 0 0 0 109895558.8938783 5293982.48107117 5293982.48107117 9417768.59282705 0 0 0 0 0 110419796.2973068 5527968.315098448 5527968.315098448 8505318.604152048 0 0 0 0 0 110023710.9787904 5273153.835710306 5273153.835710306 7519810.066991922 0 0 0 0 0 109836747.4512617 5173231.70740742 5173231.70740742 6582464.860451593 0 0 0 0 0 109967852.7796326 5096660.042324986 5096660.042324986 5451457.55428395 0 0 0 0 0 109696806.0181416 4786994.843500921 4786994.843500921 4081681.576499905 0 0 0 0 0 109790149.0141349 4606592.577153391 4606592.577153391 3143253.36642311 0 0 0 0 0 109855328.1424955 4384446.343281259 4384446.343281259 2249520.865951551 0 0 0 0 0 109900933.4620795 4105124.112553718 4105124.112553718 1440832.644300081 0 0 0 0 0 109921975.6614158 3827290.923471855 3827290.923471855 708668.5415166469 0 0 0 0 0 109808152.4601723 3413960.07826877 3413960.07826877 -309950.5234532683 0 0 0 0 0 109790473.2116911 3091754.80756761 3091754.80756761 -843451.987279188 0 0 0 0 0 103024044.447096 -7628222.222023835 -7628222.222023835 -7646289.925740008 0 0 0 0 0 103848511.6550146 -7143404.065365551 -7143404.065365551 -7777263.713233652 0 0 0 0 0 104673825.2162192 -6613026.946918716 -6613026.946918716 -7848533.148947962 0 0 0 0 0 105451264.8636891 -6039227.471423 -6039227.471423 -7857322.219705865 0 0 0 0 0 106185261.760365 -5429085.664974928 -5429085.664974928 -7800506.100417804 0 0 0 0 0 106868530.9926606 -4789394.946697237 -4789394.946697237 -7676370.208087389 0 0 0 0 0 107495934.4723298 -4127216.243977159 -4127216.243977159 -7484244.97025547 0 0 0 0 0 108062166.5341012 -3450133.000210602 -3450133.000210602 -7224515.601586876 0 0 0 0 0 108563899.1548619 -2765412.592581983 -2765412.592581983 -6898055.297136763 0 0 0 0 0 108998037.8684914 -2080916.005430841 -2080916.005430841 -6507931.443218773 0 0 0 0 0 109362999.662204 -1403903.077408465 -1403903.077408465 -6058142.701719705 0 0 0 0 0 109658659.5950821 -741441.9452939915 -741441.9452939915 -5553944.608569004 0 0 0 0 0 109884440.708993 -102330.5245482216 -102330.5245482216 -4998651.868083448 0 0 0 0 0 110043221.3194414 506385.4590415236 506385.4590415236 -4397596.307602227 0 0 0 0 0 110148981.7586441 1078726.097209669 1078726.097209669 -3781565.144902428 0 0 0 0 0 110192958.4384466 1622723.513822084 1622723.513822084 -3106596.033945574 0 0 0 0 0 110065809.2968367 2091747.99950394 2091747.99950394 -2485176.68170555 0 0 0 0 0 109913536.1244676 2447463.586322958 2447463.586322958 -2056714.266417179 0 0 0 0 0 102367893.7760039 -7782696.221910334 -7782696.221910334 -7116671.277781672 0 0 0 0 0 100691913.8395249 -8191600.843906569 -8191600.843906569 -6007033.332221201 0 0 0 0 0 100634212.665891 -8171099.175365474 -8171099.175365474 -6547998.95169025 0 0 0 0 0 109773130.9217236 834864.2765431008 834864.2765431008 17617084.34532667 0 0 0 0 0 109520709.2602961 1351087.429575833 1351087.429575833 17244296.56992964 0 0 0 0 0 109454780.1398311 1024861.595567096 1024861.595567096 17245348.22288614 0 0 0 0 0 109569687.8308157 4919424.760416475 4919424.760416475 5030686.555363552 0 0 0 0 0 109808152.4601723 3413960.07826877 3413960.07826877 -309950.5234532683 0 0 0 0 0 110115237.801175 2702409.293400255 2702409.293400255 -1515453.931938225 0 0 0 0 0 102705911.7684455 -7506210.354117644 -7506210.354117644 -7381918.500229692 0 0 0 0 0 101397606.6849599 -7916644.895316229 -7916644.895316229 -6844191.520339119 0 0 0 0 0 109378441.9429317 1925023.050791793 1925023.050791793 16611156.32608027 0 0 0 0 0 109291773.1899946 2533828.829373576 2533828.829373576 15859497.24404498 0 0 0 0 0 109238513.8684727 3098272.627731611 3098272.627731611 15012602.33018366 0 0 0 0 0 109194864.3023553 3585309.68791272 3585309.68791272 14094170.99742457 0 0 0 0 0 109094152.3365869 423219.8885045862 423219.8885045862 16918630.27921395 0 0 0 0 0 109215055.8002441 4001292.837501758 4001292.837501758 13160143.59489669 0 0 0 0 0 109241288.1927893 4344704.499874843 4344704.499874843 12145689.0152607 0 0 0 0 0 109303433.8832038 4656709.994304365 4656709.994304365 11239417.70080414 0 0 0 0 0 109340492.3124014 4845020.59193192 4845020.59193192 10062615.06311254 0 0 0 0 0 109444296.1533502 5066336.034958092 5066336.034958092 8478106.787398437 0 0 0 0 0 109610196.0767159 5179919.883064168 5179919.883064168 7608456.75280512 0 0 0 0 0 109425637.935734 4986184.595963301 4986184.595963301 6027315.54362755 0 0 0 0 0 109569687.8308157 4919424.760416475 4919424.760416475 5030686.555363552 0 0 0 0 0 109790149.0141349 4606592.577153391 4606592.577153391 3143253.36642311 0 0 0 0 0 109855328.1424955 4384446.343281259 4384446.343281259 2249520.865951551 0 0 0 0 0 109900933.4620795 4105124.112553718 4105124.112553718 1440832.644300081 0 0 0 0 0 109900933.4620795 4105124.112553718 4105124.112553718 1440832.644300081 0 0 0 0 0 109790473.2116911 3091754.80756761 3091754.80756761 -843451.987279188 0 0 0 0 0 109677964.406286 2725494.387008229 2725494.387008229 -1529711.0477365 0 0 0 0 0 103466135.6746955 -7062558.301844926 -7062558.301844926 -7484561.741739785 0 0 0 0 0 104261253.9251631 -6573573.417413418 -6573573.417413418 -7571935.936258338 0 0 0 0 0 105004858.7009302 -6042202.017693842 -6042202.017693842 -7604000.755781611 0 0 0 0 0 105715605.8586191 -5475514.701857434 -5475514.701857434 -7576532.042281471 0 0 0 0 0 106381474.779523 -4878978.429633679 -4878978.429633679 -7487086.400178852 0 0 0 0 0 106997628.7717055 -4258757.172167142 -4258757.172167142 -7334494.651824494 0 0 0 0 0 107559046.9458401 -3621249.19364578 -3621249.19364578 -7118752.606020672 0 0 0 0 0 108061520.0229488 -2973830.888179318 -2973830.888179318 -6840489.62954782 0 0 0 0 0 108501909.3294281 -2323267.684718943 -2323267.684718943 -6500359.780580524 0 0 0 0 0 108878484.2623652 -1676416.410773322 -1676416.410773322 -6103218.688101098 0 0 0 0 0 109191010.1079548 -1039829.663524931 -1039829.663524931 -5650982.814610509 0 0 0 0 0 109438613.3610089 -419164.448562154 -419164.448562154 -5153464.27103901 0 0 0 0 0 109623431.5082243 168671.4142622418 168671.4142622418 -4614213.91749232 0 0 0 0 0 109772286.5823809 727175.7175267953 727175.7175267953 -4022601.976683854 0 0 0 0 0 109855450.0037726 1245812.07878106 1245812.07878106 -3452636.153020421 0 0 0 0 0 109619936.3433166 1715572.033588221 1715572.033588221 -2865952.244512421 0 0 0 0 0 109887033.8364446 2302742.509136048 2302742.509136048 -2014122.03604912 0 0 0 0 0 103387575.3209654 -7196670.750605321 -7196670.750605321 -6945968.713167164 0 0 0 0 0 101911457.3130759 -7419162.007020724 -7419162.007020724 -6732535.494669251 0 0 0 0 0 101357175.2842535 -7753036.563527477 -7753036.563527477 -6078039.821805167 0 0 0 0 0 101259369.6534307 -7689061.03346892 -7689061.03346892 -6652494.553585299 0 0 0 0 0 109098114.2659989 820859.8557134024 820859.8557134024 16838608.03887941 0 0 0 0 0 108883434.9064699 1359896.53860095 1359896.53860095 16340685.3652785 0 0 0 0 0 108808793.8171775 997090.13070263 997090.13070263 16512202.66352641 0 0 0 0 0 109234101.9019018 4915709.288601921 4915709.288601921 9390598.998256685 0 0 0 0 0 109254198.2865772 5000208.656764379 5000208.656764379 7014071.335701156 0 0 0 0 0 109425637.935734 4986184.595963301 4986184.595963301 6027315.54362755 0 0 0 0 0 109554991.8956106 2348731.886813143 2348731.886813143 -2091292.714095085 0 0 0 0 0 103141033.603242 -6958364.255931386 -6958364.255931386 -7177470.29412798 0 0 0 0 0 108791151.1770141 1967413.4431974 1967413.4431974 15847566.46923786 0 0 0 0 0 108756336.514032 2546548.98247745 2546548.98247745 15126566.99244314 0 0 0 0 0 108658664.8282425 3060986.671485391 3060986.671485391 14287008.33374006 0 0 0 0 0 108709777.1807189 3530628.099343511 3530628.099343511 13529637.17878941 0 0 0 0 0 108492709.278608 384023.7348031444 384023.7348031444 16156087.23623342 0 0 0 0 0 108777230.5105273 3947970.255795375 3947970.255795375 12682472.65678563 0 0 0 0 0 108804606.1939752 4423440.446465896 4423440.446465896 11682651.54969503 0 0 0 0 0 109118284.8586924 4769321.856161929 4769321.856161929 10896050.00548615 0 0 0 0 0 108669479.9082367 4614780.212580642 4614780.212580642 9955731.948525252 0 0 0 0 0 108858367.0121691 4813934.133363972 4813934.133363972 8948953.474274825 0 0 0 0 0 109072527.2403029 4933412.534681478 4933412.534681478 8022255.168415612 0 0 0 0 0 109254198.2865772 5000208.656764379 5000208.656764379 7014071.335701156 0 0 0 0 0 103884080.9584887 -6523574.903415259 -6523574.903415259 -7296498.272568728 0 0 0 0 0 104586730.6434048 -6031044.924789663 -6031044.924789663 -7350842.042474224 0 0 0 0 0 105275519.6786787 -5503908.623990765 -5503908.623990765 -7349374.569528095 0 0 0 0 0 105924251.9549272 -4947789.582570882 -4947789.582570882 -7290423.852126987 0 0 0 0 0 106527714.9777163 -4367328.655895285 -4367328.655895285 -7172526.904812236 0 0 0 0 0 107081713.4068646 -3768003.190328612 -3768003.190328612 -6995724.408897731 0 0 0 0 0 107582804.3741656 -3155974.563435159 -3155974.563435159 -6760520.048889102 0 0 0 0 0 108027554.5759232 -2538261.793508223 -2538261.793508223 -6467234.739610066 0 0 0 0 0 108412480.0260096 -1921698.618591634 -1921698.618591634 -6117815.716030339 0 0 0 0 0 108739404.0991194 -1311184.753730352 -1311184.753730352 -5716046.968638538 0 0 0 0 0 109007400.7350851 -716054.7234917595 -716054.7234917595 -5259732.629682802 0 0 0 0 0 109198721.3641956 -128154.0687133943 -128154.0687133943 -4797887.395220847 0 0 0 0 0 109383269.4345942 413034.5065824091 413034.5065824091 -4285216.378970907 0 0 0 0 0 109468106.9991594 910560.7628425595 910560.7628425595 -3702543.565615907 0 0 0 0 0 109377450.0375469 1289513.838207326 1289513.838207326 -3445469.660362222 0 0 0 0 0 109794482.2092254 1905759.090570237 1905759.090570237 -2557365.910171024 0 0 0 0 0 109398333.4869599 1985934.376834755 1985934.376834755 -2611508.018811557 0 0 0 0 0 102901755.2760219 -6808226.975690841 -6808226.975690841 -6940239.146200653 0 0 0 0 0 101863324.607715 -7199070.644681544 -7199070.644681544 -6601462.461330746 0 0 0 0 0 101959418.5575477 -7271688.184536998 -7271688.184536998 -6114947.892228398 0 0 0 0 0 108485509.3020693 794388.2801926401 794388.2801926401 16028298.90626871 0 0 0 0 0 108258356.1095736 1342083.728403126 1342083.728403126 15602066.95513047 0 0 0 0 0 108253547.8142122 935757.3463448726 935757.3463448726 15772800.87819192 0 0 0 0 0 109072527.2403029 4933412.534681478 4933412.534681478 8022255.168415612 0 0 0 0 0 109231864.5910867 1577953.730729101 1577953.730729101 -3018423.567122301 0 0 0 0 0 103496330.4457054 -6460062.884940452 -6460062.884940452 -7031060.81329047 0 0 0 0 0 102519653.6968806 -7013667.685485214 -7013667.685485214 -6758567.542215907 0 0 0 0 0 108358081.4979758 2075233.505332515 2075233.505332515 15287699.64084707 0 0 0 0 0 108263598.88466 2523274.200425661 2523274.200425661 14270641.5367762 0 0 0 0 0 108226858.9889723 3064746.810742553 3064746.810742553 13736753.96593241 0 0 0 0 0 108348641.9755141 3595500.555863976 3595500.555863976 13064645.52907415 0 0 0 0 0 107923874.8355763 343632.862462175 343632.862462175 15453835.77584309 0 0 0 0 0 108565631.8962626 4042562.569682785 4042562.569682785 12391163.67877292 0 0 0 0 0 108473483.2570003 4374811.391864433 4374811.391864433 10902127.99596682 0 0 0 0 0 108669479.9082367 4614780.212580642 4614780.212580642 9955731.948525252 0 0 0 0 0 108858367.0121691 4813934.133363972 4813934.133363972 8948953.474274825 0 0 0 0 0 104189771.4730042 -6002800.133719027 -6002800.133719027 -7099741.247159617 0 0 0 0 0 104864555.8715882 -5515798.716012366 -5515798.716012366 -7120956.426992609 0 0 0 0 0 105494766.5946967 -4997968.945271507 -4997968.945271507 -7089366.706003061 0 0 0 0 0 106084992.9299941 -4455212.870048449 -4455212.870048449 -7001684.719350952 0 0 0 0 0 106630080.3147598 -3892480.768698202 -3892480.768698202 -6859046.77591436 0 0 0 0 0 107126932.0785606 -3314961.3644371 -3314961.3644371 -6661824.109057084 0 0 0 0 0 107572500.4972633 -2728674.84787883 -2728674.84787883 -6411882.560174832 0 0 0 0 0 107962744.3418849 -2139736.996758031 -2139736.996758031 -6109081.130176377 0 0 0 0 0 108300839.2010039 -1555767.832463233 -1555767.832463233 -5751920.485691495 0 0 0 0 0 108590042.4520566 -983885.6233580861 -983885.6233580861 -5350196.213744259 0 0 0 0 0 108806040.1355901 -413155.605122585 -413155.605122585 -4853982.135959263 0 0 0 0 0 108882240.9053918 89769.77844825464 89769.77844825464 -4480172.838552012 0 0 0 0 0 109234943.1545176 611499.2181990809 611499.2181990809 -3869933.963942213 0 0 0 0 0 109278457.2856314 1082683.541209767 1082683.541209767 -3404811.832757405 0 0 0 0 0 109231864.5910867 1577953.730729101 1577953.730729101 -3018423.567122301 0 0 0 0 0 102807446.3199871 -6670099.293575265 -6670099.293575265 -6425699.48360443 0 0 0 0 0 103248483.5006813 -6324074.367243238 -6324074.367243238 -6732836.401724287 0 0 0 0 0 102503268.5849984 -6804687.47651906 -6804687.47651906 -6119566.040388494 0 0 0 0 0 102443166.4607836 -6758615.029853825 -6758615.029853825 -6571603.966372436 0 0 0 0 0 107927222.3055678 726559.663154032 726559.663154032 15177488.71362786 0 0 0 0 0 107849296.2267123 1970383.753737616 1970383.753737616 14893228.66985976 0 0 0 0 0 107709131.5923755 805215.6909911446 805215.6909911446 15227865.91402006 0 0 0 0 0 108257691.1242001 4039394.377577715 4039394.377577715 11712617.98699462 0 0 0 0 0 108473483.2570003 4374811.391864433 4374811.391864433 10902127.99596682 0 0 0 0 0 108997213.374613 1156088.217841627 1156088.217841627 -3515648.547566843 0 0 0 0 0 103854154.7808559 -5962224.910393748 -5962224.910393748 -6857953.525825456 0 0 0 0 0 108098695.2061558 2546220.770373144 2546220.770373144 14638328.38644437 0 0 0 0 0 107736025.6994203 2708587.552802388 2708587.552802388 13820200.18365713 0 0 0 0 0 107873532.1725463 3192671.272388831 3192671.272388831 13150974.07345777 0 0 0 0 0 108052319.3161769 3647508.377023436 3647508.377023436 12454888.64943023 0 0 0 0 0 107454067.5667964 317542.4487721708 317542.4487721708 14740962.10753687 0 0 0 0 0 108257691.1242001 4039394.377577715 4039394.377577715 11712617.98699462 0 0 0 0 0 104489907.2712372 -5517525.122144222 -5517525.122144222 -6893917.037327716 0 0 0 0 0 105095898.9503897 -5032852.494352336 -5032852.494352336 -6882846.702545856 0 0 0 0 0 105668190.7692681 -4524093.063836399 -4524093.063836399 -6825036.023060584 0 0 0 0 0 106203278.7302159 -3996682.142204827 -3996682.142204827 -6712446.023187075 0 0 0 0 0 106694516.6895193 -3453042.64266395 -3453042.64266395 -6548025.203555146 0 0 0 0 0 107139991.3190775 -2899476.942377948 -2899476.942377948 -6332290.156247452 0 0 0 0 0 107536855.0380152 -2343606.498480232 -2343606.498480232 -6066124.422684493 0 0 0 0 0 107865862.2086819 -1783838.463886106 -1783838.463886106 -5755844.692020516 0 0 0 0 0 108230184.5077584 -1246563.923914453 -1246563.923914453 -5366269.571078423 0 0 0 0 0 108496952.6622767 -706137.2125327062 -706137.2125327062 -4906382.074785412 0 0 0 0 0 108588197.5065209 -51025.55987651195 -51025.55987651195 -4648088.403128183 0 0 0 0 0 108798962.5668542 351380.9483298309 351380.9483298309 -4358493.261456829 0 0 0 0 0 108979442.6106568 681264.5610561908 681264.5610561908 -3756902.844376192 0 0 0 0 0 108757796.0054574 773104.308256559 773104.308256559 -3901873.630021738 0 0 0 0 0 102860871.2859951 -6268604.470547111 -6268604.470547111 -6498415.975017806 0 0 0 0 0 103495108.8102769 -5900436.892731085 -5900436.892731085 -6611507.44015174 0 0 0 0 0 103004361.4232541 -6350100.874301881 -6350100.874301881 -6090617.771451132 0 0 0 0 0 107386701.9018985 955688.627817179 955688.627817179 14807901.26215351 0 0 0 0 0 107585096.17392 2168203.079619847 2168203.079619847 14253722.71420255 0 0 0 0 0 107319856.6997058 306213.8351911987 306213.8351911987 14834293.95566736 0 0 0 0 0 108052319.3161769 3647508.377023436 3647508.377023436 12454888.64943023 0 0 0 0 0 104117743.6927162 -5503533.113448889 -5503533.113448889 -6682440.396157627 0 0 0 0 0 107873532.1725463 3192671.272388831 3192671.272388831 13150974.07345777 0 0 0 0 0 107873532.1725463 3192671.272388831 3192671.272388831 13150974.07345777 0 0 0 0 0 107454007.1385667 1549491.79141077 1549491.79141077 14539988.86204001 0 0 0 0 0 107319856.6997058 306213.8351911987 306213.8351911987 14834293.95566736 0 0 0 0 0 104721706.060279 -5057703.836425447 -5057703.836425447 -6684360.268207838 0 0 0 0 0 105286113.3223144 -4576153.469168424 -4576153.469168424 -6642040.285455014 0 0 0 0 0 105800793.2859597 -4081781.060066353 -4081781.060066353 -6559331.347450081 0 0 0 0 0 106283887.0069074 -3569840.930242469 -3569840.930242469 -6425552.648413908 0 0 0 0 0 106728031.8734831 -3046817.62876775 -3046817.62876775 -6243607.909377632 0 0 0 0 0 107125089.868963 -2516150.358875382 -2516150.358875382 -6017567.259871677 0 0 0 0 0 107476447.3716484 -1975273.045889598 -1975273.045889598 -5730528.36938592 0 0 0 0 0 107700422.9864471 -1520205.001117872 -1520205.001117872 -5464850.228663734 0 0 0 0 0 108156058.1275136 -1013495.366290082 -1013495.366290082 -5054262.551053641 0 0 0 0 0 108310259.5472593 -548980.7978366676 -548980.7978366676 -4687168.543452508 0 0 0 0 0 108511647.8935598 408543.188807831 408543.188807831 -4194449.302970588 0 0 0 0 0 108511647.8935598 408543.188807831 408543.188807831 -4194449.302970588 0 0 0 0 0 103239975.344208 -5803443.176058897 -5803443.176058897 -6431299.531101543 0 0 0 0 0 103418197.4958136 -5917790.601158109 -5917790.601158109 -6044998.898575914 0 0 0 0 0 103821324.9402904 -5452960.3887694 -5452960.3887694 -6519476.034104669 0 0 0 0 0 107585096.17392 2168203.079619847 2168203.079619847 14253722.71420255 0 0 0 0 0 107454007.1385667 1549491.79141077 1549491.79141077 14539988.86204001 0 0 0 0 0 107386701.9018985 955688.627817179 955688.627817179 14807901.26215351 0 0 0 0 0 107454007.1385667 1549491.79141077 1549491.79141077 14539988.86204001 0 0 0 0 0 108250012.498207 37046.32258663687 37046.32258663687 -4433803.333688067 0 0 0 0 0 104366565.296163 -5066709.947766036 -5066709.947766036 -6545007.312578119 0 0 0 0 0 104932275.4616257 -4629783.165973906 -4629783.165973906 -6478486.520050126 0 0 0 0 0 105438611.9792563 -4147950.817565484 -4147950.817565484 -6405867.252823389 0 0 0 0 0 105898658.8573446 -3667348.482197549 -3667348.482197549 -6295075.495454366 0 0 0 0 0 106338186.1357301 -3175708.078037536 -3175708.078037536 -6141259.042546261 0 0 0 0 0 106735656.2814339 -2674212.536477167 -2674212.536477167 -5941330.30665541 0 0 0 0 0 107087096.5880156 -2171516.021927535 -2171516.021927535 -5700940.265110346 0 0 0 0 0 107544273.3867941 -1533302.394571064 -1533302.394571064 -5487768.307446276 0 0 0 0 0 107797867.8435108 -1213151.01834409 -1213151.01834409 -5403428.134283526 0 0 0 0 0 107985663.7262213 -887026.1889637067 -887026.1889637067 -4862892.613188804 0 0 0 0 0 108098486.3292099 -452146.0186538828 -452146.0186538828 -4493515.698352505 0 0 0 0 0 108250012.498207 37046.32258663687 37046.32258663687 -4433803.333688067 0 0 0 0 0 103611368.9128387 -5345363.728760684 -5345363.728760684 -6302306.522785205 0 0 0 0 0 103804324.4589764 -5468692.81227981 -5468692.81227981 -5968447.475838894 0 0 0 0 0 104137813.4349325 -5009045.606153977 -5009045.606153977 -6376410.783375716 0 0 0 0 0 107955339.6563718 -335177.3427024655 -335177.3427024655 -4689860.385525032 0 0 0 0 0 104590554.4925962 -4642276.977400698 -4642276.977400698 -6382127.044315353 0 0 0 0 0 105141759.6136608 -4205981.513101798 -4205981.513101798 -6131073.118101673 0 0 0 0 0 105520648.9755241 -3757811.482674689 -3757811.482674689 -6147242.34828709 0 0 0 0 0 105963617.9563872 -3281898.62295844 -3281898.62295844 -6035188.305656585 0 0 0 0 0 106360855.3428209 -2808693.078827959 -2808693.078827959 -5865447.763145342 0 0 0 0 0 106718286.1817224 -2321258.872660014 -2321258.872660014 -5644590.635891114 0 0 0 0 0 107018654.9428009 -1823811.473683679 -1823811.473683679 -5362755.705142126 0 0 0 0 0 107616710.5321596 -1090387.788394173 -1090387.788394173 -5178462.602745869 0 0 0 0 0 107785541.5308644 -806840.6506457335 -806840.6506457335 -4680648.549711391 0 0 0 0 0 107657356.871094 -685595.5055536675 -685595.5055536675 -4874920.146953537 0 0 0 0 0 104124377.1525778 -5039531.519969085 -5039531.519969085 -5876067.946488492 0 0 0 0 0 103931166.6944527 -4916909.696448395 -4916909.696448395 -6170597.38409889 0 0 0 0 0 104430219.6755167 -4583146.341809727 -4583146.341809727 -6191534.986964456 0 0 0 0 0 107125029.5689174 -1442774.698468222 -1442774.698468222 -5298269.124653332 0 0 0 0 0 104946983.9017381 -4272517.688084884 -4272517.688084884 -6234793.452423984 0 0 0 0 0 105172089.6424039 -3845858.275984275 -3845858.275984275 -6072495.34724723 0 0 0 0 0 105587977.038516 -3376796.588257233 -3376796.588257233 -5926025.870726397 0 0 0 0 0 105997285.3217206 -2929817.242100644 -2929817.242100644 -5780257.327478654 0 0 0 0 0 106375672.1601271 -2468842.69185444 -2468842.69185444 -5577224.339717715 0 0 0 0 0 106687080.8388264 -1992315.924175883 -1992315.924175883 -5313998.340024132 0 0 0 0 0 107036256.0616536 -1344555.142925029 -1344555.142925029 -5127070.875457358 0 0 0 0 0 107349009.1102039 -1024163.906988651 -1024163.906988651 -5023675.212664657 0 0 0 0 0 107349009.1102039 -1024163.906988651 -1024163.906988651 -5023675.212664657 0 0 0 0 0 104416091.84581 -4622692.38097882 -4622692.38097882 -5760073.843629027 0 0 0 0 0 104206446.0626091 -4490271.188684797 -4490271.188684797 -6034463.590019765 0 0 0 0 0 104645561.6346976 -4156228.991298597 -4156228.991298597 -6066960.702984515 0 0 0 0 0 105294367.1773518 -3437386.04097712 -3437386.04097712 -5807642.599072417 0 0 0 0 0 105633827.3502184 -3036344.142624145 -3036344.142624145 -5686913.815627535 0 0 0 0 0 106032382.9466137 -2616636.589628181 -2616636.589628181 -5489322.83643523 0 0 0 0 0 106380791.7928563 -2180991.795124355 -2180991.795124355 -5262089.602984345 0 0 0 0 0 106660826.9505131 -1725651.491233734 -1725651.491233734 -4991593.921443149 0 0 0 0 0 107036256.0616536 -1344555.142925029 -1344555.142925029 -5127070.875457358 0 0 0 0 0 104945458.7666334 -3775979.309901678 -3775979.309901678 -5897266.082873911 0 0 0 0 0 104661012.471238 -4214599.373069543 -4214599.373069543 -5629433.006759692 0 0 0 0 0 104421581.9321728 -4061192.764964027 -4061192.764964027 -5869697.741058519 0 0 0 0 0 106727587.8554325 -1599566.576295132 -1599566.576295132 -5167134.637224605 0 0 0 0 0 105391263.2934278 -3107733.939758796 -3107733.939758796 -5553563.48072829 0 0 0 0 0 105178314.5444378 -3467288.883455634 -3467288.883455634 -5566013.582242986 0 0 0 0 0 105655941.9201584 -2753397.630146742 -2753397.630146742 -5454002.455329143 0 0 0 0 0 106068665.6857049 -2379249.428869975 -2379249.428869975 -5232492.839666324 0 0 0 0 0 106333266.0703802 -1970325.081380293 -1970325.081380293 -5021953.207631716 0 0 0 0 0 106405695.3624906 -1858537.837246116 -1858537.837246116 -5211319.033977439 0 0 0 0 0 104646052.9964861 -3648652.27387711 -3648652.27387711 -5580624.129553135 0 0 0 0 0 104844039.336819 -3819776.16130743 -3819776.16130743 -5491969.287689134 0 0 0 0 0 105524824.8990357 -2739280.417295859 -2739280.417295859 -5405434.314008497 0 0 0 0 0 105278724.0248722 -3175301.126503775 -3175301.126503775 -5497754.868302229 0 0 0 0 0 105876190.9551886 -2481168.312244205 -2481168.312244205 -5414620.079929098 0 0 0 0 0 106019586.9520698 -2210187.491273391 -2210187.491273391 -5037199.329143863 0 0 0 0 0 106076013.6401331 -2106499.012665765 -2106499.012665765 -5250626.182261316 0 0 0 0 0 104965512.4916161 -3486486.838519367 -3486486.838519367 -5350712.127988984 0 0 0 0 0 104760083.3016484 -3372068.965836458 -3372068.965836458 -5538063.302682564 0 0 0 0 0 105273270.2846466 -2921778.432236436 -2921778.432236436 -5326086.339859183 0 0 0 0 0 105751642.880772 -2343020.64657071 -2343020.64657071 -5249829.686646058 0 0 0 0 0 104911317.3339094 -3021583.009780546 -3021583.009780546 -5305849.952180169 0 0 0 0 0 105751642.880772 -2343020.64657071 -2343020.64657071 -5249829.686646058 0 0 0 0 0 105109368.5262234 -3126486.987027225 -3126486.987027225 -5183431.375870559 0 0 0 0 0 105266316.7522716 -2662029.281644244 -2662029.281644244 -5059245.024631505 0 0 0 0 0 105433484.9044776 -2576951.265459512 -2576951.265459512 -5213663.937935204 0 0 0 0 0 105176504.348893 -2807613.907607628 -2807613.907607628 -5022616.290864834 0 0 0 0 0 105114027.760037 -2749981.608412118 -2749981.608412118 -5174202.527592206 0 0 0 0 0 105114027.760037 -2749981.608412118 -2749981.608412118 -5174202.527592206 0 0 0 0 0 105114027.760037 -2749981.608412118 -2749981.608412118 -5174202.527592206 0 0 0 0 0 </DataArray>
      </PointData>
    </Piece>
  </UnstructuredGrid>
</VTKFile>
