<?xml version="1.0"?>
<VTKFile type="UnstructuredGrid" version="2.2">
  <UnstructuredGrid>
    <Piece NumberOfPoints="7058" NumberOfCells="13804">
      <Points>
        <DataArray type="Float64" NumberOfComponents="3" format="ascii">0.9875925925925668 0 0 1 0 0 0.9909330519583092 0.009092035120655317 0 1 0.01249999999997642 0 0.981236087833541 0.009384804023422708 0 0.9880515345541606 0.01848938527275309 0 0.9751851851851336 0 0 1 0.02499999999995287 0 0.9689358255354583 0.01015806840449193 0 0.9747007252876962 0.01778140908164611 0 0.9898047665715467 0.03135447436118231 0 0.9627777777777005 0 0 0.9786036581237504 0.02764756447729527 0 1 0.03749999999992728 0 0.9559751956350334 0.01092001010571287 0 0.962777777777692 0.01740999414888824 0 0.9674367641477275 0.02525660513613909 0 0.9905461975052235 0.04376583944109863 0 1 0.04999999999989965 0 0.9808337364603431 0.0395283297232995 0 0.950370370370224 0 0 0.9702346027593478 0.03619517821620231 0 0.9898969123290963 0.0562471489765464 0 1 0.06249999999987325 0 0.9442929485423838 0.00856842592302362 0 0.9557746443352786 0.02280619297906341 0 0.9585202131458016 0.03407231739277096 0 0.9826664106061109 0.04999425894105669 0 0.9894765352394789 0.0684380139705313 0 1 0.07499999999985282 0 0.9731467831960799 0.04821266290296181 0 0.9379629629627908 0 0 0.9446345804604215 0.0190773717571234 0 0.9616802182419637 0.04595372140219305 0 0.9782823802273823 0.06030217706090735 0 0.989451985183032 0.08050744408867089 0 0.9325216332834495 0.01284474775228183 0 0.9465170804786112 0.03069153537648504 0 0.9496934608109858 0.04256781341738092 0 0.9795050742281742 0.07337817575351858 0 1 0.08749999999983374 0 0.9652162332542844 0.05720512920597365 0 0.9255555555553578 0 0 0.9345170634489889 0.02719558348064075 0 0.953093815431172 0.05405921440616954 0 0.9685460058097899 0.06909536582968334 0 0.98728369388849 0.09382659378260867 0 0.9805226442312183 0.08514170609006395 0 1 0.09999999999981467 0 1 0.1124999999997956 0 0.988993737660691 0.107078473770018 0 0.9184213778043754 0.01153481073425222 0 0.9223932260857072 0.02381901809360759 0 0.9376425683520706 0.0390984544005625 0 0.9410785227986793 0.05075649555879436 0 0.9720472864038698 0.08087326889897072 0 0.9894886508945546 0.1189207605968316 0 1 0.1249999999997738 0 0.9565481966193201 0.06560763363392677 0 0.9131481481478814 0 0 0.925639432542712 0.03591922197275709 0 0.9445312594534674 0.06233595697900492 0 0.9599378992065449 0.0775170992494431 0 0.9751463397801405 0.09296133503299653 0 0.9776850130671995 0.1037319287169659 0 0.9810986690084555 0.1134226928074858 0 0.9892291597290137 0.1312762650808165 0 1 0.13749999999974 0 1 0.1499999999997036 0 0.9891738418632859 0.1437446394041732 0 0.9055302637531844 0.01013025364358556 0 0.9103058984467449 0.02099397219756099 0 0.9137203866696026 0.03267443668551233 0 0.9290557275790026 0.04757911449155537 0 0.9325145141084108 0.05916486362217102 0 0.9631498160570073 0.08951087246383714 0 0.979397463887002 0.1233896481180298 0 0.9892504408890122 0.1561987623495273 0 1 0.1624999999996672 0 0.9480237354019692 0.07416040309348571 0 0.9007407407404482 0 0 0.9168131675569479 0.04450612865745524 0 0.9360190899573584 0.07083238510343604 0 0.9511626858069369 0.08608459361904336 0 0.9662588571852965 0.1010948051681662 0 0.9699284795328293 0.1139926528355835 0 0.976601407186647 0.1359404142796009 0 0.9782682008692027 0.1499161975483909 0 0.9897133697830596 0.1685239443939478 0 0.8933901096606934 0.009436185767582535 0 0.8983317591691568 0.01883746530513343 0 0.901748855600996 0.02934017175846439 0 0.9047869272022201 0.04131532278892425 0 0.9204682368485957 0.0561906632175497 0 0.9239884312344803 0.06761082729229748 0 0.9544733516146071 0.09751690898054755 0 0.9697733599214358 0.1253958683314178 0 0.9801423743827566 0.1626564265440821 0 1 0.1749999999996307 0 0.9391166733407588 0.08287876936488041 0 0.888333333333015 0 0 0.9075625081884329 0.05302522005073664 0 0.9271212373438831 0.07951631679725185 0 0.9424154799986048 0.09458456432262143 0 0.9578887843158184 0.1088935957016878 0 0.9604213594695432 0.1209516685858275 0 0.9637488134955779 0.1332447003665467 0 0.9668432489893313 0.1450780233889703 0 0.9694748409806534 0.1575501707360291 0 0.9887236713352245 0.1815698909046032 0 0.9815957922829862 0.1736451256453342 0 1 0.1874999999995943 0 1 0.1999999999995579 0 0.9917067147210873 0.1933253362578645 0 0.8820492215323276 0.01040767815824815 0 0.8881822481868983 0.01734674085947167 0 0.8900261939104377 0.0265654930978181 0 0.8928815704064417 0.03804595475483823 0 0.8959456775599459 0.05005331225609171 0 0.9116768085669851 0.06446485117555396 0 0.9151380011147323 0.07617171312700985 0 0.9457678288718874 0.1059278755140931 0 0.972345776376434 0.1703066898120533 0 0.9898709704448465 0.204079847391841 0 1 0.2124999999995214 0 0.9303062095295664 0.09130389552697694 0 0.875925925925582 0 0 0.8992435267085452 0.06163480385399679 0 0.9182124172746597 0.08822117360001572 0 0.9336464510150875 0.1029160467118642 0 0.9491352145597054 0.1175148515779027 0 0.9521480277453472 0.1295003702523354 0 0.9551291464185283 0.1416041482711985 0 0.9581404898409531 0.1535170980812285 0 0.961327897107856 0.1658553447910809 0 0.9759598231186992 0.1812555885386402 0 0.9799389318253646 0.1934769429937261 0 0.9870483146808404 0.2170972481048149 0 1 0.224999999999485 0 1 0.2374999999994486 0 1 0.2499999999994121 0 0.9905152135261781 0.2438876644996173 0 0.9889921728723442 0.231193340274281 0 0.8702405722340274 0.011531837055926 0 0.877844606903756 0.02226596653373714 0 0.8809179770894183 0.03471233857925928 0 0.8840098104483458 0.04675260891877209 0 0.8870381422747037 0.05872508367786608 0 0.9028083493450056 0.07325309054724662 0 0.9062819421074078 0.08493945212886217 0 0.9371640182278904 0.1144061874457897 0 0.9643517784558135 0.1782320640690351 0 0.9796819702083701 0.2062253615932715 0 0.9918555620461244 0.2542926600006307 0 1 0.2624999999993757 0 0.9214361268875795 0.09985788520371683 0 0.8635185185181053 0 0 0.8904296743161983 0.07028726541648578 0 0.909220561917982 0.09684906309385551 0 0.9247890425749956 0.1114158722579871 0 0.9401313853986293 0.1261505528583476 0 0.9432381347705594 0.1382318400904531 0 0.946345545599082 0.1503147613727666 0 0.9494520603245462 0.1623987734964817 0 0.9525600097629818 0.1744790571443514 0 0.9676037197905778 0.1899360837272812 0 0.9702491219827724 0.202146290668936 0 0.9737989535728304 0.2144719318057308 0 0.9770273005844251 0.2263178053566475 0 0.9796932749673897 0.2392893339806144 0 0.9824711672575361 0.2517369549139118 0 0.9863511236944368 0.2624426993898966 0 0.8579113845969051 0.01085327188741293 0 0.864397503238819 0.02106207911396456 0 0.8688199017079503 0.03182307588836912 0 0.8720376002424004 0.0434153808090714 0 0.8751310851660304 0.05545277394361064 0 0.8781492505836358 0.06741321202909975 0 0.8937591411734559 0.0820274561688385 0 0.897336349157667 0.09367221886646199 0 0.9281811679385444 0.1230396117987398 0 0.9556153663415873 0.1866346818405648 0 0.9907071581400868 0.2714043257512322 0 1 0.2749999999993392 0 0.9126216792674982 0.1084503313419016 0 0.8511111111106724 0 0 0.8814594790255257 0.07910042074120427 0 0.9003522197583887 0.1055977157049096 0 0.9157959407965486 0.1199765538843992 0 0.9312230053175014 0.1348821342870912 0 0.9343284893604789 0.1469639338093412 0 0.9374345574808611 0.1590472428606468 0 0.940540652812232 0.1711305601635155 0 0.9436472643011627 0.1832130180421512 0 0.958776328408956 0.1986505642636206 0 0.9618824497585378 0.2107367457293892 0 0.96494713030503 0.2228598147671519 0 0.9679751608141874 0.2347761396250608 0 0.9709608845551634 0.2472311371589359 0 0.9742265507593375 0.2594147824151704 0 0.9789870721579426 0.2724087443736974 0 0.9890874855468705 0.2821801686984516 0 1 0.2874999999993028 0 0.8445253332488828 0.01160751185067265 0 0.8529631393760325 0.01931322794384118 0 0.856898224356486 0.02832287142064789 0 0.8600669242578837 0.04007853497736866 0 0.8631601831611142 0.05211347914490796 0 0.8662414298949713 0.06413871242209747 0 0.8692582941563405 0.07605838033075382 0 0.8847748544409819 0.0908864166290575 0 0.8881402656565538 0.1024850490228694 0 0.9192104845974052 0.1315340673771106 0 0.9467530973300319 0.1952973037969496 0 0.9929472411220132 0.293749999999285 0 1 0.2999999999992664 0 0.9033630529511985 0.1171325952248282 0 0.8387037037032392 0 0 0.8723856594825417 0.0879297938729903 0 0.89136536183624 0.1142963245700891 0 0.9070289342543095 0.128626682007392 0 0.9223147815155404 0.1436121313825162 0 0.925422194734306 0.1556983023627169 0 0.9285239212359375 0.1677786667896079 0 0.9316291552240901 0.1798604881723186 0 0.934733745996543 0.191943487930654 0 0.9498576994511916 0.2073829610948395 0 0.9529632490178164 0.2194644893518062 0 0.9560755309010811 0.2315428106114506 0 0.9591832349912679 0.2436317457793029 0 0.9622893720528276 0.2557258806020916 0 0.9653953513767353 0.2678187565472777 0 0.9781177029811652 0.2840368429579503 0 0.9827039490530499 0.2936614009815051 0 0.9892425494578053 0.3063675491002046 0 1 0.3124999999992299 0 1 0.3249999999991935 0 0.989799902810292 0.3199385458385526 0 0.8306400280491431 0.009849342425880127 0 0.8450106993141278 0.02470841824516257 0 0.8480974540832851 0.03674279014046261 0 0.8511899809130148 0.04877572163608379 0 0.8542835871274909 0.06081103388065175 0 0.857376893712005 0.07285004833572314 0 0.8604728535914139 0.08489222189969534 0 0.875913610313791 0.09962048331554788 0 0.8792454578778974 0.1113040558850513 0 0.9103897615394085 0.1403565625848771 0 0.9378388600288449 0.2040278532185415 0 0.9685076097759421 0.2798889604286196 0 0.9713023983720215 0.292044940307478 0 0.9907948350437186 0.332242777623705 0 1 0.3374999999991571 0 0.8946788506737732 0.1257811933431336 0 0.826296296295737 0 0 0.8327697282498032 0.02232352842215449 0 0.8636441366198155 0.09660923507975627 0 0.8825151735801883 0.1229809769097979 0 0.8980903103380307 0.1374440140841023 0 0.9134210374308382 0.1523624691681859 0 0.9165103813821804 0.1644253701660036 0 0.9196141889421736 0.176507450517427 0 0.922718042318351 0.188589404957844 0 0.9258219162838723 0.2006725798178379 0 0.9409420654454181 0.2161107518850347 0 0.9440496505769886 0.2281954669072873 0 0.947158185177865 0.240277471045529 0 0.9502633948441698 0.2523672486982639 0 0.9533683719934709 0.2644556468199512 0 0.9564790362839998 0.2765300323923641 0 0.9750097940073998 0.3039142303983776 0 0.9781389094860351 0.3159738368217406 0 0.9803157198782249 0.3279776591991946 0 0.9904675417326658 0.3454132082219944 0 1 0.3499999999991206 0 1 0.3624999999990842 0 0.9888731005438072 0.3563942151107897 0 0.8202175922978169 0.008128506810177114 0 0.8214636635203771 0.01861825212683611 0 0.8360775745564659 0.03359086486237652 0 0.8392124566901226 0.04546944130100509 0 0.8423131067007567 0.0574722410558789 0 0.8454062360530843 0.06950827545684604 0 0.8484997073224397 0.08154803137773031 0 0.8515694444220601 0.09337722619708275 0 0.8671307293882835 0.1081215280737522 0 0.8705738837476247 0.1198325256426484 0 0.9014500754927851 0.1491898860801383 0 0.928925445662776 0.2127557395309249 0 0.9595920417790322 0.2886002912705489 0 0.9626978648350855 0.3006949017847034 0 0.9825579934254473 0.3385365599238172 0 0.989260738826057 0.3685474363198081 0 1 0.3749999999990478 0 0.88590676393516 0.1345595498599485 0 0.8138888888882863 0 0 0.824117422790658 0.03022902674855948 0 0.8550115561755101 0.1049786959938998 0 0.873666991799511 0.1317098183672355 0 0.8890874761327474 0.1461502106291242 0 0.9044995835966231 0.1610760139200082 0 0.9076018430574291 0.1731565966379497 0 0.9107034306437501 0.1852331789335172 0 0.9138073920800378 0.1973184509822529 0 0.9169102055923424 0.2094009345694108 0 0.932028483317908 0.224839103024328 0 0.9351353856174558 0.2369229095124617 0 0.9382403553588949 0.249008899838505 0 0.9413442847429639 0.2610931333993255 0 0.9444501863867306 0.2731730272127891 0 0.9475624680408605 0.2852457846484738 0 0.9657406991899588 0.3127831483267228 0 0.9687247915725302 0.3248618880673914 0 0.9720124173770699 0.3369833514257939 0 0.977595419224371 0.3493191496464361 0 0.9782687106800494 0.3623404462610403 0 0.9890784814155349 0.3814352090199269 0 0.8090490841471555 0.01246689066161025 0 0.8120502408167876 0.02661711879640604 0 0.82725217494166 0.04210148750845535 0 0.8303444489455538 0.05413354260277339 0 0.8334366207787973 0.06616735220336986 0 0.8365280557578485 0.07820235081057722 0 0.8395395135035766 0.09012483707489279 0 0.8428543367402841 0.1018227114385292 0 0.8584815765566718 0.1165908295718048 0 0.8617074086688576 0.1283856973043174 0 0.8924910781359074 0.1577293046860936 0 0.9200132982286273 0.2214834423165978 0 0.95066982676895 0.2973360357461672 0 0.9537737977584719 0.3094309497398147 0 0.9792785964698835 0.3749877948602146 0 1 0.3874999999990114 0 0.8766805753035547 0.1432703444178593 0 0.8014814814808531 0 0 0.8152893528415821 0.03876215216631772 0 0.8463891133259456 0.1133506456024735 0 0.8647156622716823 0.1403631724206937 0 0.8803220634125195 0.1547947294411677 0 0.8955929520293768 0.1698070962034787 0 0.8986933951007505 0.1818878962718762 0 0.9017950504481356 0.193966505006584 0 0.9048972275823481 0.2060461059301884 0 0.9079983046587585 0.2181288870846248 0 0.9231172522246096 0.2335667233818414 0 0.92622074406623 0.2456511073624129 0 0.9293228497080184 0.2577388448914955 0 0.9324283831953487 0.2698170560335484 0 0.9355356825237482 0.2818967474082917 0 0.9386440007221173 0.2939809642821704 0 0.9568776297862379 0.3215269255030328 0 0.9599819381654675 0.3336227035908461 0 0.9630867494699891 0.3457140970108924 0 0.9664444510387675 0.357807368439646 0 0.9686198947463703 0.3698475881846577 0 0.9873040642130249 0.3950665586546139 0 0.9781966743275922 0.3872464777669481 0 1 0.3999999999989749 0 1 0.4124999999989385 0 0.9894588942307285 0.4076377221442958 0 0.7949820515128484 0.01151341351829837 0 0.799779594130957 0.02320499604511571 0 0.8032152269048125 0.03537881369311614 0 0.8183783598451024 0.05079374478183671 0 0.8214685048640693 0.06282782474136245 0 0.8245585410940908 0.07486144038354847 0 0.8276412212781313 0.08688846606694869 0 0.8306728076546022 0.09886270796992248 0 0.834029430321619 0.1104488128390991 0 0.8497764607735532 0.1251564549520219 0 0.8528113562984264 0.1370945615047843 0 0.8836712010144046 0.1665401939928198 0 0.9111021217751434 0.230211848275364 0 0.941747825340959 0.3060721209129009 0 0.9448510611216034 0.3181659051554059 0 0.9703892443165674 0.3802349851703899 0 0.9893611784167394 0.4194621493591946 0 1 0.4249999999989021 0 0.8679910992826567 0.1519149640594345 0 0.7890740740733984 0 0 0.8063884688333769 0.04744765817914595 0 0.8374573732482986 0.122128772154819 0 0.8558276179803459 0.1490814372496861 0 0.8713847711455962 0.1636031608074893 0 0.8866858543898664 0.1785362454998154 0 0.8897854367967991 0.1906165237496031 0 0.8928867783470407 0.2026914379389088 0 0.8959873184319069 0.2147668388386634 0 0.8990885105554525 0.2268571627432962 0 0.9142041897558573 0.2422947348776854 0 0.9173063821970344 0.2543780391652709 0 0.9204090195897243 0.2664597542553131 0 0.9235154047459113 0.2785409279612506 0 0.9266214850803711 0.2906246474101177 0 0.9297237860396238 0.3027141726213223 0 0.9479560841259254 0.3302539452259111 0 0.9510573655630548 0.3423361019902841 0 0.9541629805274361 0.3543938747174569 0 0.9572396214901985 0.3664253903925596 0 0.9601024343248019 0.3783025808987218 0 0.9750603774986275 0.3964639595198263 0 0.9652132906773192 0.3903602373006183 0 0.9786362290192805 0.4061076680507322 0 0.9799740975200328 0.4157382830252807 0 0.988567768301242 0.4315579008984893 0 1 0.4374999999988656 0 1 0.4499999999988292 0 0.9888225073548208 0.4440808879925994 0 0.7827497393923257 0.01050110781275959 0 0.7874792079998653 0.02091811230202708 0 0.7912988536199954 0.0321203014273807 0 0.7944176312118847 0.0441153117890023 0 0.8095000092214056 0.05948747739997115 0 0.8125916694361602 0.07152338792107843 0 0.8156842455435025 0.08356054804069768 0 0.8187772368083857 0.09560035904820288 0 0.8218030668361902 0.1075738686123221 0 0.8251745213784406 0.1191563514355575 0 0.8409103466421759 0.1338420560900088 0 0.8439181647708877 0.145808329649262 0 0.8747305715156506 0.1753630087878393 0 0.90219011004362 0.2389408654897423 0 0.932826377167784 0.3148048988885758 0 0.9359315515567193 0.3268897119837694 0 0.9779253409485666 0.4252578704200743 0 0.9895766848705023 0.456401357215546 0 1 0.4624999999987927 0 0.8592086216142132 0.1606950303121381 0 0.7766666666659507 0 0 0.7975302329754745 0.05614844924463168 0 0.8284643670480577 0.1308183120097536 0 0.8469715509641664 0.1578317742403682 0 0.8623850700341327 0.1723110382515365 0 0.8777799712658201 0.1872625150106177 0 0.8808785481470324 0.1993395991605392 0 0.8839790104512562 0.2114143176443668 0 0.8870795759137767 0.223487783615161 0 0.8901795447650704 0.2355805499441858 0 0.9052915729979565 0.2510218967012067 0 0.9083936486123489 0.263103535149494 0 0.9114971092985586 0.2751858782926004 0 0.9146015621713115 0.2872685807762213 0 0.9177041239644861 0.2993541148532654 0 0.9208055601836841 0.3114408338696554 0 0.9390398074546991 0.3389483851688813 0 0.9421462028114707 0.3510262088948793 0 0.94524424925079 0.3630962367214239 0 0.9483687776875758 0.3751841795990712 0 0.9514710720713753 0.3872823647780543 0 0.9666037542806201 0.4027448913576725 0 0.9698499447085065 0.4162164091353942 0 0.9760596533067124 0.4375528038004566 0 0.9786687667812539 0.4513093152086916 0 0.989529685298786 0.4687504347444294 0 1 0.4749999999987564 0 1 0.48749999999872 0 0.9891751685622608 0.4812508419651648 0 0.7704443986958855 0.0101119605117314 0 0.7752565841253443 0.01905981897249756 0 0.7793983426771107 0.02928361701689752 0 0.7824746540411708 0.04077923724902725 0 0.7855680088425295 0.05281010859678552 0 0.8006230998435917 0.06818338088387443 0 0.803714164048988 0.08021891685222621 0 0.8068043593941792 0.09225768010085392 0 0.8098953690351343 0.1042977550720447 0 0.8127388219018498 0.1161268016852876 0 0.8158453111523222 0.1278521714550654 0 0.8319385996278486 0.1424654190346129 0 0.835013669293982 0.1545106763931566 0 0.8657757724043456 0.1839136230455709 0 0.893278741526574 0.2476684587002805 0 0.9239066572184969 0.3235242268385595 0 0.9270171995712246 0.3355871761510972 0 0.9548587172798 0.3993346732516626 0 0.9688288581954039 0.4278399516304247 0 0.9798268517484516 0.4631500067071392 0 0.9887729656383784 0.4955413377305926 0 1 0.4999999999986943 0 0.8499908314386428 0.1694165311451274 0 0.7642592592585096 0 0 0.7886552733376038 0.06484282514809905 0 0.8197391562500604 0.139226029151156 0 0.8380269771909515 0.1664905183608806 0 0.8536079186968053 0.1809742390388454 0 0.868870438938329 0.1959954542201913 0 0.8719682865035734 0.2080686789616578 0 0.8750693417617113 0.2201454573199586 0 0.878171783742812 0.2322181975188332 0 0.881268546808189 0.2443108315978018 0 0.8963804039591597 0.2597489165778961 0 0.8994823908498868 0.2718307215903187 0 0.902584361370099 0.2839133882689869 0 0.9056860339114495 0.295995570789493 0 0.9087880367905636 0.3080775969535167 0 0.9118874790987137 0.3201580848351292 0 0.9301319801137817 0.3476408695208813 0 0.9332309010379618 0.3597318063823503 0 0.9363419235670969 0.3718237688000743 0 0.9394436272737182 0.383919219035477 0 0.9426015008174466 0.3960050982482252 0 0.9577150908060613 0.4114656342660656 0 0.959955981142536 0.4239618183508291 0 0.9631664484479903 0.4357413599928797 0 0.9669522262327768 0.4475744415635466 0 0.9701253066174418 0.4597463180025897 0 0.9787926362881857 0.4749758434647687 0 0.9785707911384682 0.4875000085724875 0 0.9922845346239459 0.5062499999987042 0 1 0.5124999999987164 0 0.7582479743130419 0.01005637537495318 0 0.7643755866833488 0.01717921730838611 0 0.7674268725005813 0.0264798791100035 0 0.7705077653255362 0.03744261412538018 0 0.773601922798633 0.04946951523667398 0 0.7766901226993951 0.06150106732530015 0 0.7917458348231936 0.07687700401942071 0 0.7948358737238741 0.08891320035612224 0 0.7979252396388001 0.1009518640023338 0 0.8009145598792264 0.1128631426278145 0 0.8039456286485247 0.1247537968822699 0 0.8070775527561943 0.1365456165199009 0 0.8229961115857211 0.1512392308433659 0 0.8261306623980531 0.1632316461841994 0 0.856955900840076 0.1927554397646936 0 0.8843678107587492 0.2563941451364159 0 0.9149889337524768 0.3322298405085732 0 0.9181023138821727 0.3442915428880121 0 0.9457003594846223 0.4081054110143216 0 0.9707095412981803 0.4692765892781585 0 0.9781831624835344 0.497940464511669 0 0.9825202993478184 0.507798399076046 0 0.9891746824526707 0.5187499999987335 0 1 0.5249999999987492 0 1 0.5374999999987822 0 0.9908484328273854 0.5312499999987657 0 0.8412922434857109 0.17806909814179 0 0.7518518518510555 0 0 0.7797784931662837 0.07353533237990884 0 0.8106809370593897 0.1481158349450165 0 0.8291430169588683 0.1752107833510824 0 0.8447268594630049 0.1897754073274354 0 0.8599485016640301 0.2047563984507302 0 0.8630599156165539 0.216815205858238 0 0.8661567565195946 0.2288886787141275 0 0.8692596300680258 0.2409571236863745 0 0.8723582077732313 0.253038208416989 0 0.8874688156294521 0.2684754939595335 0 0.8905695162677538 0.2805578616309766 0 0.8936703751638692 0.2926398792831636 0 0.8967725972857489 0.3047205038278726 0 0.8998745948925284 0.3168004439767677 0 0.9029736303744977 0.328881860243323 0 0.9212130294515659 0.3563699571561497 0 0.9243166745703477 0.3684632679979084 0 0.927418674956987 0.3805571159762963 0 0.9305290021259804 0.3926484262102274 0 0.9336413147482374 0.4047379812147107 0 0.9487581814284138 0.4201925369464839 0 0.9517399639084385 0.4322611767974319 0 0.9549886723119051 0.444292630157577 0 0.9580938186397731 0.4563812718466503 0 0.9607755659464114 0.4680527275616105 0 0.966269347516868 0.4798578220223089 0 0.9674014325797935 0.492672081002389 0 0.9893675865753215 0.5439044913552641 0 1 0.5499999999988151 0 0.7456481481473323 0.008476090991807309 0 0.7552567143256073 0.02182169163540057 0 0.758549713841558 0.03428793547237512 0 0.7616494173964116 0.04616022709106654 0 0.7647233323567351 0.0581627809532337 0 0.767811300310601 0.07019693836531642 0 0.7828669324462174 0.0855712794947185 0 0.7859566167936991 0.09760981815769723 0 0.7890237074518357 0.1096389898470077 0 0.7919984878407909 0.1216334297818311 0 0.7950990383607657 0.1335016192237198 0 0.7981967036103083 0.1454275369060955 0 0.8141001685404838 0.1601768638081875 0 0.8172957931122795 0.1720017606189422 0 0.8480482402500794 0.2014931278133865 0 0.8754577721054605 0.2651203211441695 0 0.9060749473013596 0.3409521211221012 0 0.9091806537138246 0.3530248040176026 0 0.9367283657426657 0.4168201740705496 0 0.9704806793645879 0.5051914765842671 0 0.9752847799186177 0.5170861916284021 0 0.9799352708926694 0.5283381337701176 0 0.9828565689291061 0.5370787425628633 0 0.9919023468065138 0.555179566187572 0 1 0.562499999998848 0 0.8325637329749044 0.1868374036256851 0 0.7394444444436055 0 0 0.7708981266521204 0.08222994958635647 0 0.8017500532111091 0.1571601806066354 0 0.8202415120254832 0.1839125931871876 0 0.8358931205304529 0.1985231355802116 0 0.8510637298749546 0.2134886582109043 0 0.8541528773754595 0.2255433634920501 0 0.8572513334193539 0.2376099027131882 0 0.8603497198985404 0.2496840242333981 0 0.8634500776522573 0.2617616540521363 0 0.8785571280876969 0.2772026472532051 0 0.881657209264826 0.2892846012904455 0 0.8847575815006794 0.3013654492018754 0 0.8878586735500944 0.3134460704809525 0 0.8909612869836268 0.325528104145725 0 0.8940587834045026 0.3376095476281519 0 0.9122911529596522 0.3651068818832561 0 0.9153952510575429 0.3771967982306179 0 0.9184967768884942 0.3892891713700984 0 0.9215972461308408 0.4013801777656722 0 0.9246914141878679 0.4134685999792684 0 0.9398381793878243 0.4288853595677179 0 0.9429600591719585 0.4409243510064139 0 0.9460622338599731 0.4530201007418468 0 0.9491639495321067 0.4651194644793539 0 0.9522663704648164 0.4772156182119498 0 0.9553690949022219 0.4893118860647984 0 0.9584713048458866 0.5014097053819466 0 0.9800347959591621 0.544373035019726 0 0.9827395899894329 0.5537801746180049 0 0.9865599461675908 0.5635722973444066 0 1 0.574999999998881 0 1 0.5874999999989139 0 0.9894304399450943 0.5815186875151507 0 0.991216974350895 0.5721038250339614 0 0.7333221517271394 0.01119165690736187 0 0.7429846914329099 0.02004403188396226 0 0.7466849604532746 0.03090228755262462 0 0.749772553047938 0.04292091331977536 0 0.7527729615072314 0.05485221763825174 0 0.7558453140064365 0.06686180925811887 0 0.7589324129826356 0.07889069068898051 0 0.7739883331726386 0.09426695414932147 0 0.7770779735488147 0.1063054567812685 0 0.7801698418538209 0.1183462924385483 0 0.7831704931770482 0.1304123077307005 0 0.7862452593733039 0.1424608090254088 0 0.7893595643903337 0.154415209431521 0 0.8049780331778271 0.1689654691064746 0 0.8083859701898726 0.1806947229583387 0 0.8391363763694706 0.210213560920256 0 0.866544592731376 0.2738497780467373 0 0.8971579073006499 0.3496814248265646 0 0.9002636976900242 0.3617577262607596 0 0.9277852427332398 0.4255342513380969 0 0.9620259038589472 0.5139005908259384 0 0.9664917503140704 0.5276561974900078 0 0.9740967583909923 0.5375280526704433 0 0.989850513035297 0.5933625857600944 0 1 0.5999999999989468 0 0.8234934746775315 0.1955016035658651 0 0.7270370370361676 0 0 0.7620195036078403 0.09092588983189601 0 0.7928210822010533 0.1659745175996442 0 0.8113352769598876 0.1926089199314188 0 0.8269295646501695 0.207230642485881 0 0.8421476834180044 0.2221909289729105 0 0.8452469285248351 0.2342590115676661 0 0.848345680535005 0.2463302162585896 0 0.8514433303561701 0.2584147760593306 0 0.8545406659273732 0.2704963325493278 0 0.8696442280679377 0.2859318683687073 0 0.87274576028981 0.29801069389879 0 0.8758461239402561 0.3100908900129409 0 0.8789466547248259 0.3221720237952157 0 0.8820468280073066 0.334254002854377 0 0.8851427605215215 0.3463326145635923 0 0.9033727831470603 0.3738387009505871 0 0.9064749532822689 0.3859304051564699 0 0.9095761105606989 0.39802056162703 0 0.9126770657166837 0.4101115107720947 0 0.9157719408193531 0.4221974877862299 0 0.9309207251338685 0.4375839902450969 0 0.9340243166714284 0.4496727714455377 0 0.9371260794986371 0.4617669259192557 0 0.9402371069711144 0.473854876876394 0 0.9433398792332026 0.4859501304568515 0 0.9464411731634819 0.4980466777846924 0 0.9495399687889952 0.5101394851911396 0 0.9706662533090675 0.5489107415851534 0 0.9739594793705449 0.5619781064365627 0 0.9789926201121733 0.5744192864864109 0 0.9794108931286345 0.5872852682293574 0 0.9902083716224147 0.6058831123073061 0 1 0.6124999999989796 0 0.7206685032562361 0.009293222768118467 0 0.7338386493306097 0.02755987679663536 0 0.7383125551666648 0.04009923302824023 0 0.7408650027603666 0.05157956501857754 0 0.7438913855318181 0.06353910316605269 0 0.7469634799412349 0.07555122628958175 0 0.7500515429329624 0.0875838981295798 0 0.7651090582803952 0.1029628562644514 0 0.7681980972600044 0.1150017562987534 0 0.7712875420840641 0.1270438257064739 0 0.7743638711962841 0.1390878677587947 0 0.7774510735706053 0.1511303622284946 0 0.7804983303405215 0.1629395848847773 0 0.7961990431089173 0.1776437601409951 0 0.7994242327023199 0.189333615763989 0 0.8302232640108436 0.218917381353052 0 0.8576347268301904 0.2825775812176298 0 0.8882406594638497 0.3584103431166321 0 0.891349851626727 0.3704897856521593 0 0.9188775417800576 0.4342840812282533 0 0.953022815795586 0.5226347418862841 0 0.9645247335127849 0.5388048488799093 0 0.9809191573605789 0.60002660987954 0 0.9898661514688429 0.617635109833964 0 0.8147573347554651 0.2042618293767707 0 0.7146296296287233 0 0 0.7231786261666291 0.02022555810823073 0 0.7531407141100392 0.09961928057162529 0 0.7839589120459969 0.1745591551078317 0 0.8024429816897072 0.2013189976444205 0 0.8180738175572533 0.2159663441191305 0 0.8332455476285974 0.2309079663012466 0 0.8363428499631584 0.2429771663283689 0 0.8394373682884806 0.2550675819398745 0 0.8425260079747559 0.2671657055775386 0 0.8456201515540309 0.2792489601543099 0 0.860724907838864 0.2946694600769116 0 0.8638288752971066 0.3067406872825993 0 0.8669341381287735 0.3188160892290505 0 0.8700337700226373 0.3308975152639606 0 0.8731332338821228 0.3429788008597541 0 0.876231755998955 0.3550581933075195 0 0.8944538765342579 0.3825751353148533 0 0.8975555271301352 0.394661496317671 0 0.9006559525276147 0.4067513753627806 0 0.9037558096856717 0.4188428400280329 0 0.9068545918264951 0.4309339505922686 0 0.9219835553801587 0.4463606156868416 0 0.9250942181057114 0.4584287495799516 0 0.9282001817158223 0.4705072685011589 0 0.9313123583895919 0.4825870167462143 0 0.9344133072525116 0.4946832598539747 0 0.9375115875146589 0.5067784903531641 0 0.9557515869138102 0.5343026536344875 0 0.9406093936652089 0.5188644489898648 0 0.9619563380506309 0.5585052242173169 0 0.9581852366568377 0.5464228664397724 0 0.9650582152641871 0.5706068941295088 0 0.9681600937012432 0.5827075561792816 0 0.9705916682574337 0.5949797461347136 0 0.9821081390548134 0.6110700227238743 0 1 0.6249999999990126 0 1 0.6374999999990455 0 0.989174682452666 0.6312499999990291 0 0.708422744861812 0.009313114356182393 0 0.7135318424291901 0.01695913912537308 0 0.7216656974340423 0.03220981709513157 0 0.7285500342820104 0.03891154450414073 0 0.7293389972854994 0.04868332046787425 0 0.7319060955423542 0.06017962265093227 0 0.7349954594332855 0.07221017814085398 0 0.7380851070240492 0.08424240454759394 0 0.7411741524836328 0.09627624166546862 0 0.756229616954684 0.1116561216033234 0 0.7593173150712077 0.12369638842353 0 0.7624023692048449 0.1357415297150041 0 0.765491289170754 0.147773463740858 0 0.7685041671397799 0.1596958814898579 0 0.7716632783376118 0.1715061639972448 0 0.787402785530495 0.1861636000084775 0 0.7905407080991373 0.1980529699547641 0 0.8213163267972747 0.2276739067914805 0 0.8487055640473802 0.2913464992376927 0 0.8793331228813194 0.3671384907699128 0 0.8824363735284183 0.3792177449363653 0 0.9099553919858351 0.4430256994627305 0 0.9437182912324844 0.5309450751862668 0 0.9734685618766279 0.6072415360566032 0 0.9778289184949113 0.6197701359102911 0 0.9922317142588768 0.643314702983642 0 1 0.6499999999990784 0 0.8056971367140051 0.2129403668807158 0 0.7022222222212797 0 0 0.7131392090782253 0.02617437332104617 0 0.7442626860267835 0.1083118139651479 0 0.7751689527573831 0.1831273040158512 0 0.7935632353999709 0.2100410581933389 0 0.8091201578209641 0.224695687507823 0 0.8243529765328551 0.2396602034104806 0 0.8274278220077331 0.2517319333901238 0 0.8305160845245974 0.2638346160398335 0 0.8336080014874295 0.2759169911511656 0 0.8367006784457205 0.2879983928847676 0 0.851810718769185 0.30340608584663 0 0.8549121374877227 0.3154763313744017 0 0.8580192697642237 0.3275472607966078 0 0.8611214230761166 0.3396224873741581 0 0.8642206580152014 0.3517029552303069 0 0.8673201778597242 0.3637827016596669 0 0.8855368330130582 0.3913035865965264 0 0.8886365398212966 0.4033897913928051 0 0.8917357211881417 0.4154833396128072 0 0.894833332528383 0.427573275379991 0 0.8979329045818331 0.4396657394637624 0 0.9130569909671613 0.4550936017116716 0 0.9161741844010609 0.4671713142152442 0 0.9192848287479342 0.4792299547959364 0 0.922386721065295 0.4913205977621073 0 0.9254863872933872 0.5034162848730893 0 0.9285819439833599 0.5155068074963887 0 0.9468228407261798 0.5430392261203375 0 0.93168524132515 0.527591883637732 0 0.9530261596017775 0.5672417632171035 0 0.9499246503495642 0.55514039324733 0 0.9561274287033765 0.579342261261891 0 0.959229757072005 0.5914415385803297 0 0.9623315009640604 0.6035447695349606 0 0.9822358505547696 0.6423198441117187 0 0.9881657427441437 0.6546330767784984 0 1 0.6624999999991114 0 0.6960185185175514 0.01033824067659545 0 0.7022501287830477 0.01978942707328766 0 0.7181223487467029 0.04406314665745047 0 0.7126821115631448 0.03572744042543344 0 0.7199448582204195 0.05683951550382316 0 0.7230319106304536 0.06886903342846785 0 0.7261196632671038 0.08090099704846959 0 0.7292075305192992 0.0929342207508789 0 0.732296582453374 0.1049688186210741 0 0.7473511256081493 0.1203484438590705 0 0.7504390546618696 0.1323876923645863 0 0.7535254010025572 0.144421017439894 0 0.7566146633431825 0.1564506675204294 0 0.7596592989203892 0.1684370386316819 0 0.7628544859165106 0.1802630544882505 0 0.7785230280412018 0.1949877181055698 0 0.7817075297274135 0.2068221803245999 0 0.8124189935157411 0.2364427462030633 0 0.8397960749626329 0.300067944700533 0 0.8704213133528919 0.37586286249332 0 0.8735208570919102 0.3879454729602841 0 0.901030682396983 0.4517460054939406 0 0.934792211748974 0.5396792444076006 0 0.9654328765008354 0.6156488827602834 0 0.977729693788755 0.6322295697235024 0 0.9890818616212047 0.6687115498068004 0 1 0.6749999999991443 0 0.7969528824130852 0.2217116379285052 0 0.6898148148138249 0 0 0.7028193554435147 0.03129378473396422 0 0.7353853818542829 0.1170041824665702 0 0.7660652417197631 0.1923369312427292 0 0.7846631180526964 0.218741560012273 0 0.8002617899284261 0.2334391231240432 0 0.8154294972412194 0.2484271777234258 0 0.8185085229835654 0.2604992491217227 0 0.82160137309373 0.2725777691303253 0 0.8246986908056666 0.2846460995983932 0 0.8277954521653899 0.2967155293092545 0 0.8428967529814044 0.312135592407642 0 0.846004212021755 0.3242029056263415 0 0.8491092280301453 0.3362713993588678 0 0.8522097137298408 0.3483466162434171 0 0.8553085145140196 0.3604263376766451 0 0.8584077522262097 0.3725067652527538 0 0.8766182654900998 0.4000326538098474 0 0.8797156322751856 0.412122667768098 0 0.8828131158515551 0.4242148117236149 0 0.8859110823810071 0.4363042141064959 0 0.8890065576541999 0.4483894994053096 0 0.9041446499710071 0.4638077974273581 0 0.9072621686066572 0.4758608782816802 0 0.9103620014084588 0.4879548188193558 0 0.9134611446063962 0.5000501157443715 0 0.9165579960862558 0.5121438990713819 0 0.91965706616461 0.5242344547389859 0 0.9378940810245142 0.5517755312577841 0 0.9227623934712696 0.5363214315001661 0 0.9409955000979882 0.5638767156091308 0 0.9440965120060805 0.5759782035982866 0 0.9471977945505377 0.5880781013065595 0 0.9502991136197988 0.6001792781434947 0 0.9534001628255095 0.6122819886544157 0 0.9681877468141346 0.6278425161514298 0 0.9712212706272926 0.6399653524450437 0 0.9747354322406599 0.651965637455172 0 0.9780063161695685 0.6635262663587577 0 0.9899720740109756 0.6813915255340841 0 1 0.6874999999991772 0 0.6838633967711172 0.01003045734113664 0 0.6898148148138181 0.01719202778676289 0 0.6909257155168147 0.02692405656112443 0 0.7051554576670396 0.04216372574310678 0 0.7081804337707673 0.05338701063878068 0 0.7111042879147546 0.06551180610078852 0 0.7141513352473391 0.07756479290534168 0 0.7172408443256867 0.08959508945635963 0 0.7203302397328173 0.1016266790314823 0 0.7234188106174768 0.1136615651129336 0 0.7384762716049696 0.1290407976308626 0 0.7415629982198233 0.1410786740448158 0 0.744653982907109 0.1531159230000423 0 0.7477529495250944 0.1651583511920769 0 0.7508436530443229 0.17720297599828 0 0.7538526450260592 0.1890273746038551 0 0.7698591272467603 0.2037889914882638 0 0.7727994027336759 0.2155140455231498 0 0.803486391648209 0.2451724436146411 0 0.8308914385040251 0.3087862006990539 0 0.8615069755428928 0.3845880279339212 0 0.8646037542601619 0.3966723856303878 0 0.8921171972199153 0.4604587507421868 0 0.9258641139524771 0.5484110661491574 0 0.9565006420770381 0.6243863527714651 0 0.9801625662911555 0.6761548763989419 0 0.9882080550369313 0.6946376787725481 0 0.7878998096858068 0.2303827739110137 0 0.6774074074063781 0 0 0.6929104189873159 0.0381611865562471 0 0.7265081094434197 0.1256974653729704 0 0.7572678850793366 0.2005830062833455 0 0.7757582594060164 0.2274363651978127 0 0.7913048032202579 0.2421436539004528 0 0.8065071566761707 0.2571570117168813 0 0.8096019566530065 0.2692257876703144 0 0.8126988114451186 0.2812936884545369 0 0.8157949723783744 0.29336181480926 0 0.8188900781479562 0.3054287470425343 0 0.8339949658556354 0.3208508425260989 0 0.8370988992106453 0.3329186566781791 0 0.8402001956492924 0.3449914149026677 0 0.8432982418045225 0.3570699999070221 0 0.8463965168799433 0.3691500652828392 0 0.8494945013080182 0.3812310590895176 0 0.8676983616026939 0.4087635204473527 0 0.8707912083237553 0.4208593869605259 0 0.8738917184128577 0.4329459865137714 0 0.8769903119584161 0.4450355535931321 0 0.880089323401464 0.4571159908834 0 0.8952289599809314 0.4725150961706057 0 0.8983388891966697 0.4845928566199076 0 0.9014383637525885 0.4966865963706415 0 0.9045365546993456 0.5087793423700686 0 0.9076347115687877 0.5208720207396067 0 0.9107368272130703 0.5329636528018732 0 0.9289659993975197 0.5605133074447419 0 0.9138365802566236 0.5450587707172686 0 0.9320669184303628 0.5726129832773812 0 0.9351675411113246 0.5847134569944747 0 0.9382680647804619 0.5968140731940977 0 0.941368729485686 0.6089154634137758 0 0.9444690350770341 0.6210153565384413 0 0.9595432350659627 0.6365064606178511 0 0.9627031966784942 0.6485195043554891 0 0.9660483928859548 0.659819152980315 0 0.9693583159316075 0.6718484137514926 0 0.9818106419566435 0.687005651239485 0 1 0.69999999999921 0 0.6713789142993969 0.01082100182756728 0 0.6787459107757347 0.02183147375589425 0 0.680956044745367 0.03482318759758471 0 0.6960415227718874 0.05015747445461477 0 0.6991277453475804 0.0621845344214071 0 0.7021894442719679 0.07422594970691077 0 0.7052735310028637 0.08625819992546967 0 0.7083635659253795 0.09828708633598028 0 0.7114524704680952 0.1103188420371909 0 0.7145406554231447 0.1223537139196594 0 0.7295972440836886 0.1377348131975624 0 0.7326872627956735 0.149773538870217 0 0.7357777601270349 0.1618140418602322 0 0.7388677747053075 0.173856745515916 0 0.7417963830157526 0.1857156787538373 0 0.7448574923786068 0.197470492759725 0 0.7607629320241092 0.21226823274982 0 0.763840264391427 0.224152693929008 0 0.7945760425218853 0.2538762771551963 0 0.8219879938329676 0.3174956854100953 0 0.8525926710656773 0.3933118604577684 0 0.8556886186173831 0.4053992926999079 0 0.8832030099149061 0.469178115072507 0 0.9169375208031405 0.5571529041862581 0 0.9475634948271379 0.6331068543315125 0 0.9724755503776376 0.6839515703684567 0 0.9893891810619114 0.7070484700415121 0 0.9758750035030564 0.6945824718858982 0 1 0.712499999999243 0 0.7791501507346899 0.239129365185474 0 0.6649999999989586 0 0 0.6840421020196034 0.04684689889074423 0 0.717628378896582 0.1343904722390278 0 0.7485904162326067 0.2088812942677311 0 0.7668662612903876 0.2361436562999878 0 0.7824546348025306 0.2508619404123484 0 0.797605393083372 0.2658730629974052 0 0.8007030289947524 0.277943251526717 0 0.8037962451120425 0.2900095460686832 0 0.8068921221314204 0.3020768007953031 0 0.8099882642360036 0.3141432720626984 0 0.8250910701808026 0.3295643562106398 0 0.8281926283283809 0.341636995131248 0 0.8312901690540049 0.3537130281740127 0 0.8343874646153089 0.3657921152263315 0 0.8374841531232803 0.3778745950984428 0 0.8405818184997861 0.3899547799425237 0 0.8587822434651718 0.417489573477422 0 0.8618752797777983 0.4295857372208458 0 0.864972638683787 0.4416743159457528 0 0.8680733656823589 0.4537519113645312 0 0.8711810368910573 0.4658156101342634 0 0.8863135284607428 0.4812413538614937 0 0.8894168829917428 0.4933234734692443 0 0.8925155358597554 0.5054155532833766 0 0.8956137774643471 0.517508113980828 0 0.8987128521945553 0.5296014659564523 0 0.9018125669683702 0.5416957993710287 0 0.9200384610681582 0.5692494567789821 0 0.9049117255200392 0.5537911627355021 0 0.923138694286578 0.5813485950870675 0 0.9262384292012132 0.5934485772169585 0 0.9293383615294629 0.6055495261034455 0 0.9324384104649954 0.6176509251290356 0 0.9355438143004857 0.6297201164674189 0 0.9506939106087799 0.645085372636701 0 0.9540957137558679 0.6566196410829613 0 0.9577947098045507 0.6685379571708525 0 0.9612858019876298 0.6805973038580111 0 0.9804034410127094 0.7034572203484245 0 0.9891746830567354 0.7187498499542513 0 1 0.724999999999276 0 1 0.7499999999993417 0 1 0.7624999999993747 0 0.9898228873478601 0.7562497653036149 0 1 0.7374999999993088 0 0.9891624535375731 0.7439776244924784 0 0.9891905734601589 0.7312748074564577 0 0.6588738436249253 0.01037788775306429 0 0.6649139594447996 0.02048472052276413 0 0.6689466825781196 0.03167978275995426 0 0.672086226560717 0.04350753472163793 0 0.6871285359306474 0.05887134194141366 0 0.6902151876891285 0.07089664633490117 0 0.6933086124462129 0.08291995980665033 0 0.696398177183315 0.09494608791613124 0 0.6994868286270902 0.106977322767121 0 0.702574878924052 0.1190102902027201 0 0.7056627927659349 0.1310434005835943 0 0.7207159877496807 0.1464291203770355 0 0.723804445739582 0.1584695599157765 0 0.7268934129778279 0.1705113778992395 0 0.7299628628314913 0.1824611606785871 0 0.7329576560603966 0.1943189200457435 0 0.7360385955930587 0.2061232383983615 0 0.7518632612561373 0.2208811112871715 0 0.75495705684641 0.2328691040877156 0 0.7856862595559441 0.2625993040300152 0 0.8130868945573305 0.326211700053651 0 0.8436796043347534 0.4020346683074244 0 0.846774447016167 0.4141205175731231 0 0.8742949618747757 0.4778795104990028 0 0.9080116948151937 0.5658868218116836 0 0.9387141540698237 0.6416396184969217 0 0.9643910764719404 0.6927014974420214 0 0.9788579628304079 0.7132196080147131 0 0.9687293878398566 0.7056567313819923 0 0.9895214136108333 0.7687499799728399 0 1 0.7749999999994076 0 0.7701104911926048 0.2477993864541075 0 0.6525925925915987 0 0 0.6751715990739309 0.05553174870625029 0 0.7087492707588475 0.14307880078688 0 0.7394411673235537 0.2178742939106496 0 0.7579817734476851 0.2448576747807991 0 0.7735116859128921 0.259572024286866 0 0.7887176308667327 0.2745998795007398 0 0.791798136808243 0.2866575444686225 0 0.7948941142244563 0.2987248056809135 0 0.7979900446563125 0.3107914683033551 0 0.8010870654630798 0.3228592403318392 0 0.8161872602392927 0.3382822699912407 0 0.8192842061838933 0.3503556671115332 0 0.8223799903674462 0.362431741172105 0 0.8254757164626563 0.3745132617235671 0 0.8285715224953825 0.3865988777870409 0 0.8316696046322507 0.3986780292591943 0 0.8498655454532342 0.4262089859627772 0 0.8529563179233058 0.4383013965835574 0 0.8560543604048014 0.4503892470016302 0 0.8591635141740332 0.4624539513074715 0 0.8622771502173292 0.4745182325358476 0 0.8773963065418677 0.4899631094931055 0 0.880495152538992 0.5020530573161612 0 0.883593203957919 0.5141446331785067 0 0.8866909843681761 0.5262378534629134 0 0.8897880745997455 0.5383336068722012 0 0.8928856936876404 0.5504297278986137 0 0.9111115832907921 0.5779831382890043 0 0.8959855096020346 0.5625240165887218 0 0.9142116788706659 0.5900786835338045 0 0.9173142186670821 0.6021606472307708 0 0.9204098013627778 0.6142440600796476 0 0.9235070213665246 0.6263336226742537 0 0.9266761959061636 0.6383566566835644 0 0.942021984148562 0.6534345833095468 0 0.9457824127587986 0.6652734308913816 0 0.9490692882903979 0.6773810815178901 0 0.9523756683919361 0.6893592929582399 0 0.9784452147084344 0.7251513780938688 0 0.9793125463422698 0.7510512200436139 0 0.9809834615724888 0.763718957222577 0 0.976517629037813 0.7388413005084558 0 0.9900103815041739 0.7812155351060579 0 1 0.7874999999994404 0 1 0.7999999999994734 0 0.9892939520110569 0.7935433919761073 0 0.6455819636351394 0.01185060841821199 0 0.653400101796636 0.01904792857546555 0 0.6568189875205472 0.02887660837446892 0 0.6601110674723406 0.04021012613403821 0 0.6632118848868149 0.05220027925106847 0 0.6782575913832815 0.06755672918588979 0 0.6813442173223681 0.07958238005151724 0 0.6844329910588007 0.09160871826861014 0 0.6875225253249717 0.1036372562476678 0 0.6906101348464759 0.115668265321826 0 0.6936978372755682 0.1276991349133094 0 0.6967853173446645 0.1397303933911446 0 0.7118348702082634 0.1551184941847807 0 0.7149240560274257 0.1671549201227506 0 0.7180126424802242 0.1791718166399514 0 0.7209914994357699 0.1911325710860267 0 0.7240991031077011 0.2030103785979237 0 0.7272024243633504 0.2149135760108239 0 0.7429504380834243 0.2297754353039212 0 0.7461192743634772 0.2416302753807113 0 0.7768007804683444 0.2713325537512538 0 0.8041840145217112 0.3349287347769872 0 0.8347669393584853 0.4107567094796434 0 0.8378586181150907 0.4228408632155073 0 0.8653775776421053 0.4866032842782134 0 0.8990855713545884 0.5746188194942587 0 0.9299772773947997 0.6502990766519194 0 0.9554591383648925 0.7014409202391865 0 0.9683467502544656 0.719248402671431 0 0.9828974474912575 0.7749999672851561 0 0.9891746826792014 0.8062499996071101 0 1 0.8124999999995064 0 0.7613595106818126 0.2565485636324997 0 0.6401851851842548 0 0 0.6663005320170836 0.06421666508574141 0 0.6998713094252587 0.151765017671649 0 0.7305509884917749 0.2270508585712094 0 0.7490835736109085 0.2535568027588291 0 0.7646584387761168 0.2682903974409718 0 0.7798247653715458 0.2833243918594401 0 0.7829010549121949 0.2953759871466464 0 0.78599201563657 0.3074392582202471 0 0.7890874441907989 0.3195061413873173 0 0.7921822798545823 0.3315751710532175 0 0.8072795099116845 0.3470006300234654 0 0.8103759196020907 0.3590704332006217 0 0.8134686042608955 0.3711391581221269 0 0.8165627738753752 0.3832427378561034 0 0.8196610586208403 0.3953212433296334 0 0.822758218212278 0.4074004424315766 0 0.8409521963851938 0.4349247284035029 0 0.8440484887981712 0.4470091563809573 0 0.8471425589941983 0.4590860502280241 0 0.8502540562717442 0.4711630437037335 0 0.8533608970325151 0.4832425592230949 0 0.8684756847550525 0.4986914908903829 0 0.8715724306156953 0.5107822702533411 0 0.8746683522643117 0.5228761000069146 0 0.8777625623197844 0.5349753542396077 0 0.8808609391423521 0.5470692295765206 0 0.8839595828389242 0.5591628873381476 0 0.9021846603832895 0.5867113696812775 0 0.8870597999451033 0.5712561295400667 0 0.9052891859511958 0.5987865300362494 0 0.9083952598647449 0.6108344403011163 0 0.911487421446029 0.6229013578369531 0 0.9146040388718484 0.6349845871913978 0 0.9177627205739824 0.6470530507477982 0 0.9334102964770439 0.6622515425961666 0 0.9364076513683532 0.674407193807109 0 0.9401311661339609 0.6861689506932562 0 0.9434341593147958 0.6980884942329774 0 0.9577793432096688 0.7139337353776645 0 0.9673409815632497 0.7310877120761226 0 0.9705929776956042 0.7609481014153445 0 0.9678792963744358 0.7498462840184723 0 0.9733658425324335 0.7732402077688467 0 0.9782931810811977 0.7856376259904568 0 0.9790589496167617 0.7999186036602697 0 0.9893437381434431 0.8190427880523653 0 0.6328994822674934 0.009910993426371761 0 0.6450543053108615 0.02489077367212423 0 0.6481135841785326 0.03699694729601453 0 0.6512439781362742 0.04887609412056156 0 0.6543425037936934 0.06088295212455731 0 0.6693863143294073 0.07624215561337996 0 0.672472899466722 0.08826879223235889 0 0.6755599322414231 0.1002968063419534 0 0.678647087992726 0.1123263368703648 0 0.6817341722253648 0.1243569605244538 0 0.6848214572751874 0.1363871613413064 0 0.6879112865733426 0.1484169045458023 0 0.7029587692134968 0.1638020954197519 0 0.7060455575219433 0.175840908853207 0 0.7091328689234397 0.1878502623138665 0 0.712158782121438 0.199886233848102 0 0.7152676800260706 0.2119051496831532 0 0.718395726929264 0.2237602973733246 0 0.7342652210219608 0.2385692755228874 0 0.7372136844169672 0.2503213508445965 0 0.7678807846180247 0.2800314116414131 0 0.7952780557161947 0.3436447459009926 0 0.8258541916262796 0.4194792314164817 0 0.8289486999329052 0.431559142587541 0 0.8564556095979081 0.4953332947264794 0 0.8901596889742933 0.5833502650125372 0 0.9210344152216872 0.65909792831477 0 0.9465306036396545 0.7101827692276255 0 0.9594478617263673 0.7244186372986318 0 0.9642746600399762 0.7402524375150796 0 0.9794512262882973 0.8134949513180063 0 1 0.8249999999995392 0 0.7523158276100147 0.2652169368045541 0 0.6277777777768812 0 0 0.6334313735721495 0.02152350213771248 0 0.6574292037826382 0.07290146719922297 0 0.6910002705145639 0.1604515114132657 0 0.7217386062929976 0.235388271715826 0 0.7401810231843857 0.2622505118508447 0 0.7557070478647161 0.2769912869667301 0 0.7709016334387495 0.2920221289386871 0 0.7739956639936056 0.3040877937119678 0 0.7770901350977582 0.316152337965252 0 0.7801837921307033 0.3282208640278413 0 0.7832786241683657 0.3402901855266569 0 0.7983725509288674 0.3557141776890755 0 0.8014678707276494 0.367784842736367 0 0.8045620995915541 0.3798622497466121 0 0.8076539815328425 0.391963177141947 0 0.8107502509769122 0.4040441955019382 0 0.8138466494227223 0.416122088012119 0 0.8320470974158283 0.4436382412761891 0 0.8351469436680178 0.4557182998080845 0 0.8382413673911887 0.4678018918574331 0 0.8413459163199922 0.4798827465356889 0 0.844440121021517 0.4919703952629704 0 0.8595464807627373 0.5074319957671805 0 0.86264055780588 0.5195272823753755 0 0.8657353803755239 0.5316218846500244 0 0.8688364466628312 0.5437108240545094 0 0.8719355533204733 0.5558020377057407 0 0.8750354699166276 0.5678939282784924 0 0.8932565074560788 0.5954206657743533 0 0.8781352018625965 0.5799866728827402 0 0.8963779707178077 0.6074613477779107 0 0.8994951916691809 0.6195117799307109 0 0.9026279068443477 0.6315821976663237 0 0.9057137121715787 0.6436856735740758 0 0.908830340063867 0.655778055268827 0 0.9241642744642228 0.6711912451855487 0 0.9274415172289949 0.6830898767303339 0 0.931297238604722 0.6948356154578583 0 0.9345145210785383 0.7068387156161962 0 0.9494078773531902 0.7222341479014336 0 0.9544136384751748 0.7342664849839833 0 0.958947596175126 0.7585898862527056 0 0.9620528320083314 0.770694064621582 0 0.9558401014000658 0.7464875278288874 0 0.9651895165647271 0.7826850139556103 0 0.9682625073269288 0.794904424389524 0 0.9699517162235753 0.8076986284999859 0 0.9880714028062195 0.8325820583806219 0 0.9784399248347835 0.8247622143652171 0 1 0.837499999999572 0 0.6215740740731996 0.008055175217386882 0 0.6226142038960263 0.0180938620688913 0 0.6361820646564725 0.03356627381318163 0 0.6392711019746993 0.04556180766171269 0 0.6423721780043617 0.05756230932286555 0 0.6454708418246391 0.06956858861135319 0 0.6605141379895644 0.08492789248819356 0 0.663599703842556 0.09695538599373303 0 0.6666858504648305 0.1089843593450374 0 0.6697719866348468 0.1210147292782463 0 0.6728582300197524 0.1330455231957331 0 0.675945270476169 0.1450762124186343 0 0.6790333990694211 0.1571077154945334 0 0.6940875928406872 0.1724879270589797 0 0.6971808192027305 0.1845006656329616 0 0.7002847156865848 0.1965122111781367 0 0.7033864572632746 0.2085477570469879 0 0.7064153551990098 0.2205298480698057 0 0.7093481371123727 0.2322685480702492 0 0.7251892022342941 0.2470677743714658 0 0.7282605048286239 0.2589625665042097 0 0.7589701687277843 0.2887390904200744 0 0.78637308644034 0.3523590687685437 0 0.8169419903327136 0.4282044027378671 0 0.8200400063852362 0.4402810148711783 0 0.8475230748484821 0.5040766497772711 0 0.8812296776248161 0.592071477478797 0 0.9119307235306076 0.6678777359306102 0 0.9375977974664359 0.7189194719652061 0 0.9712366983778749 0.8185555446884246 0 0.9906477732677827 0.8445922406344951 0 1 0.8499999999996051 0 0.7435600599205201 0.2739601111567953 0 0.6153703703695188 0 0 0.6242352866541994 0.03023208178543005 0 0.6485555444517244 0.08158975100187407 0 0.6821191953525139 0.1691340445630265 0 0.7127798271506333 0.2439429225316203 0 0.7312891245930946 0.270954331678282 0 0.7468570075358373 0.2857097743365723 0 0.7620012229642212 0.3007367759717634 0 0.7650951359741962 0.3127993202215064 0 0.7681845689731213 0.3248709083825216 0 0.7712766237508568 0.3369392146454757 0 0.7743669281308971 0.3490101848048187 0 0.7894665955959976 0.364428339898038 0 0.792560534714038 0.376504922528472 0 0.7956508702894822 0.3885885475950586 0 0.7987399126307647 0.4007010658305492 0 0.8018397670758581 0.4127641003252865 0 0.8049276549798761 0.424859125047523 0 0.8231375721857312 0.4523597288020064 0 0.8262349832448022 0.4644409544149517 0 0.8293322878506976 0.4765232814693604 0 0.8324290140989219 0.4886056455455084 0 0.8355200236165262 0.5006958774217991 0 0.8506196453278211 0.5161707871123564 0 0.8537154832626068 0.5282630405248524 0 0.856815037091932 0.5403510740319906 0 0.8599142397146884 0.5524402686504164 0 0.8630130229554713 0.5645314053065731 0 0.8661119371524844 0.5766234975473824 0 0.8843502807561149 0.6041184389066827 0 0.8692102844146495 0.5887171935997993 0 0.8874769399148976 0.6161524228684202 0 0.8906009703727326 0.6282188527704177 0 0.8937014800555627 0.6403160839371616 0 0.8968020151655021 0.6524139774564934 0 0.899902714496887 0.6645120966550433 0 0.915100078600426 0.6798447513488235 0 0.9187428928441774 0.6916687293709869 0 0.9223364068210025 0.7034985055127848 0 0.9255641835831938 0.7155574387039813 0 0.9407026607137965 0.7310224368142283 0 0.9438070883495551 0.7431251251774406 0 0.9500171996973844 0.7673308758017996 0 0.9469119119964162 0.7552279425491784 0 0.9531217935239412 0.7794353514354064 0 0.9562262923570333 0.7915404539521278 0 0.9593326025556925 0.8036397354759472 0 0.9618430231784064 0.8158301121439046 0 0.9766309640396393 0.8343232882866383 0 0.9664430232638654 0.8279041536655081 0 0.9807351507939908 0.8432733432632512 0 0.98997504128936 0.8566591596657429 0 0.6101777611949745 0.01195742888136329 0 0.6125724222821762 0.02634951219338904 0 0.6273157036641834 0.04224789329029325 0 0.6304003549142616 0.05424716445769781 0 0.6335042873826038 0.06623724896131086 0 0.6365908674680456 0.07825596745296629 0 0.6516389300558405 0.0936184665876557 0 0.6547243102524366 0.1056456157752451 0 0.6578098214862479 0.1176759850863448 0 0.6608964151021089 0.1297039990464647 0 0.6639826087625167 0.1417338823975297 0 0.6670690235582799 0.1537650126091844 0 0.6701528124041505 0.1657950698864878 0 0.6852134292947683 0.1811499193124405 0 0.6883137267366248 0.1931691413690544 0 0.6914135337793492 0.2052022703477761 0 0.6945016101562583 0.2172434381131769 0 0.697338608590036 0.2291073032629046 0 0.7002620726329293 0.2409409607609327 0 0.7162896978443909 0.255645943225372 0 0.7193708532760185 0.2676683592985283 0 0.7500910739195429 0.2974717860349872 0 0.7774620974788817 0.3610764831781788 0 0.8080212134790489 0.4369467157599527 0 0.8111252619564088 0.4490090355122221 0 0.8386020723670989 0.5128104089723567 0 0.8723134583021563 0.6007851069317776 0 0.903014064941468 0.6765889280400095 0 0.9286688377955887 0.7276596834450416 0 0.9809132987675571 0.8523901885552487 0 1 0.862499999999638 0 0.7345279116801506 0.282629336206846 0 0.6029629629621371 0 0 0.6153685706866496 0.03891337235804024 0 0.6396777254851997 0.09028608233672367 0 0.6732428495037117 0.1778165437432451 0 0.7040673009629111 0.2524064073738263 0 0.7224045510288667 0.2796648737714247 0 0.7378844921333033 0.2944027137488788 0 0.753102350618884 0.3094474513749116 0 0.7561780407626655 0.3215509320510219 0 0.7592659640498245 0.333613324193978 0 0.7623475144637056 0.3457080152851137 0 0.7654446090067004 0.3577787544844937 0 0.780561317475845 0.3731422879301068 0 0.7836493611402806 0.3852275906000374 0 0.7867402486867935 0.3973365849611256 0 0.7898206546847784 0.4094741039648059 0 0.792888607663599 0.4215763398855711 0 0.7959819088407314 0.433648572437044 0 0.8142237580825001 0.4610818162195172 0 0.8173200865304587 0.4731640997020442 0 0.8204168819851337 0.4852465740234713 0 0.8235125038310733 0.4973277736432638 0 0.8266033110359767 0.5094216453979638 0 0.8416994339473233 0.5249019940358196 0 0.8447959152354896 0.5369902656684433 0 0.8478942914803866 0.5490785399213998 0 0.8509924240178754 0.5611685484263468 0 0.8540899705350941 0.5732603998630468 0 0.8571884591086836 0.5853532458427899 0 0.8754482586066017 0.612827162775736 0 0.8602832942620857 0.5974195726785394 0 0.8785704922438938 0.6248649741232346 0 0.8816747169949708 0.6369526192546097 0 0.8847748605252633 0.6490501292516776 0 0.8878747561024373 0.6611480749109913 0 0.89097605813043 0.6732423674096975 0 0.9063555556587272 0.6884410988141987 0 0.9099265601511932 0.7003025283619229 0 0.913487175255036 0.7122668540969694 0 0.9166277383577045 0.7243084917721281 0 0.9317733663099014 0.7397624056304106 0 0.9348777986320144 0.7518649470600619 0 0.9410866188013164 0.7760714952285592 0 0.9379823124654094 0.7639676277519883 0 0.9441906716840635 0.7881763125551694 0 0.9472967194792625 0.8002748999497366 0 0.9504125445559055 0.8123607524571065 0 0.9536752951370522 0.8244677682313295 0 0.9685415664210849 0.8404663471391834 0 0.9718024057811891 0.8520157105590574 0 0.9893585753409183 0.8688289881822957 0 0.9777624066174769 0.8626776603570936 0 1 0.8749999999996708 0 1 0.8874999999997039 0 1 0.8999999999997368 0 0.9901504819086442 0.8937555315026656 0 0.9894402862380729 0.8812500000028269 0 0.5964026079474412 0.01032653566646274 0 0.6008441335036061 0.02159365949789747 0 0.6035522917339061 0.03509392938317935 0 0.6184515626558575 0.05093144355830333 0 0.6215323759908795 0.06293210293386729 0 0.6246246422853378 0.07494220115233566 0 0.6277066279186725 0.08696089553980775 0 0.6427606051544851 0.1023159900923339 0 0.6458460414655754 0.1143410531507937 0 0.6489343249976897 0.1263661539222816 0 0.6520213051126817 0.1383919078832816 0 0.6551066215312926 0.1504217078588311 0 0.6581915347032419 0.1624537092793619 0 0.6612744429224031 0.1744837672111637 0 0.6763358720261625 0.189835688849327 0 0.6794420321882008 0.2018569964723424 0 0.6825297613160086 0.2138965870053277 0 0.6854907494919035 0.2258341036282684 0 0.6884438490341068 0.237705037587627 0 0.6915916211063509 0.2495785179231123 0 0.7073989745439843 0.2643286368504391 0 0.7104918791027679 0.2763845094912136 0 0.741169750844729 0.3061667824068874 0 0.7685528727793554 0.3698067848026308 0 0.7991052161747254 0.4456890243618211 0 0.8022117062351022 0.457731792359396 0 0.8296903024813689 0.5215394450661686 0 0.863409915114896 0.6094710241131787 0 0.8941298564104623 0.6852444844496205 0 0.9197401232270965 0.7363996138312014 0 0.9566583407432487 0.8365490139682896 0 0.9899392050990337 0.9062831890118689 0 1 0.9124999999997696 0 0.7257453164399089 0.2913772421999062 0 0.5905555555547555 0 0 0.60650107750562 0.04759440031457939 0 0.6308044701635432 0.09897557756497724 0 0.6643592462663526 0.1865034852488348 0 0.6950212834196151 0.2612986696355986 0 0.7135446528897108 0.2883997740086788 0 0.7289158923796513 0.3030613613080743 0 0.7441851042553593 0.3182010720132765 0 0.7472266513089842 0.3303967481199933 0 0.7503012560796039 0.3425108476533787 0 0.7534004497130079 0.3545376292924225 0 0.7565377914743557 0.3665334295437979 0 0.7716555755961936 0.3818583414525048 0 0.774736303603521 0.3939725486820574 0 0.7778443897719338 0.4060556530942451 0 0.7808997879021673 0.4182064628715488 0 0.7839732628343101 0.4302939659520882 0 0.7870603492508388 0.4423472069456905 0 0.805309654470578 0.4698052426744255 0 0.8084058337289755 0.4818854373082689 0 0.8115017774930759 0.4939693494014041 0 0.8145975836826798 0.5060501672768446 0 0.8176904217961756 0.5181406051916986 0 0.8327801843828785 0.5336288590346098 0 0.8358756745223666 0.5457174644300252 0 0.838973030524652 0.5578059184458461 0 0.8420699184511038 0.5698930182391024 0 0.8451676625396902 0.5819892017878053 0 0.8482586366499395 0.5940737762932753 0 0.8665382074627117 0.621514660219759 0 0.8513747045169964 0.6061188595335604 0 0.8696489030869656 0.6335897032641784 0 0.8727487807714571 0.645686858020459 0 0.875849123626645 0.6577835277533581 0 0.878949428547551 0.6698785709814512 0 0.8820534114355023 0.6819593811024796 0 0.8978010834327127 0.6971845942274406 0 0.9012380730669176 0.7090950205032917 0 0.9045984486482195 0.7209300550188595 0 0.9077076616370925 0.7330373055367154 0 0.922844349776033 0.7485019321245343 0 0.9259485676588378 0.7606043466615251 0 0.9290525421974347 0.7727073265097506 0 0.9321562961637123 0.7848110726716113 0 0.9352603391425427 0.7969132907525465 0 0.9383750050094759 0.8089859483485959 0 0.9414936431133873 0.8210873332550915 0 0.944616258646514 0.8331859829118186 0 0.9597648000111185 0.8486495752070784 0 0.9634504419256038 0.8604920149377142 0 0.9786583017313398 0.8762635434155813 0 0.980036431839123 0.8887853977935876 0 0.9815314932491886 0.9009169620549529 0 0.9900447974762907 0.9184651802856941 0 1 0.9249999999998024 0 1 0.9374999999998355 0 0.989522457985586 0.9298547181611645 0 0.5842235477777176 0.009675746445041012 0 0.5886674194716921 0.01994708170892562 0 0.5916282730708895 0.03166205139833367 0 0.5945733334633224 0.04417512382781606 0 0.6095844220218249 0.05961417122327215 0 0.6126646020954186 0.07163067275181811 0 0.6157490928564064 0.08363631927424364 0 0.6188398518267407 0.09565079272240889 0 0.63388874341561 0.1110014879121361 0 0.636975484728025 0.1230253266593765 0 0.6400615029369504 0.1350503920979562 0 0.6431467164953697 0.1470773614877454 0 0.6462290128572092 0.1591097488683159 0 0.6493136790708677 0.1711389650633736 0 0.6523987012605124 0.1831664323433455 0 0.6674659718116269 0.1985209125157071 0 0.6705603099894198 0.2105508212821436 0 0.6736471443656709 0.2225901246072182 0 0.6765947118962188 0.2345717643262337 0 0.6796521826637105 0.2464606951432166 0 0.6827972271290911 0.2583777691637708 0 0.6984882924738246 0.2732692635787056 0 0.7016513363770616 0.2851384709038781 0 0.7322133985249424 0.3148051642930415 0 0.7596530490572404 0.3785208910119296 0 0.7901941043524017 0.4543792907198528 0 0.7932910212451519 0.4664538924329256 0 0.8207623818853448 0.5302685385899758 0 0.8545015675388244 0.6181607825396999 0 0.8853264935250027 0.6939172966863365 0 0.9108116066254668 0.7451392143839179 0 0.9477283073408277 0.8452854957693492 0 0.9659831296589777 0.8728526442394988 0 0.9831890707248955 0.9124543356150445 0 0.9896640293834384 0.9425917265824297 0 1 0.9499999999998684 0 0.716691399833054 0.3000931387064781 0 0.5781481481473866 0 0 0.597637683458538 0.05626091795634528 0 0.6219282107778077 0.1076682279058656 0 0.6554943310226764 0.195190322910049 0 0.6862389845326935 0.2701763736729998 0 0.7046260685113623 0.2970732416774874 0 0.7200238634394976 0.3118265699559178 0 0.7352857408689364 0.3269098491211381 0 0.7383214640639638 0.3391168337255453 0 0.7413908062406432 0.3512065859343397 0 0.7445084553514008 0.3632275379041439 0 0.7476234840023648 0.3752233727962589 0 0.7627307292930499 0.3906295977291932 0 0.765814365625981 0.402744066745833 0 0.7688912617673351 0.4148551909617127 0 0.771972799510498 0.426946762806081 0 0.7750624915886611 0.4390077632078833 0 0.7781599696121396 0.4510659063948127 0 0.7963962723385809 0.4785219213768026 0 0.7994903295560265 0.4906054366714659 0 0.8025856399538676 0.5026894250221866 0 0.805682499978055 0.5147716550799704 0 0.8087737415649243 0.526854645859689 0 0.8238615044042894 0.5423488464086039 0 0.8269574543172 0.5544210370199517 0 0.8300501330924522 0.5665073793485027 0 0.8331465561506786 0.578597299469729 0 0.8362427839868616 0.5906905416331463 0 0.8393364295095713 0.6027579965952695 0 0.8576243702442177 0.6302269477821831 0 0.8424617024820992 0.6148388733917173 0 0.860723881655111 0.6423224985000175 0 0.8638235579478888 0.6544195537665625 0 0.8669233578652731 0.666517979589008 0 0.870022275259943 0.678614738938757 0 0.8731543210874666 0.6905938019921007 0 0.8889926192306215 0.7057980680382051 0 0.8924891067094923 0.7177156805805677 0 0.8956717283881575 0.7296709251342693 0 0.8987797872326487 0.7417761024640688 0 0.9139154705566503 0.7572414374687139 0 0.9170193528522936 0.7693435095075785 0 0.9201232243122661 0.7814448190874497 0 0.9232267838598687 0.7935410926937819 0 0.9263412994189137 0.805624450883205 0 0.9294711157281728 0.8177162182515435 0 0.9325774999745635 0.8298205292718462 0 0.9356927216216205 0.8419217919881434 0 0.9508327361001445 0.8573873578967737 0 0.9539328204342113 0.8694820322976586 0 0.9688380720187411 0.8845848586408664 0 0.9715510365865284 0.8968584531995105 0 0.9740673233100507 0.909129606974124 0 0.9784017778987185 0.9212825182736424 0 0.9795086187939496 0.934736645262388 0 0.9880437784283839 0.9561999923705249 0 1 0.9624999999999012 0 0.5719499050392245 0.01023333040023989 0 0.5773294809025995 0.01876798104379689 0 0.5798495033650204 0.02916106173481437 0 0.5826213897732683 0.04085076481267313 0 0.5856835004304028 0.05292959814828196 0 0.6007173350013001 0.06829564842149012 0 0.603800729261015 0.08031547021369309 0 0.6068804233581188 0.09232520827420622 0 0.6099702858858957 0.1043385277753529 0 0.6250185790313918 0.1196839036106342 0 0.6281037165209327 0.1317089692624575 0 0.6311886069954625 0.1437347479229836 0 0.6342729440267195 0.1557613327659008 0 0.6373531255257119 0.1677930728670437 0 0.6404389199155254 0.1798170620966741 0 0.6435253838013226 0.1918446065064691 0 0.6585885152334544 0.2072125974780716 0 0.6616786085627171 0.2192442308915876 0 0.6647626717407862 0.2312802877323632 0 0.6677379034746385 0.2433104190256693 0 0.6708589717487362 0.255330295965764 0 0.6739787877921952 0.2672910111094537 0 0.6895265935569738 0.2820479768560544 0 0.6927612633526712 0.2938407639727313 0 0.7232889527555784 0.3237402497864897 0 0.7507376871610512 0.3872642756834704 0 0.7812674748575124 0.4631236107804957 0 0.7843616757301284 0.4751886085419151 0 0.8118490500226156 0.5389800003563862 0 0.8455915384550413 0.6268822148377852 0 0.876770399335817 0.7025178989955974 0 0.9018825023981398 0.7538793939248551 0 0.9387967321115636 0.8540267699594555 0 0.9570065574643871 0.8815337364697952 0 0.9805225823692966 0.9465462953839242 0 0.9915243053284564 0.96865138010739 0 1 0.9749999999999343 0 0.7078430128206865 0.3087853776295443 0 0.5657407407400138 0 0 0.5887664323287576 0.06495656580263204 0 0.6130619593451037 0.1163467776143089 0 0.6466211094854141 0.2038691742556197 0 0.6773878749606791 0.2790146129893318 0 0.6957475439427558 0.3057868044184811 0 0.7111384687353232 0.3206264723991521 0 0.7263452608115719 0.3357599547062468 0 0.7294112144883391 0.3478672242624228 0 0.7324994013733579 0.3599189804321656 0 0.7355987993046751 0.371945229425879 0 0.7387081324799931 0.3839951578412319 0 0.7538067855906905 0.3994025244785017 0 0.7568809747802234 0.4115212275083207 0 0.7599730763935151 0.4235924139931853 0 0.7630671982015125 0.4356614473491687 0 0.7661613107299488 0.4477315122646255 0 0.7692515165045766 0.4597990284631099 0 0.7874666754289597 0.4872526731851278 0 0.7905691337224842 0.4993226734397869 0 0.7936698155616109 0.5114088699229065 0 0.7967678627555237 0.523494719662119 0 0.7998559169292884 0.5355781100961081 0 0.8149508526970001 0.551039713364444 0 0.8180373828281594 0.5631134575444172 0 0.8211357076557089 0.575198492097135 0 0.8242371888737299 0.5872880473864802 0 0.8273179371017244 0.5993649343037628 0 0.8304304419456309 0.6114555194909312 0 0.8486984518540583 0.6389603445944665 0 0.8335551843983821 0.6235342102190192 0 0.8517988010002846 0.6510528052242379 0 0.8548984156131697 0.6631518974064939 0 0.8579973563319974 0.6752511893247988 0 0.861096298838343 0.687346767280669 0 0.8644805584773458 0.6990958017382837 0 0.8803305593137859 0.7143579172359973 0 0.8836279520253847 0.7263196709288908 0 0.8867440170602169 0.7384179844577843 0 0.8898475541474618 0.7505195840876012 0 0.9049867748828031 0.76598067924758 0 0.9080904396397175 0.7780822498345448 0 0.9111925882120009 0.7901809409683289 0 0.9142989078751477 0.8022728779358922 0 0.9174293666683552 0.8143580482761835 0 0.9205500970883358 0.8264553997932993 0 0.9236570142200091 0.8385577108934996 0 0.9267610381925862 0.8506629495889965 0 0.9419017472082722 0.8661306486280079 0 0.9449981786758914 0.8782216874014956 0 0.9601517461041251 0.8937031190764779 0 0.9632463479853445 0.9058128181394158 0 0.9662972904118858 0.9179335494524339 0 0.9690692263184337 0.9301251660511003 0 0.9721548438723906 0.9422391145512277 0 0.9741856165156895 0.9555585688902902 0 0.9804009332876754 0.9682506335298773 0 0.9885832225225963 0.9801157403062909 0 1 0.9874999999999672 0 0.5595370370363454 0.01067270362624106 0 0.5659155388471562 0.01722788746478639 0 0.5681361626213537 0.02658368418558338 0 0.5708025061405959 0.03785027418952917 0 0.5737063548189684 0.04968800570365933 0 0.5767988818204417 0.06165743894186235 0 0.5918496639902866 0.07697551712888295 0 0.5949303425247794 0.08899174153786749 0 0.5980160417984256 0.1010044777176637 0 0.60110126226123 0.1130140062346585 0 0.6161472485862718 0.1283677277856382 0 0.6192317920030437 0.1403932191764569 0 0.6223162597392122 0.1524184830319262 0 0.6253986064025336 0.1644459721191944 0 0.628481671139288 0.176472612435321 0 0.6315697902122768 0.1884985710818134 0 0.6346559614593217 0.2005276772412279 0 0.6497107605288723 0.2159001230133225 0 0.6527970183240933 0.2279365383381953 0 0.6558819117380301 0.2399700527741002 0 0.6589574396465609 0.2519878764542225 0 0.6620624276065529 0.2640020922823203 0 0.6651073185013365 0.2759858782652148 0 0.6806318096449125 0.29084837601868 0 0.683867417025251 0.3025381616590288 0 0.7143292539909895 0.3324612200340971 0 0.741797965956619 0.3960797030378768 0 0.7723465617006762 0.4718549381303578 0 0.7754535657483551 0.4839159462444156 0 0.8029324330051795 0.547666569160141 0 0.8366703129508887 0.6356113682632822 0 0.8681245465846799 0.7109554854283298 0 0.8929538209438094 0.76261934589725 0 0.9298649876705505 0.8627689656598603 0 0.9481046870750364 0.8903306282875377 0 0.9908493236212099 0.9908493236212137 0 1 1 0 0.6990559706529189 0.3175614284233678 0 0.5533333333326754 0 0 0.5798979081492863 0.0736404526637271 0 0.6041921141868681 0.125026593059864 0 0.6377451737734012 0.2125568732703316 0 0.668419752754733 0.2877115784751643 0 0.6868538241396145 0.3144838326603832 0 0.7022897587522691 0.3293839885654961 0 0.7174221698280372 0.3445179568045161 0 0.7205140741959242 0.3565769888230144 0 0.7236067597000944 0.368637007432535 0 0.7266990573848482 0.3806981621037063 0 0.7297918010704003 0.3927602040002003 0 0.7448870112000032 0.4081592196457964 0 0.7479763690394385 0.4202366159929062 0 0.7510682930554731 0.4323066623835053 0 0.7541614063561181 0.4443755051210572 0 0.7572541618622722 0.4564462844767903 0 0.7603466698914654 0.4685172079109154 0 0.7785506668136645 0.495980238811934 0 0.7816568336034526 0.5080558321577915 0 0.7847608665767537 0.5201360032482936 0 0.7878461670026187 0.5322270647206168 0 0.7909433148907158 0.5443002968362007 0 0.8060434601798179 0.5597458227569913 0 0.8091547690149429 0.5718229324893003 0 0.8122586993707226 0.5839058959380243 0 0.8153562148242453 0.5959917322887351 0 0.8184555842991579 0.6080781423513529 0 0.8215436858304201 0.6201683099580924 0 0.8397735983908419 0.6476969185048743 0 0.8246519447537534 0.632253263571944 0 0.8428744257335322 0.6597882384456575 0 0.8459736820411341 0.6718858164841859 0 0.8490723519345003 0.6839821813599894 0 0.8522522434979796 0.6958660660399736 0 0.8557181819803232 0.7076082365478154 0 0.871609976110862 0.7229912288066221 0 0.8747038551199338 0.7350696023064296 0 0.8778118264794826 0.7471651608619021 0 0.8809157366490037 0.7592640236071999 0 0.8960583748029847 0.7747196607820671 0 0.8991620447610297 0.7868210329892815 0 0.9022649513039167 0.7989214757283147 0 0.905366714396294 0.8110126923580042 0 0.9085112710320472 0.8230941696591032 0 0.9116061204528851 0.8352062941772742 0 0.9147124015443757 0.847308670141917 0 0.9178175003757465 0.8594129803060128 0 0.9329691866535361 0.8748742802048248 0 0.9360740732199053 0.8869787985211499 0 0.9512163885532614 0.9024463735254212 0 0.9543150668644111 0.91455422557373 0 0.9574304735334632 0.9266570507145975 0 0.9605341420946552 0.9387574419600946 0 0.9630353410203822 0.9503338684468878 0 0.9686776586804535 0.9684675710971945 0 0.9749495861914174 0.9790241023362778 0 0.9811939558119313 0.9894561023391901 0 0.987499999999948 1 0 0.5479058223416857 0.01072817081171049 0 0.5556346954650682 0.02238441881222455 0 0.5587180840114004 0.03439982900794061 0 0.561801502456323 0.04641530428216172 0 0.5648365625657183 0.05837358329927185 0 0.5679328420931428 0.07035726534917774 0 0.5829809868470278 0.08565912342049353 0 0.586064599966753 0.09767289536456605 0 0.5891473740398318 0.1096828432815896 0 0.5922347846514178 0.1216934004100707 0 0.6072767325318408 0.137052118155934 0 0.6103608121473042 0.1490766479182674 0 0.6134440339079127 0.1611023776120441 0 0.6165268644739343 0.1731281982556766 0 0.6196112794597834 0.1851553999857957 0 0.6226968646897213 0.197183707113173 0 0.6257820493194517 0.2092134091522378 0 0.6408312805493211 0.2245903315240396 0 0.643916140690972 0.2366212126529368 0 0.6470058040425066 0.2486478912898245 0 0.6500989244166285 0.2606705313336559 0 0.6531944933089009 0.2726818209380397 0 0.6562895345332433 0.2846927495957333 0 0.671852098792979 0.2994320179848982 0 0.674967194694837 0.3112280267729052 0 0.7054800698993438 0.3412145721179608 0 0.7328848014514012 0.4048232673623361 0 0.7634406687368634 0.4805752507793418 0 0.7665551460798392 0.4926439680178178 0 0.7940432665500425 0.5563801723045603 0 0.8277511598532553 0.6443412578516049 0 0.8593558579102463 0.7196266202010354 0 0.8840245285330546 0.7713604328005351 0 0.9209264341745484 0.8715161889274683 0 0.9391778896456475 0.8990821597928578 0 0.9637701020759676 0.9599435835258877 0 0.6900521183313268 0.3262465888488948 0 0.5409259259252939 0 0 0.5710245782912353 0.08233623672845701 0 0.5953212550664267 0.1337147847620379 0 0.628867460156413 0.2212449840096399 0 0.6596632422996455 0.2962435482262409 0 0.6779592254531444 0.3231789716062499 0 0.6933422879276071 0.3380861152772223 0 0.7085252355248809 0.3532259639474178 0 0.7116182660182637 0.365287186754892 0 0.7147081166636682 0.3773454668728738 0 0.7177997381525818 0.3894069439756566 0 0.720891756169121 0.4014697014070125 0 0.7359778850588992 0.416887513823032 0 0.739070973748517 0.4289526586035977 0 0.7421639232650117 0.441018541264943 0 0.7452541120767768 0.4530896988886396 0 0.7483471558708419 0.4651579202760036 0 0.751439705003049 0.4772285180822377 0 0.7696497428660471 0.504706270874304 0 0.7727447853503625 0.5167830786620344 0 0.7758274080054425 0.5289083782241175 0 0.7788946400757433 0.541006282171741 0 0.7820063054998352 0.5530448750714843 0 0.7971464578591203 0.5684613878362745 0 0.8002385722165155 0.5805472480160035 0 0.8033358658458216 0.5926325916044977 0 0.8064333474038584 0.6047189485039324 0 0.8095323452658962 0.6168059488311928 0 0.8126336570404689 0.6288933639793086 0 0.8308516163178886 0.6564317601967221 0 0.8157321699678614 0.6409824644386922 0 0.8339509815638945 0.6685234313303219 0 0.8370495424684675 0.6806179667534533 0 0.8401474991179002 0.6927127965746351 0 0.843536460641235 0.7042303959360997 0 0.8471607580213545 0.7162378649762641 0 0.8626742245295749 0.7317171416502826 0 0.8657771508242017 0.743812749754527 0 0.8688826450760783 0.7559070209578709 0 0.8719846257910857 0.7680080166890515 0 0.8871298949734184 0.7834592500678951 0 0.8902337859136104 0.795559188324179 0 0.8933370557698999 0.8076571892792113 0 0.8964479514909949 0.8197535924961807 0 0.8995568693104969 0.831854805101955 0 0.9026632734675271 0.8439562433442915 0 0.9057661332036103 0.8560603484076543 0 0.9088740074688081 0.8681607591101805 0 0.9240369470451039 0.8836175974734923 0 0.9271412464238016 0.8957216866206086 0 0.9422837307018673 0.9111895139784556 0 0.9453929516168097 0.9232938618955651 0 0.9484974632187018 0.9353968009479965 0 0.9515961406262325 0.947455676132699 0 0.9544794821811666 0.9593668360508413 0 0.9568504261655708 0.9693557167106922 0 0.9625010910931399 0.9787648356919237 0 0.9687498890657277 0.9891745504589343 0 0.9749999999998958 1 0 0.5348165180096194 0.01047462704212293 0 0.541056383723998 0.02104953742233695 0 0.5467962527619334 0.03145803060179575 0 0.5499618092097387 0.0431671024778818 0 0.5529370316838292 0.05509248340211473 0 0.5559899453900821 0.06706811235032348 0 0.5590643072538704 0.07905007640792576 0 0.5741141553610781 0.09433905725203091 0 0.5771972867360393 0.1063502391566131 0 0.580280658898075 0.1183642836982659 0 0.5833660423027983 0.1303822440806794 0 0.5984059556730869 0.1457373376993203 0 0.601489505236117 0.1577602181208144 0 0.6045725595849737 0.1697849588308215 0 0.6076550196697658 0.1818113990411607 0 0.6107374220255902 0.1938403220874113 0 0.6138213997510658 0.205869060312806 0 0.6169049548680914 0.2179006833735815 0 0.6319514485628394 0.2332761394254213 0 0.6350348191355769 0.2453042736131976 0 0.6381280441578898 0.2573263856569573 0 0.6412217045880045 0.2693389006527946 0 0.6443449323015289 0.2812593912109568 0 0.6475548571927243 0.2929542667706608 0 0.6629501873835932 0.3079652099606268 0 0.6660246353899979 0.3198732421934983 0 0.6965905185116184 0.3499320619233278 0 0.7239835810942782 0.413533809986423 0 0.7545441404499186 0.4892856220548144 0 0.7576506702917699 0.5013450898832059 0 0.7851329186748993 0.5651018812677151 0 0.8188312291121044 0.6530722769563648 0 0.8505488951111781 0.7283541527128365 0 0.8750966264187741 0.7801014610099589 0 0.9119901672892478 0.8802561236976741 0 0.9302472119000132 0.9078259578239745 0 0.6812427179616072 0.3349776896456392 0 0.528518518517892 0 0 0.5621565481033478 0.09102554351866243 0 0.5864517377763659 0.142400126347351 0 0.6199895632168776 0.2299322007886961 0 0.6509130231406003 0.3047054665703626 0 0.6690922440028524 0.3319015378231427 0 0.6843985441094783 0.3467617905620154 0 0.6996368255494991 0.3619440278452336 0 0.7027185844755159 0.3739936656082775 0 0.7058097445191841 0.3860532425010657 0 0.7089007446053169 0.3981135413497692 0 0.7119914604396598 0.4101778093661216 0 0.7270755184496405 0.4255986924301284 0 0.7301672834359016 0.4376637473584462 0 0.7332602755620028 0.4497285020314876 0 0.7363490560829011 0.4617991577548112 0 0.7394431459427864 0.4738628039595438 0 0.7425367667231074 0.485927256771257 0 0.7607403550571938 0.5134294177130403 0 0.7638252228475558 0.5255447649163967 0 0.7668692058595432 0.5377427302078163 0 0.7699660372238035 0.5497707541480603 0 0.7730760747313303 0.5618079377331129 0 0.7882248104002159 0.5771869228666807 0 0.7913014914644215 0.5892768523413627 0 0.7943977699575538 0.601362993979155 0 0.7974928118732781 0.6134504946764108 0 0.8005936811437212 0.6255375276471153 0 0.8037102774785368 0.6376215182282714 0 0.8219298581962255 0.6651632537664582 0 0.8068085077460357 0.6497111127560441 0 0.8250275148617512 0.6772542083212223 0 0.8281759163927169 0.6892362711103246 0 0.831511870993067 0.7009861154631385 0 0.8352068305521071 0.712898126267042 0 0.8386282070372253 0.7249970328516736 0 0.8537503568847049 0.7404531676530159 0 0.8568536963944654 0.7525490307917547 0 0.8599566073752821 0.7646451150962694 0 0.8630629671130616 0.7767404722753343 0 0.8782020381258168 0.7921976368858644 0 0.881305816064631 0.8042973839863854 0 0.8844106073538757 0.8163972065252825 0 0.8875136855985445 0.8284999033312916 0 0.8906172244775621 0.840602243852785 0 0.8937208918162329 0.8527050983841653 0 0.8968250823111604 0.8648064753299418 0 0.8999462866020257 0.8768970639371452 0 0.915105122146514 0.8923585013519684 0 0.9182095131327579 0.9044626888570663 0 0.933353766985992 0.9199279479203316 0 0.9364611393446138 0.9320252986831133 0 0.9395726120993533 0.9440786732636247 0 0.9426261114650545 0.9559939700538269 0 0.9451281787769543 0.9677007634241716 0 0.9500065678643612 0.9783964421963569 0 0.9562510169379804 0.98918248313933 0 0.9624999999998438 1 0 0.5220141312778033 0.01051102417343047 0 0.5279546253252121 0.02078663968049385 0 0.5343609423491503 0.03073101342004423 0 0.5384517033537317 0.04023410513724609 0 0.541091668543438 0.05179834768220822 0 0.5440733548643449 0.06376980827729931 0 0.5471271308592893 0.07575553595540664 0 0.5502008973113292 0.08772475461753507 0 0.5652495312405251 0.1030144542688324 0 0.568332962302019 0.1150297116630594 0 0.5714160587908363 0.1270459577967681 0 0.5744993047881159 0.1390627155062211 0 0.5895356912804669 0.1544201308915168 0 0.5926183484649743 0.1664426618749842 0 0.5957036044678488 0.1784417416777573 0 0.5987791102331268 0.1904537319155644 0 0.6018561551725402 0.2024904696516389 0 0.6049440380458673 0.2145513802519401 0 0.6080275283102829 0.2265878232550242 0 0.6230734498256347 0.2419638916990036 0 0.626159518250919 0.2539894243001715 0 0.6292470321578727 0.2660156946988627 0 0.632325089657771 0.2780473414070523 0 0.6355188957510742 0.2898218574291141 0 0.6387602970969666 0.3015721734802409 0 0.654052581473949 0.3165486387782637 0 0.657130341433912 0.3285660292666822 0 0.6876512917540092 0.3585949397112947 0 0.715081621210984 0.4222450553727476 0 0.7456418858648833 0.4979936487950268 0 0.7487383768555778 0.5100712162442638 0 0.7761888104579162 0.5738757672248536 0 0.809909460271341 0.6618004900613472 0 0.8417239662839635 0.7370930889447478 0 0.8661693962289753 0.7888365977799811 0 0.9030638983557746 0.8889946280957278 0 0.9213130370817818 0.9165680271332635 0 0.6722317249280878 0.3436791740313903 0 0.5161111111105617 0 0 0.5532989777434443 0.09968790680772155 0 0.5775830706783737 0.1510818003611512 0 0.6111115667453826 0.2386186512085607 0 0.6420980305854019 0.3133037688585961 0 0.6601738496181407 0.3405698768520412 0 0.6755216894973934 0.3554858295084409 0 0.6907303698563858 0.3706426045070469 0 0.693821503854283 0.3827000070286996 0 0.6969116696718457 0.3947585138012643 0 0.7000020824387534 0.4068206319622896 0 0.7030910498779198 0.4188879886149842 0 0.7181707123041373 0.4343104168685351 0 0.7212614426076065 0.446374461174472 0 0.724354861314774 0.458439011310024 0 0.7274476419115398 0.4705047932399526 0 0.7305455158057579 0.4825690271837856 0 0.733639071412302 0.4946390000002032 0 0.7518224607432287 0.5221807686561517 0 0.7548884415703232 0.5343264844138861 0 0.7579291355767639 0.5464866814727836 0 0.761020861599605 0.5585360182314247 0 0.764143087837454 0.5705994841144928 0 0.7792714890242459 0.5859514649495249 0 0.7823051580358265 0.5980298421467836 0 0.7854575403779616 0.6101074053598177 0 0.788466194647179 0.622204165870483 0 0.7916842886787795 0.6342702760545225 0 0.7947716038398118 0.646359900558695 0 0.8130065475502645 0.6738910698547953 0 0.797872492322395 0.6584520086549879 0 0.8161021722328696 0.6859803142209722 0 0.8194317963947031 0.6978516932589329 0 0.8228901440495183 0.7097193033016784 0 0.8266203662245536 0.7216529254311236 0 0.8297426103043806 0.7337217434964045 0 0.8448269409650102 0.7491877915859341 0 0.8479289393993993 0.7612824077638589 0 0.8510319246171572 0.7733770470346308 0 0.8541386222470956 0.7854745960421132 0 0.8692745935990414 0.800934800154776 0 0.8723778611505209 0.8130355522532142 0 0.8754812321010923 0.825136805022596 0 0.8785847281186069 0.8372384953599218 0 0.8816878325314008 0.8493410659837807 0 0.8847918564152645 0.8614412338609423 0 0.8879023595276996 0.8735326926413305 0 0.8910222046594646 0.8856317047480173 0 0.9061737023783555 0.9010980079242344 0 0.9092775583597896 0.9132037801815707 0 0.9244245312708667 0.9286650280076177 0 0.9275481240117871 0.9407403045890816 0 0.9307240541361878 0.9527507040766714 0 0.934032295118753 0.964241182677244 0 0.9362773734668459 0.9768192672182237 0 0.9437499267558628 0.9891746925128394 0 0.9499999999997918 1 0 0.5099048550852264 0.01074365642630496 0 0.5159097135269894 0.02132689772603121 0 0.5222833924445465 0.03126436030148556 0 0.5284939973056105 0.03896336427847939 0 0.5295652670154218 0.04863681794841514 0 0.5322128969993555 0.06047287643905132 0 0.535209291982281 0.07244703815738646 0 0.5382491394490514 0.08439938533975133 0 0.5413523224993625 0.09634281957780137 0 0.5563850817120515 0.111691744870055 0 0.5594670955640294 0.1237102135757191 0 0.5625497676943256 0.135725498418814 0 0.5656321260434811 0.1477442612358436 0 0.5806657887524472 0.1631013079783103 0 0.5837427581873708 0.1750969678214221 0 0.5868328628067452 0.1870701680567464 0 0.5899029199715622 0.1990965080154468 0 0.5929735407707869 0.2111197196878913 0 0.5960629127711645 0.2232131866446774 0 0.5991515529076703 0.2352737004760215 0 0.614195272174118 0.2506488016233222 0 0.6172825142521808 0.2626775562446716 0 0.6203674406904149 0.2747112275684048 0 0.6233987474818447 0.2866918666827038 0 0.6266947402238714 0.2984672244186471 0 0.6297860154811691 0.3102726735870949 0 0.6451384164982696 0.3252734121627405 0 0.6482412218362633 0.3372645614375914 0 0.6787764277978645 0.3673893025367759 0 0.7061794742439566 0.4309573073086348 0 0.7367360596954324 0.506714419923138 0 0.7398199979849969 0.518821112053176 0 0.767230875061923 0.5826655285682647 0 0.8009822560764769 0.6705358640622252 0 0.8328011976776558 0.7458275775727122 0 0.8572439050223601 0.7975723922675769 0 0.8941367791986133 0.8977341715177373 0 0.9123826004406022 0.925309194826928 0 0.6633744457799888 0.3523501224362673 0 0.5037037037032137 0 0 0.5444409064314512 0.1083564283258255 0 0.5687146907465581 0.1597624621509079 0 0.6022342982572276 0.2473045120019664 0 0.6330350490957888 0.3220328172116954 0 0.6512858505727706 0.3492686929480939 0 0.6666623005254292 0.3642114356042476 0 0.6818486776358954 0.379373592075081 0 0.6849247115854401 0.3914052824224038 0 0.6880142435658422 0.4034623033922375 0 0.6911033264719366 0.41552363524936 0 0.6941885158265673 0.4276054715967013 0 0.7092558998363346 0.4430239253654688 0 0.7123516693351115 0.455086385529787 0 0.715454648687972 0.4671484165471769 0 0.7185461380904441 0.479214983497388 0 0.7216416921280487 0.4912817955141643 0 0.7247370718047951 0.5033499830358127 0 0.7428808304927221 0.5309648014761932 0 0.7459418598119534 0.5431151438152898 0 0.749018837295958 0.5552154947969472 0 0.7521141404109001 0.5672929125902395 0 0.7552104517972986 0.5793695586044245 0 0.7702885562978415 0.5947510771540083 0 0.773380969833368 0.6067841930583435 0 0.7764868372394372 0.618872127120051 0 0.7795938233206867 0.6309864502387441 0 0.7827284071141631 0.6430696836042042 0 0.7858360401165774 0.6551330038046463 0 0.8040822229210454 0.6826189146502492 0 0.7889352230541649 0.667214128370256 0 0.8071658194823851 0.6946949586607271 0 0.8106625008814095 0.7065995858289329 0 0.8140015589488266 0.7185762197860682 0 0.8176117201603124 0.7304256698568161 0 0.8208366146484735 0.742306904284568 0 0.8359030779488805 0.7579216627296211 0 0.8390020945056431 0.7700131393385741 0 0.8421046922147593 0.7821083236473722 0 0.8452141368510822 0.7942103933752573 0 0.8603467662528193 0.8096724845835751 0 0.8634497041886791 0.8217735778181793 0 0.8665529700692813 0.833874842531555 0 0.869655851520923 0.8459762383806519 0 0.8727584105335091 0.8580790068746321 0 0.8758676317329013 0.8701754414261149 0 0.8789892570058029 0.8822718461681518 0 0.882102032390951 0.8943705137685785 0 0.8972418202657337 0.909839023859127 0 0.9003456730626571 0.9219448781032181 0 0.9155066662528959 0.9373888888973261 0 0.9186724287595683 0.9494070563538762 0 0.9221774570215359 0.9609278282084311 0 0.9260653082794356 0.9699401777402131 0 0.931315203894044 0.9892378571175772 0 0.9374999999997398 1 0 0.4974991058338874 0.01074357712906235 0 0.5036993861661728 0.0214858968539325 0 0.5104134137662549 0.03223386712737209 0 0.5175877512402831 0.04366958623651946 0 0.5201747641710659 0.05712012965627464 0 0.5232674353975172 0.06910904549195096 0 0.5263170865092623 0.08108253228928229 0 0.5294008561175759 0.09303474622387185 0 0.5324892781505254 0.1050125510980039 0 0.5475225251689724 0.1203753442744527 0 0.5506003934540483 0.132404938773185 0 0.5536824254063801 0.1444103533253735 0 0.5567614375339631 0.1564341081123225 0 0.5717871240823464 0.171765268944569 0 0.5748449427074728 0.1837439048893086 0 0.5779383593355012 0.1957211634986338 0 0.5810374915106736 0.2077237952822057 0 0.5841226462535689 0.219792244998412 0 0.5871935467833624 0.2318980387200566 0 0.5902753620873447 0.2439596853392675 0 0.6053184468331727 0.2593348540261798 0 0.6084028791317666 0.2713665165226701 0 0.6114870245517792 0.283400055270679 0 0.6145225782669509 0.2953554920030208 0 0.6176209870712805 0.3071894174794721 0 0.6208794833938441 0.3190412680250053 0 0.6362732745643034 0.3339246574236143 0 0.6393525311679827 0.3459628590921359 0 0.6699001705429622 0.3760504146079034 0 0.6972627963881277 0.4396707643772698 0 0.727828025911293 0.5154285811999095 0 0.7308808142799397 0.5276027408327544 0 0.7582916041054268 0.5914283079803171 0 0.7920553671203591 0.679282875956347 0 0.8237649218344939 0.7543977176667603 0 0.8483168374220977 0.8063092209546245 0 0.8852061642357169 0.9064743419782739 0 0.9034504085710806 0.9340506665973067 0 0.923720562776629 0.9795645956501687 0 0.6545822392269526 0.3610779690429581 0 0.4912962962957995 0 0 0.5355869868362908 0.1170577855115793 0 0.5598476080928851 0.16844097088466 0 0.593357282726888 0.2559904520945508 0 0.6241660456967437 0.3308456175201656 0 0.6423974857309965 0.3579659840712552 0 0.6578188303074139 0.37291497549314 0 0.6729388821784369 0.3880539413476564 0 0.6760279459632331 0.4001100086923137 0 0.6791163156648536 0.4121702555290932 0 0.6821984362968527 0.4242418781066455 0 0.6852684482165783 0.4363087249790623 0 0.7002818939092399 0.4517518538660444 0 0.7033870315508108 0.4638126176400482 0 0.7065513880032548 0.4758595152927106 0 0.7096308383485015 0.4879296787683337 0 0.7127254238204728 0.4999972326293259 0 0.7158304553332735 0.5120638472949709 0 0.733938796980482 0.5397381519671288 0 0.7370169209620381 0.5518513988361038 0 0.7401100729850031 0.5639333234814491 0 0.7432049780465363 0.5760096844911169 0 0.7462997702866081 0.5880871894639073 0 0.7613760965568502 0.6034749958555069 0 0.7644537872491182 0.6155294614742493 0 0.7675809172202128 0.6276338174299472 0 0.7707017466536843 0.6397421266970906 0 0.7738024563734545 0.6518175911570367 0 0.7769060579954755 0.6638847104826986 0 0.7951599913176362 0.6913554222460452 0 0.7800070297412287 0.6759797124971347 0 0.7982474115527124 0.7034247742868033 0 0.8015413775837397 0.7154087436859102 0 0.8044564815867425 0.7276183743751088 0 0.8081816157679063 0.7389403348816638 0 0.8118599225942784 0.7505872375313054 0 0.8269803462104656 0.7666567021750509 0 0.8300565172479635 0.7787255821117572 0 0.8331855632296559 0.7908485239755298 0 0.8362879433819572 0.8029458297909806 0 0.8514199870855946 0.8184099676076043 0 0.8545222528763406 0.8305112564076897 0 0.8576244764711924 0.842612813446892 0 0.8607270842655317 0.8547143718309185 0 0.8638307888723903 0.866814765859705 0 0.8669381017051623 0.8789135598505808 0 0.870064793868965 0.8910064564418347 0 0.8731710246631597 0.9031095544657403 0 0.8883099043085914 0.9185798239072744 0 0.8914138519111156 0.9306856602687674 0 0.9065619044634714 0.9461610830091474 0 0.9096564966397548 0.958276269024734 0 0.914453241848739 0.9704222099170878 0 0.9249999999996876 1 0 0.9191413716211738 0.9895534388790562 0 0.4850926735031788 0.01071632196977994 0 0.4912952739636232 0.02148106283205967 0 0.4978936616037893 0.03185452266155946 0 0.5041001019563216 0.04239934606329802 0 0.5081943976317487 0.05391183611208111 0 0.5113198050432892 0.06576935927046626 0 0.5143871009441885 0.07777321479119638 0 0.5174594288323893 0.08977352212779607 0 0.5205407163022295 0.1017904774389427 0 0.5236325335985785 0.1137765707108308 0 0.5386590096637456 0.1291106933480632 0 0.541732763157445 0.1411192776830437 0 0.5448075558029986 0.1531252255838753 0 0.547893995575393 0.165119044633997 0 0.5629306739837188 0.1804547673454223 0 0.5659535255329295 0.1924150313822866 0 0.5690964565366576 0.2043744278690985 0 0.5721974161126324 0.216365968284866 0 0.5752709695727936 0.2284327613707747 0 0.5783150048882058 0.2406170913927311 0 0.5813968662666471 0.2526476937849383 0 0.5964397773048793 0.268021739902278 0 0.599523265245566 0.280054097289532 0 0.60260708280727 0.2920876491545956 0 0.6056906880027721 0.3041217632092716 0 0.6087224776638382 0.3161037157753045 0 0.6119463253542452 0.3278033665762996 0 0.6274364281219853 0.3426756379017423 0 0.6304647816613224 0.3546606106149424 0 0.660997107067399 0.3847484701143276 0 0.688260874297942 0.4483704492072003 0 0.718905705034388 0.5241664197178233 0 0.7219395568142636 0.5363764267968667 0 0.7493747848061143 0.6001483391571638 0 0.7831341330045167 0.6880319818284013 0 0.8143202463053535 0.7628744342423172 0 0.8393905466595545 0.8150470026054668 0 0.8762744005904486 0.9152146871765929 0 0.8945134527925322 0.9428136374965908 0 0.9137318772959573 0.981380025690561 0 0.6455969884104102 0.3697533324193512 0 0.4788888888884407 0 0 0.5267197786704021 0.1257908392754552 0 0.5509821261971579 0.1771152836664333 0 0.5844787019266759 0.2646672960695703 0 0.6152514049733585 0.3395797694999295 0 0.6335120266380559 0.366665079312231 0 0.6488916761234105 0.3816202997090439 0 0.6640404789783452 0.3967652487669152 0 0.6671298573405007 0.4088239843438831 0 0.6702150864105367 0.4208879097072105 0 0.673298925190644 0.4329552715784457 0 0.6763906364113843 0.4450190825779379 0 0.6912508727980268 0.4604628277495458 0 0.6945602837103612 0.4725027757816919 0 0.6976046330408254 0.4846406746166909 0 0.7006624173841485 0.4966578915157638 0 0.7037659109283936 0.5087531818924016 0 0.7069117161178426 0.5207801427858539 0 0.7250153567900252 0.5484930150414364 0 0.7281067303766476 0.5605765276976049 0 0.731201923090565 0.5726505022255635 0 0.7342967702865139 0.5847246131520221 0 0.7373910711286576 0.5967974242401941 0 0.7524668770492331 0.61220859630896 0 0.755566660408892 0.6242896673769841 0 0.7586826484494591 0.6363830716725641 0 0.7617949124745633 0.648463479670159 0 0.7648912068835789 0.6605464793415157 0 0.7679884931332916 0.6726127293358524 0 0.7862421820736509 0.700084011235933 0 0.7711026177530463 0.6846706296554872 0 0.7893416243955278 0.7121654140201948 0 0.7923488321765102 0.7241113039203322 0 0.7949902062334117 0.7357838779732659 0 0.7993347493842184 0.746919945268918 0 0.8023542374876246 0.7587406212355061 0 0.8173590735229408 0.7750474295794275 0 0.8209998101788553 0.7873266980588356 0 0.8242602785012793 0.7995830600147823 0 0.8273369879447229 0.8116843116874621 0 0.8424889502719625 0.827149229117525 0 0.8455937506280163 0.8392498695019779 0 0.8486961284907947 0.8513506136573668 0 0.8517988034188752 0.8634518412255403 0 0.854902038459496 0.8755530912591898 0 0.8580091945048014 0.8876516555579839 0 0.8611279106665626 0.8997486895915574 0 0.8642339743319384 0.9118517753699488 0 0.8793780015012249 0.9273203383843627 0 0.8824817347212572 0.9394264051973247 0 0.8975871346530596 0.9550250653619854 0 0.9007410356316015 0.9669546701905793 0 0.9041638958614353 0.9779216790136965 0 0.9124999999996356 1 0 0.9071803143718091 0.9894382049927961 0 0.4726849432193074 0.01058346391888827 0 0.4784253112053201 0.02348767901456496 0 0.4870005652797608 0.03318500040204886 0 0.4938004000348988 0.04084942482361904 0 0.4961227104874659 0.05103973276411738 0 0.4993768404821323 0.06243276414679064 0 0.5024586848845419 0.07444328671773857 0 0.5055352678570989 0.08645471192314858 0 0.5086185308195037 0.09846469681154084 0 0.5116972721965589 0.1104753015963682 0 0.5147786163315817 0.122485745704442 0 0.5297962383223049 0.1378253132643756 0 0.532864153855406 0.1498226717104153 0 0.5359422334339143 0.1618063698149618 0 0.5390334307105451 0.1737840187536957 0 0.5540576951055629 0.1891230941502411 0 0.5571152164023763 0.2010855048820561 0 0.5602454067503959 0.2130471812360453 0 0.5633463126510119 0.2250390083939328 0 0.5664042091600112 0.2371226968945159 0 0.5694570646826923 0.2491967758331934 0 0.5725186839367855 0.2612699343295509 0 0.5875613223796605 0.2767078195447864 0 0.5906439458177652 0.2887413513305097 0 0.5937271889405642 0.3007745644968617 0 0.5968098523556923 0.3128092917533645 0 0.5998329087221039 0.3247842158852405 0 0.6031162689394597 0.3364876234711873 0 0.6185231384971328 0.351425692870206 0 0.6215775310390577 0.3633575126175332 0 0.6521090232802664 0.3934860567068599 0 0.679352168952979 0.45705718688116 0 0.7099747871316709 0.5329251506855188 0 0.713023712643898 0.5451128231223632 0 0.7404809393948409 0.6088727095581932 0 0.7742263182254731 0.6967152716948537 0 0.804752599026636 0.7713169055332162 0 0.8304458760097635 0.8237900897665578 0 0.8673422274626326 0.9239546046661908 0 0.8855856824352101 0.9515329445450129 0 0.6368006906440977 0.3784826846762557 0 0.4664814814811004 0 0 0.5178597550323286 0.1344961627750571 0 0.5421162348384928 0.1857883403922213 0 0.5755999791199579 0.2733662048273199 0 0.6063202232305849 0.3482406786599764 0 0.6246251620688374 0.3753614610939239 0 0.6400274170308758 0.3903362788443289 0 0.6551568610459451 0.4055031801697204 0 0.6582308381208899 0.4175476018229421 0 0.661313991342545 0.4296080446359068 0 0.6644035880499772 0.4416637713656065 0 0.6674925737701073 0.4537227885803469 0 0.6822495019811616 0.4692064760583951 0 0.6854951873539443 0.4813602225378859 0 0.6886173485787209 0.4934561617339879 0 0.6916271623944359 0.5055574175404826 0 0.6948965883096055 0.5174636403753725 0 0.6979645220843281 0.5296009010485838 0 0.7161035323312648 0.5572250240139951 0 0.7191995473085226 0.5692941472667568 0 0.7222952189291578 0.5813659790447563 0 0.7253907349126649 0.5934393640592562 0 0.7284865965911727 0.60551288706388 0 0.7435822976187569 0.6209475131672644 0 0.7466863702588697 0.6330243748398938 0 0.7497833539252666 0.6451038335096322 0 0.7528792468028429 0.6571855129087707 0 0.755973613790257 0.669257250189498 0 0.7590798243650753 0.6813196633842837 0 0.7773240455675297 0.7088035243688446 0 0.7621940012587803 0.6933772726173194 0 0.7804212542874871 0.7208917755976545 0 0.783342048972153 0.7327996378698589 0 0.7866177242021792 0.7442470730037757 0 0.7900548156060018 0.7552327852535429 0 0.7929054009648444 0.767432212698089 0 0.8082780943712006 0.7836389073878338 0 0.8120485807234012 0.796034351268238 0 0.8153042661047609 0.8082860854963931 0 0.8183330170110228 0.8204538024505933 0 0.8335612883725055 0.8358871888158532 0 0.8366652038586336 0.8479879476689705 0 0.8397680178313258 0.8600881045429478 0 0.8428703309005934 0.8721894856550489 0 0.8459751330653266 0.8842896454490026 0 0.849081753239693 0.896389868491212 0 0.8521901825006404 0.9084901372771779 0 0.8553043358982126 0.9205897106556613 0 0.8704461487840456 0.9360604569825937 0 0.8735494773101092 0.948167464117324 0 0.8884772333248537 0.9643999587121722 0 0.8913512526395999 0.9768701624122282 0 0.8942933347236599 0.989074866743775 0 0.8999999999995836 1 0 0.4602773066287013 0.01005916545107347 0 0.4652421967925594 0.02069012436578054 0 0.4776866993546273 0.03585170596574635 0 0.483884960847156 0.04576852222707147 0 0.4874075532645864 0.05920227683658238 0 0.4905172973714608 0.07110730574419753 0 0.4935985076197679 0.08311626966774444 0 0.4966792542029466 0.09512718140810039 0 0.4997596598281172 0.1071359743405925 0 0.5028415059645639 0.1191477443635462 0 0.5059219233701624 0.1311579831226766 0 0.5209383000021464 0.1464995218339424 0 0.5239941120360702 0.1584824961131114 0 0.5270815501762695 0.1704657962978076 0 0.5301715338366585 0.1824499763259968 0 0.5451823642903638 0.1977741965703846 0 0.5482852350306492 0.209748434676181 0 0.5513918241247496 0.2217103870543617 0 0.5544766807514816 0.2337172247443689 0 0.5575233112222682 0.2457737467878956 0 0.5605946580324979 0.2578469108413015 0 0.5636526109315056 0.2699462940139855 0 0.5786822648631194 0.2853962278495089 0 0.5817650509664718 0.2974273395008264 0 0.584851582813997 0.3094293750339897 0 0.587918412723103 0.3214099157274904 0 0.5909069918517076 0.3333379177526019 0 0.5939635455184522 0.3451580715218636 0 0.6096122479701821 0.3600182269958997 0 0.6126925179727246 0.3720547075916381 0 0.6431988675188235 0.4021910875667583 0 0.6704603124177827 0.4657020810345652 0 0.7010310932415802 0.5417410059798895 0 0.704100092181263 0.5538793591800077 0 0.7315849886377236 0.6175868644301443 0 0.7653071742255891 0.7054423762856677 0 0.7959260486203064 0.7803466485403874 0 0.8215342067781677 0.8325239305842773 0 0.8584112219085315 0.9326917082809212 0 0.8764708192500394 0.9609257995339029 0 0.6278133814959008 0.3871647056590184 0 0.4540740740737054 0 0 0.4685976116533167 0.03225070585237642 0 0.5090035416493123 0.143168573766531 0 0.5332455695940096 0.194456643993233 0 0.5667252128582891 0.2820513081638787 0 0.5976410922551353 0.3566719895228215 0 0.6157415161627429 0.3840601418034158 0 0.6310982197035341 0.3990368307769477 0 0.6462398454201816 0.4142052633177379 0 0.6493293871656313 0.4262572287631947 0 0.652418662412161 0.4383109566956606 0 0.655494522129625 0.45046828615092 0 0.6585577003896467 0.4628888512094718 0 0.6734827203533691 0.4780393712676075 0 0.676604228652093 0.4902626761642874 0 0.6796501604159182 0.5023546132432958 0 0.6827606048886158 0.51436154051113 0 0.6858593856156115 0.5265022374971493 0 0.6889520232855919 0.5385669104715284 0 0.7071980360694193 0.5659381540227345 0 0.7102927672181792 0.5780097669983855 0 0.7133874962533585 0.5900820158580891 0 0.7164833116081299 0.6021554310183269 0 0.7195787554228905 0.6142290347200944 0 0.7346795284065678 0.6296648953770534 0 0.7377738500355235 0.6417440948044165 0 0.7408683241933249 0.6538253590168313 0 0.7439635347876312 0.6659068460165883 0 0.7470577182386592 0.6779728130717798 0 0.7501683741872865 0.6900326410294829 0 0.7684042841872671 0.7175299925685559 0 0.7532894257875162 0.7020881617607185 0 0.7715012218284777 0.7296177653656221 0 0.7744131296045884 0.7415162241915177 0 0.7775713954127023 0.7532299674655514 0 0.7808262313125659 0.7655679691545586 0 0.7839293698237949 0.7773225253384408 0 0.7995937360817358 0.7928226316832094 0 0.8031543072393597 0.8050173943817583 0 0.806036127349644 0.8172041997614274 0 0.8092980929025411 0.8292379904637528 0 0.8246348778463758 0.8446250320972453 0 0.8277375650537048 0.8567245953219638 0 0.830840067280312 0.8688252744962754 0 0.8339430850910097 0.8809259980571192 0 0.8370469981741249 0.8930270722616429 0 0.8401513254289361 0.9051288706983245 0 0.8432643972342235 0.9172234644062743 0 0.8463757483360981 0.9293174766968486 0 0.8615095132118185 0.9448168887769577 0 0.8645865325711901 0.9570170236522891 0 0.87672266503256 0.9754591915318743 0 0.8812499999995151 0.9891746824527096 0 0.8874999999995314 1 0 0.4478703787691451 0.01043700453555594 0 0.4529548569157568 0.01892977292842295 0 0.4573942335962971 0.02895307673926541 0 0.4717189563034174 0.04394116278877492 0 0.4753764538988651 0.05581421523333791 0 0.4785772458020343 0.0677731385360701 0 0.4816583937291661 0.07977998714141743 0 0.4847377565174482 0.09178594416187126 0 0.487819605905169 0.1037980143713546 0 0.4909003478562914 0.1158103569143522 0 0.4939817862779238 0.12782130912477 0 0.4970626173811062 0.1398311388624286 0 0.5120759914536117 0.1551704771172951 0 0.5151364831435883 0.1671521676898363 0 0.5182221710009678 0.1791360538223867 0 0.5213100154790168 0.1911269445301245 0 0.5363080421403472 0.2064330458975443 0 0.5394216126863018 0.2183967062534274 0 0.5425246490753017 0.2303823905167098 0 0.5456043922213718 0.2423985915899555 0 0.5486697300264627 0.2544215851934847 0 0.5517465473952732 0.2664731288896991 0 0.5547910426970419 0.2786368474080558 0 0.5698052408164789 0.2940809577770953 0 0.5728865232313692 0.3061117548928119 0 0.5760153025216758 0.317972360066656 0 0.5789955399599018 0.3299011779889456 0 0.5820667357072211 0.3418602824451307 0 0.5852730459545319 0.353677262495401 0 0.6007233897057488 0.3687350128034289 0 0.6038132726491107 0.3807577687583135 0 0.6342980195664043 0.4108949639165339 0 0.6615409643374981 0.4747688823600725 0 0.6920865129690877 0.5505717207259739 0 0.6951947687037263 0.5625928002947167 0 0.7226732032037605 0.6263048753790749 0 0.7563880979612763 0.7141684092440708 0 0.7871826839810929 0.7899523001463007 0 0.8126054153676967 0.8412615079361162 0 0.8494818707233023 0.9414230271485701 0 0.8676489706720036 0.9684230723188347 0 0.6190161533887851 0.3958896363536833 0 0.4416666666663233 0 0 0.4604782359416209 0.04043001180047746 0 0.5001429564852822 0.1518401866862275 0 0.524389915830851 0.2031379225279144 0 0.5578500552004875 0.2907346846911006 0 0.5886980759076181 0.3654172713616185 0 0.6068597665328297 0.3927594760275058 0 0.6222354792204152 0.4077443123213636 0 0.6373470900099546 0.4229057603838804 0 0.6404348306992678 0.4349589809575568 0 0.643523508970385 0.4470124210836966 0 0.6465710991854734 0.459210927970738 0 0.6495615827894828 0.471506381294144 0 0.6645816978426602 0.486984735796916 0 0.6676748851094187 0.4990368346212326 0 0.6707671871845707 0.5110913345368316 0 0.6738655857134264 0.5231483547398045 0 0.6769506108869395 0.5352045597542119 0 0.680046706695231 0.5472420635234871 0 0.6982915746026364 0.5746533749359806 0 0.701385636994444 0.5867252190015098 0 0.704479820939749 0.5987979701857589 0 0.70757423408498 0.6108714949573053 0 0.7106686748610622 0.6229457505461581 0 0.7257652252330571 0.6383850877321193 0 0.7288598191951792 0.6504651099234673 0 0.7319529280230018 0.6625465921804174 0 0.735044073799922 0.6746239516871176 0 0.7381506646864764 0.6866878664193861 0 0.7412569522567491 0.6987506118452119 0 0.7594849666983601 0.7262557727919919 0 0.7443706250399353 0.7108138286337532 0 0.7625816156910609 0.7383434743534457 0 0.7656785516988502 0.7504309045958421 0 0.7687758398848752 0.7625194577668986 0 0.7718561095805878 0.7746136349470878 0 0.7749510806097376 0.7867054037086524 0 0.7907299828088278 0.8018907390978752 0 0.7937976234227755 0.813990401515942 0 0.7964634462384039 0.8262020957654084 0 0.800464921372809 0.8379487594215073 0 0.8157077981566621 0.8533614648411074 0 0.8188100484147346 0.8654617980930166 0 0.8219122630217924 0.8775619029990074 0 0.825015105238359 0.8896634371687455 0 0.8281186373846611 0.9017640532229427 0 0.831225860348038 0.9138614289191027 0 0.834338930893416 0.9259531621905317 0 0.8374622156211593 0.938004158732058 0 0.8524750194006112 0.9537509616988445 0 0.8549566186338261 0.9672146340120299 0 0.8624662981349362 0.978488524463116 0 0.8693603793285801 0.9890325171879975 0 0.8749999999995011 1 0 0.4347591990546095 0.01118784869091584 0 0.4416671598842044 0.01707446876146019 0 0.4452778658236336 0.02636479771740216 0 0.4485460654753344 0.03711104627063678 0 0.4635597417396227 0.05243621015815729 0 0.4666397671674476 0.06444033101597653 0 0.4697198320783545 0.0764455948926487 0 0.4728005238598291 0.0884507788541562 0 0.4758801302725584 0.1004564112312914 0 0.4789604867536528 0.1124722181719201 0 0.4820422166534737 0.1244856644203384 0 0.4851240043012746 0.1364919231556917 0 0.4882046584296966 0.148500683277114 0 0.50321700984685 0.1638419566242429 0 0.5062801251970563 0.175817893370122 0 0.509366934058497 0.1877967935672874 0 0.5124484850143858 0.1997985200819376 0 0.5274503694801371 0.2151079986661705 0 0.5305547429412445 0.2270962445154451 0 0.5336430886884983 0.2390886529308717 0 0.5367296508623062 0.2510896147553537 0 0.5398213280715694 0.2630958956744378 0 0.5428974777542954 0.2751337336751142 0 0.5459043564991426 0.2873217788870767 0 0.5609282414011613 0.3027632277226929 0 0.564052188492421 0.3146325859168796 0 0.5671369960369463 0.3265647879797006 0 0.570172187621937 0.3385205858328107 0 0.5732791444404404 0.350463734015442 0 0.5764040665327089 0.3624394058135834 0 0.5918239694517664 0.3775422560047861 0 0.5949563220018785 0.389481609348675 0 0.6254107662093387 0.4196026675709408 0 0.6525935301905788 0.483632457478761 0 0.6831774299099003 0.5592544500194563 0 0.6862779943863555 0.5713143411904271 0 0.7137618996402927 0.6350223504721435 0 0.7474695163118324 0.7228944548026018 0 0.7782441585497106 0.798747176951043 0 0.8036765808926278 0.8500027643383035 0 0.840664780663382 0.9497538291970917 0 0.6100408911139183 0.40456403223334 0 0.429259259258989 0 0 0.4516261340715775 0.04910796654497614 0 0.4912767159428865 0.1605006552154841 0 0.5155200449465037 0.2118007137568668 0 0.5489677601462665 0.2993402683145772 0 0.5796193599185108 0.3745192457320209 0 0.5979740822494892 0.4014536546587444 0 0.6132786834324131 0.4164553988865008 0 0.6284542068242404 0.4316046300704501 0 0.6315413129287104 0.4436597807348527 0 0.6345918694736495 0.4557843938834153 0 0.6375890379777908 0.468055999312369 0 0.6406080150057514 0.4802764927629224 0 0.6556861895375387 0.4956838718582551 0 0.6587783940262305 0.5077410285003493 0 0.6618713408798922 0.5197983647444535 0 0.6649649070545947 0.5318581976777957 0 0.6680501808551207 0.5439144137793837 0 0.6711477796197995 0.555951892383673 0 0.6893802367692944 0.5833755819188553 0 0.6924778625403143 0.595441079633013 0 0.6955714273557124 0.6075137971837854 0 0.6986652187258227 0.6195871399964421 0 0.7017589964015444 0.6316615709235742 0 0.7168538577859149 0.6471033467975895 0 0.7199444873464916 0.6591861596549851 0 0.7230372318016408 0.6712667271629613 0 0.7261279799140424 0.6833436771410755 0 0.7292344030730972 0.695402713332707 0 0.7323458847991164 0.7074673659759536 0 0.7505661506212251 0.7349811854885584 0 0.7354524726041236 0.7195411582753839 0 0.7536625697029666 0.7470684042452214 0 0.7567584756900798 0.7591565099172242 0 0.7598543957730122 0.77124613339398 0 0.7629509526805033 0.7833365069927356 0 0.7660505600152876 0.7954228120112204 0 0.7813802824705638 0.8108319216073152 0 0.7843030189019152 0.8229414458363116 0 0.7873652347207387 0.8350775993835687 0 0.7915969606217428 0.846736206167167 0 0.8067816146403912 0.8621000993335977 0 0.8098821626708559 0.874198686394423 0 0.812983936917486 0.8862994535210734 0 0.8160860774696721 0.8984011870569832 0 0.8191907240305826 0.9104997971217086 0 0.82229878301607 0.9225986255529991 0 0.8254101406697656 0.9346986324599867 0 0.828621883987207 0.9464159015916291 0 0.8425439837741379 0.9611025361276244 0 0.8497796803244215 0.9793008978154185 0 0.8562485903100845 0.9893417371713552 0 0.8624999999995662 1 0 0.4223376710538556 0.01035574728321663 0 0.4345540376872772 0.02294499784070171 0 0.4365654454360788 0.03387902642041055 0 0.4396923437060378 0.0458183056466088 0 0.4547029505781355 0.0611073424742017 0 0.4577830664781954 0.07311115227092899 0 0.4608636237069993 0.08511534770029938 0 0.4639440689476853 0.09712076519704158 0 0.4670236353919751 0.1091297156006147 0 0.4701013058682035 0.1211365305750134 0 0.4731807361745733 0.1331443894209943 0 0.4762618908584203 0.1451480247444997 0 0.4793366218626736 0.1571492865440273 0 0.4943506322885238 0.172481609881156 0 0.4974285032645365 0.1844609941103191 0 0.5005094272721722 0.1964614150242371 0 0.5035877661653612 0.2084691516150935 0 0.5185989394120772 0.2237992333237927 0 0.5216807642398644 0.2357926205191395 0 0.5247723831475144 0.2477809276305429 0 0.5278619468775122 0.2597741109671721 0 0.5309558618018566 0.271770122729633 0 0.5340050448695143 0.2838152470221556 0 0.5370288219323585 0.2958668613827299 0 0.5520879214358484 0.3112784777724097 0 0.5552210507888676 0.3232136499781757 0 0.5583337120931844 0.3351981009192385 0 0.5613729711394728 0.3472387398969628 0 0.5644475802995729 0.3592719147697908 0 0.5675886398946743 0.3712361919858343 0 0.5830501835097517 0.3862855488285247 0 0.5860667372580318 0.398171177618317 0 0.6165036248924632 0.4283193175683285 0 0.6436988337443543 0.4923323015428541 0 0.6742646985299212 0.5679895849334239 0 0.6773712649063875 0.5800344469666014 0 0.7048500925244099 0.643739795391421 0 0.738551717530805 0.7316195806782738 0 0.7691788924707963 0.8075126258753855 0 0.7947613409326277 0.8587485030602313 0 0.8328042750029483 0.9562074475695774 0 0.8434640275171008 0.971168850520152 0 0.6011953587296314 0.4133045369936851 0 0.4168518518516177 0 0 0.4260427085732729 0.01912916714509193 0 0.4427728926943756 0.05778600338917859 0 0.4824133388168266 0.1691418029796916 0 0.5066659824876637 0.2204783054179659 0 0.5401002306692344 0.3078684316156227 0 0.5708081542940545 0.3830295598498043 0 0.5890885989835484 0.4101468276257581 0 0.6042859804287113 0.4251975266313471 0 0.6195603282284703 0.4403087654726725 0 0.6226470231120922 0.4523606913262052 0 0.6256603506794991 0.4645574286787955 0 0.6286639602642623 0.4768190584596445 0 0.6317194939485371 0.4889640365099271 0 0.646789449089316 0.5043890786392095 0 0.649881312356647 0.5164466866021137 0 0.652973550009776 0.5285052783753689 0 0.6560648181576406 0.5405658838223699 0 0.659154052892805 0.5526277469874941 0 0.6622483216294957 0.5646788820492673 0 0.6804770871856296 0.5920850297856008 0 0.6835701777223071 0.6041559416441045 0 0.6866630292305673 0.6162269811088893 0 0.68975596523727 0.6283013714891784 0 0.6928494506002343 0.6403771936444984 0 0.7079416227760601 0.6558215776114017 0 0.711030171577746 0.6679066042164585 0 0.7141223017128775 0.6799866151366565 0 0.7172172800005542 0.6920683769861595 0 0.720328019017185 0.7041168071072781 0 0.7234400487440241 0.7161796415184012 0 0.7416475234010244 0.7437062229542902 0 0.7265382296580816 0.7282598993266824 0 0.7447450294915582 0.755788127289855 0 0.7478420758881896 0.7678742420242367 0 0.7509354843493345 0.7799661403828823 0 0.7540416839505142 0.7920500384130498 0 0.7571473028146973 0.8041346411125168 0 0.7723142529205825 0.8194966722092714 0 0.7754715620815837 0.831517232146847 0 0.7786169232100963 0.8437505899206813 0 0.7827183181272859 0.8554794114537932 0 0.7978517982282367 0.8708346574867536 0 0.8009538177136161 0.8829348003684629 0 0.8040555676469365 0.8950361211016331 0 0.8071568187381098 0.9071386132667483 0 0.8102641579151844 0.9192379223135806 0 0.813371454881491 0.9313407139315572 0 0.8164882694161563 0.9434019968749926 0 0.8209499844899083 0.9562503524121568 0 0.8312407421001066 0.967514618519385 0 0.8374904923287289 0.9790101821544821 0 0.8437457238884007 0.9893273799350863 0 0.8499999999996529 1 0 0.4104916863785229 0.01065933571225462 0 0.4164272415210066 0.02097839568259648 0 0.4238883011541135 0.02989051038983025 0 0.4277526471242553 0.04258149862821319 0 0.430844496031557 0.05450200060892094 0 0.4458505822585956 0.06978036785346417 0 0.4489276881549099 0.08178003106557247 0 0.4520093991296954 0.09378552793651479 0 0.4550896898996196 0.1057894491056648 0 0.4581666518939476 0.1177955844958796 0 0.4612376876650509 0.1297932476607536 0 0.4643247646037159 0.1417996005440911 0 0.467400559778588 0.1538022655250797 0 0.4704774022279111 0.1658004024412417 0 0.4854938499351183 0.1811198373710346 0 0.4885722344518849 0.1931244563504517 0 0.491649335445678 0.2051311620235582 0 0.4947264786641671 0.2171391857385424 0 0.5097446590553881 0.2324888841318846 0 0.5128127278742449 0.2444795669849074 0 0.5159061203426611 0.2564609996258134 0 0.5190062723994362 0.2684384229675085 0 0.5220887159110115 0.2804453659625558 0 0.5251456048949278 0.2924662820281339 0 0.5282219846615012 0.3044836321097689 0 0.5432558813746788 0.3198590811194943 0 0.5463758644721215 0.3318544700511573 0 0.5494572594071359 0.3438824677885151 0 0.5525312548774336 0.3559144329260188 0 0.5556118934983996 0.3679419065697279 0 0.5587791505140337 0.3798097697320948 0 0.5741002528638934 0.3949034181137071 0 0.5771560740260313 0.4068378080791643 0 0.6074874366738188 0.437044089993051 0 0.6348027641252497 0.5010375167108942 0 0.665365400727589 0.5767034969911187 0 0.6684756484670361 0.5887378938803066 0 0.6959402938896379 0.6524578045917585 0 0.7296337396114954 0.7403445521243627 0 0.7602416662632925 0.8161868534477926 0 0.7858292535431757 0.8675022688530765 0 0.5921673783120298 0.4220199567280257 0 0.404444444444236 0 0 0.4339219615220477 0.06647552717445392 0 0.4735543989122282 0.1777927145082122 0 0.4978038428477405 0.2291497191226121 0 0.5313059205165322 0.3165022128149597 0 0.5619822095692025 0.3916949600632065 0 0.5802295335471749 0.418865867289072 0 0.5953560816964758 0.4339687025458129 0 0.6106424979574721 0.4490788109057784 0 0.613651870112687 0.4612955041584466 0 0.6166964915570925 0.4734341749130285 0 0.6197263907435056 0.485632559745482 0 0.6228169998080989 0.4976862898377655 0 0.6378932398615345 0.5130942394377759 0 0.6409840935716884 0.5251524402733552 0 0.6440750114494307 0.537211454874404 0 0.6471652054871311 0.549269304461371 0 0.6502550612668159 0.561318623592693 0 0.6533617888503845 0.5733532626707794 0 0.6715706778896497 0.6007986660037927 0 0.6746628827309157 0.6128677788683995 0 0.6777556337480242 0.6249402525343793 0 0.6808476509979495 0.6370160611715575 0 0.6839406239950935 0.6490939149238044 0 0.6990294195384394 0.6645352940132283 0 0.7021183292228855 0.6766167876647384 0 0.7052099757233361 0.6886978308357287 0 0.7083099280555539 0.7007560384366399 0 0.7114205694307638 0.7128267063938076 0 0.714525999259919 0.724900853705867 0 0.7327292107708649 0.7524283213312117 0 0.7176213087530012 0.7369833088192064 0 0.7358319039715258 0.7645012299907812 0 0.7389314907900217 0.776590060449682 0 0.74202976379291 0.7886750382315217 0 0.7451360400503522 0.8007650917474221 0 0.7482467070244643 0.8127973483419475 0 0.76354118794147 0.8278665847045557 0 0.7669406031623766 0.8401630141106711 0 0.770456051244055 0.8525035326935368 0 0.7737720714250093 0.8642296731790023 0 0.7889251991516335 0.8795759137844039 0 0.792026149993458 0.8916722791906389 0 0.7951277180512095 0.9037726558722975 0 0.7982309592378287 0.9158738921795164 0 0.8013362075870247 0.9279758918289549 0 0.8044415313720857 0.9400800973432598 0 0.8077151495593056 0.9516209554953321 0 0.8184719965094668 0.9676625110777333 0 0.8249740132664073 0.9783608939786781 0 0.8312437188579809 0.9892834916773322 0 0.8374999999997397 1 0 0.3982138243413651 0.01068764458504585 0 0.4035211201082667 0.02333058101669136 0 0.4119608746169439 0.03009211946147748 0 0.4157172220808835 0.03967080520836738 0 0.4189284694746901 0.05118289198895704 0 0.4219986616679356 0.06316777682611416 0 0.4369985264797853 0.07846469638222808 0 0.4400741016016902 0.090451612115163 0 0.4431572224672684 0.1024559624353475 0 0.4462371717512452 0.1144567033355053 0 0.4493130261423905 0.1264553793261961 0 0.4523908260473699 0.1384540639018253 0 0.4554680473440269 0.1504537535323501 0 0.4585451603201771 0.1624534176196676 0 0.4616236822016522 0.1744532406753123 0 0.4766375326354891 0.1897880794700461 0 0.4797141427371362 0.2017916490422675 0 0.4827896003927353 0.213801018651732 0 0.4858625555195352 0.2258124740217682 0 0.5008764641065381 0.2411543408482948 0 0.5039614606901737 0.2531398612856043 0 0.5070484570362386 0.2651188984871161 0 0.5101433072141569 0.2771062168299937 0 0.5132235587095135 0.289121697381302 0 0.5162994906087017 0.3011375580067362 0 0.5193805072246114 0.3131540444568598 0 0.5344204915248725 0.328511482229043 0 0.5375014635594233 0.3405365719877614 0 0.5405805453539035 0.3525596719629934 0 0.5436593362576455 0.3645888727775775 0 0.5467284009297704 0.3765482432122494 0 0.5499484369590939 0.3884838832279616 0 0.5652213011620958 0.4035607321623654 0 0.5682768563297298 0.4155356989461603 0 0.5985003160050888 0.4459628586164465 0 0.6259066446605752 0.5097418906071939 0 0.6564801631772532 0.5853750004752815 0 0.6595724312692868 0.5974438377831628 0 0.6870306039044168 0.6611695197173566 0 0.720716844247082 0.7490642227068158 0 0.7515045168045593 0.824378102337312 0 0.7768944514785061 0.8762070675962513 0 0.8119217647823744 0.9602786155019122 0 0.5832800791837325 0.4308028398319794 0 0.3920370370368668 0 0 0.4250710045188574 0.07515665934202415 0 0.4647042622889255 0.186452897509938 0 0.488940655632721 0.2378197949246999 0 0.5224679881013707 0.3251695635260885 0 0.5530829877515127 0.4004295805149314 0 0.5713498426145367 0.4275626501330665 0 0.5864152995754746 0.4427849434740277 0 0.6016329980602084 0.4580251636505023 0 0.6046832165668962 0.4701839063464719 0 0.6077586279153684 0.4822512636560388 0 0.6108329267037981 0.4943356788827648 0 0.6139222087177651 0.5063890653984016 0 0.628996564444831 0.5217995313210462 0 0.6320863472967224 0.533858133810119 0 0.6351763039447731 0.5459169738156846 0 0.6382633618377338 0.5579664997281314 0 0.6413640633460808 0.5700077172466923 0 0.6444712396040229 0.5820389331426917 0 0.6626647421506622 0.6095108843079614 0 0.6657561885403975 0.621579000868443 0 0.6688480857510446 0.6336503216998086 0 0.671939105484453 0.6457352829850214 0 0.6750324898744537 0.6578084600737073 0 0.6901205272541137 0.6732458730724488 0 0.6932106178377473 0.6853212118251175 0 0.6963018981312667 0.69739449398428 0 0.6994112984817847 0.7094662410156236 0 0.7025153349665312 0.7215412214360493 0 0.7056102620533833 0.7336224559866065 0 0.7238216283509492 0.7611412572131467 0 0.7087049589365363 0.7457037675974439 0 0.7269319874286542 0.7732214924808418 0 0.730031654158951 0.7853095779643531 0 0.7331330861045253 0.7973958290045717 0 0.7362373902269441 0.8094881404163515 0 0.7395584286475374 0.8210709287269322 0 0.7550401837903774 0.8365523181597929 0 0.7585177107066781 0.8487878270386131 0 0.7617052165479899 0.8608994930404437 0 0.7648653002043868 0.8728434594205614 0 0.7799965318966204 0.8883075984775874 0 0.7830985707040261 0.9004071550187775 0 0.7862002778060255 0.9125088977658207 0 0.7893041736697889 0.9246111783028345 0 0.7924080784643787 0.9367145263291314 0 0.7957212292923663 0.948308143302897 0 0.8004506216535227 0.9590133448148941 0 0.8124443389704268 0.9785236216119989 0 0.8059795783022424 0.9685190156729284 0 0.8187478075534852 0.9891711500764032 0 0.8249999999998263 1 0 0.3858324797383128 0.01049903975304194 0 0.3904440575733109 0.02117868711663253 0 0.4040719726999168 0.03593758719777984 0 0.4070026391001941 0.04785463382687682 0 0.4100803287897621 0.0598498888139834 0 0.4131505222619289 0.07183710700268398 0 0.4281483159163652 0.08714496048481209 0 0.4312270734464033 0.09913136834436437 0 0.4343073179340861 0.1111255931611605 0 0.4373853317366622 0.1231218625192604 0 0.4404627667278295 0.1351189802206902 0 0.4435414060899872 0.1471201796043742 0 0.4466186221602875 0.1591201654779722 0 0.449695738060744 0.1711196394193967 0 0.4527738278257757 0.183119673754994 0 0.4677815229984198 0.1984537226539793 0 0.4708568453453681 0.2104573732179121 0 0.4739290346318422 0.2224605949106843 0 0.4770021425805858 0.2344663949669565 0 0.4920169733036154 0.249820295029987 0 0.4951015924316488 0.2618000684730754 0 0.4981975041339921 0.2737731642224415 0 0.5012792196189306 0.2857811997774844 0 0.504357945396691 0.2977958350801638 0 0.507437644365858 0.3098110789719872 0 0.5105177986389378 0.3218282513344985 0 0.5255484671238625 0.3371915458072023 0 0.5286287760410069 0.3492098408315579 0 0.5317086975963881 0.3612300944709739 0 0.5347897730696469 0.3732467841963772 0 0.5378521601204447 0.3852443642201337 0 0.5409617383191594 0.3972304699339119 0 0.5562891970971395 0.4122987453132419 0 0.5594178156847984 0.4242532257160259 0 0.5896369307578289 0.4547516810698395 0 0.6170109879114851 0.5184458267003881 0 0.6475748788074949 0.5940894523086003 0 0.6506678091255782 0.6061545833174304 0 0.6781228600060019 0.6698819223274707 0 0.7118069266044429 0.7577790831036257 0 0.743221175933962 0.8331543092621025 0 0.7679666641626414 0.8849426615846483 0 0.5744517156076572 0.4395341723824924 0 0.3796296296294943 0 0 0.393062515921866 0.0330657067777174 0 0.4162248445979072 0.08382589598708204 0 0.4558503720926723 0.1951185887940175 0 0.4800790994672892 0.2464674805294839 0 0.5135974153832308 0.3338478094290956 0 0.5440541654248156 0.4093245950074806 0 0.5624691454112005 0.4362571502646749 0 0.5775749706706803 0.451518354847476 0 0.5926831569612785 0.466878220806031 0 0.5957618363033634 0.4789359833667136 0 0.5988509056175554 0.4909852786817724 0 0.6019396390180503 0.5030360763212416 0 0.6050266822492807 0.5150911839309059 0 0.620098636257181 0.5305055227103055 0 0.6231883315792355 0.542564077148762 0 0.6262778967885552 0.5546211401611112 0 0.6293649021304525 0.5666656287005344 0 0.632473658324137 0.5787046379257698 0 0.6355773345745709 0.5907411983254434 0 0.653759085040974 0.6182218975720523 0 0.6568492171849221 0.6302955864494131 0 0.6599403440797074 0.6423673461736292 0 0.6630318953598089 0.6544486960100939 0 0.66612423209339 0.6665229884631134 0 0.6812176803309999 0.6819547839783827 0 0.6843154119534121 0.6940286974743408 0 0.6874052423142963 0.7061065862597991 0 0.6905057274928512 0.7181821619495539 0 0.6936006513318067 0.7302616286695638 0 0.6966954419869623 0.7423398981802434 0 0.7149144795584277 0.7698593603894397 0 0.69979285197647 0.7544163469462846 0 0.7180200041368567 0.7819471509371297 0 0.721117991908774 0.7940328267405288 0 0.7242212865972758 0.8061086969680635 0 0.727565956290716 0.8179227409440238 0 0.731353723546103 0.829857298828353 0 0.7466351215000862 0.8452850620141292 0 0.7497358346285123 0.8573820139599506 0 0.7528366991225441 0.869479800014222 0 0.755937857737951 0.8815784345900554 0 0.7710684368413583 0.8970428144588763 0 0.7741702782682434 0.9091439099005738 0 0.7772725079274789 0.9212461880896027 0 0.7803747965314143 0.9333493364281289 0 0.7836049784625271 0.945784993553541 0 0.7878599629760414 0.9574076604902289 0 0.7935060450088065 0.967945678426066 0 0.7999539645310432 0.9784245915153225 0 0.8062324441938636 0.9892152345261889 0 0.8124999999999131 1 0 0.3734155673960002 0.01052626882073145 0 0.3781604093713918 0.01972331115935404 0 0.3817245815451917 0.03099025217234886 0 0.3951662106697216 0.04491671882564 0 0.3981562196769756 0.05651950358650955 0 0.4012321119745164 0.06850997594493625 0 0.4043077656849135 0.08049789670533292 0 0.4193025936300197 0.0958116093753012 0 0.4223802198353881 0.1078001056849412 0 0.4254588215966411 0.1197899937484539 0 0.4285356583993281 0.1317825446360285 0 0.4316140348917024 0.1437835000219717 0 0.4346933105917639 0.1557919367123375 0 0.4377681201974616 0.1677974734562686 0 0.4408466199975211 0.1797933289543945 0 0.4439216621609011 0.1917896982832017 0 0.4589270505750848 0.2071178598346926 0 0.4619997207369911 0.2191193942141168 0 0.4650702341017623 0.2311156107534545 0 0.4681476695414508 0.2431169945800824 0 0.4831653459048654 0.2584599830669004 0 0.4862564432945124 0.2704338107061008 0 0.4893365124925473 0.2824427006732144 0 0.4924147873862926 0.2944546406588929 0 0.4954920435657686 0.3064695440752939 0 0.4985695432081563 0.3184868129016593 0 0.5016486510231127 0.3305043434585026 0 0.5166769690346034 0.3458679357700959 0 0.5197596413080297 0.357881558097418 0 0.5228436070124045 0.3698963466718785 0 0.5259258721425522 0.3819215173609061 0 0.5290107649809477 0.3939483429466315 0 0.5320922595187831 0.4059781751367093 0 0.5475789096465171 0.421039194621826 0 0.5505218015014752 0.4329315792060047 0 0.5806941905276182 0.4635507513374664 0 0.608114325445291 0.5271470628035304 0 0.6386720037204672 0.6027990964509874 0 0.6417630216722761 0.6148650830209289 0 0.6692166579728611 0.6785963114546079 0 0.7028982914015699 0.7664981642616491 0 0.7346187391966219 0.8419314684303387 0 0.7590389514677419 0.8936780676601841 0 0.5655749904242053 0.4482490091483026 0 0.3672222222221126 0 0 0.3834471529347887 0.04204041433721187 0 0.407382970061085 0.09248507582268242 0 0.4469981362903666 0.2037831729574267 0 0.4712245432904628 0.2551145700308914 0 0.5047274665983685 0.3425220980575106 0 0.5352881292353515 0.4178906319791955 0 0.5535888850697972 0.444950948751158 0 0.5686766971312979 0.4602395716727271 0 0.5837837152140144 0.4755861056272214 0 0.5868715761283424 0.4876346091586617 0 0.5899591638712869 0.4996841001453174 0 0.5930466332342728 0.5117346271129295 0 0.5961326995229096 0.5237868243423049 0 0.6112008320511153 0.5392097312041382 0 0.6142910025212036 0.5512694183202635 0 0.6173769304301668 0.5633205592314177 0 0.6204590196464845 0.5753627186493743 0 0.6235810924283407 0.5873885049598533 0 0.6266710663114026 0.5994509352137332 0 0.6448522872576894 0.6269405214266651 0 0.6479410505749363 0.6390189701482478 0 0.6510320280995175 0.6510929676658965 0 0.6541240661905673 0.6631651604669576 0 0.6572120400967638 0.6752381389391453 0 0.6723099572676042 0.6906706110489138 0 0.675404040493264 0.7027458867254427 0 0.6784979593647865 0.7148229578489236 0 0.6815921637737916 0.7269012694489458 0 0.6846864929033953 0.7389801634006862 0 0.6877831004511298 0.7510591034644191 0 0.7060029834878945 0.778584863563063 0 0.6908819051947557 0.763139836002418 0 0.7090996340590491 0.790673464632258 0 0.7121968764927536 0.8027628060332506 0 0.715322391327337 0.8147523028764339 0 0.718944837202377 0.8266423678142198 0 0.7224507780089726 0.8385585603769963 0 0.7377093125961891 0.8540182924137384 0 0.7408096190240185 0.8661158089763112 0 0.7439098897977422 0.878214179196994 0 0.7470106148398725 0.8903133383688553 0 0.7621397312174254 0.9057789046210956 0 0.7652410363563205 0.9178809550114031 0 0.7683420194699986 0.929983854476861 0 0.771359318448825 0.9424503014301404 0 0.7739093364568553 0.9560354868623593 0 0.7811582748839132 0.9677646945097723 0 0.7874822630728355 0.978399177729125 0 0.7937485541083138 0.9891720439534089 0 0.7999999999999998 1 0 0.3608479085007796 0.01131711299877281 0 0.3676127635265427 0.01782247771715884 0 0.3703030044900693 0.02751222860728195 0 0.3720130284265314 0.03859520027587125 0 0.3861438485694251 0.05347098695788505 0 0.3893143702554686 0.06518207294431147 0 0.392389705330859 0.07716938448436586 0 0.3954654758041152 0.08915665331702539 0 0.4104585962187604 0.1044721318839799 0 0.4135356957859693 0.1164594701643976 0 0.4166116730328865 0.1284481381775235 0 0.4196885346204301 0.1404401583125931 0 0.4227686847967752 0.1524580637203554 0 0.4258400121486872 0.1644656310079318 0 0.428917456653067 0.1764723252016413 0 0.4319961583651857 0.1884630512441475 0 0.4350709360590486 0.2004552211745506 0 0.4500737783079486 0.2157803886781647 0 0.4531453926402894 0.2277770511879484 0 0.4562224116439887 0.2397720439966597 0 0.459301040632043 0.2517692713344746 0 0.4743109604381851 0.2671084938357934 0 0.477395787876113 0.2791058400284984 0 0.4804738623233194 0.2911140202540699 0 0.4835485237545088 0.303129607520328 0 0.4866241922595406 0.3151449809267358 0 0.4897011650666622 0.3271620987833316 0 0.4927796392355964 0.3391792556564217 0 0.5078078051430068 0.3545386219706833 0 0.5108912063184605 0.3665542912937488 0 0.5139741301802074 0.3785756925672444 0 0.5170543689386522 0.3906020498756326 0 0.5201347538285256 0.4026290614759349 0 0.5232066680823722 0.4145842383799628 0 0.5386942388617177 0.4297283288645023 0 0.5416493116283405 0.4416322456456528 0 0.5718074038950696 0.4722358832639569 0 0.5992161146797745 0.5358432879331407 0 0.6297686036856589 0.6115087638124783 0 0.632858378100203 0.623576547773661 0 0.6603028368800412 0.6873124527341858 0 0.6939851063971103 0.7752234289720538 0 0.7256856239450038 0.8506560311752278 0 0.7501111418865457 0.9024127573310198 0 0.5566774954973007 0.4569406578501483 0 0.3548148148147337 0 0 0.3743766019829305 0.05018506406561314 0 0.3985400738974395 0.1011416155292536 0 0.4381473909047544 0.2124469167515381 0 0.4623750068412745 0.2637707313727745 0 0.4958588131780651 0.3511960112418184 0 0.5263760513959882 0.4264034637631702 0 0.5447007826515111 0.4536350809124416 0 0.5597921776993844 0.4689387797478877 0 0.5748924209964394 0.4842886285705049 0 0.5779809410172623 0.4963331165484552 0 0.5810677831705685 0.5083818087040939 0 0.5841539348325981 0.5204303441933159 0 0.5872378793696256 0.532481882051572 0 0.6023025853808589 0.5479025764589114 0 0.6053929321084779 0.5599638040239872 0 0.6084808597926299 0.5720245981158488 0 0.611570743938488 0.5840701608950186 0 0.6146706446308268 0.5961186201832838 0 0.6177634261798544 0.6081761789319338 0 0.635946101278496 0.6356554454646363 0 0.639033838282895 0.6477389181947221 0 0.6421252564560391 0.6598079093608132 0 0.6452170045904688 0.6718766644240112 0 0.6482901132320423 0.6839554693720693 0 0.663398880638212 0.699386784478738 0 0.6664910242320288 0.7114629173212064 0 0.6695836416625208 0.7235409943362369 0 0.6726782136684781 0.7356202606861136 0 0.6757725069197309 0.7477000402641698 0 0.6788711785149631 0.759781181513724 0 0.6970824835608163 0.7873109647675505 0 0.6819665681582382 0.7718648678399213 0 0.7001788645834071 0.7993995749819499 0 0.7032749549993951 0.8114896202052984 0 0.7067463382815842 0.823414720765226 0 0.71022983575955 0.8353485830942866 0 0.7136593875585822 0.8472905404228733 0 0.7287835491629425 0.8627516531166035 0 0.7318827289599947 0.8748495801957398 0 0.7349827327085148 0.8869484823541374 0 0.7380831154407401 0.8990481090807414 0 0.7532123990863507 0.9145139738060688 0 0.7563113074207013 0.9266174609273583 0 0.7594113557692623 0.9387219050694462 0 0.7625134240028921 0.9508262321905061 0 0.7688187901537931 0.9685605586237542 0 0.7749976575888932 0.9784216893016611 0 0.7812462773462384 0.9892050250561504 0 0.7875000000000865 1 0 0.3487024672304909 0.00961453646855855 0 0.3605938600420899 0.02272001837871521 0 0.3608907111744808 0.03405162806172893 0 0.3624778104865815 0.04607150563299525 0 0.3773526941556729 0.06201962441997395 0 0.3804694543989093 0.07383723184031912 0 0.3835529706602607 0.08583487314334484 0 0.3866227433453091 0.0978205092671738 0 0.4016155191364808 0.113127841170954 0 0.4046906681744501 0.1251159060581648 0 0.4077700946688105 0.13710732092931 0 0.4108468151911804 0.14910995486269 0 0.4139202769653011 0.1611193897093202 0 0.4169928026755476 0.1731329823671298 0 0.4200724465532995 0.1851398022413657 0 0.4231478287672772 0.1971279316097311 0 0.4262234568039608 0.2091163362564203 0 0.4412188290414987 0.2244420673887522 0 0.4442935641467479 0.2364374523460244 0 0.4473686686752525 0.2484346001334344 0 0.4504458975482133 0.2604329581816194 0 0.4654584719106532 0.2757691033486708 0 0.4685363423895879 0.2877742692474585 0 0.4716069032098162 0.2997889643018738 0 0.4746793537823155 0.3118054949051018 0 0.4777536449731504 0.3238229908303186 0 0.4808329388980251 0.3358374439718746 0 0.4839112532228889 0.3478536318446571 0 0.4989390222270783 0.3632132758918448 0 0.5020207841763359 0.3752322173761081 0 0.5051004714446061 0.3872558541481355 0 0.5081796200180848 0.3992802261218146 0 0.5112320999388897 0.4112643150316156 0 0.5143921211779099 0.4231839939653855 0 0.5296557194702169 0.4383215510821241 0 0.5327423584231462 0.4502965317749544 0 0.5629081883940363 0.4809555255342866 0 0.5903242380607001 0.544535003368119 0 0.6208629919047068 0.6202238307115786 0 0.6239519385841149 0.6322932487098309 0 0.6513921146494607 0.6960279622515297 0 0.6850655161813526 0.783949473514012 0 0.7167574590080302 0.8593875632481202 0 0.7411878403573791 0.9111467708542668 0 0.7629571282735333 0.9603551012961494 0 0.5477965920554233 0.4656291564653747 0 0.3424074074073709 0 0 0.3530143564989355 0.01807327462199771 0 0.3654799234832247 0.05862188371378729 0 0.3896993062818803 0.1097986976622266 0 0.4292961769625472 0.2211073487201647 0 0.4535225816955165 0.2724333956366229 0 0.4869903125608531 0.3598706167499331 0 0.5176201330753553 0.4350364087028921 0 0.5358203763675202 0.4623261965618888 0 0.5509109479102359 0.4776405565868608 0 0.5660027013299125 0.4929865312904478 0 0.5690900657430625 0.5050310424712725 0 0.5721766924134102 0.5170787603300038 0 0.575262536772129 0.5291259777524956 0 0.5783477699557025 0.5411758710941275 0 0.5934099960544863 0.5565923505460912 0 0.5964994214192292 0.5686620184573127 0 0.5995871204941838 0.5807331360625037 0 0.6026724140501338 0.5927841665815506 0 0.6057651248767415 0.6048417745176136 0 0.6088592687284525 0.6169071687283578 0 0.6270390376262985 0.6443772826398536 0 0.6301285298777248 0.6564508091486149 0 0.6332165689976028 0.6685207123570465 0 0.6362840392987008 0.6805989002320216 0 0.6393762049622486 0.6926720494157018 0 0.6544843121796101 0.7081041309837888 0 0.6575765711223256 0.7201811661236184 0 0.6606689595774583 0.7322598393877544 0 0.6637640756326519 0.7443395378233437 0 0.6668589651162717 0.7564209167442596 0 0.6699542835319046 0.7685036316774811 0 0.6881619276925242 0.7960367310649695 0 0.6730499726444023 0.7805881261548202 0 0.6913508658951324 0.8080135108877031 0 0.6947450082441697 0.8201340209763979 0 0.6982372074088853 0.8321740080025644 0 0.7016073979250722 0.8440497248998683 0 0.7047297461944665 0.8560252182687982 0 0.7198564049460834 0.871484143447547 0 0.7229554934716271 0.8835830794096278 0 0.726054958312628 0.8956829768939919 0 0.7291816864837301 0.9077735212126253 0 0.7442874968706965 0.9232481278891184 0 0.7473793177227177 0.9353552758523259 0 0.7504800297077596 0.9474605105744565 0 0.7534251725940093 0.9593434902480453 0 0.76249832852572 0.978729179476383 0 0.7565277066789758 0.969448565689195 0 0.7687491893071284 0.989237239352708 0 0.7750000000001732 1 0 0.3391021550848177 0.009256432877833695 0 0.3414442426683789 0.01906117279318547 0 0.3506804956948795 0.02775324997686077 0 0.3496415636841249 0.04163658660886518 0 0.3537072233211103 0.05497438473466773 0 0.3685910003983565 0.07060011318198282 0 0.3716381991537708 0.08254518044253292 0 0.3747112512776865 0.0945126156692436 0 0.377780598531621 0.1064871692006053 0 0.3927741598113565 0.1217850566541891 0 0.3958482730520966 0.1337725290315715 0 0.3989261016790465 0.1457620160521834 0 0.4020001553113355 0.1577625970203685 0 0.4050745483521865 0.1697838807804342 0 0.4081525961912415 0.1818043104202778 0 0.4112283476808819 0.1937985058741727 0 0.4143031389360988 0.2057865220589106 0 0.4173752691940388 0.217774077223627 0 0.4323491826666227 0.233106257944145 0 0.4354207915694497 0.245103725956435 0 0.4385066987931385 0.2570988900233163 0 0.4415831846697041 0.2690983784992254 0 0.4566010203916974 0.2844348388444517 0 0.4596663892697175 0.296453387654697 0 0.4627366066892927 0.3084680323531488 0 0.4658080281220988 0.3204858046777694 0 0.4688871858220249 0.3324980780086002 0 0.4719652833713383 0.3445120108798457 0 0.4750435566040534 0.3565276448994155 0 0.490069705393153 0.371889285900331 0 0.4931486913610139 0.3839105050667289 0 0.4962275175729602 0.3959331621777643 0 0.499303164185414 0.4079524139026217 0 0.5023641418852488 0.4199564701428515 0 0.5055536326896054 0.4318590677718209 0 0.520800703597845 0.4469859285417289 0 0.5238614340565824 0.4589865608257727 0 0.5540240259807641 0.4896492571398187 0 0.5814399216794831 0.5532238091821876 0 0.6119492595412329 0.6289680647273875 0 0.6150438798198656 0.6410237107927966 0 0.6424801276755919 0.7047443590212996 0 0.6761460747931833 0.7926741034838277 0 0.7078300168073648 0.8681180536057727 0 0.7323028059929131 0.919870780061375 0 0.5389223693795319 0.4743305039238651 0 0.33 0 0 0.3567878979566066 0.06745278537159811 0 0.3808575374846052 0.1184494824340509 0 0.420435134095574 0.2297634412399586 0 0.4446686252608311 0.2810968489844967 0 0.4781209655397602 0.3685456279604342 0 0.5088258152583971 0.4437541968555936 0 0.5269394797621164 0.4710157539318578 0 0.5420223339522758 0.486340116709932 0 0.5571143143744153 0.5016804084783955 0 0.5601995899073722 0.5137280334683654 0 0.5632863539505204 0.5257752842998795 0 0.5663733178397758 0.5378228603989879 0 0.5694582404348726 0.5498777402476087 0 0.58452209069192 0.5652903087235894 0 0.5876026049449249 0.5773726416430847 0 0.5906888660136014 0.589436635186559 0 0.5937781434016032 0.6014947304990019 0 0.596869694856037 0.6135529676563956 0 0.5999592983825228 0.6256133953882632 0 0.618133511834985 0.6530941947124121 0 0.6212204284862988 0.6651648024573873 0 0.6242966726858565 0.6772335509752831 0 0.6273738327410318 0.6893125810148986 0 0.6304680620759793 0.701386503424134 0 0.6455671547600424 0.7168215967063403 0 0.6486602483382282 0.7288997385813382 0 0.65175491558357 0.7409792162080855 0 0.6548490407268692 0.7530596908222266 0 0.6579424773438229 0.765141989937495 0 0.6610362692221166 0.7772260011699992 0 0.6792414459789554 0.8047619010265632 0 0.6641313456181509 0.7893114085098359 0 0.6827278194712747 0.8167026150765226 0 0.6862284273840979 0.8288331252736345 0 0.6895850456746523 0.840626613534418 0 0.6926987886847442 0.8526791898595729 0 0.6958018732813314 0.8647597818267309 0 0.7109297391147439 0.8802148495983811 0 0.7140799320608291 0.8923013500667307 0 0.7172014062297328 0.9044111324339332 0 0.7203868531356575 0.9164593364996357 0 0.7354022300062155 0.9320038366331207 0 0.7384673440067453 0.944116257483382 0 0.7414800216849673 0.9561302012106123 0 0.7444238265181184 0.9677648648753023 0 0.7562492944176619 0.9891741982982465 0 0.7499986160515655 0.9783494311907631 0 0.7625000000002599 1 0 0.3297692325813696 0.01233909407916814 0 0.339161105984423 0.03187312562289841 0 0.3439379922864535 0.05252995615478026 0 0.3443959202561271 0.0651603154905039 0 0.3597649190971442 0.07927919821775183 0 0.3628022351590539 0.09120624272071642 0 0.3658707608161036 0.1031817192410884 0 0.3689472119963472 0.1151437172527331 0 0.3839332254296895 0.1304421003444665 0 0.3870045168777444 0.1424270434629489 0 0.3900786835499397 0.1544103779947416 0 0.3931565791176802 0.1664371886269708 0 0.3962325199692253 0.1784561118121835 0 0.3993101634910553 0.1904664249960344 0 0.402383272323211 0.2024548350735023 0 0.4054564462786525 0.2144425941179193 0 0.408519832915022 0.2264243174238156 0 0.423485839890669 0.2417652956077014 0 0.4265505495789329 0.2537836705861095 0 0.4296160558044531 0.2657706191398131 0 0.4327077301966397 0.2777706498574546 0 0.4477286411884865 0.2931161825206471 0 0.4507888217494246 0.3051380386606022 0 0.4538638851243169 0.3171497327191111 0 0.4569423848957191 0.3291593258201992 0 0.4600208346718178 0.3411708918715936 0 0.4630986025214827 0.3531844485185728 0 0.4661765518856246 0.3651989292736413 0 0.4811990380799603 0.3805658717516884 0 0.4842768925228612 0.3925874037496849 0 0.4873551024003091 0.4046094868365598 0 0.4904340747214549 0.4166336020874475 0 0.4935138291881476 0.4286585259071691 0 0.4967066309650305 0.4405712311735833 0 0.5118975153290581 0.4556426378513694 0 0.5149812245540584 0.4676762825145074 0 0.5451354490389069 0.4983459565166941 0 0.5725382847917874 0.561950234489381 0 0.6030493946355687 0.6376752645284246 0 0.6061401458308935 0.6497380802644293 0 0.633562395196366 0.7134623367530588 0 0.6672538090521001 0.8013007301325824 0 0.6989094926830278 0.8768291212624179 0 0.7234787158039475 0.9285860555024349 0 0.530031830981158 0.4830159362274458 0 0.3290772530757082 0.02466093080454055 0 0.3369934200862787 0.04454555644399597 0 0.3486136544532022 0.07697744190129391 0 0.3720209736971201 0.1271190678395145 0 0.4115658700288773 0.2384375762906963 0 0.4357912357062229 0.2897709360995165 0 0.4692524809764215 0.3772204464816864 0 0.5000705057244 0.4524373163344634 0 0.5180604275943557 0.4797062657061982 0 0.533138503759466 0.4950291268935281 0 0.5482237750463035 0.5103822710861747 0 0.551310481084047 0.5224242273825812 0 0.5543964582480744 0.534471515475115 0 0.557480180372559 0.5465250967027043 0 0.5605586271262312 0.5585980403928962 0 0.5756188890325546 0.5740200910093998 0 0.578693477045863 0.5860856368210705 0 0.5817809464521533 0.5981439209946462 0 0.5848793115273865 0.6101994894524161 0 0.5879688022732987 0.6222589318911624 0 0.5910572309648243 0.6343201291427999 0 0.6092261702801303 0.6618012064080876 0 0.6123027194409147 0.6738744700255556 0 0.6153777927654951 0.6859488998251253 0 0.6184675842856526 0.698018851432421 0 0.6215651862804126 0.710093392644928 0 0.6366525934617193 0.7255400398384668 0 0.6397464196090021 0.7376184306237132 0 0.6428400149294763 0.7496984185863225 0 0.6459333341449356 0.7617793744643637 0 0.6490248050908028 0.7738629762247715 0 0.652117181772234 0.7859485393625003 0 0.6705395394386944 0.8130260183927416 0 0.6552120613855675 0.7980349962789601 0 0.6741566169633226 0.8252035158017615 0 0.6775496725330097 0.8373078180295243 0 0.6806770874399575 0.8493014093321006 0 0.6837776066723961 0.8613946531596466 0 0.6868762912539327 0.87349217833425 0 0.7020823955837676 0.8889225161140186 0 0.705255599652476 0.9009935459504331 0 0.7084182607266256 0.9131005001545992 0 0.7116173257118928 0.9251647802699776 0 0.7265271679794718 0.940705339488603 0 0.7295134449420906 0.9528334813123067 0 0.7330616000379108 0.9643524123929295 0 0.7357801114253824 0.9768732251707919 0 0.7434667505525058 0.9889459930654161 0 0.7500000000003466 1 0 0.3279250292751364 0.0369482770220875 0 0.3347401126184949 0.05694515355907445 0 0.339132678087012 0.07613194186283637 0 0.3511418703429098 0.08813048956398063 0 0.3540057509990073 0.09984752609769706 0 0.3570402863962487 0.1118274157105327 0 0.3601131150523846 0.123797449090607 0 0.3750938916552145 0.1390994226445246 0 0.3781652325873305 0.1510786964606353 0 0.3812375095901351 0.1630572641638608 0 0.3843160333121001 0.1750982157781115 0 0.3873937722434799 0.1871336005099367 0 0.390468109420146 0.1991264733873335 0 0.3935412937443044 0.2111120877333547 0 0.3966138139121176 0.2230990169225849 0 0.3996606347796783 0.2350890725414969 0 0.4145997219667769 0.2504607277986628 0 0.4176733145610299 0.2624792842545199 0 0.4207590837719867 0.2744600983639096 0 0.4238363662303507 0.2864537369086848 0 0.4388573265965124 0.3017927689092368 0 0.4419262815108281 0.3138106462011961 0 0.4450022533777629 0.3258197415538424 0 0.448078993340823 0.3378298255332773 0 0.4511552167616346 0.3498420133406195 0 0.4542324922392272 0.3618555392702221 0 0.4573082499699184 0.3738689269637707 0 0.4723276285373786 0.3892424938912951 0 0.4754042445332232 0.4012646498594129 0 0.4784815699437565 0.4132877871836254 0 0.4815598850934766 0.4253117602759411 0 0.484683485034636 0.4372538740131849 0 0.4878151111159152 0.4491205270632145 0 0.503040896838435 0.4643545057481178 0 0.5061014262415939 0.4763654146070262 0 0.5362472492426462 0.5070402004207918 0 0.5636386241550843 0.5706678706108246 0 0.594147055527708 0.6463826350581168 0 0.5972372473940087 0.6584465969864663 0 0.6246532700100641 0.7221780908918056 0 0.6583078562875018 0.8101221172495972 0 0.6900847674367423 0.8855581085327049 0 0.7146359119975345 0.9373122600618971 0 0.5211442293453571 0.4917142264879906 0 0.3263141726762665 0.04918394769234897 0 0.3324463734731843 0.06920642341299979 0 0.3404340567369659 0.08604007608826354 0 0.3631857239957166 0.1357711503045152 0 0.4026940565255441 0.2471226031325425 0 0.426919845098558 0.298438039157822 0 0.4603804076345691 0.3858966756378575 0 0.4910742977165529 0.4610611484188473 0 0.5091828411368269 0.4883977091344262 0 0.5242499299964523 0.5037183249983144 0 0.5393355666304342 0.5190748002502203 0 0.5424211332070525 0.5311203257693984 0 0.5454977743155986 0.543188694620324 0 0.5485797906873067 0.5552475258181244 0 0.5516566423157772 0.5673197744887338 0 0.5667092708675591 0.5827280915377819 0 0.5697885667264537 0.5947857297094665 0 0.5728736735018214 0.6068503595633712 0 0.5759627145530017 0.6189093441729721 0 0.5790556527084911 0.6309680157124509 0 0.5821539972100418 0.6430271135348447 0 0.6003148773523753 0.670509398644625 0 0.6033803750753336 0.6825889618428254 0 0.6064754530848124 0.694649942680262 0 0.609575318832686 0.7067222774001772 0 0.6126686761640905 0.7187924993295052 0 0.6277391596634212 0.7342574646555826 0 0.6308317703743983 0.746336910036031 0 0.6339245859715452 0.7584173163356562 0 0.6370193539181475 0.7704975377423628 0 0.6401028424700106 0.782585377124141 0 0.6431970793734869 0.7946720130941484 0 0.6623549440763683 0.8218288106989686 0 0.6462839816270789 0.8067506204948375 0 0.6655595126028755 0.833870759102554 0 0.6686536414681357 0.8459382618409328 0 0.6717527834417284 0.8580313877138478 0 0.6748563897311911 0.8701182534650111 0 0.6780235548645221 0.8821098830082382 0 0.6932660659241539 0.8976392651873312 0 0.6964537023235671 0.9097568978931458 0 0.6995946773064278 0.9218173078804696 0 0.7027057738500281 0.9338906742967037 0 0.7176550593377407 0.9494047980558186 0 0.7212896300297388 0.9608074875438228 0 0.7252687991299757 0.9701828939161767 0 0.7312724814196457 0.9892791037326961 0 0.7375000000004333 1 0 0.3242469361995938 0.06135083019142081 0 0.330145321500284 0.08114027143393988 0 0.3424437603574685 0.0968754126792062 0 0.345365880004555 0.1084448389489044 0 0.3482100800789412 0.1204726931285853 0 0.3512811340363866 0.1324432945142711 0 0.3662555218490682 0.147748804771077 0 0.3693270901879636 0.1597257429891764 0 0.3723952279855205 0.1717018103321788 0 0.3754759406592449 0.1837551393796785 0 0.3785535467404739 0.1957834307480586 0 0.3816270146862706 0.2077829188329957 0 0.3846991058454284 0.2197666880657926 0 0.3877674590529224 0.2317464462880495 0 0.3908099428812724 0.2437560619739365 0 0.4057468654615835 0.259162372434489 0 0.4088202023577094 0.2711528823612001 0 0.4119008334817376 0.2831334176617855 0 0.4149806374153346 0.2951288945546708 0 0.4299923675767477 0.3104663037092922 0 0.4330649370910404 0.3224801738546181 0 0.4361403585886898 0.3344882595647181 0 0.4392241338573388 0.3464579811861538 0 0.4422977861399556 0.3584448371362588 0 0.4453724242118678 0.3704896312465931 0 0.4484425345144481 0.3825584144123491 0 0.4634550474530538 0.3979187924384837 0 0.4665314967013433 0.4099409179735337 0 0.4696072977633231 0.4219656085056807 0 0.4726852167410297 0.4339895175807031 0 0.4758500067631284 0.4458865307561141 0 0.4790133012683389 0.4577662256969692 0 0.4941431903476859 0.4730232718363017 0 0.497220074269919 0.4850543582696412 0 0.5273590127035682 0.5157324354647965 0 0.5547376407709863 0.5793744216240793 0 0.5852439493842192 0.6550901576016365 0 0.5883312734014994 0.6671526195058484 0 0.6157566397719494 0.7308802662526894 0 0.6494439884507153 0.8187711584729103 0 0.6812667712373526 0.8942405903483341 0 0.7057966859784466 0.9459980192998396 0 0.7232614897144309 0.9796680690491063 0 0.5122589100840679 0.5004055582223589 0 0.3217262110703176 0.07343190798513607 0 0.3291143264823755 0.09396084763726846 0 0.3543106052533843 0.144407508554846 0 0.3938320368885389 0.2558185194326243 0 0.4180558771686829 0.3071342515721659 0 0.4515079423880886 0.3945735663926182 0 0.4822023828976885 0.4697180942835937 0 0.5002978002907015 0.4970832777749011 0 0.5153697743449948 0.5124133173805905 0 0.5304470607635046 0.527770319738307 0 0.5335173437474952 0.5398351983681409 0 0.5365998996586928 0.5519050982231648 0 0.5396767498029931 0.5639758109935296 0 0.5427482455171467 0.5760310093617049 0 0.5577952682493927 0.5914381108685075 0 0.5608654343948136 0.6035000075233977 0 0.5639558977947038 0.6155608117346392 0 0.5670406986594259 0.6276200084225634 0 0.57016207026296 0.6396697751500997 0 0.5732499717713107 0.6517344394479658 0 0.5914086239843446 0.6792123966821417 0 0.5944933981510164 0.6912867013921387 0 0.5975859737580672 0.7033554517518676 0 0.6006890394230813 0.7154235265620797 0 0.6037789918971768 0.7275028382479669 0 0.6188432179690285 0.7429603402121254 0 0.6219214275529941 0.7550510177093155 0 0.6250184779840402 0.7671287039101796 0 0.6281120778475506 0.7792114783950657 0 0.6311843834276519 0.7913078360681993 0 0.6342751986831602 0.8033944581721413 0 0.6535337701665914 0.8304820459781573 0 0.6373620505570755 0.8154734613312665 0 0.6566411214392454 0.8425907142690302 0 0.6597317898689807 0.8546734058565759 0 0.6628280724891674 0.8667601391635943 0 0.6659953257745617 0.8787870542284467 0 0.6692854528596218 0.8908595733364035 0 0.6844531593110186 0.9063639322853512 0 0.6875691731625589 0.9184294150580619 0 0.6906727611312801 0.930526814536645 0 0.6937759727019499 0.942629709252633 0 0.7089148660394762 0.9580980312107483 0 0.7136968569400619 0.9707333413256845 0 0.7188863259466818 0.9898010745340133 0 0.7250000000005199 1 0 0.3187555227424169 0.08541028463369368 0 0.3341401190231298 0.1059052011853115 0 0.3370560059956121 0.1172697018182334 0 0.3393805131288615 0.1291170338400031 0 0.3424501907674129 0.1410850486767176 0 0.3574209827680431 0.1563922802853285 0 0.3604899219540236 0.168370340485254 0 0.3635571022881498 0.1803442759883619 0 0.36664106420259 0.1924472040858799 0 0.3697153792311118 0.2044552482925273 0 0.3727869951248391 0.2164355973095893 0 0.3758575900090433 0.2284173196020821 0 0.3789268923128786 0.2403986889153419 0 0.3819684971227241 0.2524077021862411 0 0.3969037672684753 0.2678207077427861 0 0.3999721190539305 0.279815630110805 0 0.4030476139732731 0.2918092918940963 0 0.4061232885394058 0.3038046301334704 0 0.4211299379948652 0.3191419425607148 0 0.4242048745393051 0.3311467955909482 0 0.4272916285126392 0.3430976383772253 0 0.4303780516383511 0.3550518245480021 0 0.4334713453991306 0.3670869102434603 0 0.4365276712546631 0.379213617588577 0 0.4395675659908409 0.3912329133741291 0 0.4545873889601054 0.4065720606548168 0 0.4576571157111705 0.4186184726520902 0 0.4607335604179288 0.4306423029238944 0 0.4638106738205143 0.4426666632393279 0 0.4670128052409429 0.4544754912982352 0 0.470211317678271 0.4663792332582565 0 0.4852600208901679 0.481707157909065 0 0.4883274344928858 0.49374461721567 0 0.5184549172285132 0.5244542753114022 0 0.545804828526776 0.5880869339248703 0 0.5763395235243999 0.6637982099283348 0 0.5794268518248618 0.6758611980082178 0 0.6068713846397356 0.7395821902669009 0 0.6404680125934691 0.827571878486463 0 0.6724366860387507 0.9029690082143113 0 0.6968794397855539 0.9547336255016801 0 0.7131023657542681 0.9815254945314282 0 0.5033876137780494 0.509115364310521 0 0.3153390259973944 0.09726920727041342 0 0.322458876103258 0.1065029717368958 0 0.3452700781036782 0.1530044727771669 0 0.3850074095954526 0.2644428571160166 0 0.4091974394484022 0.31580508459242 0 0.4426483977955644 0.403213602194217 0 0.4733005849482609 0.4783634041394001 0 0.491393528742902 0.5057822944760423 0 0.5064766221457573 0.5211436037038537 0 0.5215387581910056 0.5365071374114925 0 0.5246164420561544 0.5485612441348862 0 0.5277072054018406 0.5606127074570495 0 0.530770478431809 0.5726715707460373 0 0.5338348211045847 0.5847265260087195 0 0.5488658682097682 0.60015348089145 0 0.5519541048687846 0.6122115727949919 0 0.555042662439887 0.6242689301234612 0 0.5581319967917161 0.6363270919506422 0 0.5612551602855161 0.6483801704407962 0 0.5643451512881814 0.6604423906602376 0 0.5825145195486547 0.6879260039744777 0 0.5856147747860303 0.6999951935442059 0 0.5887119882219033 0.7120633512549956 0 0.5918086011847894 0.7241327590279931 0 0.5948928306903616 0.7362090455615393 0 0.6099622244225239 0.7516621608762618 0 0.6130513410022596 0.7637457405666126 0 0.6161420854783289 0.7758295289399324 0 0.619208098879625 0.7879208041513099 0 0.6222778112797787 0.800024187065507 0 0.6254273369909097 0.8120697074456921 0 0.6446592014075831 0.8392648568807289 0 0.6285311643057256 0.8241537966896049 0 0.6477129213836802 0.85131835899407 0 0.6508021989919284 0.8634015731579807 0 0.6539097589652113 0.875467290021871 0 0.6571545419310029 0.8875212020415143 0 0.6603664658083959 0.8995900806635595 0 0.6755364036896088 0.9150683760332772 0 0.6786397069494498 0.9271650722447853 0 0.6817425266367112 0.9392655894487529 0 0.6848456601173898 0.9513687976505197 0 0.6999717920831865 0.9670595336221434 0 0.7028522074501744 0.9790610262466026 0 0.7125000000006066 1 0 0.7063837688738901 0.9905703456612018 0 0.3274639983418129 0.1148949988831531 0 0.3274823605208906 0.1257939046905716 0 0.3309952989264644 0.137409568061685 0 0.3335600343862657 0.1489136593359106 0 0.348586103144606 0.1650388792321921 0 0.3516546055597747 0.1770144247535093 0 0.3547226097387757 0.1889876826443849 0 0.3578051891168669 0.2011112288754783 0 0.3608803887896836 0.2130918500296122 0 0.3639515136047916 0.2250625823726734 0 0.3670155475098543 0.2370665783169958 0 0.370082073334108 0.2490437161415294 0 0.3731223961147093 0.2610627198051391 0 0.3880544480890029 0.2764749364744527 0 0.3911225352568812 0.2884748655335203 0 0.3941961709734338 0.3004685347438769 0 0.3972684764271513 0.3124663762455142 0 0.4122716271653836 0.3278076100227615 0 0.41534883884864 0.3397934347378919 0 0.4184595515363887 0.3517028331877127 0 0.42157069207589 0.3636541177459588 0 0.4246814470740562 0.3756674331953724 0 0.4276817908788966 0.3877957194777014 0 0.4307174376002146 0.3997842998680872 0 0.4457243337114118 0.4151670122779577 0 0.4487857370330531 0.4272005868865493 0 0.4518695248979094 0.4392089653440462 0 0.4550018464029191 0.4511015870140376 0 0.4581896855124857 0.4630527078247063 0 0.4613411125376052 0.4750224618812322 0 0.4763732189233097 0.4903929536945271 0 0.4794294109456708 0.5024274370102929 0 0.5095539233232405 0.5331905254403007 0 0.5368860626821381 0.596801131151542 0 0.5674344947050629 0.6725070339381456 0 0.5705248192939412 0.6845732728447447 0 0.5980044812072782 0.7482832014619438 0 0.6317014438986621 0.8362544654487644 0 0.6635078940456764 0.9116999471944927 0 0.687948353668098 0.9634735054747093 0 0.4944883854330394 0.5178147196605921 0 0.3114814991161836 0.1089920901182049 0 0.3185620961171062 0.1180648663926701 0 0.3352512797152065 0.1621838526771682 0 0.3761633120892655 0.2730725570548566 0 0.4003421133352279 0.3244621757474848 0 0.4338116448429378 0.4117350243096168 0 0.4644171341419175 0.4870440483039267 0 0.4824956808861008 0.5144743803867247 0 0.4975887448644948 0.5298476562622794 0 0.5126428620271263 0.5452312614759194 0 0.5157330869262974 0.5572659776033696 0 0.5188104538903219 0.5693173750211278 0 0.5218745778642943 0.5813657342700167 0 0.5249283928180246 0.5934283621200255 0 0.5399677149357766 0.6088586734417551 0 0.5430560044856718 0.620915384346624 0 0.5461447931759039 0.6329729231876533 0 0.5492336545667081 0.6450307142594101 0 0.5523523254041964 0.6570847888916411 0 0.5554393916749003 0.6691514133002167 0 0.5736154955231298 0.6966398697663687 0 0.5767144403874322 0.7087069669019381 0 0.5798118424798697 0.720775784631008 0 0.5829047895642875 0.7328499540534678 0 0.5859985551999199 0.7449250491235203 0 0.6010901278038304 0.7603626369953755 0 0.6041737027718405 0.7724403949686114 0 0.6072431155937944 0.7844872474623554 0 0.610370343179206 0.7965136697781565 0 0.6136150826584039 0.8086276033844003 0 0.6168245274868451 0.8206405639228026 0 0.6357297269783579 0.8479953319473468 0 0.6200525018681574 0.8327857402235075 0 0.6387836482697097 0.8600662879361873 0 0.641885112130739 0.8721132851325689 0 0.6450854952774858 0.8841659875781995 0 0.6482847529007414 0.8962572264206063 0 0.6514787353896689 0.9083324519600063 0 0.6666079494052299 0.9237988222228128 0 0.6697094276713105 0.9359014161691623 0 0.672812425821673 0.9480043134082862 0 0.6760396993712777 0.9598602305765525 0 0.6908498100507493 0.976089627810572 0 0.6930268299490812 0.9892014876093056 0 0.7000000000006934 1 0 0.3214975241460613 0.1358333380195625 0 0.3233494825655865 0.145521874531063 0 0.3262867082736827 0.1560276676095086 0 0.3400768719915069 0.1740180128309076 0 0.3428747819238578 0.1857130421182926 0 0.3458924526185753 0.1976510394373242 0 0.3489653352492973 0.2097475580764516 0 0.3520589267520713 0.2216760302541031 0 0.3551096334432584 0.2336881187236581 0 0.3581707286207462 0.2457114191684013 0 0.3612374974376533 0.2576873873602686 0 0.3642778782342669 0.2696926125558876 0 0.3792040822487202 0.2850885279787159 0 0.3822753180656749 0.2970852580339018 0 0.3853476299607913 0.3090610373000011 0 0.388417135747067 0.3210719784733076 0 0.4034203629436204 0.3364415328804802 0 0.4065207856918477 0.3483687400746697 0 0.4096313379550043 0.3603118996908819 0 0.4127958550346876 0.3722594081740863 0 0.4158781868607522 0.3842475632460839 0 0.4188335198906231 0.3963241993914544 0 0.4218845640335863 0.40832431059069 0 0.4368641901210003 0.4236920915467088 0 0.4399439335163685 0.4357001808365054 0 0.4430345238001993 0.4477087255372889 0 0.4462395575284255 0.4596883412046383 0 0.4493878178303036 0.4716779545106685 0 0.4524475689216625 0.4837084423898042 0 0.467457405803452 0.4990869633937801 0 0.4705094926842417 0.5111265172541897 0 0.5006727916768112 0.5418876134469079 0 0.5279917371050015 0.6055034101661887 0 0.5585297966713693 0.6812168504290177 0 0.5616202581518842 0.6932837191081709 0 0.5890924411422434 0.7570016733085364 0 0.6234588398200154 0.8450058319673284 0 0.6545767290224085 0.9204355367634716 0 0.679425462698668 0.9719371113047157 0 0.4856124787812257 0.5265035004745326 0 0.3071883371916104 0.1205625376866856 0 0.3145893475091718 0.1289304509480578 0 0.3228746167341346 0.1650747917844284 0 0.3295915631835991 0.1721859186757381 0 0.3673021221447407 0.2816793015232468 0 0.3914918467041618 0.3330585705808826 0 0.4250113030752468 0.420312103519896 0 0.455483672025824 0.4957411112368116 0 0.473593115334249 0.5231695042426019 0 0.4886922060313847 0.5385450203322932 0 0.5037566901736683 0.553930312699902 0 0.506840826881173 0.565972493976593 0 0.5099231331218661 0.5780165446646887 0 0.5129818305957434 0.5900697407101726 0 0.5160360663471169 0.6021331862379347 0 0.531070395958858 0.6175611119328468 0 0.534157730859521 0.6296189331300047 0 0.5372466859988638 0.6416770096608353 0 0.540336352880644 0.6537361935129564 0 0.5434413528926777 0.6657964752000407 0 0.5465332290879147 0.6778609406822175 0 0.5647115026767207 0.7053513943630962 0 0.5678085890537117 0.7174193934883956 0 0.5709021381307666 0.7294913694340357 0 0.5739943795000813 0.7415661385758724 0 0.5770866903970153 0.753642234833344 0 0.5921869696720146 0.7690798873959621 0 0.5952737573059537 0.7811546051554089 0 0.5983622865700428 0.7931652971078 0 0.6017136645325842 0.8052632680962134 0 0.6049925069665611 0.817254371242367 0 0.608291296004394 0.8293026754495936 0 0.626734415350064 0.8567927592632014 0 0.6115077396933027 0.8413571078629511 0 0.6298548562477024 0.8687683550598579 0 0.6330587006410886 0.880838530258484 0 0.6362485201327931 0.8929033768363912 0 0.6394378663603476 0.9049967382556965 0 0.6425438415957641 0.9170716245502335 0 0.6576770899039536 0.9325372818006221 0 0.6607796093701971 0.9446398620295995 0 0.6639307975809147 0.9565700004870503 0 0.6679803054707442 0.9686725809768405 0 0.6812153997648231 0.9832878687680033 0 0.68750000000078 1 0 0.311071131208193 0.141510891866435 0 0.3160044066840932 0.1542570466923184 0 0.3309193269293745 0.1823302775624318 0 0.3339970053135151 0.1943088823404304 0 0.3370428570045024 0.2062813142686296 0 0.3400818754015457 0.2182618141305114 0 0.3431929167227564 0.2302348689412833 0 0.3462404350938087 0.2423147074398287 0 0.3493051846523898 0.2543317808032508 0 0.3523995770580229 0.2663356868997852 0 0.3554541162652168 0.27832173554238 0 0.3703797136423584 0.2936709701405634 0 0.3734436058969003 0.3056507639994263 0 0.3765293271505794 0.3176485798872666 0 0.3796015273734571 0.3296412070351363 0 0.3945888766520104 0.3449924069793118 0 0.3977097835313107 0.3569640927263267 0 0.400828806538867 0.3689350480775258 0 0.403941455510607 0.3809092163550152 0 0.4069862307615343 0.3929227204031713 0 0.4100767810155482 0.4049279597616413 0 0.413127981169068 0.4169449607374357 0 0.4281689523775632 0.4322931648372882 0 0.4312751158482556 0.4443006256391069 0 0.4343044127483869 0.4563329053390038 0 0.4374358843140117 0.4683349613841868 0 0.4405028532253025 0.4803561916433733 0 0.4435218446001457 0.4923933182586515 0 0.4585315060997484 0.5077897128629331 0 0.4616171856213099 0.5198236826293838 0 0.491775996891414 0.5505823136483966 0 0.5190960887576896 0.6142039162809656 0 0.5496244114292261 0.6899268339755857 0 0.5527151796251244 0.7019944569671047 0 0.5801796109341055 0.7657193156512325 0 0.6147094958549357 0.8534039256208917 0 0.6456448637941579 0.9291730928526627 0 0.6724032072246047 0.9794295958381714 0 0.6813073679269361 0.9930080947500077 0 0.4767227366426814 0.5352050583455576 0 0.302465544614508 0.1319643676188731 0 0.3184231737625758 0.1769942609775258 0 0.310491223728042 0.1649782148059425 0 0.3585524886262495 0.2903024266393386 0 0.3826606618080169 0.3416212301182193 0 0.4162413365465317 0.4289476722632172 0 0.4465703964332824 0.5044412902660302 0 0.4647106715515661 0.5318591536295814 0 0.4797863356808378 0.5472421128801798 0 0.4948617599613878 0.5626231769226915 0 0.49794864988706 0.5746672485316459 0 0.5010302646475492 0.5867090237773855 0 0.5040831713345435 0.5987595981753073 0 0.5071351774716986 0.6108340899749484 0 0.522171752012272 0.6262628263939419 0 0.5252591763734527 0.6383219223222074 0 0.5283483597431373 0.6503817683510024 0 0.5314424269268512 0.6624426462805184 0 0.5345363329523872 0.6745049044296852 0 0.5376286780958435 0.6865698196772865 0 0.5558074535444867 0.7140629782424291 0 0.5589001375803919 0.7261335978589181 0 0.5619919514394131 0.738206851906775 0 0.5650837565048207 0.7502814171377823 0 0.5681729567785094 0.7623589599017083 0 0.5832721349808112 0.7777996411298618 0 0.5863651233466958 0.7898797088181273 0 0.5896448841820503 0.8017987504600339 0 0.5930087971583913 0.8138643633521007 0 0.5964522105091437 0.8259143409853906 0 0.5995954674973959 0.8378818115896547 0 0.6178365718555812 0.865392924900183 0 0.602715322743284 0.8499469128880583 0 0.6210097318890659 0.8774373534622911 0 0.6242204810073818 0.8895240429803535 0 0.627403824609714 0.9016377355250083 0 0.6305118252296003 0.9137082596462537 0 0.6336127185739123 0.925809060076255 0 0.6487471655580164 0.9412752566662649 0 0.6518578263265082 0.9533497342711394 0 0.6552319774285601 0.9675699887573503 0 0.6625000000018193 0.9783496902686202 0 0.6702948582348206 0.9892929630987478 0 0.6750000000008667 1 0 0.3040799168331502 0.1535066673553657 0 0.2973197266139515 0.1431816334807129 0 0.3216936668334331 0.1904297016725075 0 0.3250923255784821 0.2028515202124922 0 0.3282009407150447 0.2148980007687499 0 0.3312834839893715 0.2268808039362818 0 0.3343309143865896 0.2388764980436774 0 0.3373661941903553 0.2509062291172204 0 0.3404715823352973 0.2629796060792758 0 0.3435659490377569 0.2749871706562235 0 0.3466211845381145 0.2869744634034024 0 0.361622899451738 0.3022850319817935 0 0.3646995428935967 0.3142690025956864 0 0.3677712372992935 0.3262571806160239 0 0.3708490739020812 0.3382467076055191 0 0.3857823291368843 0.3535990254988069 0 0.3889065652132507 0.3655774360367637 0 0.3920038467966326 0.3775733682422775 0 0.3950832557979203 0.3895691857344904 0 0.3981581224853981 0.4015827315222734 0 0.4011819745784891 0.4136057253846979 0 0.4042448132503287 0.4256205655811963 0 0.419317837521846 0.4409624309987257 0 0.4223964937880854 0.4529786140096186 0 0.4254857315000544 0.4649938336163708 0 0.4285590849563182 0.4770064407157187 0 0.4316067632084491 0.4890184360431119 0 0.4346428905711473 0.5010666480355863 0 0.4496453553758182 0.5164766684180846 0 0.4527325380813795 0.5285111861164676 0 0.4828808642177191 0.5592760622185372 0 0.5101979360696148 0.6229050759336391 0 0.5407189277689933 0.6986368760607347 0 0.5438088480595977 0.7107054869850633 0 0.5712643783985428 0.7744383216393982 0 0.6058190646607085 0.8620173249669383 0 0.6367148920683764 0.9379105904763816 0 0.467808449360383 0.543894942331419 0 0.3039213344894463 0.1761132322732143 0 0.2981274775969648 0.1647692320968332 0 0.3092642110474035 0.187683491295304 0 0.3496855141269931 0.2989579851028986 0 0.3738901453053914 0.3502504876421296 0 0.4073274938059469 0.4376323719580453 0 0.4376940460471768 0.5131258131771033 0 0.4558174092489407 0.540547726895962 0 0.4708989580670151 0.5559297447875517 0 0.485967531717292 0.5713106304610747 0 0.4890579050049076 0.5833612769922747 0 0.492138548322288 0.595403279197231 0 0.4951969526210031 0.6074511217133562 0 0.4982595083014002 0.6195165980039312 0 0.5132757140021749 0.6349668116117598 0 0.5163602242028712 0.6470266522673629 0 0.5194503834725621 0.6590873424446264 0 0.5225417796196994 0.6711491937447995 0 0.525633669219399 0.6832132118288796 0 0.5287236361333995 0.6952789082241744 0 0.5468991057861969 0.7227758631497363 0 0.549990800234917 0.734847659979737 0 0.5530825578010055 0.746921246599094 0 0.5561740933791717 0.7589963557292094 0 0.5592667902180428 0.7710711691208196 0 0.574356381594571 0.7865189615835922 0 0.5774503452096246 0.7986011561425204 0 0.5807716771489593 0.8105459793722075 0 0.5843877535691917 0.8224603053026159 0 0.5875722803483543 0.8345331666545653 0 0.5906948251527517 0.8465880848304367 0 0.6089905449452738 0.8740655136608139 0 0.5937979795357583 0.8586581828592564 0 0.6121629869994736 0.8861535211044291 0 0.6153723963578859 0.8982546122122367 0 0.6184777102104058 0.9103502474547824 0 0.6215810281004753 0.922446186362477 0 0.6246828598223556 0.9345462294514283 0 0.6398171588331572 0.9500134199199985 0 0.6429196508198427 0.9621171782369305 0 0.6529521297818315 0.9798537813982505 0 0.656250081356938 0.9891747294236464 0 0.6625000000009533 1 0 0.2917580800931702 0.1541986468823488 0 0.3133428591290849 0.1996724184362225 0 0.3163296289305973 0.211575319001447 0 0.3193996714002735 0.2235513473084008 0 0.3224597970217538 0.2355315683007446 0 0.3255101815307025 0.2475388256403411 0 0.3285810379001415 0.2596391785021973 0 0.3316649232034316 0.2716619514347863 0 0.3346204760321818 0.283661497959961 0 0.3376666316474604 0.2956475261051295 0 0.3527792221172162 0.3109369068336937 0 0.3558522749223443 0.3229237431789152 0 0.358925425270084 0.3349131399193634 0 0.3619986601315919 0.3469052079157464 0 0.3770007732642544 0.3622354476691348 0 0.3800760872530272 0.374234612169061 0 0.3831444817308419 0.3862240319018175 0 0.3861958590668135 0.3982133377065616 0 0.3892423344768934 0.4102459991817539 0 0.392180947829868 0.4222899940341441 0 0.3952806964974395 0.4343003335318849 0 0.4104050619944466 0.4496477267852158 0 0.4135282217516493 0.4616533801853012 0 0.416615353599762 0.4736704944995685 0 0.4196959074243098 0.4856910504293281 0 0.4227318732607485 0.4977004014163304 0 0.4257818739186762 0.5097589602108805 0 0.4407648528352459 0.5251632863617972 0 0.443850645326579 0.5371998718123596 0 0.4739919539117254 0.5679659061678703 0 0.5013262793016553 0.6315915959654899 0 0.5318236225277991 0.7073439821596212 0 0.5349080513067682 0.7194151544531093 0 0.5623544981187871 0.7831536513882275 0 0.5969461174348798 0.8707023148844271 0 0.6277849390927031 0.9466481764731145 0 0.6448685935312151 0.9745573917151182 0 0.4589131523047946 0.5525831181470642 0 0.2916691790739486 0.1762105552581534 0 0.2969550259134763 0.1867160549044355 0 0.2857883835164892 0.1649999995364608 0 0.3015918288565501 0.1971872483779364 0 0.3408351814658346 0.3076103757761022 0 0.3650726732977695 0.3588998024717469 0 0.3983583606537509 0.446311374283091 0 0.4288128240713641 0.5218133952848218 0 0.4469356596143607 0.5492371154122258 0 0.4620188412757875 0.5646144600443346 0 0.4770785920086876 0.5800099861304671 0 0.4801670663861777 0.5920571209845036 0 0.4832474719781734 0.6040994501693852 0 0.4863170121953354 0.6161470179320564 0 0.4893832817981065 0.6282176745820193 0 0.5043833603458133 0.6436693325309896 0 0.5074609888332108 0.6557324143943473 0 0.5105530122884978 0.6677925403462123 0 0.5136398235391024 0.6798565660111433 0 0.5167292936807656 0.6919212910208831 0 0.5198285845957454 0.7039822740326338 0 0.5379897849263791 0.7314887261737847 0 0.5410815349576135 0.7435616994814046 0 0.5441732239844703 0.7556355663588028 0 0.5472652749881817 0.7677097752570491 0 0.5503563871365873 0.7797901180798231 0 0.5654421994296231 0.7952390311543424 0 0.5685558084191127 0.8072449894182863 0 0.572081250304902 0.8191918232041173 0 0.575472712943666 0.8311372099684516 0 0.5786753249531155 0.8432263344170535 0 0.5817729965063092 0.8553169911644047 0 0.6001350587188652 0.882795386713752 0 0.5849066120992454 0.8673505392632079 0 0.6033177522803168 0.8948929031126776 0 0.6064382091222595 0.9069839088330458 0 0.6095496596563799 0.9190813233214216 0 0.6126513951101993 0.9311819982247214 0 0.6157534453907907 0.9432830921836036 0 0.6308864738027065 0.9587516006299313 0 0.6340471249647593 0.9703909001445675 0 0.6443771280296691 0.9877715558330307 0 0.6500000000010401 1 0 0.3046047179879628 0.2084268259388491 0 0.3075262680288163 0.2202477707334207 0 0.310562983743637 0.2321876262782217 0 0.3136279943778172 0.2443423429327808 0 0.3166936145382859 0.2562973634231165 0 0.3197622467308419 0.2683193330204138 0 0.3227485329046112 0.2803207118696011 0 0.3253693713724635 0.2923979382720326 0 0.3288194596839137 0.3043081866643392 0 0.343930815098662 0.31959017542267 0 0.3470036000080415 0.3315785248446989 0 0.3500741211304366 0.3435698319031572 0 0.3531470159076141 0.3555631873027815 0 0.3681472686570109 0.3708969208577233 0 0.3712126857674939 0.382886253456297 0 0.3742818829476847 0.394838261515713 0 0.3772972529657516 0.40680419944011 0 0.3802865140188748 0.4188398213607099 0 0.3832172040190936 0.4309380661311057 0 0.3862882861718083 0.4429658425025603 0 0.4014522850273635 0.4583317529990477 0 0.4046705329072836 0.4703248446580161 0 0.4077448539333507 0.482346524376094 0 0.4108159205706793 0.4943618285622338 0 0.4138480413523209 0.5063868124012705 0 0.4168813241095725 0.5184472398927895 0 0.4318832639795653 0.5338527424166808 0 0.4349695086563055 0.5458892459710011 0 0.4651016566379773 0.5766607607718184 0 0.4924464214476805 0.6402797279835631 0 0.5229636462056692 0.7160408426812035 0 0.5260386215523523 0.7281168253131304 0 0.5534449415414153 0.7918735141984384 0 0.5881094526334161 0.8794293541091809 0 0.6197521451138939 0.9554938851369569 0 0.6361589229773765 0.980267481921908 0 0.4500205315514503 0.5612746743791901 0 0.2794189860462747 0.1755705847711164 0 0.2838596616936662 0.1880552963601287 0 0.2913291558559995 0.195436534089851 0 0.2929340618955787 0.2054594997944286 0 0.3318523518150771 0.3163483164335814 0 0.3562202587679399 0.3675590802676404 0 0.3893963404255008 0.4549902179217922 0 0.4199342462391196 0.5305024130042478 0 0.4380531523348181 0.5579273744395975 0 0.4531255066509651 0.5733131103290871 0 0.4681882695047543 0.5887061575221312 0 0.4712753620554825 0.6007532752144844 0 0.4743619529933477 0.6128025432796419 0 0.477433844041752 0.6248461245385833 0 0.4805099764400596 0.6369022565105955 0 0.495500527868154 0.6523595929856749 0 0.4985590109122625 0.664437584581831 0 0.5016672430806337 0.6764922642804488 0 0.5047788663141504 0.6885352414941293 0 0.507872538775747 0.7005964487847836 0 0.5110103642792501 0.7126601588074331 0 0.5290795557488027 0.74020238534503 0 0.5321715941660936 0.7522762865658377 0 0.5352643788810284 0.7643513192395319 0 0.5383560197495663 0.7764265655051387 0 0.5414507982035313 0.7885060330092665 0 0.5565936879551652 0.8039055049983307 0 0.5599816807145606 0.8158742257716693 0 0.5633178690339218 0.8278882293914737 0 0.5666605279595817 0.8398912236456512 0 0.5697547390824073 0.851960709308048 0 0.5728541413774598 0.8640340332381319 0 0.5912834980198314 0.8915287134109846 0 0.5760444757983537 0.8760723515524349 0 0.5944078635792062 0.9036220677441268 0 0.5975156122599056 0.9157192739549584 0 0.6006201077182072 0.9278179094688446 0 0.6037227168071484 0.9399182835475338 0 0.6074340256004442 0.9537354350621021 0 0.6225630298370791 0.967491643285372 0 0.6262520244436989 0.9789321089466403 0 0.6375000000011268 1 0 0.6312497439175404 0.9896854529701828 0 0.2956351892820548 0.216925770432568 0 0.2986661036442876 0.2288565067686702 0 0.3017630175872905 0.2409019421630287 0 0.3048045806805173 0.2529930516543034 0 0.3078630494463768 0.2649938853347337 0 0.3109274506727955 0.2769716255090116 0 0.3133141185967527 0.2890986202647542 0 0.316491630127939 0.3010694757115797 0 0.3198687827360192 0.3130604813592609 0 0.3349915862497556 0.3283186358545088 0 0.3381480322941013 0.3402615018983964 0 0.341220886322916 0.3522286911284778 0 0.3442940899942274 0.3642215733282086 0 0.3592918806065539 0.3795547486583914 0 0.3623626076745594 0.3915174493078807 0 0.3653820728941699 0.4035197283135892 0 0.3684145662550709 0.4154864850566328 0 0.3714479648446586 0.4274775642400687 0 0.374389832209127 0.4395579476327131 0 0.377374853386017 0.4516402457890736 0 0.3925154967454225 0.4670049852677042 0 0.3957928856214873 0.4790008957273347 0 0.3988696692651539 0.4910233140793674 0 0.4019402865145121 0.5030387565319323 0 0.4049776658570462 0.5150628172907062 0 0.408011820439908 0.5271261203808087 0 0.4230040601100674 0.5425413141430961 0 0.4260856679427275 0.5545784832598072 0 0.456211837835779 0.5853565877644799 0 0.4835760722531401 0.6489712303171452 0 0.5140751643101691 0.7247679671950227 0 0.5170989443166768 0.7368644697148777 0 0.5447647416194413 0.8005624573852966 0 0.5792471259306471 0.8881497280532719 0 0.6138788996462605 0.9633391417930196 0 0.4411383130623124 0.5699672297325555 0 0.2726587958667652 0.1858956186586593 0 0.2825815703443962 0.2007141903775654 0 0.2833563167813801 0.213147002676202 0 0.3226682856562778 0.3252020435246072 0 0.347366625567596 0.3762185767874933 0 0.3804563852134892 0.4636563917155154 0 0.4110503015704397 0.5391906334803115 0 0.429169789144622 0.5666180575110085 0 0.4442362104696296 0.5820066312147496 0 0.4592989443102191 0.5974029023398406 0 0.4623849671723886 0.6094513500348382 0 0.4654715475176153 0.6215014093657864 0 0.4685588829550601 0.633552833639322 0 0.4716395226037023 0.6455965911973094 0 0.4866504765335972 0.6610257145829304 0 0.4897440764992192 0.6730519381050342 0 0.4929150645238071 0.6851290875649296 0 0.4960803372777586 0.6971488217416756 0 0.499153723949659 0.7092658640079359 0 0.5021578461360058 0.7214204497661596 0 0.5201688214061087 0.7489164476431527 0 0.5232604532969846 0.760991246685404 0 0.526352051765689 0.7730674763092252 0 0.5295002400165572 0.7851094456299702 0 0.532824761142687 0.7972186511997253 0 0.5480376687509009 0.8125672794301277 0 0.5513158338787375 0.8245469006480104 0 0.5546213746124523 0.8366030593002494 0 0.5577338387307978 0.8486096257940013 0 0.560836580461276 0.8606712288243111 0 0.5639728737611733 0.8726874860216598 0 0.582386690338398 0.9002581005358686 0 0.5671766489881811 0.8847829686291565 0 0.5854877244383139 0.9123561254672002 0 0.5885901090450675 0.9244543088951122 0 0.5916927046931482 0.9365537002421509 0 0.5950088684623002 0.9485355928035584 0 0.6045226975029843 0.9662098530156609 0 0.6132734604042266 0.9762568819040972 0 0.6188787875374631 0.9890227298419153 0 0.6250000000012135 1 0 0.2748961207935918 0.1951828406359321 0 0.2865939423809802 0.2253799342068794 0 0.289846527179095 0.2376241186387572 0 0.2929057410831074 0.2496653373770982 0 0.295963758786718 0.2616654756350508 0 0.2990274875875235 0.2736419211915026 0 0.3014004739476505 0.2857733415886054 0 0.3044981509576455 0.2977507646594709 0 0.3076607030308269 0.3097352820076405 0 0.3107153878169426 0.3217517806753618 0 0.326158200996424 0.3369866608338029 0 0.3292952296610155 0.3488981581683456 0 0.3323684480994784 0.3608839321227155 0 0.3354401015554327 0.3728806895682919 0 0.3504362885539157 0.3882158879657141 0 0.3535066736946684 0.4002096300263462 0 0.3564294538272847 0.4122623445348523 0 0.3595478013932072 0.4241506834824443 0 0.3625895415853695 0.4361312006612983 0 0.3655142284268981 0.4482319416181594 0 0.3685084591015403 0.4603155475841746 0 0.3835949011736887 0.475672826945756 0 0.3868353629232147 0.4876770894686103 0 0.3899945283750182 0.4997016768059153 0 0.3930656126291274 0.5117184503991018 0 0.3960933482538922 0.5237491852625277 0 0.3991340366093779 0.5358044333542703 0 0.4141194845652149 0.5512304156221134 0 0.4172022086618787 0.5632686804958402 0 0.4473220784122061 0.5940525267827119 0 0.4747225803332157 0.6576528896273026 0 0.5051815633710601 0.7335050568873319 0 0.5081526668176712 0.7456059257470226 0 0.536168144604667 0.8092724302734579 0 0.570356482650016 0.8968913520896831 0 0.5977465185590038 0.9587484104890502 0 0.4322548755209052 0.5786585392603532 0 0.2655172676938348 0.1959606607367931 0 0.2714709362505655 0.2070705915972573 0 0.27406715427881 0.2215133495701077 0 0.3137876423559137 0.3337089731235672 0 0.3385125890457923 0.384878845084657 0 0.3715872467428337 0.4723306656159376 0 0.4021539475221524 0.5478823236200863 0 0.4202855525138616 0.5753090103573227 0 0.4353446254735214 0.5907023534674132 0 0.4504076423927125 0.6060996228367199 0 0.4534930846127412 0.6181486639024942 0 0.4565788040575808 0.6301996084365317 0 0.4596749822128675 0.6422158223539445 0 0.4627912507161663 0.6542442525231885 0 0.4778005913355917 0.6696810518805949 0 0.4810278145228862 0.6817688604129026 0 0.4842492833059577 0.693833116108747 0 0.4874721307011574 0.705758197789522 0 0.4903291265280352 0.7180111071580424 0 0.4932438876854176 0.7301904466842616 0 0.5112577293912692 0.7576309557408751 0 0.5144009462538515 0.769620642409252 0 0.5176344162702484 0.78168972385197 0 0.5209100910311431 0.7937904026828733 0 0.5242569382176007 0.8059730402621634 0 0.5394019237328342 0.8212421575040025 0 0.5426028126618319 0.8332200834712934 0 0.5457177273124103 0.8452417484946519 0 0.5488174494611208 0.8573168332493795 0 0.5519746773774103 0.8693555792088978 0 0.5551875491493496 0.8814371994603724 0 0.5734611402443085 0.9089920238422851 0 0.5583311342220377 0.8935309056804637 0 0.5765619984320928 0.9210904967339607 0 0.5796633137906398 0.9331897449456463 0 0.5827647101157116 0.9452895680457668 0 0.5863625729726124 0.9585750341981996 0 0.5937518852086664 0.9675271251416246 0 0.6000130667619183 0.9783583961974194 0 0.606249567153085 0.9891748764461626 0 0.6125000000013001 1 0 0.2777412303265483 0.2340829546339937 0 0.2810083614677752 0.2463284895916008 0 0.2840650723841197 0.2583431677085171 0 0.2869991964585425 0.2703166381073314 0 0.2894955935561522 0.2824463991421897 0 0.2925673439521556 0.2944203374634929 0 0.2956591051792276 0.3064000792435927 0 0.2987117162662399 0.318380892352926 0 0.3017864777602047 0.3303649460136082 0 0.3172257100404112 0.3455968425668411 0 0.3203522209738947 0.3575693796914307 0 0.3235147156831429 0.3695414452596056 0 0.3265854861495909 0.3815398485481771 0 0.3415746879940132 0.3968818995943647 0 0.3446179016669172 0.4088926012195754 0 0.3476991066379259 0.420895917177823 0 0.3508134062444269 0.4328934390349651 0 0.35369830040114 0.4448275593342147 0 0.3566162085841378 0.4569331900890582 0 0.3596402299730836 0.468990386208081 0 0.3746854251737985 0.4843438333905947 0 0.3778920513768465 0.4963089119812175 0 0.3810846957584467 0.5083462419152227 0 0.3841838665171451 0.5203925878196353 0 0.3872215358965296 0.5324150512606531 0 0.390246872037568 0.5444882627542267 0 0.4052361171056725 0.5599188823267536 0 0.4083186699088651 0.5719576341092505 0 0.4384304835046027 0.6027480911187535 0 0.4659016072669602 0.6663149706327913 0 0.4961483893347119 0.7422561315122727 0 0.4992535575605275 0.7542787162105651 0 0.5274629033929557 0.8178367176005392 0 0.5614339645026986 0.9056285031262992 0 0.4233694621697049 0.5873519324789992 0 0.258004389624032 0.2057516340997823 0 0.2622086567131776 0.2175957452824904 0 0.2658330666699128 0.2306570956130606 0 0.3049519251207531 0.3423339039787037 0 0.3295851209756615 0.3935586918447653 0 0.3627077543114992 0.4809958631024217 0 0.3932862258333785 0.5565655522618177 0 0.4113994275026464 0.583999922533794 0 0.4264546427640798 0.5993963999489118 0 0.4415157104708186 0.6147957482551272 0 0.4446018337659408 0.6268405521582421 0 0.4476891630053173 0.6388770687674589 0 0.4508541104713033 0.6508006196329833 0 0.4540320935724401 0.6628900448091162 0 0.4690858693268083 0.6783353486817516 0 0.4722806106889099 0.6904259163584535 0 0.4754937100277056 0.7024427622720478 0 0.4785440081118515 0.7144611938395267 0 0.4811883584898373 0.7266827512816669 0 0.4841669941589471 0.7388292399513849 0 0.5023462596607858 0.7663450097226184 0 0.5056980074568804 0.7783081920683699 0 0.5089697964936206 0.7903179451518213 0 0.5122743940461453 0.8024336100015899 0 0.5154566392084423 0.8144406957287411 0 0.5306094604705285 0.8297814426287352 0 0.5337060074031927 0.8418669780940575 0 0.5368022316525681 0.8539526669360846 0 0.5399353846738411 0.8659724052373254 0 0.5431148247080928 0.8780649363340071 0 0.5462753813191191 0.890168302442685 0 0.5645336301002406 0.9177265035187718 0 0.5493974625809638 0.902265442201923 0 0.5676344735797285 0.9298253542622508 0 0.5707352913295132 0.9419251376521023 0 0.5736314227505959 0.9540882184439684 0 0.5848786202799978 0.9698155242996618 0 0.5879033988633862 0.9785831691671383 0 0.5938289164630289 0.9892206803255175 0 0.6000000000013869 1 0 0.2690983299827168 0.2429947401835564 0 0.2721719098622695 0.2549760922104461 0 0.2751738385171617 0.2669245693286826 0 0.2779533337431557 0.2788968796454663 0 0.2806385085519054 0.2911020807475563 0 0.2837271571127684 0.3030768490938803 0 0.2867949076581056 0.3150579920339077 0 0.2898648215095592 0.3270361297303435 0 0.2929402338061098 0.3390186373944304 0 0.3081370985518651 0.3543022673837129 0 0.3115398442572645 0.3662142567916747 0 0.3145159845598016 0.3782315991901813 0 0.3174736919375482 0.3902567708035259 0 0.3326434337617806 0.4055640988529594 0 0.3357818794000256 0.4175496538817781 0 0.3387957623211327 0.4295660871502527 0 0.3417792222398814 0.441573085031293 0 0.3446291591935169 0.4536410605426408 0 0.3476998750065981 0.4656508838306233 0 0.3507751410229179 0.4776707875746171 0 0.365850534986258 0.4929874041531966 0 0.3689972190375224 0.5049454311727474 0 0.3722017066951918 0.5170199135451252 0 0.3753176401623011 0.529083876471342 0 0.3783462121474462 0.5411052592626565 0 0.3813706975044491 0.5531792811336059 0 0.3963551035634434 0.5686058611121556 0 0.3994355988995968 0.5806466429912238 0 0.4295395749068707 0.6114430150600515 0 0.4571938857130523 0.6749876783636065 0 0.4872519385033236 0.7509215307706256 0 0.490355745551577 0.7629448830058541 0 0.5185951606404871 0.8264210009291533 0 0.5525037694836012 0.9143627448959931 0 0.5757039270403854 0.9665072520075825 0 0.4144819176502442 0.5960447034264382 0 0.2501306690957222 0.2152548451898965 0 0.2539881960149343 0.2269777280326661 0 0.2571371644034847 0.2396080536796922 0 0.2960182256014962 0.3510072051788037 0 0.320554346596488 0.4022559604748294 0 0.3538425910370921 0.4896763314304712 0 0.3844055714360849 0.565251895447562 0 0.4025155477216144 0.5926909242648655 0 0.4175644851864369 0.6080905848883458 0 0.4326241666935999 0.6234895472140694 0 0.4357235848011701 0.6355088139431595 0 0.438905920651316 0.6474868542715561 0 0.4421662365193922 0.6594830631112389 0 0.4453616810937279 0.6715429756672957 0 0.4603455116054322 0.6870728760505213 0 0.4634977221934984 0.6990651784171591 0 0.4665433924400074 0.711110653197101 0 0.469133430216124 0.7233823385834189 0 0.4721712840583352 0.7354574102440916 0 0.4752550764474118 0.747550644627306 0 0.4936045806889685 0.7747332754548254 0 0.4970202667338633 0.7868525052405838 0 0.5003228755047529 0.7989756675258437 0 0.5034853883561314 0.810978532335227 0 0.506582092622564 0.8230606941330969 0 0.521691618380693 0.8385054534905962 0 0.524787222742201 0.8505915522790106 0 0.5279203115196172 0.8626123674629812 0 0.5310962604886887 0.8747038915955154 0 0.5342466884064647 0.8868072969929033 0 0.5373616403915744 0.8989024860314159 0 0.5556056784512414 0.9264610557676241 0 0.5404717862534164 0.9109984476421666 0 0.5587065082404444 0.9385605267928117 0 0.5618073995070125 0.9506612113195518 0 0.5649109450366135 0.9627574883161137 0 0.5774633374997806 0.9788221716207384 0 0.5817235934243994 0.9894482542618264 0 0.5875000000014736 1 0 0.2602465035463777 0.2516631556074789 0 0.2633020095241116 0.2635448369885186 0 0.2661194306127029 0.2756076318824487 0 0.2688703874232195 0.2876297847783519 0 0.2718231033177798 0.2997334332768037 0 0.2748860153221477 0.3117328123262291 0 0.2779391352664647 0.3237136118201917 0 0.2810244994749015 0.3356848411818127 0 0.2840930103926329 0.3476738497106007 0 0.2991385142590275 0.3629828262359229 0 0.30253882779417 0.3749028389893456 0 0.3054643573107684 0.3869335460747717 0 0.3084262435561246 0.3989580314977142 0 0.3236419126418811 0.4142543510086238 0 0.3267843346234878 0.426238214548419 0 0.3296842289526514 0.43827737674078 0 0.3327326498225569 0.4502978237590187 0 0.335756191349228 0.4623187083145716 0 0.3388269814089145 0.474331464348651 0 0.3419073637063736 0.4863484815209387 0 0.3569781689807897 0.5016540538417278 0 0.3601932679120318 0.5136802591285329 0 0.36335975298684 0.5257369265141496 0 0.3664360904742092 0.5377615658501806 0 0.3694572479821914 0.5497974243650909 0 0.3724820555900262 0.5618672927102824 0 0.3874724533473422 0.5772931798136434 0 0.3905523913536693 0.5893323361136341 0 0.4206488712553222 0.6201362937427335 0 0.4484015195129032 0.6836556582215497 0 0.4783593668730568 0.7595500907054014 0 0.4815926967531569 0.7713588181826193 0 0.5096782608134369 0.8351441681674661 0 0.5435774233486265 0.9230967247151477 0 0.5672890420860588 0.9754926866996346 0 0.4055923598143404 0.6047381071475667 0 0.2419071182073476 0.2244570029217542 0 0.2451916404039454 0.2363674663959099 0 0.2482146863606836 0.2484713845705648 0 0.2871667884297785 0.3596609899002879 0 0.3115556767059319 0.4109438188413882 0 0.3449860563072629 0.4983654475157306 0 0.3755062253531761 0.5739436864839905 0 0.3936181297198559 0.6013858705158062 0 0.408674574901173 0.6167841633507275 0 0.4237505882211162 0.6321711717447507 0 0.4269122450232877 0.6441645823268187 0 0.4301130193298919 0.6561564835521607 0 0.4333761086433057 0.6681924931325115 0 0.4364642267992188 0.6802489463799559 0 0.4515293856373207 0.6956934055759334 0 0.4544842207464168 0.7077285183425187 0 0.4573798795592013 0.7199291039198352 0 0.4602055359301686 0.7321553463091641 0 0.463257908073026 0.7441873190728471 0 0.4663451654142433 0.7562441961093687 0 0.4850686675753196 0.7834291987958035 0 0.4883769835824126 0.7955396292920072 0 0.4914739762575925 0.8076194461561218 0 0.4945702043793258 0.8197005402275916 0 0.497665932697649 0.831783124098109 0 0.5127739861191655 0.8472278970762704 0 0.5159054004158193 0.8592520740307766 0 0.5190805518876183 0.8713433326175946 0 0.5222279064809265 0.8834463677955797 0 0.5253351539168603 0.8955400335644526 0 0.5284433698726232 0.9076353933443664 0 0.5466779563396199 0.9351954081264316 0 0.5315499747907079 0.9197322492530402 0 0.5497778483395006 0.9472957339969006 0 0.5528880472539123 0.9593614629342975 0 0.5562095650129484 0.9713007073839905 0 0.5684794501439864 0.9885065901511541 0 0.5750000000015603 1 0 0.2514096002681295 0.2604508941297162 0 0.254399432905622 0.2722847615496772 0 0.2570175815629468 0.2843649590039959 0 0.259865379916181 0.2964447116796319 0 0.2629558709875306 0.3084065657096536 0 0.2660208167608634 0.3203874844891484 0 0.2690881621718684 0.3323642248326305 0 0.2721711096006042 0.3443440195924966 0 0.2752466055057292 0.3563294771764222 0 0.2903292197294094 0.3716322741850236 0 0.2934140984469428 0.3836218706492377 0 0.2964172975700234 0.3956301653186258 0 0.2995202811303768 0.4076178783841689 0 0.3146986653411393 0.4229307073822106 0 0.3177148528019914 0.4349460181837262 0 0.3207208700843875 0.4469687993469577 0 0.3238004537303663 0.4589798255782663 0 0.3268803202523332 0.4709923496293084 0 0.329960580525927 0.4830073616318117 0 0.3330401866574689 0.4950234414250437 0 0.3480989439208997 0.5103788286570851 0 0.3513327555522072 0.5223766225086551 0 0.3544669078546654 0.5344037464963712 0 0.3575543920302747 0.5464404803669767 0 0.360579038148793 0.5584825361708108 0 0.3635884265546722 0.5705529918988619 0 0.3785822511594221 0.5859834472567633 0 0.3816429100819504 0.5980342547313326 0 0.4117596720184964 0.6288300125500019 0 0.439555604674587 0.692307162249779 0 0.4695279666203021 0.768228959345544 0 0.4731385843494443 0.7801316867911239 0 0.5007609335147761 0.843867290579396 0 0.5346503068490207 0.9318301863402128 0 0.5593773644002594 0.9822265720190666 0 0.3967008944016524 0.6134320408835209 0 0.2333452383417893 0.233345237241332 0 0.2362214882763206 0.2452223508026079 0 0.2391759543209492 0.2572882702855268 0 0.2783213260131742 0.3683172146662078 0 0.3026200451627692 0.4196193949642367 0 0.3361317786696684 0.5070072628802146 0 0.3666339003778036 0.5826198392081583 0 0.3847260372571817 0.6100801223249788 0 0.399784326668047 0.625478484006006 0 0.4148485005804039 0.640873918261109 0 0.4180354784510006 0.6528726761774726 0 0.4213467116220473 0.6648535727176347 0 0.4244734782810527 0.6768986515783669 0 0.427567127873276 0.6889535372281679 0 0.4426103700042084 0.7043303748359039 0 0.4455286583590928 0.7165289608679069 0 0.4484133852945293 0.7286739322486628 0 0.4513030505097322 0.7408753005918169 0 0.4543563881175972 0.7529087035160378 0 0.4574352302997209 0.7649689643100676 0 0.476373424847202 0.7921873224868243 0 0.4794632191926107 0.8042602999934206 0 0.4825592022186835 0.8163408330533755 0 0.4856545900500956 0.8284223966627942 0 0.4887543138216698 0.8404880751793633 0 0.5038960453088901 0.8558995439966091 0 0.5070702573192661 0.8679839839965531 0 0.5102171853047505 0.8800864732022724 0 0.5133158129975381 0.8921774613245174 0 0.5164167050846866 0.9042734579991072 0 0.5195220665447458 0.9163686757942182 0 0.5377501528993641 0.9439288953595025 0 0.5226238191238821 0.9284630519263952 0 0.5408681214159698 0.9559875496956549 0 0.5440740829747585 0.9679804807989671 0 0.5487424347070082 0.9798574256051942 0 0.5625000000016469 1 0 0.5560363506844805 0.992056637167569 0 0.242216988077243 0.2691879136800336 0 0.2451156880554823 0.2811166701920205 0 0.2479561721860607 0.2931458688881923 0 0.251034658377793 0.3050832828783866 0 0.2541052522304191 0.3170576696077222 0 0.2571766745035714 0.3290349215645985 0 0.2602481596839086 0.3410146264617594 0 0.2633262203745848 0.3529970981917542 0 0.2664014432778775 0.364984292023418 0 0.2813957634333638 0.3803079046691397 0 0.2844701805075451 0.3923008732958605 0 0.2875691556434763 0.4042809787874849 0 0.2906773730339502 0.4162802506081812 0 0.3057132091598977 0.4316219913538935 0 0.3087806682440201 0.4436308122017632 0 0.311859299306611 0.4556396248992123 0 0.3149384988432817 0.4676511672787849 0 0.3180163021363882 0.4796660991095124 0 0.3210936010943844 0.4916827186161628 0 0.3241662361997984 0.5036694585319704 0 0.3392150927259712 0.5190021719798624 0 0.3424170856045135 0.5309782863789004 0 0.3455852333640731 0.5430834400077196 0 0.3486854849090504 0.5551336744898845 0 0.3517027733537205 0.5671575003625586 0 0.3547358495742955 0.5792462424945539 0 0.3696655514182782 0.594685268968865 0 0.3727502254281883 0.6067286194068618 0 0.4028697809632198 0.6375267518651029 0 0.4306567699147743 0.7010134209189133 0 0.4606295245692525 0.7770246970711956 0 0.4642638362723005 0.7889279811977818 0 0.4918766128907792 0.8525328332461279 0 0.5257298513976121 0.9405595759952049 0 0.3878095978364414 0.6221261976726737 0 0.2244570040053631 0.2419071172019055 0 0.2270385378579542 0.2538434220194847 0 0.2298199425179038 0.2657731694133606 0 0.2694749543058073 0.3769737561724194 0 0.2937639970441103 0.4282865582210527 0 0.3272731829383839 0.5156615327765365 0 0.3577115581378375 0.5913077558659827 0 0.3758344660750018 0.618773750739678 0 0.3908933901579832 0.6341737309227995 0 0.4059649669965467 0.6495447129407188 0 0.4092003028672476 0.66155244810041 0 0.4124464629002497 0.6735411702100073 0 0.4155806231387879 0.6856007249881385 0 0.4186698409785056 0.6976577498894772 0 0.4337040126114749 0.7130317357164973 0 0.4365998222515207 0.7251618038913648 0 0.4394633651574605 0.7373930779118887 0 0.4423508014044238 0.749542529769252 0 0.4454404480681198 0.7616130736853385 0 0.4487132015720777 0.7736895358371638 0 0.4674607063549772 0.8009086754815563 0 0.4705489919309945 0.8129814345128518 0 0.4736442209310806 0.8250619455604375 0 0.4767393623540591 0.8371419135237079 0 0.4798653569692429 0.8492003644437969 0 0.4950440371474645 0.8646206228062894 0 0.4981963034017604 0.8767242885721385 0 0.5012950502077775 0.8888163490181906 0 0.5043953978730553 0.9009102805186124 0 0.5074958505109197 0.9130053307150569 0 0.5105974035935725 0.9250989485836124 0 0.52883428448597 0.9526510874765978 0 0.5137065918626669 0.9371928483857086 0 0.5319675528788083 0.9648337721561062 0 0.535275997739702 0.9781910066979526 0 0.5434762194535379 0.9899287996082833 0 0.5500000000017335 1 0 0.233049443262297 0.2778919967436084 0 0.2360545103387244 0.2898245212866156 0 0.2391334260288025 0.3017544202698124 0 0.2422008811554824 0.3137278660788872 0 0.2452686604387319 0.325704345721131 0 0.2483379363100372 0.3376837885118276 0 0.2514096197406365 0.3496658894467178 0 0.254481994598807 0.3616508199817721 0 0.2575559145970234 0.3736394785335438 0 0.2725492247407096 0.3889596047926339 0 0.2756355215124065 0.4009486559388118 0 0.2787344069611142 0.4129408449883085 0 0.2818286969309871 0.4249486584833796 0 0.2968419537370094 0.4402927769799811 0 0.2999198288798429 0.452300231208681 0 0.3029985681169093 0.4643095825853869 0 0.3060786915580457 0.476322518791855 0 0.3091511229395472 0.4883389845497953 0 0.3122160022905389 0.500348109712531 0 0.3153071119657762 0.5123284360753213 0 0.3304207339100841 0.527639548514385 0 0.3335853551961825 0.5397209848913269 0 0.3367018130440994 0.5517627715929707 0 0.3397965056584505 0.563808343428146 0 0.3428030840637749 0.5758466881587553 0 0.3457763832692164 0.5879458139435442 0 0.3607795012123123 0.603371738585105 0 0.3638603798333617 0.6154209172340626 0 0.3939774061960238 0.6462234708829115 0 0.4217508925656845 0.7097122555207928 0 0.4521757385754754 0.7857609726917449 0 0.4554331556485979 0.7976175218798024 0 0.4830283199768518 0.8612714287160361 0 0.5168136591644517 0.9492909312150024 0 0.3789178543383512 0.6308206936699795 0 0.2152548462463826 0.2501306681865424 0 0.2175462501884805 0.262069065960486 0 0.2198924814004989 0.2743583477910242 0 0.2606276323517143 0.3856270054749329 0 0.2849042669780451 0.436954465770374 0 0.3183981441590057 0.5243223186774655 0 0.3488063824495235 0.6000248438992172 0 0.3669428015611342 0.6274673802638768 0 0.3820025782546735 0.642863936530359 0 0.3970619261618696 0.6582746133862681 0 0.4003462710717718 0.6702279431703588 0 0.4035959812174495 0.6822505321606076 0 0.406682614040823 0.6943049838146298 0 0.4097693200046714 0.7063641454902001 0 0.424802991429913 0.7217349725179815 0 0.4277238203396848 0.7338019569473712 0 0.4307044608848649 0.7459980502067713 0 0.4337710595702817 0.7580936779965682 0 0.4369403358017583 0.7702401627448833 0 0.4402306429282654 0.7825065280889946 0 0.4585397938018946 0.809622234043289 0 0.4616348426337532 0.8217017329225689 0 0.464730148286473 0.833779318130797 0 0.4678397803115472 0.8458541747461163 0 0.4709663352793465 0.8579351104359588 0 0.4861744093186069 0.8733614081054423 0 0.4892729907235167 0.8854533099031372 0 0.4923718497050976 0.8975469030388218 0 0.4954712469165741 0.9096417339306849 0 0.4985715686004117 0.9217357926763912 0 0.5016814973032344 0.9338291891792136 0 0.5198846340063079 0.9613536934934382 0 0.5048010111158725 0.9459294480728662 0 0.522934109044262 0.9729026147552619 0 0.5312044259248478 0.9900586961350635 0 0.5375000000018204 1 0 0.2235093982010106 0.2864357776547938 0 0.2272328148306871 0.2984315407245848 0 0.2302980129622227 0.3103994194259642 0 0.2333632983625676 0.3223728750594609 0 0.236428225728083 0.3343514261623462 0 0.2394966507580949 0.3463327388121659 0 0.2425655893470993 0.3583172502739717 0 0.2456311899446218 0.3703013500064565 0 0.2487045750292563 0.3822914100344975 0 0.263708487643188 0.3976155324017288 0 0.2667983931011388 0.4096077662872903 0 0.2698954881092089 0.4216089867108305 0 0.2729685606910906 0.433616207639667 0 0.287981762872638 0.448961558932622 0 0.2910592295169329 0.4609700326145532 0 0.2941368363450697 0.4729798437957238 0 0.2972082275522355 0.4849969990497939 0 0.3002783188605758 0.4970153494354494 0 0.3033449941897634 0.5090234388237178 0 0.3064331387489414 0.521003061534648 0 0.3215391359128542 0.5363457146009583 0 0.3246470646990815 0.5483949676972719 0 0.3278195608242117 0.5604448342636039 0 0.3309111921849052 0.5724879747679665 0 0.3339300279375552 0.5845214302293006 0 0.3369804664360563 0.5966059129275602 0 0.3518883848160567 0.6120678625951447 0 0.3549821488022817 0.6241064579025064 0 0.3850921751678659 0.6548891194760553 0 0.4128499568305326 0.7184176081109586 0 0.4434367226613279 0.7941859890967939 0 0.4465320078499435 0.8062633847942227 0 0.4741096168322133 0.87000884335416 0 0.5079111887639075 0.9580329670648465 0 0.5249998407361942 0.9824626678945609 0 0.37002590671899 0.6395147552046297 0 0.2057516351208316 0.2580043888097723 0 0.2073765032535299 0.2701682111732393 0 0.2096562615653087 0.2840904442427341 0 0.2517820258125096 0.3942847802380774 0 0.2760437772585178 0.4456227293847824 0 0.3095312854693666 0.5330295558936968 0 0.3400522563385745 0.6086583283287897 0 0.3580628093096653 0.636155212758398 0 0.3731159897398879 0.6515382070740906 0 0.3882977148294615 0.6669262867410276 0 0.3915798407513231 0.6789405560260378 0 0.3946961495115443 0.6909621161539699 0 0.3977838485413477 0.7030127674723913 0 0.4008691983647322 0.7150715986799639 0 0.4158873862694653 0.7304379693870171 0 0.4189454298059401 0.742530887787726 0 0.4220905394702857 0.754629215335137 0 0.4252395180489011 0.7666867659471501 0 0.4282471446229044 0.7788513949140845 0 0.4314113008387117 0.7908959966175854 0 0.44962640168656 0.8183416291241729 0 0.4527209983243644 0.8304205207485631 0 0.4558258289113286 0.8424937251636005 0 0.4589359727966207 0.8545727390720605 0 0.4620604898809463 0.8666572000977508 0 0.4772374596434195 0.8820943811270754 0 0.4803486852950232 0.8941829236017151 0 0.4834471276697347 0.906277674564624 0 0.4865461412362749 0.9183730815984645 0 0.4896525634426683 0.9304649271838386 0 0.4927630825545086 0.9425663934812398 0 0.5107478372579084 0.9698626480906309 0 0.4958803566497262 0.9546534642704929 0 0.5142876030654632 0.9804349602817228 0 0.5250000000019071 1 0 0.51875133369704 0.9896091623879961 0 0.2153378447190853 0.295095507841581 0 0.2183981912777889 0.3070675581121002 0 0.2214594661180078 0.3190422563109397 0 0.2245215503275743 0.3310203849251571 0 0.2275886467120624 0.34299946245972 0 0.2306110557939998 0.3549795292050646 0 0.2336699668062819 0.3669628740426175 0 0.2367656956534595 0.3789396393563095 0 0.239858034855191 0.3909494532212344 0 0.254866568915057 0.4062802489046166 0 0.2579507579257247 0.418276706361055 0 0.2610321119685822 0.4302783545409828 0 0.2641070229012027 0.4422840509476532 0 0.2791211278675919 0.457630634689618 0 0.2821991709409742 0.4696406511408086 0 0.2852709587378329 0.4816516023215944 0 0.2883334368723419 0.4936736954043457 0 0.2914058637931583 0.5056914556232459 0 0.2944849481553244 0.5177117589065416 0 0.2975582148841875 0.5297169598951146 0 0.3126130973564084 0.545039320358898 0 0.3157867780939038 0.5570978769681143 0 0.3189609204685763 0.5691558652145343 0 0.32203394066467 0.5811774621850254 0 0.3250972523262756 0.5932200154763035 0 0.3282258592238219 0.6052689547600434 0 0.3431385535620629 0.6207024522759366 0 0.3462244166754923 0.6327464017617254 0 0.3763217389270008 0.6635779791610912 0 0.4039574556426755 0.7271339697881303 0 0.4345249057872158 0.8029050479539024 0 0.4376191672297376 0.814981983939414 0 0.4651906868941089 0.8787335316426966 0 0.4989839980430434 0.9667546928930337 0 0.3611487014076808 0.6481956237170057 0 0.195960661707354 0.2655172669775281 0 0.1970006024342291 0.2778793017016991 0 0.2062136034971734 0.2946002727942883 0 0.2429358194907508 0.402945859737715 0 0.2671837411778738 0.4542904118204792 0 0.3006459817548029 0.5417499602950967 0 0.3313126275365258 0.6173095228809251 0 0.3493062414944836 0.6447901546879493 0 0.3643307927385975 0.6601732351408566 0 0.3795235383329414 0.6755949575619611 0 0.3827003068828137 0.6876385499882496 0 0.3857953830345353 0.6996630140174618 0 0.3888636054422127 0.7117213243743745 0 0.3919476552608757 0.7237827080762452 0 0.4070526176199461 0.7391971080022939 0 0.4101474452410744 0.7512619268072431 0 0.4132387585096285 0.7633307767403006 0 0.4163311060219643 0.7754011035103976 0 0.4194246269513784 0.7874731440032254 0 0.4225184958110926 0.7995473435865545 0 0.4407136445178095 0.827058713521837 0 0.4438163234655682 0.839134408987393 0 0.4469237506597374 0.8512130785689409 0 0.4500302200085023 0.8632997183064637 0 0.4531285733400288 0.8753867924594615 0 0.4683268346621904 0.890819804839598 0 0.4714211832587807 0.9029138860783267 0 0.4745209199125986 0.9150092179911363 0 0.4776253753337934 0.9271015946389454 0 0.4807399031011577 0.939197631440136 0 0.4838495143248197 0.9512927524020487 0 0.5018872613367286 0.9783923923827352 0 0.4869705093831994 0.9633252921506219 0 0.506405236320646 0.9893802761791523 0 0.5125000000019937 1 0 0.197426116523236 0.2903080303613087 0 0.2067192484101114 0.3039511534592171 0 0.2095578026815771 0.3157063952127803 0 0.2126151939670092 0.3276901859292972 0 0.215682451723364 0.339665987845897 0 0.2187484011243649 0.3516440069406486 0 0.2216320156499456 0.3636255499863188 0 0.2248034124669436 0.3756160802704542 0 0.2279210130133753 0.3875991868159619 0 0.2310105543490024 0.3996089412547602 0 0.2460178873527872 0.4149412111628625 0 0.2490946584694652 0.4269418926092171 0 0.2521717113697795 0.4389456270316916 0 0.2552478486176527 0.4509505281748851 0 0.2702593999376531 0.4662996168715786 0 0.2733340551199905 0.4783101931358005 0 0.2764030549707076 0.4903201308108581 0 0.2794679274712692 0.5023429662602106 0 0.2825355460523401 0.514370254583301 0 0.2856165161713042 0.5263928350900836 0 0.2886994578382223 0.538415893868683 0 0.3037809369995896 0.5537645626926074 0 0.3069688283136032 0.5658043109738061 0 0.3100769634551232 0.5778438084300405 0 0.3131733987129777 0.5898845243533392 0 0.3162574924368513 0.6019215068242795 0 0.3193420321449319 0.6139602836408794 0 0.3343997866808926 0.6293499907998739 0 0.3374877016343979 0.6413952514990277 0 0.3675281326255151 0.6722095626540209 0 0.3950567445286533 0.7358417083460336 0 0.4256126301207184 0.8116233117480303 0 0.428707663906423 0.8236983214725542 0 0.4562675673643326 0.8874617818192904 0 0.490167236873202 0.9746715550151506 0 0.3523995005298988 0.6568209564422827 0 0.1858956196113006 0.2726587952172653 0 0.1865427838113606 0.285132155985041 0 0.1968993769643381 0.3014276566760871 0 0.2340834716791972 0.411603642002677 0 0.258321104377056 0.4629594987259826 0 0.2917881462469865 0.5504296390618779 0 0.3224269715913272 0.6260013913316894 0 0.3405759993725725 0.6534404140612783 0 0.3555558336346033 0.6688421321106353 0 0.3707134959815349 0.6842768108013401 0 0.37380952300294 0.6963063292059549 0 0.3768831799276646 0.708362710694137 0 0.379884238950267 0.7204430926073329 0 0.3830523137745459 0.7324891636574014 0 0.3981503589344034 0.7479063666162783 0 0.4012365063999308 0.7599749142711765 0 0.404326349021837 0.7720447907573054 0 0.407418205171751 0.7841171100484231 0 0.410509303696992 0.7961916762241237 0 0.4136057796666778 0.8082652232841171 0 0.4318064980493964 0.8357749909042563 0 0.4349128130483454 0.8478536274573836 0 0.4380173081859745 0.8599387351274751 0 0.4411152628975341 0.8720202115917 0 0.4442249952603666 0.8840992998084888 0 0.4593876365525796 0.8995483262517492 0 0.4624958954605584 0.9116453692211374 0 0.4655946133755893 0.9237398714654234 0 0.4687046091077003 0.9358334128445127 0 0.4718165657347227 0.9479229017170048 0 0.4749344151679352 0.9599757184599077 0 0.4927698672159157 0.987666407759682 0 0.4781316098908314 0.9717312341378093 0 0.5000000000020587 1 0 0.187111966972492 0.296222476651553 0 0.1981140855422076 0.3126168387345777 0 0.2007133113435805 0.3243551457148893 0 0.2037782884524394 0.3363338054204413 0 0.2068083234569877 0.3483206497379288 0 0.2097305547254336 0.3603428640876928 0 0.2128243415655403 0.3722882026986934 0 0.2160009737231464 0.3842791422267784 0 0.2190876167175388 0.3962725425396183 0 0.2221529486570699 0.4082613634794641 0 0.2371598645404102 0.4236037168188408 0 0.2402356176595073 0.4356057397398694 0 0.2433128696599814 0.4476111672673562 0 0.2463872816443127 0.4596167607205584 0 0.2613940365825991 0.4749695788622412 0 0.2644688282530757 0.4869817148489612 0 0.2675342728018049 0.4989960796595964 0 0.270595312221068 0.5110192753852997 0 0.2736642919942657 0.5230494103742489 0 0.2767508066984472 0.5350659845788006 0 0.2798466102525307 0.5470865972757799 0 0.2949420873472383 0.562457874766193 0 0.2980778128802365 0.5744871307377838 0 0.3012048855912323 0.5865360058970703 0 0.3042907998648091 0.5985724908995564 0 0.3073736338778043 0.6106106518847106 0 0.3104560968832691 0.62265133768973 0 0.3255124880010014 0.6380447958776693 0 0.3285986391422284 0.6500904685818265 0 0.358737561110975 0.6808925219077877 0 0.38612700355028 0.7445630329513971 0 0.4167007615054856 0.8203405681663615 0 0.4197979313797032 0.8324169606767307 0 0.4473466774767215 0.8961829359137481 0 0.4822601753694936 0.9801593107670213 0 0.3436337834152454 0.6654954089552435 0 0.1755705856782306 0.2794189854762971 0 0.1758013531169668 0.2917580796174789 0 0.1861095453722411 0.3080602835634913 0 0.2252153970994448 0.4202511256790379 0 0.249458144848467 0.4716264867736709 0 0.2829458696446046 0.5591134524733132 0 0.3135392726110673 0.6346941366883572 0 0.3316851616662349 0.6621384712736627 0 0.3467543789090991 0.6775406844495031 0 0.3618260581082374 0.6929475247017632 0 0.3649140169202543 0.7050027044775934 0 0.3678652993606857 0.7170931191982935 0 0.3709750232048528 0.729153819370054 0 0.3741559552613997 0.741218628311243 0 0.389212907720439 0.7566250397536711 0 0.3923116753747717 0.7686886882366295 0 0.3954075584265082 0.7807595497753008 0 0.3984951377182439 0.7928355854382424 0 0.4015924881200641 0.804907291943013 0 0.4046934939452562 0.8169815176506317 0 0.4228970020869098 0.8444957259047136 0 0.4260027648730035 0.8565783037750518 0 0.4290989090786895 0.868663952516647 0 0.4322024681536193 0.880738877389467 0 0.4353221960295524 0.8928241845057385 0 0.4504712170373906 0.9082816212506496 0 0.4535698654269151 0.920376472148818 0 0.4566728734704905 0.9324710208850809 0 0.4597783236304488 0.9445674569204862 0 0.4628858250414433 0.9566709748589961 0 0.4660890973667296 0.9684036471753439 0 0.479117975611338 0.9892743215441417 0 0.4702356519768904 0.9788514684084283 0 0.4875000000020284 1 0 0.1807651195565161 0.3004930869915126 0 0.1888095220361607 0.3210308625759651 0 0.1918425125542123 0.3330125304631544 0 0.1948381622126329 0.3450095401969002 0 0.1978649865362686 0.3569997916644245 0 0.2008893177597188 0.3689934891487825 0 0.203970288697838 0.3809737498389335 0 0.2071436752254843 0.3929395249455353 0 0.2102127468287556 0.4049274053532728 0 0.213278185907169 0.4169148316214585 0 0.2282934368424783 0.432257642241237 0 0.2313782031280819 0.4442710878667588 0 0.2344542664183184 0.456276054517141 0 0.2375252860017376 0.4682828006311514 0 0.2525271175889662 0.4836413170519345 0 0.2556038987445864 0.495655893545464 0 0.2586760467838665 0.5076626778916008 0 0.2617467073400369 0.5196851381691479 0 0.2648152030898625 0.5317213640667225 0 0.2679257378119726 0.5437434417699907 0 0.2710328691159973 0.5557629287930685 0 0.2860909299984092 0.5711481526577706 0 0.2892425712234246 0.5831886390266858 0 0.2923268407428505 0.5952235738434408 0 0.2954144538843651 0.6072423178830608 0 0.2985018924721804 0.6192758512834038 0 0.3015861703053174 0.6313301931938919 0 0.3166233578655349 0.6467389212692713 0 0.3197066944723486 0.6587861904908872 0 0.3498424001470677 0.6895939056582422 0 0.3771669631794414 0.7532864487883237 0 0.4077871931340427 0.8290594448550099 0 0.4108852195196627 0.8411382019948641 0 0.4384470790467561 0.9049177051871027 0 0.3347722337920816 0.6741887874694799 0 0.1650000004116476 0.2857883830111999 0 0.1740376127643644 0.305931508133527 0 0.1769345245766259 0.3177356474834381 0 0.2163504640150752 0.4289168081651422 0 0.2405898096040149 0.4802954949687243 0 0.2741383124345723 0.5678137729526015 0 0.3046592431064737 0.6433846600518409 0 0.3227911333636898 0.6708359444244649 0 0.3378595885126501 0.6862405226690946 0 0.3529295498155945 0.7016497681963797 0 0.3558722955652299 0.7137431374013543 0 0.3589662720391763 0.7258008461284225 0 0.3620715338237008 0.7378628831459541 0 0.3651647581785507 0.74992951817676 0 0.380296860600357 0.765328748800417 0 0.3833898700795585 0.777399086061907 0 0.386483689341936 0.7894752841241269 0 0.3895817500351906 0.8015485893294937 0 0.3926785689137198 0.8136226941408695 0 0.3957777672487071 0.8256990360498997 0 0.4139857955077537 0.8532192066612687 0 0.417082784535066 0.8653023761956213 0 0.4201805036905027 0.8773850245130435 0 0.4232963334551103 0.8894657366338814 0 0.4264179515929781 0.9015526286801842 0 0.4415462462549795 0.9170119523871394 0 0.4446463896759237 0.9291079456326499 0 0.4477493910392348 0.9412051652217246 0 0.450853728024264 0.9533050346014387 0 0.4539544683932949 0.9654064233439064 0 0.4573665529801861 0.977691523935885 0 0.4750000000019764 1 0 0.4674713721948201 0.9891631377937402 0 0.1646598256134487 0.2982707927826715 0 0.1799251130004329 0.3296718128045704 0 0.1829387277085512 0.3416562629847765 0 0.1859349495494465 0.3536733920736835 0 0.1889786517103705 0.365661580953381 0 0.1920479408863221 0.3776421877183945 0 0.1951264271765468 0.3896200391031366 0 0.1982569870254371 0.401601233911386 0 0.201344612416808 0.4135863868087667 0 0.2043944298380814 0.4255811689833953 0 0.2194363669524569 0.4409239788576505 0 0.2225212611202376 0.4529384594658943 0 0.2255964636634432 0.4649425814696932 0 0.2286669166026487 0.4769464012252507 0 0.2436590606322598 0.4923132725954339 0 0.2467483087638732 0.5043197777662521 0 0.2498312202529951 0.5163446827095826 0 0.2529139558273079 0.5283682076235739 0 0.2560031611570856 0.5404040412291254 0 0.2591060030390846 0.5524233878992146 0 0.2622385429266093 0.5644592063744048 0 0.2772697630873061 0.5798431140275305 0 0.2803631385609822 0.5918743196741086 0 0.2834444690685236 0.6039097140443488 0 0.2865536423789506 0.6158852234629713 0 0.2896506040763765 0.6279364014497009 0 0.2927156400252756 0.6400037701476029 0 0.3077334442517898 0.6554338582374569 0 0.3108124069871143 0.6674835030480328 0 0.340947442829777 0.6982926477136926 0 0.3682356530455089 0.7619912734603627 0 0.3988731085783326 0.8377781927134811 0 0.4019702864312339 0.8498596811579814 0 0.4295234436130821 0.9136478868321403 0 0.325878303646922 0.6828871929294859 0 0.1541986477213425 0.2917580796497491 0 0.163549319161518 0.3127522640287805 0 0.1680707860160749 0.3263380311356155 0 0.207485585539246 0.4375867969165433 0 0.231743993924709 0.48896364505996 0 0.2653057127298165 0.5764954960520717 0 0.2957677790467184 0.6520787048222124 0 0.3138965190861745 0.6795341342390119 0 0.3289633379749336 0.6949384834348288 0 0.3438788075673845 0.7103836706313696 0 0.3469711742772731 0.7224454664348428 0 0.3500613506066051 0.7345066609995144 0 0.3531505557025768 0.7465707606308525 0 0.3562466072223354 0.758636273593969 0 0.3713747091799398 0.7740467198968088 0 0.3744720615379776 0.7861167916887601 0 0.3775730054163129 0.7981877649652918 0 0.3806676107008669 0.8102629153654185 0 0.3837641361074261 0.8223392626913372 0 0.3868615777151312 0.834417857435837 0 0.405068000288444 0.8619413934127551 0 0.4081638422507411 0.8740266760015092 0 0.411267599602142 0.8861038617952917 0 0.414387281661867 0.8981898429195634 0 0.4175006007098264 0.9102833979289946 0 0.4326213785284395 0.9257423301365962 0 0.4357219136065013 0.9378401450047613 0 0.4388231178277808 0.9499393882859313 0 0.4419241567383832 0.9620396963278494 0 0.4451243273748606 0.9738382541334143 0 0.4559306586001571 0.9896734892348091 0 0.4625000000019244 1 0 0.1535066682257092 0.3040799164466825 0 0.1710736178425353 0.3383084096788254 0 0.1740188960263685 0.350334397868534 0 0.1770725122406593 0.3623273015950438 0 0.1801371005935619 0.3743102492888848 0 0.1832076499064857 0.3862912247345048 0 0.1862860285739172 0.3982785128636344 0 0.1893792125009685 0.4102650257582533 0 0.1924564763014798 0.4222568627207542 0 0.1955271092225203 0.4342544850625047 0 0.2105845390721676 0.4495986294784968 0 0.2136623166377698 0.4616055737227278 0 0.2167368831074828 0.4736117914229353 0 0.2198149455345032 0.4856239964929724 0 0.234824505279332 0.5009860856708994 0 0.2379097389761019 0.5130145211380899 0 0.2409954789010188 0.5250216020344194 0 0.2441087550504392 0.5370544689182333 0 0.2471813569594896 0.5490846286727324 0 0.2502733033253577 0.5611122777025828 0 0.2533560444600341 0.5731445573576328 0 0.2683990189708408 0.5885257211824086 0 0.2714819593721579 0.6005591150778922 0 0.2745972599385038 0.6125361334656809 0 0.2777346114713188 0.624554886988594 0 0.2807840155874003 0.6366147892143325 0 0.2838412272971074 0.6486859113190195 0 0.2988311840325493 0.6641311697424974 0 0.3019153873087558 0.6761809269418715 0 0.3319138128327855 0.7070210047337919 0 0.3593432699953684 0.7707005352271062 0 0.3899583031016458 0.8464981515361698 0 0.3930539224762039 0.8585805037601523 0 0.4205978684347976 0.9223785342852184 0 0.4492893579745698 0.9820733356493864 0 0.3169733719454823 0.6915764606315637 0 0.1431816342860958 0.2973197262260994 0 0.151342408183162 0.3140413129439774 0 0.1592478604223009 0.3349783009601088 0 0.1561840013587424 0.3230119549070852 0 0.1986393532336743 0.446255302913983 0 0.2229017001214243 0.4976421402848669 0 0.2564368462092104 0.5851770708416939 0 0.2868668496085586 0.6607758955015688 0 0.305000155695097 0.6882316495917675 0 0.3200135348048718 0.7035958044531879 0 0.3349976756312302 0.7190848151393375 0 0.338071523138043 0.73115049943854 0 0.3411577285972025 0.7432138131709853 0 0.3442473748741171 0.755279194474384 0 0.3473380315378904 0.7673463595943489 0 0.3624392788298415 0.7827688951444127 0 0.365571070960351 0.7948280514012748 0 0.3686628833004742 0.8069037388968221 0 0.3717561490658333 0.8189794461743367 0 0.374851879587603 0.8310578988017641 0 0.3779473542160806 0.8431374257404438 0 0.3961503080113751 0.8706628585952664 0 0.3992461770953775 0.8827478557939169 0 0.4023579812177378 0.8948303222233075 0 0.4054690935173617 0.9069184299239963 0 0.4085745514452088 0.9190135322733499 0 0.4236961162716878 0.93447498801318 0 0.4267952537050342 0.946573109647179 0 0.4298947022294964 0.9586732337795938 0 0.4331443196733218 0.9702362420676975 0 0.4377559720117229 0.9808134642970413 0 0.4500000000018723 1 0 0.4435120252844447 0.990212343175129 0 0.1423511935077425 0.3089101162530973 0 0.1622020239413894 0.3469772040097912 0 0.1651847708367656 0.3589748772441477 0 0.1682282759544389 0.3709791881614896 0 0.1712982622686467 0.3829616391695478 0 0.1743714219377525 0.3949457142183253 0 0.1774446796890039 0.4069324394745535 0 0.180519909631886 0.4189232725574679 0 0.1835911955639197 0.430918150303868 0 0.1866883493210245 0.4429193846430605 0 0.2017234450677997 0.4582648680772249 0 0.2048021490147528 0.4702737197512198 0 0.2078796739625579 0.4822854517638778 0 0.2109581202407805 0.4943002095715028 0 0.2259842292576239 0.5096631571807939 0 0.2290648308399427 0.521686420070462 0 0.2321507269547261 0.5337099199979001 0 0.2352338021924791 0.5457368044435404 0 0.2383160042440817 0.5577656606811552 0 0.2413976602108693 0.569796264070203 0 0.2444784580144875 0.5818279190707507 0 0.2595200062835648 0.5972097746168001 0 0.2626327493831732 0.6091865741805749 0 0.2657716207085389 0.6212012699494266 0 0.2688805215925667 0.6332317991729064 0 0.2719131399553966 0.6453066998535819 0 0.274945549818888 0.6573815593405496 0 0.2899360908351422 0.6728288010326902 0 0.2930196463645097 0.684879767055923 0 0.323069652299384 0.7157084333743176 0 0.3504291923955892 0.7794148639051535 0 0.3810427530245133 0.8552185857550421 0 0.384137721980669 0.8673000598231941 0 0.4116717883213473 0.9311093715832461 0 0.3080767541800958 0.7002746081905324 0 0.1319643683768501 0.302465544283806 0 0.1437874017891619 0.320737847909702 0 0.1472169210230908 0.3318449008037537 0 0.150384899938572 0.3436290502097509 0 0.1897771909241697 0.4549221480230773 0 0.2140369053716598 0.5063188836365337 0 0.2475590984111526 0.5938599605087099 0 0.277977165282026 0.6694713539696392 0 0.2961040661543736 0.6969306835718139 0 0.3111091549769576 0.7123262035522366 0 0.3260956037111251 0.7277907426264103 0 0.3291659524310465 0.739857372726332 0 0.3322540921772921 0.7519213298923725 0 0.3353420674262825 0.7639879525191097 0 0.338432617415955 0.7760564575910408 0 0.3535201361109621 0.7914843201257159 0 0.356657455218958 0.803546157529063 0 0.3597509706829018 0.8156201194186853 0 0.3628440739265387 0.8276970411691151 0 0.3659379864946082 0.8397763595995151 0 0.3690322981505932 0.8518573723279989 0 0.3872353393073979 0.8793816568784225 0 0.3903355071902532 0.8914666607647622 0 0.3934422282394252 0.9035552821423143 0 0.3965508056997888 0.9156488899444679 0 0.3996480862598161 0.9277436808978706 0 0.4147687472918918 0.9432069144333989 0 0.417866222852692 0.9553061716423775 0 0.4208812856218008 0.9674142605182287 0 0.4245286571308165 0.9788137158011039 0 0.4309371446323245 0.9897068949555177 0 0.4375000000018203 1 0 0.1309451904939043 0.3163325794372192 0 0.1533020985817945 0.3556381880973802 0 0.1563195383645243 0.3676457793257503 0 0.1593876188641605 0.3796271413704613 0 0.1624573975449962 0.3916116185107483 0 0.165528605397126 0.4035984218904221 0 0.1686017508334277 0.4155883130306703 0 0.1716752996880116 0.427578838710056 0 0.1747541474741738 0.4395831293894825 0 0.1778410995076893 0.4515830921654476 0 0.1928638708081757 0.4669316455565659 0 0.1959389879206643 0.4789423159202149 0 0.1990136146032402 0.4909564408568011 0 0.2020885047257361 0.5029747331309549 0 0.217116679893164 0.5183396559564414 0 0.2201966100183399 0.5303645169466904 0 0.2232769917047785 0.542390479229909 0 0.2263573240872258 0.5544188078049923 0 0.229438247208831 0.56644860174352 0 0.2325188311482772 0.5784794428066059 0 0.2355989664279617 0.5905110509021536 0 0.25066502284808 0.6058343103976057 0 0.2537984287704924 0.6178535727458724 0 0.2569212920928498 0.6298907724389293 0 0.2599939683318154 0.641921591216646 0 0.2630162903214533 0.6539813236289798 0 0.2660586264487861 0.6660681717705093 0 0.2810459891625646 0.6815260335631012 0 0.2841218442817959 0.6935798541664236 0 0.3141414806293114 0.7244143857205398 0 0.3415222703161425 0.7881260964290642 0 0.3721262961916971 0.8639385321567059 0 0.3752240874711383 0.8760204315184494 0 0.4027434848828715 0.9398409737945466 0 0.2991803947272726 0.7089738249202451 0 0.1205625383650242 0.3071883369253821 0 0.1351762632430097 0.3283232231483088 0 0.138411998992498 0.3403745230660772 0 0.1413926603202422 0.3523259958728159 0 0.1809267226475614 0.4635900935829493 0 0.2051647122529921 0.5149948622074356 0 0.2387003445903857 0.6024829919560241 0 0.2690790155024477 0.6781680656778608 0 0.2872077261927157 0.7056305776579972 0 0.3022180409392569 0.7210216669674688 0 0.317191234786701 0.7364971957617216 0 0.3202626270557203 0.748563346703808 0 0.3233513923316723 0.7606282833673755 0 0.326438969691543 0.7726965924324495 0 0.3295248891796819 0.784767705085079 0 0.344612951617134 0.8001952442478147 0 0.347743182189527 0.8122607044476112 0 0.3508385411576099 0.8243364457833279 0 0.3539307160526094 0.8364147189299427 0 0.3570231082392162 0.8484952798353326 0 0.3601160008391228 0.860577095821065 0 0.3783254725480971 0.8881031293177697 0 0.3814273861405615 0.9001929544136553 0 0.3845287178463013 0.9122844871444441 0 0.3876256444569889 0.9243774663122823 0 0.3907221195681125 0.9364725629132082 0 0.405838378566207 0.9519393301599528 0 0.4089361063658745 0.9640404412526635 0 0.4111695857941096 0.9774892603239651 0 0.4185521040012929 0.9888722584238507 0 0.4250000000017684 1 0 0.1176584056915207 0.319603675497876 0 0.1251449940738929 0.3269841773785125 0 0.1444070608389726 0.3643124018540941 0 0.1474769565971499 0.3762932893462936 0 0.1505434664654902 0.3882766995092995 0 0.153612317817245 0.4002634406335737 0 0.1566835243373703 0.4122529374761654 0 0.1597590274643932 0.4242456890099601 0 0.1628349945269685 0.4362438192154898 0 0.16591163356115 0.4482453191931664 0 0.1689915153860196 0.460248525393641 0 0.1840020703633489 0.4755949658976111 0 0.1870799013743465 0.4876052634481732 0 0.1901441066879257 0.4996281422095825 0 0.1932208192102878 0.5116481128962656 0 0.2082429218637619 0.5270187936349506 0 0.2113210758875587 0.5390439547459209 0 0.2144002992590882 0.5510719788588405 0 0.2174796179337015 0.5631008607143061 0 0.2205597582740484 0.575131294113177 0 0.2236397655757024 0.5871480650705514 0 0.2267394022722592 0.5991400910099406 0 0.241826676412935 0.6145080110518275 0 0.2449380688677311 0.6265430279082016 0 0.2480340875538745 0.6385803903222212 0 0.2511060902848333 0.6506109952186978 0 0.254135029909318 0.6626845804149155 0 0.2571631765790547 0.6747755443349643 0 0.2721421727094662 0.6902283594760708 0 0.2752263418415547 0.702280499727479 0 0.3052579977331707 0.7331154669090471 0 0.3326152627492477 0.7968383136877991 0 0.3632109712041978 0.8726597097820163 0 0.3663101267501004 0.8847437546466034 0 0.3938141676434067 0.9485726291073675 0 0.2902843009061808 0.7176742152681942 0 0.1089920907400804 0.31148149889858 0 0.1266989534377206 0.3373277445798188 0 0.1294399451472741 0.3489937627447125 0 0.1324959174125795 0.3609771191673237 0 0.1720662675778497 0.4722516577116282 0 0.1962966568008704 0.523669476054663 0 0.2298702903576914 0.6111595804710902 0 0.2601756681131812 0.6868728642835213 0 0.2783111562602485 0.7143309486000767 0 0.2933123577135577 0.7297282909577025 0 0.3082910233958445 0.7452015337727469 0 0.3113627715066188 0.7572681148968554 0 0.3144478261325772 0.7693323637596581 0 0.3175313238853028 0.7814052622885193 0 0.3206160012346546 0.7934796465619196 0 0.3357098317046561 0.8089103225889461 0 0.3388269135802184 0.8209776930838126 0 0.341920969798643 0.8330541430931246 0 0.3450140764220878 0.8451335884996523 0 0.3481064125795427 0.8572145768946666 0 0.3511992865193846 0.8692974381030343 0 0.3694094887674061 0.8968309310722646 0 0.3725071833857517 0.9089212669286836 0 0.3756039443443531 0.921012140236843 0 0.3787024126641401 0.9331054541944555 0 0.3818004753833951 0.9452012268032726 0 0.3969066378112696 0.9606727104655559 0 0.3992086088809944 0.9720244799451185 0 0.4060585963203713 0.989775753388112 0 0.4125000000017163 1 0 0.1055994419206815 0.3233950294739191 0 0.1144050854885389 0.3326543573744332 0 0.1355520891173352 0.3729594548003924 0 0.1386291981513795 0.3849423356727811 0 0.1416958869085384 0.3969275007889865 0 0.1447656871876 0.4089165513458307 0 0.1478371265027505 0.4209090180479514 0 0.1509104974908764 0.4329052354546165 0 0.1539837116469588 0.4449045329279011 0 0.1570575865569765 0.4569080279243867 0 0.1601304074311801 0.4689132909182374 0 0.1751485745636554 0.4842502089759295 0 0.1782340512897115 0.4962707075349171 0 0.1813110662429923 0.5082895511755222 0 0.1843879000165074 0.5203085497358592 0 0.1993760180657307 0.5356929319077482 0 0.2024491007792733 0.5477218586604113 0 0.2055272962869567 0.5597518145303124 0 0.2086106771585998 0.5717811231610278 0 0.2116799943789709 0.5838103826583065 0 0.2147744769434342 0.5958192881991181 0 0.2178844992278602 0.6078317651262309 0 0.2329813639422747 0.6231938053147702 0 0.2360665644339604 0.6352316155755896 0 0.2391465256580224 0.6472705889761242 0 0.2422185409527153 0.6593016379797512 0 0.2452330766590281 0.6713634504498203 0 0.2482631351374778 0.683480871556907 0 0.2632426830055264 0.6989285045271127 0 0.2663296913648172 0.7109794784734834 0 0.2963400158628865 0.7418210420650346 0 0.3237070462764318 0.8055511017306369 0 0.3542941319584417 0.8813818364719391 0 0.3573897762445061 0.8934681378405304 0 0.3848973632885632 0.957300295567691 0 0.4000768386432297 0.9818625332403915 0 0.2813870077345969 0.7263742335242203 0 0.0972692078154242 0.3153390258292808 0 0.1174879225451877 0.3456746151002439 0 0.120552696284504 0.3576468688204518 0 0.1236310527671494 0.3696242309114757 0 0.1632131926973379 0.4809121211460329 0 0.1874661330759106 0.5323305476339639 0 0.2210124412677802 0.6198496563408931 0 0.2512758690873569 0.6955891878015108 0 0.2694141536154515 0.7230315012569261 0 0.284420617798697 0.7384233450977942 0 0.2993899852820361 0.7539061983775222 0 0.3024600745838135 0.7659731331899193 0 0.3055391424345579 0.7780447598006941 0 0.3086211215216644 0.7901174542002374 0 0.3117066641019044 0.8021921146355556 0 0.3268063034027949 0.8176226288493635 0 0.3299063126025588 0.829696152238935 0 0.3330052418051958 0.8417711642118519 0 0.3360963046577595 0.8538525932884663 0 0.3391883238119631 0.8659349653600288 0 0.3422815859775145 0.8780189283629118 0 0.3604869726112436 0.9055575888875437 0 0.363582600275293 0.9176484427228173 0 0.3666800177583054 0.929739142425955 0 0.3697810776613532 0.9418348029750657 0 0.3728826024859389 0.9539335690479878 0 0.3875165631809763 0.9689017271074937 0 0.3898173539379183 0.9798958759990359 0 0.4000000000016644 1 0 0.3941300482827548 0.9901272965457257 0 0.09259792384803905 0.3274485860825716 0 0.1025212563068229 0.3330840000668614 0 0.1055927909216614 0.3428021170155047 0 0.126705493357076 0.3816065861861504 0 0.129778416130669 0.3935913653409256 0 0.1328475122776229 0.4055782056785266 0 0.1359166779645808 0.417570216565345 0 0.1389852482024321 0.4295653784031098 0 0.142054396694885 0.4415639782480375 0 0.1451250379901062 0.453566629144302 0 0.148196797497422 0.4655719088515869 0 0.1512715267493691 0.4775743458320473 0 0.1663181374926853 0.4929207672384863 0 0.169403512432841 0.5049327252694594 0 0.1724808180358172 0.5169510021017798 0 0.1755589080115277 0.5289702214031755 0 0.1905412341437738 0.5443514873838027 0 0.1936189256488623 0.5563811632004582 0 0.196693977444047 0.5684204707502123 0 0.1997333634137473 0.5804625750686411 0 0.202801498435927 0.5924923979191326 0 0.2059044672581466 0.6045031762782633 0 0.2090174204821569 0.6165167074318214 0 0.2240964199562786 0.6318831029172008 0 0.2271785365729299 0.6439213896930477 0 0.2302584780240323 0.655961053763483 0 0.2333295129618293 0.6679915639351234 0 0.2363454178850356 0.6800981346707848 0 0.2393634423485213 0.6921891503606736 0 0.2543481189775043 0.7076272919977935 0 0.2574321806435328 0.7196799635854673 0 0.287456677098868 0.750522218979038 0 0.3147976199366878 0.8142643021287493 0 0.345374912059105 0.8901048938179583 0 0.3484677049560597 0.9021936278929592 0 0.3759803877958429 0.9660348865423483 0 0.2724901012629468 0.7350753432929935 0 0.08541028510750481 0.3187555226154595 0 0.1086509813117842 0.3543135948673558 0 0.1117146895562052 0.3662890311182393 0 0.1147864814879115 0.378269947291342 0 0.154360832151677 0.4895810696305916 0 0.1786382622850866 0.5409923201152025 0 0.2121274096098423 0.6285372293547471 0 0.242383598875728 0.7042930462215714 0 0.2605169295632036 0.7317326309809229 0 0.275513004834895 0.7471309994317378 0 0.2904842326885015 0.7626125477777809 0 0.2935491980036408 0.7746829442747905 0 0.296625310480349 0.7867574010910411 0 0.2997089084778781 0.7988323535171953 0 0.3027969053893395 0.8109052056585787 0 0.3178945505379847 0.8263380034479262 0 0.320988794201131 0.8384135334571321 0 0.3240846744878664 0.8504918484026494 0 0.3271771849499605 0.8625726449796339 0 0.330270093429416 0.8746553717455525 0 0.333362958035656 0.8867398104275926 0 0.3515621080904479 0.9142844218836199 0 0.3546593564836863 0.9263762114521193 0 0.3577586131587039 0.9384706686546168 0 0.3608586558538174 0.9505679987951555 0 0.3639562262984921 0.9626675800011011 0 0.3787291099975638 0.9776545760583872 0 0.3818548293719844 0.9894948520374405 0 0.3875000000016123 1 0 0.08094311195476567 0.3269780553534091 0 0.09414737231062534 0.3397016253712873 0 0.09675303798480997 0.3509780988856559 0 0.1178587102819914 0.3902538638499212 0 0.1209294906915444 0.402240959403186 0 0.1239980789483116 0.4142311778628421 0 0.1270656880300826 0.4262233915994679 0 0.1301280013244625 0.4382222627524355 0 0.1331944816984326 0.4502248392431308 0 0.1362639767541786 0.4622296329300714 0 0.1393357077937883 0.4742365388580551 0 0.1424119875238631 0.4862407972936145 0 0.1574516545433099 0.5015891480558137 0 0.1605344332144027 0.5136066150056855 0 0.1636110449183758 0.5256258473181014 0 0.1666894689493444 0.5376467414858792 0 0.1817233326855189 0.5530137739886311 0 0.1847823255327447 0.5650416716508458 0 0.1878086425636189 0.5770914726975425 0 0.1908452027200567 0.5891474024136749 0 0.1939214743990416 0.6011761088065086 0 0.1970216875807704 0.6131895243372152 0 0.2001540179485418 0.625188893153579 0 0.2152103458601116 0.6405716502639449 0 0.2182909815991019 0.6526123768544843 0 0.2213708465801943 0.6646518983349426 0 0.2244411516981687 0.6766831734678932 0 0.2274450314062544 0.6887689175836067 0 0.2304676016992752 0.7009047443296614 0 0.2454525454388714 0.7163309062506336 0 0.2485330138295504 0.7283818817115525 0 0.2785338681191277 0.7592279168238271 0 0.305887967058415 0.8229781357133075 0 0.3364535309342537 0.8988271772482441 0 0.3395454232362295 0.9109177234181663 0 0.3672148065579915 0.9741940823715942 0 0.2635920055553046 0.7437758805583443 0 0.0734319083922034 0.3217262109774071 0 0.08245718050722457 0.3364843493984082 0 0.09981068587076802 0.3629536730056702 0 0.1028755722257878 0.3749335283280712 0 0.1059437622122692 0.3869163530077339 0 0.1454984939034965 0.4982492382175548 0 0.169770118844947 0.5496680700641042 0 0.2032432367988107 0.6372213531861646 0 0.2334802307267904 0.7129916735830882 0 0.2516192054559157 0.7404340899601982 0 0.2666194194530354 0.7558246835636789 0 0.2815731560171766 0.7713175438790164 0 0.2846266886432163 0.7833977283176354 0 0.2877065358700167 0.7954762867540001 0 0.2907969135039949 0.8075456587637591 0 0.2938866966424964 0.8196180408877961 0 0.3089803060263207 0.8350532683000709 0 0.3120736297771257 0.8471307195875865 0 0.3151668915360258 0.8592104348912255 0 0.3182595697914675 0.8712918950551587 0 0.321352032634932 0.8833741936260672 0 0.3244448418934099 0.8954595540376596 0 0.3426366938073563 0.9230108314061256 0 0.345732429797657 0.9351047681191735 0 0.348831320452409 0.9472016072205531 0 0.3519282460250148 0.9593003000226583 0 0.3556065722028783 0.9706638140572085 0 0.3684931112715717 0.9873228808206093 0 0.3750000000015603 1 0 0.07020174675253556 0.3332228853944787 0 0.08483021077290988 0.3477034582704266 0 0.08790812358192618 0.3596195970907661 0 0.109012911438147 0.3989023007518354 0 0.112080625169072 0.4108921416299384 0 0.1151467804638672 0.4228830290226102 0 0.1182047519314865 0.4348822006559912 0 0.121263693108919 0.4468806492960538 0 0.1243317843180446 0.4588858830878844 0 0.1274010605662058 0.4708943535076714 0 0.1304735943642614 0.4829029958653015 0 0.1335488122227936 0.494913360253926 0 0.1485884732651681 0.510261982050488 0 0.1516640273147018 0.5222803700116047 0 0.1547403235506103 0.5343012469830314 0 0.1578181560855192 0.5463227430316613 0 0.1728425494986019 0.5616853683505857 0 0.1758757766448071 0.5737283695243156 0 0.1789062012577114 0.5857806263696657 0 0.1819641824275877 0.5978308499547403 0 0.1850432529216462 0.6098612175965226 0 0.1881456695980692 0.6218719655213529 0 0.1912683140721444 0.6338771401302481 0 0.2063240668871012 0.6492606333902742 0 0.2093988149306691 0.6613048435262288 0 0.2124820603083662 0.673343464183912 0 0.2155518190638685 0.6853744732938218 0 0.2185578432244498 0.6974988544003977 0 0.2215630126543535 0.7095852467866581 0 0.2365492529508245 0.7250299406679052 0 0.2396363293681021 0.7370829797011554 0 0.269641105946665 0.7679282275559773 0 0.2969766409867798 0.8316922829397096 0 0.3275388859173732 0.9075446664192586 0 0.3306261354587951 0.9196394348389402 0 0.3590589853633979 0.9801469084350118 0 0.2546944512769141 0.7524776744844055 0 0.06135083051289236 0.3242469361387681 0 0.07324742132774141 0.3448031275325934 0 0.09097019681512204 0.371597081113115 0 0.09403318890178936 0.3835787353616767 0 0.09709713895695377 0.3955648909468488 0 0.1366354387047046 0.5069229586365988 0 0.1608972896578647 0.5583433294025641 0 0.1943425056807467 0.6459224735513951 0 0.2245630665287859 0.7216801624907094 0 0.2427212949752712 0.7491359166514482 0 0.25770272278067 0.7645333473450845 0 0.2726291829871071 0.7800230645734813 0 0.2757115059972353 0.7921128969863427 0 0.2787982300074233 0.8041865249163349 0 0.2818809530681544 0.8162602752366049 0 0.2849661720615653 0.82833496014662 0 0.3000678082369297 0.8437687107261689 0 0.3031584152463677 0.8558476492619469 0 0.306249657452989 0.8679288514552497 0 0.3093417480852173 0.880010664754119 0 0.312434260634994 0.8920936203597283 0 0.3155273832032509 0.9041778561450668 0 0.3337134162314177 0.9317378464767527 0 0.3368056883177798 0.9438342215462624 0 0.33990138063145 0.9559332642641 0 0.3429979177735549 0.9680336283657733 0 0.3484531327545343 0.9797373741464748 0 0.3625000000015083 1 0 0.3552646711958519 0.9896621348536108 0 0.05662185826500217 0.3353686972384283 0 0.06328921502737798 0.3432678759045938 0 0.07600645903369793 0.3562844600427626 0 0.07906704011101677 0.3682602996953227 0 0.1001634604201903 0.407554129692193 0 0.1032305788527337 0.419543657692545 0 0.1062910844091896 0.4315366970301558 0 0.1093462154698178 0.4435331159098267 0 0.1123999131025182 0.4555390693083385 0 0.1154665432230436 0.467551080289668 0 0.1185367669757961 0.479560079185875 0 0.1216099319860358 0.4915702236116141 0 0.1246903139439481 0.5035813851014721 0 0.1397177331558174 0.5189369457097557 0 0.142792343279381 0.530955806398415 0 0.1458691329238344 0.5429768544946217 0 0.1489459194592046 0.5549978553968608 0 0.1639429118912429 0.5703571292155758 0 0.1669720291249229 0.5824139488616786 0 0.1700050429799971 0.5944833593732234 0 0.1730845938174251 0.6065144425044861 0 0.1761625105563763 0.6185438029184084 0 0.1792565303003567 0.6305654537658982 0 0.1823356812801018 0.6426091753213058 0 0.1974183623960554 0.6579631719335659 0 0.2005065718131958 0.6699975164601935 0 0.2035932301915845 0.6820359054202562 0 0.2066632008077709 0.6940670231567194 0 0.2096576714122513 0.7061604316444999 0 0.2126516623345683 0.7182756142715933 0 0.2276570982064955 0.7337242803853821 0 0.2307383056945758 0.7457844210425527 0 0.2607033693976691 0.7766431550452926 0 0.2880537792818384 0.8404105764442683 0 0.3186188519670966 0.9162700975254149 0 0.3217091406532875 0.928366029582129 0 0.2457935047101148 0.7611767203962736 0 0.04918394794963005 0.3263141726374876 0 0.06459074222873507 0.3531659438648865 0 0.08212869327492196 0.3802384144641933 0 0.08518803016867946 0.3922239020080772 0 0.08824637018308809 0.4042157081690328 0 0.1277688057370042 0.5155948404863966 0 0.1520161202407093 0.5670025127024825 0 0.1854359659023672 0.6546261920066008 0 0.2157105460250313 0.7303296852216006 0 0.2338225921587397 0.7578374734249002 0 0.2488077516855218 0.7732281704829729 0 0.2637389851478783 0.7887464062757409 0 0.2668031373915723 0.8008254307737981 0 0.2698917499301278 0.8128957000119251 0 0.2729569450521147 0.824976434720738 0 0.2760420173380084 0.8370521506506036 0 0.2911464018511246 0.8524874688266937 0 0.2942410338173775 0.8645655389607896 0 0.297331801588652 0.8766474135153823 0 0.3004239065045175 0.8887306884685088 0 0.3035179305923578 0.9008159869001886 0 0.3066111867736205 0.9129021273873691 0 0.3247917678938358 0.9404625756142634 0 0.3278791029022189 0.9525647654255991 0 0.3309691625606044 0.9646645762658895 0 0.3345911312591932 0.9783653501683072 0 0.3427611780710743 0.9896689976728033 0 0.3500000000014564 1 0 0.04429600402661645 0.3375649506055398 0 0.05240490803401116 0.3483398150064503 0 0.06716395412850754 0.3649223814317727 0 0.07022434263510344 0.3769009619245223 0 0.09131336235105421 0.4162084296255695 0 0.09437920230170987 0.4281977869070258 0 0.09743531240585554 0.4401895137428821 0 0.100477926311944 0.4521889436803159 0 0.1035428584954811 0.4641996750659665 0 0.1065997528569091 0.476214387730523 0 0.1096707989357715 0.4882268529318399 0 0.1127447514537051 0.5002388622748581 0 0.1158206139509291 0.5122523002553075 0 0.1308435654708714 0.5276122179622273 0 0.1339208287419561 0.5396313367211623 0 0.136997998155815 0.5516491110734906 0 0.1400767023512235 0.5636639836444761 0 0.1550714145435949 0.5790457889851377 0 0.1581169439814532 0.5910845031690773 0 0.1611688428508914 0.6031355717000002 0 0.1642163520531986 0.6151881464784297 0 0.1672868109475338 0.6272282961028758 0 0.1703706110741656 0.6392596438740239 0 0.1734529621545037 0.6512937114929024 0 0.1885168706025956 0.6666625115475602 0 0.1916251195697844 0.6786858952731141 0 0.1947062133911973 0.6907305966503082 0 0.1977733160609078 0.7027586778960255 0 0.2007832959814317 0.7148426987314475 0 0.2038300330516744 0.7269120856691398 0 0.2187923499991742 0.7423863424887905 0 0.2218573467100133 0.7544644710816255 0 0.2518129955523557 0.7853464483168533 0 0.2791285629483152 0.8491292165038763 0 0.3097003797962525 0.9249904707797263 0 0.3127899680978994 0.9370895789173096 0 0.2368948296092153 0.769878751982125 0 0.03694827719540712 0.327925029255608 0 0.05543249582107437 0.3613780032711465 0 0.07328293966697907 0.3888828362535446 0 0.07633538678199164 0.4008709457843093 0 0.07939103974440165 0.4128688357723995 0 0.1188979781492477 0.5242678839245261 0 0.1431571145262663 0.5756777714513657 0 0.1765359396462944 0.663327664313156 0 0.2069012932865008 0.7389677189366353 0 0.224923919791336 0.7665398446702536 0 0.2398963907908589 0.7819415020551684 0 0.2548357243548477 0.7974578858533712 0 0.2578966737255401 0.8095324910254784 0 0.2609437141666192 0.8216180515243677 0 0.2640265678764437 0.8336951586784364 0 0.267121842083121 0.8457682545524815 0 0.2822315822777616 0.861202014413387 0 0.2853209973889897 0.8732845861457357 0 0.2884128424635329 0.8853670298029301 0 0.2915050990717351 0.8974518151807189 0 0.2945973813773405 0.9095388524433299 0 0.2976903415131116 0.9216278663895688 0 0.3158814626257829 0.9491880462202994 0 0.3189466046354941 0.9612472019416729 0 0.3219246418012573 0.9728184312939773 0 0.3307581332140058 0.9902491268684277 0 0.3375000000014043 1 0 0.03173184804960737 0.3391124097456674 0 0.03883629812126753 0.3486919779655068 0 0.04408889724367834 0.3590952458656838 0 0.05831765904576404 0.3735637467934328 0 0.06138335167203954 0.3855475173384896 0 0.08246053687689053 0.4248655438058025 0 0.08553079844254115 0.4368630936304245 0 0.0885802191072757 0.4488443322940651 0 0.0916452714192869 0.4608435181069316 0 0.09469735209742371 0.4728576624122854 0 0.0977460424596755 0.4848778764442375 0 0.1008042546013458 0.4968948324509496 0 0.1038783986261508 0.5089086150318163 0 0.1069529936809779 0.5209238819565221 0 0.1219739979093498 0.5362860029200214 0 0.1250503337684805 0.5483039664957874 0 0.1281303025876129 0.560321618958499 0 0.1312143703449252 0.5723416143213843 0 0.146216675385731 0.5877078993302342 0 0.14926483157592 0.5997438892709033 0 0.1523049784485422 0.6118035087437885 0 0.1553248253078731 0.6238820944932755 0 0.1584055122795567 0.6359140895199711 0 0.1614861694829408 0.6479471370411901 0 0.1645712292983098 0.6599806583129308 0 0.179629746953625 0.6753564288530317 0 0.1827297034581634 0.6873921541226617 0 0.1858168546507188 0.6994229928061513 0 0.1888863697393938 0.7114536986955768 0 0.1919406559260371 0.7235030510435096 0 0.1950172930470988 0.7355672390745229 0 0.2099478453411101 0.7510483148035434 0 0.2129423163198414 0.7631887904746381 0 0.2428957519373583 0.7940615701885746 0 0.2702117515394572 0.857843046026719 0 0.3007806634467436 0.9337171591635043 0 0.3038763941714946 0.9458131921439362 0 0.3250000000013524 0.982247494073139 0 0.2279957729575945 0.7785810286670536 0 0.02466093094002761 0.3290772530655548 0 0.04658650685375976 0.3703424651925398 0 0.06443298064502351 0.3975329312753633 0 0.06748407177015639 0.4095219925664401 0 0.07053378510494002 0.4215245883416129 0 0.110028275774781 0.5329407196419399 0 0.1342982461099399 0.5843664576666341 0 0.1676541236119886 0.6720160027005413 0 0.1980962788776391 0.747605927602274 0 0.2160242631766841 0.7752424035956627 0 0.2310038104377386 0.7906353319809122 0 0.2459173985373844 0.8061617109518675 0 0.2489478338992823 0.818253843898245 0 0.2520268125699021 0.8303340129830257 0 0.2551155292172152 0.8424075319603609 0 0.2582066235792861 0.8544824234948921 0 0.2733094075110306 0.8699221404967475 0 0.2764016295045217 0.8820034286015017 0 0.2794934261328468 0.8940868707562909 0 0.2825845767659255 0.9061725943896601 0 0.2856735078217963 0.9182622229021649 0 0.2887662635094853 0.9303530826477792 0 0.3069792106385192 0.9579120559569874 0 0.3098965409985972 0.969765609429402 0 0.3138722769672661 0.9804692103987391 0 0.3187076680193028 0.9899691865392093 0 0.3250000000013522 1 0 0.01910355599563414 0.3416049609949272 0 0.02699376760718262 0.350489030613143 0 0.03364212505264304 0.3577344705175522 0 0.03504080710797825 0.3674663138848341 0 0.04949896876939366 0.3822310262367742 0 0.0525339031995056 0.3941993757521292 0 0.07360388797432939 0.4335251355451617 0 0.07666929984612811 0.4455213100646589 0 0.07973905424449988 0.4575205947537286 0 0.08279246270812854 0.4695156284712723 0 0.08584988220081229 0.4815233280612636 0 0.08888604833072022 0.4935422847905023 0 0.09193688998364397 0.5055638870787238 0 0.0950103655238814 0.5175794010681251 0 0.09808340860274101 0.5295958090073734 0 0.1131040197953763 0.5449583396135503 0 0.1161820305896751 0.5569768523733845 0 0.1192624988475048 0.5689963500772252 0 0.122344967423767 0.5810196271864457 0 0.1373529870836994 0.5963872762470239 0 0.1404109811689086 0.608412778865012 0 0.143444037734462 0.620458571655111 0 0.1464641550212642 0.6325422873862306 0 0.1495285931976477 0.6445948557353671 0 0.1526074169882661 0.6566317274696717 0 0.1556888856897941 0.6686674437763029 0 0.170747945587842 0.684046439697701 0 0.1738380536318542 0.6960797337380141 0 0.1769274864126956 0.7081156960563613 0 0.1800108390273084 0.7201606549191009 0 0.1830880355161113 0.7322044138126369 0 0.1861780357114219 0.7442506133504982 0 0.201097486853492 0.7596766382372986 0 0.2040930330281122 0.7718231370839163 0 0.2339929668966972 0.802761291313003 0 0.261299181895744 0.8665597894571819 0 0.2918617097321412 0.9424471106977436 0 0.2949584251483691 0.9545431728099891 0 0.2190968658030299 0.7872841572547481 0 0.01233909414075427 0.3297692325790652 0 0.03758867116394034 0.3788913023080416 0 0.05557823077946881 0.4061749199572673 0 0.05862815474099772 0.4181773895413753 0 0.06168209769172565 0.4301811888475703 0 0.1011583095025327 0.5416134200951567 0 0.1254229086599664 0.5930448258959981 0 0.1587728190587436 0.6807001215365296 0 0.1891830355987707 0.7562996492451994 0 0.2071250052280345 0.7839455157922207 0 0.2220769233561565 0.799345782481226 0 0.2369797316926421 0.8148733698862118 0 0.2400305140265083 0.826964125440284 0 0.2431161259897095 0.839046037540233 0 0.2462047342043227 0.8511202603018642 0 0.2492938652967269 0.863196547006855 0 0.2643913024597097 0.8786399783359606 0 0.2674828407766202 0.8907219924713676 0 0.2705728735574829 0.9028057124561946 0 0.273658641709039 0.9148941329359263 0 0.2767487086137006 0.9269859460905773 0 0.2798396107541076 0.93907968741676 0 0.2980543475533263 0.9666426894582921 0 0.3015370206042455 0.9785427030112614 0 0.3061677903788417 0.9894718380454457 0 0.3125000000013003 1 0 0.009256432876112278 0.3391021550664352 0 0.01802511653078472 0.3539059740292884 0 0.02325085518310844 0.3629297842585931 0 0.02563606658352573 0.3755228766255705 0 0.04062692055884677 0.3908692206058422 0 0.04368098729019672 0.4028587701654214 0 0.06474612995746362 0.4421866178006698 0 0.06781807702920548 0.4541930811585569 0 0.07088486565683845 0.4661944697697641 0 0.07394843602084358 0.4781956664911023 0 0.07698081808433799 0.4901947242746205 0 0.08001525871912961 0.5022158811612691 0 0.08307069280835302 0.5142337313166752 0 0.08613980944142172 0.5262504820176399 0 0.08921228471753248 0.5382681259549914 0 0.1042343237826251 0.5536317783112965 0 0.1073125310958506 0.5656516088728665 0 0.110392758046888 0.5776732625192392 0 0.1134702651559185 0.5896970689484873 0 0.1285014521740693 0.605071244960075 0 0.1315234335796788 0.6171108297852903 0 0.1345364541551664 0.6291756071117519 0 0.1375642544216961 0.6412503426819293 0 0.140644901008084 0.6532831564855287 0 0.1437254063829748 0.6653176913868518 0 0.1468065665703391 0.6773514299218983 0 0.1618632268126775 0.6927341972354276 0 0.1649532911798848 0.7047666005653663 0 0.1680382658783355 0.7168082911101987 0 0.171121055968961 0.7288534830405391 0 0.1742045388991442 0.7408995730607449 0 0.1772728897910544 0.7529317561328549 0 0.1921700465541757 0.7684003099574532 0 0.1951411833597679 0.7805947554892126 0 0.2250841854189035 0.8114899823892268 0 0.2523834314270186 0.8752750799811089 0 0.2829345478796352 0.9511754132147054 0 0.2860770458726095 0.9631579417881687 0 0.2101926652151563 0.7959824464790325 0 0 0.33 0 0.009538839054963924 0.348965971938015 0 0.02930978715654541 0.387009800276388 0 0.04674777875872228 0.4148428737057901 0 0.049799549440144 0.4268392475391065 0 0.05281602300914968 0.4388370178213553 0 0.0922877972952334 0.5502867752909287 0 0.1165472643913441 0.60172290378342 0 0.149892385961166 0.6893852399812733 0 0.1802699163744232 0.7650005456642575 0 0.1982254437336231 0.7926484236104394 0 0.2131774348033373 0.8080791542212246 0 0.2280539149827837 0.8236219437747186 0 0.2311187672947854 0.8356824249089954 0 0.2341995941424087 0.8477598473201822 0 0.2372826347100022 0.8598358377882702 0 0.2403713913400587 0.8719131950534289 0 0.2554733084057692 0.8873569118465802 0 0.2585634201415171 0.8994397438474652 0 0.2616515947237889 0.911524590618273 0 0.2647368992864004 0.9236178408144539 0 0.2678214004225304 0.9357178583639669 0 0.270911752559874 0.9478067380608254 0 0.2894158062660362 0.9745700733209044 0 0.2921176422946507 0.9876987828367507 0 0.3000000000012483 1 0 0 0.3424074074074549 0 0.01074513000994136 0.3610185185186057 0 0.01272156387133658 0.373931647083109 0 0.01956484800004732 0.3835041831774079 0 0.03175741618619274 0.3995160234432785 0 0.03481607756000983 0.41151321357471 0 0.05588399774377369 0.4508501830555178 0 0.05895575818410246 0.4628583528077878 0 0.06202697591581961 0.4748671851374993 0 0.06506280872717939 0.4868666157959869 0 0.06809267858886729 0.4988719005195735 0 0.07112833671026568 0.5108910908103693 0 0.07419473297798852 0.522905028101371 0 0.07726670022129398 0.5349218608315811 0 0.08034109429889144 0.54694058674801 0 0.09536459140544014 0.5623063061866251 0 0.09844185715212911 0.5743273220374951 0 0.1015185144084721 0.5863498797747981 0 0.1045925215683851 0.598372199310242 0 0.1195894116009822 0.6137661253024933 0 0.1225746566716029 0.625843316110742 0 0.1256135638001263 0.6378941160490545 0 0.1286840310616284 0.6499322919293586 0 0.1317627705643273 0.6619682724494136 0 0.1348429521742193 0.6740029363509433 0 0.1379245236024942 0.6860368183293613 0 0.1529791426277177 0.7014172473937887 0 0.15606523889716 0.7134578881599183 0 0.1591488318710689 0.7255007486536772 0 0.1622307781755067 0.7375463784203908 0 0.1653126496116828 0.7495934552862114 0 0.1683834376773267 0.7616278207923213 0 0.1832241199263989 0.7771469359963226 0 0.1862735081469828 0.7892556593477618 0 0.2161627236035202 0.8201875638682157 0 0.2434625725144418 0.8839936369734009 0 0.2740060660223229 0.9599046476387516 0 0.2773820649132541 0.9713082433972607 0 0.2012925539851384 0.8046853733353825 0 0 0.3548148148148881 0 0.02021494109163923 0.3939179085512121 0 0.03799288631349092 0.4235053539245084 0 0.04100728153462985 0.4355271516748114 0 0.04388790671760186 0.4474859101603341 0 0.08341619062218583 0.5589602570290163 0 0.1076386456641694 0.6103951839005987 0 0.141008037095024 0.6980716254706349 0 0.171385968698813 0.7735968018613941 0 0.1893256851250005 0.8013520242814425 0 0.2042555572411492 0.8167837767742642 0 0.2191471262468647 0.832345489741964 0 0.2222035062724502 0.8443985102368348 0 0.2252717963831824 0.8564760131448961 0 0.2283610365500575 0.8685524339169763 0 0.2314513775437416 0.8806297717930212 0 0.2465541064409812 0.8960752185646419 0 0.2496443037383843 0.9081588740080938 0 0.2527273584096099 0.9202450407394719 0 0.2557996790611583 0.9323447983893829 0 0.258888724403585 0.9444747397403646 0 0.2619802320063556 0.9565355380264153 0 0.2813590072624409 0.9805124208762788 0 0.2875000000011962 1 0 0 0.3672222222223236 0 0.009941881297189648 0.3871386833507596 0 0.02180533029917211 0.4077551089106518 0 0.02667579914934154 0.4201825404032781 0 0.04695441177225102 0.4595007168560954 0 0.05005401558995552 0.4715107763735332 0 0.05311216186873067 0.4835259588401633 0 0.05614777826290616 0.4955324051349848 0 0.05918811459508908 0.5075458669465185 0 0.06224443122681236 0.5195570032961504 0 0.06532056147925153 0.5315752779773721 0 0.0683948643376443 0.5435940933554511 0 0.07146922243833481 0.5556136728342184 0 0.08649183722119415 0.5709811092431215 0 0.08956837035140633 0.5830030103520012 0 0.09264206740467029 0.5950239380916669 0 0.09570321548445888 0.6070386937747693 0 0.110659388674791 0.6224598015620912 0 0.1136541318424389 0.6345483594226562 0 0.1167240415203021 0.6465846880159178 0 0.1198012669258756 0.6586191735329076 0 0.1228802124945496 0.670653765975366 0 0.1259606108326147 0.6826883000894979 0 0.1290422039874569 0.6947232412914597 0 0.1440941642846538 0.7101079589351971 0 0.1471774815510643 0.72214914580207 0 0.1502591790136052 0.7341926696434361 0 0.1533401022427026 0.7462347131432151 0 0.1564204526738203 0.7582728848637929 0 0.1594834767112357 0.7702968403933639 0 0.1743953264239495 0.7857965361532653 0 0.1774210816812843 0.7979335441350153 0 0.2072562271283569 0.828947040285737 0 0.2345423662163861 0.8927116366070535 0 0.2656321719622797 0.9684929618287614 0 0.2790829353777096 0.9902258165705305 0 0.2689515838012387 0.9808824271803609 0 0.1923926935999392 0.8133891060380944 0 0 0.3796296296297976 0 0.01033570666203234 0.3993895974135091 0 0.02956050411170973 0.4323354225981789 0 0.03198681961568291 0.4441599580053857 0 0.03501414687160448 0.4560869047664744 0 0.07454351859554592 0.5676343392977921 0 0.09871052494464895 0.6191038149623123 0 0.1321249610573069 0.7067599758833524 0 0.1625335275989462 0.7823322195153306 0 0.1804435149098199 0.8100734921845982 0 0.1953673487644974 0.8255297286141072 0 0.2102295756171945 0.8410505539822901 0 0.2132644287544264 0.8531136797238381 0 0.2163494339515419 0.8651916204480928 0 0.2194395853718181 0.87726816527415 0 0.2225308626116601 0.8893474986188507 0 0.2376332648231496 0.9047945211215669 0 0.2407229221927897 0.9168777768234323 0 0.2437915541138596 0.9289720573770129 0 0.2468601496452975 0.9410682630093546 0 0.2499692178472234 0.9533828543390582 0 0.2531378418056451 0.9665658257502839 0 0.2750000000011442 1 0 0 0.3920370370372308 0 0.01005208728419306 0.4110444021865364 0 0.01745033236406407 0.4168530960568304 0 0.01912710481745996 0.428358634687371 0 0.03814196797597061 0.4681375719021646 0 0.0411328178228588 0.4801748726974887 0 0.04419014420131896 0.4921862117870622 0 0.04724076159625161 0.5041978769206048 0 0.05029979123626531 0.5162113110510835 0 0.05337436180861461 0.5282290185717831 0 0.05644893977305779 0.5402475849427848 0 0.05951883371705627 0.5522673063244832 0 0.06259608504195786 0.5642866091265111 0 0.07761846282074639 0.5796559706247338 0 0.08069470243269225 0.5916785134114125 0 0.08377156673813532 0.6037016822391179 0 0.0867930194954591 0.6157209383602549 0 0.101721985354886 0.6311696645742026 0 0.1047687685830287 0.6432327226581624 0 0.1078388580604532 0.6552719525959625 0 0.1109180390559582 0.6673044762509492 0 0.1139977777239552 0.6793388481175047 0 0.117077581067867 0.6913741930247352 0 0.1201584624647596 0.7034102599894234 0 0.135207342354787 0.7187987774972358 0 0.1382892828014105 0.7308395218530481 0 0.1413710731965401 0.7428775629217551 0 0.1444503784101191 0.7549102476338103 0 0.147541752697407 0.7669548931275038 0 0.1506357209211013 0.7789964221998414 0 0.1655337524912723 0.7945140560637675 0 0.1685320619089007 0.8066515945945687 0 0.198328566909709 0.8376325332475907 0 0.2256220133643423 0.9014291725708408 0 0.2594834206682826 0.9765114892789024 0 0.2686407902449678 0.9918342176552554 0 0.1834958915997724 0.8220963462297555 0 0 0.4044444444446639 0 0.02070371381884985 0.4401802481731996 0 0.02257830566463128 0.4523324622856282 0 0.02614966626548919 0.4644460676547886 0 0.06566897720429291 0.576308966084379 0 0.08974689499412938 0.6278386076019576 0 0.1232395561571602 0.7154479921161636 0 0.1537040048414023 0.7910252381539156 0 0.1715469228601398 0.8187811940475292 0 0.1864413218730589 0.8341896657461039 0 0.2013076572981453 0.8497451080351998 0 0.2043504370289044 0.8618217640369382 0 0.2074364564087618 0.8739043993777608 0 0.2105245717232393 0.8859828545332809 0 0.2136129174289595 0.8980639708421292 0 0.2287125175862484 0.9135135991843037 0 0.2317899912215786 0.9255965500575157 0 0.2348492241527239 0.9376999152429204 0 0.2379379640530555 0.9497908073885413 0 0.2410033716882596 0.9616501505768682 0 0.2497607394556721 0.9784010608802219 0 0.2576694320436543 0.9880628445253852 0 0.2625000000010923 1 0 0.01035222479167979 0.4230562747469074 0 0 0.4168518518521316 0 0.01016565785034871 0.4353782490790713 0 0.02968191954385756 0.4766838349287823 0 0.03221530821323814 0.4888350529293181 0 0.03528488027035219 0.5008498686105838 0 0.03835839831552732 0.512865932832452 0 0.04141927015982799 0.5248708915393372 0 0.04435572063978216 0.5369388407218058 0 0.04755302544908414 0.5489256595635286 0 0.0507464903281972 0.5608624951450815 0 0.05372125523308319 0.5729611872165199 0 0.06874484338407233 0.5883309555690095 0 0.07182076049290856 0.6003539043888798 0 0.07488620477554188 0.6123669096530545 0 0.07788345846463468 0.6244076538624256 0 0.09280948158083654 0.6398837970645277 0 0.09587734533788084 0.6519255083694405 0 0.09895760486465602 0.66395614418642 0 0.1020364946355327 0.6759886586588564 0 0.1051154060024736 0.6880232715506543 0 0.1081940926266971 0.7000593552159478 0 0.1112736034485533 0.7120968543802804 0 0.1263209183689044 0.7274872298870864 0 0.1294018967320239 0.7395270965544715 0 0.1324862804507152 0.7515611366931482 0 0.1355763177388071 0.7635955334073474 0 0.1386593527466546 0.7756425326538877 0 0.14175006217394 0.7876636911136915 0 0.1566260664366672 0.8032177497911173 0 0.1596210330742209 0.8153895313453847 0 0.1893692707770012 0.8463331028221062 0 0.2167021844689595 0.9101471079990594 0 0.2438898233093222 0.9710083305201884 0 0.1745931865600104 0.8307981266101715 0 0.01086455884544731 0.4476142719390788 0 0.01287239139192389 0.4617730354003825 0 0.0201728211721448 0.4726250204373728 0 0.0567956958370105 0.5849832274943807 0 0.0808733027101679 0.6365140363501046 0 0.1143540650350861 0.7241348677888882 0 0.1447288517033653 0.7997204414939223 0 0.1626307359190189 0.8274694047175465 0 0.1775466866827756 0.842834149994552 0 0.1923507794713349 0.8584581835432404 0 0.195434653662112 0.8705396118373271 0 0.1985490046811144 0.8826043842422708 0 0.2016200687503404 0.8947007537450716 0 0.204693466986559 0.9067808741681511 0 0.2197901478326134 0.9222298878236626 0 0.2228653440356314 0.934306343110098 0 0.2259470155696808 0.9464082036160446 0 0.2290108909436248 0.9584867536336502 0 0.2326896172819705 0.9694950246686342 0 0.2384469584705627 0.9793000257286431 0 0.2440010198317685 0.9893201440199972 0 0.2500000000010403 1 0 0 0.4292592592595735 0 0 0.4416666666670066 0 0.0199685219214514 0.485190398933951 0 0.02333878787560486 0.4975037058146076 0 0.02707738567758664 0.5093500095869909 0 0.02949897393087496 0.5214702112582974 0 0.03251773118300955 0.5333976018496172 0 0.03573672246145497 0.5452360002933796 0 0.03931454329613221 0.5571205189934078 0 0.04177519923186952 0.569613689646039 0 0.0448476237125949 0.5816355967156879 0 0.0598707876576493 0.5970053313847984 0 0.06294416005449027 0.6090279644298308 0 0.0659610830058871 0.6210496255652529 0 0.06897869866055847 0.6331264352931967 0 0.08392925785684494 0.6485725534982638 0 0.08699846012029935 0.6606081951249504 0 0.09007755375882445 0.6726385163103676 0 0.09315396620546412 0.6846733427002182 0 0.09623072868503148 0.6967091843906865 0 0.09930865641086567 0.7087462116429174 0 0.1023882814422201 0.7207833904881201 0 0.117434356283786 0.7361730160964213 0 0.1205162910504393 0.748210030387868 0 0.1236017255763617 0.7602463492536369 0 0.1266856943308716 0.7722888823264447 0 0.1297742079897858 0.7843121242311053 0 0.1327383942263525 0.7964316874009556 0 0.1476093019140177 0.8119804407078404 0 0.1506529625212467 0.8241139335683745 0 0.1804927897274564 0.8549849011697349 0 0.2077822851584125 0.9188641178496582 0 0.165704846761684 0.8395149832857767 0 0 0.454074074074455 0 0.01010172212966043 0.4748127539528162 0 0.04792464771134079 0.5936617138659188 0 0.07197595179647467 0.6452432740697276 0 0.1054681678145561 0.7328212512663874 0 0.1356634506502385 0.8085607155231221 0 0.1537279356591508 0.8361726391694184 0 0.1686632347822311 0.8515426869144918 0 0.1834737460301575 0.8671611146428471 0 0.1865674709497198 0.879223197876096 0 0.1897108065925129 0.8912754880840892 0 0.1927678441263658 0.9034273820120426 0 0.1958065473399073 0.9155328957922295 0 0.210868200518226 0.9309469879824068 0 0.2139500170571126 0.943030495530167 0 0.2170252070416511 0.9551023181343653 0 0.2201792658261261 0.9670500009392111 0 0.2255014234596399 0.9785121846394566 0 0.2316262002713804 0.9895337133359693 0 0.2375000000009883 1 0 0 0.4664814814819163 0 0.01120555589929378 0.4971246575024424 0 0.008255159990081121 0.4854625991150683 0 0.01836997012520208 0.5054261398958222 0 0.01929501815712406 0.5164982389916631 0 0.0209888232759642 0.5293703598114081 0 0.02309630286821745 0.5424885627342754 0 0.03014818889578755 0.5531289370648649 0 0.0295265271545726 0.5647597098972722 0 0.03301895788002672 0.5784096959138971 0 0.0359930373724419 0.5903310143437669 0 0.05099457327905849 0.6056812826769384 0 0.05406266682216371 0.6177009323825448 0 0.05707838570416535 0.6297478538259473 0 0.06008849731897129 0.6418167128184538 0 0.07504100559541041 0.6572605100108326 0 0.07811986932144765 0.6692891522321395 0 0.08119658005455012 0.6813200248553637 0 0.08426703409637241 0.6933604004353809 0 0.08734597756580834 0.7053951523925869 0 0.09042411559982973 0.7174322070315144 0 0.09350301782559897 0.7294694759649991 0 0.1085488228056439 0.7448586782170801 0 0.1116306261904232 0.7568966457880715 0 0.1147138292872575 0.7689363597208871 0 0.1177946777145245 0.7809804885983964 0 0.1208057769953725 0.7930773546875289 0 0.1237080158454126 0.8052557973563645 0 0.1386678384901213 0.8207227518969653 0 0.1417231694965689 0.8328356940012158 0 0.1716777407814176 0.8636925091149148 0 0.1988677230242215 0.927588715156862 0 0.1567906312883146 0.8482060993143983 0 0 0.4788888888893493 0 0.03904616840928968 0.6023338305799411 0 0.06309684715686414 0.6539248699394349 0 0.09658256840463686 0.7415072754259333 0 0.1266406735609038 0.8173441077342374 0 0.1448191898155179 0.8448801268944053 0 0.1598060040863384 0.8602497086838632 0 0.1747432858983783 0.8758002201402728 0 0.1778633481461574 0.8878432195405495 0 0.180946342795445 0.899958174216132 0 0.1839459828359449 0.9121579212349618 0 0.186890407756522 0.9242569206963714 0 0.2019544580576249 0.9396700506903486 0 0.2050203894759598 0.9517545390529776 0 0.2080436633774024 0.9638839160341414 0 0.2111549736380539 0.9771778131436777 0 0.2186759069018865 0.9894644994234598 0 0.2250000000009362 1 0 0 0.4912962962967825 0 0.009736575020622217 0.5105207178521542 0 0.009902801089446633 0.5232298826411428 0 0.01044785465207235 0.5352338267177372 0 0.02068253835408517 0.5554499764253931 0 0.02137448266640409 0.5754944759481524 0 0.02393107899997669 0.5872071712059687 0 0.02750669022109463 0.5989217306266048 0 0.04211914965062227 0.6143567370817831 0 0.04518287755584353 0.6263676997017208 0 0.04819649086156796 0.6384257171945156 0 0.05120654658333693 0.6505220940453921 0 0.06616359341173914 0.6659402996735351 0 0.06924152589582856 0.6779678288899254 0 0.07231252084479733 0.6900062968560803 0 0.07538577526382963 0.7020438574786884 0 0.07846251935335032 0.7140814575288803 0 0.08153959822028405 0.7261180501092067 0 0.08461803746617444 0.7381555751849429 0 0.09966312761709829 0.753544988789892 0 0.1027439849096762 0.7655845258823177 0 0.1058242505294182 0.7776262871031554 0 0.1088316235865266 0.7897625117937191 0 0.1117601250627279 0.8019177747897093 0 0.114690737993119 0.8140919402769995 0 0.1297174727977526 0.8295016198470023 0 0.1328160826591248 0.8415473761464733 0 0.1628873841639442 0.8724164231382805 0 0.189946482076243 0.9363109038333264 0 0.1479099626538807 0.8569336454483616 0 0 0.5037037037042373 0 0.0106952618661426 0.5472143826728058 0 0.01843788473637517 0.5653876261591838 0 0.03017046217154734 0.6110107797023332 0 0.05421063433624155 0.6625942857624643 0 0.0876973662356982 0.7501929831456179 0 0.1177095543310106 0.8261686843979876 0 0.1359288189637427 0.8535846815634677 0 0.1509570079437699 0.8689683528431235 0 0.1660250547583566 0.8845124364766741 0 0.1692264252035251 0.8964611618207619 0 0.1721636498681638 0.9085838726043872 0 0.1750636918044418 0.920830147266781 0 0.1779910709286956 0.9329895555802278 0 0.1930256721654151 0.9483886781429477 0 0.1960997456251702 0.9605191688135248 0 0.1991388751806685 0.9723580213113936 0 0.2060950206027676 0.9899143026595132 0 0.2125000000008843 1 0 0 0.5161111111116921 0 0 0.5285185185191252 0 0 0.5409259259265801 0 0.01019570734712097 0.5597745912001973 0 0.01127878476811945 0.5852611149977612 0 0.010410168159693 0.5714593773249044 0 0.01659939038059393 0.5970287968538877 0 0.02095527843415487 0.6066524588976544 0 0.03324383527101166 0.6230303039844025 0 0.03630772616412625 0.6350409941255217 0 0.03932904352410808 0.6470083976955946 0 0.04235483398032922 0.6591631619993694 0 0.05728677430729895 0.6746195392413368 0 0.06035949280722044 0.686649874287522 0 0.06342471695098285 0.698695795189602 0 0.06650222929102989 0.7107315357063447 0 0.06957742017932037 0.7227679424549405 0 0.07265546470935967 0.7348030545006639 0 0.07573372005759957 0.746839820430608 0 0.0907758963902426 0.7622325111879045 0 0.09385571196434714 0.774272332535762 0 0.09693444896797151 0.786312879079214 0 0.0997884035102391 0.7985848992864548 0 0.1027361924456978 0.8107341453371882 0 0.1057320041351129 0.8228229385781782 0 0.1208100764573385 0.8382121943612196 0 0.1239200986412888 0.8502465804647041 0 0.1540769325310452 0.8810744900797106 0 0.1810135283200531 0.9450234340607866 0 0.200436584950817 0.9817211116772849 0 0.1390148529762039 0.8656433986034081 0 0 0.5533333333340349 0 0.02010220307079489 0.6182449011460176 0 0.045332653390574 0.6712715331490086 0 0.07881081083047399 0.7588797210763603 0 0.1088166572676533 0.8348695663444896 0 0.1270261166035637 0.8622944947448429 0 0.1421083325636372 0.877701683095174 0 0.1572345119815171 0.8931293082786903 0 0.1603067443337954 0.9051196327076303 0 0.1632336923877638 0.9173659954279565 0 0.1661773832485033 0.9295085606836782 0 0.1691281155444581 0.941712828466758 0 0.1840975376631997 0.9571102866722209 0 0.1872723358883759 0.9696195716674687 0 0.1906262473857077 0.9812775162545592 0 0.1939860701619427 0.9912375737946503 0 0.2000000000008322 1 0 0 0.5657407407414687 0 0.007014306737326893 0.5967662205081263 0 0 0.5781481481489228 0 0.01039764632674357 0.6080560861594285 0 0.02448989845754734 0.6312748660302875 0 0.02773537731557692 0.6432887865581074 0 0.03067105924879579 0.6556585730164659 0 0.03337906679891893 0.6679240883272912 0 0.04840896269294075 0.6832968958926454 0 0.0514819824518286 0.6953189869230881 0 0.05455070028485261 0.7073797962359482 0 0.05761909000365032 0.7194174347116628 0 0.06069512135057197 0.7314506877818172 0 0.06377267652850829 0.7434841392629332 0 0.06684877189299551 0.7555226362009201 0 0.08188849517417221 0.7709196491171213 0 0.08496778871762156 0.7829592749633516 0 0.08794479841835469 0.7950390706534264 0 0.09066537000230751 0.8074348205971404 0 0.09375717453015367 0.8194852775983124 0 0.09684232685795013 0.8315292433720118 0 0.1119206968596061 0.8469017923771507 0 0.1150389065864364 0.8589364144047847 0 0.1452313181669729 0.8897512526725457 0 0.1721222697793198 0.9537851902780307 0 0.1301143537600904 0.8743508045666102 0 0 0.590555555556356 0 0.009240315921960007 0.6189676596186331 0 0.01294809306537377 0.6283064704719533 0 0.03645602968622723 0.6799494993340407 0 0.06992330734664395 0.7675663583507325 0 0.09993314929322368 0.8435626795521796 0 0.1181257139905958 0.8709978982961638 0 0.1332183272161145 0.8864023756443627 0 0.1483466101913609 0.901801829750668 0 0.1513761826047226 0.9138542565864016 0 0.1543629291766224 0.9260194608457313 0 0.1573192496979775 0.9382028410610302 0 0.1602677772724116 0.9504268704688144 0 0.1751632093193202 0.9661982592475049 0 0.1781513940446531 0.9786469236774784 0 0.1817288061968835 0.9904012896250942 0 0.1875000000007802 1 0 0 0.6029629629638107 0 0 0.6153703703712551 0 0.01654051199968606 0.6385723078417782 0 0.01924485185332633 0.650905040947711 0 0.02156261271282654 0.6637832401793174 0 0.02423403860868365 0.6762468188359507 0 0.03953236711409585 0.6919746407184271 0 0.04266537532439686 0.7039931437117026 0 0.0456664784732909 0.7160615306414774 0 0.04873679816469921 0.7280998821071925 0 0.05181379796467043 0.7401311167027449 0 0.05488936389131176 0.7521648047136036 0 0.05796278407417493 0.7642022380853041 0 0.0730016906697456 0.7796062347242931 0 0.07605901797040637 0.7916233201461323 0 0.07898137201027945 0.8037273354663281 0 0.0817775501815057 0.8161315542531511 0 0.08488996063536287 0.8282024750648886 0 0.08795309866241049 0.8402233714860464 0 0.1030312177712251 0.8556006088256636 0 0.1061346311435643 0.8676450392680827 0 0.1363247184906605 0.8984596193544521 0 0.1631971158818175 0.962576599154951 0 0.121214497110366 0.8830578220396006 0 0 0.6277777777786986 0 0.007636394457164436 0.635768328637933 0 0.02767446101211617 0.6882477839795379 0 0.06103676063961881 0.7762478737262726 0 0.09104570036530071 0.8522586989452728 0 0.1092246943666333 0.8797036894872259 0 0.1243092534147686 0.8951145266774989 0 0.1394193828773986 0.9105215737873592 0 0.1425184297013501 0.9226025202664069 0 0.1455602200231621 0.9346910885664819 0 0.1484190729227076 0.946858237334718 0 0.1513859331062867 0.9590490414427789 0 0.1661342880297559 0.9749661142731419 0 0.1681031194383308 0.9887789589793521 0 0.1750000000007281 1 0 0.009036066215009651 0.6463083793612536 0 0.01024424914297311 0.6585859769509717 0 0.01110164059416885 0.6711290657382635 0 0.01342018527536714 0.6850722984001711 0 0.0310581931788992 0.7005029972550902 0 0.0339137724232738 0.7126494433447399 0 0.03685935554540981 0.7247296506180165 0 0.03985658979391934 0.7367805751109058 0 0.04293304313128585 0.7488103816901993 0 0.04595675128826435 0.7608382675706362 0 0.04900319221677779 0.7728815194302951 0 0.06411238795414617 0.7882883395484953 0 0.06718148031324818 0.8003180335555142 0 0.07014435156726587 0.8122379320748125 0 0.07302513580450848 0.8246721222119332 0 0.0759988370615936 0.8368939104372976 0 0.07906318196720637 0.8489154541660124 0 0.09414144603985622 0.8643032883386164 0 0.09723495106202504 0.8763526840012609 0 0.1274234190773476 0.9071661575942782 0 0.1546315462306884 0.97117374626919 0 0.1123128428418199 0.8917636394594732 0 0 0.6401851851861535 0 0.02013859750407292 0.697167284995948 0 0.05214294726079645 0.7849276058486208 0 0.08215607137566079 0.8609579962858322 0 0.100323283409041 0.8884087599660864 0 0.1154049688449469 0.9038240886178547 0 0.1305191274346685 0.919243121636069 0 0.1336163307822216 0.9313233703525288 0 0.1366705291275756 0.9433648446880183 0 0.1398167399005681 0.9554899390253049 0 0.1436474288868706 0.9678841871915356 0 0.1566499906962767 0.9828519327258789 0 0.1625000000006761 1 0 0 0.6525925925936003 0 0 0.6650000000010197 0 0 0.6774074074084013 0 0.009848545095010314 0.6959633227264428 0 0.02240886441207342 0.7093904886637818 0 0.02548645111038758 0.7212330994696068 0 0.02837038412263715 0.7333112365928758 0 0.03127771392907052 0.7453833374223167 0 0.03410354683897358 0.7574758704161675 0 0.0367807700884529 0.7695058979414627 0 0.04013913994935929 0.7815672334094745 0 0.05522802664501425 0.7969747025569951 0 0.05828459584096658 0.8089903116055802 0 0.06120496225191388 0.821165288220815 0 0.064135153129409 0.8334015732206348 0 0.06709068128852327 0.8455662158575505 0 0.07017602242560021 0.8576094811363656 0 0.08524610452136146 0.8730047027055862 0 0.08833570627203279 0.88505487664201 0 0.1185115962114317 0.9158902648629577 0 0.1477135383631483 0.9787381021573569 0 0.15632176433465 0.9926157041468473 0 0.1034122572433372 0.900471040180524 0 0 0.6898148148157613 0 0.01098381475710704 0.7065363788175218 0 0.04327036867125317 0.7936170732734064 0 0.07326428260070432 0.869653699738863 0 0.09142283192316009 0.8971142345133616 0 0.1065055920967852 0.9125339209946712 0 0.1216204533988819 0.9279699194717664 0 0.1246981888881936 0.9400422463166836 0 0.1277914324070223 0.952126780116294 0 0.130343527512668 0.9661468277025863 0 0.1374167614606717 0.9779907810718835 0 0.1453753391948138 0.9890618700996182 0 0.1500000000006241 1 0 0 0.7022222222231429 0 0.0125628674179675 0.7203157343643991 0 0.01936867844484303 0.7292066944995466 0 0.0204070836274815 0.739992471864817 0 0.02210856466830327 0.752396383318804 0 0.02304667717296609 0.7661098430637857 0 0.02825008935096352 0.7781946086628559 0 0.03150197134059179 0.7904834281231414 0 0.04634156974335685 0.8056574943952773 0 0.04939839954821943 0.8176718753102398 0 0.0523075672244897 0.8298863723995451 0 0.05511921192001294 0.8422170311958259 0 0.05820440987676585 0.8542592578281838 0 0.06128801180810693 0.8663040905469415 0 0.07635206281251437 0.8817024816277251 0 0.07943751925265577 0.8937561158844983 0 0.1095994973550786 0.924604036402721 0 0.09451076851806778 0.9091779726090818 0 0 0.7146296296305246 0 0.0344059891014438 0.8023200981431124 0 0.06437246491041158 0.8783510279951396 0 0.08252265564100698 0.905815217983936 0 0.09759639969157163 0.9212477661991422 0 0.1127816858883616 0.9367302985465549 0 0.1159084253648644 0.9487117434468533 0 0.1186625608369057 0.9603303029369951 0 0.125163954027398 0.978738472899239 0 0.1315171752761906 0.9893233096237962 0 0.1375000000005722 1 0 0.01063489701494257 0.7335065408714848 0 0 0.7270370370379062 0 0.01068226358509248 0.7461506384838744 0 0.01052552339112552 0.7580555555562997 0 0.01846500708485248 0.7766666666673865 0 0.02034972560395897 0.7869860792991541 0 0.02252978610056638 0.7992342157498022 0 0.0374578890222532 0.8143405207965531 0 0.04052774355561552 0.8263674659918301 0 0.04345993294176748 0.838495000457925 0 0.04632940844391931 0.8507840237570683 0 0.04931729840003585 0.8629526157696674 0 0.05239959759585429 0.8749979863180292 0 0.06745713216862562 0.8903996375341735 0 0.07054139360993628 0.9024526930095749 0 0.1007360019009113 0.9333692746954136 0 0.1199058150692392 0.9704673306768525 0 0.08560304537434521 0.9178866389591758 0 0.01074513000987598 0.7704629629636878 0 0.02556467541232573 0.8109929533629689 0 0.05548120082517946 0.887045973485977 0 0.07362150053258884 0.9145073959778086 0 0.08869335347297719 0.9299687662798748 0 0.1039316327222738 0.9454565883977791 0 0.1071494529960635 0.9575889256820886 0 0.1101585715003323 0.9694313070497431 0 0.1187255508009514 0.989625669597852 0 0.1136156815287297 0.9793678382629583 0 0.1250000000005201 1 0 0 0.7394444444452662 0 0 0.7518518518526134 0 0 0.7642592592599863 0 0.01014495260677591 0.7826249061991072 0 0.01120654714000377 0.7947126503926316 0 0.01204650220310994 0.8087297480481455 0 0.02888022378295878 0.8229477482057552 0 0.0318315156527508 0.8351070319991587 0 0.03448996380167402 0.8473831317060694 0 0.03735051979225994 0.8596035946373132 0 0.04042947453775911 0.8716481151537678 0 0.04350959260789354 0.8836947513136335 0 0.05856398146325752 0.8990932655065725 0 0.061645572601483 0.9111445251704603 0 0.09183377500940587 0.9420925858781484 0 0.07669978112496423 0.9265926647389274 0 0 0.7766666666673896 0 0.01790150431267568 0.8209045307955376 0 0.04659049999680995 0.8957395079865156 0 0.06471483923527556 0.9232245656494393 0 0.07978660684140057 0.9386833200731119 0 0.09510483044306986 0.9542475148659634 0 0.09828102537852836 0.9663563869650469 0 0.1015075316564056 0.9783678607198136 0 0.1125000000004681 1 0 0.1062326661180515 0.9895763886342501 0 0 0.7890740740747344 0 0 0.8014814814820662 0 0.007659093437550587 0.8202820314773156 0 0.02227705449946761 0.830984261807166 0 0.02202689873909458 0.8434619980348581 0 0.02571825889567783 0.8561698928641415 0 0.0291121514119192 0.8681297844223429 0 0.03153574028324043 0.8803542437390169 0 0.03462026339727104 0.8923886889253163 0 0.04967094304776858 0.9077852275060025 0 0.0527354086806541 0.9198564730481509 0 0.08287600190713665 0.950757228385637 0 0.06778699465422133 0.9353065169119101 0 0 0.8138888888894696 0 0.01074513000985824 0.8325000000005205 0 0.03769968050463557 0.9044294179781912 0 0.0557997778177419 0.9319398180493798 0 0.07086319358062187 0.9473843621078984 0 0.08608659080243652 0.9629228484720872 0 0.0891606511236633 0.9752000347302393 0 0.09227222596843403 0.9885597147892659 0 0.100000000000416 1 0 0 0.8262962962968513 0 0.01770561571062424 0.8518102171591276 0 0.01875915539748156 0.863240358373123 0 0.02034439483750664 0.8758401373925895 0 0.0207691931534746 0.8886436952736487 0 0.02575998688591712 0.9009830937278511 0 0.04077539956673283 0.9164709885970233 0 0.04381270143027786 0.9285847740963132 0 0.07395582530201858 0.9594607581860612 0 0.058864550940679 0.9440254316324165 0 0 0.8387037037041897 0 0.01002328302844232 0.8458565171752916 0 0.02909798591088885 0.9129495667056544 0 0.04687406774245845 0.9406689181966926 0 0.06195314400170086 0.9560959990088715 0 0.07714121066020239 0.9715151676995752 0 0.07943590363479956 0.9832177419144665 0 0.08750000000036418 1 0 0.00966205371107683 0.857552073041483 0 0.01001245781808463 0.8699400453590538 0 0.01044219762696097 0.8817253423844795 0 0.01325956569204109 0.8995281940246468 0 0.01739343365240101 0.9095806845698687 0 0.03222038845295235 0.9251037474132453 0 0.03488720474403965 0.9373136954529492 0 0.06558908639933492 0.968033455766419 0 0.08125000000033816 0.992967963874489 0 0.04995765633593775 0.9527315027059547 0 0 0.8511111111115715 0 0.008703089016920403 0.8912364162511432 0 0.02123199815275999 0.9214480505532623 0 0.0379718063414232 0.9493690247252197 0 0.05307744544833749 0.9660859351440793 0 0.06813145603316532 0.9802582787896873 0 0.07009802327163879 0.9908281048876434 0 0.07500000000031215 1 0 0 0.8635185185189748 0 0 0.8759259259263067 0 0 0.8883333333336514 0 0.007873617356454012 0.9078283486315755 0 0 0.900740740741054 0 0.009421965220881234 0.917911784047635 0 0.02320504774824458 0.9339544180050137 0 0.02650796986162177 0.9458779258356391 0 0.05919253806203585 0.976064936116063 0 0.04108625169301738 0.9606406635099668 0 0.01073380926912327 0.93087616524377 0 0.03009778655120334 0.9575128649184437 0 0.0497920411485948 0.978218491690378 0 0.05750603581220406 0.9878510050303527 0 0.06250000000026001 1 0 0 0.9131481481483843 0 0 0.9255555555557314 0 0.01305921606844361 0.9443848520097853 0 0.02031374232405159 0.9538813000424333 0 0.04344597508876562 0.9706739678193999 0 0.03278331587450484 0.9681158626426247 0 0 0.9379629629631597 0 0.02147332676306314 0.9641383566169486 0 0.03777573718165236 0.9789435439754534 0 0.0439813887042579 0.9889692833136483 0 0.05000000000020799 1 0 0 0.9503703703705487 0 0.01105407148739446 0.9573445012354282 0 0.02354467416009922 0.9776776440488527 0 0.01123701724674287 0.9703286271462015 0 0.03136482680520059 0.989238428595329 0 0.03750000000015596 1 0 0 0.962777777777879 0 0.01070907755474483 0.9817635815427359 0 0 0.9751851851852422 0 0.01889585481454671 0.9898221880454791 0 0.02500000000010405 1 0 0.009092035120625565 0.9909330519583848 0 0 0.9875925925926616 0 0.01250000000005203 1 0 0 1 0 </DataArray>
      </Points>
      <Cells>
        <DataArray type="Int32" Name="connectivity" format="ascii">0 1 2 1 3 2 4 0 2 3 5 2 6 0 4 5 4 2 3 7 5 6 4 8 4 5 9 7 10 5 11 6 8 8 4 9 5 12 9 7 13 10 5 10 12 14 11 8 15 8 9 12 16 9 10 13 17 13 18 17 12 10 19 20 11 14 14 8 15 16 15 9 21 16 12 10 17 19 18 22 17 18 23 22 21 12 19 20 14 24 25 14 15 16 25 15 21 26 16 19 17 27 17 22 27 22 23 28 23 29 28 30 21 19 31 20 24 14 32 24 32 14 25 16 26 25 33 26 21 30 19 27 22 34 27 22 28 34 28 29 35 33 21 30 36 31 24 32 36 24 37 32 25 26 37 25 38 26 33 34 30 27 34 28 39 29 40 35 28 35 39 33 30 41 42 31 36 32 43 36 37 43 32 38 37 26 38 33 44 30 34 41 45 34 39 40 46 35 39 35 47 40 48 46 48 49 50 44 33 41 51 42 36 43 52 36 53 43 37 53 37 38 54 38 44 34 45 41 55 45 39 35 46 47 55 39 47 46 48 50 49 56 50 49 57 56 58 44 41 59 42 51 52 51 36 60 52 43 60 43 53 53 38 54 61 54 44 45 58 41 55 62 45 46 63 47 63 55 47 46 50 64 50 56 65 56 57 66 57 67 66 67 68 69 58 61 44 59 51 70 51 52 71 60 72 52 60 53 73 73 53 54 61 74 54 62 58 45 75 62 55 63 46 64 75 55 63 64 50 65 56 76 65 56 66 76 67 69 66 69 68 77 68 78 77 58 79 61 80 59 70 51 71 70 52 72 71 81 72 60 81 60 73 74 73 54 82 74 61 62 79 58 83 62 75 84 63 64 75 63 84 85 64 65 76 85 65 76 66 86 66 69 86 87 69 77 78 88 77 79 82 61 80 70 89 71 90 70 72 91 71 92 72 81 81 73 93 73 74 93 82 94 74 83 79 62 83 75 95 85 84 64 95 75 84 85 76 96 76 86 96 86 69 87 87 77 97 78 98 88 77 88 97 99 82 79 100 80 89 70 90 89 91 90 71 92 91 72 92 81 101 101 81 93 74 94 93 102 94 82 99 79 83 103 83 95 85 104 84 104 95 84 105 85 96 86 106 96 86 87 107 87 97 108 88 98 109 97 88 110 98 111 109 111 112 113 102 82 99 114 100 89 89 90 115 91 116 90 92 117 91 118 92 101 119 101 93 94 119 93 102 120 94 99 83 103 121 103 95 105 104 85 104 121 95 106 105 96 106 86 107 107 87 108 108 97 122 88 109 110 122 97 110 109 111 113 112 123 113 112 124 123 102 99 125 126 100 114 114 89 115 90 116 115 91 117 116 118 117 92 118 101 127 101 119 127 94 120 119 128 120 102 99 103 125 103 121 129 105 130 104 104 130 121 131 105 106 132 106 107 133 107 108 134 108 122 109 135 110 135 122 110 136 109 113 123 136 113 123 124 137 124 138 137 139 140 141 138 139 142 128 102 125 126 114 143 144 114 115 116 144 115 116 117 145 118 146 117 147 118 127 119 148 127 119 120 148 128 149 120 125 103 129 121 150 129 131 130 105 130 150 121 131 106 132 133 132 107 134 133 108 151 134 122 136 135 109 135 151 122 136 123 152 123 137 152 137 138 142 139 141 142 141 140 153 140 154 153 155 128 125 156 126 143 114 144 143 116 145 144 117 146 145 147 146 118 157 147 127 148 157 127 120 149 148 158 149 128 155 125 129 150 159 129 131 160 130 130 160 150 161 131 132 133 162 132 163 133 134 151 164 134 136 165 135 135 165 151 166 136 152 137 167 152 137 142 168 142 141 169 170 141 153 154 171 153 158 128 155 172 156 143 143 144 173 145 174 144 146 175 145 176 146 147 177 147 157 157 148 178 148 149 178 158 179 149 159 155 129 150 180 159 161 160 131 150 160 180 162 161 132 163 162 133 164 163 134 164 151 181 166 165 136 151 165 181 167 166 152 167 137 168 168 142 169 169 141 170 171 170 153 171 154 182 154 183 182 158 155 184 185 156 172 172 143 173 144 174 173 175 174 145 176 175 146 176 147 177 177 157 186 157 178 186 149 179 178 187 179 158 184 155 159 180 188 159 161 189 160 160 189 180 162 190 161 163 191 162 192 163 164 193 164 181 166 194 165 165 194 181 195 166 167 196 167 168 197 168 169 198 169 170 171 199 170 200 171 182 183 201 182 183 202 201 187 158 184 185 172 203 172 173 204 174 205 173 175 206 174 207 175 176 176 177 208 209 177 186 178 210 186 179 210 178 187 211 179 188 184 159 212 188 180 161 190 189 189 212 180 162 191 190 192 191 163 192 164 193 213 193 181 195 194 166 194 213 181 195 167 196 197 196 168 198 197 169 199 198 170 200 199 171 201 200 182 201 202 214 202 215 214 216 187 184 217 185 203 203 172 204 173 205 204 174 206 205 207 206 175 207 176 208 208 177 209 218 209 186 210 218 186 179 211 210 219 211 187 188 216 184 212 220 188 189 190 221 189 221 212 190 191 222 192 223 191 224 192 193 213 225 193 226 194 195 226 213 194 227 195 196 197 228 196 229 197 198 199 230 198 231 199 200 200 201 232 233 201 214 215 234 214 201 233 232 215 235 234 235 236 237 219 187 216 238 217 203 239 203 204 205 239 204 206 240 205 207 241 206 242 207 208 243 208 209 218 244 209 218 210 245 210 211 245 219 246 211 188 220 216 212 247 220 221 190 222 212 221 247 191 223 222 224 223 192 225 224 193 248 225 213 226 195 227 248 213 226 228 227 196 229 228 197 230 229 198 231 230 199 231 200 249 249 200 232 234 233 214 233 250 232 235 237 234 237 236 251 236 252 251 253 219 216 254 217 238 238 203 255 203 239 255 205 240 239 206 241 240 242 241 207 243 242 208 244 243 209 256 244 218 256 218 245 211 246 245 257 246 219 220 253 216 220 247 258 259 221 222 247 221 259 223 260 222 224 261 223 225 262 224 263 225 248 264 226 227 248 226 264 228 265 227 229 266 228 267 229 230 268 230 231 269 231 249 250 249 232 270 233 234 270 250 233 234 237 271 272 237 251 251 252 273 252 274 273 274 275 276 257 219 253 254 238 277 278 238 255 239 279 255 240 279 239 240 241 280 242 281 241 282 242 243 283 243 244 284 244 256 256 245 285 245 246 285 257 286 246 253 220 258 247 287 258 260 259 222 247 259 287 223 261 260 224 262 261 263 262 225 263 248 288 265 264 227 248 264 288 228 266 265 267 266 229 267 230 268 268 231 269 289 269 249 250 289 249 270 234 271 290 250 270 237 272 271 291 272 251 291 251 273 274 276 273 276 275 292 275 293 292 257 253 294 295 254 277 238 278 277 296 278 255 279 296 255 279 240 280 241 281 280 282 281 242 282 243 283 283 244 284 284 256 297 256 285 297 246 286 285 298 286 257 294 253 258 287 299 258 260 300 259 259 300 287 260 261 301 261 262 302 263 303 262 304 263 288 305 264 265 288 264 305 266 306 265 307 266 267 267 268 308 309 268 269 289 310 269 290 289 250 311 270 271 290 270 311 272 312 271 291 313 272 314 291 273 276 314 273 276 292 315 292 293 316 298 257 294 317 295 277 278 317 277 296 318 278 319 296 279 319 279 280 281 320 280 321 281 282 282 283 322 283 284 323 324 284 297 285 325 297 286 325 285 298 326 286 299 294 258 327 299 287 260 301 300 300 327 287 301 261 302 262 303 302 304 303 263 328 304 288 306 305 265 328 288 305 307 306 266 307 267 308 308 268 309 310 309 269 289 329 310 290 329 289 312 311 271 330 290 311 272 313 312 314 313 291 314 276 315 315 292 331 293 332 316 292 316 331 333 298 294 334 295 317 278 318 317 296 335 318 319 335 296 320 319 280 321 320 281 321 282 322 322 283 323 323 284 324 336 324 297 325 336 297 286 326 325 337 326 298 299 333 294 327 338 299 300 301 339 300 339 327 301 302 340 303 341 302 304 342 303 328 343 304 306 344 305 344 328 305 345 306 307 346 307 308 347 308 309 310 348 309 310 329 349 330 329 290 312 350 311 350 330 311 313 351 312 352 313 314 353 314 315 354 315 331 332 355 316 316 356 331 332 357 355 357 358 359 337 298 333 360 334 317 317 318 361 318 335 362 319 363 335 320 363 319 364 320 321 365 321 322 366 322 323 367 323 324 336 368 324 325 369 336 325 326 369 337 370 326 299 338 333 327 371 338 339 301 340 327 339 371 302 341 340 303 342 341 304 343 342 328 372 343 345 344 306 344 372 328 345 307 346 346 308 347 348 347 309 310 349 348 329 373 349 330 373 329 351 350 312 374 330 350 352 351 313 352 314 353 354 353 315 354 331 375 316 355 356 331 356 375 355 357 359 358 376 359 358 377 376 378 337 333 379 334 360 360 317 361 361 318 362 362 335 380 335 363 380 364 363 320 364 321 365 366 365 322 367 366 323 368 367 324 368 336 381 336 369 381 326 370 369 382 370 337 338 378 333 338 371 383 384 339 340 339 384 371 341 385 340 341 342 386 342 343 387 343 372 388 389 344 345 389 372 344 345 346 390 391 346 347 348 392 347 349 393 348 373 394 349 374 373 330 395 350 351 374 350 395 396 351 352 397 352 353 354 398 353 399 354 375 356 355 400 356 401 375 402 355 359 359 376 403 376 377 404 377 405 404 405 406 407 382 337 378 379 360 408 360 361 409 410 361 362 411 362 380 363 412 380 364 412 363 413 364 365 366 414 365 367 415 366 416 367 368 417 368 381 369 418 381 369 370 418 382 419 370 378 338 383 371 420 383 385 384 340 371 384 420 341 386 385 386 342 387 343 388 387 372 421 388 389 345 390 389 421 372 390 346 391 392 391 347 393 392 348 394 393 349 422 394 373 422 373 374 395 351 396 374 395 423 396 352 397 398 397 353 399 398 354 401 399 375 355 402 400 401 356 400 402 359 403 376 424 403 376 404 424 405 407 404 407 406 425 406 426 425 382 378 427 428 379 408 408 360 409 361 410 409 410 362 411 429 411 380 412 429 380 413 412 364 414 413 365 415 414 366 416 415 367 416 368 417 430 417 381 418 430 381 370 419 418 431 419 382 427 378 383 420 432 383 385 433 384 384 433 420 385 386 434 435 386 387 388 436 387 388 421 437 438 389 390 438 421 389 439 390 391 392 440 391 393 441 392 442 393 394 443 394 422 422 374 423 395 396 444 423 395 444 445 396 397 398 446 397 399 447 398 448 399 401 402 449 400 449 401 400 450 402 403 424 450 403 404 451 424 407 451 404 407 425 452 426 453 425 426 454 453 454 455 456 431 382 427 457 428 408 408 409 458 410 459 409 460 410 411 461 411 429 412 462 429 413 462 412 463 413 414 464 414 415 465 415 416 466 416 417 430 467 417 418 468 430 419 468 418 431 469 419 432 427 383 470 432 420 385 434 433 433 470 420 434 386 435 436 435 387 436 388 437 421 471 437 439 438 390 438 471 421 440 439 391 392 441 440 442 441 393 442 394 443 443 422 472 472 422 423 444 396 445 473 423 444 446 445 397 398 447 446 448 447 399 448 401 474 450 449 402 474 401 449 450 424 475 424 451 475 451 407 452 452 425 476 425 453 476 453 454 456 455 477 456 455 478 477 479 431 427 480 428 457 457 408 458 409 459 458 460 459 410 461 460 411 481 461 429 462 481 429 463 462 413 463 414 464 464 415 465 465 416 466 467 466 417 430 482 467 430 468 482 419 469 468 483 469 431 432 479 427 470 484 432 433 434 485 433 485 470 434 435 486 487 435 436 488 436 437 471 489 437 490 438 439 490 471 438 491 439 440 441 492 440 493 441 442 442 443 494 443 472 495 472 423 473 496 444 445 496 473 444 446 497 445 447 498 446 499 447 448 448 474 500 501 449 450 474 449 501 502 450 475 451 503 475 504 451 452 505 452 476 453 506 476 453 456 506 456 477 507 477 478 508 478 509 508 483 431 479 480 457 510 457 458 511 459 512 458 460 513 459 461 514 460 481 515 461 516 481 462 516 462 463 463 464 517 464 465 518 465 466 519 466 467 520 482 521 467 482 468 522 468 469 522 483 523 469 432 484 479 470 524 484 485 434 486 470 485 524 486 435 487 487 436 488 489 488 437 471 525 489 491 490 439 490 525 471 492 491 440 493 492 441 493 442 494 494 443 495 495 472 526 526 472 473 497 496 445 496 527 473 498 497 446 499 498 447 499 448 500 474 528 500 501 450 502 474 501 528 503 502 475 504 503 451 505 504 452 505 476 529 476 506 529 506 456 507 507 477 530 531 477 508 509 532 508 509 533 532 533 534 535 536 483 479 537 480 510 510 457 511 458 512 511 459 513 512 460 514 513 461 515 514 481 538 515 516 538 481 516 463 517 464 518 517 518 465 519 519 466 520 467 521 520 482 539 521 482 522 539 469 523 522 540 523 483 484 536 479 484 524 541 542 485 486 524 485 542 486 487 543 544 487 488 489 545 488 489 525 546 491 547 490 490 547 525 492 548 491 549 492 493 550 493 494 551 494 495 552 495 526 527 526 473 497 553 496 496 553 527 498 554 497 555 498 499 499 500 556 500 528 557 558 501 502 528 501 558 503 559 502 504 560 503 561 504 505 562 505 529 506 563 529 563 506 507 477 531 530 564 507 530 532 531 508 532 533 535 534 565 535 534 566 565 540 483 536 537 510 567 568 510 511 512 568 511 512 513 569 513 514 570 514 515 571 515 538 572 573 538 516 573 516 517 517 518 574 575 518 519 576 519 520 521 577 520 539 578 521 522 579 539 523 579 522 540 580 523 536 484 541 524 581 541 542 486 543 581 524 542 487 544 543 545 544 488 489 546 545 546 525 582 491 548 547 525 547 582 549 548 492 549 493 550 551 550 494 552 551 495 583 552 526 527 583 526 497 554 553 527 553 584 555 554 498 555 499 556 556 500 557 528 585 557 559 558 502 528 558 585 503 560 559 561 560 504 561 505 562 563 562 529 564 563 507 531 586 530 586 564 530 532 587 531 588 532 535 535 565 589 565 566 590 566 591 590 540 536 592 593 537 567 510 568 567 568 512 569 513 570 569 514 571 570 571 515 572 538 594 572 573 594 538 573 517 574 574 518 575 576 575 519 577 576 520 521 578 577 595 578 539 579 595 539 523 580 579 596 580 540 592 536 541 581 597 541 598 542 543 598 581 542 544 599 543 545 600 544 545 546 601 602 546 582 547 548 603 547 603 582 549 604 548 605 549 550 551 606 550 552 607 551 608 552 583 527 584 583 553 554 609 584 553 609 555 610 554 611 555 556 612 556 557 585 613 557 614 558 559 585 558 614 560 615 559 561 616 560 617 561 562 618 562 563 564 619 563 587 586 531 586 620 564 587 532 588 588 535 589 565 621 589 622 565 590 591 623 590 624 625 626 591 624 627 596 540 592 628 593 567 568 629 567 630 568 569 570 631 569 571 632 570 633 571 572 594 634 572 635 594 573 635 573 574 636 574 575 576 637 575 638 576 577 578 639 577 640 578 595 595 579 641 579 580 641 596 642 580 597 592 541 581 643 597 599 598 543 598 643 581 544 600 599 545 601 600 601 546 602 644 602 582 548 604 603 603 644 582 605 604 549 606 605 550 551 607 606 608 607 552 645 608 583 584 645 583 554 610 609 584 609 646 611 610 555 612 611 556 613 612 557 613 585 647 615 614 559 647 585 614 560 616 615 617 616 561 618 617 562 619 618 563 564 620 619 648 586 587 648 620 586 587 588 649 650 588 589 565 622 621 621 650 589 623 622 590 623 591 627 624 626 627 626 625 651 625 652 651 653 596 592 654 593 628 629 628 567 630 629 568 631 630 569 632 631 570 632 571 633 634 633 572 594 655 634 635 655 594 636 635 574 637 636 575 638 637 576 639 638 577 640 639 578 640 595 656 595 641 656 580 642 641 657 642 596 597 653 592 597 643 658 659 598 599 659 643 598 600 660 599 600 601 661 601 602 662 602 644 663 603 604 664 603 664 644 605 665 604 666 605 606 607 667 606 668 607 608 669 608 645 584 646 645 610 670 609 609 670 646 611 671 610 672 611 612 613 673 612 674 613 647 615 675 614 675 647 614 615 616 676 617 677 616 678 617 618 679 618 619 620 680 619 648 587 649 681 620 648 649 588 650 622 682 621 682 650 621 623 683 622 684 623 627 626 684 627 626 651 685 652 686 651 652 687 686 657 596 653 654 628 688 689 628 629 630 689 629 631 690 630 691 631 632 632 633 692 693 633 634 655 694 634 695 655 635 695 635 636 696 636 637 697 637 638 698 638 639 699 639 640 700 640 656 641 701 656 642 701 641 657 702 642 653 597 658 643 703 658 660 659 599 659 703 643 600 661 660 661 601 662 662 602 663 644 704 663 604 665 664 644 664 704 666 665 605 667 666 606 668 667 607 668 608 669 705 669 645 646 705 645 610 671 670 646 670 706 672 671 611 673 672 612 674 673 613 707 674 647 615 676 675 675 707 647 616 677 676 678 677 617 678 618 679 680 679 619 681 680 620 648 649 708 681 648 708 649 650 709 683 682 622 650 682 709 684 683 623 684 626 685 685 651 710 651 686 710 686 687 711 657 653 712 713 654 688 628 714 688 628 689 714 630 690 689 691 690 631 691 632 692 633 693 692 694 693 634 715 694 655 715 655 695 695 636 696 696 637 697 697 638 698 698 639 699 699 640 700 700 656 716 656 701 716 642 702 701 717 702 657 712 653 658 703 718 658 660 719 659 659 719 703 660 661 720 721 661 662 722 662 663 704 723 663 665 724 664 664 724 704 666 725 665 667 726 666 668 727 667 728 668 669 729 669 705 646 706 705 670 671 730 706 670 730 672 731 671 732 672 673 733 673 674 734 674 707 676 735 675 735 707 675 676 677 736 678 737 677 738 678 679 680 739 679 740 680 681 649 741 708 742 681 708 741 649 709 683 743 682 682 744 709 745 683 684 746 684 685 747 685 710 710 686 748 687 749 711 686 711 748 749 750 751 717 657 712 752 713 688 688 714 753 714 689 754 689 690 755 691 756 690 757 691 692 693 758 692 694 759 693 760 694 715 715 695 761 695 696 761 696 697 762 697 698 763 698 699 764 699 700 765 766 700 716 701 767 716 701 702 767 717 768 702 718 712 658 703 769 718 660 720 719 703 719 769 720 661 721 722 721 662 723 722 663 770 723 704 665 725 724 724 770 704 666 726 725 667 727 726 728 727 668 729 728 669 771 729 705 706 771 705 671 731 730 772 706 730 732 731 672 732 673 733 733 674 734 734 707 773 735 676 736 773 707 735 677 737 736 738 737 678 739 738 679 740 739 680 740 681 742 741 774 708 774 742 708 744 741 709 745 743 683 682 743 744 745 684 746 747 746 685 775 747 710 775 710 748 749 751 711 711 776 748 751 750 777 750 778 777 779 717 712 780 713 752 752 688 753 714 781 753 754 689 755 714 754 781 690 756 755 757 756 691 758 757 692 759 758 693 760 759 694 760 715 782 715 761 782 696 762 761 697 763 762 763 698 764 764 699 765 765 700 766 783 766 716 767 783 716 702 768 767 784 768 717 718 779 712 718 769 785 719 720 786 769 719 786 720 721 787 788 721 722 722 723 789 770 790 723 724 725 791 770 724 791 725 726 792 726 727 793 728 794 727 795 728 729 796 729 771 706 772 771 731 797 730 797 772 730 798 731 732 732 733 799 733 734 800 734 773 801 802 735 736 773 735 802 737 803 736 738 804 737 805 738 739 806 739 740 807 740 742 808 774 741 774 809 742 808 741 744 810 743 745 743 811 744 812 745 746 747 813 746 814 747 775 776 775 748 751 776 711 815 751 777 778 816 777 778 817 816 784 717 779 818 780 752 819 752 753 781 819 753 820 754 755 781 754 821 756 820 755 757 822 756 758 823 757 759 824 758 760 825 759 826 760 782 782 761 827 761 762 827 762 763 828 829 763 764 830 764 765 831 765 766 783 832 766 767 833 783 768 833 767 784 834 768 779 718 785 769 835 785 720 787 786 835 769 786 787 721 788 788 722 789 723 790 789 836 790 770 725 792 791 836 770 791 792 726 793 727 794 793 795 794 728 795 729 796 837 796 771 772 837 771 798 797 731 797 838 772 798 732 799 733 800 799 734 801 800 801 773 839 803 802 736 839 773 802 737 804 803 805 804 738 805 739 806 806 740 807 809 807 742 808 840 774 774 840 809 811 808 744 810 811 743 810 745 812 813 812 746 814 813 747 841 814 775 776 841 775 776 751 842 751 815 842 816 815 777 817 843 816 817 844 843 784 779 845 846 780 818 818 752 819 781 847 819 754 820 821 847 781 821 756 822 820 757 823 822 758 824 823 759 825 824 826 825 760 848 826 782 848 782 827 827 762 828 828 763 829 830 829 764 831 830 765 832 831 766 849 832 783 833 849 783 768 834 833 850 834 784 845 779 785 835 851 785 787 852 786 852 835 786 853 787 788 854 788 789 790 855 789 856 790 836 792 857 791 857 836 791 792 793 858 793 794 859 795 860 794 861 795 796 837 862 796 772 838 837 863 797 798 863 838 797 864 798 799 800 865 799 801 866 800 801 839 867 802 803 868 839 802 868 804 869 803 870 804 805 805 806 871 806 807 872 873 807 809 808 874 840 840 875 809 811 874 808 810 876 811 877 810 812 813 878 812 814 879 813 880 814 841 881 841 776 881 776 842 815 882 842 883 815 816 816 843 884 843 844 885 844 886 885 850 784 845 846 818 887 818 819 888 847 889 819 820 890 821 890 847 821 820 822 891 822 823 892 823 824 893 824 825 894 826 895 825 896 826 848 897 848 827 897 827 828 898 828 829 830 899 829 831 900 830 901 831 832 902 832 849 849 833 903 833 834 903 850 904 834 851 845 785 835 905 851 787 853 852 852 905 835 854 853 788 855 854 789 856 855 790 856 836 906 857 792 858 906 836 857 793 859 858 794 860 859 861 860 795 862 861 796 907 862 837 838 907 837 863 798 864 908 838 863 865 864 799 800 866 865 801 867 866 867 839 909 803 869 868 909 839 868 870 869 804 870 805 871 806 872 871 872 807 873 875 873 809 840 874 910 840 910 875 811 876 874 877 876 810 878 877 812 813 879 878 880 879 814 880 841 911 911 841 881 882 881 842 883 882 815 883 816 884 884 843 912 843 885 912 886 913 885 914 850 845 915 846 887 887 818 888 819 889 888 916 889 847 820 891 890 916 847 890 891 822 892 823 893 892 893 824 894 825 895 894 896 895 826 917 896 848 897 917 848 898 897 828 899 898 829 830 900 899 901 900 831 901 832 902 902 849 918 849 903 918 834 904 903 919 904 850 851 914 845 851 905 920 853 921 852 921 905 852 854 922 853 855 923 854 924 855 856 856 906 925 926 857 858 906 857 926 859 927 858 860 928 859 861 929 860 862 930 861 907 931 862 908 907 838 863 864 932 908 863 932 933 864 865 866 934 865 866 867 935 936 867 909 869 937 868 937 909 868 870 938 869 939 870 871 871 872 940 941 872 873 875 942 873 910 874 943 910 944 875 874 876 943 877 945 876 946 877 878 879 947 878 948 879 880 880 911 949 911 881 950 950 881 882 951 882 883 952 883 884 953 884 912 912 885 954 886 955 913 885 913 954 919 850 914 956 915 887 957 887 888 889 957 888 916 958 889 891 959 890 959 916 890 960 891 892 893 961 892 893 894 962 894 895 963 896 964 895 965 896 917 966 917 897 966 897 898 899 967 898 900 968 899 969 900 901 901 902 970 971 902 918 903 972 918 904 972 903 919 973 904 914 851 920 905 974 920 853 922 921 921 974 905 854 923 922 924 923 855 924 856 925 925 906 975 927 926 858 975 906 926 859 928 927 860 929 928 861 930 929 862 931 930 976 931 907 976 907 908 864 933 932 908 932 977 934 933 865 866 935 934 935 867 936 978 936 909 869 938 937 937 978 909 939 938 870 939 871 940 940 872 941 942 941 873 944 942 875 910 943 979 944 910 979 876 945 943 946 945 877 947 946 878 948 947 879 948 880 949 911 980 949 911 950 980 950 882 951 951 883 952 953 952 884 981 953 912 981 912 954 913 955 982 913 983 954 955 984 982 919 914 985 986 915 956 957 956 887 889 958 957 987 958 916 891 960 959 987 916 959 961 960 892 961 893 962 894 963 962 895 964 963 965 964 896 965 917 988 988 917 966 967 966 898 968 967 899 969 968 900 969 901 970 970 902 971 989 971 918 972 989 918 904 973 972 990 973 919 985 914 920 974 991 920 921 922 992 921 992 974 922 923 993 924 994 923 995 924 925 996 925 975 927 997 926 997 975 926 928 998 927 928 929 999 929 930 1000 930 931 1001 976 1002 931 976 908 977 932 933 1003 977 932 1003 934 1004 933 934 935 1005 935 936 1006 936 978 1007 937 938 1008 937 1008 978 939 1009 938 1010 939 940 1011 940 941 942 1012 941 1013 942 944 943 1014 979 1015 944 979 945 1014 943 1016 945 946 1017 946 947 1018 947 948 1019 948 949 980 1020 949 980 950 1021 1021 950 951 1022 951 952 953 1023 952 981 1024 953 983 981 954 913 982 1025 983 913 1025 984 1026 982 984 1027 1026 1028 1029 1030 1031 1028 1032 1027 1031 1033 990 919 985 986 956 1034 956 957 1035 958 1036 957 987 1037 958 960 1038 959 1038 987 959 1039 960 961 1040 961 962 963 1041 962 964 1042 963 1043 964 965 965 988 1044 988 966 1045 1045 966 967 1046 967 968 1047 968 969 1048 969 970 970 971 1049 989 1050 971 972 1051 989 972 973 1051 990 1052 973 991 985 920 974 1053 991 992 922 993 974 992 1053 923 994 993 995 994 924 996 995 925 1054 996 975 998 997 927 997 1054 975 928 999 998 999 929 1000 930 1001 1000 931 1002 1001 1055 1002 976 1055 976 977 933 1004 1003 1056 977 1003 934 1005 1004 1005 935 1006 1006 936 1007 978 1057 1007 938 1009 1008 1008 1057 978 1010 1009 939 1011 1010 940 1012 1011 941 1013 1012 942 1015 1013 944 1014 1058 979 1058 1015 979 1016 1014 945 1016 946 1017 1017 947 1018 1018 948 1019 1020 1019 949 1020 980 1059 980 1021 1059 1021 951 1022 1023 1022 952 1024 1023 953 1060 1024 981 1060 981 983 982 1061 1025 1062 983 1025 982 1026 1061 1026 1027 1033 1028 1030 1032 1030 1029 1063 1033 1031 1032 1029 1064 1063 1065 990 985 1066 986 1034 1034 956 1035 957 1036 1035 958 1037 1036 987 1067 1037 1039 1038 960 1038 1067 987 1039 961 1040 1041 1040 962 963 1042 1041 1043 1042 964 1043 965 1044 988 1068 1044 988 1045 1068 1045 967 1046 1046 968 1047 1047 969 1048 1048 970 1049 971 1050 1049 989 1069 1050 989 1051 1069 973 1052 1051 1070 1052 990 991 1065 985 991 1053 1071 1072 992 993 1053 992 1072 994 1073 993 995 1074 994 1075 995 996 1054 1076 996 998 1077 997 997 1077 1054 998 999 1078 1079 999 1000 1001 1080 1000 1002 1081 1001 1055 1082 1002 1056 1055 977 1004 1083 1003 1083 1056 1003 1004 1005 1084 1085 1005 1006 1086 1006 1007 1057 1087 1007 1009 1088 1008 1008 1088 1057 1089 1009 1010 1090 1010 1011 1091 1011 1012 1092 1012 1013 1093 1013 1015 1094 1058 1014 1095 1015 1058 1094 1014 1016 1016 1017 1096 1017 1018 1097 1018 1019 1098 1099 1019 1020 1100 1020 1059 1059 1021 1101 1101 1021 1022 1023 1102 1022 1024 1103 1023 1060 1104 1024 1060 983 1062 1061 1062 1025 1061 1026 1105 1105 1026 1033 1032 1030 1106 1030 1063 1107 1108 1033 1032 1063 1064 1109 1064 1110 1109 1110 1111 1112 1070 990 1065 1113 1066 1034 1034 1035 1114 1036 1115 1035 1036 1037 1116 1037 1067 1117 1118 1038 1039 1118 1067 1038 1119 1039 1040 1041 1120 1040 1041 1042 1121 1043 1122 1042 1123 1043 1044 1044 1068 1124 1045 1125 1068 1045 1046 1125 1046 1047 1126 1047 1048 1127 1128 1048 1049 1050 1129 1049 1069 1130 1050 1051 1131 1069 1052 1131 1051 1070 1132 1052 1065 991 1071 1053 1133 1071 1073 1072 993 1053 1072 1133 994 1074 1073 1075 1074 995 1076 1075 996 1134 1076 1054 998 1078 1077 1077 1134 1054 1078 999 1079 1080 1079 1000 1001 1081 1080 1002 1082 1081 1135 1082 1055 1135 1055 1056 1004 1084 1083 1056 1083 1136 1084 1005 1085 1085 1006 1086 1087 1086 1007 1137 1087 1057 1089 1088 1009 1088 1137 1057 1089 1010 1090 1090 1011 1091 1091 1012 1092 1092 1013 1093 1093 1015 1095 1138 1058 1094 1095 1058 1138 1094 1016 1096 1017 1097 1096 1018 1098 1097 1098 1019 1099 1099 1020 1100 1139 1100 1059 1139 1059 1101 1102 1101 1022 1023 1103 1102 1024 1104 1103 1140 1104 1060 1140 1060 1062 1062 1061 1141 1061 1105 1141 1105 1033 1108 1106 1030 1107 1108 1032 1106 1107 1063 1142 1063 1109 1142 1110 1112 1109 1112 1111 1143 1111 1144 1143 1070 1065 1145 1146 1066 1113 1113 1034 1114 1035 1115 1114 1036 1116 1115 1116 1037 1117 1067 1147 1117 1118 1039 1119 1118 1147 1067 1120 1119 1040 1120 1041 1121 1042 1122 1121 1123 1122 1043 1123 1044 1124 1124 1068 1148 1068 1125 1148 1125 1046 1126 1047 1127 1126 1127 1048 1128 1129 1128 1049 1050 1130 1129 1149 1130 1069 1131 1149 1069 1052 1132 1131 1150 1132 1070 1145 1065 1071 1133 1151 1071 1072 1073 1152 1133 1072 1152 1073 1074 1153 1075 1154 1074 1076 1155 1075 1134 1156 1076 1077 1078 1157 1077 1157 1134 1078 1079 1158 1079 1080 1159 1081 1160 1080 1081 1082 1161 1135 1162 1082 1135 1056 1136 1083 1084 1163 1136 1083 1163 1084 1085 1164 1165 1085 1086 1087 1166 1086 1137 1167 1087 1168 1088 1089 1168 1137 1088 1089 1090 1169 1090 1091 1170 1091 1092 1171 1092 1093 1172 1093 1095 1173 1138 1094 1174 1095 1138 1175 1094 1096 1174 1096 1097 1176 1097 1098 1177 1098 1099 1178 1179 1099 1100 1139 1180 1100 1181 1139 1101 1102 1181 1101 1102 1103 1182 1103 1104 1183 1140 1184 1104 1185 1140 1062 1185 1062 1141 1105 1186 1141 1105 1108 1186 1187 1106 1107 1188 1108 1106 1189 1107 1142 1109 1190 1142 1109 1112 1190 1112 1143 1191 1144 1192 1143 1150 1070 1145 1146 1113 1193 1194 1113 1114 1115 1194 1114 1115 1116 1195 1116 1117 1196 1147 1197 1117 1198 1118 1119 1198 1147 1118 1120 1199 1119 1200 1120 1121 1122 1201 1121 1202 1122 1123 1203 1123 1124 1204 1124 1148 1148 1125 1205 1125 1126 1205 1126 1127 1206 1207 1127 1128 1208 1128 1129 1130 1209 1129 1210 1130 1149 1149 1131 1211 1131 1132 1211 1150 1212 1132 1151 1145 1071 1133 1213 1151 1152 1073 1153 1213 1133 1152 1074 1154 1153 1075 1155 1154 1076 1156 1155 1134 1214 1156 1157 1078 1158 1134 1157 1214 1158 1079 1159 1080 1160 1159 1160 1081 1161 1082 1162 1161 1215 1162 1135 1215 1135 1136 1163 1084 1164 1216 1136 1163 1164 1085 1165 1166 1165 1086 1087 1167 1166 1217 1167 1137 1168 1089 1169 1217 1137 1168 1090 1170 1169 1091 1171 1170 1171 1092 1172 1172 1093 1173 1095 1175 1173 1218 1138 1174 1175 1138 1218 1174 1096 1176 1176 1097 1177 1177 1098 1178 1178 1099 1179 1180 1179 1100 1219 1180 1139 1219 1139 1181 1102 1182 1181 1182 1103 1183 1104 1184 1183 1220 1184 1140 1220 1140 1185 1185 1141 1221 1141 1186 1221 1186 1108 1222 1187 1188 1106 1189 1187 1107 1108 1188 1222 1190 1189 1142 1190 1112 1191 1191 1143 1223 1144 1224 1192 1143 1192 1223 1225 1150 1145 1226 1146 1193 1113 1227 1193 1227 1113 1194 1194 1115 1195 1116 1196 1195 1117 1197 1196 1147 1228 1197 1199 1198 1119 1198 1228 1147 1200 1199 1120 1201 1200 1121 1202 1201 1122 1202 1123 1203 1204 1203 1124 1229 1204 1148 1229 1148 1205 1126 1206 1205 1206 1127 1207 1208 1207 1128 1209 1208 1129 1210 1209 1130 1210 1149 1230 1149 1211 1230 1132 1212 1211 1231 1212 1150 1151 1225 1145 1151 1213 1232 1233 1152 1153 1233 1213 1152 1154 1234 1153 1154 1155 1235 1155 1156 1236 1156 1214 1237 1238 1157 1158 1214 1157 1238 1239 1158 1159 1160 1240 1159 1241 1160 1161 1162 1242 1161 1215 1243 1162 1216 1215 1136 1244 1163 1164 1244 1216 1163 1245 1164 1165 1166 1246 1165 1167 1247 1166 1248 1167 1217 1249 1168 1169 1217 1168 1249 1170 1250 1169 1170 1171 1251 1252 1171 1172 1253 1172 1173 1175 1254 1173 1255 1218 1174 1175 1218 1256 1255 1174 1176 1257 1176 1177 1258 1177 1178 1259 1178 1179 1180 1260 1179 1219 1261 1180 1262 1219 1181 1182 1262 1181 1263 1182 1183 1184 1264 1183 1220 1265 1184 1220 1185 1266 1266 1185 1221 1186 1267 1221 1267 1186 1222 1187 1268 1188 1269 1187 1189 1188 1270 1222 1189 1190 1271 1272 1190 1191 1273 1191 1223 1192 1224 1274 1192 1275 1223 1224 1276 1274 1231 1150 1225 1226 1193 1277 1227 1278 1193 1279 1227 1194 1279 1194 1195 1196 1280 1195 1196 1197 1281 1197 1228 1282 1199 1283 1198 1198 1283 1228 1200 1284 1199 1201 1285 1200 1202 1286 1201 1287 1202 1203 1204 1288 1203 1229 1289 1204 1290 1229 1205 1206 1290 1205 1291 1206 1207 1208 1292 1207 1209 1293 1208 1294 1209 1210 1295 1210 1230 1211 1296 1230 1212 1296 1211 1231 1297 1212 1225 1151 1232 1213 1298 1232 1234 1233 1153 1233 1298 1213 1154 1235 1234 1235 1155 1236 1156 1237 1236 1237 1214 1299 1239 1238 1158 1299 1214 1238 1240 1239 1159 1241 1240 1160 1242 1241 1161 1162 1243 1242 1215 1300 1243 1216 1300 1215 1245 1244 1164 1301 1216 1244 1246 1245 1165 1166 1247 1246 1248 1247 1167 1248 1217 1302 1250 1249 1169 1217 1249 1302 1250 1170 1251 1171 1252 1251 1253 1252 1172 1254 1253 1173 1175 1256 1254 1303 1218 1255 1256 1218 1303 1255 1176 1257 1258 1257 1177 1259 1258 1178 1260 1259 1179 1180 1261 1260 1304 1261 1219 1304 1219 1262 1263 1262 1182 1264 1263 1183 1184 1265 1264 1305 1265 1220 1305 1220 1266 1267 1266 1221 1270 1267 1222 1269 1268 1187 1188 1268 1270 1269 1189 1271 1190 1272 1271 1273 1272 1191 1273 1223 1306 1192 1274 1275 1223 1275 1306 1274 1276 1307 1276 1308 1307 1231 1225 1309 1310 1226 1277 1193 1278 1277 1227 1311 1278 1279 1311 1227 1280 1279 1195 1280 1196 1281 1197 1282 1281 1228 1312 1282 1199 1284 1283 1228 1283 1312 1200 1285 1284 1201 1286 1285 1287 1286 1202 1288 1287 1203 1204 1289 1288 1313 1289 1229 1313 1229 1290 1290 1206 1291 1292 1291 1207 1208 1293 1292 1294 1293 1209 1294 1210 1295 1314 1295 1230 1296 1314 1230 1212 1297 1296 1315 1297 1231 1309 1225 1232 1298 1316 1232 1234 1317 1233 1233 1317 1298 1234 1235 1318 1235 1236 1319 1237 1320 1236 1237 1299 1321 1239 1322 1238 1322 1299 1238 1323 1239 1240 1241 1324 1240 1242 1325 1241 1242 1243 1326 1243 1300 1327 1301 1300 1216 1245 1328 1244 1328 1301 1244 1329 1245 1246 1247 1330 1246 1331 1247 1248 1248 1302 1332 1333 1249 1250 1249 1333 1302 1334 1250 1251 1252 1335 1251 1253 1336 1252 1337 1253 1254 1256 1338 1254 1303 1255 1339 1256 1303 1340 1339 1255 1257 1258 1341 1257 1259 1342 1258 1343 1259 1260 1261 1344 1260 1345 1261 1304 1304 1262 1346 1346 1262 1263 1263 1264 1347 1265 1348 1264 1305 1349 1265 1350 1305 1266 1267 1350 1266 1351 1267 1270 1269 1352 1268 1268 1353 1270 1354 1269 1271 1272 1355 1271 1356 1272 1273 1357 1273 1306 1275 1274 1358 1275 1359 1306 1360 1274 1307 1308 1361 1307 1315 1231 1309 1362 1310 1277 1278 1362 1277 1278 1311 1363 1364 1311 1279 1364 1279 1280 1365 1280 1281 1282 1366 1281 1282 1312 1367 1283 1284 1368 1312 1283 1368 1284 1285 1369 1285 1286 1370 1287 1371 1286 1372 1287 1288 1289 1373 1288 1374 1289 1313 1313 1290 1375 1375 1290 1291 1292 1376 1291 1293 1377 1292 1378 1293 1294 1379 1294 1295 1314 1380 1295 1296 1381 1314 1296 1297 1381 1315 1382 1297 1316 1309 1232 1298 1383 1316 1234 1318 1317 1298 1317 1383 1318 1235 1319 1236 1320 1319 1237 1321 1320 1321 1299 1384 1323 1322 1239 1384 1299 1322 1324 1323 1240 1241 1325 1324 1242 1326 1325 1326 1243 1327 1300 1385 1327 1301 1385 1300 1329 1328 1245 1328 1386 1301 1330 1329 1246 1331 1330 1247 1331 1248 1332 1302 1387 1332 1334 1333 1250 1333 1387 1302 1335 1334 1251 1252 1336 1335 1337 1336 1253 1338 1337 1254 1256 1340 1338 1388 1303 1339 1340 1303 1388 1341 1339 1257 1258 1342 1341 1343 1342 1259 1344 1343 1260 1345 1344 1261 1345 1304 1389 1304 1346 1389 1346 1263 1347 1264 1348 1347 1265 1349 1348 1305 1390 1349 1350 1390 1305 1351 1350 1267 1353 1351 1270 1354 1352 1269 1268 1352 1353 1355 1354 1271 1356 1355 1272 1356 1273 1357 1359 1357 1306 1274 1360 1358 1359 1275 1358 1360 1307 1391 1308 1392 1361 1307 1361 1391 1393 1315 1309 1394 1310 1362 1362 1278 1363 1311 1395 1363 1364 1395 1311 1364 1280 1365 1366 1365 1281 1282 1367 1366 1312 1396 1367 1284 1369 1368 1396 1312 1368 1369 1285 1370 1286 1371 1370 1372 1371 1287 1373 1372 1288 1374 1373 1289 1374 1313 1397 1397 1313 1375 1376 1375 1291 1377 1376 1292 1378 1377 1293 1378 1294 1379 1380 1379 1295 1314 1398 1380 1314 1381 1398 1297 1382 1381 1399 1382 1315 1316 1393 1309 1316 1383 1400 1317 1318 1401 1317 1401 1383 1402 1318 1319 1320 1403 1319 1320 1321 1404 1321 1384 1405 1406 1322 1323 1384 1322 1406 1323 1324 1407 1324 1325 1408 1325 1326 1409 1410 1326 1327 1385 1411 1327 1301 1386 1385 1329 1412 1328 1328 1412 1386 1330 1413 1329 1331 1414 1330 1415 1331 1332 1332 1387 1416 1334 1417 1333 1333 1417 1387 1418 1334 1335 1336 1419 1335 1337 1420 1336 1338 1421 1337 1338 1340 1422 1423 1388 1339 1340 1388 1424 1341 1423 1339 1341 1342 1425 1343 1426 1342 1344 1427 1343 1345 1428 1344 1429 1345 1389 1389 1346 1430 1430 1346 1347 1348 1431 1347 1348 1349 1432 1349 1390 1433 1434 1390 1350 1434 1350 1351 1435 1351 1353 1436 1352 1354 1352 1437 1353 1438 1354 1355 1439 1355 1356 1440 1356 1357 1359 1441 1357 1360 1442 1358 1442 1359 1358 1443 1360 1391 1361 1392 1444 1361 1445 1391 1392 1446 1444 1447 1448 1449 1446 1447 1450 1399 1315 1393 1394 1362 1451 1362 1363 1452 1395 1453 1363 1454 1395 1364 1454 1364 1365 1366 1455 1365 1366 1367 1456 1367 1396 1457 1369 1458 1368 1458 1396 1368 1459 1369 1370 1370 1371 1460 1372 1461 1371 1462 1372 1373 1463 1373 1374 1464 1374 1397 1465 1397 1375 1376 1465 1375 1377 1466 1376 1467 1377 1378 1378 1379 1468 1379 1380 1469 1398 1470 1380 1398 1381 1471 1381 1382 1471 1399 1472 1382 1393 1316 1400 1383 1473 1400 1401 1318 1402 1401 1473 1383 1403 1402 1319 1403 1320 1404 1404 1321 1405 1384 1474 1405 1406 1323 1407 1384 1406 1474 1407 1324 1408 1325 1409 1408 1326 1410 1409 1411 1410 1327 1411 1385 1475 1385 1386 1475 1329 1413 1412 1386 1412 1476 1330 1414 1413 1415 1414 1331 1415 1332 1416 1416 1387 1477 1418 1417 1334 1387 1417 1477 1419 1418 1335 1336 1420 1419 1337 1421 1420 1338 1422 1421 1422 1340 1424 1388 1423 1478 1424 1388 1478 1341 1425 1423 1342 1426 1425 1343 1427 1426 1344 1428 1427 1429 1428 1345 1429 1389 1479 1389 1430 1479 1431 1430 1347 1348 1432 1431 1432 1349 1433 1390 1480 1433 1434 1480 1390 1434 1351 1435 1437 1435 1353 1436 1437 1352 1436 1354 1438 1438 1355 1439 1439 1356 1440 1441 1440 1357 1359 1481 1441 1443 1442 1360 1442 1481 1359 1445 1443 1391 1361 1444 1445 1446 1450 1444 1450 1447 1449 1448 1482 1449 1448 1483 1482 1399 1393 1484 1485 1394 1451 1362 1452 1451 1363 1453 1452 1395 1486 1453 1454 1486 1395 1455 1454 1365 1455 1366 1456 1367 1457 1456 1396 1487 1457 1458 1369 1459 1458 1487 1396 1459 1370 1460 1371 1461 1460 1462 1461 1372 1462 1373 1463 1463 1374 1464 1488 1464 1397 1465 1488 1397 1376 1466 1465 1467 1466 1377 1467 1378 1468 1468 1379 1469 1380 1470 1469 1398 1489 1470 1398 1471 1489 1382 1472 1471 1490 1472 1399 1484 1393 1400 1473 1491 1400 1401 1402 1492 1401 1492 1473 1493 1402 1403 1494 1403 1404 1495 1404 1405 1405 1474 1496 1497 1406 1407 1474 1406 1497 1498 1407 1408 1409 1499 1408 1410 1500 1409 1501 1410 1411 1502 1411 1475 1386 1476 1475 1412 1413 1503 1476 1412 1503 1413 1414 1504 1415 1505 1414 1506 1415 1416 1507 1416 1477 1418 1508 1417 1417 1508 1477 1419 1509 1418 1419 1420 1510 1420 1421 1511 1421 1422 1512 1513 1422 1424 1423 1514 1478 1515 1424 1478 1425 1514 1423 1426 1516 1425 1426 1427 1517 1427 1428 1518 1429 1519 1428 1520 1429 1479 1479 1430 1521 1521 1430 1431 1432 1522 1431 1523 1432 1433 1480 1524 1433 1525 1480 1434 1525 1434 1435 1437 1526 1435 1527 1437 1436 1436 1438 1528 1438 1439 1529 1439 1440 1530 1440 1441 1531 1481 1532 1441 1533 1442 1443 1533 1481 1442 1534 1443 1445 1444 1535 1445 1444 1450 1535 1450 1449 1536 1449 1482 1537 1482 1483 1538 1483 1539 1538 1539 1540 1541 1490 1399 1484 1485 1451 1542 1452 1543 1451 1453 1544 1452 1453 1486 1545 1454 1546 1486 1455 1546 1454 1547 1455 1456 1457 1548 1456 1457 1487 1549 1550 1458 1459 1550 1487 1458 1551 1459 1460 1461 1552 1460 1553 1461 1462 1462 1463 1554 1463 1464 1555 1556 1464 1488 1465 1557 1488 1466 1557 1465 1467 1558 1466 1559 1467 1468 1560 1468 1469 1470 1561 1469 1489 1562 1470 1471 1563 1489 1472 1563 1471 1490 1564 1472 1491 1484 1400 1473 1565 1491 1492 1402 1493 1473 1492 1565 1494 1493 1403 1495 1494 1404 1495 1405 1496 1474 1566 1496 1498 1497 1407 1474 1497 1566 1499 1498 1408 1500 1499 1409 1501 1500 1410 1501 1411 1502 1567 1502 1475 1476 1567 1475 1503 1413 1504 1476 1503 1568 1414 1505 1504 1506 1505 1415 1507 1506 1416 1569 1507 1477 1418 1509 1508 1508 1569 1477 1419 1510 1509 1510 1420 1511 1421 1512 1511 1512 1422 1513 1513 1424 1515 1514 1570 1478 1570 1515 1478 1425 1516 1514 1426 1517 1516 1517 1427 1518 1428 1519 1518 1520 1519 1429 1571 1520 1479 1571 1479 1521 1522 1521 1431 1523 1522 1432 1524 1523 1433 1480 1572 1524 1525 1572 1480 1526 1525 1435 1527 1526 1437 1527 1436 1528 1438 1529 1528 1529 1439 1530 1530 1440 1531 1441 1532 1531 1573 1532 1481 1533 1443 1534 1573 1481 1533 1574 1534 1445 1535 1574 1445 1535 1450 1536 1536 1449 1537 1537 1482 1575 1482 1538 1575 1539 1541 1538 1540 1576 1541 1540 1577 1576 1578 1490 1484 1579 1485 1542 1451 1543 1542 1544 1543 1452 1453 1545 1544 1545 1486 1580 1486 1546 1580 1547 1546 1455 1548 1547 1456 1548 1457 1549 1487 1581 1549 1550 1459 1551 1550 1581 1487 1552 1551 1460 1553 1552 1461 1553 1462 1554 1463 1555 1554 1555 1464 1556 1582 1556 1488 1557 1582 1488 1466 1558 1557 1559 1558 1467 1560 1559 1468 1561 1560 1469 1470 1562 1561 1583 1562 1489 1563 1583 1489 1472 1564 1563 1584 1564 1490 1491 1578 1484 1491 1565 1585 1492 1493 1586 1565 1492 1586 1494 1587 1493 1588 1494 1495 1589 1495 1496 1566 1590 1496 1591 1497 1498 1566 1497 1591 1592 1498 1499 1500 1593 1499 1594 1500 1501 1595 1501 1502 1567 1596 1502 1476 1568 1567 1597 1503 1504 1568 1503 1597 1505 1598 1504 1506 1599 1505 1600 1506 1507 1507 1569 1601 1508 1509 1602 1508 1602 1569 1509 1510 1603 1510 1511 1604 1512 1605 1511 1512 1513 1606 1607 1513 1515 1608 1570 1514 1570 1609 1515 1516 1608 1514 1516 1517 1610 1611 1517 1518 1519 1612 1518 1520 1613 1519 1614 1520 1571 1571 1521 1615 1521 1522 1615 1523 1616 1522 1524 1617 1523 1524 1572 1618 1525 1619 1572 1526 1619 1525 1620 1526 1527 1527 1528 1621 1528 1529 1622 1623 1529 1530 1624 1530 1531 1532 1625 1531 1573 1626 1532 1627 1533 1534 1573 1533 1627 1574 1628 1534 1629 1574 1535 1629 1535 1536 1630 1536 1537 1631 1537 1575 1538 1632 1575 1541 1632 1538 1541 1576 1633 1576 1577 1634 1577 1635 1634 1584 1490 1578 1636 1579 1542 1542 1543 1637 1544 1638 1543 1544 1545 1639 1640 1545 1580 1546 1641 1580 1547 1641 1546 1642 1547 1548 1643 1548 1549 1581 1644 1549 1645 1550 1551 1645 1581 1550 1552 1646 1551 1647 1552 1553 1553 1554 1648 1554 1555 1649 1555 1556 1650 1651 1556 1582 1557 1652 1582 1557 1558 1652 1559 1653 1558 1654 1559 1560 1655 1560 1561 1562 1656 1561 1657 1562 1583 1583 1563 1658 1563 1564 1658 1584 1659 1564 1491 1585 1578 1585 1565 1660 1493 1587 1586 1660 1565 1586 1588 1587 1494 1588 1495 1589 1590 1589 1496 1566 1661 1590 1591 1498 1592 1566 1591 1661 1593 1592 1499 1594 1593 1500 1594 1501 1595 1596 1595 1502 1596 1567 1662 1567 1568 1662 1598 1597 1504 1568 1597 1663 1505 1599 1598 1600 1599 1506 1600 1507 1601 1569 1664 1601 1602 1509 1603 1569 1602 1664 1510 1604 1603 1511 1605 1604 1512 1606 1605 1606 1513 1607 1609 1607 1515 1608 1665 1570 1570 1665 1609 1516 1610 1608 1610 1517 1611 1612 1611 1518 1519 1613 1612 1614 1613 1520 1614 1571 1666 1666 1571 1615 1522 1616 1615 1523 1617 1616 1524 1618 1617 1618 1572 1667 1572 1619 1667 1620 1619 1526 1620 1527 1621 1528 1622 1621 1622 1529 1623 1624 1623 1530 1625 1624 1531 1532 1626 1625 1668 1626 1573 1628 1627 1534 1668 1573 1627 1574 1669 1628 1629 1669 1574 1630 1629 1536 1631 1630 1537 1632 1631 1575 1632 1541 1633 1633 1576 1670 1576 1634 1670 1635 1671 1634 1635 1672 1671 1673 1584 1578 1674 1579 1636 1636 1542 1637 1543 1638 1637 1544 1639 1638 1639 1545 1640 1675 1640 1580 1641 1675 1580 1642 1641 1547 1642 1548 1643 1644 1643 1549 1581 1676 1644 1646 1645 1551 1645 1676 1581 1647 1646 1552 1647 1553 1648 1554 1649 1648 1649 1555 1650 1650 1556 1651 1677 1651 1582 1652 1677 1582 1558 1653 1652 1654 1653 1559 1654 1560 1655 1656 1655 1561 1657 1656 1562 1657 1583 1678 1678 1583 1658 1564 1659 1658 1679 1659 1584 1585 1673 1578 1585 1660 1680 1587 1681 1586 1681 1660 1586 1588 1682 1587 1683 1588 1589 1590 1684 1589 1590 1661 1685 1591 1592 1686 1661 1591 1686 1593 1687 1592 1594 1688 1593 1689 1594 1595 1596 1690 1595 1691 1596 1662 1568 1663 1662 1597 1598 1692 1663 1597 1692 1598 1599 1693 1600 1694 1599 1695 1600 1601 1601 1664 1696 1602 1603 1697 1664 1602 1697 1603 1604 1698 1604 1605 1699 1605 1606 1700 1606 1607 1701 1702 1607 1609 1608 1703 1665 1665 1704 1609 1608 1610 1703 1705 1610 1611 1706 1611 1612 1613 1707 1612 1708 1613 1614 1709 1614 1666 1710 1666 1615 1616 1710 1615 1617 1711 1616 1617 1618 1712 1713 1618 1667 1619 1714 1667 1620 1714 1619 1715 1620 1621 1621 1622 1716 1717 1622 1623 1624 1718 1623 1719 1624 1625 1626 1720 1625 1668 1721 1626 1628 1722 1627 1722 1668 1627 1628 1669 1723 1629 1724 1669 1630 1724 1629 1725 1630 1631 1632 1726 1631 1727 1632 1633 1728 1633 1670 1634 1729 1670 1634 1671 1730 1671 1672 1731 1672 1732 1731 1679 1584 1673 1674 1636 1733 1636 1637 1734 1638 1735 1637 1638 1639 1736 1639 1640 1737 1640 1675 1738 1739 1675 1641 1739 1641 1642 1642 1643 1740 1741 1643 1644 1676 1742 1644 1646 1743 1645 1645 1743 1676 1647 1744 1646 1745 1647 1648 1648 1649 1746 1747 1649 1650 1748 1650 1651 1677 1749 1651 1750 1677 1652 1653 1750 1652 1751 1653 1654 1752 1654 1655 1656 1753 1655 1657 1754 1656 1755 1657 1678 1756 1678 1658 1659 1756 1658 1679 1757 1659 1673 1585 1680 1660 1758 1680 1587 1682 1681 1758 1660 1681 1683 1682 1588 1684 1683 1589 1684 1590 1685 1661 1759 1685 1592 1687 1686 1759 1661 1686 1593 1688 1687 1689 1688 1594 1690 1689 1595 1691 1690 1596 1760 1691 1662 1663 1760 1662 1692 1598 1693 1663 1692 1761 1599 1694 1693 1695 1694 1600 1695 1601 1696 1696 1664 1762 1697 1603 1698 1762 1664 1697 1698 1604 1699 1699 1605 1700 1700 1606 1701 1701 1607 1702 1704 1702 1609 1665 1703 1763 1704 1665 1763 1703 1610 1705 1706 1705 1611 1707 1706 1612 1708 1707 1613 1708 1614 1709 1764 1709 1666 1710 1764 1666 1711 1710 1616 1617 1712 1711 1712 1618 1713 1765 1713 1667 1714 1765 1667 1715 1714 1620 1715 1621 1716 1716 1622 1717 1718 1717 1623 1719 1718 1624 1720 1719 1625 1626 1721 1720 1668 1766 1721 1722 1628 1723 1722 1766 1668 1669 1767 1723 1669 1724 1767 1725 1724 1630 1726 1725 1631 1727 1726 1632 1728 1727 1633 1729 1728 1670 1729 1634 1730 1671 1731 1730 1731 1732 1768 1732 1769 1768 1679 1673 1770 1771 1674 1733 1733 1636 1734 1637 1735 1734 1735 1638 1736 1736 1639 1737 1640 1738 1737 1675 1772 1738 1739 1772 1675 1739 1642 1740 1740 1643 1741 1742 1741 1644 1676 1773 1742 1646 1744 1743 1676 1743 1773 1745 1744 1647 1745 1648 1746 1746 1649 1747 1748 1747 1650 1749 1748 1651 1677 1774 1749 1750 1774 1677 1751 1750 1653 1751 1654 1752 1753 1752 1655 1656 1754 1753 1755 1754 1657 1775 1755 1678 1756 1775 1678 1659 1757 1756 1776 1757 1679 1770 1673 1680 1758 1777 1680 1682 1778 1681 1778 1758 1681 1683 1779 1682 1684 1780 1683 1781 1684 1685 1759 1782 1685 1686 1687 1783 1759 1686 1783 1687 1688 1784 1689 1785 1688 1786 1689 1690 1787 1690 1691 1788 1691 1760 1760 1663 1761 1692 1693 1789 1692 1789 1761 1693 1694 1790 1695 1791 1694 1792 1695 1696 1793 1696 1762 1794 1697 1698 1794 1762 1697 1795 1698 1699 1796 1699 1700 1797 1700 1701 1798 1701 1702 1704 1799 1702 1703 1800 1763 1801 1704 1763 1703 1705 1800 1705 1706 1802 1707 1803 1706 1804 1707 1708 1708 1709 1805 1709 1764 1806 1710 1807 1764 1711 1807 1710 1711 1712 1808 1712 1713 1809 1713 1765 1810 1714 1811 1765 1715 1811 1714 1812 1715 1716 1813 1716 1717 1718 1814 1717 1719 1815 1718 1720 1816 1719 1720 1721 1817 1721 1766 1818 1819 1722 1723 1819 1766 1722 1767 1820 1723 1724 1821 1767 1725 1821 1724 1726 1822 1725 1727 1823 1726 1824 1727 1728 1825 1728 1729 1826 1729 1730 1731 1827 1730 1828 1731 1768 1769 1829 1768 1776 1679 1770 1830 1771 1733 1831 1733 1734 1735 1831 1734 1832 1735 1736 1833 1736 1737 1738 1834 1737 1772 1835 1738 1836 1772 1739 1836 1739 1740 1837 1740 1741 1742 1838 1741 1742 1773 1839 1743 1744 1840 1773 1743 1840 1745 1841 1744 1842 1745 1746 1843 1746 1747 1748 1844 1747 1845 1748 1749 1774 1846 1749 1847 1774 1750 1847 1750 1751 1751 1752 1848 1849 1752 1753 1754 1850 1753 1755 1851 1754 1852 1755 1775 1775 1756 1853 1756 1757 1853 1776 1854 1757 1777 1770 1680 1758 1855 1777 1682 1779 1778 1778 1855 1758 1683 1780 1779 1781 1780 1684 1782 1781 1685 1856 1782 1759 1783 1687 1784 1856 1759 1783 1688 1785 1784 1786 1785 1689 1786 1690 1787 1787 1691 1788 1788 1760 1857 1857 1760 1761 1789 1693 1790 1789 1858 1761 1694 1791 1790 1792 1791 1695 1793 1792 1696 1859 1793 1762 1795 1794 1698 1794 1859 1762 1796 1795 1699 1797 1796 1700 1798 1797 1701 1799 1798 1702 1801 1799 1704 1800 1860 1763 1860 1801 1763 1800 1705 1802 1706 1803 1802 1804 1803 1707 1804 1708 1805 1805 1709 1806 1764 1861 1806 1807 1861 1764 1711 1808 1807 1808 1712 1809 1713 1810 1809 1765 1862 1810 1811 1862 1765 1812 1811 1715 1813 1812 1716 1814 1813 1717 1718 1815 1814 1719 1816 1815 1720 1817 1816 1817 1721 1818 1766 1863 1818 1820 1819 1723 1819 1863 1766 1820 1767 1864 1767 1821 1864 1725 1822 1821 1726 1823 1822 1824 1823 1727 1824 1728 1825 1825 1729 1865 1729 1826 1865 1827 1826 1730 1828 1827 1731 1829 1828 1768 1866 1776 1770 1867 1771 1830 1831 1830 1733 1832 1831 1735 1833 1832 1736 1834 1833 1737 1738 1835 1834 1772 1868 1835 1836 1868 1772 1837 1836 1740 1838 1837 1741 1742 1839 1838 1839 1773 1869 1744 1841 1840 1869 1773 1840 1842 1841 1745 1843 1842 1746 1844 1843 1747 1845 1844 1748 1846 1845 1749 1870 1846 1774 1870 1774 1847 1847 1751 1848 1848 1752 1849 1850 1849 1753 1754 1851 1850 1852 1851 1755 1852 1775 1871 1775 1853 1871 1757 1854 1853 1872 1854 1776 1777 1866 1770 1777 1855 1873 1778 1779 1874 1778 1874 1855 1779 1780 1875 1781 1876 1780 1782 1877 1781 1856 1878 1782 1879 1783 1784 1879 1856 1783 1785 1880 1784 1881 1785 1786 1786 1787 1882 1787 1788 1883 1884 1788 1857 1858 1857 1761 1789 1790 1885 1789 1885 1858 1791 1886 1790 1792 1887 1791 1793 1888 1792 1859 1889 1793 1890 1794 1795 1890 1859 1794 1796 1891 1795 1892 1796 1797 1798 1893 1797 1894 1798 1799 1801 1895 1799 1860 1800 1896 1897 1801 1860 1800 1802 1896 1803 1898 1802 1899 1803 1804 1900 1804 1805 1901 1805 1806 1861 1902 1806 1807 1903 1861 1808 1903 1807 1904 1808 1809 1810 1905 1809 1862 1906 1810 1811 1907 1862 1812 1907 1811 1908 1812 1813 1909 1813 1814 1815 1910 1814 1815 1816 1911 1816 1817 1912 1913 1817 1818 1863 1914 1818 1820 1915 1819 1819 1915 1863 1916 1820 1864 1821 1917 1864 1821 1822 1917 1822 1823 1918 1824 1919 1823 1920 1824 1825 1921 1825 1865 1826 1922 1865 1827 1923 1826 1924 1827 1828 1829 1925 1828 1872 1776 1866 1926 1867 1830 1830 1831 1927 1832 1928 1831 1929 1832 1833 1930 1833 1834 1835 1931 1834 1835 1868 1932 1933 1868 1836 1933 1836 1837 1934 1837 1838 1839 1935 1838 1839 1869 1936 1840 1841 1937 1869 1840 1937 1842 1938 1841 1939 1842 1843 1940 1843 1844 1941 1844 1845 1942 1845 1846 1943 1846 1870 1870 1847 1944 1847 1848 1944 1945 1848 1849 1850 1946 1849 1851 1947 1850 1948 1851 1852 1949 1852 1871 1853 1950 1871 1854 1950 1853 1872 1951 1854 1866 1777 1873 1855 1952 1873 1874 1779 1875 1855 1874 1952 1780 1876 1875 1781 1877 1876 1782 1878 1877 1856 1953 1878 1880 1879 1784 1879 1953 1856 1881 1880 1785 1881 1786 1882 1787 1883 1882 1883 1788 1884 1884 1857 1954 1857 1858 1954 1790 1886 1885 1885 1955 1858 1791 1887 1886 1792 1888 1887 1793 1889 1888 1859 1956 1889 1891 1890 1795 1890 1956 1859 1892 1891 1796 1893 1892 1797 1894 1893 1798 1895 1894 1799 1897 1895 1801 1957 1860 1896 1957 1897 1860 1802 1898 1896 1899 1898 1803 1899 1804 1900 1900 1805 1901 1902 1901 1806 1902 1861 1958 1861 1903 1958 1904 1903 1808 1905 1904 1809 1906 1905 1810 1906 1862 1959 1862 1907 1959 1908 1907 1812 1908 1813 1909 1910 1909 1814 1815 1911 1910 1911 1816 1912 1817 1913 1912 1914 1913 1818 1914 1863 1960 1916 1915 1820 1863 1915 1960 1961 1916 1864 1917 1961 1864 1917 1822 1918 1823 1919 1918 1920 1919 1824 1921 1920 1825 1922 1921 1865 1826 1923 1922 1924 1923 1827 1925 1924 1828 1872 1866 1962 1963 1867 1926 1926 1830 1927 1831 1928 1927 1929 1928 1832 1929 1833 1930 1931 1930 1834 1931 1835 1932 1868 1964 1932 1933 1964 1868 1933 1837 1934 1935 1934 1838 1935 1839 1936 1869 1965 1936 1841 1938 1937 1965 1869 1937 1939 1938 1842 1939 1843 1940 1940 1844 1941 1941 1845 1942 1942 1846 1943 1943 1870 1966 1966 1870 1944 1944 1848 1945 1946 1945 1849 1947 1946 1850 1948 1947 1851 1948 1852 1949 1967 1949 1871 1950 1967 1871 1854 1951 1950 1968 1951 1872 1962 1866 1873 1952 1969 1873 1970 1874 1875 1952 1874 1970 1876 1971 1875 1876 1877 1972 1877 1878 1973 1878 1953 1974 1880 1975 1879 1879 1975 1953 1976 1880 1881 1881 1882 1977 1882 1883 1978 1883 1884 1979 1980 1884 1954 1858 1955 1954 1886 1981 1885 1981 1955 1885 1886 1887 1982 1887 1888 1983 1888 1889 1984 1889 1956 1985 1891 1986 1890 1890 1986 1956 1892 1987 1891 1893 1988 1892 1894 1989 1893 1895 1990 1894 1897 1991 1895 1992 1957 1896 1957 1993 1897 1898 1992 1896 1994 1898 1899 1899 1900 1995 1996 1900 1901 1902 1997 1901 1998 1902 1958 1903 1999 1958 1904 1999 1903 2000 1904 1905 2001 1905 1906 1906 1959 2002 1907 2003 1959 1908 2003 1907 2004 1908 1909 1910 2005 1909 1911 2006 1910 2007 1911 1912 1913 2008 1912 2009 1913 1914 1914 1960 2010 1916 2011 1915 1915 2011 1960 2012 1916 1961 1961 1917 2013 1917 1918 2013 1919 2014 1918 1920 2015 1919 2016 1920 1921 2017 1921 1922 1923 2018 1922 1924 2019 1923 1925 2020 1924 1968 1872 1962 1963 1926 2021 1926 1927 2022 1928 2023 1927 1929 2024 1928 2025 1929 1930 2026 1930 1931 2027 1931 1932 1964 2028 1932 2029 1964 1933 2029 1933 1934 1935 2030 1934 2031 1935 1936 1965 2032 1936 1938 2033 1937 2033 1965 1937 2034 1938 1939 1939 1940 2035 1940 1941 2036 1941 1942 2037 1942 1943 2038 1943 1966 2039 2040 1966 1944 2040 1944 1945 1946 2041 1945 1947 2042 1946 1948 2043 1947 2044 1948 1949 1967 2045 1949 1950 2046 1967 1950 1951 2046 1968 2047 1951 1969 1962 1873 1952 2048 1969 1971 1970 1875 1952 1970 2048 1876 1972 1971 1972 1877 1973 1878 1974 1973 1974 1953 2049 1976 1975 1880 1953 1975 2049 1976 1881 1977 1882 1978 1977 1978 1883 1979 1979 1884 1980 2050 1980 1954 1955 2050 1954 1886 1982 1981 1981 2051 1955 1982 1887 1983 1983 1888 1984 1889 1985 1984 1985 1956 2052 1891 1987 1986 1956 1986 2052 1892 1988 1987 1893 1989 1988 1894 1990 1989 1895 1991 1990 1897 1993 1991 1992 2053 1957 1957 2053 1993 1994 1992 1898 1994 1899 1995 1995 1900 1996 1997 1996 1901 1998 1997 1902 2054 1998 1958 1999 2054 1958 2000 1999 1904 2000 1905 2001 2001 1906 2002 1959 2055 2002 2003 2055 1959 2004 2003 1908 2005 2004 1909 1910 2006 2005 2007 2006 1911 2008 2007 1912 2009 2008 1913 2009 1914 2010 1960 2056 2010 2012 2011 1916 2011 2056 1960 2012 1961 2057 2057 1961 2013 1918 2014 2013 1919 2015 2014 2016 2015 1920 2016 1921 2017 2018 2017 1922 2019 2018 1923 1924 2020 2019 2058 1968 1962 2059 1963 2021 2021 1926 2022 1927 2023 2022 1928 2024 2023 2025 2024 1929 2026 2025 1930 2027 2026 1931 2028 2027 1932 1964 2060 2028 2029 2060 1964 2030 2029 1934 2031 2030 1935 2032 2031 1936 1965 2061 2032 2034 2033 1938 2033 2061 1965 2034 1939 2035 1940 2036 2035 2036 1941 2037 1942 2038 2037 1943 2039 2038 2039 1966 2062 2062 1966 2040 2041 2040 1945 1946 2042 2041 1947 2043 2042 2044 2043 1948 2045 2044 1949 1967 2063 2045 1967 2046 2063 1951 2047 2046 2064 2047 1968 1969 2058 1962 1969 2048 2065 1971 2066 1970 1970 2066 2048 1971 1972 2067 2068 1972 1973 1973 1974 2069 1974 2049 2070 1976 2071 1975 1975 2071 2049 2072 1976 1977 1977 1978 2073 2074 1978 1979 2075 1979 1980 2050 2076 1980 1955 2051 2050 1981 1982 2077 1981 2077 2051 2078 1982 1983 2079 1983 1984 1985 2080 1984 2081 1985 2052 1986 1987 2082 1986 2082 2052 1987 1988 2083 1988 1989 2084 1989 1990 2085 1990 1991 2086 1991 1993 2087 1992 2088 2053 1993 2053 2089 1994 2088 1992 2090 1994 1995 2091 1995 1996 1997 2092 1996 1998 2093 1997 2054 2094 1998 2095 2054 1999 2095 1999 2000 2000 2001 2096 2097 2001 2002 2055 2098 2002 2003 2099 2055 2004 2099 2003 2100 2004 2005 2006 2101 2005 2102 2006 2007 2103 2007 2008 2104 2008 2009 2105 2009 2010 2056 2106 2010 2012 2107 2011 2011 2107 2056 2108 2012 2057 2109 2057 2013 2014 2109 2013 2014 2015 2110 2016 2111 2015 2112 2016 2017 2018 2113 2017 2114 2018 2019 2020 2115 2019 2064 1968 2058 2059 2021 2116 2117 2021 2022 2023 2118 2022 2023 2024 2119 2025 2120 2024 2121 2025 2026 2122 2026 2027 2123 2027 2028 2060 2124 2028 2125 2060 2029 2125 2029 2030 2031 2126 2030 2127 2031 2032 2061 2128 2032 2129 2033 2034 2129 2061 2033 2130 2034 2035 2035 2036 2131 2036 2037 2132 2037 2038 2133 2039 2134 2038 2039 2062 2135 2062 2040 2136 2136 2040 2041 2042 2137 2041 2043 2138 2042 2139 2043 2044 2140 2044 2045 2063 2141 2045 2063 2046 2142 2046 2047 2142 2064 2143 2047 1969 2065 2058 2065 2048 2144 1971 2067 2066 2048 2066 2144 2067 1972 2068 2068 1973 2069 1974 2070 2069 2070 2049 2145 2072 2071 1976 2049 2071 2145 2072 1977 2073 2073 1978 2074 2075 2074 1979 2076 2075 1980 2050 2146 2076 2051 2146 2050 2077 1982 2078 2051 2077 2147 2079 2078 1983 2080 2079 1984 1985 2081 2080 2081 2052 2148 2082 1987 2083 2052 2082 2148 1988 2084 2083 2084 1989 2085 1990 2086 2085 2086 1991 2087 1993 2089 2087 2053 2088 2149 2089 2053 2149 2090 2088 1994 2091 2090 1995 2092 2091 1996 1997 2093 2092 1998 2094 2093 2054 2150 2094 2095 2150 2054 2095 2000 2096 2096 2001 2097 2098 2097 2002 2151 2098 2055 2099 2151 2055 2100 2099 2004 2101 2100 2005 2102 2101 2006 2102 2007 2103 2103 2008 2104 2104 2009 2105 2106 2105 2010 2056 2152 2106 2108 2107 2012 2056 2107 2152 2153 2108 2057 2109 2153 2057 2014 2110 2109 2015 2111 2110 2112 2111 2016 2113 2112 2017 2114 2113 2018 2115 2114 2019 2154 2064 2058 2155 2059 2116 2021 2117 2116 2118 2117 2022 2118 2023 2119 2024 2120 2119 2121 2120 2025 2121 2026 2122 2122 2027 2123 2124 2123 2028 2060 2156 2124 2125 2156 2060 2126 2125 2030 2127 2126 2031 2128 2127 2032 2157 2128 2061 2129 2034 2130 2157 2061 2129 2130 2035 2131 2131 2036 2132 2037 2133 2132 2038 2134 2133 2039 2135 2134 2135 2062 2158 2158 2062 2136 2137 2136 2041 2042 2138 2137 2139 2138 2043 2139 2044 2140 2141 2140 2045 2063 2159 2141 2159 2063 2142 2047 2143 2142 2160 2143 2064 2065 2154 2058 2065 2144 2161 2066 2067 2162 2144 2066 2162 2067 2068 2163 2164 2068 2069 2070 2165 2069 2166 2070 2145 2072 2167 2071 2071 2167 2145 2168 2072 2073 2169 2073 2074 2075 2170 2074 2171 2075 2076 2146 2172 2076 2051 2147 2146 2077 2078 2173 2147 2077 2173 2174 2078 2079 2175 2079 2080 2081 2176 2080 2177 2081 2148 2082 2083 2178 2148 2082 2178 2084 2179 2083 2084 2085 2180 2086 2181 2085 2182 2086 2087 2087 2089 2183 2088 2184 2149 2089 2149 2185 2090 2184 2088 2186 2090 2091 2187 2091 2092 2093 2188 2092 2093 2094 2189 2094 2150 2190 2191 2150 2095 2191 2095 2096 2192 2096 2097 2098 2193 2097 2151 2194 2098 2099 2195 2151 2100 2195 2099 2101 2196 2100 2197 2101 2102 2102 2103 2198 2103 2104 2199 2200 2104 2105 2106 2201 2105 2152 2202 2106 2108 2203 2107 2107 2203 2152 2204 2108 2153 2153 2109 2205 2109 2110 2205 2111 2206 2110 2207 2111 2112 2112 2113 2208 2114 2209 2113 2115 2210 2114 2160 2064 2154 2211 2155 2116 2117 2212 2116 2213 2117 2118 2214 2118 2119 2120 2214 2119 2215 2120 2121 2121 2122 2216 2217 2122 2123 2124 2218 2123 2124 2156 2219 2125 2220 2156 2126 2220 2125 2127 2221 2126 2128 2222 2127 2157 2223 2128 2129 2130 2224 2157 2129 2224 2225 2130 2131 2226 2131 2132 2133 2227 2132 2133 2134 2228 2134 2135 2229 2135 2158 2230 2231 2158 2136 2137 2231 2136 2138 2232 2137 2233 2138 2139 2234 2139 2140 2141 2235 2140 2141 2159 2236 2237 2159 2142 2143 2237 2142 2160 2238 2143 2154 2065 2161 2144 2239 2161 2067 2163 2162 2239 2144 2162 2163 2068 2164 2165 2164 2069 2166 2165 2070 2240 2166 2145 2168 2167 2072 2167 2240 2145 2169 2168 2073 2170 2169 2074 2171 2170 2075 2172 2171 2076 2146 2241 2172 2146 2147 2241 2078 2174 2173 2242 2147 2173 2175 2174 2079 2176 2175 2080 2177 2176 2081 2243 2177 2148 2083 2179 2178 2243 2148 2178 2084 2180 2179 2085 2181 2180 2086 2182 2181 2182 2087 2183 2089 2185 2183 2184 2244 2149 2149 2244 2185 2186 2184 2090 2186 2091 2187 2188 2187 2092 2093 2189 2188 2189 2094 2190 2150 2245 2190 2191 2245 2150 2192 2191 2096 2193 2192 2097 2098 2194 2193 2151 2246 2194 2151 2195 2246 2100 2196 2195 2197 2196 2101 2197 2102 2198 2103 2199 2198 2199 2104 2200 2201 2200 2105 2106 2202 2201 2247 2202 2152 2204 2203 2108 2203 2247 2152 2204 2153 2248 2248 2153 2205 2110 2206 2205 2207 2206 2111 2207 2112 2208 2113 2249 2208 2114 2210 2209 2209 2249 2113 2160 2154 2250 2251 2155 2211 2212 2211 2116 2213 2212 2117 2214 2213 2118 2215 2214 2120 2215 2121 2216 2216 2122 2217 2218 2217 2123 2124 2219 2218 2219 2156 2252 2156 2220 2252 2126 2221 2220 2127 2222 2221 2128 2223 2222 2253 2223 2157 2224 2130 2225 2253 2157 2224 2226 2225 2131 2227 2226 2132 2227 2133 2228 2134 2229 2228 2135 2230 2229 2230 2158 2254 2254 2158 2231 2232 2231 2137 2233 2232 2138 2233 2139 2234 2235 2234 2140 2235 2141 2236 2159 2255 2236 2237 2255 2159 2143 2238 2237 2256 2238 2160 2250 2154 2161 2239 2257 2161 2163 2258 2162 2258 2239 2162 2163 2164 2259 2260 2164 2165 2165 2166 2261 2240 2262 2166 2168 2263 2167 2167 2263 2240 2169 2264 2168 2170 2265 2169 2171 2266 2170 2172 2267 2171 2172 2241 2268 2241 2147 2242 2173 2174 2269 2242 2173 2269 2175 2270 2174 2271 2175 2176 2272 2176 2177 2273 2177 2243 2178 2179 2274 2243 2178 2274 2179 2180 2275 2180 2181 2276 2182 2277 2181 2278 2182 2183 2185 2279 2183 2184 2280 2244 2244 2281 2185 2186 2280 2184 2282 2186 2187 2188 2283 2187 2188 2189 2284 2189 2190 2285 2245 2286 2190 2191 2287 2245 2192 2287 2191 2288 2192 2193 2194 2289 2193 2194 2246 2290 2246 2195 2291 2195 2196 2291 2197 2292 2196 2293 2197 2198 2198 2199 2294 2199 2200 2295 2296 2200 2201 2202 2297 2201 2247 2298 2202 2299 2203 2204 2299 2247 2203 2204 2248 2300 2301 2248 2205 2206 2301 2205 2207 2302 2206 2303 2207 2208 2249 2303 2208 2210 2304 2209 2209 2305 2249 2256 2160 2250 2251 2211 2306 2307 2211 2212 2308 2212 2213 2213 2214 2309 2215 2310 2214 2311 2215 2216 2312 2216 2217 2218 2313 2217 2218 2219 2314 2315 2219 2252 2220 2316 2252 2220 2221 2316 2221 2222 2317 2222 2223 2318 2253 2319 2223 2320 2224 2225 2320 2253 2224 2226 2321 2225 2227 2322 2226 2323 2227 2228 2229 2324 2228 2230 2325 2229 2230 2254 2326 2254 2231 2327 2327 2231 2232 2328 2232 2233 2329 2233 2234 2235 2330 2234 2331 2235 2236 2255 2332 2236 2237 2333 2255 2237 2238 2333 2256 2334 2238 2257 2250 2161 2239 2335 2257 2163 2259 2258 2258 2335 2239 2259 2164 2260 2260 2165 2261 2166 2262 2261 2240 2336 2262 2168 2264 2263 2240 2263 2336 2169 2265 2264 2170 2266 2265 2171 2267 2266 2172 2268 2267 2268 2241 2337 2241 2242 2337 2174 2270 2269 2338 2242 2269 2271 2270 2175 2271 2176 2272 2272 2177 2273 2273 2243 2339 2179 2275 2274 2339 2243 2274 2275 2180 2276 2181 2277 2276 2278 2277 2182 2279 2278 2183 2281 2279 2185 2244 2280 2340 2281 2244 2340 2282 2280 2186 2283 2282 2187 2283 2188 2284 2284 2189 2285 2190 2286 2285 2245 2341 2286 2245 2287 2341 2288 2287 2192 2289 2288 2193 2194 2290 2289 2290 2246 2342 2342 2246 2291 2196 2292 2291 2293 2292 2197 2293 2198 2294 2294 2199 2295 2295 2200 2296 2297 2296 2201 2202 2298 2297 2247 2343 2298 2299 2204 2300 2299 2343 2247 2300 2248 2344 2248 2301 2344 2206 2302 2301 2303 2302 2207 2303 2249 2345 2304 2305 2209 2249 2305 2345 2346 2256 2250 2347 2251 2306 2306 2211 2307 2307 2212 2308 2308 2213 2309 2214 2310 2309 2311 2310 2215 2311 2216 2312 2313 2312 2217 2218 2314 2313 2219 2315 2314 2348 2315 2252 2316 2348 2252 2316 2221 2317 2317 2222 2318 2223 2319 2318 2349 2319 2253 2321 2320 2225 2349 2253 2320 2226 2322 2321 2323 2322 2227 2324 2323 2228 2325 2324 2229 2230 2326 2325 2326 2254 2350 2254 2327 2350 2327 2232 2328 2328 2233 2329 2330 2329 2234 2331 2330 2235 2332 2331 2236 2332 2255 2351 2255 2333 2351 2238 2334 2333 2352 2334 2256 2257 2346 2250 2257 2335 2353 2258 2259 2354 2258 2354 2335 2259 2260 2355 2356 2260 2261 2262 2357 2261 2262 2336 2358 2263 2264 2359 2336 2263 2359 2264 2265 2360 2265 2266 2361 2266 2267 2362 2267 2268 2363 2364 2268 2337 2242 2338 2337 2270 2365 2269 2365 2338 2269 2366 2270 2271 2271 2272 2367 2272 2273 2368 2369 2273 2339 2275 2370 2274 2370 2339 2274 2371 2275 2276 2277 2372 2276 2278 2373 2277 2374 2278 2279 2375 2279 2281 2280 2376 2340 2281 2340 2377 2282 2376 2280 2378 2282 2283 2379 2283 2284 2284 2285 2380 2286 2381 2285 2341 2382 2286 2287 2383 2341 2288 2383 2287 2289 2384 2288 2289 2290 2385 2290 2342 2386 2342 2291 2387 2291 2292 2387 2293 2388 2292 2389 2293 2294 2390 2294 2295 2391 2295 2296 2297 2392 2296 2297 2298 2393 2298 2343 2394 2395 2299 2300 2395 2343 2299 2396 2300 2344 2301 2397 2344 2302 2397 2301 2398 2302 2303 2399 2303 2345 2304 2400 2305 2305 2401 2345 2352 2256 2346 2402 2347 2306 2306 2307 2403 2307 2308 2404 2308 2309 2405 2310 2406 2309 2311 2407 2310 2408 2311 2312 2409 2312 2313 2314 2410 2313 2315 2411 2314 2412 2315 2348 2316 2413 2348 2413 2316 2317 2414 2317 2318 2319 2415 2318 2349 2416 2319 2417 2320 2321 2349 2320 2417 2322 2418 2321 2323 2419 2322 2420 2323 2324 2324 2325 2421 2325 2326 2422 2423 2326 2350 2350 2327 2424 2327 2328 2424 2328 2329 2425 2426 2329 2330 2427 2330 2331 2428 2331 2332 2429 2332 2351 2333 2430 2351 2333 2334 2430 2352 2431 2334 2346 2257 2353 2335 2432 2353 2354 2259 2355 2335 2354 2432 2260 2356 2355 2357 2356 2261 2262 2358 2357 2358 2336 2433 2264 2360 2359 2336 2359 2433 2265 2361 2360 2361 2266 2362 2267 2363 2362 2363 2268 2364 2364 2337 2434 2337 2338 2434 2366 2365 2270 2365 2435 2338 2366 2271 2367 2367 2272 2368 2368 2273 2369 2436 2369 2339 2275 2371 2370 2436 2339 2370 2372 2371 2276 2277 2373 2372 2374 2373 2278 2374 2279 2375 2375 2281 2377 2376 2437 2340 2340 2437 2377 2378 2376 2282 2378 2283 2379 2379 2284 2380 2285 2381 2380 2286 2382 2381 2341 2438 2382 2383 2438 2341 2288 2384 2383 2289 2385 2384 2385 2290 2386 2342 2439 2386 2439 2342 2387 2292 2388 2387 2389 2388 2293 2390 2389 2294 2391 2390 2295 2392 2391 2296 2297 2393 2392 2393 2298 2394 2343 2440 2394 2396 2395 2300 2395 2440 2343 2441 2396 2344 2397 2441 2344 2398 2397 2302 2398 2303 2399 2401 2399 2345 2400 2401 2305 2352 2346 2442 2443 2347 2402 2402 2306 2403 2307 2404 2403 2404 2308 2405 2309 2406 2405 2310 2407 2406 2408 2407 2311 2409 2408 2312 2410 2409 2313 2411 2410 2314 2412 2411 2315 2444 2412 2348 2413 2444 2348 2414 2413 2317 2415 2414 2318 2319 2416 2415 2445 2416 2349 2418 2417 2321 2445 2349 2417 2322 2419 2418 2420 2419 2323 2420 2324 2421 2325 2422 2421 2422 2326 2423 2446 2423 2350 2446 2350 2424 2328 2425 2424 2425 2329 2426 2426 2330 2427 2427 2331 2428 2428 2332 2429 2447 2429 2351 2430 2447 2351 2334 2431 2430 2448 2431 2352 2442 2346 2353 2432 2449 2353 2450 2354 2355 2432 2354 2450 2355 2356 2451 2357 2452 2356 2357 2358 2453 2454 2358 2433 2360 2455 2359 2359 2455 2433 2360 2361 2456 2457 2361 2362 2362 2363 2458 2363 2364 2459 2460 2364 2434 2338 2435 2434 2461 2365 2366 2461 2435 2365 2462 2366 2367 2463 2367 2368 2464 2368 2369 2436 2465 2369 2371 2466 2370 2466 2436 2370 2467 2371 2372 2373 2468 2372 2469 2373 2374 2374 2375 2470 2471 2375 2377 2376 2472 2437 2437 2473 2377 2378 2472 2376 2474 2378 2379 2475 2379 2380 2380 2381 2476 2381 2382 2477 2382 2438 2478 2383 2479 2438 2383 2384 2479 2384 2385 2480 2481 2385 2386 2439 2482 2386 2483 2439 2387 2388 2483 2387 2389 2484 2388 2485 2389 2390 2486 2390 2391 2487 2391 2392 2393 2488 2392 2393 2394 2489 2440 2490 2394 2491 2395 2396 2491 2440 2395 2492 2396 2441 2493 2441 2397 2493 2397 2398 2494 2398 2399 2401 2495 2399 2400 2496 2401 2448 2352 2442 2443 2402 2497 2402 2403 2498 2403 2404 2499 2500 2404 2405 2406 2500 2405 2406 2407 2501 2408 2502 2407 2503 2408 2409 2504 2409 2410 2505 2410 2411 2506 2411 2412 2507 2412 2444 2508 2444 2413 2508 2413 2414 2509 2414 2415 2416 2510 2415 2445 2511 2416 2512 2417 2418 2512 2445 2417 2419 2513 2418 2420 2514 2419 2515 2420 2421 2421 2422 2516 2422 2423 2517 2446 2518 2423 2519 2446 2424 2425 2519 2424 2425 2426 2520 2426 2427 2521 2427 2428 2522 2523 2428 2429 2447 2524 2429 2525 2447 2430 2431 2525 2430 2448 2526 2431 2449 2442 2353 2432 2527 2449 2450 2355 2451 2527 2432 2450 2356 2452 2451 2357 2453 2452 2453 2358 2454 2454 2433 2528 2360 2456 2455 2433 2455 2528 2361 2457 2456 2457 2362 2458 2363 2459 2458 2459 2364 2460 2529 2460 2434 2435 2529 2434 2461 2366 2462 2461 2530 2435 2463 2462 2367 2464 2463 2368 2465 2464 2369 2436 2531 2465 2467 2466 2371 2466 2531 2436 2468 2467 2372 2469 2468 2373 2469 2374 2470 2470 2375 2471 2473 2471 2377 2437 2472 2532 2437 2532 2473 2474 2472 2378 2475 2474 2379 2475 2380 2476 2381 2477 2476 2477 2382 2478 2438 2533 2478 2479 2533 2438 2384 2480 2479 2480 2385 2481 2482 2481 2386 2534 2482 2439 2534 2439 2483 2388 2484 2483 2485 2484 2389 2485 2390 2486 2486 2391 2487 2488 2487 2392 2488 2393 2489 2394 2490 2489 2535 2490 2440 2491 2396 2492 2535 2440 2491 2492 2441 2536 2536 2441 2493 2493 2398 2494 2495 2494 2399 2401 2496 2495 2537 2448 2442 2538 2443 2497 2497 2402 2498 2403 2539 2498 2404 2500 2499 2539 2403 2499 2406 2501 2500 2407 2502 2501 2503 2502 2408 2503 2409 2504 2504 2410 2505 2505 2411 2506 2506 2412 2507 2507 2444 2540 2540 2444 2508 2508 2414 2509 2510 2509 2415 2416 2511 2510 2541 2511 2445 2513 2512 2418 2541 2445 2512 2419 2514 2513 2515 2514 2420 2515 2421 2516 2516 2422 2517 2423 2518 2517 2446 2542 2518 2519 2542 2446 2425 2520 2519 2520 2426 2521 2427 2522 2521 2522 2428 2523 2524 2523 2429 2447 2543 2524 2525 2543 2447 2431 2526 2525 2544 2526 2448 2449 2537 2442 2449 2527 2545 2546 2450 2451 2546 2527 2450 2452 2547 2451 2452 2453 2548 2453 2454 2549 2550 2454 2528 2456 2551 2455 2455 2551 2528 2457 2552 2456 2553 2457 2458 2459 2554 2458 2555 2459 2460 2460 2529 2556 2435 2530 2529 2557 2461 2462 2557 2530 2461 2463 2558 2462 2559 2463 2464 2560 2464 2465 2531 2561 2465 2562 2466 2467 2562 2531 2466 2563 2467 2468 2564 2468 2469 2565 2469 2470 2566 2470 2471 2473 2567 2471 2472 2568 2532 2532 2569 2473 2474 2568 2472 2570 2474 2475 2571 2475 2476 2477 2572 2476 2573 2477 2478 2533 2574 2478 2575 2533 2479 2480 2575 2479 2480 2481 2576 2577 2481 2482 2534 2578 2482 2579 2534 2483 2484 2579 2483 2580 2484 2485 2485 2486 2581 2582 2486 2487 2488 2583 2487 2584 2488 2489 2489 2490 2585 2535 2586 2490 2491 2492 2587 2535 2491 2587 2492 2536 2588 2536 2493 2589 2493 2494 2589 2590 2494 2495 2496 2591 2495 2544 2448 2537 2592 2538 2497 2497 2498 2593 2539 2594 2498 2500 2595 2499 2595 2539 2499 2501 2596 2500 2502 2597 2501 2598 2502 2503 2503 2504 2599 2504 2505 2600 2505 2506 2601 2506 2507 2602 2507 2540 2603 2540 2508 2604 2604 2508 2509 2510 2605 2509 2510 2511 2606 2541 2607 2511 2608 2512 2513 2541 2512 2608 2514 2609 2513 2515 2610 2514 2611 2515 2516 2612 2516 2517 2518 2613 2517 2518 2542 2614 2519 2615 2542 2519 2520 2615 2616 2520 2521 2521 2522 2617 2522 2523 2618 2619 2523 2524 2543 2620 2524 2525 2621 2543 2525 2526 2621 2544 2622 2526 2537 2449 2545 2527 2623 2545 2547 2546 2451 2546 2623 2527 2452 2548 2547 2548 2453 2549 2454 2550 2549 2624 2550 2528 2552 2551 2456 2551 2624 2528 2553 2552 2457 2554 2553 2458 2459 2555 2554 2555 2460 2556 2556 2529 2625 2529 2530 2625 2558 2557 2462 2557 2626 2530 2559 2558 2463 2559 2464 2560 2561 2560 2465 2627 2561 2531 2562 2467 2563 2627 2531 2562 2563 2468 2564 2564 2469 2565 2566 2565 2470 2567 2566 2471 2473 2569 2567 2568 2628 2532 2532 2628 2569 2570 2568 2474 2570 2475 2571 2572 2571 2476 2477 2573 2572 2574 2573 2478 2533 2629 2574 2575 2629 2533 2480 2576 2575 2576 2481 2577 2578 2577 2482 2534 2630 2578 2579 2630 2534 2580 2579 2484 2580 2485 2581 2581 2486 2582 2583 2582 2487 2584 2583 2488 2584 2489 2585 2490 2586 2585 2631 2586 2535 2492 2588 2587 2631 2535 2587 2588 2536 2632 2632 2536 2589 2494 2590 2589 2591 2590 2495 2544 2537 2633 2634 2538 2592 2592 2497 2593 2498 2594 2593 2635 2594 2539 2596 2595 2500 2595 2635 2539 2501 2597 2596 2598 2597 2502 2598 2503 2599 2599 2504 2600 2505 2601 2600 2601 2506 2602 2507 2603 2602 2603 2540 2636 2636 2540 2604 2605 2604 2509 2510 2606 2605 2511 2607 2606 2637 2607 2541 2609 2608 2513 2637 2541 2608 2514 2610 2609 2611 2610 2515 2612 2611 2516 2613 2612 2517 2613 2518 2614 2542 2638 2614 2542 2615 2638 2615 2520 2616 2616 2521 2617 2617 2522 2618 2618 2523 2619 2620 2619 2524 2543 2639 2620 2543 2621 2639 2526 2622 2621 2640 2622 2544 2633 2537 2545 2623 2641 2545 2547 2642 2546 2546 2642 2623 2547 2548 2643 2644 2548 2549 2550 2645 2549 2646 2550 2624 2552 2647 2551 2551 2647 2624 2648 2552 2553 2553 2554 2649 2555 2650 2554 2651 2555 2556 2652 2556 2625 2530 2626 2625 2558 2653 2557 2557 2653 2626 2559 2654 2558 2655 2559 2560 2561 2656 2560 2657 2561 2627 2562 2563 2658 2627 2562 2658 2563 2564 2659 2564 2565 2660 2661 2565 2566 2662 2566 2567 2569 2663 2567 2568 2664 2628 2569 2628 2665 2570 2664 2568 2666 2570 2571 2667 2571 2572 2573 2668 2572 2669 2573 2574 2629 2670 2574 2629 2575 2671 2575 2576 2671 2672 2576 2577 2577 2578 2673 2578 2630 2674 2579 2675 2630 2580 2675 2579 2676 2580 2581 2677 2581 2582 2583 2678 2582 2679 2583 2584 2680 2584 2585 2586 2681 2585 2682 2586 2631 2587 2588 2683 2631 2587 2683 2588 2632 2684 2632 2589 2685 2590 2686 2589 2591 2687 2590 2640 2544 2633 2634 2592 2688 2592 2593 2689 2594 2690 2593 2635 2691 2594 2692 2595 2596 2692 2635 2595 2597 2693 2596 2598 2694 2597 2695 2598 2599 2696 2599 2600 2601 2697 2600 2601 2602 2698 2603 2699 2602 2603 2636 2700 2701 2636 2604 2701 2604 2605 2606 2702 2605 2607 2703 2606 2704 2607 2637 2609 2705 2608 2705 2637 2608 2610 2706 2609 2611 2707 2610 2612 2708 2611 2709 2612 2613 2710 2613 2614 2638 2711 2614 2638 2615 2712 2615 2616 2712 2713 2616 2617 2714 2617 2618 2715 2618 2619 2620 2716 2619 2639 2717 2620 2621 2718 2639 2622 2718 2621 2640 2719 2622 2641 2633 2545 2623 2720 2641 2547 2643 2642 2623 2642 2720 2643 2548 2644 2645 2644 2549 2646 2645 2550 2721 2646 2624 2648 2647 2552 2647 2721 2624 2648 2553 2649 2554 2650 2649 2651 2650 2555 2651 2556 2652 2722 2652 2625 2626 2722 2625 2558 2654 2653 2626 2653 2723 2655 2654 2559 2656 2655 2560 2657 2656 2561 2657 2627 2724 2563 2659 2658 2627 2658 2724 2564 2660 2659 2660 2565 2661 2661 2566 2662 2663 2662 2567 2569 2665 2663 2628 2664 2725 2665 2628 2725 2666 2664 2570 2667 2666 2571 2668 2667 2572 2669 2668 2573 2670 2669 2574 2726 2670 2629 2726 2629 2671 2576 2672 2671 2672 2577 2673 2578 2674 2673 2674 2630 2727 2630 2675 2727 2676 2675 2580 2677 2676 2581 2678 2677 2582 2679 2678 2583 2679 2584 2680 2681 2680 2585 2682 2681 2586 2682 2631 2728 2588 2684 2683 2728 2631 2683 2684 2632 2685 2589 2686 2685 2590 2687 2686 2729 2640 2633 2730 2634 2688 2688 2592 2689 2593 2690 2689 2594 2691 2690 2635 2731 2691 2693 2692 2596 2692 2731 2635 2597 2694 2693 2695 2694 2598 2696 2695 2599 2697 2696 2600 2697 2601 2698 2602 2699 2698 2603 2700 2699 2700 2636 2732 2732 2636 2701 2702 2701 2605 2606 2703 2702 2704 2703 2607 2704 2637 2733 2609 2706 2705 2733 2637 2705 2610 2707 2706 2611 2708 2707 2709 2708 2612 2710 2709 2613 2711 2710 2614 2638 2734 2711 2638 2712 2734 2712 2616 2713 2714 2713 2617 2715 2714 2618 2716 2715 2619 2620 2717 2716 2735 2717 2639 2718 2735 2639 2622 2719 2718 2736 2719 2640 2641 2729 2633 2641 2720 2737 2642 2643 2738 2720 2642 2738 2643 2644 2739 2740 2644 2645 2646 2741 2645 2721 2742 2646 2743 2647 2648 2743 2721 2647 2744 2648 2649 2650 2745 2649 2651 2746 2650 2747 2651 2652 2722 2748 2652 2626 2723 2722 2653 2654 2749 2723 2653 2749 2655 2750 2654 2656 2751 2655 2657 2752 2656 2753 2657 2724 2658 2659 2754 2724 2658 2754 2660 2755 2659 2660 2661 2756 2757 2661 2662 2663 2758 2662 2663 2665 2759 2664 2760 2725 2665 2725 2761 2666 2760 2664 2762 2666 2667 2763 2667 2668 2764 2668 2669 2765 2669 2670 2766 2670 2726 2767 2726 2671 2672 2767 2671 2768 2672 2673 2674 2769 2673 2674 2727 2770 2675 2771 2727 2676 2771 2675 2772 2676 2677 2773 2677 2678 2774 2678 2679 2775 2679 2680 2681 2776 2680 2682 2777 2681 2778 2682 2728 2683 2684 2779 2728 2683 2779 2780 2684 2685 2686 2781 2685 2687 2782 2686 2736 2640 2729 2783 2730 2688 2784 2688 2689 2690 2784 2689 2690 2691 2785 2691 2731 2786 2787 2692 2693 2787 2731 2692 2694 2788 2693 2695 2789 2694 2696 2790 2695 2791 2696 2697 2697 2698 2792 2698 2699 2793 2699 2700 2794 2700 2732 2795 2732 2701 2796 2796 2701 2702 2703 2797 2702 2704 2798 2703 2799 2704 2733 2706 2800 2705 2800 2733 2705 2706 2707 2801 2707 2708 2802 2709 2803 2708 2804 2709 2710 2710 2711 2805 2711 2734 2806 2734 2712 2807 2807 2712 2713 2714 2808 2713 2715 2809 2714 2810 2715 2716 2717 2811 2716 2812 2717 2735 2735 2718 2813 2718 2719 2813 2736 2814 2719 2729 2641 2737 2720 2815 2737 2643 2739 2738 2815 2720 2738 2739 2644 2740 2741 2740 2645 2646 2742 2741 2721 2816 2742 2743 2648 2744 2743 2816 2721 2745 2744 2649 2650 2746 2745 2747 2746 2651 2748 2747 2652 2748 2722 2817 2722 2723 2817 2654 2750 2749 2818 2723 2749 2655 2751 2750 2656 2752 2751 2753 2752 2657 2819 2753 2724 2659 2755 2754 2819 2724 2754 2660 2756 2755 2756 2661 2757 2758 2757 2662 2758 2663 2759 2665 2761 2759 2760 2820 2725 2725 2820 2761 2762 2760 2666 2762 2667 2763 2763 2668 2764 2764 2669 2765 2765 2670 2766 2766 2726 2821 2821 2726 2767 2768 2767 2672 2769 2768 2673 2769 2674 2770 2727 2822 2770 2771 2822 2727 2772 2771 2676 2772 2677 2773 2773 2678 2774 2774 2679 2775 2776 2775 2680 2681 2777 2776 2778 2777 2682 2778 2728 2823 2779 2684 2824 2728 2779 2823 2684 2780 2824 2781 2780 2685 2782 2781 2686 2736 2729 2825 2826 2730 2783 2783 2688 2827 2688 2784 2827 2690 2785 2784 2691 2786 2785 2731 2828 2786 2788 2787 2693 2787 2828 2731 2694 2789 2788 2695 2790 2789 2791 2790 2696 2791 2697 2792 2698 2793 2792 2793 2699 2794 2700 2795 2794 2795 2732 2829 2829 2732 2796 2797 2796 2702 2703 2798 2797 2799 2798 2704 2830 2799 2733 2800 2706 2801 2830 2733 2800 2801 2707 2802 2708 2803 2802 2804 2803 2709 2804 2710 2805 2805 2711 2806 2806 2734 2831 2831 2734 2807 2808 2807 2713 2714 2809 2808 2810 2809 2715 2811 2810 2716 2812 2811 2717 2812 2735 2832 2735 2813 2832 2719 2814 2813 2833 2814 2736 2825 2729 2737 2815 2834 2737 2739 2835 2738 2835 2815 2738 2739 2740 2836 2740 2741 2837 2741 2742 2838 2742 2816 2839 2840 2743 2744 2840 2816 2743 2745 2841 2744 2746 2842 2745 2843 2746 2747 2844 2747 2748 2845 2748 2817 2723 2818 2817 2750 2846 2749 2846 2818 2749 2750 2751 2847 2751 2752 2848 2753 2849 2752 2850 2753 2819 2755 2851 2754 2851 2819 2754 2756 2852 2755 2756 2757 2853 2854 2757 2758 2758 2759 2855 2761 2856 2759 2857 2820 2760 2820 2858 2761 2857 2760 2762 2762 2763 2859 2763 2764 2860 2764 2765 2861 2765 2766 2862 2766 2821 2863 2821 2767 2864 2864 2767 2768 2865 2768 2769 2866 2769 2770 2822 2867 2770 2868 2822 2771 2868 2771 2772 2772 2773 2869 2773 2774 2870 2871 2774 2775 2775 2776 2872 2777 2873 2776 2874 2777 2778 2875 2778 2823 2876 2779 2824 2779 2876 2823 2780 2877 2824 2781 2878 2780 2782 2879 2781 2833 2736 2825 2826 2783 2880 2881 2783 2827 2784 2882 2827 2785 2882 2784 2786 2883 2785 2786 2828 2884 2788 2885 2787 2787 2885 2828 2788 2789 2886 2789 2790 2887 2791 2888 2790 2889 2791 2792 2792 2793 2890 2891 2793 2794 2795 2892 2794 2893 2795 2829 2894 2829 2796 2797 2894 2796 2798 2895 2797 2896 2798 2799 2897 2799 2830 2898 2800 2801 2898 2830 2800 2899 2801 2802 2803 2900 2802 2804 2901 2803 2902 2804 2805 2903 2805 2806 2904 2806 2831 2905 2831 2807 2808 2905 2807 2809 2906 2808 2907 2809 2810 2908 2810 2811 2909 2811 2812 2910 2812 2832 2813 2911 2832 2814 2911 2813 2833 2912 2814 2834 2825 2737 2815 2913 2834 2739 2836 2835 2835 2913 2815 2836 2740 2837 2741 2838 2837 2838 2742 2839 2816 2914 2839 2841 2840 2744 2840 2914 2816 2745 2842 2841 2843 2842 2746 2843 2747 2844 2844 2748 2845 2915 2845 2817 2818 2915 2817 2750 2847 2846 2846 2916 2818 2847 2751 2848 2752 2849 2848 2850 2849 2753 2850 2819 2917 2755 2852 2851 2819 2851 2917 2756 2853 2852 2853 2757 2854 2854 2758 2855 2759 2856 2855 2858 2856 2761 2918 2820 2857 2918 2858 2820 2857 2762 2859 2763 2860 2859 2764 2861 2860 2861 2765 2862 2766 2863 2862 2821 2919 2863 2821 2864 2919 2864 2768 2865 2865 2769 2866 2867 2866 2770 2822 2920 2867 2868 2920 2822 2868 2772 2869 2773 2870 2869 2870 2774 2871 2871 2775 2872 2776 2873 2872 2874 2873 2777 2874 2778 2875 2876 2875 2823 2877 2876 2824 2878 2877 2780 2781 2879 2878 2921 2833 2825 2922 2826 2880 2880 2783 2881 2882 2881 2827 2883 2882 2785 2883 2786 2884 2828 2923 2884 2788 2886 2885 2828 2885 2923 2886 2789 2887 2790 2888 2887 2889 2888 2791 2889 2792 2890 2890 2793 2891 2892 2891 2794 2892 2795 2893 2924 2893 2829 2894 2924 2829 2895 2894 2797 2896 2895 2798 2896 2799 2897 2897 2830 2925 2899 2898 2801 2925 2830 2898 2900 2899 2802 2803 2901 2900 2902 2901 2804 2903 2902 2805 2904 2903 2806 2926 2904 2831 2905 2926 2831 2906 2905 2808 2907 2906 2809 2907 2810 2908 2908 2811 2909 2909 2812 2910 2927 2910 2832 2911 2927 2832 2814 2912 2911 2928 2912 2833 2834 2921 2825 2834 2913 2929 2835 2836 2930 2835 2930 2913 2931 2836 2837 2838 2932 2837 2933 2838 2839 2914 2934 2839 2935 2840 2841 2935 2914 2840 2842 2936 2841 2937 2842 2843 2843 2844 2938 2844 2845 2939 2845 2915 2940 2818 2916 2915 2846 2847 2941 2846 2941 2916 2847 2848 2942 2848 2849 2943 2850 2944 2849 2945 2850 2917 2851 2852 2946 2917 2851 2946 2852 2853 2947 2853 2854 2948 2949 2854 2855 2856 2950 2855 2858 2951 2856 2918 2857 2952 2953 2858 2918 2952 2857 2859 2859 2860 2954 2860 2861 2955 2956 2861 2862 2863 2957 2862 2863 2919 2958 2919 2864 2959 2864 2865 2959 2865 2866 2960 2866 2867 2961 2920 2962 2867 2963 2920 2868 2963 2868 2869 2869 2870 2964 2870 2871 2965 2966 2871 2872 2873 2967 2872 2968 2873 2874 2969 2874 2875 2876 2970 2875 2971 2876 2877 2972 2877 2878 2879 2973 2878 2928 2833 2921 2922 2880 2974 2975 2880 2881 2881 2882 2976 2883 2977 2882 2978 2883 2884 2923 2979 2884 2885 2886 2980 2885 2980 2923 2981 2886 2887 2888 2982 2887 2889 2983 2888 2984 2889 2890 2985 2890 2891 2892 2986 2891 2987 2892 2893 2924 2988 2893 2894 2989 2924 2895 2989 2894 2990 2895 2896 2896 2897 2991 2897 2925 2992 2993 2898 2899 2925 2898 2993 2994 2899 2900 2901 2995 2900 2902 2996 2901 2997 2902 2903 2998 2903 2904 2926 2999 2904 2905 3000 2926 2906 3000 2905 3001 2906 2907 2907 2908 3002 2908 2909 3003 2909 2910 3004 3005 2910 2927 2911 3006 2927 2911 2912 3006 2928 3007 2912 2921 2834 2929 2913 3008 2929 2930 2836 2931 2913 2930 3008 2932 2931 2837 2838 2933 2932 2934 2933 2839 2914 3009 2934 2936 2935 2841 2935 3009 2914 2937 2936 2842 2937 2843 2938 2844 2939 2938 2939 2845 2940 2915 3010 2940 2916 3010 2915 2941 2847 2942 2916 2941 3011 2942 2848 2943 2849 2944 2943 2945 2944 2850 3012 2945 2917 2852 2947 2946 3012 2917 2946 2947 2853 2948 2948 2854 2949 2950 2949 2855 2856 2951 2950 2953 2951 2858 2918 2952 3013 2953 2918 3013 2952 2859 2954 2954 2860 2955 2955 2861 2956 2957 2956 2862 2957 2863 2958 2958 2919 3014 3014 2919 2959 2959 2865 2960 2866 2961 2960 2867 2962 2961 3015 2962 2920 3015 2920 2963 2963 2869 2964 2964 2870 2965 2965 2871 2966 2967 2966 2872 2968 2967 2873 2968 2874 2969 2969 2875 3016 2971 2970 2876 2875 2970 3016 2971 2877 2972 2973 2972 2878 2928 2921 3017 3018 2922 2974 2974 2880 2975 2975 2881 2976 2882 2977 2976 2978 2977 2883 2979 2978 2884 3019 2979 2923 2980 2886 2981 2980 3019 2923 2982 2981 2887 2888 2983 2982 2984 2983 2889 2985 2984 2890 2986 2985 2891 2987 2986 2892 2988 2987 2893 3020 2988 2924 2989 3020 2924 2990 2989 2895 2990 2896 2991 2897 2992 2991 2925 3021 2992 2993 2899 2994 2925 2993 3021 2995 2994 2900 2901 2996 2995 2997 2996 2902 2997 2903 2998 2999 2998 2904 2926 3022 2999 3000 3022 2926 3001 3000 2906 3001 2907 3002 2908 3003 3002 3003 2909 3004 3004 2910 3005 3023 3005 2927 3006 3023 2927 2912 3007 3006 3024 3007 2928 3017 2921 2929 3008 3025 2929 2930 2931 3026 3008 2930 3026 3027 2931 2932 2932 2933 3028 2934 3029 2933 2934 3009 3030 2936 3031 2935 2935 3031 3009 2937 3032 2936 3033 2937 2938 2938 2939 3034 3035 2939 2940 3010 3036 2940 2916 3011 3010 3037 2941 2942 3011 2941 3037 3038 2942 2943 2944 3039 2943 2945 3040 2944 3041 2945 3012 2946 2947 3042 3012 2946 3042 2947 2948 3043 3044 2948 2949 2950 3045 2949 2951 3046 2950 3047 2951 2953 3013 2952 3048 3049 2953 3013 3048 2952 2954 3050 2954 2955 3051 2955 2956 2957 3052 2956 3053 2957 2958 3054 2958 3014 3055 3014 2959 3055 2959 2960 2961 3056 2960 2962 3057 2961 3015 3058 2962 3015 2963 3059 3059 2963 2964 3060 2964 2965 3061 2965 2966 2967 3062 2966 3063 2967 2968 2968 2969 3064 3065 2969 3016 3066 2970 2971 2970 3067 3016 3068 2971 2972 2973 3069 2972 3024 2928 3017 3070 3018 2974 3071 2974 2975 3072 2975 2976 2977 3072 2976 2978 3073 2977 3074 2978 2979 3075 2979 3019 2980 2981 3076 2980 3076 3019 2981 2982 3077 2982 2983 3078 2984 3079 2983 2985 3080 2984 2986 3081 2985 2987 3082 2986 2988 3083 2987 3020 3084 2988 3085 3020 2989 3085 2989 2990 2990 2991 3086 2991 2992 3087 3021 3088 2992 3089 2993 2994 3021 2993 3089 2995 3090 2994 2995 2996 3091 2997 3092 2996 3093 2997 2998 2999 3094 2998 3022 3095 2999 3096 3022 3000 3096 3000 3001 3001 3002 3097 3002 3003 3098 3099 3003 3004 3100 3004 3005 3023 3101 3005 3006 3102 3023 3007 3102 3006 3024 3103 3007 3025 3017 2929 3008 3104 3025 2931 3027 3026 3104 3008 3026 3027 2932 3028 2933 3029 3028 2934 3030 3029 3030 3009 3105 2936 3032 3031 3009 3031 3105 3033 3032 2937 3033 2938 3034 3034 2939 3035 3036 3035 2940 3010 3106 3036 3010 3011 3106 3038 3037 2942 3011 3037 3107 3039 3038 2943 2944 3040 3039 3041 3040 2945 3041 3012 3108 3042 2947 3043 3108 3012 3042 3043 2948 3044 3045 3044 2949 3046 3045 2950 3047 3046 2951 3047 2953 3049 3109 3013 3048 3049 3013 3109 3050 3048 2954 3051 3050 2955 3052 3051 2956 3053 3052 2957 3053 2958 3054 3110 3054 3014 3055 3110 3014 3056 3055 2960 3057 3056 2961 2962 3058 3057 3111 3058 3015 3111 3015 3059 3060 3059 2964 3061 3060 2965 3062 3061 2966 3063 3062 2967 3063 2968 3064 3064 2969 3065 3067 3065 3016 3066 3067 2970 3068 3066 2971 3069 3068 2972 3112 3024 3017 3113 3018 3070 3070 2974 3071 3071 2975 3114 2975 3072 3114 2977 3073 3072 3074 3073 2978 3074 2979 3075 3115 3075 3019 2981 3077 3076 3076 3115 3019 2982 3078 3077 2983 3079 3078 2984 3080 3079 2985 3081 3080 2986 3082 3081 2987 3083 3082 2988 3084 3083 3020 3116 3084 3085 3116 3020 3085 2990 3086 2991 3087 3086 2992 3088 3087 3021 3117 3088 3090 3089 2994 3021 3089 3117 2995 3091 3090 2996 3092 3091 3093 3092 2997 3094 3093 2998 3095 3094 2999 3118 3095 3022 3118 3022 3096 3096 3001 3097 3097 3002 3098 3098 3003 3099 3100 3099 3004 3101 3100 3005 3023 3119 3101 3102 3119 3023 3007 3103 3102 3120 3103 3024 3025 3112 3017 3025 3104 3121 3027 3122 3026 3122 3104 3026 3123 3027 3028 3029 3124 3028 3029 3030 3125 3126 3030 3105 3031 3032 3127 3031 3127 3105 3033 3128 3032 3129 3033 3034 3130 3034 3035 3036 3131 3035 3106 3132 3036 3011 3107 3106 3133 3037 3038 3107 3037 3133 3134 3038 3039 3039 3040 3135 3041 3136 3040 3137 3041 3108 3138 3042 3043 3138 3108 3042 3139 3043 3044 3045 3140 3044 3046 3141 3045 3142 3046 3047 3047 3049 3143 3144 3109 3048 3145 3049 3109 3050 3144 3048 3146 3050 3051 3052 3147 3051 3053 3148 3052 3149 3053 3054 3110 3150 3054 3151 3110 3055 3056 3151 3055 3152 3056 3057 3058 3153 3057 3154 3058 3111 3155 3111 3059 3060 3155 3059 3156 3060 3061 3062 3157 3061 3158 3062 3063 3159 3063 3064 3160 3064 3065 3067 3161 3065 3162 3067 3066 3066 3068 3163 3069 3164 3068 3120 3024 3112 3113 3070 3165 3070 3071 3166 3167 3071 3114 3072 3168 3114 3072 3073 3168 3074 3169 3073 3170 3074 3075 3115 3171 3075 3077 3172 3076 3172 3115 3076 3077 3078 3173 3079 3174 3078 3079 3080 3175 3080 3081 3176 3081 3082 3177 3082 3083 3178 3083 3084 3179 3084 3116 3180 3181 3116 3085 3181 3085 3086 3087 3182 3086 3087 3088 3183 3088 3117 3184 3185 3089 3090 3117 3089 3185 3091 3186 3090 3092 3187 3091 3188 3092 3093 3189 3093 3094 3190 3094 3095 3191 3095 3118 3118 3096 3192 3192 3096 3097 3193 3097 3098 3194 3098 3099 3100 3195 3099 3196 3100 3101 3119 3197 3101 3119 3102 3198 3102 3103 3198 3120 3199 3103 3112 3025 3121 3104 3200 3121 3123 3122 3027 3122 3200 3104 3124 3123 3028 3029 3125 3124 3125 3030 3126 3201 3126 3105 3032 3128 3127 3127 3201 3105 3129 3128 3033 3130 3129 3034 3131 3130 3035 3036 3132 3131 3202 3132 3106 3107 3202 3106 3133 3038 3134 3107 3133 3203 3134 3039 3135 3040 3136 3135 3137 3136 3041 3204 3137 3108 3139 3138 3043 3138 3204 3108 3140 3139 3044 3045 3141 3140 3142 3141 3046 3142 3047 3143 3143 3049 3145 3144 3205 3109 3205 3145 3109 3146 3144 3050 3147 3146 3051 3052 3148 3147 3149 3148 3053 3150 3149 3054 3110 3206 3150 3151 3206 3110 3152 3151 3056 3153 3152 3057 3154 3153 3058 3154 3111 3207 3207 3111 3155 3156 3155 3060 3157 3156 3061 3158 3157 3062 3158 3063 3159 3159 3064 3160 3161 3160 3065 3162 3161 3067 3162 3066 3163 3068 3164 3163 3120 3112 3208 3209 3113 3165 3165 3070 3166 3071 3167 3166 3210 3167 3114 3168 3210 3114 3073 3169 3168 3170 3169 3074 3171 3170 3075 3211 3171 3115 3077 3173 3172 3211 3115 3172 3078 3174 3173 3079 3175 3174 3175 3080 3176 3176 3081 3177 3082 3178 3177 3178 3083 3179 3084 3180 3179 3116 3212 3180 3181 3212 3116 3182 3181 3086 3182 3087 3183 3183 3088 3184 3184 3117 3213 3186 3185 3090 3213 3117 3185 3187 3186 3091 3188 3187 3092 3188 3093 3189 3189 3094 3190 3190 3095 3191 3191 3118 3214 3118 3192 3214 3192 3097 3193 3194 3193 3098 3195 3194 3099 3196 3195 3100 3197 3196 3101 3215 3197 3119 3215 3119 3198 3103 3199 3198 3216 3199 3120 3208 3112 3121 3200 3217 3121 3123 3218 3122 3122 3218 3200 3124 3219 3123 3124 3125 3220 3125 3126 3221 3126 3201 3222 3127 3128 3223 3127 3223 3201 3129 3224 3128 3225 3129 3130 3226 3130 3131 3132 3227 3131 3202 3228 3132 3107 3203 3202 3133 3134 3229 3203 3133 3229 3134 3135 3230 3136 3231 3135 3232 3136 3137 3233 3137 3204 3139 3234 3138 3234 3204 3138 3235 3139 3140 3141 3236 3140 3237 3141 3142 3142 3143 3238 3239 3143 3145 3144 3240 3205 3205 3241 3145 3146 3240 3144 3242 3146 3147 3148 3243 3147 3244 3148 3149 3149 3150 3245 3206 3246 3150 3151 3247 3206 3152 3247 3151 3153 3248 3152 3249 3153 3154 3154 3207 3250 3207 3155 3251 3251 3155 3156 3252 3156 3157 3253 3157 3158 3158 3159 3254 3255 3159 3160 3161 3256 3160 3257 3161 3162 3258 3162 3163 3164 3259 3163 3216 3120 3208 3260 3209 3165 3165 3166 3261 3167 3262 3166 3263 3167 3210 3168 3264 3210 3169 3264 3168 3170 3265 3169 3171 3266 3170 3211 3267 3171 3173 3268 3172 3268 3211 3172 3174 3269 3173 3174 3175 3270 3175 3176 3271 3272 3176 3177 3178 3273 3177 3274 3178 3179 3179 3180 3275 3212 3276 3180 3277 3212 3181 3277 3181 3182 3278 3182 3183 3279 3183 3184 3280 3184 3213 3186 3281 3185 3281 3213 3185 3187 3282 3186 3283 3187 3188 3188 3189 3284 3189 3190 3285 3190 3191 3286 3287 3191 3214 3214 3192 3288 3288 3192 3193 3194 3289 3193 3195 3290 3194 3291 3195 3196 3292 3196 3197 3293 3197 3215 3294 3215 3198 3199 3294 3198 3216 3295 3199 3217 3208 3121 3200 3296 3217 3123 3219 3218 3200 3218 3296 3124 3220 3219 3220 3125 3221 3221 3126 3222 3201 3297 3222 3128 3224 3223 3223 3297 3201 3225 3224 3129 3225 3130 3226 3227 3226 3131 3132 3228 3227 3202 3298 3228 3202 3203 3298 3229 3134 3230 3299 3203 3229 3135 3231 3230 3232 3231 3136 3232 3137 3233 3233 3204 3300 3235 3234 3139 3300 3204 3234 3236 3235 3140 3237 3236 3141 3237 3142 3238 3238 3143 3239 3241 3239 3145 3205 3240 3301 3205 3301 3241 3242 3240 3146 3243 3242 3147 3244 3243 3148 3244 3149 3245 3150 3246 3245 3206 3302 3246 3206 3247 3302 3152 3248 3247 3249 3248 3153 3249 3154 3250 3250 3207 3303 3207 3251 3303 3251 3156 3252 3252 3157 3253 3253 3158 3254 3159 3255 3254 3256 3255 3160 3257 3256 3161 3258 3257 3162 3259 3258 3163 3304 3216 3208 3305 3209 3260 3260 3165 3261 3166 3262 3261 3263 3262 3167 3306 3263 3210 3264 3306 3210 3169 3265 3264 3170 3266 3265 3171 3267 3266 3211 3307 3267 3269 3268 3173 3268 3307 3211 3174 3270 3269 3270 3175 3271 3176 3272 3271 3273 3272 3177 3178 3274 3273 3274 3179 3275 3180 3276 3275 3212 3308 3276 3277 3308 3212 3277 3182 3278 3279 3278 3183 3280 3279 3184 3309 3280 3213 3186 3282 3281 3281 3309 3213 3283 3282 3187 3283 3188 3284 3189 3285 3284 3190 3286 3285 3286 3191 3287 3287 3214 3310 3310 3214 3288 3289 3288 3193 3194 3290 3289 3291 3290 3195 3291 3196 3292 3292 3197 3293 3293 3215 3311 3215 3294 3311 3199 3295 3294 3312 3295 3216 3217 3304 3208 3217 3296 3313 3218 3219 3314 3296 3218 3314 3219 3220 3315 3316 3220 3221 3317 3221 3222 3222 3297 3318 3224 3319 3223 3223 3319 3297 3225 3320 3224 3321 3225 3226 3227 3322 3226 3227 3228 3323 3228 3298 3324 3298 3203 3299 3325 3229 3230 3325 3299 3229 3231 3326 3230 3327 3231 3232 3232 3233 3328 3233 3300 3329 3330 3234 3235 3300 3234 3330 3331 3235 3236 3332 3236 3237 3333 3237 3238 3334 3238 3239 3241 3335 3239 3240 3336 3301 3241 3301 3337 3242 3336 3240 3338 3242 3243 3339 3243 3244 3340 3244 3245 3246 3341 3245 3246 3302 3342 3302 3247 3343 3247 3248 3343 3249 3344 3248 3345 3249 3250 3346 3250 3303 3303 3251 3347 3251 3252 3347 3252 3253 3348 3349 3253 3254 3255 3350 3254 3256 3351 3255 3352 3256 3257 3257 3258 3353 3259 3354 3258 3312 3216 3304 3305 3260 3355 3356 3260 3261 3262 3356 3261 3263 3357 3262 3358 3263 3306 3264 3359 3306 3264 3265 3359 3265 3266 3360 3266 3267 3361 3267 3307 3362 3269 3363 3268 3268 3363 3307 3269 3270 3364 3365 3270 3271 3272 3366 3271 3367 3272 3273 3274 3368 3273 3369 3274 3275 3276 3370 3275 3276 3308 3371 3372 3308 3277 3372 3277 3278 3279 3373 3278 3280 3374 3279 3375 3280 3309 3282 3376 3281 3281 3376 3309 3377 3282 3283 3378 3283 3284 3285 3379 3284 3286 3380 3285 3286 3287 3381 3382 3287 3310 3383 3310 3288 3289 3383 3288 3290 3384 3289 3385 3290 3291 3291 3292 3386 3292 3293 3387 3388 3293 3311 3294 3389 3311 3295 3389 3294 3312 3390 3295 3217 3313 3304 3313 3296 3391 3219 3315 3314 3391 3296 3314 3315 3220 3316 3317 3316 3221 3317 3222 3318 3318 3297 3392 3224 3320 3319 3297 3319 3392 3321 3320 3225 3322 3321 3226 3322 3227 3323 3228 3324 3323 3324 3298 3393 3298 3299 3393 3326 3325 3230 3299 3325 3394 3327 3326 3231 3327 3232 3328 3233 3329 3328 3300 3395 3329 3330 3235 3331 3300 3330 3395 3331 3236 3332 3332 3237 3333 3333 3238 3334 3335 3334 3239 3335 3241 3337 3336 3396 3301 3301 3396 3337 3338 3336 3242 3338 3243 3339 3339 3244 3340 3341 3340 3245 3246 3342 3341 3342 3302 3397 3397 3302 3343 3248 3344 3343 3345 3344 3249 3346 3345 3250 3398 3346 3303 3398 3303 3347 3252 3348 3347 3348 3253 3349 3350 3349 3254 3350 3255 3399 3352 3351 3256 3255 3351 3399 3352 3257 3353 3258 3354 3353 3400 3312 3304 3401 3305 3355 3355 3260 3402 3260 3356 3402 3262 3357 3356 3358 3357 3263 3403 3358 3306 3359 3403 3306 3265 3360 3359 3360 3266 3361 3267 3362 3361 3362 3307 3404 3269 3364 3363 3307 3363 3404 3364 3270 3365 3366 3365 3271 3367 3366 3272 3368 3367 3273 3369 3368 3274 3370 3369 3275 3370 3276 3371 3308 3405 3371 3372 3405 3308 3373 3372 3278 3374 3373 3279 3375 3374 3280 3406 3375 3309 3377 3376 3282 3376 3406 3309 3377 3283 3378 3379 3378 3284 3285 3380 3379 3286 3381 3380 3381 3287 3382 3407 3382 3310 3383 3407 3310 3289 3384 3383 3385 3384 3290 3385 3291 3386 3386 3292 3387 3387 3293 3388 3408 3388 3311 3389 3408 3311 3295 3390 3389 3409 3390 3312 3313 3400 3304 3313 3391 3410 3315 3411 3314 3411 3391 3314 3315 3316 3412 3413 3316 3317 3414 3317 3318 3415 3318 3392 3319 3320 3416 3392 3319 3416 3321 3417 3320 3418 3321 3322 3419 3322 3323 3324 3420 3323 3421 3324 3393 3393 3299 3394 3326 3422 3325 3325 3422 3394 3423 3326 3327 3424 3327 3328 3329 3425 3328 3395 3426 3329 3330 3331 3427 3395 3330 3427 3331 3332 3428 3332 3333 3429 3430 3333 3334 3335 3431 3334 3432 3335 3337 3433 3396 3336 3396 3434 3337 3433 3336 3338 3338 3339 3435 3339 3340 3436 3340 3341 3437 3342 3438 3341 3439 3342 3397 3440 3397 3343 3344 3440 3343 3441 3344 3345 3442 3345 3346 3443 3346 3398 3398 3347 3444 3347 3348 3444 3348 3349 3445 3446 3349 3350 3447 3350 3399 3352 3448 3351 3351 3449 3399 3450 3352 3353 3354 3451 3353 3409 3312 3400 3401 3355 3452 3453 3355 3402 3356 3454 3402 3357 3454 3356 3358 3455 3357 3403 3456 3358 3457 3403 3359 3360 3457 3359 3458 3360 3361 3361 3362 3459 3362 3404 3460 3363 3364 3461 3404 3363 3461 3364 3365 3462 3463 3365 3366 3367 3464 3366 3368 3465 3367 3369 3466 3368 3467 3369 3370 3468 3370 3371 3405 3469 3371 3470 3405 3372 3470 3372 3373 3471 3373 3374 3472 3374 3375 3473 3375 3406 3474 3376 3377 3474 3406 3376 3377 3378 3475 3476 3378 3379 3380 3477 3379 3380 3381 3478 3381 3382 3479 3480 3382 3407 3481 3407 3383 3384 3481 3383 3482 3384 3385 3385 3386 3483 3484 3386 3387 3485 3387 3388 3408 3486 3388 3389 3487 3408 3389 3390 3487 3409 3488 3390 3400 3313 3410 3391 3489 3410 3315 3412 3411 3391 3411 3489 3412 3316 3413 3413 3317 3414 3415 3414 3318 3490 3415 3392 3320 3417 3416 3490 3392 3416 3418 3417 3321 3418 3322 3419 3420 3419 3323 3324 3421 3420 3421 3393 3491 3393 3394 3491 3423 3422 3326 3422 3492 3394 3423 3327 3424 3425 3424 3328 3426 3425 3329 3426 3395 3493 3331 3428 3427 3493 3395 3427 3332 3429 3428 3429 3333 3430 3431 3430 3334 3432 3431 3335 3434 3432 3337 3494 3396 3433 3494 3434 3396 3433 3338 3435 3339 3436 3435 3436 3340 3437 3341 3438 3437 3342 3439 3438 3495 3439 3397 3440 3495 3397 3441 3440 3344 3441 3345 3442 3442 3346 3443 3443 3398 3496 3496 3398 3444 3348 3445 3444 3445 3349 3446 3447 3446 3350 3449 3447 3399 3450 3448 3352 3351 3448 3449 3451 3450 3353 3409 3400 3497 3498 3401 3452 3355 3453 3452 3454 3453 3402 3455 3454 3357 3358 3456 3455 3499 3456 3403 3499 3403 3457 3360 3458 3457 3458 3361 3459 3362 3460 3459 3404 3500 3460 3364 3462 3461 3404 3461 3500 3462 3365 3463 3464 3463 3366 3465 3464 3367 3368 3466 3465 3467 3466 3369 3468 3467 3370 3469 3468 3371 3501 3469 3405 3501 3405 3470 3470 3373 3471 3471 3374 3472 3472 3375 3473 3473 3406 3502 3474 3377 3475 3502 3406 3474 3378 3476 3475 3477 3476 3379 3477 3380 3478 3381 3479 3478 3479 3382 3480 3480 3407 3503 3503 3407 3481 3482 3481 3384 3482 3385 3483 3483 3386 3484 3485 3484 3387 3486 3485 3388 3486 3408 3504 3408 3487 3504 3390 3488 3487 3505 3488 3409 3497 3400 3410 3489 3506 3410 3412 3507 3411 3411 3507 3489 3412 3413 3508 3509 3413 3414 3415 3510 3414 3511 3415 3490 3417 3512 3416 3512 3490 3416 3418 3513 3417 3514 3418 3419 3420 3515 3419 3421 3516 3420 3517 3421 3491 3394 3492 3491 3518 3422 3423 3518 3492 3422 3423 3424 3519 3520 3424 3425 3426 3521 3425 3522 3426 3493 3428 3523 3427 3523 3493 3427 3429 3524 3428 3429 3430 3525 3526 3430 3431 3527 3431 3432 3528 3432 3434 3494 3433 3529 3530 3434 3494 3529 3433 3435 3435 3436 3531 3532 3436 3437 3438 3533 3437 3438 3439 3534 3495 3535 3439 3536 3495 3440 3536 3440 3441 3441 3442 3537 3442 3443 3538 3443 3496 3539 3540 3496 3444 3445 3540 3444 3445 3446 3541 3542 3446 3447 3543 3447 3449 3544 3448 3450 3448 3545 3449 3451 3546 3450 3505 3409 3497 3547 3498 3452 3453 3547 3452 3548 3453 3454 3548 3454 3455 3455 3456 3549 3499 3550 3456 3551 3499 3457 3458 3551 3457 3552 3458 3459 3460 3553 3459 3460 3500 3554 3461 3462 3555 3500 3461 3555 3462 3463 3556 3557 3463 3464 3558 3464 3465 3466 3559 3465 3467 3560 3466 3468 3561 3467 3469 3562 3468 3563 3469 3501 3501 3470 3564 3470 3471 3564 3471 3472 3565 3472 3473 3566 3473 3502 3567 3568 3474 3475 3502 3474 3568 3476 3569 3475 3477 3570 3476 3571 3477 3478 3479 3572 3478 3479 3480 3573 3480 3503 3574 3503 3481 3575 3575 3481 3482 3576 3482 3483 3577 3483 3484 3485 3578 3484 3579 3485 3486 3580 3486 3504 3487 3581 3504 3488 3581 3487 3505 3582 3488 3506 3497 3410 3489 3583 3506 3412 3508 3507 3489 3507 3583 3508 3413 3509 3510 3509 3414 3511 3510 3415 3584 3511 3490 3417 3513 3512 3584 3490 3512 3514 3513 3418 3515 3514 3419 3516 3515 3420 3517 3516 3421 3585 3517 3491 3492 3585 3491 3518 3423 3519 3586 3492 3518 3424 3520 3519 3521 3520 3425 3522 3521 3426 3587 3522 3493 3524 3523 3428 3523 3587 3493 3429 3525 3524 3525 3430 3526 3526 3431 3527 3527 3432 3528 3528 3434 3530 3494 3529 3588 3530 3494 3588 3529 3435 3531 3531 3436 3532 3533 3532 3437 3533 3438 3534 3439 3535 3534 3589 3535 3495 3589 3495 3536 3536 3441 3537 3442 3538 3537 3538 3443 3539 3539 3496 3590 3496 3540 3590 3445 3541 3540 3541 3446 3542 3542 3447 3543 3545 3543 3449 3544 3545 3448 3546 3544 3450 3591 3505 3497 3592 3547 3453 3592 3453 3548 3593 3548 3455 3456 3550 3549 3593 3455 3549 3499 3594 3550 3551 3594 3499 3552 3551 3458 3553 3552 3459 3553 3460 3554 3500 3595 3554 3462 3556 3555 3595 3500 3555 3556 3463 3557 3557 3464 3558 3559 3558 3465 3466 3560 3559 3467 3561 3560 3468 3562 3561 3563 3562 3469 3563 3501 3596 3501 3564 3596 3471 3565 3564 3565 3472 3566 3473 3567 3566 3567 3502 3597 3569 3568 3475 3502 3568 3597 3476 3570 3569 3571 3570 3477 3572 3571 3478 3479 3573 3572 3573 3480 3574 3503 3598 3574 3503 3575 3598 3575 3482 3576 3577 3576 3483 3578 3577 3484 3579 3578 3485 3579 3486 3580 3599 3580 3504 3581 3599 3504 3488 3582 3581 3600 3582 3505 3506 3591 3497 3506 3583 3601 3507 3508 3602 3583 3507 3602 3508 3509 3603 3604 3509 3510 3605 3510 3511 3511 3584 3606 3513 3607 3512 3607 3584 3512 3608 3513 3514 3609 3514 3515 3610 3515 3516 3611 3516 3517 3612 3517 3585 3586 3585 3492 3518 3519 3613 3586 3518 3613 3519 3520 3614 3521 3615 3520 3522 3616 3521 3587 3617 3522 3618 3523 3524 3618 3587 3523 3525 3619 3524 3525 3526 3620 3526 3527 3621 3527 3528 3622 3528 3530 3623 3588 3529 3624 3625 3530 3588 3624 3529 3531 3626 3531 3532 3533 3627 3532 3628 3533 3534 3535 3629 3534 3630 3535 3589 3589 3536 3631 3631 3536 3537 3537 3538 3632 3633 3538 3539 3634 3539 3590 3540 3635 3590 3540 3541 3635 3541 3542 3636 3637 3542 3543 3545 3638 3543 3544 3639 3545 3546 3640 3544 3600 3505 3591 3641 3592 3548 3593 3641 3548 3550 3642 3549 3642 3593 3549 3550 3594 3643 3551 3644 3594 3552 3644 3551 3553 3645 3552 3646 3553 3554 3595 3647 3554 3556 3648 3555 3648 3595 3555 3556 3557 3649 3557 3558 3650 3558 3559 3651 3559 3560 3652 3560 3561 3653 3561 3562 3654 3563 3655 3562 3656 3563 3596 3564 3657 3596 3565 3657 3564 3658 3565 3566 3566 3567 3659 3567 3597 3660 3568 3569 3661 3568 3661 3597 3569 3570 3662 3571 3663 3570 3572 3664 3571 3572 3573 3665 3666 3573 3574 3598 3667 3574 3575 3668 3598 3575 3576 3668 3669 3576 3577 3670 3577 3578 3671 3578 3579 3579 3580 3672 3580 3599 3673 3581 3674 3599 3581 3582 3674 3600 3675 3582 3591 3506 3601 3583 3676 3601 3508 3603 3602 3676 3583 3602 3603 3509 3604 3604 3510 3605 3605 3511 3606 3584 3677 3606 3608 3607 3513 3607 3677 3584 3608 3514 3609 3609 3515 3610 3610 3516 3611 3611 3517 3612 3612 3585 3678 3678 3585 3586 3613 3519 3614 3679 3586 3613 3520 3615 3614 3521 3616 3615 3522 3617 3616 3587 3680 3617 3619 3618 3524 3618 3680 3587 3525 3620 3619 3620 3526 3621 3527 3622 3621 3528 3623 3622 3623 3530 3625 3681 3588 3624 3681 3625 3588 3626 3624 3531 3627 3626 3532 3628 3627 3533 3629 3628 3534 3630 3629 3535 3630 3589 3682 3589 3631 3682 3631 3537 3632 3632 3538 3633 3634 3633 3539 3683 3634 3590 3635 3683 3590 3541 3636 3635 3636 3542 3637 3638 3637 3543 3639 3638 3545 3544 3640 3639 3600 3591 3684 3685 3641 3593 3550 3686 3642 3685 3593 3642 3594 3687 3643 3686 3550 3643 3594 3644 3687 3552 3645 3644 3646 3645 3553 3647 3646 3554 3595 3688 3647 3556 3649 3648 3648 3688 3595 3649 3557 3650 3558 3651 3650 3559 3652 3651 3652 3560 3653 3653 3561 3654 3562 3655 3654 3656 3655 3563 3689 3656 3596 3657 3689 3596 3565 3658 3657 3658 3566 3659 3567 3660 3659 3597 3690 3660 3569 3662 3661 3597 3661 3690 3570 3663 3662 3571 3664 3663 3572 3665 3664 3665 3573 3666 3667 3666 3574 3691 3667 3598 3668 3691 3598 3668 3576 3669 3669 3577 3670 3670 3578 3671 3671 3579 3672 3672 3580 3673 3599 3692 3673 3674 3692 3599 3582 3675 3674 3693 3675 3600 3684 3591 3601 3676 3694 3601 3603 3695 3602 3695 3676 3602 3603 3604 3696 3604 3605 3697 3698 3605 3606 3677 3699 3606 3700 3607 3608 3700 3677 3607 3608 3609 3701 3609 3610 3702 3610 3611 3703 3611 3612 3704 3612 3678 3705 3678 3586 3679 3706 3613 3614 3706 3679 3613 3615 3707 3614 3615 3616 3708 3616 3617 3709 3617 3680 3710 3619 3711 3618 3618 3711 3680 3619 3620 3712 3713 3620 3621 3621 3622 3714 3623 3715 3622 3623 3625 3716 3717 3681 3624 3718 3625 3681 3626 3717 3624 3627 3719 3626 3628 3720 3627 3629 3721 3628 3722 3629 3630 3723 3630 3682 3682 3631 3724 3724 3631 3632 3725 3632 3633 3634 3726 3633 3727 3634 3683 3683 3635 3728 3635 3636 3728 3636 3637 3729 3637 3638 3730 3731 3638 3639 3640 3732 3639 3693 3600 3684 3686 3733 3642 3733 3685 3642 3687 3734 3643 3734 3686 3643 3644 3735 3687 3644 3645 3735 3646 3736 3645 3647 3737 3646 3647 3688 3738 3648 3649 3739 3648 3739 3688 3740 3649 3650 3651 3741 3650 3651 3652 3742 3652 3653 3743 3744 3653 3654 3655 3745 3654 3746 3655 3656 3656 3689 3747 3657 3748 3689 3658 3748 3657 3749 3658 3659 3660 3750 3659 3660 3690 3751 3661 3662 3752 3690 3661 3752 3663 3753 3662 3663 3664 3754 3664 3665 3755 3665 3666 3756 3757 3666 3667 3691 3758 3667 3668 3759 3691 3668 3669 3759 3669 3670 3760 3670 3671 3761 3762 3671 3672 3763 3672 3673 3692 3764 3673 3674 3765 3692 3674 3675 3765 3693 3766 3675 3694 3684 3601 3676 3767 3694 3603 3696 3695 3695 3767 3676 3696 3604 3697 3605 3698 3697 3699 3698 3606 3768 3699 3677 3700 3608 3701 3768 3677 3700 3609 3702 3701 3610 3703 3702 3703 3611 3704 3612 3705 3704 3678 3769 3705 3678 3679 3769 3707 3706 3614 3770 3679 3706 3615 3708 3707 3708 3616 3709 3617 3710 3709 3680 3771 3710 3619 3712 3711 3680 3711 3771 3712 3620 3713 3713 3621 3714 3622 3715 3714 3623 3716 3715 3716 3625 3718 3772 3681 3717 3718 3681 3772 3626 3719 3717 3627 3720 3719 3628 3721 3720 3722 3721 3629 3722 3630 3723 3773 3723 3682 3773 3682 3724 3725 3724 3632 3726 3725 3633 3727 3726 3634 3727 3683 3774 3774 3683 3728 3728 3636 3729 3729 3637 3730 3638 3775 3730 3731 3775 3638 3732 3731 3639 3776 3693 3684 3777 3733 3686 3778 3734 3687 3734 3777 3686 3735 3778 3687 3645 3736 3735 3646 3737 3736 3647 3738 3737 3738 3688 3779 3739 3649 3740 3688 3739 3779 3741 3740 3650 3741 3651 3742 3742 3652 3743 3653 3744 3743 3745 3744 3654 3746 3745 3655 3746 3656 3747 3689 3780 3747 3748 3780 3689 3749 3748 3658 3750 3749 3659 3750 3660 3751 3690 3781 3751 3662 3753 3752 3781 3690 3752 3663 3754 3753 3754 3664 3755 3665 3756 3755 3756 3666 3757 3758 3757 3667 3691 3782 3758 3691 3759 3782 3759 3669 3760 3670 3761 3760 3761 3671 3762 3763 3762 3672 3764 3763 3673 3692 3783 3764 3692 3765 3783 3675 3766 3765 3784 3766 3693 3694 3776 3684 3694 3767 3785 3695 3696 3786 3695 3786 3767 3787 3696 3697 3697 3698 3788 3699 3789 3698 3790 3699 3768 3700 3701 3791 3768 3700 3791 3702 3792 3701 3703 3793 3702 3703 3704 3794 3705 3795 3704 3769 3796 3705 3769 3679 3770 3706 3707 3797 3770 3706 3797 3707 3708 3798 3799 3708 3709 3710 3800 3709 3710 3771 3801 3711 3712 3802 3771 3711 3802 3712 3713 3803 3804 3713 3714 3715 3805 3714 3715 3716 3806 3716 3718 3807 3808 3772 3717 3809 3718 3772 3719 3808 3717 3719 3720 3810 3720 3721 3811 3722 3812 3721 3813 3722 3723 3773 3814 3723 3815 3773 3724 3725 3815 3724 3726 3816 3725 3727 3817 3726 3818 3727 3774 3819 3774 3728 3819 3728 3729 3820 3729 3730 3775 3820 3730 3731 3821 3775 3732 3822 3731 3784 3693 3776 3823 3734 3778 3823 3777 3734 3778 3735 3824 3735 3736 3824 3736 3737 3825 3737 3738 3826 3827 3738 3779 3739 3740 3828 3739 3828 3779 3829 3740 3741 3741 3742 3830 3831 3742 3743 3744 3832 3743 3745 3833 3744 3746 3834 3745 3835 3746 3747 3747 3780 3836 3748 3837 3780 3749 3837 3748 3750 3838 3749 3839 3750 3751 3781 3840 3751 3753 3841 3752 3841 3781 3752 3753 3754 3842 3754 3755 3843 3755 3756 3844 3756 3757 3845 3757 3758 3846 3758 3782 3847 3782 3759 3848 3759 3760 3848 3761 3849 3760 3761 3762 3850 3851 3762 3763 3763 3764 3852 3783 3853 3764 3765 3854 3783 3766 3854 3765 3855 3766 3784 3694 3785 3776 3767 3856 3785 3786 3696 3787 3786 3856 3767 3787 3697 3788 3698 3789 3788 3790 3789 3699 3790 3768 3857 3701 3792 3791 3857 3768 3791 3793 3792 3702 3793 3703 3794 3704 3795 3794 3705 3796 3795 3769 3858 3796 3769 3770 3858 3797 3707 3798 3859 3770 3797 3798 3708 3799 3800 3799 3709 3800 3710 3801 3801 3771 3860 3712 3803 3802 3771 3802 3860 3803 3713 3804 3805 3804 3714 3715 3806 3805 3716 3807 3806 3807 3718 3809 3808 3861 3772 3861 3809 3772 3719 3810 3808 3810 3720 3811 3721 3812 3811 3813 3812 3722 3814 3813 3723 3773 3862 3814 3815 3862 3773 3725 3816 3815 3726 3817 3816 3818 3817 3727 3863 3818 3774 3819 3863 3774 3820 3819 3729 3820 3775 3864 3822 3821 3731 3775 3821 3864 3865 3784 3776 3866 3823 3778 3867 3778 3824 3736 3825 3824 3737 3826 3825 3826 3738 3827 3868 3827 3779 3828 3740 3829 3828 3868 3779 3829 3741 3830 3742 3831 3830 3832 3831 3743 3744 3833 3832 3745 3834 3833 3835 3834 3746 3835 3747 3836 3836 3780 3869 3780 3837 3869 3749 3838 3837 3839 3838 3750 3840 3839 3751 3781 3870 3840 3753 3842 3841 3841 3870 3781 3842 3754 3843 3843 3755 3844 3844 3756 3845 3757 3846 3845 3758 3847 3846 3847 3782 3871 3871 3782 3848 3760 3849 3848 3761 3850 3849 3850 3762 3851 3851 3763 3852 3764 3853 3852 3872 3853 3783 3854 3872 3783 3855 3854 3766 3855 3784 3873 3785 3865 3776 3856 3874 3785 3786 3787 3875 3856 3786 3875 3787 3788 3876 3789 3877 3788 3878 3789 3790 3790 3857 3879 3792 3880 3791 3880 3857 3791 3793 3881 3792 3882 3793 3794 3795 3883 3794 3795 3796 3884 3858 3885 3796 3858 3770 3859 3886 3797 3798 3886 3859 3797 3887 3798 3799 3800 3888 3799 3889 3800 3801 3890 3801 3860 3802 3803 3891 3860 3802 3891 3803 3804 3892 3804 3805 3893 3806 3894 3805 3807 3895 3806 3807 3809 3896 3861 3808 3897 3898 3809 3861 3808 3810 3897 3899 3810 3811 3812 3900 3811 3901 3812 3813 3813 3814 3902 3862 3903 3814 3815 3904 3862 3815 3816 3904 3816 3817 3905 3818 3906 3817 3907 3818 3863 3908 3863 3819 3908 3819 3820 3909 3820 3864 3822 3910 3821 3821 3911 3864 3873 3784 3865 3867 3866 3778 3867 3824 3912 3824 3825 3912 3826 3913 3825 3826 3827 3914 3915 3827 3868 3828 3829 3916 3828 3916 3868 3917 3829 3830 3831 3918 3830 3832 3919 3831 3832 3833 3920 3833 3834 3921 3835 3922 3834 3923 3835 3836 3924 3836 3869 3837 3925 3869 3837 3838 3925 3839 3926 3838 3840 3927 3839 3840 3870 3928 3841 3842 3929 3841 3929 3870 3930 3842 3843 3931 3843 3844 3932 3844 3845 3846 3933 3845 3846 3847 3934 3847 3871 3935 3936 3871 3848 3849 3936 3848 3849 3850 3937 3850 3851 3938 3939 3851 3852 3853 3940 3852 3872 3941 3853 3942 3872 3854 3942 3854 3855 3855 3873 3943 3874 3865 3785 3944 3874 3856 3787 3876 3875 3944 3856 3875 3788 3877 3876 3878 3877 3789 3878 3790 3879 3857 3945 3879 3792 3881 3880 3945 3857 3880 3882 3881 3793 3883 3882 3794 3883 3795 3884 3796 3885 3884 3858 3946 3885 3858 3859 3946 3887 3886 3798 3947 3859 3886 3888 3887 3799 3889 3888 3800 3890 3889 3801 3948 3890 3860 3891 3803 3892 3948 3860 3891 3804 3893 3892 3805 3894 3893 3806 3895 3894 3807 3896 3895 3896 3809 3898 3949 3861 3897 3898 3861 3949 3810 3899 3897 3900 3899 3811 3901 3900 3812 3901 3813 3902 3814 3903 3902 3862 3950 3903 3862 3904 3950 3904 3816 3905 3817 3906 3905 3907 3906 3818 3907 3863 3951 3951 3863 3908 3908 3820 3909 3911 3909 3864 3821 3910 3911 3873 3865 3952 3953 3866 3867 3954 3867 3912 3825 3913 3912 3826 3914 3913 3914 3827 3915 3955 3915 3868 3916 3829 3917 3916 3955 3868 3918 3917 3830 3919 3918 3831 3832 3920 3919 3920 3833 3921 3834 3922 3921 3923 3922 3835 3924 3923 3836 3956 3924 3869 3925 3956 3869 3838 3926 3925 3839 3927 3926 3840 3928 3927 3928 3870 3957 3929 3842 3930 3870 3929 3957 3930 3843 3931 3932 3931 3844 3933 3932 3845 3933 3846 3934 3847 3935 3934 3935 3871 3958 3871 3936 3958 3849 3937 3936 3937 3850 3938 3938 3851 3939 3940 3939 3852 3853 3941 3940 3959 3941 3872 3959 3872 3942 3942 3855 3943 3873 3960 3943 3952 3865 3874 3961 3874 3944 3876 3962 3875 3962 3944 3875 3877 3963 3876 3964 3877 3878 3878 3879 3965 3945 3966 3879 3881 3967 3880 3967 3945 3880 3882 3968 3881 3969 3882 3883 3883 3884 3970 3885 3971 3884 3885 3946 3972 3946 3859 3947 3973 3886 3887 3947 3886 3973 3888 3974 3887 3889 3975 3888 3976 3889 3890 3948 3977 3890 3978 3891 3892 3978 3948 3891 3893 3979 3892 3893 3894 3980 3894 3895 3981 3895 3896 3982 3896 3898 3983 3984 3949 3897 3898 3949 3985 3899 3984 3897 3900 3986 3899 3987 3900 3901 3988 3901 3902 3903 3989 3902 3903 3950 3990 3904 3991 3950 3991 3904 3905 3906 3992 3905 3993 3906 3907 3907 3951 3994 3951 3908 3995 3995 3908 3909 3996 3909 3911 3910 3997 3911 3873 3952 3960 3953 3867 3954 3913 3954 3912 3913 3914 3998 3914 3915 3999 3915 3955 4000 3916 3917 4001 3916 4001 3955 4002 3917 3918 3918 3919 4003 3919 3920 4004 3920 3921 4005 3922 4006 3921 3923 4007 3922 4008 3923 3924 3924 3956 4009 3925 4010 3956 3926 4010 3925 3926 3927 4011 3927 3928 4012 3928 3957 4013 3929 3930 4014 3929 4014 3957 4015 3930 3931 3932 4016 3931 3933 4017 3932 4018 3933 3934 3934 3935 4019 4020 3935 3958 3958 3936 4021 3936 3937 4021 3937 3938 4022 4023 3938 3939 3940 4024 3939 3941 4025 3940 4026 3941 3959 3959 3942 4027 3942 3943 4027 3960 4028 3943 3952 3874 3961 3961 3944 4029 3963 3962 3876 4029 3944 3962 3964 3963 3877 3964 3878 3965 3879 3966 3965 3945 4030 3966 3881 3968 3967 3967 4030 3945 3969 3968 3882 3969 3883 3970 3884 3971 3970 3885 3972 3971 3946 4031 3972 3946 3947 4031 3974 3973 3887 4032 3947 3973 3888 3975 3974 3976 3975 3889 3977 3976 3890 4033 3977 3948 3979 3978 3892 4033 3948 3978 3979 3893 3980 3980 3894 3981 3895 3982 3981 3982 3896 3983 3983 3898 3985 3949 3984 4034 3949 4034 3985 3899 3986 3984 3987 3986 3900 3987 3901 3988 3989 3988 3902 3903 3990 3989 3990 3950 4035 3950 3991 4035 3992 3991 3905 3993 3992 3906 3993 3907 3994 3951 4036 3994 3951 3995 4036 3996 3995 3909 3997 3996 3911 3952 4037 3960 4038 3953 3954 3913 4039 3954 3914 3999 3998 4039 3913 3998 3999 3915 4000 3955 4040 4000 4001 3917 4002 3955 4001 4041 4002 3918 4003 3919 4004 4003 4004 3920 4005 3921 4006 4005 3922 4007 4006 4008 4007 3923 4008 3924 4009 4009 3956 4042 3956 4010 4042 3926 4011 4010 4011 3927 4012 3928 4013 4012 4013 3957 4043 4014 3930 4015 3957 4014 4043 4016 4015 3931 3932 4017 4016 4018 4017 3933 4018 3934 4019 4019 3935 4020 4044 4020 3958 4044 3958 4021 4021 3937 4022 4022 3938 4023 4024 4023 3939 4025 4024 3940 4026 4025 3941 4026 3959 4045 4045 3959 4027 3943 4028 4027 4046 4028 3960 3952 3961 4037 3961 4029 4047 4048 3962 3963 4029 3962 4048 4049 3963 3964 4050 3964 3965 3965 3966 4051 3966 4030 4052 3967 3968 4053 3967 4053 4030 3969 4054 3968 4055 3969 3970 3971 4056 3970 3971 3972 4057 4031 4058 3972 4031 3947 4032 3974 4059 3973 4059 4032 3973 3974 3975 4060 3976 4061 3975 4062 3976 3977 4063 3977 4033 3979 4064 3978 4064 4033 3978 4065 3979 3980 4066 3980 3981 3981 3982 4067 4068 3982 3983 4069 3983 3985 3984 4070 4034 4034 4071 3985 3986 4070 3984 4072 3986 3987 3987 3988 4073 3988 3989 4074 3990 4075 3989 4076 3990 4035 3991 4077 4035 3992 4077 3991 4078 3992 3993 4079 3993 3994 3994 4036 4080 4036 3995 4081 3995 3996 4081 3997 4082 3996 4037 4046 3960 4039 4038 3954 3999 4083 3998 4083 4039 3998 4084 3999 4000 4040 3955 4041 4040 4084 4000 4001 4002 4085 4001 4085 4041 4086 4002 4003 4004 4087 4003 4088 4004 4005 4006 4089 4005 4006 4007 4090 4008 4091 4007 4092 4008 4009 4093 4009 4042 4042 4010 4094 4010 4011 4094 4011 4012 4095 4012 4013 4096 4013 4043 4097 4014 4015 4098 4043 4014 4098 4015 4016 4099 4017 4100 4016 4018 4101 4017 4102 4018 4019 4103 4019 4020 4044 4104 4020 4105 4044 4021 4105 4021 4022 4106 4022 4023 4024 4107 4023 4025 4108 4024 4109 4025 4026 4026 4045 4110 4111 4045 4027 4028 4111 4027 4046 4112 4028 4037 3961 4047 4029 4113 4047 4048 3963 4049 4029 4048 4113 4049 3964 4050 4050 3965 4051 4051 3966 4052 4030 4114 4052 3968 4054 4053 4030 4053 4114 4055 4054 3969 4056 4055 3970 4056 3971 4057 3972 4058 4057 4031 4115 4058 4031 4032 4115 3974 4060 4059 4116 4032 4059 3975 4061 4060 4062 4061 3976 4062 3977 4063 4063 4033 4117 4065 4064 3979 4117 4033 4064 4066 4065 3980 4066 3981 4067 4067 3982 4068 4069 4068 3983 4071 4069 3985 4070 4118 4034 4118 4071 4034 4072 4070 3986 4072 3987 4073 4073 3988 4074 3989 4075 4074 3990 4076 4075 4119 4076 4035 4077 4119 4035 4078 4077 3992 4078 3993 4079 4079 3994 4080 4080 4036 4120 4036 4081 4120 4081 3996 4121 3996 4082 4121 4046 4037 4122 4123 4038 4039 4084 4083 3999 4123 4039 4083 4124 4040 4041 4040 4125 4084 4085 4002 4086 4085 4124 4041 4087 4086 4003 4087 4004 4088 4089 4088 4005 4089 4006 4090 4007 4091 4090 4092 4091 4008 4093 4092 4009 4126 4093 4042 4126 4042 4094 4094 4011 4095 4095 4012 4096 4096 4013 4097 4097 4043 4127 4098 4015 4099 4127 4043 4098 4016 4100 4099 4017 4101 4100 4102 4101 4018 4103 4102 4019 4104 4103 4020 4128 4104 4044 4128 4044 4105 4106 4105 4022 4107 4106 4023 4024 4108 4107 4109 4108 4025 4109 4026 4110 4045 4129 4110 4129 4045 4111 4028 4112 4111 4130 4112 4046 4122 4037 4047 4047 4113 4131 4048 4049 4132 4113 4048 4132 4049 4050 4133 4134 4050 4051 4135 4051 4052 4114 4136 4052 4054 4137 4053 4053 4137 4114 4055 4138 4054 4139 4055 4056 4056 4057 4140 4058 4141 4057 4115 4142 4058 4115 4032 4116 4060 4143 4059 4143 4116 4059 4061 4144 4060 4145 4061 4062 4062 4063 4146 4063 4117 4147 4148 4064 4065 4117 4064 4148 4149 4065 4066 4150 4066 4067 4151 4067 4068 4069 4152 4068 4071 4153 4069 4154 4118 4070 4118 4155 4071 4154 4070 4072 4156 4072 4073 4157 4073 4074 4075 4158 4074 4076 4159 4075 4119 4160 4076 4161 4119 4077 4161 4077 4078 4078 4079 4162 4163 4079 4080 4164 4080 4120 4081 4165 4120 4165 4081 4121 4082 4166 4121 4130 4046 4122 4083 4084 4167 4168 4123 4083 4124 4125 4040 4084 4125 4167 4085 4086 4169 4085 4169 4124 4170 4086 4087 4171 4087 4088 4089 4172 4088 4173 4089 4090 4090 4091 4174 4092 4175 4091 4176 4092 4093 4126 4177 4093 4178 4126 4094 4178 4094 4095 4179 4095 4096 4180 4096 4097 4181 4097 4127 4182 4098 4099 4182 4127 4098 4100 4183 4099 4101 4184 4100 4185 4101 4102 4186 4102 4103 4187 4103 4104 4188 4104 4128 4189 4128 4105 4106 4189 4105 4190 4106 4107 4108 4191 4107 4192 4108 4109 4109 4110 4193 4129 4194 4110 4195 4129 4111 4112 4195 4111 4130 4196 4112 4122 4047 4131 4113 4197 4131 4049 4133 4132 4197 4113 4132 4133 4050 4134 4135 4134 4051 4136 4135 4052 4114 4198 4136 4054 4138 4137 4114 4137 4198 4139 4138 4055 4139 4056 4140 4057 4141 4140 4142 4141 4058 4115 4199 4142 4115 4116 4199 4144 4143 4060 4200 4116 4143 4145 4144 4061 4145 4062 4146 4063 4147 4146 4147 4117 4201 4148 4065 4149 4117 4148 4201 4149 4066 4150 4151 4150 4067 4152 4151 4068 4069 4153 4152 4071 4155 4153 4202 4118 4154 4202 4155 4118 4154 4072 4156 4157 4156 4073 4158 4157 4074 4075 4159 4158 4076 4160 4159 4119 4203 4160 4161 4203 4119 4161 4078 4162 4162 4079 4163 4164 4163 4080 4165 4164 4120 4166 4165 4121 4204 4130 4122 4168 4083 4167 4205 4125 4124 4125 4206 4167 4169 4086 4170 4169 4207 4124 4170 4087 4171 4172 4171 4088 4173 4172 4089 4173 4090 4174 4091 4175 4174 4176 4175 4092 4177 4176 4093 4208 4177 4126 4208 4126 4178 4179 4178 4095 4180 4179 4096 4181 4180 4097 4209 4181 4127 4183 4182 4099 4182 4209 4127 4184 4183 4100 4185 4184 4101 4185 4102 4186 4186 4103 4187 4187 4104 4188 4188 4128 4210 4210 4128 4189 4190 4189 4106 4191 4190 4107 4192 4191 4108 4192 4109 4193 4110 4194 4193 4129 4211 4194 4195 4211 4129 4112 4196 4195 4212 4196 4130 4204 4122 4131 4197 4213 4131 4133 4214 4132 4214 4197 4132 4133 4134 4215 4216 4134 4135 4135 4136 4217 4136 4198 4218 4137 4138 4219 4198 4137 4219 4139 4220 4138 4221 4139 4140 4141 4222 4140 4142 4223 4141 4142 4199 4224 4199 4116 4200 4225 4143 4144 4200 4143 4225 4226 4144 4145 4145 4146 4227 4146 4147 4228 4147 4201 4229 4148 4149 4230 4148 4230 4201 4231 4149 4150 4232 4150 4151 4152 4233 4151 4152 4153 4234 4155 4235 4153 4202 4154 4236 4237 4155 4202 4236 4154 4156 4157 4238 4156 4158 4239 4157 4158 4159 4240 4159 4160 4241 4203 4242 4160 4243 4203 4161 4243 4161 4162 4244 4162 4163 4163 4164 4245 4165 4246 4164 4166 4247 4165 4212 4130 4204 4248 4168 4167 4205 4206 4125 4207 4205 4124 4206 4248 4167 4169 4170 4249 4169 4249 4207 4250 4170 4171 4172 4251 4171 4252 4172 4173 4173 4174 4253 4175 4254 4174 4255 4175 4176 4256 4176 4177 4257 4177 4208 4258 4208 4178 4179 4258 4178 4259 4179 4180 4181 4260 4180 4261 4181 4209 4183 4262 4182 4182 4262 4209 4263 4183 4184 4264 4184 4185 4185 4186 4265 4186 4187 4266 4187 4188 4267 4188 4210 4268 4210 4189 4269 4269 4189 4190 4270 4190 4191 4271 4191 4192 4272 4192 4193 4193 4194 4273 4194 4211 4274 4195 4275 4211 4195 4196 4275 4212 4276 4196 4213 4204 4131 4197 4277 4213 4133 4215 4214 4214 4277 4197 4215 4134 4216 4216 4135 4217 4217 4136 4218 4198 4278 4218 4138 4220 4219 4198 4219 4278 4221 4220 4139 4222 4221 4140 4141 4223 4222 4142 4224 4223 4224 4199 4279 4199 4200 4279 4225 4144 4226 4200 4225 4280 4226 4145 4227 4227 4146 4228 4228 4147 4229 4201 4281 4229 4230 4149 4231 4230 4281 4201 4232 4231 4150 4233 4232 4151 4152 4234 4233 4153 4235 4234 4237 4235 4155 4202 4236 4282 4237 4202 4282 4238 4236 4156 4157 4239 4238 4158 4240 4239 4240 4159 4241 4160 4242 4241 4283 4242 4203 4283 4203 4243 4244 4243 4162 4284 4244 4163 4164 4246 4245 4284 4163 4245 4165 4247 4246 4212 4204 4285 4286 4206 4205 4205 4207 4287 4288 4248 4206 4249 4170 4250 4207 4249 4289 4251 4250 4171 4252 4251 4172 4252 4173 4253 4174 4254 4253 4255 4254 4175 4255 4176 4256 4256 4177 4257 4257 4208 4290 4290 4208 4258 4259 4258 4179 4260 4259 4180 4261 4260 4181 4291 4261 4209 4263 4262 4183 4262 4291 4209 4263 4184 4264 4264 4185 4265 4186 4266 4265 4266 4187 4267 4188 4268 4267 4268 4210 4292 4210 4269 4292 4269 4190 4270 4270 4191 4271 4271 4192 4272 4272 4193 4273 4273 4194 4274 4211 4293 4274 4275 4293 4211 4196 4276 4275 4294 4276 4212 4285 4204 4213 4277 4295 4213 4215 4296 4214 4296 4277 4214 4215 4216 4297 4298 4216 4217 4299 4217 4218 4218 4278 4300 4220 4301 4219 4219 4301 4278 4221 4302 4220 4303 4221 4222 4223 4304 4222 4223 4224 4305 4224 4279 4306 4200 4280 4279 4225 4226 4307 4225 4307 4280 4308 4226 4227 4309 4227 4228 4310 4228 4229 4229 4281 4311 4230 4231 4312 4230 4312 4281 4313 4231 4232 4232 4233 4314 4234 4315 4233 4235 4316 4234 4317 4235 4237 4282 4236 4318 4319 4237 4282 4236 4238 4318 4239 4320 4238 4239 4240 4321 4322 4240 4241 4242 4323 4241 4324 4242 4283 4283 4243 4325 4325 4243 4244 4326 4244 4284 4246 4327 4245 4327 4284 4245 4247 4328 4246 4294 4212 4285 4288 4206 4286 4286 4205 4287 4287 4207 4289 4249 4250 4329 4249 4329 4289 4330 4250 4251 4331 4251 4252 4332 4252 4253 4254 4333 4253 4334 4254 4255 4255 4256 4335 4256 4257 4336 4257 4290 4337 4290 4258 4338 4338 4258 4259 4339 4259 4260 4340 4260 4261 4341 4261 4291 4342 4262 4263 4342 4291 4262 4263 4264 4343 4264 4265 4344 4266 4345 4265 4266 4267 4346 4268 4347 4267 4348 4268 4292 4269 4349 4292 4269 4270 4349 4270 4271 4350 4271 4272 4351 4352 4272 4273 4353 4273 4274 4293 4354 4274 4355 4293 4275 4276 4355 4275 4294 4356 4276 4295 4285 4213 4277 4357 4295 4215 4297 4296 4296 4357 4277 4297 4216 4298 4299 4298 4217 4299 4218 4300 4300 4278 4358 4220 4302 4301 4278 4301 4358 4303 4302 4221 4304 4303 4222 4223 4305 4304 4305 4224 4306 4279 4359 4306 4280 4359 4279 4307 4226 4308 4307 4360 4280 4309 4308 4227 4310 4309 4228 4310 4229 4311 4311 4281 4361 4312 4231 4313 4281 4312 4361 4313 4232 4314 4233 4315 4314 4316 4315 4234 4317 4316 4235 4317 4237 4319 4362 4282 4318 4362 4319 4282 4238 4320 4318 4320 4239 4321 4240 4322 4321 4323 4322 4241 4324 4323 4242 4324 4283 4363 4283 4325 4363 4325 4244 4326 4326 4284 4364 4328 4327 4246 4284 4327 4364 4365 4294 4285 4366 4288 4286 4367 4286 4287 4287 4289 4368 4329 4250 4330 4329 4369 4289 4330 4251 4331 4332 4331 4252 4333 4332 4253 4334 4333 4254 4334 4255 4335 4256 4336 4335 4257 4337 4336 4337 4290 4370 4290 4338 4370 4338 4259 4339 4339 4260 4340 4340 4261 4341 4341 4291 4371 4342 4263 4343 4371 4291 4342 4343 4264 4344 4265 4345 4344 4266 4346 4345 4267 4347 4346 4268 4348 4347 4372 4348 4292 4349 4372 4292 4349 4270 4350 4271 4351 4350 4351 4272 4352 4353 4352 4273 4354 4353 4274 4293 4373 4354 4355 4373 4293 4276 4356 4355 4374 4356 4294 4295 4365 4285 4295 4357 4375 4296 4297 4376 4296 4376 4357 4297 4298 4377 4378 4298 4299 4379 4299 4300 4380 4300 4358 4301 4302 4381 4301 4381 4358 4303 4382 4302 4304 4383 4303 4304 4305 4384 4385 4305 4306 4306 4359 4386 4280 4360 4359 4307 4308 4387 4307 4387 4360 4388 4308 4309 4310 4389 4309 4390 4310 4311 4391 4311 4361 4312 4313 4392 4312 4392 4361 4393 4313 4314 4315 4394 4314 4316 4395 4315 4396 4316 4317 4397 4317 4319 4398 4362 4318 4319 4362 4399 4320 4398 4318 4400 4320 4321 4321 4322 4401 4323 4402 4322 4403 4323 4324 4404 4324 4363 4325 4405 4363 4325 4326 4405 4406 4326 4364 4328 4407 4327 4327 4408 4364 4374 4294 4365 4367 4366 4286 4367 4287 4368 4289 4369 4368 4329 4330 4409 4329 4409 4369 4330 4331 4410 4331 4332 4411 4333 4412 4332 4413 4333 4334 4414 4334 4335 4336 4415 4335 4337 4416 4336 4417 4337 4370 4338 4418 4370 4338 4339 4418 4339 4340 4419 4340 4341 4420 4341 4371 4421 4342 4343 4422 4371 4342 4422 4423 4343 4344 4344 4345 4424 4345 4346 4425 4346 4347 4426 4348 4427 4347 4372 4428 4348 4372 4349 4429 4429 4349 4350 4351 4430 4350 4351 4352 4431 4432 4352 4353 4353 4354 4433 4354 4373 4434 4355 4435 4373 4355 4356 4435 4374 4436 4356 4365 4295 4375 4357 4437 4375 4297 4377 4376 4376 4437 4357 4377 4298 4378 4378 4299 4379 4380 4379 4300 4380 4358 4438 4302 4382 4381 4358 4381 4438 4303 4383 4382 4304 4384 4383 4384 4305 4385 4385 4306 4386 4386 4359 4439 4359 4360 4439 4387 4308 4388 4360 4387 4440 4389 4388 4309 4390 4389 4310 4391 4390 4311 4391 4361 4441 4392 4313 4393 4361 4392 4441 4394 4393 4314 4315 4395 4394 4396 4395 4316 4396 4317 4397 4397 4319 4399 4398 4442 4362 4362 4442 4399 4400 4398 4320 4400 4321 4401 4322 4402 4401 4403 4402 4323 4403 4324 4404 4404 4363 4443 4363 4405 4443 4405 4326 4406 4408 4406 4364 4407 4408 4327 4374 4365 4444 4445 4366 4367 4446 4367 4368 4369 4446 4368 4409 4330 4410 4369 4409 4447 4331 4411 4410 4332 4412 4411 4413 4412 4333 4413 4334 4414 4415 4414 4335 4416 4415 4336 4416 4337 4417 4448 4417 4370 4418 4448 4370 4418 4339 4419 4340 4420 4419 4341 4421 4420 4421 4371 4449 4422 4343 4423 4449 4371 4422 4423 4344 4424 4345 4425 4424 4425 4346 4426 4347 4427 4426 4428 4427 4348 4450 4428 4372 4450 4372 4429 4430 4429 4350 4351 4431 4430 4431 4352 4432 4432 4353 4433 4433 4354 4434 4373 4451 4434 4435 4451 4373 4356 4436 4435 4452 4436 4374 4365 4375 4444 4437 4453 4375 4377 4454 4376 4454 4437 4376 4377 4378 4455 4456 4378 4379 4380 4457 4379 4458 4380 4438 4381 4382 4459 4438 4381 4459 4382 4383 4460 4383 4384 4461 4384 4385 4462 4385 4386 4463 4464 4386 4439 4360 4440 4439 4387 4388 4465 4387 4465 4440 4466 4388 4389 4467 4389 4390 4468 4390 4391 4469 4391 4441 4392 4393 4470 4441 4392 4470 4393 4394 4471 4395 4472 4394 4473 4395 4396 4396 4397 4474 4475 4397 4399 4476 4442 4398 4442 4477 4399 4476 4398 4400 4478 4400 4401 4402 4479 4401 4480 4402 4403 4403 4404 4481 4482 4404 4443 4405 4483 4443 4483 4405 4406 4408 4484 4406 4407 4485 4408 4452 4374 4444 4445 4367 4486 4367 4446 4486 4369 4447 4446 4487 4409 4410 4447 4409 4487 4411 4488 4410 4412 4489 4411 4490 4412 4413 4491 4413 4414 4415 4492 4414 4416 4493 4415 4494 4416 4417 4495 4417 4448 4448 4418 4496 4418 4419 4496 4420 4497 4419 4421 4498 4420 4421 4449 4499 4500 4422 4423 4449 4422 4500 4501 4423 4424 4425 4502 4424 4503 4425 4426 4427 4504 4426 4428 4505 4427 4450 4506 4428 4507 4450 4429 4430 4507 4429 4430 4431 4508 4431 4432 4509 4510 4432 4433 4511 4433 4434 4451 4512 4434 4513 4451 4435 4436 4513 4435 4452 4514 4436 4375 4453 4444 4437 4515 4453 4377 4455 4454 4454 4515 4437 4455 4378 4456 4457 4456 4379 4458 4457 4380 4516 4458 4438 4382 4460 4459 4516 4438 4459 4383 4461 4460 4461 4384 4462 4462 4385 4463 4386 4464 4463 4517 4464 4439 4440 4517 4439 4465 4388 4466 4465 4518 4440 4466 4389 4467 4467 4390 4468 4468 4391 4469 4469 4441 4519 4393 4471 4470 4519 4441 4470 4394 4472 4471 4473 4472 4395 4473 4396 4474 4474 4397 4475 4477 4475 4399 4476 4520 4442 4442 4520 4477 4476 4400 4478 4479 4478 4401 4480 4479 4402 4480 4403 4481 4481 4404 4521 4404 4482 4521 4483 4482 4443 4484 4483 4406 4408 4485 4484 4522 4452 4444 4523 4445 4486 4446 4524 4486 4446 4447 4524 4488 4487 4410 4525 4447 4487 4489 4488 4411 4490 4489 4412 4490 4413 4491 4492 4491 4414 4415 4493 4492 4494 4493 4416 4495 4494 4417 4495 4448 4526 4526 4448 4496 4419 4497 4496 4498 4497 4420 4421 4499 4498 4499 4449 4527 4501 4500 4423 4527 4449 4500 4502 4501 4424 4425 4503 4502 4504 4503 4426 4427 4505 4504 4428 4506 4505 4528 4506 4450 4528 4450 4507 4507 4430 4508 4431 4509 4508 4509 4432 4510 4511 4510 4433 4512 4511 4434 4451 4529 4512 4513 4529 4451 4436 4514 4513 4452 4530 4514 4453 4522 4444 4453 4515 4531 4455 4532 4454 4532 4515 4454 4455 4456 4533 4534 4456 4457 4535 4457 4458 4536 4458 4516 4460 4537 4459 4537 4516 4459 4460 4461 4538 4539 4461 4462 4540 4462 4463 4464 4541 4463 4542 4464 4517 4440 4518 4517 4465 4466 4543 4465 4543 4518 4466 4467 4544 4467 4468 4545 4468 4469 4546 4547 4469 4519 4471 4548 4470 4548 4519 4470 4472 4549 4471 4550 4472 4473 4551 4473 4474 4552 4474 4475 4477 4553 4475 4554 4520 4476 4520 4555 4477 4554 4476 4478 4479 4556 4478 4557 4479 4480 4558 4480 4481 4559 4481 4521 4482 4560 4521 4483 4561 4482 4562 4483 4484 4485 4563 4484 4522 4530 4452 4524 4523 4486 4447 4525 4524 4487 4488 4564 4525 4487 4564 4489 4565 4488 4566 4489 4490 4490 4491 4567 4568 4491 4492 4493 4569 4492 4494 4570 4493 4495 4571 4494 4572 4495 4526 4573 4526 4496 4497 4573 4496 4498 4574 4497 4499 4575 4498 4499 4527 4576 4501 4577 4500 4577 4527 4500 4578 4501 4502 4503 4579 4502 4580 4503 4504 4504 4505 4581 4505 4506 4582 4528 4583 4506 4528 4507 4584 4507 4508 4584 4509 4585 4508 4509 4510 4586 4587 4510 4511 4511 4512 4588 4529 4589 4512 4513 4590 4529 4513 4514 4590 4514 4530 4591 4522 4453 4531 4515 4592 4531 4455 4533 4532 4532 4592 4515 4533 4456 4534 4534 4457 4535 4535 4458 4536 4536 4516 4593 4537 4460 4538 4593 4516 4537 4538 4461 4539 4540 4539 4462 4541 4540 4463 4542 4541 4464 4594 4542 4517 4518 4594 4517 4543 4466 4544 4518 4543 4595 4467 4545 4544 4545 4468 4546 4469 4547 4546 4596 4547 4519 4549 4548 4471 4548 4596 4519 4550 4549 4472 4550 4473 4551 4551 4474 4552 4553 4552 4475 4555 4553 4477 4554 4597 4520 4520 4597 4555 4556 4554 4478 4557 4556 4479 4557 4480 4558 4558 4481 4559 4560 4559 4521 4482 4561 4560 4562 4561 4483 4563 4562 4484 4598 4530 4522 4599 4523 4524 4525 4600 4524 4488 4565 4564 4601 4525 4564 4566 4565 4489 4566 4490 4567 4491 4568 4567 4569 4568 4492 4493 4570 4569 4494 4571 4570 4572 4571 4495 4602 4572 4526 4573 4602 4526 4497 4574 4573 4498 4575 4574 4499 4576 4575 4576 4527 4603 4578 4577 4501 4603 4527 4577 4579 4578 4502 4580 4579 4503 4580 4504 4581 4505 4582 4581 4506 4583 4582 4604 4583 4528 4604 4528 4584 4508 4585 4584 4509 4586 4585 4586 4510 4587 4587 4511 4588 4512 4589 4588 4529 4605 4589 4529 4590 4605 4590 4514 4591 4530 4606 4591 4598 4522 4531 4592 4607 4531 4532 4533 4608 4532 4608 4592 4533 4534 4609 4534 4535 4610 4535 4536 4611 4536 4593 4612 4613 4537 4538 4593 4537 4613 4614 4538 4539 4540 4615 4539 4616 4540 4541 4541 4542 4617 4594 4618 4542 4518 4595 4594 4619 4543 4544 4595 4543 4619 4544 4545 4620 4621 4545 4546 4547 4622 4546 4596 4623 4547 4549 4624 4548 4548 4624 4596 4625 4549 4550 4550 4551 4626 4627 4551 4552 4553 4628 4552 4555 4629 4553 4554 4630 4597 4555 4597 4631 4556 4630 4554 4632 4556 4557 4557 4558 4633 4634 4558 4559 4559 4560 4635 4560 4561 4636 4562 4637 4561 4563 4638 4562 4598 4606 4530 4600 4599 4524 4601 4600 4525 4565 4639 4564 4639 4601 4564 4640 4565 4566 4641 4566 4567 4568 4642 4567 4569 4643 4568 4569 4570 4644 4570 4571 4645 4572 4646 4571 4602 4647 4572 4602 4573 4648 4573 4574 4648 4574 4575 4649 4575 4576 4650 4576 4603 4651 4652 4577 4578 4603 4577 4652 4653 4578 4579 4654 4579 4580 4655 4580 4581 4582 4656 4581 4582 4583 4657 4604 4658 4583 4604 4584 4659 4584 4585 4659 4585 4586 4660 4586 4587 4661 4662 4587 4588 4588 4589 4663 4589 4605 4664 4605 4590 4665 4665 4590 4591 4591 4606 4666 4607 4598 4531 4592 4667 4607 4608 4533 4609 4592 4608 4667 4534 4610 4609 4610 4535 4611 4611 4536 4612 4612 4593 4668 4614 4613 4538 4593 4613 4668 4615 4614 4539 4616 4615 4540 4616 4541 4617 4542 4618 4617 4594 4669 4618 4594 4595 4669 4619 4544 4620 4595 4619 4670 4620 4545 4621 4622 4621 4546 4623 4622 4547 4671 4623 4596 4625 4624 4549 4624 4671 4596 4625 4550 4626 4626 4551 4627 4628 4627 4552 4629 4628 4553 4555 4631 4629 4597 4630 4672 4631 4597 4672 4632 4630 4556 4632 4557 4633 4633 4558 4634 4673 4634 4559 4560 4636 4635 4673 4559 4635 4561 4637 4636 4562 4638 4637 4598 4674 4606 4675 4599 4600 4600 4601 4676 4640 4639 4565 4639 4677 4601 4640 4566 4641 4642 4641 4567 4568 4643 4642 4569 4644 4643 4644 4570 4645 4571 4646 4645 4572 4647 4646 4678 4647 4602 4678 4602 4648 4574 4649 4648 4649 4575 4650 4576 4651 4650 4651 4603 4679 4652 4578 4653 4603 4652 4679 4653 4579 4654 4654 4580 4655 4656 4655 4581 4582 4657 4656 4583 4658 4657 4680 4658 4604 4680 4604 4659 4585 4660 4659 4586 4661 4660 4661 4587 4662 4662 4588 4663 4663 4589 4664 4605 4681 4664 4605 4665 4681 4665 4591 4666 4666 4606 4682 4607 4674 4598 4607 4667 4683 4684 4608 4609 4667 4608 4684 4609 4610 4685 4686 4610 4611 4687 4611 4612 4688 4612 4668 4613 4614 4689 4668 4613 4689 4615 4690 4614 4691 4615 4616 4692 4616 4617 4618 4693 4617 4618 4669 4694 4669 4595 4670 4695 4619 4620 4670 4619 4695 4696 4620 4621 4622 4697 4621 4698 4622 4623 4671 4699 4623 4700 4624 4625 4700 4671 4624 4701 4625 4626 4702 4626 4627 4628 4703 4627 4704 4628 4629 4629 4631 4705 4630 4706 4672 4707 4631 4672 4632 4706 4630 4708 4632 4633 4709 4633 4634 4673 4710 4634 4636 4711 4635 4711 4673 4635 4637 4712 4636 4638 4713 4637 4606 4674 4682 4675 4600 4676 4601 4677 4676 4714 4639 4640 4714 4677 4639 4640 4641 4715 4641 4642 4716 4643 4717 4642 4643 4644 4718 4719 4644 4645 4645 4646 4720 4646 4647 4721 4678 4722 4647 4723 4678 4648 4649 4723 4648 4649 4650 4724 4650 4651 4725 4726 4651 4679 4652 4653 4727 4652 4727 4679 4653 4654 4728 4654 4655 4729 4730 4655 4656 4657 4731 4656 4658 4732 4657 4733 4658 4680 4734 4680 4659 4660 4734 4659 4661 4735 4660 4661 4662 4736 4737 4662 4663 4738 4663 4664 4681 4739 4664 4681 4665 4740 4740 4665 4666 4741 4666 4682 4607 4683 4674 4683 4667 4742 4684 4609 4685 4667 4684 4742 4685 4610 4686 4687 4686 4611 4688 4687 4612 4743 4688 4668 4614 4690 4689 4743 4668 4689 4691 4690 4615 4692 4691 4616 4693 4692 4617 4618 4694 4693 4694 4669 4744 4744 4669 4670 4696 4695 4620 4745 4670 4695 4697 4696 4621 4698 4697 4622 4699 4698 4623 4746 4699 4671 4700 4625 4701 4746 4671 4700 4701 4626 4702 4703 4702 4627 4704 4703 4628 4704 4629 4705 4631 4707 4705 4706 4747 4672 4747 4707 4672 4708 4706 4632 4709 4708 4633 4710 4709 4634 4748 4710 4673 4636 4712 4711 4748 4673 4711 4713 4712 4637 4674 4749 4682 4750 4675 4676 4677 4751 4676 4714 4640 4715 4752 4677 4714 4715 4641 4716 4642 4717 4716 4717 4643 4718 4718 4644 4719 4719 4645 4720 4646 4721 4720 4647 4722 4721 4753 4722 4678 4753 4678 4723 4723 4649 4724 4724 4650 4725 4651 4726 4725 4754 4726 4679 4727 4653 4728 4727 4754 4679 4654 4729 4728 4655 4730 4729 4731 4730 4656 4657 4732 4731 4733 4732 4658 4733 4680 4755 4755 4680 4734 4735 4734 4660 4661 4736 4735 4736 4662 4737 4738 4737 4663 4739 4738 4664 4681 4756 4739 4681 4740 4756 4741 4740 4666 4757 4741 4682 4674 4683 4749 4758 4683 4742 4759 4684 4685 4742 4684 4759 4760 4685 4686 4687 4761 4686 4688 4762 4687 4763 4688 4743 4690 4764 4689 4764 4743 4689 4765 4690 4691 4691 4692 4766 4693 4767 4692 4693 4694 4768 4694 4744 4769 4744 4670 4745 4696 4770 4695 4770 4745 4695 4771 4696 4697 4698 4772 4697 4699 4773 4698 4774 4699 4746 4700 4701 4775 4746 4700 4775 4776 4701 4702 4703 4777 4702 4778 4703 4704 4779 4704 4705 4707 4780 4705 4781 4747 4706 4747 4782 4707 4781 4706 4708 4783 4708 4709 4784 4709 4710 4785 4710 4748 4712 4786 4711 4786 4748 4711 4713 4787 4712 4749 4757 4682 4751 4750 4676 4752 4751 4677 4788 4714 4715 4752 4714 4788 4789 4715 4716 4717 4790 4716 4791 4717 4718 4718 4719 4792 4793 4719 4720 4721 4794 4720 4721 4722 4795 4753 4796 4722 4753 4723 4797 4723 4724 4797 4798 4724 4725 4726 4799 4725 4754 4800 4726 4801 4727 4728 4754 4727 4801 4729 4802 4728 4730 4803 4729 4804 4730 4731 4732 4805 4731 4806 4732 4733 4733 4755 4807 4755 4734 4808 4808 4734 4735 4736 4809 4735 4736 4737 4810 4811 4737 4738 4738 4739 4812 4739 4756 4813 4756 4740 4814 4814 4740 4741 4757 4815 4741 4749 4683 4758 4758 4742 4816 4760 4759 4685 4816 4742 4759 4761 4760 4686 4687 4762 4761 4763 4762 4688 4817 4763 4743 4765 4764 4690 4764 4817 4743 4765 4691 4766 4692 4767 4766 4693 4768 4767 4768 4694 4769 4769 4744 4818 4818 4744 4745 4771 4770 4696 4770 4819 4745 4772 4771 4697 4698 4773 4772 4774 4773 4699 4774 4746 4820 4775 4701 4776 4820 4746 4775 4777 4776 4702 4778 4777 4703 4778 4704 4779 4780 4779 4705 4782 4780 4707 4821 4747 4781 4821 4782 4747 4781 4708 4783 4783 4709 4784 4784 4710 4785 4785 4748 4822 4712 4787 4786 4822 4748 4786 4749 4823 4757 4824 4750 4751 4825 4751 4752 4789 4788 4715 4752 4788 4826 4790 4789 4716 4791 4790 4717 4791 4718 4792 4719 4793 4792 4794 4793 4720 4794 4721 4795 4722 4796 4795 4827 4796 4753 4827 4753 4797 4724 4798 4797 4799 4798 4725 4726 4800 4799 4828 4800 4754 4802 4801 4728 4828 4754 4801 4803 4802 4729 4804 4803 4730 4805 4804 4731 4806 4805 4732 4806 4733 4807 4807 4755 4829 4755 4808 4829 4809 4808 4735 4736 4810 4809 4810 4737 4811 4811 4738 4812 4739 4813 4812 4813 4756 4830 4756 4814 4830 4815 4814 4741 4815 4757 4831 4749 4758 4823 4832 4758 4816 4760 4833 4759 4833 4816 4759 4834 4760 4761 4762 4835 4761 4763 4836 4762 4837 4763 4817 4838 4764 4765 4838 4817 4764 4765 4766 4839 4766 4767 4840 4767 4768 4841 4842 4768 4769 4843 4769 4818 4819 4818 4745 4771 4844 4770 4770 4844 4819 4772 4845 4771 4773 4846 4772 4847 4773 4774 4774 4820 4848 4849 4775 4776 4820 4775 4849 4777 4850 4776 4851 4777 4778 4778 4779 4852 4779 4780 4853 4782 4854 4780 4821 4781 4855 4856 4782 4821 4781 4783 4855 4783 4784 4857 4784 4785 4858 4785 4822 4859 4787 4860 4786 4822 4786 4861 4757 4823 4831 4824 4751 4825 4825 4752 4826 4862 4788 4789 4826 4788 4862 4789 4790 4863 4791 4864 4790 4865 4791 4792 4793 4866 4792 4867 4793 4794 4794 4795 4868 4796 4869 4795 4827 4870 4796 4871 4827 4797 4798 4871 4797 4872 4798 4799 4799 4800 4873 4828 4874 4800 4802 4875 4801 4875 4828 4801 4803 4876 4802 4877 4803 4804 4878 4804 4805 4879 4805 4806 4880 4806 4807 4881 4807 4829 4829 4808 4882 4808 4809 4882 4809 4810 4883 4810 4811 4884 4885 4811 4812 4812 4813 4886 4813 4830 4887 4814 4888 4830 4888 4814 4815 4889 4815 4831 4823 4758 4832 4890 4832 4816 4834 4833 4760 4833 4890 4816 4835 4834 4761 4762 4836 4835 4837 4836 4763 4837 4817 4891 4838 4765 4839 4891 4817 4838 4839 4766 4840 4767 4841 4840 4841 4768 4842 4843 4842 4769 4892 4843 4818 4819 4892 4818 4771 4845 4844 4819 4844 4893 4846 4845 4772 4847 4846 4773 4847 4774 4848 4848 4820 4894 4850 4849 4776 4894 4820 4849 4851 4850 4777 4851 4778 4852 4852 4779 4853 4780 4854 4853 4856 4854 4782 4895 4821 4855 4856 4821 4895 4783 4857 4855 4857 4784 4858 4858 4785 4859 4859 4822 4861 4786 4860 4861 4823 4896 4831 4897 4824 4825 4898 4825 4826 4862 4789 4863 4826 4862 4899 4790 4864 4863 4865 4864 4791 4866 4865 4792 4867 4866 4793 4867 4794 4868 4795 4869 4868 4796 4870 4869 4900 4870 4827 4900 4827 4871 4872 4871 4798 4872 4799 4873 4800 4874 4873 4901 4874 4828 4802 4876 4875 4901 4828 4875 4877 4876 4803 4877 4804 4878 4878 4805 4879 4879 4806 4880 4881 4880 4807 4881 4829 4902 4829 4882 4902 4809 4883 4882 4810 4884 4883 4884 4811 4885 4885 4812 4886 4886 4813 4887 4830 4903 4887 4830 4888 4903 4889 4888 4815 4904 4889 4831 4823 4832 4896 4905 4832 4890 4906 4833 4834 4906 4890 4833 4834 4835 4907 4836 4908 4835 4909 4836 4837 4837 4891 4910 4911 4838 4839 4891 4838 4911 4912 4839 4840 4841 4913 4840 4841 4842 4914 4915 4842 4843 4916 4843 4892 4892 4819 4893 4844 4845 4917 4844 4917 4893 4846 4918 4845 4919 4846 4847 4920 4847 4848 4921 4848 4894 4850 4922 4849 4922 4894 4849 4851 4923 4850 4924 4851 4852 4925 4852 4853 4854 4926 4853 4927 4854 4856 4895 4855 4928 4856 4895 4929 4855 4857 4928 4930 4857 4858 4931 4858 4859 4932 4859 4861 4860 4933 4861 4896 4904 4831 4898 4897 4825 4898 4826 4899 4934 4862 4863 4862 4934 4899 4864 4935 4863 4865 4936 4864 4866 4937 4865 4867 4938 4866 4939 4867 4868 4869 4940 4868 4870 4941 4869 4942 4870 4900 4900 4871 4943 4943 4871 4872 4944 4872 4873 4874 4945 4873 4901 4946 4874 4876 4947 4875 4947 4901 4875 4948 4876 4877 4877 4878 4949 4878 4879 4950 4879 4880 4951 4952 4880 4881 4953 4881 4902 4882 4954 4902 4883 4954 4882 4884 4955 4883 4884 4885 4956 4957 4885 4886 4958 4886 4887 4903 4959 4887 4888 4960 4903 4889 4960 4888 4904 4961 4889 4896 4832 4905 4905 4890 4962 4906 4834 4907 4962 4890 4906 4835 4908 4907 4909 4908 4836 4909 4837 4910 4891 4963 4910 4912 4911 4839 4891 4911 4963 4913 4912 4840 4841 4914 4913 4914 4842 4915 4915 4843 4916 4916 4892 4964 4892 4893 4964 4845 4918 4917 4917 4965 4893 4919 4918 4846 4919 4847 4920 4920 4848 4921 4966 4921 4894 4850 4923 4922 4922 4966 4894 4924 4923 4851 4925 4924 4852 4926 4925 4853 4927 4926 4854 4927 4856 4929 4967 4895 4928 4929 4895 4967 4928 4857 4930 4931 4930 4858 4932 4931 4859 4933 4932 4861 4896 4968 4904 4969 4897 4898 4970 4898 4899 4935 4934 4863 4934 4971 4899 4864 4936 4935 4865 4937 4936 4866 4938 4937 4939 4938 4867 4940 4939 4868 4941 4940 4869 4942 4941 4870 4942 4900 4972 4900 4943 4972 4943 4872 4944 4945 4944 4873 4874 4946 4945 4901 4973 4946 4948 4947 4876 4947 4973 4901 4948 4877 4949 4949 4878 4950 4879 4951 4950 4951 4880 4952 4952 4881 4953 4974 4953 4902 4954 4974 4902 4955 4954 4883 4884 4956 4955 4956 4885 4957 4958 4957 4886 4959 4958 4887 4903 4975 4959 4960 4975 4903 4889 4961 4960 4904 4976 4961 4896 4905 4968 4905 4962 4977 4978 4906 4907 4962 4906 4978 4908 4979 4907 4909 4980 4908 4981 4909 4910 4910 4963 4982 4983 4911 4912 4963 4911 4983 4912 4913 4984 4913 4914 4985 4914 4915 4986 4915 4916 4987 4988 4916 4964 4893 4965 4964 4918 4989 4917 4917 4989 4965 4990 4918 4919 4919 4920 4991 4992 4920 4921 4966 4993 4921 4922 4923 4994 4922 4994 4966 4924 4995 4923 4996 4924 4925 4926 4997 4925 4998 4926 4927 4999 4927 4929 5000 4967 4928 5001 4929 4967 5000 4928 4930 4931 5002 4930 4932 5003 4931 4933 5004 4932 4904 4968 4976 4969 4898 4970 4971 4970 4899 4935 5005 4934 4934 5005 4971 4935 4936 5006 4936 4937 5007 4937 4938 5008 4939 5009 4938 4940 5010 4939 4941 5011 4940 4942 5012 4941 5013 4942 4972 4972 4943 5014 5014 4943 4944 4945 5015 4944 4945 4946 5016 4946 4973 5017 5018 4947 4948 5018 4973 4947 5019 4948 4949 5020 4949 4950 4950 4951 5021 4951 4952 5022 5023 4952 4953 4974 5024 4953 4954 5025 4974 4955 5025 4954 4955 4956 5026 4956 4957 5027 5028 4957 4958 4958 4959 5029 4959 4975 5030 4960 5031 4975 4960 4961 5031 4961 4976 5032 4968 4905 4977 4962 5033 4977 4979 4978 4907 4962 4978 5033 4908 4980 4979 4981 4980 4909 4981 4910 4982 4982 4963 5034 4983 4912 4984 4963 4983 5034 4984 4913 4985 4985 4914 4986 4986 4915 4987 4987 4916 4988 5035 4988 4964 4965 5035 4964 4990 4989 4918 4989 5036 4965 4990 4919 4991 4991 4920 4992 4993 4992 4921 4993 4966 5037 4923 4995 4994 4966 4994 5037 4996 4995 4924 4997 4996 4925 4998 4997 4926 4998 4927 4999 5001 4999 4929 5000 5038 4967 5038 5001 4967 5002 5000 4930 5002 4931 5039 4932 5004 5003 4931 5003 5039 4976 4968 5040 5041 4969 4970 4971 5042 4970 4935 5006 5005 4971 5005 5043 5006 4936 5007 4937 5008 5007 4938 5009 5008 4939 5010 5009 4940 5011 5010 4941 5012 5011 5013 5012 4942 5044 5013 4972 5044 4972 5014 5015 5014 4944 4945 5016 5015 5016 4946 5017 4973 5045 5017 5018 4948 5019 5018 5045 4973 5020 5019 4949 5020 4950 5021 4951 5022 5021 5022 4952 5023 5024 5023 4953 5024 4974 5046 4974 5025 5046 4955 5026 5025 4956 5027 5026 5027 4957 5028 5028 4958 5029 5029 4959 5030 5030 4975 5047 4975 5031 5047 5031 4961 5032 4976 5048 5032 5040 4968 4977 4977 5033 5049 5050 4978 4979 5033 4978 5050 4980 5051 4979 4981 5052 4980 5053 4981 4982 5054 4982 5034 5055 4983 4984 5034 4983 5055 5056 4984 4985 5057 4985 4986 5058 4986 4987 5059 4987 4988 5035 5060 4988 5036 5035 4965 5061 4989 4990 5061 5036 4989 5062 4990 4991 5063 4991 4992 4993 5064 4992 5065 4993 5037 4995 5066 4994 4994 5066 5037 4996 5067 4995 4997 5068 4996 5069 4997 4998 4998 4999 5070 4999 5001 5071 5072 5038 5000 5038 5073 5001 5072 5000 5002 5074 5002 5039 5004 5075 5003 5003 5076 5039 4976 5040 5048 5042 5041 4970 5042 4971 5043 5005 5006 5077 5005 5077 5043 5078 5006 5007 5008 5079 5007 5009 5080 5008 5009 5010 5081 5010 5011 5082 5011 5012 5083 5013 5084 5012 5085 5013 5044 5086 5044 5014 5015 5086 5014 5015 5016 5087 5088 5016 5017 5045 5089 5017 5090 5018 5019 5090 5045 5018 5020 5091 5019 5092 5020 5021 5022 5093 5021 5022 5023 5094 5095 5023 5024 5096 5024 5046 5025 5097 5046 5026 5097 5025 5027 5098 5026 5027 5028 5099 5100 5028 5029 5101 5029 5030 5102 5030 5047 5047 5031 5103 5031 5032 5103 5032 5048 5104 5040 4977 5049 5049 5033 5105 5051 5050 4979 5033 5050 5105 4980 5052 5051 5053 5052 4981 5054 5053 4982 5106 5054 5034 5056 5055 4984 5106 5034 5055 5057 5056 4985 5058 5057 4986 5059 5058 4987 5060 5059 4988 5035 5107 5060 5036 5107 5035 5061 4990 5062 5108 5036 5061 5062 4991 5063 5064 5063 4992 5065 5064 4993 5109 5065 5037 4995 5067 5066 5066 5109 5037 4996 5068 5067 5069 5068 4997 5069 4998 5070 5070 4999 5071 5001 5073 5071 5110 5038 5072 5110 5073 5038 5072 5002 5074 5076 5074 5039 5075 5076 5003 5048 5040 5111 5112 5041 5042 5113 5042 5043 5077 5006 5078 5043 5077 5114 5079 5078 5007 5080 5079 5008 5009 5081 5080 5081 5010 5082 5011 5083 5082 5012 5084 5083 5085 5084 5013 5085 5044 5115 5044 5086 5115 5015 5087 5086 5016 5088 5087 5089 5088 5017 5116 5089 5045 5091 5090 5019 5116 5045 5090 5092 5091 5020 5093 5092 5021 5022 5094 5093 5094 5023 5095 5095 5024 5096 5117 5096 5046 5097 5117 5046 5098 5097 5026 5027 5099 5098 5099 5028 5100 5101 5100 5029 5102 5101 5030 5118 5102 5047 5118 5047 5103 5103 5032 5104 5104 5048 5119 5111 5040 5049 5120 5049 5105 5050 5051 5121 5105 5050 5121 5052 5122 5051 5123 5052 5053 5124 5053 5054 5125 5054 5106 5056 5126 5055 5126 5106 5055 5127 5056 5057 5058 5128 5057 5129 5058 5059 5060 5130 5059 5107 5131 5060 5108 5107 5036 5061 5062 5132 5108 5061 5132 5133 5062 5063 5064 5134 5063 5135 5064 5065 5136 5065 5109 5066 5067 5137 5109 5066 5137 5067 5068 5138 5069 5139 5068 5140 5069 5070 5141 5070 5071 5073 5142 5071 5110 5072 5143 5144 5073 5110 5143 5072 5074 5076 5145 5074 5075 5146 5076 5048 5111 5119 5113 5112 5042 5113 5043 5147 5077 5078 5148 5077 5148 5114 5147 5043 5114 5149 5078 5079 5080 5150 5079 5080 5081 5151 5152 5081 5082 5082 5083 5153 5084 5154 5083 5085 5155 5084 5156 5085 5115 5086 5157 5115 5087 5157 5086 5087 5088 5158 5089 5159 5088 5160 5089 5116 5161 5090 5091 5116 5090 5161 5162 5091 5092 5092 5093 5163 5094 5164 5093 5094 5095 5165 5166 5095 5096 5117 5167 5096 5168 5117 5097 5098 5168 5097 5098 5099 5169 5099 5100 5170 5171 5100 5101 5102 5172 5101 5173 5102 5118 5174 5118 5103 5174 5103 5104 5175 5104 5119 5111 5049 5120 5176 5120 5105 5051 5122 5121 5176 5105 5121 5123 5122 5052 5123 5053 5124 5124 5054 5125 5125 5106 5177 5127 5126 5056 5177 5106 5126 5128 5127 5057 5129 5128 5058 5130 5129 5059 5131 5130 5060 5178 5131 5107 5178 5107 5108 5132 5062 5133 5108 5132 5179 5134 5133 5063 5135 5134 5064 5135 5065 5136 5136 5109 5180 5067 5138 5137 5109 5137 5180 5068 5139 5138 5140 5139 5069 5141 5140 5070 5142 5141 5071 5144 5142 5073 5110 5143 5181 5144 5110 5181 5145 5143 5074 5076 5146 5145 5119 5111 5182 5183 5112 5113 5113 5147 5184 5078 5149 5148 5148 5185 5114 5185 5147 5114 5150 5149 5079 5080 5151 5150 5151 5081 5152 5152 5082 5153 5083 5154 5153 5084 5155 5154 5156 5155 5085 5186 5156 5115 5157 5186 5115 5157 5087 5158 5088 5159 5158 5160 5159 5089 5160 5116 5187 5161 5091 5162 5116 5161 5187 5162 5092 5163 5093 5164 5163 5094 5165 5164 5165 5095 5166 5167 5166 5096 5188 5167 5117 5188 5117 5168 5168 5098 5169 5099 5170 5169 5170 5100 5171 5172 5171 5101 5173 5172 5102 5189 5173 5118 5174 5189 5118 5175 5174 5104 5190 5175 5119 5182 5111 5120 5176 5191 5120 5122 5192 5121 5192 5176 5121 5193 5122 5123 5123 5124 5194 5124 5125 5195 5125 5177 5196 5197 5126 5127 5177 5126 5197 5198 5127 5128 5199 5128 5129 5200 5129 5130 5201 5130 5131 5202 5131 5178 5178 5108 5179 5203 5132 5133 5179 5132 5203 5134 5204 5133 5205 5134 5135 5135 5136 5206 5207 5136 5180 5138 5208 5137 5137 5208 5180 5139 5209 5138 5210 5139 5140 5140 5141 5211 5142 5212 5141 5144 5213 5142 5143 5214 5181 5215 5144 5181 5214 5143 5145 5146 5216 5145 5190 5119 5182 5183 5113 5184 5184 5147 5217 5148 5149 5218 5148 5218 5185 5217 5147 5185 5150 5219 5149 5150 5151 5220 5151 5152 5221 5222 5152 5153 5154 5223 5153 5155 5224 5154 5156 5225 5155 5186 5226 5156 5227 5186 5157 5227 5157 5158 5159 5228 5158 5229 5159 5160 5230 5160 5187 5161 5162 5231 5161 5231 5187 5232 5162 5163 5163 5164 5233 5165 5234 5164 5165 5166 5235 5236 5166 5167 5237 5167 5188 5188 5168 5238 5168 5169 5238 5169 5170 5239 5170 5171 5240 5241 5171 5172 5242 5172 5173 5243 5173 5189 5244 5189 5174 5244 5174 5175 5190 5245 5175 5191 5182 5120 5176 5246 5191 5193 5192 5122 5192 5246 5176 5193 5123 5194 5124 5195 5194 5125 5196 5195 5196 5177 5247 5197 5127 5198 5177 5197 5247 5198 5128 5199 5199 5129 5200 5200 5130 5201 5201 5131 5202 5202 5178 5248 5248 5178 5179 5204 5203 5133 5249 5179 5203 5205 5204 5134 5205 5135 5206 5206 5136 5207 5250 5207 5180 5209 5208 5138 5208 5250 5180 5210 5209 5139 5210 5140 5211 5141 5212 5211 5142 5213 5212 5215 5213 5144 5181 5214 5251 5215 5181 5251 5216 5214 5145 5252 5190 5182 5253 5183 5184 5254 5184 5217 5149 5219 5218 5218 5255 5185 5255 5217 5185 5150 5220 5219 5220 5151 5221 5152 5222 5221 5223 5222 5153 5224 5223 5154 5155 5225 5224 5156 5226 5225 5186 5256 5226 5227 5256 5186 5228 5227 5158 5229 5228 5159 5229 5160 5230 5230 5187 5257 5231 5162 5232 5187 5231 5257 5232 5163 5233 5164 5234 5233 5165 5235 5234 5235 5166 5236 5236 5167 5237 5237 5188 5258 5258 5188 5238 5169 5239 5238 5170 5240 5239 5240 5171 5241 5241 5172 5242 5242 5173 5243 5243 5189 5259 5259 5189 5244 5245 5244 5175 5260 5245 5190 5191 5252 5182 5246 5261 5191 5262 5192 5193 5262 5246 5192 5263 5193 5194 5195 5264 5194 5196 5265 5195 5266 5196 5247 5197 5198 5267 5197 5267 5247 5198 5199 5268 5199 5200 5269 5200 5201 5270 5201 5202 5271 5202 5248 5272 5249 5248 5179 5204 5273 5203 5273 5249 5203 5205 5274 5204 5275 5205 5206 5276 5206 5207 5250 5277 5207 5209 5278 5208 5208 5278 5250 5279 5209 5210 5280 5210 5211 5212 5281 5211 5213 5282 5212 5283 5213 5215 5214 5284 5251 5285 5215 5251 5216 5286 5214 5260 5190 5252 5254 5253 5184 5254 5217 5287 5219 5288 5218 5288 5255 5218 5217 5255 5287 5219 5220 5289 5290 5220 5221 5222 5291 5221 5223 5292 5222 5224 5293 5223 5224 5225 5294 5225 5226 5295 5226 5256 5296 5227 5297 5256 5228 5297 5227 5298 5228 5229 5229 5230 5299 5230 5257 5300 5231 5232 5301 5231 5301 5257 5302 5232 5233 5233 5234 5303 5234 5235 5304 5235 5236 5305 5236 5237 5306 5237 5258 5307 5308 5258 5238 5239 5308 5238 5240 5309 5239 5240 5241 5310 5241 5242 5311 5242 5243 5312 5243 5259 5313 5259 5244 5314 5314 5244 5245 5315 5245 5260 5191 5261 5252 5316 5261 5246 5262 5193 5263 5316 5246 5262 5264 5263 5194 5265 5264 5195 5265 5196 5266 5266 5247 5317 5267 5198 5268 5247 5267 5317 5199 5269 5268 5269 5200 5270 5270 5201 5271 5202 5272 5271 5272 5248 5318 5318 5248 5249 5204 5274 5273 5249 5273 5319 5275 5274 5205 5276 5275 5206 5277 5276 5207 5320 5277 5250 5279 5278 5209 5278 5320 5250 5279 5210 5280 5281 5280 5211 5212 5282 5281 5283 5282 5213 5283 5215 5285 5214 5286 5284 5284 5285 5251 5321 5260 5252 5322 5253 5254 5323 5254 5287 5219 5289 5288 5288 5324 5255 5255 5323 5287 5289 5220 5290 5291 5290 5221 5222 5292 5291 5293 5292 5223 5293 5224 5294 5225 5295 5294 5295 5226 5296 5256 5325 5296 5256 5297 5325 5298 5297 5228 5298 5229 5299 5299 5230 5300 5257 5326 5300 5301 5232 5302 5301 5326 5257 5302 5233 5303 5234 5304 5303 5235 5305 5304 5305 5236 5306 5306 5237 5307 5258 5327 5307 5258 5308 5327 5309 5308 5239 5240 5310 5309 5310 5241 5311 5242 5312 5311 5312 5243 5313 5259 5328 5313 5259 5314 5328 5314 5245 5315 5315 5260 5329 5261 5321 5252 5330 5261 5316 5331 5262 5263 5316 5262 5331 5263 5264 5332 5265 5333 5264 5334 5265 5266 5335 5266 5317 5336 5267 5268 5267 5336 5317 5269 5337 5268 5338 5269 5270 5270 5271 5339 5272 5340 5271 5272 5318 5341 5318 5249 5319 5274 5342 5273 5273 5342 5319 5275 5343 5274 5344 5275 5276 5276 5277 5345 5320 5346 5277 5347 5278 5279 5347 5320 5278 5279 5280 5348 5280 5281 5349 5282 5350 5281 5351 5282 5283 5352 5283 5285 5286 5353 5284 5284 5354 5285 5329 5260 5321 5322 5254 5355 5355 5254 5323 5288 5289 5356 5288 5356 5324 5255 5324 5323 5289 5290 5357 5290 5291 5358 5292 5359 5291 5360 5292 5293 5293 5294 5361 5295 5362 5294 5363 5295 5296 5325 5364 5296 5297 5365 5325 5298 5365 5297 5366 5298 5299 5367 5299 5300 5300 5326 5368 5301 5302 5369 5301 5369 5326 5370 5302 5303 5303 5304 5371 5304 5305 5372 5373 5305 5306 5374 5306 5307 5327 5375 5307 5308 5376 5327 5309 5376 5308 5309 5310 5377 5378 5310 5311 5311 5312 5379 5312 5313 5380 5313 5328 5381 5328 5314 5382 5314 5315 5382 5315 5329 5383 5330 5321 5261 5330 5316 5384 5331 5263 5332 5316 5331 5384 5264 5333 5332 5334 5333 5265 5335 5334 5266 5385 5335 5317 5337 5336 5268 5336 5385 5317 5269 5338 5337 5338 5270 5339 5271 5340 5339 5272 5341 5340 5341 5318 5386 5386 5318 5319 5274 5343 5342 5342 5387 5319 5344 5343 5275 5344 5276 5345 5277 5346 5345 5388 5346 5320 5347 5279 5348 5388 5320 5347 5348 5280 5349 5281 5350 5349 5351 5350 5282 5351 5283 5352 5354 5352 5285 5353 5354 5284 5329 5321 5389 5390 5322 5355 5391 5355 5323 5356 5289 5357 5324 5356 5392 5324 5391 5323 5290 5358 5357 5291 5359 5358 5360 5359 5292 5360 5293 5361 5294 5362 5361 5362 5295 5363 5364 5363 5296 5393 5364 5325 5365 5393 5325 5366 5365 5298 5367 5366 5299 5367 5300 5368 5368 5326 5394 5369 5302 5370 5326 5369 5394 5370 5303 5371 5371 5304 5372 5305 5373 5372 5374 5373 5306 5375 5374 5307 5395 5375 5327 5376 5395 5327 5309 5377 5376 5377 5310 5378 5378 5311 5379 5379 5312 5380 5313 5381 5380 5328 5396 5381 5396 5328 5382 5315 5383 5382 5329 5397 5383 5389 5321 5330 5330 5384 5398 5399 5331 5332 5331 5399 5384 5333 5400 5332 5334 5401 5333 5402 5334 5335 5403 5335 5385 5337 5404 5336 5336 5404 5385 5338 5405 5337 5406 5338 5339 5340 5407 5339 5340 5341 5408 5341 5386 5409 5387 5386 5319 5343 5410 5342 5342 5410 5387 5411 5343 5344 5412 5344 5345 5346 5413 5345 5388 5414 5346 5415 5347 5348 5388 5347 5415 5416 5348 5349 5350 5417 5349 5418 5350 5351 5351 5352 5419 5352 5354 5420 5353 5421 5354 5329 5389 5397 5390 5355 5422 5355 5391 5422 5356 5357 5423 5392 5356 5423 5324 5392 5391 5358 5424 5357 5359 5425 5358 5426 5359 5360 5427 5360 5361 5362 5428 5361 5429 5362 5363 5364 5430 5363 5393 5431 5364 5365 5432 5393 5366 5432 5365 5433 5366 5367 5434 5367 5368 5435 5368 5394 5369 5370 5436 5394 5369 5436 5437 5370 5371 5438 5371 5372 5373 5439 5372 5374 5440 5373 5375 5441 5374 5395 5442 5375 5376 5443 5395 5376 5377 5443 5377 5378 5444 5445 5378 5379 5446 5379 5380 5381 5447 5380 5396 5448 5381 5449 5396 5382 5383 5449 5382 5397 5450 5383 5389 5330 5398 5384 5451 5398 5400 5399 5332 5399 5451 5384 5333 5401 5400 5402 5401 5334 5402 5335 5403 5452 5403 5385 5337 5405 5404 5404 5452 5385 5406 5405 5338 5407 5406 5339 5407 5340 5408 5341 5409 5408 5409 5386 5453 5453 5386 5387 5411 5410 5343 5410 5454 5387 5411 5344 5412 5413 5412 5345 5346 5414 5413 5455 5414 5388 5416 5415 5348 5455 5388 5415 5417 5416 5349 5418 5417 5350 5418 5351 5419 5419 5352 5456 5354 5421 5420 5352 5420 5456 5397 5389 5457 5458 5390 5422 5422 5391 5459 5357 5424 5423 5460 5392 5423 5391 5392 5461 5425 5424 5358 5426 5425 5359 5426 5360 5427 5428 5427 5361 5429 5428 5362 5430 5429 5363 5431 5430 5364 5431 5393 5462 5393 5432 5462 5433 5432 5366 5433 5367 5434 5435 5434 5368 5463 5435 5394 5370 5437 5436 5463 5394 5436 5438 5437 5371 5439 5438 5372 5440 5439 5373 5441 5440 5374 5375 5442 5441 5395 5464 5442 5395 5443 5464 5443 5377 5444 5444 5378 5445 5446 5445 5379 5447 5446 5380 5448 5447 5381 5396 5465 5448 5449 5465 5396 5450 5449 5383 5397 5466 5450 5457 5389 5398 5398 5451 5467 5400 5468 5399 5399 5468 5451 5400 5401 5469 5402 5470 5401 5471 5402 5403 5452 5472 5403 5404 5405 5473 5452 5404 5473 5406 5474 5405 5407 5475 5406 5476 5407 5408 5408 5409 5477 5409 5453 5478 5454 5453 5387 5479 5410 5411 5479 5454 5410 5480 5411 5412 5412 5413 5481 5413 5414 5482 5455 5483 5414 5416 5484 5415 5484 5455 5415 5417 5485 5416 5486 5417 5418 5487 5418 5419 5488 5419 5456 5421 5489 5420 5420 5490 5456 5397 5457 5466 5491 5458 5422 5391 5461 5459 5491 5422 5459 5423 5424 5492 5461 5392 5460 5460 5423 5492 5425 5493 5424 5494 5425 5426 5495 5426 5427 5428 5496 5427 5497 5428 5429 5498 5429 5430 5499 5430 5431 5431 5462 5500 5432 5501 5462 5433 5501 5432 5502 5433 5434 5435 5503 5434 5463 5504 5435 5437 5505 5436 5505 5463 5436 5438 5506 5437 5439 5507 5438 5440 5508 5439 5509 5440 5441 5442 5510 5441 5442 5464 5511 5464 5443 5512 5512 5443 5444 5513 5444 5445 5446 5514 5445 5515 5446 5447 5447 5448 5516 5448 5465 5517 5449 5518 5465 5450 5518 5449 5450 5466 5519 5457 5398 5467 5467 5451 5520 5400 5469 5468 5451 5468 5520 5401 5470 5469 5471 5470 5402 5472 5471 5403 5521 5472 5452 5405 5474 5473 5521 5452 5473 5406 5475 5474 5476 5475 5407 5476 5408 5477 5409 5478 5477 5478 5453 5522 5522 5453 5454 5479 5411 5480 5523 5454 5479 5480 5412 5481 5413 5482 5481 5414 5483 5482 5524 5483 5455 5485 5484 5416 5524 5455 5484 5486 5485 5417 5486 5418 5487 5487 5419 5488 5490 5488 5456 5489 5490 5420 5466 5457 5525 5526 5458 5491 5461 5527 5459 5527 5491 5459 5424 5493 5492 5461 5460 5528 5529 5460 5492 5494 5493 5425 5494 5426 5495 5496 5495 5427 5497 5496 5428 5497 5429 5498 5498 5430 5499 5499 5431 5500 5462 5530 5500 5462 5501 5530 5502 5501 5433 5503 5502 5434 5504 5503 5435 5531 5504 5463 5506 5505 5437 5531 5463 5505 5507 5506 5438 5439 5508 5507 5509 5508 5440 5510 5509 5441 5442 5511 5510 5511 5464 5532 5464 5512 5532 5512 5444 5513 5514 5513 5445 5515 5514 5446 5515 5447 5516 5516 5448 5517 5465 5533 5517 5465 5518 5533 5450 5519 5518 5466 5534 5519 5525 5457 5467 5535 5467 5520 5469 5536 5468 5468 5536 5520 5470 5537 5469 5471 5538 5470 5472 5539 5471 5521 5540 5472 5474 5541 5473 5541 5521 5473 5474 5475 5542 5476 5543 5475 5544 5476 5477 5478 5545 5477 5478 5522 5546 5522 5454 5523 5479 5480 5547 5523 5479 5547 5548 5480 5481 5482 5549 5481 5483 5550 5482 5551 5483 5524 5552 5484 5485 5524 5484 5552 5553 5485 5486 5486 5487 5554 5555 5487 5488 5490 5556 5488 5489 5557 5490 5466 5525 5534 5526 5491 5558 5461 5528 5527 5558 5491 5527 5493 5559 5492 5528 5460 5529 5559 5529 5492 5494 5560 5493 5561 5494 5495 5496 5562 5495 5563 5496 5497 5497 5498 5564 5498 5499 5565 5566 5499 5500 5530 5567 5500 5501 5568 5530 5502 5568 5501 5503 5569 5502 5504 5570 5503 5531 5571 5504 5506 5572 5505 5572 5531 5505 5573 5506 5507 5508 5574 5507 5575 5508 5509 5510 5576 5509 5510 5511 5577 5578 5511 5532 5532 5512 5579 5579 5512 5513 5514 5580 5513 5515 5581 5514 5582 5515 5516 5583 5516 5517 5533 5584 5517 5533 5518 5585 5518 5519 5585 5534 5586 5519 5535 5525 5467 5587 5535 5520 5537 5536 5469 5536 5587 5520 5470 5538 5537 5471 5539 5538 5472 5540 5539 5588 5540 5521 5541 5474 5542 5588 5521 5541 5475 5543 5542 5544 5543 5476 5545 5544 5477 5478 5546 5545 5546 5522 5589 5522 5523 5589 5547 5480 5548 5590 5523 5547 5549 5548 5481 5482 5550 5549 5551 5550 5483 5551 5524 5591 5552 5485 5553 5524 5552 5591 5553 5486 5554 5554 5487 5555 5556 5555 5488 5490 5557 5556 5534 5525 5592 5593 5526 5558 5528 5594 5527 5594 5558 5527 5493 5560 5559 5528 5529 5595 5596 5529 5559 5561 5560 5494 5562 5561 5495 5563 5562 5496 5563 5497 5564 5564 5498 5565 5565 5499 5566 5567 5566 5500 5597 5567 5530 5568 5597 5530 5502 5569 5568 5503 5570 5569 5504 5571 5570 5531 5598 5571 5573 5572 5506 5572 5598 5531 5574 5573 5507 5575 5574 5508 5576 5575 5509 5510 5577 5576 5577 5511 5578 5578 5532 5599 5599 5532 5579 5580 5579 5513 5514 5581 5580 5582 5581 5515 5583 5582 5516 5584 5583 5517 5533 5600 5584 5600 5533 5585 5519 5586 5585 5534 5601 5586 5592 5525 5535 5535 5587 5602 5537 5603 5536 5536 5603 5587 5537 5538 5604 5538 5539 5605 5539 5540 5606 5588 5607 5540 5541 5542 5608 5588 5541 5608 5543 5609 5542 5544 5610 5543 5545 5611 5544 5545 5546 5612 5613 5546 5589 5589 5523 5590 5614 5547 5548 5614 5590 5547 5549 5615 5548 5550 5616 5549 5617 5550 5551 5618 5551 5591 5552 5553 5619 5552 5619 5591 5620 5553 5554 5621 5554 5555 5556 5622 5555 5557 5623 5556 5534 5592 5601 5624 5593 5558 5528 5595 5594 5558 5594 5625 5560 5626 5559 5595 5529 5596 5626 5596 5559 5561 5627 5560 5562 5628 5561 5629 5562 5563 5630 5563 5564 5631 5564 5565 5632 5565 5566 5567 5633 5566 5597 5634 5567 5568 5635 5597 5568 5569 5635 5569 5570 5636 5570 5571 5637 5571 5598 5638 5573 5639 5572 5572 5639 5598 5574 5640 5573 5575 5641 5574 5576 5642 5575 5576 5577 5643 5577 5578 5644 5645 5578 5599 5646 5599 5579 5580 5646 5579 5580 5581 5647 5582 5648 5581 5649 5582 5583 5583 5584 5650 5584 5600 5651 5652 5600 5585 5586 5652 5585 5586 5601 5653 5592 5535 5602 5602 5587 5654 5537 5604 5603 5587 5603 5654 5604 5538 5605 5605 5539 5606 5540 5607 5606 5655 5607 5588 5542 5609 5608 5655 5588 5608 5543 5610 5609 5544 5611 5610 5545 5612 5611 5612 5546 5613 5613 5589 5656 5656 5589 5590 5615 5614 5548 5614 5657 5590 5616 5615 5549 5617 5616 5550 5617 5551 5618 5618 5591 5658 5619 5553 5620 5591 5619 5658 5621 5620 5554 5622 5621 5555 5623 5622 5556 5601 5592 5659 5660 5593 5624 5624 5558 5625 5595 5661 5594 5594 5661 5625 5560 5627 5626 5662 5595 5596 5596 5626 5663 5561 5628 5627 5629 5628 5562 5629 5563 5630 5631 5630 5564 5632 5631 5565 5633 5632 5566 5567 5634 5633 5597 5664 5634 5597 5635 5664 5635 5569 5636 5570 5637 5636 5637 5571 5638 5598 5665 5638 5573 5640 5639 5598 5639 5665 5574 5641 5640 5575 5642 5641 5576 5643 5642 5643 5577 5644 5644 5578 5645 5666 5645 5599 5646 5666 5599 5646 5580 5647 5581 5648 5647 5649 5648 5582 5649 5583 5650 5650 5584 5651 5600 5667 5651 5652 5667 5600 5652 5586 5653 5601 5668 5653 5659 5592 5602 5669 5602 5654 5603 5604 5670 5603 5670 5654 5671 5604 5605 5672 5605 5606 5607 5673 5606 5655 5674 5607 5609 5675 5608 5675 5655 5608 5609 5610 5676 5610 5611 5677 5611 5612 5678 5612 5613 5679 5680 5613 5656 5657 5656 5590 5615 5681 5614 5681 5657 5614 5616 5682 5615 5683 5616 5617 5617 5618 5684 5618 5658 5685 5619 5620 5686 5619 5686 5658 5687 5620 5621 5621 5622 5688 5623 5689 5622 5601 5659 5668 5660 5624 5690 5691 5624 5625 5662 5661 5595 5661 5691 5625 5626 5627 5692 5662 5596 5663 5626 5692 5663 5627 5628 5693 5629 5694 5628 5695 5629 5630 5631 5696 5630 5697 5631 5632 5633 5698 5632 5634 5699 5633 5634 5664 5700 5664 5635 5701 5635 5636 5701 5636 5637 5702 5637 5638 5703 5638 5665 5704 5639 5640 5705 5665 5639 5705 5640 5641 5706 5641 5642 5707 5642 5643 5708 5709 5643 5644 5710 5644 5645 5666 5711 5645 5712 5666 5646 5712 5646 5647 5648 5713 5647 5649 5714 5648 5715 5649 5650 5716 5650 5651 5667 5717 5651 5718 5667 5652 5718 5652 5653 5668 5719 5653 5669 5659 5602 5720 5669 5654 5670 5604 5671 5670 5720 5654 5672 5671 5605 5673 5672 5606 5607 5674 5673 5721 5674 5655 5609 5676 5675 5721 5655 5675 5610 5677 5676 5677 5611 5678 5612 5679 5678 5679 5613 5680 5722 5680 5656 5657 5722 5656 5615 5682 5681 5723 5657 5681 5683 5682 5616 5683 5617 5684 5684 5618 5685 5685 5658 5724 5686 5620 5687 5658 5686 5724 5687 5621 5725 5622 5689 5688 5621 5688 5725 5668 5659 5726 5727 5660 5690 5690 5624 5691 5662 5728 5661 5661 5728 5691 5692 5627 5693 5729 5662 5663 5692 5730 5663 5628 5694 5693 5695 5694 5629 5696 5695 5630 5697 5696 5631 5698 5697 5632 5699 5698 5633 5634 5700 5699 5700 5664 5731 5731 5664 5701 5701 5636 5702 5702 5637 5703 5703 5638 5704 5704 5665 5732 5640 5706 5705 5665 5705 5732 5706 5641 5707 5642 5708 5707 5708 5643 5709 5709 5644 5710 5711 5710 5645 5666 5733 5711 5712 5733 5666 5713 5712 5647 5648 5714 5713 5715 5714 5649 5716 5715 5650 5717 5716 5651 5667 5734 5717 5718 5734 5667 5719 5718 5653 5668 5735 5719 5726 5659 5669 5669 5720 5736 5670 5671 5737 5670 5737 5720 5738 5671 5672 5672 5673 5739 5673 5674 5740 5721 5741 5674 5676 5742 5675 5742 5721 5675 5676 5677 5743 5677 5678 5744 5679 5745 5678 5679 5680 5746 5747 5680 5722 5723 5722 5657 5682 5748 5681 5748 5723 5681 5749 5682 5683 5750 5683 5684 5751 5684 5685 5752 5685 5724 5686 5687 5753 5724 5686 5753 5754 5687 5725 5689 5755 5688 5688 5756 5725 5668 5726 5735 5757 5727 5690 5690 5691 5758 5729 5728 5662 5728 5759 5691 5760 5692 5693 5730 5729 5663 5730 5692 5760 5694 5761 5693 5695 5762 5694 5696 5763 5695 5697 5764 5696 5698 5765 5697 5699 5766 5698 5699 5700 5767 5700 5731 5768 5769 5731 5701 5769 5701 5702 5770 5702 5703 5771 5703 5704 5772 5704 5732 5705 5706 5773 5732 5705 5773 5706 5707 5774 5707 5708 5775 5708 5709 5776 5777 5709 5710 5711 5778 5710 5711 5733 5779 5780 5733 5712 5713 5780 5712 5713 5714 5781 5715 5782 5714 5783 5715 5716 5716 5717 5784 5717 5734 5785 5718 5786 5734 5719 5786 5718 5719 5735 5787 5726 5669 5736 5736 5720 5788 5737 5671 5738 5720 5737 5788 5738 5672 5739 5673 5740 5739 5674 5741 5740 5789 5741 5721 5742 5676 5743 5789 5721 5742 5677 5744 5743 5678 5745 5744 5679 5746 5745 5746 5680 5747 5747 5722 5790 5790 5722 5723 5749 5748 5682 5791 5723 5748 5749 5683 5750 5751 5750 5684 5752 5751 5685 5792 5752 5724 5753 5687 5754 5792 5724 5753 5756 5754 5725 5755 5756 5688 5735 5726 5793 5794 5727 5757 5757 5690 5758 5691 5759 5758 5729 5795 5728 5728 5795 5759 5761 5760 5693 5796 5729 5730 5730 5760 5797 5694 5762 5761 5695 5763 5762 5696 5764 5763 5697 5765 5764 5698 5766 5765 5699 5767 5766 5767 5700 5768 5768 5731 5798 5731 5769 5798 5770 5769 5702 5771 5770 5703 5772 5771 5704 5799 5772 5732 5773 5706 5774 5799 5732 5773 5707 5775 5774 5708 5776 5775 5776 5709 5777 5778 5777 5710 5778 5711 5779 5733 5800 5779 5780 5800 5733 5713 5781 5780 5714 5782 5781 5783 5782 5715 5783 5716 5784 5784 5717 5785 5734 5801 5785 5734 5786 5801 5719 5787 5786 5735 5802 5787 5793 5726 5736 5803 5736 5788 5737 5738 5804 5737 5804 5788 5805 5738 5739 5740 5806 5739 5740 5741 5807 5789 5808 5741 5742 5743 5809 5789 5742 5809 5744 5810 5743 5744 5745 5811 5746 5812 5745 5746 5747 5813 5747 5790 5814 5790 5723 5791 5815 5748 5749 5791 5748 5815 5816 5749 5750 5751 5817 5750 5752 5818 5751 5819 5752 5792 5820 5753 5754 5820 5792 5753 5756 5821 5754 5755 5822 5756 5735 5793 5802 5794 5757 5823 5824 5757 5758 5759 5824 5758 5796 5795 5729 5759 5795 5825 5761 5826 5760 5796 5730 5797 5760 5826 5797 5762 5827 5761 5762 5763 5828 5763 5764 5829 5764 5765 5830 5765 5766 5831 5766 5767 5832 5833 5767 5768 5834 5768 5798 5769 5835 5798 5770 5835 5769 5771 5836 5770 5837 5771 5772 5772 5799 5838 5839 5773 5774 5839 5799 5773 5775 5840 5774 5776 5841 5775 5776 5777 5842 5843 5777 5778 5844 5778 5779 5800 5845 5779 5846 5800 5780 5781 5846 5780 5782 5847 5781 5783 5848 5782 5849 5783 5784 5850 5784 5785 5801 5851 5785 5801 5786 5852 5786 5787 5852 5802 5853 5787 5803 5793 5736 5854 5803 5788 5804 5738 5805 5804 5854 5788 5806 5805 5739 5806 5740 5807 5741 5808 5807 5855 5808 5789 5743 5810 5809 5855 5789 5809 5810 5744 5811 5745 5812 5811 5746 5813 5812 5813 5747 5814 5790 5856 5814 5790 5791 5856 5815 5749 5816 5791 5815 5857 5817 5816 5750 5751 5818 5817 5819 5818 5752 5819 5792 5858 5821 5820 5754 5858 5792 5820 5756 5822 5821 5802 5793 5859 5860 5794 5823 5757 5861 5823 5861 5757 5824 5759 5825 5824 5796 5862 5795 5795 5862 5825 5827 5826 5761 5863 5796 5797 5826 5864 5797 5762 5828 5827 5828 5763 5829 5764 5830 5829 5830 5765 5831 5766 5832 5831 5832 5767 5833 5833 5768 5834 5865 5834 5798 5835 5865 5798 5770 5836 5835 5837 5836 5771 5837 5772 5838 5799 5866 5838 5840 5839 5774 5839 5866 5799 5841 5840 5775 5776 5842 5841 5842 5777 5843 5843 5778 5844 5845 5844 5779 5800 5867 5845 5846 5867 5800 5781 5847 5846 5782 5848 5847 5849 5848 5783 5850 5849 5784 5851 5850 5785 5801 5868 5851 5868 5801 5852 5787 5853 5852 5802 5869 5853 5859 5793 5803 5803 5854 5870 5804 5805 5871 5804 5871 5854 5806 5872 5805 5873 5806 5807 5808 5874 5807 5855 5875 5808 5810 5876 5809 5876 5855 5809 5877 5810 5811 5812 5878 5811 5812 5813 5879 5880 5813 5814 5814 5856 5881 5856 5791 5857 5815 5816 5882 5815 5882 5857 5883 5816 5817 5818 5884 5817 5885 5818 5819 5819 5858 5886 5887 5820 5821 5858 5820 5887 5822 5888 5821 5802 5859 5869 5889 5860 5823 5861 5889 5823 5890 5861 5824 5825 5890 5824 5863 5862 5796 5862 5891 5825 5827 5892 5826 5864 5863 5797 5892 5864 5826 5827 5828 5893 5894 5828 5829 5830 5895 5829 5830 5831 5896 5832 5897 5831 5832 5833 5898 5899 5833 5834 5865 5900 5834 5835 5901 5865 5835 5836 5901 5837 5902 5836 5903 5837 5838 5866 5904 5838 5905 5839 5840 5905 5866 5839 5840 5841 5906 5841 5842 5907 5842 5843 5908 5909 5843 5844 5845 5910 5844 5845 5867 5911 5846 5912 5867 5846 5847 5912 5847 5848 5913 5849 5914 5848 5915 5849 5850 5850 5851 5916 5851 5868 5917 5918 5868 5852 5853 5918 5852 5853 5869 5919 5859 5803 5870 5870 5854 5920 5805 5872 5871 5854 5871 5920 5873 5872 5806 5874 5873 5807 5808 5875 5874 5855 5921 5875 5877 5876 5810 5876 5921 5855 5878 5877 5811 5812 5879 5878 5879 5813 5880 5880 5814 5881 5881 5856 5922 5856 5857 5922 5882 5816 5883 5882 5923 5857 5884 5883 5817 5885 5884 5818 5885 5819 5886 5886 5858 5924 5888 5887 5821 5858 5887 5924 5869 5859 5925 5926 5860 5889 5861 5927 5889 5890 5927 5861 5891 5890 5825 5863 5928 5862 5862 5928 5891 5827 5893 5892 5864 5929 5863 5892 5930 5864 5893 5828 5894 5895 5894 5829 5830 5896 5895 5831 5897 5896 5832 5898 5897 5898 5833 5899 5900 5899 5834 5900 5865 5931 5865 5901 5931 5836 5902 5901 5903 5902 5837 5904 5903 5838 5932 5904 5866 5905 5840 5906 5932 5866 5905 5841 5907 5906 5842 5908 5907 5908 5843 5909 5910 5909 5844 5845 5911 5910 5867 5933 5911 5867 5912 5933 5912 5847 5913 5848 5914 5913 5915 5914 5849 5915 5850 5916 5916 5851 5917 5868 5934 5917 5918 5934 5868 5918 5853 5919 5869 5935 5919 5925 5859 5870 5936 5870 5920 5871 5872 5937 5871 5937 5920 5873 5938 5872 5874 5939 5873 5874 5875 5940 5875 5921 5941 5877 5942 5876 5876 5942 5921 5878 5943 5877 5878 5879 5944 5945 5879 5880 5946 5880 5881 5947 5881 5922 5857 5923 5922 5882 5883 5948 5882 5948 5923 5949 5883 5884 5950 5884 5885 5951 5885 5886 5952 5886 5924 5888 5953 5887 5887 5954 5924 5869 5925 5935 5955 5926 5889 5889 5927 5956 5890 5957 5927 5891 5957 5890 5863 5929 5928 5891 5928 5958 5892 5893 5959 5864 5930 5929 5892 5959 5930 5893 5894 5960 5894 5895 5961 5896 5962 5895 5896 5897 5963 5897 5898 5964 5898 5899 5965 5966 5899 5900 5967 5900 5931 5901 5968 5931 5901 5902 5968 5903 5969 5902 5970 5903 5904 5971 5904 5932 5972 5905 5906 5932 5905 5972 5907 5973 5906 5908 5974 5907 5908 5909 5975 5976 5909 5910 5911 5977 5910 5911 5933 5978 5933 5912 5979 5979 5912 5913 5914 5980 5913 5915 5981 5914 5982 5915 5916 5983 5916 5917 5934 5984 5917 5985 5934 5918 5985 5918 5919 5935 5986 5919 5936 5925 5870 5987 5936 5920 5872 5938 5937 5937 5987 5920 5873 5939 5938 5874 5940 5939 5940 5875 5941 5921 5988 5941 5877 5943 5942 5921 5942 5988 5878 5944 5943 5944 5879 5945 5945 5880 5946 5947 5946 5881 5947 5922 5989 5922 5923 5989 5948 5883 5949 5923 5948 5990 5949 5884 5950 5950 5885 5951 5952 5951 5886 5954 5952 5924 5953 5954 5887 5935 5925 5991 5992 5926 5955 5955 5889 5956 5927 5993 5956 5927 5957 5993 5891 5958 5957 5928 5929 5994 5958 5928 5994 5959 5893 5960 5929 5930 5995 5930 5959 5996 5960 5894 5961 5895 5962 5961 5896 5963 5962 5963 5897 5964 5898 5965 5964 5965 5899 5966 5966 5900 5967 5997 5967 5931 5968 5997 5931 5902 5969 5968 5970 5969 5903 5970 5904 5971 5971 5932 5998 5973 5972 5906 5932 5972 5998 5907 5974 5973 5908 5975 5974 5975 5909 5976 5977 5976 5910 5977 5911 5978 5933 5999 5978 5999 5933 5979 5980 5979 5913 5914 5981 5980 5982 5981 5915 5983 5982 5916 5984 5983 5917 5934 6000 5984 5985 6000 5934 5986 5985 5919 5935 6001 5986 5991 5925 5936 5936 5987 6002 5938 6003 5937 5937 6003 5987 5938 5939 6004 5939 5940 6005 6006 5940 5941 5988 6007 5941 5942 5943 6008 5988 5942 6008 5943 5944 6009 5944 5945 6010 6011 5945 5946 5947 6012 5946 6013 5947 5989 5989 5923 5990 5948 5949 6014 5948 6014 5990 5949 5950 6015 5950 5951 6016 6017 5951 5952 5952 5954 6018 5953 6019 5954 5935 5991 6001 5992 5955 6020 6021 5955 5956 5993 6021 5956 5957 6022 5993 5957 5958 6022 5929 5995 5994 6023 5958 5994 6024 5959 5960 5930 5996 5995 5996 5959 6024 6025 5960 5961 5961 5962 6026 5962 5963 6027 6028 5963 5964 5965 6029 5964 5965 5966 6030 6031 5966 5967 5997 6032 5967 5968 6033 5997 5969 6033 5968 6034 5969 5970 5970 5971 6035 6036 5971 5998 5972 5973 6037 5998 5972 6037 5973 5974 6038 5975 6039 5974 5975 5976 6040 6041 5976 5977 6042 5977 5978 5999 6043 5978 5999 5979 6044 5979 5980 6044 5980 5981 6045 5982 6046 5981 6047 5982 5983 5983 5984 6048 5984 6000 6049 5985 6050 6000 5986 6050 5985 5986 6001 6051 5991 5936 6002 6002 5987 6052 5938 6004 6003 5987 6003 6052 6004 5939 6005 5940 6006 6005 6007 6006 5941 6007 5988 6053 5943 6009 6008 5988 6008 6053 5944 6010 6009 6010 5945 6011 6012 6011 5946 6013 6012 5947 6054 6013 5989 6054 5989 5990 6014 5949 6015 5990 6014 6055 5950 6016 6015 6016 5951 6017 6017 5952 6018 5954 6019 6018 6001 5991 6056 6057 5992 6020 6020 5955 6021 6058 6021 5993 6022 6058 5993 6022 5958 6023 5994 5995 6059 6023 5994 6059 6025 6024 5960 5996 6060 5995 5996 6024 6061 6025 5961 6026 5962 6027 6026 6027 5963 6028 6029 6028 5964 5965 6030 6029 6030 5966 6031 6032 6031 5967 6062 6032 5997 6033 6062 5997 6034 6033 5969 6034 5970 6035 6035 5971 6036 6063 6036 5998 6037 5973 6038 6063 5998 6037 5974 6039 6038 5975 6040 6039 6040 5976 6041 6041 5977 6042 6043 6042 5978 6064 6043 5999 6064 5999 6044 5980 6045 6044 5981 6046 6045 6047 6046 5982 6047 5983 6048 6048 5984 6049 6049 6000 6065 6000 6050 6065 5986 6051 6050 6001 6066 6051 6056 5991 6002 6067 6002 6052 6003 6004 6068 6003 6068 6052 6069 6004 6005 6006 6070 6005 6071 6006 6007 6007 6053 6072 6009 6073 6008 6008 6073 6053 6010 6074 6009 6010 6011 6075 6076 6011 6012 6077 6012 6013 6078 6013 6054 6054 5990 6055 6014 6015 6079 6055 6014 6079 6015 6016 6080 6016 6017 6081 6082 6017 6018 6019 6083 6018 6001 6056 6066 6084 6057 6020 6085 6020 6021 6021 6058 6086 6022 6087 6058 6022 6023 6087 5995 6060 6059 6088 6023 6059 6089 6024 6025 5996 6061 6060 6061 6024 6089 6090 6025 6026 6026 6027 6091 6027 6028 6092 6028 6029 6093 6029 6030 6094 6030 6031 6095 6096 6031 6032 6097 6032 6062 6098 6062 6033 6098 6033 6034 6099 6034 6035 6100 6035 6036 6063 6101 6036 6102 6037 6038 6102 6063 6037 6038 6039 6103 6039 6040 6104 6040 6041 6105 6106 6041 6042 6043 6107 6042 6064 6108 6043 6109 6064 6044 6045 6109 6044 6045 6046 6110 6047 6111 6046 6112 6047 6048 6113 6048 6049 6114 6049 6065 6065 6050 6115 6050 6051 6115 6066 6116 6051 6067 6056 6002 6117 6067 6052 6068 6004 6069 6068 6117 6052 6070 6069 6005 6071 6070 6006 6071 6007 6072 6053 6118 6072 6009 6074 6073 6073 6118 6053 6010 6075 6074 6075 6011 6076 6076 6012 6077 6077 6013 6078 6078 6054 6119 6119 6054 6055 6079 6015 6080 6120 6055 6079 6080 6016 6081 6081 6017 6121 6017 6082 6121 6083 6082 6018 6066 6056 6122 6123 6057 6084 6084 6020 6085 6085 6021 6086 6058 6124 6086 6058 6087 6124 6087 6023 6088 6059 6060 6125 6088 6059 6125 6090 6089 6025 6060 6061 6126 6061 6089 6127 6090 6026 6091 6091 6027 6092 6028 6093 6092 6029 6094 6093 6030 6095 6094 6095 6031 6096 6096 6032 6097 6097 6062 6128 6128 6062 6098 6098 6034 6099 6099 6035 6100 6101 6100 6036 6129 6101 6063 6102 6038 6103 6129 6063 6102 6103 6039 6104 6040 6105 6104 6105 6041 6106 6107 6106 6042 6043 6108 6107 6130 6108 6064 6130 6064 6109 6109 6045 6110 6046 6111 6110 6112 6111 6047 6113 6112 6048 6114 6113 6049 6131 6114 6065 6131 6065 6115 6051 6116 6115 6066 6132 6116 6122 6056 6067 6067 6117 6133 6068 6069 6134 6068 6134 6117 6135 6069 6070 6071 6136 6070 6137 6071 6072 6118 6138 6072 6073 6074 6139 6118 6073 6139 6075 6140 6074 6075 6076 6141 6076 6077 6142 6077 6078 6143 6144 6078 6119 6120 6119 6055 6145 6079 6080 6145 6120 6079 6146 6080 6081 6147 6081 6121 6082 6148 6121 6083 6149 6082 6066 6122 6132 6123 6084 6150 6084 6085 6151 6085 6086 6152 6124 6153 6086 6124 6087 6154 6154 6087 6088 6060 6126 6125 6155 6088 6125 6156 6089 6090 6061 6127 6126 6127 6089 6156 6157 6090 6091 6158 6091 6092 6092 6093 6159 6093 6094 6160 6095 6161 6094 6095 6096 6162 6096 6097 6163 6097 6128 6164 6128 6098 6165 6098 6099 6165 6166 6099 6100 6101 6167 6100 6129 6168 6101 6169 6102 6103 6129 6102 6169 6170 6103 6104 6105 6171 6104 6105 6106 6172 6173 6106 6107 6108 6174 6107 6175 6108 6130 6130 6109 6176 6176 6109 6110 6111 6177 6110 6112 6178 6111 6179 6112 6113 6180 6113 6114 6131 6181 6114 6182 6131 6115 6116 6182 6115 6116 6132 6183 6122 6067 6133 6133 6117 6184 6069 6135 6134 6117 6134 6184 6136 6135 6070 6137 6136 6071 6138 6137 6072 6185 6138 6118 6074 6140 6139 6185 6118 6139 6075 6141 6140 6141 6076 6142 6077 6143 6142 6143 6078 6144 6186 6144 6119 6120 6186 6119 6146 6145 6080 6187 6120 6145 6146 6081 6147 6148 6147 6121 6149 6148 6082 6132 6122 6188 6189 6123 6150 6084 6151 6150 6151 6085 6152 6086 6153 6152 6124 6190 6153 6124 6154 6190 6155 6154 6088 6125 6126 6191 6155 6125 6191 6156 6090 6157 6127 6192 6126 6127 6156 6193 6158 6157 6091 6158 6092 6159 6159 6093 6160 6094 6161 6160 6095 6162 6161 6162 6096 6163 6097 6164 6163 6164 6128 6194 6194 6128 6165 6165 6099 6166 6167 6166 6100 6101 6168 6167 6195 6168 6129 6170 6169 6103 6195 6129 6169 6171 6170 6104 6105 6172 6171 6172 6106 6173 6174 6173 6107 6175 6174 6108 6175 6130 6196 6196 6130 6176 6177 6176 6110 6111 6178 6177 6179 6178 6112 6179 6113 6180 6181 6180 6114 6197 6181 6131 6197 6131 6182 6116 6183 6182 6132 6198 6183 6188 6122 6133 6199 6133 6184 6134 6135 6200 6134 6200 6184 6136 6201 6135 6137 6202 6136 6138 6203 6137 6185 6204 6138 6140 6205 6139 6205 6185 6139 6140 6141 6206 6207 6141 6142 6143 6208 6142 6143 6144 6209 6210 6144 6186 6187 6186 6120 6211 6145 6146 6187 6145 6211 6212 6146 6147 6148 6213 6147 6149 6214 6148 6132 6188 6198 6189 6150 6215 6150 6151 6216 6217 6151 6152 6153 6217 6152 6153 6190 6218 6190 6154 6219 6219 6154 6155 6126 6192 6191 6220 6155 6191 6221 6156 6157 6127 6193 6192 6193 6156 6221 6158 6222 6157 6223 6158 6159 6224 6159 6160 6160 6161 6225 6161 6162 6226 6227 6162 6163 6164 6228 6163 6164 6194 6229 6230 6194 6165 6230 6165 6166 6167 6231 6166 6168 6232 6167 6233 6168 6195 6170 6234 6169 6234 6195 6169 6235 6170 6171 6172 6236 6171 6172 6173 6237 6238 6173 6174 6239 6174 6175 6175 6196 6240 6241 6196 6176 6177 6241 6176 6178 6242 6177 6179 6243 6178 6244 6179 6180 6181 6245 6180 6246 6181 6197 6247 6197 6182 6183 6247 6182 6198 6248 6183 6199 6188 6133 6249 6199 6184 6135 6201 6200 6200 6249 6184 6136 6202 6201 6137 6203 6202 6138 6204 6203 6185 6250 6204 6140 6206 6205 6205 6250 6185 6206 6141 6207 6208 6207 6142 6143 6209 6208 6209 6144 6210 6210 6186 6251 6251 6186 6187 6211 6146 6212 6187 6211 6252 6213 6212 6147 6148 6214 6213 6198 6188 6253 6254 6189 6215 6150 6255 6215 6151 6217 6216 6255 6150 6216 6153 6218 6217 6218 6190 6256 6190 6219 6256 6219 6155 6220 6191 6192 6257 6220 6191 6257 6222 6221 6157 6192 6193 6258 6193 6221 6259 6223 6222 6158 6224 6223 6159 6224 6160 6225 6161 6226 6225 6226 6162 6227 6228 6227 6163 6164 6229 6228 6229 6194 6260 6260 6194 6230 6231 6230 6166 6167 6232 6231 6233 6232 6168 6233 6195 6261 6235 6234 6170 6261 6195 6234 6236 6235 6171 6172 6237 6236 6237 6173 6238 6238 6174 6239 6239 6175 6240 6240 6196 6262 6262 6196 6241 6177 6242 6241 6178 6243 6242 6244 6243 6179 6245 6244 6180 6246 6245 6181 6246 6197 6263 6197 6247 6263 6248 6247 6183 6198 6264 6248 6253 6188 6199 6199 6249 6265 6201 6266 6200 6200 6266 6249 6201 6202 6267 6202 6203 6268 6203 6204 6269 6204 6250 6270 6205 6206 6271 6205 6271 6250 6272 6206 6207 6207 6208 6273 6208 6209 6274 6209 6210 6275 6210 6251 6276 6251 6187 6252 6211 6212 6277 6252 6211 6277 6278 6212 6213 6214 6279 6213 6198 6253 6264 6280 6254 6215 6255 6280 6215 6217 6281 6216 6281 6255 6216 6218 6282 6217 6218 6256 6283 6219 6284 6256 6219 6220 6284 6257 6192 6258 6285 6220 6257 6286 6221 6222 6193 6259 6258 6259 6221 6286 6287 6222 6223 6288 6223 6224 6289 6224 6225 6226 6290 6225 6291 6226 6227 6292 6227 6228 6229 6293 6228 6229 6260 6294 6295 6260 6230 6231 6295 6230 6232 6296 6231 6297 6232 6233 6233 6261 6298 6299 6234 6235 6261 6234 6299 6236 6300 6235 6236 6237 6301 6237 6238 6302 6238 6239 6303 6304 6239 6240 6305 6240 6262 6306 6262 6241 6242 6306 6241 6242 6243 6307 6244 6308 6243 6309 6244 6245 6310 6245 6246 6311 6246 6263 6247 6312 6263 6248 6312 6247 6248 6264 6313 6253 6199 6265 6249 6314 6265 6201 6267 6266 6249 6266 6314 6267 6202 6268 6203 6269 6268 6269 6204 6270 6270 6250 6315 6271 6206 6272 6250 6271 6315 6272 6207 6273 6273 6208 6274 6209 6275 6274 6210 6276 6275 6276 6251 6316 6316 6251 6252 6212 6278 6277 6317 6252 6277 6279 6278 6213 6264 6253 6318 6319 6280 6255 6282 6281 6217 6281 6319 6255 6282 6218 6283 6256 6320 6283 6284 6320 6256 6284 6220 6285 6321 6257 6258 6321 6285 6257 6286 6222 6287 6258 6259 6322 6259 6286 6323 6287 6223 6288 6288 6224 6289 6290 6289 6225 6226 6291 6290 6291 6227 6292 6293 6292 6228 6229 6294 6293 6294 6260 6324 6324 6260 6295 6296 6295 6231 6297 6296 6232 6297 6233 6298 6298 6261 6325 6300 6299 6235 6261 6299 6325 6236 6301 6300 6301 6237 6302 6238 6303 6302 6303 6239 6304 6304 6240 6305 6326 6305 6262 6306 6326 6262 6242 6307 6306 6243 6308 6307 6309 6308 6244 6309 6245 6310 6310 6246 6311 6327 6311 6263 6312 6327 6263 6248 6313 6312 6264 6328 6313 6318 6253 6265 6314 6329 6265 6266 6267 6330 6266 6330 6314 6331 6267 6268 6269 6332 6268 6269 6270 6333 6334 6270 6315 6271 6272 6335 6271 6335 6315 6336 6272 6273 6337 6273 6274 6275 6338 6274 6276 6339 6275 6276 6316 6340 6317 6316 6252 6277 6278 6341 6317 6277 6341 6279 6342 6278 6264 6318 6328 6343 6281 6282 6343 6319 6281 6344 6282 6283 6320 6344 6283 6284 6345 6320 6284 6285 6345 6321 6258 6322 6346 6285 6321 6286 6287 6347 6259 6323 6322 6286 6347 6323 6287 6288 6348 6288 6289 6349 6289 6290 6350 6291 6351 6290 6352 6291 6292 6293 6353 6292 6293 6294 6354 6294 6324 6355 6324 6295 6356 6356 6295 6296 6357 6296 6297 6358 6297 6298 6359 6298 6325 6300 6360 6299 6299 6360 6325 6300 6301 6361 6362 6301 6302 6303 6363 6302 6303 6304 6364 6365 6304 6305 6326 6366 6305 6306 6367 6326 6307 6367 6306 6308 6368 6307 6369 6308 6309 6309 6310 6370 6310 6311 6371 6372 6311 6327 6327 6312 6373 6312 6313 6373 6328 6374 6313 6329 6318 6265 6375 6329 6314 6330 6267 6331 6330 6375 6314 6332 6331 6268 6332 6269 6333 6270 6334 6333 6334 6315 6376 6335 6272 6336 6315 6335 6376 6337 6336 6273 6338 6337 6274 6275 6339 6338 6276 6340 6339 6340 6316 6377 6377 6316 6317 6278 6378 6341 6379 6317 6341 6342 6378 6278 6328 6318 6380 6381 6343 6282 6344 6381 6282 6344 6320 6382 6320 6345 6382 6345 6285 6346 6383 6321 6322 6346 6321 6383 6347 6287 6348 6322 6323 6384 6347 6385 6323 6288 6349 6348 6349 6289 6350 6290 6351 6350 6352 6351 6291 6353 6352 6292 6293 6354 6353 6354 6294 6355 6324 6386 6355 6324 6356 6386 6356 6296 6357 6357 6297 6358 6359 6358 6298 6359 6325 6387 6300 6361 6360 6325 6360 6387 6361 6301 6362 6363 6362 6302 6303 6364 6363 6364 6304 6365 6366 6365 6305 6366 6326 6388 6326 6367 6388 6368 6367 6307 6369 6368 6308 6369 6309 6370 6310 6371 6370 6371 6311 6372 6389 6372 6327 6389 6327 6373 6313 6374 6373 6328 6390 6374 6380 6318 6329 6329 6375 6391 6330 6331 6392 6330 6392 6375 6393 6331 6332 6394 6332 6333 6334 6395 6333 6396 6334 6376 6335 6336 6397 6335 6397 6376 6398 6336 6337 6337 6338 6399 6339 6400 6338 6340 6401 6339 6340 6377 6402 6377 6317 6379 6378 6379 6341 6342 6403 6378 6328 6380 6390 6404 6381 6344 6404 6344 6382 6345 6405 6382 6345 6346 6406 6383 6322 6384 6346 6383 6407 6408 6347 6348 6323 6385 6384 6347 6408 6385 6349 6409 6348 6410 6349 6350 6351 6411 6350 6352 6412 6351 6353 6413 6352 6353 6354 6414 6354 6355 6415 6386 6416 6355 6356 6417 6386 6356 6357 6417 6418 6357 6358 6359 6419 6358 6420 6359 6387 6360 6361 6421 6360 6421 6387 6361 6362 6422 6362 6363 6423 6364 6424 6363 6364 6365 6425 6426 6365 6366 6427 6366 6388 6367 6428 6388 6368 6428 6367 6429 6368 6369 6369 6370 6430 6370 6371 6431 6432 6371 6372 6389 6433 6372 6434 6389 6373 6374 6434 6373 6374 6390 6435 6380 6329 6391 6391 6375 6436 6331 6393 6392 6375 6392 6436 6394 6393 6332 6395 6394 6333 6396 6395 6334 6437 6396 6376 6397 6336 6398 6397 6437 6376 6398 6337 6399 6338 6400 6399 6401 6400 6339 6340 6402 6401 6402 6377 6438 6377 6379 6438 6379 6378 6439 6378 6403 6439 6390 6380 6440 6441 6404 6382 6405 6345 6406 6405 6441 6382 6346 6407 6406 6383 6384 6442 6383 6442 6407 6409 6408 6348 6385 6443 6384 6408 6444 6385 6410 6409 6349 6411 6410 6350 6351 6412 6411 6352 6413 6412 6353 6414 6413 6414 6354 6415 6355 6416 6415 6445 6416 6386 6417 6445 6386 6417 6357 6418 6419 6418 6358 6420 6419 6359 6446 6420 6387 6421 6361 6422 6421 6446 6387 6362 6423 6422 6363 6424 6423 6364 6425 6424 6425 6365 6426 6426 6366 6427 6447 6427 6388 6428 6447 6388 6429 6428 6368 6429 6369 6430 6430 6370 6431 6431 6371 6432 6433 6432 6372 6448 6433 6389 6448 6389 6434 6434 6374 6435 6390 6449 6435 6440 6380 6391 6450 6391 6436 6392 6393 6451 6392 6451 6436 6394 6452 6393 6395 6453 6394 6396 6454 6395 6437 6455 6396 6397 6398 6456 6397 6456 6437 6457 6398 6399 6400 6458 6399 6401 6459 6400 6401 6402 6460 6461 6402 6438 6379 6462 6438 6462 6379 6439 6403 6463 6439 6390 6440 6449 6464 6405 6406 6465 6441 6405 6407 6464 6406 6384 6443 6442 6442 6466 6407 6409 6467 6408 6385 6444 6443 6408 6467 6444 6410 6468 6409 6411 6469 6410 6411 6412 6470 6412 6413 6471 6413 6414 6472 6473 6414 6415 6415 6416 6474 6445 6475 6416 6417 6476 6445 6417 6418 6476 6477 6418 6419 6478 6419 6420 6420 6446 6479 6421 6422 6480 6421 6480 6446 6423 6481 6422 6424 6482 6423 6424 6425 6483 6425 6426 6484 6426 6427 6485 6486 6427 6447 6487 6447 6428 6487 6428 6429 6488 6429 6430 6489 6430 6431 6490 6431 6432 6433 6491 6432 6492 6433 6448 6493 6448 6434 6493 6434 6435 6449 6494 6435 6450 6440 6391 6495 6450 6436 6393 6452 6451 6451 6495 6436 6394 6453 6452 6395 6454 6453 6396 6455 6454 6437 6496 6455 6456 6398 6457 6437 6456 6496 6458 6457 6399 6400 6459 6458 6401 6460 6459 6460 6402 6497 6402 6461 6497 6462 6461 6438 6463 6462 6439 6449 6440 6498 6464 6465 6405 6466 6464 6407 6443 6499 6442 6499 6466 6442 6409 6468 6467 6443 6444 6500 6444 6467 6501 6410 6469 6468 6411 6470 6469 6470 6412 6471 6413 6472 6471 6472 6414 6473 6473 6415 6474 6416 6475 6474 6445 6502 6475 6445 6476 6502 6476 6418 6477 6477 6419 6478 6478 6420 6479 6446 6503 6479 6422 6481 6480 6446 6480 6503 6482 6481 6423 6424 6483 6482 6483 6425 6484 6426 6485 6484 6485 6427 6486 6486 6447 6504 6504 6447 6487 6487 6429 6488 6488 6430 6489 6490 6489 6431 6491 6490 6432 6492 6491 6433 6492 6448 6505 6505 6448 6493 6494 6493 6435 6449 6506 6494 6498 6440 6450 6450 6495 6507 6452 6508 6451 6508 6495 6451 6452 6453 6509 6453 6454 6510 6454 6455 6511 6455 6496 6512 6456 6457 6513 6496 6456 6513 6457 6458 6514 6458 6459 6515 6459 6460 6516 6517 6460 6497 6461 6518 6497 6462 6519 6461 6463 6520 6462 6449 6498 6506 6521 6465 6464 6521 6464 6466 6499 6443 6500 6499 6522 6466 6467 6468 6523 6500 6444 6501 6467 6523 6501 6468 6469 6524 6469 6470 6525 6526 6470 6471 6472 6527 6471 6472 6473 6528 6529 6473 6474 6475 6530 6474 6475 6502 6531 6502 6476 6532 6476 6477 6532 6477 6478 6533 6534 6478 6479 6503 6535 6479 6480 6481 6536 6503 6480 6536 6482 6537 6481 6482 6483 6538 6483 6484 6539 6485 6540 6484 6485 6486 6541 6486 6504 6542 6504 6487 6543 6487 6488 6543 6544 6488 6489 6490 6545 6489 6491 6546 6490 6547 6491 6492 6492 6505 6548 6505 6493 6549 6493 6494 6549 6494 6506 6550 6498 6450 6507 6495 6551 6507 6452 6509 6508 6508 6551 6495 6509 6453 6510 6454 6511 6510 6455 6512 6511 6512 6496 6552 6513 6457 6514 6552 6496 6513 6514 6458 6515 6459 6516 6515 6516 6460 6517 6518 6517 6497 6461 6519 6518 6520 6519 6462 6506 6498 6553 6522 6521 6466 6554 6499 6500 6554 6522 6499 6523 6468 6524 6555 6500 6501 6523 6555 6501 6469 6525 6524 6525 6470 6526 6527 6526 6471 6472 6528 6527 6528 6473 6529 6530 6529 6474 6475 6531 6530 6531 6502 6556 6502 6532 6556 6477 6533 6532 6533 6478 6534 6535 6534 6479 6503 6557 6535 6481 6537 6536 6557 6503 6536 6482 6538 6537 6538 6483 6539 6484 6540 6539 6485 6541 6540 6486 6542 6541 6542 6504 6558 6558 6504 6543 6543 6488 6544 6545 6544 6489 6490 6546 6545 6547 6546 6491 6547 6492 6548 6505 6559 6548 6505 6549 6559 6494 6550 6549 6506 6560 6550 6553 6498 6507 6507 6551 6561 6508 6509 6562 6508 6562 6551 6563 6509 6510 6511 6564 6510 6512 6565 6511 6512 6552 6566 6567 6513 6514 6552 6513 6567 6568 6514 6515 6515 6516 6569 6516 6517 6570 6571 6517 6518 6519 6572 6518 6520 6573 6519 6506 6553 6560 6574 6554 6500 6575 6523 6524 6555 6574 6500 6555 6523 6576 6524 6525 6577 6525 6526 6578 6526 6527 6579 6528 6580 6527 6528 6529 6581 6530 6582 6529 6530 6531 6583 6584 6531 6556 6532 6585 6556 6533 6585 6532 6533 6534 6586 6534 6535 6587 6535 6557 6588 6537 6589 6536 6589 6557 6536 6537 6538 6590 6591 6538 6539 6540 6592 6539 6541 6593 6540 6542 6594 6541 6542 6558 6595 6558 6543 6596 6596 6543 6544 6545 6597 6544 6546 6598 6545 6599 6546 6547 6600 6547 6548 6559 6601 6548 6559 6549 6602 6549 6550 6602 6560 6603 6550 6553 6507 6561 6561 6551 6604 6562 6509 6563 6551 6562 6604 6564 6563 6510 6511 6565 6564 6512 6566 6565 6566 6552 6605 6568 6567 6514 6605 6552 6567 6568 6515 6569 6516 6570 6569 6570 6517 6571 6572 6571 6518 6519 6573 6572 6560 6553 6606 6523 6575 6576 6575 6524 6577 6607 6574 6555 6607 6555 6576 6525 6578 6577 6578 6526 6579 6527 6580 6579 6580 6528 6581 6529 6582 6581 6530 6583 6582 6583 6531 6584 6608 6584 6556 6585 6608 6556 6533 6586 6585 6586 6534 6587 6535 6588 6587 6557 6609 6588 6537 6590 6589 6589 6609 6557 6590 6538 6591 6592 6591 6539 6540 6593 6592 6541 6594 6593 6542 6595 6594 6595 6558 6610 6610 6558 6596 6597 6596 6544 6545 6598 6597 6599 6598 6546 6599 6547 6600 6601 6600 6548 6559 6611 6601 6611 6559 6602 6550 6603 6602 6560 6612 6603 6606 6553 6561 6613 6561 6604 6562 6563 6614 6562 6614 6604 6563 6564 6615 6564 6565 6616 6565 6566 6617 6566 6605 6618 6568 6619 6567 6619 6605 6567 6620 6568 6569 6570 6621 6569 6570 6571 6622 6571 6572 6623 6573 6624 6572 6560 6606 6612 6575 6625 6576 6626 6575 6577 6625 6607 6576 6578 6626 6577 6578 6579 6627 6580 6628 6579 6629 6580 6581 6582 6629 6581 6582 6583 6630 6583 6584 6631 6584 6608 6632 6585 6633 6608 6585 6586 6633 6634 6586 6587 6588 6635 6587 6609 6636 6588 6589 6590 6637 6589 6637 6609 6590 6591 6638 6591 6592 6639 6592 6593 6640 6593 6594 6641 6595 6642 6594 6595 6610 6643 6644 6610 6596 6597 6644 6596 6598 6645 6597 6646 6598 6599 6599 6600 6647 6600 6601 6648 6601 6611 6649 6650 6611 6602 6603 6650 6602 6603 6612 6651 6613 6606 6561 6652 6613 6604 6614 6563 6615 6614 6652 6604 6615 6564 6616 6565 6617 6616 6566 6618 6617 6618 6605 6653 6620 6619 6568 6653 6605 6619 6621 6620 6569 6570 6622 6621 6622 6571 6623 6572 6624 6623 6612 6606 6654 6655 6625 6575 6655 6575 6626 6626 6578 6627 6579 6628 6627 6656 6628 6580 6656 6580 6629 6629 6582 6657 6583 6631 6630 6582 6630 6657 6631 6584 6632 6608 6658 6632 6608 6633 6658 6633 6586 6634 6635 6634 6587 6636 6635 6588 6609 6659 6636 6637 6590 6638 6609 6637 6659 6638 6591 6639 6592 6640 6639 6640 6593 6641 6594 6642 6641 6595 6643 6642 6643 6610 6660 6660 6610 6644 6645 6644 6597 6646 6645 6598 6646 6599 6647 6647 6600 6648 6601 6649 6648 6611 6661 6649 6650 6661 6611 6650 6603 6651 6612 6662 6651 6654 6606 6613 6663 6613 6652 6664 6614 6615 6652 6614 6664 6665 6615 6616 6617 6666 6616 6618 6667 6617 6618 6653 6668 6669 6619 6620 6653 6619 6669 6620 6621 6670 6621 6622 6671 6672 6622 6623 6624 6673 6623 6612 6654 6662 6674 6655 6626 6674 6626 6627 6628 6675 6627 6676 6628 6656 6656 6629 6677 6677 6629 6657 6631 6678 6630 6630 6679 6657 6631 6632 6680 6632 6658 6681 6633 6682 6658 6633 6634 6682 6683 6634 6635 6635 6636 6684 6636 6659 6685 6686 6637 6638 6659 6637 6686 6687 6638 6639 6640 6688 6639 6689 6640 6641 6642 6690 6641 6642 6643 6691 6643 6660 6692 6660 6644 6693 6693 6644 6645 6694 6645 6646 6646 6647 6695 6696 6647 6648 6649 6697 6648 6661 6698 6649 6699 6661 6650 6699 6650 6651 6662 6700 6651 6654 6613 6663 6701 6663 6652 6665 6664 6615 6701 6652 6664 6666 6665 6616 6667 6666 6617 6618 6668 6667 6653 6702 6668 6669 6620 6670 6653 6669 6702 6670 6621 6671 6671 6622 6703 6622 6672 6703 6673 6672 6623 6662 6654 6704 6675 6674 6627 6676 6675 6628 6705 6676 6656 6705 6656 6677 6679 6677 6657 6631 6680 6678 6678 6679 6630 6680 6632 6681 6658 6706 6681 6682 6706 6658 6682 6634 6683 6683 6635 6684 6636 6685 6684 6659 6707 6685 6687 6686 6638 6659 6686 6707 6688 6687 6639 6640 6689 6688 6690 6689 6641 6642 6691 6690 6691 6643 6692 6660 6708 6692 6660 6693 6708 6693 6645 6694 6694 6646 6695 6695 6647 6696 6697 6696 6648 6698 6697 6649 6709 6698 6661 6709 6661 6699 6700 6699 6651 6662 6710 6700 6704 6654 6663 6701 6711 6663 6665 6712 6664 6712 6701 6664 6713 6665 6666 6666 6667 6714 6667 6668 6715 6702 6716 6668 6717 6669 6670 6702 6669 6717 6718 6670 6671 6719 6671 6703 6672 6720 6703 6673 6721 6672 6662 6704 6710 6722 6705 6677 6679 6722 6677 6678 6680 6723 6724 6679 6678 6725 6680 6681 6706 6725 6681 6682 6726 6706 6682 6683 6726 6727 6683 6684 6685 6728 6684 6707 6729 6685 6730 6686 6687 6707 6686 6730 6687 6688 6731 6688 6689 6732 6690 6733 6689 6690 6691 6734 6691 6692 6735 6692 6708 6736 6693 6737 6708 6693 6694 6737 6738 6694 6695 6739 6695 6696 6697 6740 6696 6698 6741 6697 6742 6698 6709 6709 6699 6743 6699 6700 6743 6710 6744 6700 6711 6704 6663 6701 6745 6711 6713 6712 6665 6712 6745 6701 6713 6666 6714 6714 6667 6715 6668 6716 6715 6702 6746 6716 6718 6717 6670 6702 6717 6746 6719 6718 6671 6720 6719 6703 6672 6721 6720 6710 6704 6747 6724 6722 6679 6680 6725 6723 6748 6678 6723 6748 6724 6678 6725 6706 6749 6706 6726 6750 6726 6683 6727 6728 6727 6684 6729 6728 6685 6707 6751 6729 6730 6687 6731 6707 6730 6751 6731 6688 6732 6689 6733 6732 6690 6734 6733 6734 6691 6735 6692 6736 6735 6708 6752 6736 6737 6752 6708 6737 6694 6738 6739 6738 6695 6740 6739 6696 6697 6741 6740 6742 6741 6698 6742 6709 6753 6753 6709 6743 6700 6744 6743 6710 6754 6744 6747 6704 6711 6745 6755 6711 6713 6756 6712 6712 6756 6745 6757 6713 6714 6758 6714 6715 6715 6716 6759 6716 6746 6760 6761 6717 6718 6746 6717 6761 6762 6718 6719 6763 6719 6720 6721 6764 6720 6710 6747 6754 6725 6765 6723 6765 6748 6723 6766 6725 6749 6706 6750 6749 6750 6726 6767 6726 6727 6767 6727 6728 6768 6729 6769 6728 6729 6751 6770 6771 6730 6731 6751 6730 6771 6772 6731 6732 6733 6773 6732 6733 6734 6774 6775 6734 6735 6736 6776 6735 6752 6777 6736 6737 6778 6752 6737 6738 6778 6779 6738 6739 6739 6740 6780 6741 6781 6740 6742 6782 6741 6783 6742 6753 6784 6753 6743 6744 6784 6743 6744 6754 6785 6755 6747 6711 6755 6745 6786 6757 6756 6713 6745 6756 6786 6758 6757 6714 6758 6715 6759 6716 6760 6759 6746 6787 6760 6761 6718 6762 6746 6761 6787 6762 6719 6763 6764 6763 6720 6754 6747 6788 6766 6765 6725 6789 6766 6749 6750 6789 6749 6750 6767 6790 6727 6768 6767 6728 6769 6768 6729 6770 6769 6751 6791 6770 6772 6771 6731 6751 6771 6791 6773 6772 6732 6733 6774 6773 6774 6734 6775 6776 6775 6735 6777 6776 6736 6752 6792 6777 6778 6792 6752 6778 6738 6779 6779 6739 6780 6740 6781 6780 6741 6782 6781 6783 6782 6742 6793 6783 6753 6784 6793 6753 6744 6785 6784 6754 6794 6785 6788 6747 6755 6795 6755 6786 6757 6796 6756 6756 6796 6786 6758 6797 6757 6798 6758 6759 6760 6799 6759 6787 6800 6760 6801 6761 6762 6787 6761 6801 6802 6762 6763 6764 6803 6763 6754 6788 6794 6789 6750 6790 6767 6804 6790 6768 6804 6767 6769 6805 6768 6770 6806 6769 6770 6791 6807 6808 6771 6772 6791 6771 6808 6772 6773 6809 6773 6774 6810 6774 6775 6811 6812 6775 6776 6776 6777 6813 6777 6792 6814 6778 6815 6792 6778 6779 6815 6816 6779 6780 6781 6817 6780 6781 6782 6818 6783 6819 6782 6820 6783 6793 6793 6784 6821 6784 6785 6821 6794 6822 6785 6788 6755 6795 6823 6795 6786 6757 6797 6796 6796 6823 6786 6798 6797 6758 6799 6798 6759 6800 6799 6760 6787 6824 6800 6802 6801 6762 6787 6801 6824 6803 6802 6763 6794 6788 6825 6826 6789 6790 6804 6826 6790 6805 6804 6768 6769 6806 6805 6806 6770 6807 6807 6791 6827 6808 6772 6809 6791 6808 6827 6773 6810 6809 6774 6811 6810 6811 6775 6812 6812 6776 6813 6813 6777 6814 6792 6828 6814 6792 6815 6828 6815 6779 6816 6817 6816 6780 6781 6818 6817 6782 6819 6818 6820 6819 6783 6820 6793 6829 6829 6793 6821 6785 6822 6821 6794 6830 6822 6825 6788 6795 6823 6831 6795 6796 6797 6832 6796 6832 6823 6798 6833 6797 6834 6798 6799 6799 6800 6835 6800 6824 6836 6801 6802 6837 6824 6801 6837 6803 6838 6802 6794 6825 6830 6839 6826 6804 6839 6804 6805 6806 6840 6805 6841 6806 6807 6842 6807 6827 6808 6809 6843 6808 6843 6827 6810 6844 6809 6811 6845 6810 6811 6812 6846 6847 6812 6813 6848 6813 6814 6828 6849 6814 6815 6850 6828 6815 6816 6850 6851 6816 6817 6818 6852 6817 6819 6853 6818 6820 6854 6819 6855 6820 6829 6856 6829 6821 6822 6856 6821 6830 6857 6822 6831 6825 6795 6823 6858 6831 6797 6833 6832 6823 6832 6858 6834 6833 6798 6834 6799 6835 6800 6836 6835 6836 6824 6859 6837 6802 6860 6824 6837 6859 6802 6838 6860 6830 6825 6861 6840 6839 6805 6841 6840 6806 6862 6841 6807 6842 6862 6807 6863 6842 6827 6809 6844 6843 6843 6863 6827 6810 6845 6844 6811 6846 6845 6846 6812 6847 6848 6847 6813 6849 6848 6814 6864 6849 6828 6850 6864 6828 6850 6816 6851 6852 6851 6817 6853 6852 6818 6819 6854 6853 6855 6854 6820 6865 6855 6829 6856 6865 6829 6822 6857 6856 6830 6866 6857 6861 6825 6831 6858 6867 6831 6833 6868 6832 6832 6868 6858 6869 6833 6834 6870 6834 6835 6835 6836 6871 6872 6836 6859 6873 6837 6860 6837 6873 6859 6838 6874 6860 6830 6861 6866 6875 6862 6842 6875 6842 6863 6843 6844 6876 6843 6876 6863 6844 6845 6877 6845 6846 6878 6846 6847 6879 6880 6847 6848 6881 6848 6849 6849 6864 6882 6850 6883 6864 6850 6851 6883 6884 6851 6852 6852 6853 6885 6854 6886 6853 6855 6887 6854 6865 6888 6855 6889 6865 6856 6857 6889 6856 6857 6866 6890 6867 6861 6831 6891 6867 6858 6869 6868 6833 6868 6891 6858 6869 6834 6870 6870 6835 6871 6836 6872 6871 6873 6872 6859 6874 6873 6860 6866 6861 6892 6893 6875 6863 6876 6844 6877 6876 6893 6863 6845 6878 6877 6846 6879 6878 6879 6847 6880 6880 6848 6881 6881 6849 6882 6864 6894 6882 6864 6883 6894 6883 6851 6884 6884 6852 6885 6853 6886 6885 6854 6887 6886 6855 6888 6887 6865 6895 6888 6889 6895 6865 6857 6890 6889 6890 6866 6896 6892 6861 6867 6897 6867 6891 6898 6868 6869 6898 6891 6868 6869 6870 6899 6900 6870 6871 6872 6901 6871 6873 6902 6872 6874 6903 6873 6866 6892 6896 6904 6876 6877 6905 6893 6876 6878 6904 6877 6879 6906 6878 6879 6880 6907 6880 6881 6908 6881 6882 6909 6882 6894 6910 6883 6911 6894 6883 6884 6911 6912 6884 6885 6886 6913 6885 6886 6887 6914 6887 6888 6915 6888 6895 6916 6889 6917 6895 6889 6890 6917 6890 6896 6918 6892 6867 6897 6897 6891 6919 6898 6869 6899 6919 6891 6898 6870 6900 6899 6900 6871 6920 6902 6901 6872 6871 6901 6920 6873 6903 6902 6892 6921 6896 6904 6905 6876 6906 6904 6878 6906 6879 6907 6880 6922 6907 6922 6880 6908 6881 6909 6908 6882 6910 6909 6894 6923 6910 6911 6923 6894 6911 6884 6912 6913 6912 6885 6886 6914 6913 6887 6915 6914 6915 6888 6916 6895 6924 6916 6895 6917 6924 6917 6890 6918 6918 6896 6925 6892 6897 6921 6897 6919 6926 6927 6898 6899 6919 6898 6927 6900 6928 6899 6929 6900 6920 6902 6930 6901 6901 6931 6920 6903 6932 6902 6896 6921 6925 6933 6905 6904 6933 6904 6906 6934 6906 6907 6922 6935 6907 6936 6922 6908 6909 6936 6908 6910 6937 6909 6923 6938 6910 6911 6939 6923 6911 6912 6939 6940 6912 6913 6914 6941 6913 6915 6942 6914 6915 6916 6943 6916 6924 6944 6924 6917 6945 6945 6917 6918 6946 6918 6925 6897 6926 6921 6926 6919 6947 6928 6927 6899 6947 6919 6927 6929 6928 6900 6931 6929 6920 6932 6930 6902 6901 6930 6931 6921 6948 6925 6934 6933 6906 6935 6934 6907 6949 6935 6922 6949 6922 6936 6937 6936 6909 6938 6937 6910 6923 6950 6938 6923 6939 6950 6939 6912 6940 6941 6940 6913 6942 6941 6914 6915 6943 6942 6943 6916 6944 6924 6951 6944 6924 6945 6951 6946 6945 6918 6946 6925 6952 6926 6948 6921 6926 6947 6953 6928 6954 6927 6954 6947 6927 6929 6955 6928 6956 6929 6931 6932 6957 6930 6930 6958 6931 6925 6948 6952 6959 6949 6936 6937 6959 6936 6960 6937 6938 6938 6950 6961 6950 6939 6962 6939 6940 6962 6940 6941 6963 6942 6964 6941 6942 6943 6965 6966 6943 6944 6951 6967 6944 6951 6945 6968 6968 6945 6946 6969 6946 6952 6926 6953 6948 6953 6947 6970 6955 6954 6928 6970 6947 6954 6956 6955 6929 6958 6956 6931 6930 6957 6958 6948 6971 6952 6960 6959 6937 6972 6960 6938 6950 6973 6961 6972 6938 6961 6973 6950 6962 6940 6963 6962 6941 6964 6963 6942 6965 6964 6943 6966 6965 6967 6966 6944 6951 6974 6967 6951 6968 6974 6968 6946 6969 6975 6969 6952 6948 6953 6971 6953 6970 6976 6954 6955 6977 6970 6954 6977 6956 6978 6955 6979 6956 6958 6957 6980 6958 6971 6975 6952 6973 6981 6961 6981 6972 6961 6963 6973 6962 6963 6964 6982 6964 6965 6983 6965 6966 6984 6967 6985 6966 6967 6974 6986 6974 6968 6987 6968 6969 6987 6988 6969 6975 6953 6976 6971 6976 6970 6989 6955 6978 6977 6989 6970 6977 6979 6978 6956 6980 6979 6958 6971 6990 6975 6991 6981 6973 6973 6963 6992 6964 6983 6982 6992 6963 6982 6965 6984 6983 6966 6985 6984 6967 6986 6985 6986 6974 6993 6993 6974 6987 6969 6988 6987 6994 6988 6975 6976 6990 6971 6976 6989 6995 6978 6996 6977 6996 6989 6977 6979 6997 6978 6980 6998 6979 6990 6994 6975 6991 6973 6992 6983 6999 6982 6999 6992 6982 6984 7000 6983 6985 7001 6984 6985 6986 7002 6986 6993 7003 7004 6993 6987 6988 7004 6987 6994 7005 6988 6976 6995 6990 6995 6989 7006 6997 6996 6978 7006 6989 6996 6997 6979 7007 6979 6998 7007 6990 7008 6994 7009 6991 6992 7000 6999 6983 6999 7009 6992 7001 7000 6984 7001 6985 7010 7002 6986 7003 6985 7002 7010 7003 6993 7011 6993 7004 7011 6988 7005 7004 6994 7012 7005 6990 6995 7008 6995 7006 7013 7014 6996 6997 7006 6996 7014 7015 6997 7007 6998 7016 7007 6994 7008 7012 7017 6999 7000 7017 7009 6999 7001 7018 7000 7019 7001 7010 7002 7003 7020 7002 7021 7010 7022 7003 7011 7004 7023 7011 7005 7023 7004 7005 7012 7024 7008 6995 7013 7013 7006 7025 7014 6997 7015 7006 7014 7025 7016 7015 7007 7012 7008 7026 7018 7017 7000 7019 7018 7001 7021 7019 7010 7021 7002 7020 7003 7022 7020 7027 7022 7011 7023 7027 7011 7005 7024 7023 7024 7012 7028 7026 7008 7013 7029 7013 7025 7030 7014 7015 7014 7030 7025 7016 7031 7015 7012 7026 7028 7032 7021 7020 7022 7032 7020 7033 7022 7027 7023 7034 7027 7023 7024 7034 7024 7028 7035 7026 7013 7036 7013 7029 7036 7030 7029 7025 7031 7030 7015 7028 7026 7037 7033 7032 7022 7038 7033 7027 7034 7038 7027 7034 7024 7035 7028 7039 7035 7037 7026 7036 7029 7040 7036 7030 7041 7029 7031 7042 7030 7039 7028 7037 7043 7038 7034 7044 7034 7035 7039 7044 7035 7040 7037 7036 7029 7041 7040 7030 7042 7041 7045 7039 7037 7044 7043 7034 7046 7044 7039 7040 7045 7037 7041 7047 7040 7042 7048 7041 7045 7046 7039 7049 7043 7044 7049 7044 7046 7040 7047 7045 7048 7047 7041 7045 7050 7046 7051 7049 7046 7045 7047 7052 7048 7053 7047 7050 7045 7052 7050 7051 7046 7047 7053 7052 7050 7052 7054 7055 7051 7050 7053 7056 7052 7055 7050 7054 7052 7056 7054 7057 7055 7054 7056 7057 7054 </DataArray>
        <DataArray type="Int32" Name="offsets" format="ascii">3 6 9 12 15 18 21 24 27 30 33 36 39 42 45 48 51 54 57 60 63 66 69 72 75 78 81 84 87 90 93 96 99 102 105 108 111 114 117 120 123 126 129 132 135 138 141 144 147 150 153 156 159 162 165 168 171 174 177 180 183 186 189 192 195 198 201 204 207 210 213 216 219 222 225 228 231 234 237 240 243 246 249 252 255 258 261 264 267 270 273 276 279 282 285 288 291 294 297 300 303 306 309 312 315 318 321 324 327 330 333 336 339 342 345 348 351 354 357 360 363 366 369 372 375 378 381 384 387 390 393 396 399 402 405 408 411 414 417 420 423 426 429 432 435 438 441 444 447 450 453 456 459 462 465 468 471 474 477 480 483 486 489 492 495 498 501 504 507 510 513 516 519 522 525 528 531 534 537 540 543 546 549 552 555 558 561 564 567 570 573 576 579 582 585 588 591 594 597 600 603 606 609 612 615 618 621 624 627 630 633 636 639 642 645 648 651 654 657 660 663 666 669 672 675 678 681 684 687 690 693 696 699 702 705 708 711 714 717 720 723 726 729 732 735 738 741 744 747 750 753 756 759 762 765 768 771 774 777 780 783 786 789 792 795 798 801 804 807 810 813 816 819 822 825 828 831 834 837 840 843 846 849 852 855 858 861 864 867 870 873 876 879 882 885 888 891 894 897 900 903 906 909 912 915 918 921 924 927 930 933 936 939 942 945 948 951 954 957 960 963 966 969 972 975 978 981 984 987 990 993 996 999 1002 1005 1008 1011 1014 1017 1020 1023 1026 1029 1032 1035 1038 1041 1044 1047 1050 1053 1056 1059 1062 1065 1068 1071 1074 1077 1080 1083 1086 1089 1092 1095 1098 1101 1104 1107 1110 1113 1116 1119 1122 1125 1128 1131 1134 1137 1140 1143 1146 1149 1152 1155 1158 1161 1164 1167 1170 1173 1176 1179 1182 1185 1188 1191 1194 1197 1200 1203 1206 1209 1212 1215 1218 1221 1224 1227 1230 1233 1236 1239 1242 1245 1248 1251 1254 1257 1260 1263 1266 1269 1272 1275 1278 1281 1284 1287 1290 1293 1296 1299 1302 1305 1308 1311 1314 1317 1320 1323 1326 1329 1332 1335 1338 1341 1344 1347 1350 1353 1356 1359 1362 1365 1368 1371 1374 1377 1380 1383 1386 1389 1392 1395 1398 1401 1404 1407 1410 1413 1416 1419 1422 1425 1428 1431 1434 1437 1440 1443 1446 1449 1452 1455 1458 1461 1464 1467 1470 1473 1476 1479 1482 1485 1488 1491 1494 1497 1500 1503 1506 1509 1512 1515 1518 1521 1524 1527 1530 1533 1536 1539 1542 1545 1548 1551 1554 1557 1560 1563 1566 1569 1572 1575 1578 1581 1584 1587 1590 1593 1596 1599 1602 1605 1608 1611 1614 1617 1620 1623 1626 1629 1632 1635 1638 1641 1644 1647 1650 1653 1656 1659 1662 1665 1668 1671 1674 1677 1680 1683 1686 1689 1692 1695 1698 1701 1704 1707 1710 1713 1716 1719 1722 1725 1728 1731 1734 1737 1740 1743 1746 1749 1752 1755 1758 1761 1764 1767 1770 1773 1776 1779 1782 1785 1788 1791 1794 1797 1800 1803 1806 1809 1812 1815 1818 1821 1824 1827 1830 1833 1836 1839 1842 1845 1848 1851 1854 1857 1860 1863 1866 1869 1872 1875 1878 1881 1884 1887 1890 1893 1896 1899 1902 1905 1908 1911 1914 1917 1920 1923 1926 1929 1932 1935 1938 1941 1944 1947 1950 1953 1956 1959 1962 1965 1968 1971 1974 1977 1980 1983 1986 1989 1992 1995 1998 2001 2004 2007 2010 2013 2016 2019 2022 2025 2028 2031 2034 2037 2040 2043 2046 2049 2052 2055 2058 2061 2064 2067 2070 2073 2076 2079 2082 2085 2088 2091 2094 2097 2100 2103 2106 2109 2112 2115 2118 2121 2124 2127 2130 2133 2136 2139 2142 2145 2148 2151 2154 2157 2160 2163 2166 2169 2172 2175 2178 2181 2184 2187 2190 2193 2196 2199 2202 2205 2208 2211 2214 2217 2220 2223 2226 2229 2232 2235 2238 2241 2244 2247 2250 2253 2256 2259 2262 2265 2268 2271 2274 2277 2280 2283 2286 2289 2292 2295 2298 2301 2304 2307 2310 2313 2316 2319 2322 2325 2328 2331 2334 2337 2340 2343 2346 2349 2352 2355 2358 2361 2364 2367 2370 2373 2376 2379 2382 2385 2388 2391 2394 2397 2400 2403 2406 2409 2412 2415 2418 2421 2424 2427 2430 2433 2436 2439 2442 2445 2448 2451 2454 2457 2460 2463 2466 2469 2472 2475 2478 2481 2484 2487 2490 2493 2496 2499 2502 2505 2508 2511 2514 2517 2520 2523 2526 2529 2532 2535 2538 2541 2544 2547 2550 2553 2556 2559 2562 2565 2568 2571 2574 2577 2580 2583 2586 2589 2592 2595 2598 2601 2604 2607 2610 2613 2616 2619 2622 2625 2628 2631 2634 2637 2640 2643 2646 2649 2652 2655 2658 2661 2664 2667 2670 2673 2676 2679 2682 2685 2688 2691 2694 2697 2700 2703 2706 2709 2712 2715 2718 2721 2724 2727 2730 2733 2736 2739 2742 2745 2748 2751 2754 2757 2760 2763 2766 2769 2772 2775 2778 2781 2784 2787 2790 2793 2796 2799 2802 2805 2808 2811 2814 2817 2820 2823 2826 2829 2832 2835 2838 2841 2844 2847 2850 2853 2856 2859 2862 2865 2868 2871 2874 2877 2880 2883 2886 2889 2892 2895 2898 2901 2904 2907 2910 2913 2916 2919 2922 2925 2928 2931 2934 2937 2940 2943 2946 2949 2952 2955 2958 2961 2964 2967 2970 2973 2976 2979 2982 2985 2988 2991 2994 2997 3000 3003 3006 3009 3012 3015 3018 3021 3024 3027 3030 3033 3036 3039 3042 3045 3048 3051 3054 3057 3060 3063 3066 3069 3072 3075 3078 3081 3084 3087 3090 3093 3096 3099 3102 3105 3108 3111 3114 3117 3120 3123 3126 3129 3132 3135 3138 3141 3144 3147 3150 3153 3156 3159 3162 3165 3168 3171 3174 3177 3180 3183 3186 3189 3192 3195 3198 3201 3204 3207 3210 3213 3216 3219 3222 3225 3228 3231 3234 3237 3240 3243 3246 3249 3252 3255 3258 3261 3264 3267 3270 3273 3276 3279 3282 3285 3288 3291 3294 3297 3300 3303 3306 3309 3312 3315 3318 3321 3324 3327 3330 3333 3336 3339 3342 3345 3348 3351 3354 3357 3360 3363 3366 3369 3372 3375 3378 3381 3384 3387 3390 3393 3396 3399 3402 3405 3408 3411 3414 3417 3420 3423 3426 3429 3432 3435 3438 3441 3444 3447 3450 3453 3456 3459 3462 3465 3468 3471 3474 3477 3480 3483 3486 3489 3492 3495 3498 3501 3504 3507 3510 3513 3516 3519 3522 3525 3528 3531 3534 3537 3540 3543 3546 3549 3552 3555 3558 3561 3564 3567 3570 3573 3576 3579 3582 3585 3588 3591 3594 3597 3600 3603 3606 3609 3612 3615 3618 3621 3624 3627 3630 3633 3636 3639 3642 3645 3648 3651 3654 3657 3660 3663 3666 3669 3672 3675 3678 3681 3684 3687 3690 3693 3696 3699 3702 3705 3708 3711 3714 3717 3720 3723 3726 3729 3732 3735 3738 3741 3744 3747 3750 3753 3756 3759 3762 3765 3768 3771 3774 3777 3780 3783 3786 3789 3792 3795 3798 3801 3804 3807 3810 3813 3816 3819 3822 3825 3828 3831 3834 3837 3840 3843 3846 3849 3852 3855 3858 3861 3864 3867 3870 3873 3876 3879 3882 3885 3888 3891 3894 3897 3900 3903 3906 3909 3912 3915 3918 3921 3924 3927 3930 3933 3936 3939 3942 3945 3948 3951 3954 3957 3960 3963 3966 3969 3972 3975 3978 3981 3984 3987 3990 3993 3996 3999 4002 4005 4008 4011 4014 4017 4020 4023 4026 4029 4032 4035 4038 4041 4044 4047 4050 4053 4056 4059 4062 4065 4068 4071 4074 4077 4080 4083 4086 4089 4092 4095 4098 4101 4104 4107 4110 4113 4116 4119 4122 4125 4128 4131 4134 4137 4140 4143 4146 4149 4152 4155 4158 4161 4164 4167 4170 4173 4176 4179 4182 4185 4188 4191 4194 4197 4200 4203 4206 4209 4212 4215 4218 4221 4224 4227 4230 4233 4236 4239 4242 4245 4248 4251 4254 4257 4260 4263 4266 4269 4272 4275 4278 4281 4284 4287 4290 4293 4296 4299 4302 4305 4308 4311 4314 4317 4320 4323 4326 4329 4332 4335 4338 4341 4344 4347 4350 4353 4356 4359 4362 4365 4368 4371 4374 4377 4380 4383 4386 4389 4392 4395 4398 4401 4404 4407 4410 4413 4416 4419 4422 4425 4428 4431 4434 4437 4440 4443 4446 4449 4452 4455 4458 4461 4464 4467 4470 4473 4476 4479 4482 4485 4488 4491 4494 4497 4500 4503 4506 4509 4512 4515 4518 4521 4524 4527 4530 4533 4536 4539 4542 4545 4548 4551 4554 4557 4560 4563 4566 4569 4572 4575 4578 4581 4584 4587 4590 4593 4596 4599 4602 4605 4608 4611 4614 4617 4620 4623 4626 4629 4632 4635 4638 4641 4644 4647 4650 4653 4656 4659 4662 4665 4668 4671 4674 4677 4680 4683 4686 4689 4692 4695 4698 4701 4704 4707 4710 4713 4716 4719 4722 4725 4728 4731 4734 4737 4740 4743 4746 4749 4752 4755 4758 4761 4764 4767 4770 4773 4776 4779 4782 4785 4788 4791 4794 4797 4800 4803 4806 4809 4812 4815 4818 4821 4824 4827 4830 4833 4836 4839 4842 4845 4848 4851 4854 4857 4860 4863 4866 4869 4872 4875 4878 4881 4884 4887 4890 4893 4896 4899 4902 4905 4908 4911 4914 4917 4920 4923 4926 4929 4932 4935 4938 4941 4944 4947 4950 4953 4956 4959 4962 4965 4968 4971 4974 4977 4980 4983 4986 4989 4992 4995 4998 5001 5004 5007 5010 5013 5016 5019 5022 5025 5028 5031 5034 5037 5040 5043 5046 5049 5052 5055 5058 5061 5064 5067 5070 5073 5076 5079 5082 5085 5088 5091 5094 5097 5100 5103 5106 5109 5112 5115 5118 5121 5124 5127 5130 5133 5136 5139 5142 5145 5148 5151 5154 5157 5160 5163 5166 5169 5172 5175 5178 5181 5184 5187 5190 5193 5196 5199 5202 5205 5208 5211 5214 5217 5220 5223 5226 5229 5232 5235 5238 5241 5244 5247 5250 5253 5256 5259 5262 5265 5268 5271 5274 5277 5280 5283 5286 5289 5292 5295 5298 5301 5304 5307 5310 5313 5316 5319 5322 5325 5328 5331 5334 5337 5340 5343 5346 5349 5352 5355 5358 5361 5364 5367 5370 5373 5376 5379 5382 5385 5388 5391 5394 5397 5400 5403 5406 5409 5412 5415 5418 5421 5424 5427 5430 5433 5436 5439 5442 5445 5448 5451 5454 5457 5460 5463 5466 5469 5472 5475 5478 5481 5484 5487 5490 5493 5496 5499 5502 5505 5508 5511 5514 5517 5520 5523 5526 5529 5532 5535 5538 5541 5544 5547 5550 5553 5556 5559 5562 5565 5568 5571 5574 5577 5580 5583 5586 5589 5592 5595 5598 5601 5604 5607 5610 5613 5616 5619 5622 5625 5628 5631 5634 5637 5640 5643 5646 5649 5652 5655 5658 5661 5664 5667 5670 5673 5676 5679 5682 5685 5688 5691 5694 5697 5700 5703 5706 5709 5712 5715 5718 5721 5724 5727 5730 5733 5736 5739 5742 5745 5748 5751 5754 5757 5760 5763 5766 5769 5772 5775 5778 5781 5784 5787 5790 5793 5796 5799 5802 5805 5808 5811 5814 5817 5820 5823 5826 5829 5832 5835 5838 5841 5844 5847 5850 5853 5856 5859 5862 5865 5868 5871 5874 5877 5880 5883 5886 5889 5892 5895 5898 5901 5904 5907 5910 5913 5916 5919 5922 5925 5928 5931 5934 5937 5940 5943 5946 5949 5952 5955 5958 5961 5964 5967 5970 5973 5976 5979 5982 5985 5988 5991 5994 5997 6000 6003 6006 6009 6012 6015 6018 6021 6024 6027 6030 6033 6036 6039 6042 6045 6048 6051 6054 6057 6060 6063 6066 6069 6072 6075 6078 6081 6084 6087 6090 6093 6096 6099 6102 6105 6108 6111 6114 6117 6120 6123 6126 6129 6132 6135 6138 6141 6144 6147 6150 6153 6156 6159 6162 6165 6168 6171 6174 6177 6180 6183 6186 6189 6192 6195 6198 6201 6204 6207 6210 6213 6216 6219 6222 6225 6228 6231 6234 6237 6240 6243 6246 6249 6252 6255 6258 6261 6264 6267 6270 6273 6276 6279 6282 6285 6288 6291 6294 6297 6300 6303 6306 6309 6312 6315 6318 6321 6324 6327 6330 6333 6336 6339 6342 6345 6348 6351 6354 6357 6360 6363 6366 6369 6372 6375 6378 6381 6384 6387 6390 6393 6396 6399 6402 6405 6408 6411 6414 6417 6420 6423 6426 6429 6432 6435 6438 6441 6444 6447 6450 6453 6456 6459 6462 6465 6468 6471 6474 6477 6480 6483 6486 6489 6492 6495 6498 6501 6504 6507 6510 6513 6516 6519 6522 6525 6528 6531 6534 6537 6540 6543 6546 6549 6552 6555 6558 6561 6564 6567 6570 6573 6576 6579 6582 6585 6588 6591 6594 6597 6600 6603 6606 6609 6612 6615 6618 6621 6624 6627 6630 6633 6636 6639 6642 6645 6648 6651 6654 6657 6660 6663 6666 6669 6672 6675 6678 6681 6684 6687 6690 6693 6696 6699 6702 6705 6708 6711 6714 6717 6720 6723 6726 6729 6732 6735 6738 6741 6744 6747 6750 6753 6756 6759 6762 6765 6768 6771 6774 6777 6780 6783 6786 6789 6792 6795 6798 6801 6804 6807 6810 6813 6816 6819 6822 6825 6828 6831 6834 6837 6840 6843 6846 6849 6852 6855 6858 6861 6864 6867 6870 6873 6876 6879 6882 6885 6888 6891 6894 6897 6900 6903 6906 6909 6912 6915 6918 6921 6924 6927 6930 6933 6936 6939 6942 6945 6948 6951 6954 6957 6960 6963 6966 6969 6972 6975 6978 6981 6984 6987 6990 6993 6996 6999 7002 7005 7008 7011 7014 7017 7020 7023 7026 7029 7032 7035 7038 7041 7044 7047 7050 7053 7056 7059 7062 7065 7068 7071 7074 7077 7080 7083 7086 7089 7092 7095 7098 7101 7104 7107 7110 7113 7116 7119 7122 7125 7128 7131 7134 7137 7140 7143 7146 7149 7152 7155 7158 7161 7164 7167 7170 7173 7176 7179 7182 7185 7188 7191 7194 7197 7200 7203 7206 7209 7212 7215 7218 7221 7224 7227 7230 7233 7236 7239 7242 7245 7248 7251 7254 7257 7260 7263 7266 7269 7272 7275 7278 7281 7284 7287 7290 7293 7296 7299 7302 7305 7308 7311 7314 7317 7320 7323 7326 7329 7332 7335 7338 7341 7344 7347 7350 7353 7356 7359 7362 7365 7368 7371 7374 7377 7380 7383 7386 7389 7392 7395 7398 7401 7404 7407 7410 7413 7416 7419 7422 7425 7428 7431 7434 7437 7440 7443 7446 7449 7452 7455 7458 7461 7464 7467 7470 7473 7476 7479 7482 7485 7488 7491 7494 7497 7500 7503 7506 7509 7512 7515 7518 7521 7524 7527 7530 7533 7536 7539 7542 7545 7548 7551 7554 7557 7560 7563 7566 7569 7572 7575 7578 7581 7584 7587 7590 7593 7596 7599 7602 7605 7608 7611 7614 7617 7620 7623 7626 7629 7632 7635 7638 7641 7644 7647 7650 7653 7656 7659 7662 7665 7668 7671 7674 7677 7680 7683 7686 7689 7692 7695 7698 7701 7704 7707 7710 7713 7716 7719 7722 7725 7728 7731 7734 7737 7740 7743 7746 7749 7752 7755 7758 7761 7764 7767 7770 7773 7776 7779 7782 7785 7788 7791 7794 7797 7800 7803 7806 7809 7812 7815 7818 7821 7824 7827 7830 7833 7836 7839 7842 7845 7848 7851 7854 7857 7860 7863 7866 7869 7872 7875 7878 7881 7884 7887 7890 7893 7896 7899 7902 7905 7908 7911 7914 7917 7920 7923 7926 7929 7932 7935 7938 7941 7944 7947 7950 7953 7956 7959 7962 7965 7968 7971 7974 7977 7980 7983 7986 7989 7992 7995 7998 8001 8004 8007 8010 8013 8016 8019 8022 8025 8028 8031 8034 8037 8040 8043 8046 8049 8052 8055 8058 8061 8064 8067 8070 8073 8076 8079 8082 8085 8088 8091 8094 8097 8100 8103 8106 8109 8112 8115 8118 8121 8124 8127 8130 8133 8136 8139 8142 8145 8148 8151 8154 8157 8160 8163 8166 8169 8172 8175 8178 8181 8184 8187 8190 8193 8196 8199 8202 8205 8208 8211 8214 8217 8220 8223 8226 8229 8232 8235 8238 8241 8244 8247 8250 8253 8256 8259 8262 8265 8268 8271 8274 8277 8280 8283 8286 8289 8292 8295 8298 8301 8304 8307 8310 8313 8316 8319 8322 8325 8328 8331 8334 8337 8340 8343 8346 8349 8352 8355 8358 8361 8364 8367 8370 8373 8376 8379 8382 8385 8388 8391 8394 8397 8400 8403 8406 8409 8412 8415 8418 8421 8424 8427 8430 8433 8436 8439 8442 8445 8448 8451 8454 8457 8460 8463 8466 8469 8472 8475 8478 8481 8484 8487 8490 8493 8496 8499 8502 8505 8508 8511 8514 8517 8520 8523 8526 8529 8532 8535 8538 8541 8544 8547 8550 8553 8556 8559 8562 8565 8568 8571 8574 8577 8580 8583 8586 8589 8592 8595 8598 8601 8604 8607 8610 8613 8616 8619 8622 8625 8628 8631 8634 8637 8640 8643 8646 8649 8652 8655 8658 8661 8664 8667 8670 8673 8676 8679 8682 8685 8688 8691 8694 8697 8700 8703 8706 8709 8712 8715 8718 8721 8724 8727 8730 8733 8736 8739 8742 8745 8748 8751 8754 8757 8760 8763 8766 8769 8772 8775 8778 8781 8784 8787 8790 8793 8796 8799 8802 8805 8808 8811 8814 8817 8820 8823 8826 8829 8832 8835 8838 8841 8844 8847 8850 8853 8856 8859 8862 8865 8868 8871 8874 8877 8880 8883 8886 8889 8892 8895 8898 8901 8904 8907 8910 8913 8916 8919 8922 8925 8928 8931 8934 8937 8940 8943 8946 8949 8952 8955 8958 8961 8964 8967 8970 8973 8976 8979 8982 8985 8988 8991 8994 8997 9000 9003 9006 9009 9012 9015 9018 9021 9024 9027 9030 9033 9036 9039 9042 9045 9048 9051 9054 9057 9060 9063 9066 9069 9072 9075 9078 9081 9084 9087 9090 9093 9096 9099 9102 9105 9108 9111 9114 9117 9120 9123 9126 9129 9132 9135 9138 9141 9144 9147 9150 9153 9156 9159 9162 9165 9168 9171 9174 9177 9180 9183 9186 9189 9192 9195 9198 9201 9204 9207 9210 9213 9216 9219 9222 9225 9228 9231 9234 9237 9240 9243 9246 9249 9252 9255 9258 9261 9264 9267 9270 9273 9276 9279 9282 9285 9288 9291 9294 9297 9300 9303 9306 9309 9312 9315 9318 9321 9324 9327 9330 9333 9336 9339 9342 9345 9348 9351 9354 9357 9360 9363 9366 9369 9372 9375 9378 9381 9384 9387 9390 9393 9396 9399 9402 9405 9408 9411 9414 9417 9420 9423 9426 9429 9432 9435 9438 9441 9444 9447 9450 9453 9456 9459 9462 9465 9468 9471 9474 9477 9480 9483 9486 9489 9492 9495 9498 9501 9504 9507 9510 9513 9516 9519 9522 9525 9528 9531 9534 9537 9540 9543 9546 9549 9552 9555 9558 9561 9564 9567 9570 9573 9576 9579 9582 9585 9588 9591 9594 9597 9600 9603 9606 9609 9612 9615 9618 9621 9624 9627 9630 9633 9636 9639 9642 9645 9648 9651 9654 9657 9660 9663 9666 9669 9672 9675 9678 9681 9684 9687 9690 9693 9696 9699 9702 9705 9708 9711 9714 9717 9720 9723 9726 9729 9732 9735 9738 9741 9744 9747 9750 9753 9756 9759 9762 9765 9768 9771 9774 9777 9780 9783 9786 9789 9792 9795 9798 9801 9804 9807 9810 9813 9816 9819 9822 9825 9828 9831 9834 9837 9840 9843 9846 9849 9852 9855 9858 9861 9864 9867 9870 9873 9876 9879 9882 9885 9888 9891 9894 9897 9900 9903 9906 9909 9912 9915 9918 9921 9924 9927 9930 9933 9936 9939 9942 9945 9948 9951 9954 9957 9960 9963 9966 9969 9972 9975 9978 9981 9984 9987 9990 9993 9996 9999 10002 10005 10008 10011 10014 10017 10020 10023 10026 10029 10032 10035 10038 10041 10044 10047 10050 10053 10056 10059 10062 10065 10068 10071 10074 10077 10080 10083 10086 10089 10092 10095 10098 10101 10104 10107 10110 10113 10116 10119 10122 10125 10128 10131 10134 10137 10140 10143 10146 10149 10152 10155 10158 10161 10164 10167 10170 10173 10176 10179 10182 10185 10188 10191 10194 10197 10200 10203 10206 10209 10212 10215 10218 10221 10224 10227 10230 10233 10236 10239 10242 10245 10248 10251 10254 10257 10260 10263 10266 10269 10272 10275 10278 10281 10284 10287 10290 10293 10296 10299 10302 10305 10308 10311 10314 10317 10320 10323 10326 10329 10332 10335 10338 10341 10344 10347 10350 10353 10356 10359 10362 10365 10368 10371 10374 10377 10380 10383 10386 10389 10392 10395 10398 10401 10404 10407 10410 10413 10416 10419 10422 10425 10428 10431 10434 10437 10440 10443 10446 10449 10452 10455 10458 10461 10464 10467 10470 10473 10476 10479 10482 10485 10488 10491 10494 10497 10500 10503 10506 10509 10512 10515 10518 10521 10524 10527 10530 10533 10536 10539 10542 10545 10548 10551 10554 10557 10560 10563 10566 10569 10572 10575 10578 10581 10584 10587 10590 10593 10596 10599 10602 10605 10608 10611 10614 10617 10620 10623 10626 10629 10632 10635 10638 10641 10644 10647 10650 10653 10656 10659 10662 10665 10668 10671 10674 10677 10680 10683 10686 10689 10692 10695 10698 10701 10704 10707 10710 10713 10716 10719 10722 10725 10728 10731 10734 10737 10740 10743 10746 10749 10752 10755 10758 10761 10764 10767 10770 10773 10776 10779 10782 10785 10788 10791 10794 10797 10800 10803 10806 10809 10812 10815 10818 10821 10824 10827 10830 10833 10836 10839 10842 10845 10848 10851 10854 10857 10860 10863 10866 10869 10872 10875 10878 10881 10884 10887 10890 10893 10896 10899 10902 10905 10908 10911 10914 10917 10920 10923 10926 10929 10932 10935 10938 10941 10944 10947 10950 10953 10956 10959 10962 10965 10968 10971 10974 10977 10980 10983 10986 10989 10992 10995 10998 11001 11004 11007 11010 11013 11016 11019 11022 11025 11028 11031 11034 11037 11040 11043 11046 11049 11052 11055 11058 11061 11064 11067 11070 11073 11076 11079 11082 11085 11088 11091 11094 11097 11100 11103 11106 11109 11112 11115 11118 11121 11124 11127 11130 11133 11136 11139 11142 11145 11148 11151 11154 11157 11160 11163 11166 11169 11172 11175 11178 11181 11184 11187 11190 11193 11196 11199 11202 11205 11208 11211 11214 11217 11220 11223 11226 11229 11232 11235 11238 11241 11244 11247 11250 11253 11256 11259 11262 11265 11268 11271 11274 11277 11280 11283 11286 11289 11292 11295 11298 11301 11304 11307 11310 11313 11316 11319 11322 11325 11328 11331 11334 11337 11340 11343 11346 11349 11352 11355 11358 11361 11364 11367 11370 11373 11376 11379 11382 11385 11388 11391 11394 11397 11400 11403 11406 11409 11412 11415 11418 11421 11424 11427 11430 11433 11436 11439 11442 11445 11448 11451 11454 11457 11460 11463 11466 11469 11472 11475 11478 11481 11484 11487 11490 11493 11496 11499 11502 11505 11508 11511 11514 11517 11520 11523 11526 11529 11532 11535 11538 11541 11544 11547 11550 11553 11556 11559 11562 11565 11568 11571 11574 11577 11580 11583 11586 11589 11592 11595 11598 11601 11604 11607 11610 11613 11616 11619 11622 11625 11628 11631 11634 11637 11640 11643 11646 11649 11652 11655 11658 11661 11664 11667 11670 11673 11676 11679 11682 11685 11688 11691 11694 11697 11700 11703 11706 11709 11712 11715 11718 11721 11724 11727 11730 11733 11736 11739 11742 11745 11748 11751 11754 11757 11760 11763 11766 11769 11772 11775 11778 11781 11784 11787 11790 11793 11796 11799 11802 11805 11808 11811 11814 11817 11820 11823 11826 11829 11832 11835 11838 11841 11844 11847 11850 11853 11856 11859 11862 11865 11868 11871 11874 11877 11880 11883 11886 11889 11892 11895 11898 11901 11904 11907 11910 11913 11916 11919 11922 11925 11928 11931 11934 11937 11940 11943 11946 11949 11952 11955 11958 11961 11964 11967 11970 11973 11976 11979 11982 11985 11988 11991 11994 11997 12000 12003 12006 12009 12012 12015 12018 12021 12024 12027 12030 12033 12036 12039 12042 12045 12048 12051 12054 12057 12060 12063 12066 12069 12072 12075 12078 12081 12084 12087 12090 12093 12096 12099 12102 12105 12108 12111 12114 12117 12120 12123 12126 12129 12132 12135 12138 12141 12144 12147 12150 12153 12156 12159 12162 12165 12168 12171 12174 12177 12180 12183 12186 12189 12192 12195 12198 12201 12204 12207 12210 12213 12216 12219 12222 12225 12228 12231 12234 12237 12240 12243 12246 12249 12252 12255 12258 12261 12264 12267 12270 12273 12276 12279 12282 12285 12288 12291 12294 12297 12300 12303 12306 12309 12312 12315 12318 12321 12324 12327 12330 12333 12336 12339 12342 12345 12348 12351 12354 12357 12360 12363 12366 12369 12372 12375 12378 12381 12384 12387 12390 12393 12396 12399 12402 12405 12408 12411 12414 12417 12420 12423 12426 12429 12432 12435 12438 12441 12444 12447 12450 12453 12456 12459 12462 12465 12468 12471 12474 12477 12480 12483 12486 12489 12492 12495 12498 12501 12504 12507 12510 12513 12516 12519 12522 12525 12528 12531 12534 12537 12540 12543 12546 12549 12552 12555 12558 12561 12564 12567 12570 12573 12576 12579 12582 12585 12588 12591 12594 12597 12600 12603 12606 12609 12612 12615 12618 12621 12624 12627 12630 12633 12636 12639 12642 12645 12648 12651 12654 12657 12660 12663 12666 12669 12672 12675 12678 12681 12684 12687 12690 12693 12696 12699 12702 12705 12708 12711 12714 12717 12720 12723 12726 12729 12732 12735 12738 12741 12744 12747 12750 12753 12756 12759 12762 12765 12768 12771 12774 12777 12780 12783 12786 12789 12792 12795 12798 12801 12804 12807 12810 12813 12816 12819 12822 12825 12828 12831 12834 12837 12840 12843 12846 12849 12852 12855 12858 12861 12864 12867 12870 12873 12876 12879 12882 12885 12888 12891 12894 12897 12900 12903 12906 12909 12912 12915 12918 12921 12924 12927 12930 12933 12936 12939 12942 12945 12948 12951 12954 12957 12960 12963 12966 12969 12972 12975 12978 12981 12984 12987 12990 12993 12996 12999 13002 13005 13008 13011 13014 13017 13020 13023 13026 13029 13032 13035 13038 13041 13044 13047 13050 13053 13056 13059 13062 13065 13068 13071 13074 13077 13080 13083 13086 13089 13092 13095 13098 13101 13104 13107 13110 13113 13116 13119 13122 13125 13128 13131 13134 13137 13140 13143 13146 13149 13152 13155 13158 13161 13164 13167 13170 13173 13176 13179 13182 13185 13188 13191 13194 13197 13200 13203 13206 13209 13212 13215 13218 13221 13224 13227 13230 13233 13236 13239 13242 13245 13248 13251 13254 13257 13260 13263 13266 13269 13272 13275 13278 13281 13284 13287 13290 13293 13296 13299 13302 13305 13308 13311 13314 13317 13320 13323 13326 13329 13332 13335 13338 13341 13344 13347 13350 13353 13356 13359 13362 13365 13368 13371 13374 13377 13380 13383 13386 13389 13392 13395 13398 13401 13404 13407 13410 13413 13416 13419 13422 13425 13428 13431 13434 13437 13440 13443 13446 13449 13452 13455 13458 13461 13464 13467 13470 13473 13476 13479 13482 13485 13488 13491 13494 13497 13500 13503 13506 13509 13512 13515 13518 13521 13524 13527 13530 13533 13536 13539 13542 13545 13548 13551 13554 13557 13560 13563 13566 13569 13572 13575 13578 13581 13584 13587 13590 13593 13596 13599 13602 13605 13608 13611 13614 13617 13620 13623 13626 13629 13632 13635 13638 13641 13644 13647 13650 13653 13656 13659 13662 13665 13668 13671 13674 13677 13680 13683 13686 13689 13692 13695 13698 13701 13704 13707 13710 13713 13716 13719 13722 13725 13728 13731 13734 13737 13740 13743 13746 13749 13752 13755 13758 13761 13764 13767 13770 13773 13776 13779 13782 13785 13788 13791 13794 13797 13800 13803 13806 13809 13812 13815 13818 13821 13824 13827 13830 13833 13836 13839 13842 13845 13848 13851 13854 13857 13860 13863 13866 13869 13872 13875 13878 13881 13884 13887 13890 13893 13896 13899 13902 13905 13908 13911 13914 13917 13920 13923 13926 13929 13932 13935 13938 13941 13944 13947 13950 13953 13956 13959 13962 13965 13968 13971 13974 13977 13980 13983 13986 13989 13992 13995 13998 14001 14004 14007 14010 14013 14016 14019 14022 14025 14028 14031 14034 14037 14040 14043 14046 14049 14052 14055 14058 14061 14064 14067 14070 14073 14076 14079 14082 14085 14088 14091 14094 14097 14100 14103 14106 14109 14112 14115 14118 14121 14124 14127 14130 14133 14136 14139 14142 14145 14148 14151 14154 14157 14160 14163 14166 14169 14172 14175 14178 14181 14184 14187 14190 14193 14196 14199 14202 14205 14208 14211 14214 14217 14220 14223 14226 14229 14232 14235 14238 14241 14244 14247 14250 14253 14256 14259 14262 14265 14268 14271 14274 14277 14280 14283 14286 14289 14292 14295 14298 14301 14304 14307 14310 14313 14316 14319 14322 14325 14328 14331 14334 14337 14340 14343 14346 14349 14352 14355 14358 14361 14364 14367 14370 14373 14376 14379 14382 14385 14388 14391 14394 14397 14400 14403 14406 14409 14412 14415 14418 14421 14424 14427 14430 14433 14436 14439 14442 14445 14448 14451 14454 14457 14460 14463 14466 14469 14472 14475 14478 14481 14484 14487 14490 14493 14496 14499 14502 14505 14508 14511 14514 14517 14520 14523 14526 14529 14532 14535 14538 14541 14544 14547 14550 14553 14556 14559 14562 14565 14568 14571 14574 14577 14580 14583 14586 14589 14592 14595 14598 14601 14604 14607 14610 14613 14616 14619 14622 14625 14628 14631 14634 14637 14640 14643 14646 14649 14652 14655 14658 14661 14664 14667 14670 14673 14676 14679 14682 14685 14688 14691 14694 14697 14700 14703 14706 14709 14712 14715 14718 14721 14724 14727 14730 14733 14736 14739 14742 14745 14748 14751 14754 14757 14760 14763 14766 14769 14772 14775 14778 14781 14784 14787 14790 14793 14796 14799 14802 14805 14808 14811 14814 14817 14820 14823 14826 14829 14832 14835 14838 14841 14844 14847 14850 14853 14856 14859 14862 14865 14868 14871 14874 14877 14880 14883 14886 14889 14892 14895 14898 14901 14904 14907 14910 14913 14916 14919 14922 14925 14928 14931 14934 14937 14940 14943 14946 14949 14952 14955 14958 14961 14964 14967 14970 14973 14976 14979 14982 14985 14988 14991 14994 14997 15000 15003 15006 15009 15012 15015 15018 15021 15024 15027 15030 15033 15036 15039 15042 15045 15048 15051 15054 15057 15060 15063 15066 15069 15072 15075 15078 15081 15084 15087 15090 15093 15096 15099 15102 15105 15108 15111 15114 15117 15120 15123 15126 15129 15132 15135 15138 15141 15144 15147 15150 15153 15156 15159 15162 15165 15168 15171 15174 15177 15180 15183 15186 15189 15192 15195 15198 15201 15204 15207 15210 15213 15216 15219 15222 15225 15228 15231 15234 15237 15240 15243 15246 15249 15252 15255 15258 15261 15264 15267 15270 15273 15276 15279 15282 15285 15288 15291 15294 15297 15300 15303 15306 15309 15312 15315 15318 15321 15324 15327 15330 15333 15336 15339 15342 15345 15348 15351 15354 15357 15360 15363 15366 15369 15372 15375 15378 15381 15384 15387 15390 15393 15396 15399 15402 15405 15408 15411 15414 15417 15420 15423 15426 15429 15432 15435 15438 15441 15444 15447 15450 15453 15456 15459 15462 15465 15468 15471 15474 15477 15480 15483 15486 15489 15492 15495 15498 15501 15504 15507 15510 15513 15516 15519 15522 15525 15528 15531 15534 15537 15540 15543 15546 15549 15552 15555 15558 15561 15564 15567 15570 15573 15576 15579 15582 15585 15588 15591 15594 15597 15600 15603 15606 15609 15612 15615 15618 15621 15624 15627 15630 15633 15636 15639 15642 15645 15648 15651 15654 15657 15660 15663 15666 15669 15672 15675 15678 15681 15684 15687 15690 15693 15696 15699 15702 15705 15708 15711 15714 15717 15720 15723 15726 15729 15732 15735 15738 15741 15744 15747 15750 15753 15756 15759 15762 15765 15768 15771 15774 15777 15780 15783 15786 15789 15792 15795 15798 15801 15804 15807 15810 15813 15816 15819 15822 15825 15828 15831 15834 15837 15840 15843 15846 15849 15852 15855 15858 15861 15864 15867 15870 15873 15876 15879 15882 15885 15888 15891 15894 15897 15900 15903 15906 15909 15912 15915 15918 15921 15924 15927 15930 15933 15936 15939 15942 15945 15948 15951 15954 15957 15960 15963 15966 15969 15972 15975 15978 15981 15984 15987 15990 15993 15996 15999 16002 16005 16008 16011 16014 16017 16020 16023 16026 16029 16032 16035 16038 16041 16044 16047 16050 16053 16056 16059 16062 16065 16068 16071 16074 16077 16080 16083 16086 16089 16092 16095 16098 16101 16104 16107 16110 16113 16116 16119 16122 16125 16128 16131 16134 16137 16140 16143 16146 16149 16152 16155 16158 16161 16164 16167 16170 16173 16176 16179 16182 16185 16188 16191 16194 16197 16200 16203 16206 16209 16212 16215 16218 16221 16224 16227 16230 16233 16236 16239 16242 16245 16248 16251 16254 16257 16260 16263 16266 16269 16272 16275 16278 16281 16284 16287 16290 16293 16296 16299 16302 16305 16308 16311 16314 16317 16320 16323 16326 16329 16332 16335 16338 16341 16344 16347 16350 16353 16356 16359 16362 16365 16368 16371 16374 16377 16380 16383 16386 16389 16392 16395 16398 16401 16404 16407 16410 16413 16416 16419 16422 16425 16428 16431 16434 16437 16440 16443 16446 16449 16452 16455 16458 16461 16464 16467 16470 16473 16476 16479 16482 16485 16488 16491 16494 16497 16500 16503 16506 16509 16512 16515 16518 16521 16524 16527 16530 16533 16536 16539 16542 16545 16548 16551 16554 16557 16560 16563 16566 16569 16572 16575 16578 16581 16584 16587 16590 16593 16596 16599 16602 16605 16608 16611 16614 16617 16620 16623 16626 16629 16632 16635 16638 16641 16644 16647 16650 16653 16656 16659 16662 16665 16668 16671 16674 16677 16680 16683 16686 16689 16692 16695 16698 16701 16704 16707 16710 16713 16716 16719 16722 16725 16728 16731 16734 16737 16740 16743 16746 16749 16752 16755 16758 16761 16764 16767 16770 16773 16776 16779 16782 16785 16788 16791 16794 16797 16800 16803 16806 16809 16812 16815 16818 16821 16824 16827 16830 16833 16836 16839 16842 16845 16848 16851 16854 16857 16860 16863 16866 16869 16872 16875 16878 16881 16884 16887 16890 16893 16896 16899 16902 16905 16908 16911 16914 16917 16920 16923 16926 16929 16932 16935 16938 16941 16944 16947 16950 16953 16956 16959 16962 16965 16968 16971 16974 16977 16980 16983 16986 16989 16992 16995 16998 17001 17004 17007 17010 17013 17016 17019 17022 17025 17028 17031 17034 17037 17040 17043 17046 17049 17052 17055 17058 17061 17064 17067 17070 17073 17076 17079 17082 17085 17088 17091 17094 17097 17100 17103 17106 17109 17112 17115 17118 17121 17124 17127 17130 17133 17136 17139 17142 17145 17148 17151 17154 17157 17160 17163 17166 17169 17172 17175 17178 17181 17184 17187 17190 17193 17196 17199 17202 17205 17208 17211 17214 17217 17220 17223 17226 17229 17232 17235 17238 17241 17244 17247 17250 17253 17256 17259 17262 17265 17268 17271 17274 17277 17280 17283 17286 17289 17292 17295 17298 17301 17304 17307 17310 17313 17316 17319 17322 17325 17328 17331 17334 17337 17340 17343 17346 17349 17352 17355 17358 17361 17364 17367 17370 17373 17376 17379 17382 17385 17388 17391 17394 17397 17400 17403 17406 17409 17412 17415 17418 17421 17424 17427 17430 17433 17436 17439 17442 17445 17448 17451 17454 17457 17460 17463 17466 17469 17472 17475 17478 17481 17484 17487 17490 17493 17496 17499 17502 17505 17508 17511 17514 17517 17520 17523 17526 17529 17532 17535 17538 17541 17544 17547 17550 17553 17556 17559 17562 17565 17568 17571 17574 17577 17580 17583 17586 17589 17592 17595 17598 17601 17604 17607 17610 17613 17616 17619 17622 17625 17628 17631 17634 17637 17640 17643 17646 17649 17652 17655 17658 17661 17664 17667 17670 17673 17676 17679 17682 17685 17688 17691 17694 17697 17700 17703 17706 17709 17712 17715 17718 17721 17724 17727 17730 17733 17736 17739 17742 17745 17748 17751 17754 17757 17760 17763 17766 17769 17772 17775 17778 17781 17784 17787 17790 17793 17796 17799 17802 17805 17808 17811 17814 17817 17820 17823 17826 17829 17832 17835 17838 17841 17844 17847 17850 17853 17856 17859 17862 17865 17868 17871 17874 17877 17880 17883 17886 17889 17892 17895 17898 17901 17904 17907 17910 17913 17916 17919 17922 17925 17928 17931 17934 17937 17940 17943 17946 17949 17952 17955 17958 17961 17964 17967 17970 17973 17976 17979 17982 17985 17988 17991 17994 17997 18000 18003 18006 18009 18012 18015 18018 18021 18024 18027 18030 18033 18036 18039 18042 18045 18048 18051 18054 18057 18060 18063 18066 18069 18072 18075 18078 18081 18084 18087 18090 18093 18096 18099 18102 18105 18108 18111 18114 18117 18120 18123 18126 18129 18132 18135 18138 18141 18144 18147 18150 18153 18156 18159 18162 18165 18168 18171 18174 18177 18180 18183 18186 18189 18192 18195 18198 18201 18204 18207 18210 18213 18216 18219 18222 18225 18228 18231 18234 18237 18240 18243 18246 18249 18252 18255 18258 18261 18264 18267 18270 18273 18276 18279 18282 18285 18288 18291 18294 18297 18300 18303 18306 18309 18312 18315 18318 18321 18324 18327 18330 18333 18336 18339 18342 18345 18348 18351 18354 18357 18360 18363 18366 18369 18372 18375 18378 18381 18384 18387 18390 18393 18396 18399 18402 18405 18408 18411 18414 18417 18420 18423 18426 18429 18432 18435 18438 18441 18444 18447 18450 18453 18456 18459 18462 18465 18468 18471 18474 18477 18480 18483 18486 18489 18492 18495 18498 18501 18504 18507 18510 18513 18516 18519 18522 18525 18528 18531 18534 18537 18540 18543 18546 18549 18552 18555 18558 18561 18564 18567 18570 18573 18576 18579 18582 18585 18588 18591 18594 18597 18600 18603 18606 18609 18612 18615 18618 18621 18624 18627 18630 18633 18636 18639 18642 18645 18648 18651 18654 18657 18660 18663 18666 18669 18672 18675 18678 18681 18684 18687 18690 18693 18696 18699 18702 18705 18708 18711 18714 18717 18720 18723 18726 18729 18732 18735 18738 18741 18744 18747 18750 18753 18756 18759 18762 18765 18768 18771 18774 18777 18780 18783 18786 18789 18792 18795 18798 18801 18804 18807 18810 18813 18816 18819 18822 18825 18828 18831 18834 18837 18840 18843 18846 18849 18852 18855 18858 18861 18864 18867 18870 18873 18876 18879 18882 18885 18888 18891 18894 18897 18900 18903 18906 18909 18912 18915 18918 18921 18924 18927 18930 18933 18936 18939 18942 18945 18948 18951 18954 18957 18960 18963 18966 18969 18972 18975 18978 18981 18984 18987 18990 18993 18996 18999 19002 19005 19008 19011 19014 19017 19020 19023 19026 19029 19032 19035 19038 19041 19044 19047 19050 19053 19056 19059 19062 19065 19068 19071 19074 19077 19080 19083 19086 19089 19092 19095 19098 19101 19104 19107 19110 19113 19116 19119 19122 19125 19128 19131 19134 19137 19140 19143 19146 19149 19152 19155 19158 19161 19164 19167 19170 19173 19176 19179 19182 19185 19188 19191 19194 19197 19200 19203 19206 19209 19212 19215 19218 19221 19224 19227 19230 19233 19236 19239 19242 19245 19248 19251 19254 19257 19260 19263 19266 19269 19272 19275 19278 19281 19284 19287 19290 19293 19296 19299 19302 19305 19308 19311 19314 19317 19320 19323 19326 19329 19332 19335 19338 19341 19344 19347 19350 19353 19356 19359 19362 19365 19368 19371 19374 19377 19380 19383 19386 19389 19392 19395 19398 19401 19404 19407 19410 19413 19416 19419 19422 19425 19428 19431 19434 19437 19440 19443 19446 19449 19452 19455 19458 19461 19464 19467 19470 19473 19476 19479 19482 19485 19488 19491 19494 19497 19500 19503 19506 19509 19512 19515 19518 19521 19524 19527 19530 19533 19536 19539 19542 19545 19548 19551 19554 19557 19560 19563 19566 19569 19572 19575 19578 19581 19584 19587 19590 19593 19596 19599 19602 19605 19608 19611 19614 19617 19620 19623 19626 19629 19632 19635 19638 19641 19644 19647 19650 19653 19656 19659 19662 19665 19668 19671 19674 19677 19680 19683 19686 19689 19692 19695 19698 19701 19704 19707 19710 19713 19716 19719 19722 19725 19728 19731 19734 19737 19740 19743 19746 19749 19752 19755 19758 19761 19764 19767 19770 19773 19776 19779 19782 19785 19788 19791 19794 19797 19800 19803 19806 19809 19812 19815 19818 19821 19824 19827 19830 19833 19836 19839 19842 19845 19848 19851 19854 19857 19860 19863 19866 19869 19872 19875 19878 19881 19884 19887 19890 19893 19896 19899 19902 19905 19908 19911 19914 19917 19920 19923 19926 19929 19932 19935 19938 19941 19944 19947 19950 19953 19956 19959 19962 19965 19968 19971 19974 19977 19980 19983 19986 19989 19992 19995 19998 20001 20004 20007 20010 20013 20016 20019 20022 20025 20028 20031 20034 20037 20040 20043 20046 20049 20052 20055 20058 20061 20064 20067 20070 20073 20076 20079 20082 20085 20088 20091 20094 20097 20100 20103 20106 20109 20112 20115 20118 20121 20124 20127 20130 20133 20136 20139 20142 20145 20148 20151 20154 20157 20160 20163 20166 20169 20172 20175 20178 20181 20184 20187 20190 20193 20196 20199 20202 20205 20208 20211 20214 20217 20220 20223 20226 20229 20232 20235 20238 20241 20244 20247 20250 20253 20256 20259 20262 20265 20268 20271 20274 20277 20280 20283 20286 20289 20292 20295 20298 20301 20304 20307 20310 20313 20316 20319 20322 20325 20328 20331 20334 20337 20340 20343 20346 20349 20352 20355 20358 20361 20364 20367 20370 20373 20376 20379 20382 20385 20388 20391 20394 20397 20400 20403 20406 20409 20412 20415 20418 20421 20424 20427 20430 20433 20436 20439 20442 20445 20448 20451 20454 20457 20460 20463 20466 20469 20472 20475 20478 20481 20484 20487 20490 20493 20496 20499 20502 20505 20508 20511 20514 20517 20520 20523 20526 20529 20532 20535 20538 20541 20544 20547 20550 20553 20556 20559 20562 20565 20568 20571 20574 20577 20580 20583 20586 20589 20592 20595 20598 20601 20604 20607 20610 20613 20616 20619 20622 20625 20628 20631 20634 20637 20640 20643 20646 20649 20652 20655 20658 20661 20664 20667 20670 20673 20676 20679 20682 20685 20688 20691 20694 20697 20700 20703 20706 20709 20712 20715 20718 20721 20724 20727 20730 20733 20736 20739 20742 20745 20748 20751 20754 20757 20760 20763 20766 20769 20772 20775 20778 20781 20784 20787 20790 20793 20796 20799 20802 20805 20808 20811 20814 20817 20820 20823 20826 20829 20832 20835 20838 20841 20844 20847 20850 20853 20856 20859 20862 20865 20868 20871 20874 20877 20880 20883 20886 20889 20892 20895 20898 20901 20904 20907 20910 20913 20916 20919 20922 20925 20928 20931 20934 20937 20940 20943 20946 20949 20952 20955 20958 20961 20964 20967 20970 20973 20976 20979 20982 20985 20988 20991 20994 20997 21000 21003 21006 21009 21012 21015 21018 21021 21024 21027 21030 21033 21036 21039 21042 21045 21048 21051 21054 21057 21060 21063 21066 21069 21072 21075 21078 21081 21084 21087 21090 21093 21096 21099 21102 21105 21108 21111 21114 21117 21120 21123 21126 21129 21132 21135 21138 21141 21144 21147 21150 21153 21156 21159 21162 21165 21168 21171 21174 21177 21180 21183 21186 21189 21192 21195 21198 21201 21204 21207 21210 21213 21216 21219 21222 21225 21228 21231 21234 21237 21240 21243 21246 21249 21252 21255 21258 21261 21264 21267 21270 21273 21276 21279 21282 21285 21288 21291 21294 21297 21300 21303 21306 21309 21312 21315 21318 21321 21324 21327 21330 21333 21336 21339 21342 21345 21348 21351 21354 21357 21360 21363 21366 21369 21372 21375 21378 21381 21384 21387 21390 21393 21396 21399 21402 21405 21408 21411 21414 21417 21420 21423 21426 21429 21432 21435 21438 21441 21444 21447 21450 21453 21456 21459 21462 21465 21468 21471 21474 21477 21480 21483 21486 21489 21492 21495 21498 21501 21504 21507 21510 21513 21516 21519 21522 21525 21528 21531 21534 21537 21540 21543 21546 21549 21552 21555 21558 21561 21564 21567 21570 21573 21576 21579 21582 21585 21588 21591 21594 21597 21600 21603 21606 21609 21612 21615 21618 21621 21624 21627 21630 21633 21636 21639 21642 21645 21648 21651 21654 21657 21660 21663 21666 21669 21672 21675 21678 21681 21684 21687 21690 21693 21696 21699 21702 21705 21708 21711 21714 21717 21720 21723 21726 21729 21732 21735 21738 21741 21744 21747 21750 21753 21756 21759 21762 21765 21768 21771 21774 21777 21780 21783 21786 21789 21792 21795 21798 21801 21804 21807 21810 21813 21816 21819 21822 21825 21828 21831 21834 21837 21840 21843 21846 21849 21852 21855 21858 21861 21864 21867 21870 21873 21876 21879 21882 21885 21888 21891 21894 21897 21900 21903 21906 21909 21912 21915 21918 21921 21924 21927 21930 21933 21936 21939 21942 21945 21948 21951 21954 21957 21960 21963 21966 21969 21972 21975 21978 21981 21984 21987 21990 21993 21996 21999 22002 22005 22008 22011 22014 22017 22020 22023 22026 22029 22032 22035 22038 22041 22044 22047 22050 22053 22056 22059 22062 22065 22068 22071 22074 22077 22080 22083 22086 22089 22092 22095 22098 22101 22104 22107 22110 22113 22116 22119 22122 22125 22128 22131 22134 22137 22140 22143 22146 22149 22152 22155 22158 22161 22164 22167 22170 22173 22176 22179 22182 22185 22188 22191 22194 22197 22200 22203 22206 22209 22212 22215 22218 22221 22224 22227 22230 22233 22236 22239 22242 22245 22248 22251 22254 22257 22260 22263 22266 22269 22272 22275 22278 22281 22284 22287 22290 22293 22296 22299 22302 22305 22308 22311 22314 22317 22320 22323 22326 22329 22332 22335 22338 22341 22344 22347 22350 22353 22356 22359 22362 22365 22368 22371 22374 22377 22380 22383 22386 22389 22392 22395 22398 22401 22404 22407 22410 22413 22416 22419 22422 22425 22428 22431 22434 22437 22440 22443 22446 22449 22452 22455 22458 22461 22464 22467 22470 22473 22476 22479 22482 22485 22488 22491 22494 22497 22500 22503 22506 22509 22512 22515 22518 22521 22524 22527 22530 22533 22536 22539 22542 22545 22548 22551 22554 22557 22560 22563 22566 22569 22572 22575 22578 22581 22584 22587 22590 22593 22596 22599 22602 22605 22608 22611 22614 22617 22620 22623 22626 22629 22632 22635 22638 22641 22644 22647 22650 22653 22656 22659 22662 22665 22668 22671 22674 22677 22680 22683 22686 22689 22692 22695 22698 22701 22704 22707 22710 22713 22716 22719 22722 22725 22728 22731 22734 22737 22740 22743 22746 22749 22752 22755 22758 22761 22764 22767 22770 22773 22776 22779 22782 22785 22788 22791 22794 22797 22800 22803 22806 22809 22812 22815 22818 22821 22824 22827 22830 22833 22836 22839 22842 22845 22848 22851 22854 22857 22860 22863 22866 22869 22872 22875 22878 22881 22884 22887 22890 22893 22896 22899 22902 22905 22908 22911 22914 22917 22920 22923 22926 22929 22932 22935 22938 22941 22944 22947 22950 22953 22956 22959 22962 22965 22968 22971 22974 22977 22980 22983 22986 22989 22992 22995 22998 23001 23004 23007 23010 23013 23016 23019 23022 23025 23028 23031 23034 23037 23040 23043 23046 23049 23052 23055 23058 23061 23064 23067 23070 23073 23076 23079 23082 23085 23088 23091 23094 23097 23100 23103 23106 23109 23112 23115 23118 23121 23124 23127 23130 23133 23136 23139 23142 23145 23148 23151 23154 23157 23160 23163 23166 23169 23172 23175 23178 23181 23184 23187 23190 23193 23196 23199 23202 23205 23208 23211 23214 23217 23220 23223 23226 23229 23232 23235 23238 23241 23244 23247 23250 23253 23256 23259 23262 23265 23268 23271 23274 23277 23280 23283 23286 23289 23292 23295 23298 23301 23304 23307 23310 23313 23316 23319 23322 23325 23328 23331 23334 23337 23340 23343 23346 23349 23352 23355 23358 23361 23364 23367 23370 23373 23376 23379 23382 23385 23388 23391 23394 23397 23400 23403 23406 23409 23412 23415 23418 23421 23424 23427 23430 23433 23436 23439 23442 23445 23448 23451 23454 23457 23460 23463 23466 23469 23472 23475 23478 23481 23484 23487 23490 23493 23496 23499 23502 23505 23508 23511 23514 23517 23520 23523 23526 23529 23532 23535 23538 23541 23544 23547 23550 23553 23556 23559 23562 23565 23568 23571 23574 23577 23580 23583 23586 23589 23592 23595 23598 23601 23604 23607 23610 23613 23616 23619 23622 23625 23628 23631 23634 23637 23640 23643 23646 23649 23652 23655 23658 23661 23664 23667 23670 23673 23676 23679 23682 23685 23688 23691 23694 23697 23700 23703 23706 23709 23712 23715 23718 23721 23724 23727 23730 23733 23736 23739 23742 23745 23748 23751 23754 23757 23760 23763 23766 23769 23772 23775 23778 23781 23784 23787 23790 23793 23796 23799 23802 23805 23808 23811 23814 23817 23820 23823 23826 23829 23832 23835 23838 23841 23844 23847 23850 23853 23856 23859 23862 23865 23868 23871 23874 23877 23880 23883 23886 23889 23892 23895 23898 23901 23904 23907 23910 23913 23916 23919 23922 23925 23928 23931 23934 23937 23940 23943 23946 23949 23952 23955 23958 23961 23964 23967 23970 23973 23976 23979 23982 23985 23988 23991 23994 23997 24000 24003 24006 24009 24012 24015 24018 24021 24024 24027 24030 24033 24036 24039 24042 24045 24048 24051 24054 24057 24060 24063 24066 24069 24072 24075 24078 24081 24084 24087 24090 24093 24096 24099 24102 24105 24108 24111 24114 24117 24120 24123 24126 24129 24132 24135 24138 24141 24144 24147 24150 24153 24156 24159 24162 24165 24168 24171 24174 24177 24180 24183 24186 24189 24192 24195 24198 24201 24204 24207 24210 24213 24216 24219 24222 24225 24228 24231 24234 24237 24240 24243 24246 24249 24252 24255 24258 24261 24264 24267 24270 24273 24276 24279 24282 24285 24288 24291 24294 24297 24300 24303 24306 24309 24312 24315 24318 24321 24324 24327 24330 24333 24336 24339 24342 24345 24348 24351 24354 24357 24360 24363 24366 24369 24372 24375 24378 24381 24384 24387 24390 24393 24396 24399 24402 24405 24408 24411 24414 24417 24420 24423 24426 24429 24432 24435 24438 24441 24444 24447 24450 24453 24456 24459 24462 24465 24468 24471 24474 24477 24480 24483 24486 24489 24492 24495 24498 24501 24504 24507 24510 24513 24516 24519 24522 24525 24528 24531 24534 24537 24540 24543 24546 24549 24552 24555 24558 24561 24564 24567 24570 24573 24576 24579 24582 24585 24588 24591 24594 24597 24600 24603 24606 24609 24612 24615 24618 24621 24624 24627 24630 24633 24636 24639 24642 24645 24648 24651 24654 24657 24660 24663 24666 24669 24672 24675 24678 24681 24684 24687 24690 24693 24696 24699 24702 24705 24708 24711 24714 24717 24720 24723 24726 24729 24732 24735 24738 24741 24744 24747 24750 24753 24756 24759 24762 24765 24768 24771 24774 24777 24780 24783 24786 24789 24792 24795 24798 24801 24804 24807 24810 24813 24816 24819 24822 24825 24828 24831 24834 24837 24840 24843 24846 24849 24852 24855 24858 24861 24864 24867 24870 24873 24876 24879 24882 24885 24888 24891 24894 24897 24900 24903 24906 24909 24912 24915 24918 24921 24924 24927 24930 24933 24936 24939 24942 24945 24948 24951 24954 24957 24960 24963 24966 24969 24972 24975 24978 24981 24984 24987 24990 24993 24996 24999 25002 25005 25008 25011 25014 25017 25020 25023 25026 25029 25032 25035 25038 25041 25044 25047 25050 25053 25056 25059 25062 25065 25068 25071 25074 25077 25080 25083 25086 25089 25092 25095 25098 25101 25104 25107 25110 25113 25116 25119 25122 25125 25128 25131 25134 25137 25140 25143 25146 25149 25152 25155 25158 25161 25164 25167 25170 25173 25176 25179 25182 25185 25188 25191 25194 25197 25200 25203 25206 25209 25212 25215 25218 25221 25224 25227 25230 25233 25236 25239 25242 25245 25248 25251 25254 25257 25260 25263 25266 25269 25272 25275 25278 25281 25284 25287 25290 25293 25296 25299 25302 25305 25308 25311 25314 25317 25320 25323 25326 25329 25332 25335 25338 25341 25344 25347 25350 25353 25356 25359 25362 25365 25368 25371 25374 25377 25380 25383 25386 25389 25392 25395 25398 25401 25404 25407 25410 25413 25416 25419 25422 25425 25428 25431 25434 25437 25440 25443 25446 25449 25452 25455 25458 25461 25464 25467 25470 25473 25476 25479 25482 25485 25488 25491 25494 25497 25500 25503 25506 25509 25512 25515 25518 25521 25524 25527 25530 25533 25536 25539 25542 25545 25548 25551 25554 25557 25560 25563 25566 25569 25572 25575 25578 25581 25584 25587 25590 25593 25596 25599 25602 25605 25608 25611 25614 25617 25620 25623 25626 25629 25632 25635 25638 25641 25644 25647 25650 25653 25656 25659 25662 25665 25668 25671 25674 25677 25680 25683 25686 25689 25692 25695 25698 25701 25704 25707 25710 25713 25716 25719 25722 25725 25728 25731 25734 25737 25740 25743 25746 25749 25752 25755 25758 25761 25764 25767 25770 25773 25776 25779 25782 25785 25788 25791 25794 25797 25800 25803 25806 25809 25812 25815 25818 25821 25824 25827 25830 25833 25836 25839 25842 25845 25848 25851 25854 25857 25860 25863 25866 25869 25872 25875 25878 25881 25884 25887 25890 25893 25896 25899 25902 25905 25908 25911 25914 25917 25920 25923 25926 25929 25932 25935 25938 25941 25944 25947 25950 25953 25956 25959 25962 25965 25968 25971 25974 25977 25980 25983 25986 25989 25992 25995 25998 26001 26004 26007 26010 26013 26016 26019 26022 26025 26028 26031 26034 26037 26040 26043 26046 26049 26052 26055 26058 26061 26064 26067 26070 26073 26076 26079 26082 26085 26088 26091 26094 26097 26100 26103 26106 26109 26112 26115 26118 26121 26124 26127 26130 26133 26136 26139 26142 26145 26148 26151 26154 26157 26160 26163 26166 26169 26172 26175 26178 26181 26184 26187 26190 26193 26196 26199 26202 26205 26208 26211 26214 26217 26220 26223 26226 26229 26232 26235 26238 26241 26244 26247 26250 26253 26256 26259 26262 26265 26268 26271 26274 26277 26280 26283 26286 26289 26292 26295 26298 26301 26304 26307 26310 26313 26316 26319 26322 26325 26328 26331 26334 26337 26340 26343 26346 26349 26352 26355 26358 26361 26364 26367 26370 26373 26376 26379 26382 26385 26388 26391 26394 26397 26400 26403 26406 26409 26412 26415 26418 26421 26424 26427 26430 26433 26436 26439 26442 26445 26448 26451 26454 26457 26460 26463 26466 26469 26472 26475 26478 26481 26484 26487 26490 26493 26496 26499 26502 26505 26508 26511 26514 26517 26520 26523 26526 26529 26532 26535 26538 26541 26544 26547 26550 26553 26556 26559 26562 26565 26568 26571 26574 26577 26580 26583 26586 26589 26592 26595 26598 26601 26604 26607 26610 26613 26616 26619 26622 26625 26628 26631 26634 26637 26640 26643 26646 26649 26652 26655 26658 26661 26664 26667 26670 26673 26676 26679 26682 26685 26688 26691 26694 26697 26700 26703 26706 26709 26712 26715 26718 26721 26724 26727 26730 26733 26736 26739 26742 26745 26748 26751 26754 26757 26760 26763 26766 26769 26772 26775 26778 26781 26784 26787 26790 26793 26796 26799 26802 26805 26808 26811 26814 26817 26820 26823 26826 26829 26832 26835 26838 26841 26844 26847 26850 26853 26856 26859 26862 26865 26868 26871 26874 26877 26880 26883 26886 26889 26892 26895 26898 26901 26904 26907 26910 26913 26916 26919 26922 26925 26928 26931 26934 26937 26940 26943 26946 26949 26952 26955 26958 26961 26964 26967 26970 26973 26976 26979 26982 26985 26988 26991 26994 26997 27000 27003 27006 27009 27012 27015 27018 27021 27024 27027 27030 27033 27036 27039 27042 27045 27048 27051 27054 27057 27060 27063 27066 27069 27072 27075 27078 27081 27084 27087 27090 27093 27096 27099 27102 27105 27108 27111 27114 27117 27120 27123 27126 27129 27132 27135 27138 27141 27144 27147 27150 27153 27156 27159 27162 27165 27168 27171 27174 27177 27180 27183 27186 27189 27192 27195 27198 27201 27204 27207 27210 27213 27216 27219 27222 27225 27228 27231 27234 27237 27240 27243 27246 27249 27252 27255 27258 27261 27264 27267 27270 27273 27276 27279 27282 27285 27288 27291 27294 27297 27300 27303 27306 27309 27312 27315 27318 27321 27324 27327 27330 27333 27336 27339 27342 27345 27348 27351 27354 27357 27360 27363 27366 27369 27372 27375 27378 27381 27384 27387 27390 27393 27396 27399 27402 27405 27408 27411 27414 27417 27420 27423 27426 27429 27432 27435 27438 27441 27444 27447 27450 27453 27456 27459 27462 27465 27468 27471 27474 27477 27480 27483 27486 27489 27492 27495 27498 27501 27504 27507 27510 27513 27516 27519 27522 27525 27528 27531 27534 27537 27540 27543 27546 27549 27552 27555 27558 27561 27564 27567 27570 27573 27576 27579 27582 27585 27588 27591 27594 27597 27600 27603 27606 27609 27612 27615 27618 27621 27624 27627 27630 27633 27636 27639 27642 27645 27648 27651 27654 27657 27660 27663 27666 27669 27672 27675 27678 27681 27684 27687 27690 27693 27696 27699 27702 27705 27708 27711 27714 27717 27720 27723 27726 27729 27732 27735 27738 27741 27744 27747 27750 27753 27756 27759 27762 27765 27768 27771 27774 27777 27780 27783 27786 27789 27792 27795 27798 27801 27804 27807 27810 27813 27816 27819 27822 27825 27828 27831 27834 27837 27840 27843 27846 27849 27852 27855 27858 27861 27864 27867 27870 27873 27876 27879 27882 27885 27888 27891 27894 27897 27900 27903 27906 27909 27912 27915 27918 27921 27924 27927 27930 27933 27936 27939 27942 27945 27948 27951 27954 27957 27960 27963 27966 27969 27972 27975 27978 27981 27984 27987 27990 27993 27996 27999 28002 28005 28008 28011 28014 28017 28020 28023 28026 28029 28032 28035 28038 28041 28044 28047 28050 28053 28056 28059 28062 28065 28068 28071 28074 28077 28080 28083 28086 28089 28092 28095 28098 28101 28104 28107 28110 28113 28116 28119 28122 28125 28128 28131 28134 28137 28140 28143 28146 28149 28152 28155 28158 28161 28164 28167 28170 28173 28176 28179 28182 28185 28188 28191 28194 28197 28200 28203 28206 28209 28212 28215 28218 28221 28224 28227 28230 28233 28236 28239 28242 28245 28248 28251 28254 28257 28260 28263 28266 28269 28272 28275 28278 28281 28284 28287 28290 28293 28296 28299 28302 28305 28308 28311 28314 28317 28320 28323 28326 28329 28332 28335 28338 28341 28344 28347 28350 28353 28356 28359 28362 28365 28368 28371 28374 28377 28380 28383 28386 28389 28392 28395 28398 28401 28404 28407 28410 28413 28416 28419 28422 28425 28428 28431 28434 28437 28440 28443 28446 28449 28452 28455 28458 28461 28464 28467 28470 28473 28476 28479 28482 28485 28488 28491 28494 28497 28500 28503 28506 28509 28512 28515 28518 28521 28524 28527 28530 28533 28536 28539 28542 28545 28548 28551 28554 28557 28560 28563 28566 28569 28572 28575 28578 28581 28584 28587 28590 28593 28596 28599 28602 28605 28608 28611 28614 28617 28620 28623 28626 28629 28632 28635 28638 28641 28644 28647 28650 28653 28656 28659 28662 28665 28668 28671 28674 28677 28680 28683 28686 28689 28692 28695 28698 28701 28704 28707 28710 28713 28716 28719 28722 28725 28728 28731 28734 28737 28740 28743 28746 28749 28752 28755 28758 28761 28764 28767 28770 28773 28776 28779 28782 28785 28788 28791 28794 28797 28800 28803 28806 28809 28812 28815 28818 28821 28824 28827 28830 28833 28836 28839 28842 28845 28848 28851 28854 28857 28860 28863 28866 28869 28872 28875 28878 28881 28884 28887 28890 28893 28896 28899 28902 28905 28908 28911 28914 28917 28920 28923 28926 28929 28932 28935 28938 28941 28944 28947 28950 28953 28956 28959 28962 28965 28968 28971 28974 28977 28980 28983 28986 28989 28992 28995 28998 29001 29004 29007 29010 29013 29016 29019 29022 29025 29028 29031 29034 29037 29040 29043 29046 29049 29052 29055 29058 29061 29064 29067 29070 29073 29076 29079 29082 29085 29088 29091 29094 29097 29100 29103 29106 29109 29112 29115 29118 29121 29124 29127 29130 29133 29136 29139 29142 29145 29148 29151 29154 29157 29160 29163 29166 29169 29172 29175 29178 29181 29184 29187 29190 29193 29196 29199 29202 29205 29208 29211 29214 29217 29220 29223 29226 29229 29232 29235 29238 29241 29244 29247 29250 29253 29256 29259 29262 29265 29268 29271 29274 29277 29280 29283 29286 29289 29292 29295 29298 29301 29304 29307 29310 29313 29316 29319 29322 29325 29328 29331 29334 29337 29340 29343 29346 29349 29352 29355 29358 29361 29364 29367 29370 29373 29376 29379 29382 29385 29388 29391 29394 29397 29400 29403 29406 29409 29412 29415 29418 29421 29424 29427 29430 29433 29436 29439 29442 29445 29448 29451 29454 29457 29460 29463 29466 29469 29472 29475 29478 29481 29484 29487 29490 29493 29496 29499 29502 29505 29508 29511 29514 29517 29520 29523 29526 29529 29532 29535 29538 29541 29544 29547 29550 29553 29556 29559 29562 29565 29568 29571 29574 29577 29580 29583 29586 29589 29592 29595 29598 29601 29604 29607 29610 29613 29616 29619 29622 29625 29628 29631 29634 29637 29640 29643 29646 29649 29652 29655 29658 29661 29664 29667 29670 29673 29676 29679 29682 29685 29688 29691 29694 29697 29700 29703 29706 29709 29712 29715 29718 29721 29724 29727 29730 29733 29736 29739 29742 29745 29748 29751 29754 29757 29760 29763 29766 29769 29772 29775 29778 29781 29784 29787 29790 29793 29796 29799 29802 29805 29808 29811 29814 29817 29820 29823 29826 29829 29832 29835 29838 29841 29844 29847 29850 29853 29856 29859 29862 29865 29868 29871 29874 29877 29880 29883 29886 29889 29892 29895 29898 29901 29904 29907 29910 29913 29916 29919 29922 29925 29928 29931 29934 29937 29940 29943 29946 29949 29952 29955 29958 29961 29964 29967 29970 29973 29976 29979 29982 29985 29988 29991 29994 29997 30000 30003 30006 30009 30012 30015 30018 30021 30024 30027 30030 30033 30036 30039 30042 30045 30048 30051 30054 30057 30060 30063 30066 30069 30072 30075 30078 30081 30084 30087 30090 30093 30096 30099 30102 30105 30108 30111 30114 30117 30120 30123 30126 30129 30132 30135 30138 30141 30144 30147 30150 30153 30156 30159 30162 30165 30168 30171 30174 30177 30180 30183 30186 30189 30192 30195 30198 30201 30204 30207 30210 30213 30216 30219 30222 30225 30228 30231 30234 30237 30240 30243 30246 30249 30252 30255 30258 30261 30264 30267 30270 30273 30276 30279 30282 30285 30288 30291 30294 30297 30300 30303 30306 30309 30312 30315 30318 30321 30324 30327 30330 30333 30336 30339 30342 30345 30348 30351 30354 30357 30360 30363 30366 30369 30372 30375 30378 30381 30384 30387 30390 30393 30396 30399 30402 30405 30408 30411 30414 30417 30420 30423 30426 30429 30432 30435 30438 30441 30444 30447 30450 30453 30456 30459 30462 30465 30468 30471 30474 30477 30480 30483 30486 30489 30492 30495 30498 30501 30504 30507 30510 30513 30516 30519 30522 30525 30528 30531 30534 30537 30540 30543 30546 30549 30552 30555 30558 30561 30564 30567 30570 30573 30576 30579 30582 30585 30588 30591 30594 30597 30600 30603 30606 30609 30612 30615 30618 30621 30624 30627 30630 30633 30636 30639 30642 30645 30648 30651 30654 30657 30660 30663 30666 30669 30672 30675 30678 30681 30684 30687 30690 30693 30696 30699 30702 30705 30708 30711 30714 30717 30720 30723 30726 30729 30732 30735 30738 30741 30744 30747 30750 30753 30756 30759 30762 30765 30768 30771 30774 30777 30780 30783 30786 30789 30792 30795 30798 30801 30804 30807 30810 30813 30816 30819 30822 30825 30828 30831 30834 30837 30840 30843 30846 30849 30852 30855 30858 30861 30864 30867 30870 30873 30876 30879 30882 30885 30888 30891 30894 30897 30900 30903 30906 30909 30912 30915 30918 30921 30924 30927 30930 30933 30936 30939 30942 30945 30948 30951 30954 30957 30960 30963 30966 30969 30972 30975 30978 30981 30984 30987 30990 30993 30996 30999 31002 31005 31008 31011 31014 31017 31020 31023 31026 31029 31032 31035 31038 31041 31044 31047 31050 31053 31056 31059 31062 31065 31068 31071 31074 31077 31080 31083 31086 31089 31092 31095 31098 31101 31104 31107 31110 31113 31116 31119 31122 31125 31128 31131 31134 31137 31140 31143 31146 31149 31152 31155 31158 31161 31164 31167 31170 31173 31176 31179 31182 31185 31188 31191 31194 31197 31200 31203 31206 31209 31212 31215 31218 31221 31224 31227 31230 31233 31236 31239 31242 31245 31248 31251 31254 31257 31260 31263 31266 31269 31272 31275 31278 31281 31284 31287 31290 31293 31296 31299 31302 31305 31308 31311 31314 31317 31320 31323 31326 31329 31332 31335 31338 31341 31344 31347 31350 31353 31356 31359 31362 31365 31368 31371 31374 31377 31380 31383 31386 31389 31392 31395 31398 31401 31404 31407 31410 31413 31416 31419 31422 31425 31428 31431 31434 31437 31440 31443 31446 31449 31452 31455 31458 31461 31464 31467 31470 31473 31476 31479 31482 31485 31488 31491 31494 31497 31500 31503 31506 31509 31512 31515 31518 31521 31524 31527 31530 31533 31536 31539 31542 31545 31548 31551 31554 31557 31560 31563 31566 31569 31572 31575 31578 31581 31584 31587 31590 31593 31596 31599 31602 31605 31608 31611 31614 31617 31620 31623 31626 31629 31632 31635 31638 31641 31644 31647 31650 31653 31656 31659 31662 31665 31668 31671 31674 31677 31680 31683 31686 31689 31692 31695 31698 31701 31704 31707 31710 31713 31716 31719 31722 31725 31728 31731 31734 31737 31740 31743 31746 31749 31752 31755 31758 31761 31764 31767 31770 31773 31776 31779 31782 31785 31788 31791 31794 31797 31800 31803 31806 31809 31812 31815 31818 31821 31824 31827 31830 31833 31836 31839 31842 31845 31848 31851 31854 31857 31860 31863 31866 31869 31872 31875 31878 31881 31884 31887 31890 31893 31896 31899 31902 31905 31908 31911 31914 31917 31920 31923 31926 31929 31932 31935 31938 31941 31944 31947 31950 31953 31956 31959 31962 31965 31968 31971 31974 31977 31980 31983 31986 31989 31992 31995 31998 32001 32004 32007 32010 32013 32016 32019 32022 32025 32028 32031 32034 32037 32040 32043 32046 32049 32052 32055 32058 32061 32064 32067 32070 32073 32076 32079 32082 32085 32088 32091 32094 32097 32100 32103 32106 32109 32112 32115 32118 32121 32124 32127 32130 32133 32136 32139 32142 32145 32148 32151 32154 32157 32160 32163 32166 32169 32172 32175 32178 32181 32184 32187 32190 32193 32196 32199 32202 32205 32208 32211 32214 32217 32220 32223 32226 32229 32232 32235 32238 32241 32244 32247 32250 32253 32256 32259 32262 32265 32268 32271 32274 32277 32280 32283 32286 32289 32292 32295 32298 32301 32304 32307 32310 32313 32316 32319 32322 32325 32328 32331 32334 32337 32340 32343 32346 32349 32352 32355 32358 32361 32364 32367 32370 32373 32376 32379 32382 32385 32388 32391 32394 32397 32400 32403 32406 32409 32412 32415 32418 32421 32424 32427 32430 32433 32436 32439 32442 32445 32448 32451 32454 32457 32460 32463 32466 32469 32472 32475 32478 32481 32484 32487 32490 32493 32496 32499 32502 32505 32508 32511 32514 32517 32520 32523 32526 32529 32532 32535 32538 32541 32544 32547 32550 32553 32556 32559 32562 32565 32568 32571 32574 32577 32580 32583 32586 32589 32592 32595 32598 32601 32604 32607 32610 32613 32616 32619 32622 32625 32628 32631 32634 32637 32640 32643 32646 32649 32652 32655 32658 32661 32664 32667 32670 32673 32676 32679 32682 32685 32688 32691 32694 32697 32700 32703 32706 32709 32712 32715 32718 32721 32724 32727 32730 32733 32736 32739 32742 32745 32748 32751 32754 32757 32760 32763 32766 32769 32772 32775 32778 32781 32784 32787 32790 32793 32796 32799 32802 32805 32808 32811 32814 32817 32820 32823 32826 32829 32832 32835 32838 32841 32844 32847 32850 32853 32856 32859 32862 32865 32868 32871 32874 32877 32880 32883 32886 32889 32892 32895 32898 32901 32904 32907 32910 32913 32916 32919 32922 32925 32928 32931 32934 32937 32940 32943 32946 32949 32952 32955 32958 32961 32964 32967 32970 32973 32976 32979 32982 32985 32988 32991 32994 32997 33000 33003 33006 33009 33012 33015 33018 33021 33024 33027 33030 33033 33036 33039 33042 33045 33048 33051 33054 33057 33060 33063 33066 33069 33072 33075 33078 33081 33084 33087 33090 33093 33096 33099 33102 33105 33108 33111 33114 33117 33120 33123 33126 33129 33132 33135 33138 33141 33144 33147 33150 33153 33156 33159 33162 33165 33168 33171 33174 33177 33180 33183 33186 33189 33192 33195 33198 33201 33204 33207 33210 33213 33216 33219 33222 33225 33228 33231 33234 33237 33240 33243 33246 33249 33252 33255 33258 33261 33264 33267 33270 33273 33276 33279 33282 33285 33288 33291 33294 33297 33300 33303 33306 33309 33312 33315 33318 33321 33324 33327 33330 33333 33336 33339 33342 33345 33348 33351 33354 33357 33360 33363 33366 33369 33372 33375 33378 33381 33384 33387 33390 33393 33396 33399 33402 33405 33408 33411 33414 33417 33420 33423 33426 33429 33432 33435 33438 33441 33444 33447 33450 33453 33456 33459 33462 33465 33468 33471 33474 33477 33480 33483 33486 33489 33492 33495 33498 33501 33504 33507 33510 33513 33516 33519 33522 33525 33528 33531 33534 33537 33540 33543 33546 33549 33552 33555 33558 33561 33564 33567 33570 33573 33576 33579 33582 33585 33588 33591 33594 33597 33600 33603 33606 33609 33612 33615 33618 33621 33624 33627 33630 33633 33636 33639 33642 33645 33648 33651 33654 33657 33660 33663 33666 33669 33672 33675 33678 33681 33684 33687 33690 33693 33696 33699 33702 33705 33708 33711 33714 33717 33720 33723 33726 33729 33732 33735 33738 33741 33744 33747 33750 33753 33756 33759 33762 33765 33768 33771 33774 33777 33780 33783 33786 33789 33792 33795 33798 33801 33804 33807 33810 33813 33816 33819 33822 33825 33828 33831 33834 33837 33840 33843 33846 33849 33852 33855 33858 33861 33864 33867 33870 33873 33876 33879 33882 33885 33888 33891 33894 33897 33900 33903 33906 33909 33912 33915 33918 33921 33924 33927 33930 33933 33936 33939 33942 33945 33948 33951 33954 33957 33960 33963 33966 33969 33972 33975 33978 33981 33984 33987 33990 33993 33996 33999 34002 34005 34008 34011 34014 34017 34020 34023 34026 34029 34032 34035 34038 34041 34044 34047 34050 34053 34056 34059 34062 34065 34068 34071 34074 34077 34080 34083 34086 34089 34092 34095 34098 34101 34104 34107 34110 34113 34116 34119 34122 34125 34128 34131 34134 34137 34140 34143 34146 34149 34152 34155 34158 34161 34164 34167 34170 34173 34176 34179 34182 34185 34188 34191 34194 34197 34200 34203 34206 34209 34212 34215 34218 34221 34224 34227 34230 34233 34236 34239 34242 34245 34248 34251 34254 34257 34260 34263 34266 34269 34272 34275 34278 34281 34284 34287 34290 34293 34296 34299 34302 34305 34308 34311 34314 34317 34320 34323 34326 34329 34332 34335 34338 34341 34344 34347 34350 34353 34356 34359 34362 34365 34368 34371 34374 34377 34380 34383 34386 34389 34392 34395 34398 34401 34404 34407 34410 34413 34416 34419 34422 34425 34428 34431 34434 34437 34440 34443 34446 34449 34452 34455 34458 34461 34464 34467 34470 34473 34476 34479 34482 34485 34488 34491 34494 34497 34500 34503 34506 34509 34512 34515 34518 34521 34524 34527 34530 34533 34536 34539 34542 34545 34548 34551 34554 34557 34560 34563 34566 34569 34572 34575 34578 34581 34584 34587 34590 34593 34596 34599 34602 34605 34608 34611 34614 34617 34620 34623 34626 34629 34632 34635 34638 34641 34644 34647 34650 34653 34656 34659 34662 34665 34668 34671 34674 34677 34680 34683 34686 34689 34692 34695 34698 34701 34704 34707 34710 34713 34716 34719 34722 34725 34728 34731 34734 34737 34740 34743 34746 34749 34752 34755 34758 34761 34764 34767 34770 34773 34776 34779 34782 34785 34788 34791 34794 34797 34800 34803 34806 34809 34812 34815 34818 34821 34824 34827 34830 34833 34836 34839 34842 34845 34848 34851 34854 34857 34860 34863 34866 34869 34872 34875 34878 34881 34884 34887 34890 34893 34896 34899 34902 34905 34908 34911 34914 34917 34920 34923 34926 34929 34932 34935 34938 34941 34944 34947 34950 34953 34956 34959 34962 34965 34968 34971 34974 34977 34980 34983 34986 34989 34992 34995 34998 35001 35004 35007 35010 35013 35016 35019 35022 35025 35028 35031 35034 35037 35040 35043 35046 35049 35052 35055 35058 35061 35064 35067 35070 35073 35076 35079 35082 35085 35088 35091 35094 35097 35100 35103 35106 35109 35112 35115 35118 35121 35124 35127 35130 35133 35136 35139 35142 35145 35148 35151 35154 35157 35160 35163 35166 35169 35172 35175 35178 35181 35184 35187 35190 35193 35196 35199 35202 35205 35208 35211 35214 35217 35220 35223 35226 35229 35232 35235 35238 35241 35244 35247 35250 35253 35256 35259 35262 35265 35268 35271 35274 35277 35280 35283 35286 35289 35292 35295 35298 35301 35304 35307 35310 35313 35316 35319 35322 35325 35328 35331 35334 35337 35340 35343 35346 35349 35352 35355 35358 35361 35364 35367 35370 35373 35376 35379 35382 35385 35388 35391 35394 35397 35400 35403 35406 35409 35412 35415 35418 35421 35424 35427 35430 35433 35436 35439 35442 35445 35448 35451 35454 35457 35460 35463 35466 35469 35472 35475 35478 35481 35484 35487 35490 35493 35496 35499 35502 35505 35508 35511 35514 35517 35520 35523 35526 35529 35532 35535 35538 35541 35544 35547 35550 35553 35556 35559 35562 35565 35568 35571 35574 35577 35580 35583 35586 35589 35592 35595 35598 35601 35604 35607 35610 35613 35616 35619 35622 35625 35628 35631 35634 35637 35640 35643 35646 35649 35652 35655 35658 35661 35664 35667 35670 35673 35676 35679 35682 35685 35688 35691 35694 35697 35700 35703 35706 35709 35712 35715 35718 35721 35724 35727 35730 35733 35736 35739 35742 35745 35748 35751 35754 35757 35760 35763 35766 35769 35772 35775 35778 35781 35784 35787 35790 35793 35796 35799 35802 35805 35808 35811 35814 35817 35820 35823 35826 35829 35832 35835 35838 35841 35844 35847 35850 35853 35856 35859 35862 35865 35868 35871 35874 35877 35880 35883 35886 35889 35892 35895 35898 35901 35904 35907 35910 35913 35916 35919 35922 35925 35928 35931 35934 35937 35940 35943 35946 35949 35952 35955 35958 35961 35964 35967 35970 35973 35976 35979 35982 35985 35988 35991 35994 35997 36000 36003 36006 36009 36012 36015 36018 36021 36024 36027 36030 36033 36036 36039 36042 36045 36048 36051 36054 36057 36060 36063 36066 36069 36072 36075 36078 36081 36084 36087 36090 36093 36096 36099 36102 36105 36108 36111 36114 36117 36120 36123 36126 36129 36132 36135 36138 36141 36144 36147 36150 36153 36156 36159 36162 36165 36168 36171 36174 36177 36180 36183 36186 36189 36192 36195 36198 36201 36204 36207 36210 36213 36216 36219 36222 36225 36228 36231 36234 36237 36240 36243 36246 36249 36252 36255 36258 36261 36264 36267 36270 36273 36276 36279 36282 36285 36288 36291 36294 36297 36300 36303 36306 36309 36312 36315 36318 36321 36324 36327 36330 36333 36336 36339 36342 36345 36348 36351 36354 36357 36360 36363 36366 36369 36372 36375 36378 36381 36384 36387 36390 36393 36396 36399 36402 36405 36408 36411 36414 36417 36420 36423 36426 36429 36432 36435 36438 36441 36444 36447 36450 36453 36456 36459 36462 36465 36468 36471 36474 36477 36480 36483 36486 36489 36492 36495 36498 36501 36504 36507 36510 36513 36516 36519 36522 36525 36528 36531 36534 36537 36540 36543 36546 36549 36552 36555 36558 36561 36564 36567 36570 36573 36576 36579 36582 36585 36588 36591 36594 36597 36600 36603 36606 36609 36612 36615 36618 36621 36624 36627 36630 36633 36636 36639 36642 36645 36648 36651 36654 36657 36660 36663 36666 36669 36672 36675 36678 36681 36684 36687 36690 36693 36696 36699 36702 36705 36708 36711 36714 36717 36720 36723 36726 36729 36732 36735 36738 36741 36744 36747 36750 36753 36756 36759 36762 36765 36768 36771 36774 36777 36780 36783 36786 36789 36792 36795 36798 36801 36804 36807 36810 36813 36816 36819 36822 36825 36828 36831 36834 36837 36840 36843 36846 36849 36852 36855 36858 36861 36864 36867 36870 36873 36876 36879 36882 36885 36888 36891 36894 36897 36900 36903 36906 36909 36912 36915 36918 36921 36924 36927 36930 36933 36936 36939 36942 36945 36948 36951 36954 36957 36960 36963 36966 36969 36972 36975 36978 36981 36984 36987 36990 36993 36996 36999 37002 37005 37008 37011 37014 37017 37020 37023 37026 37029 37032 37035 37038 37041 37044 37047 37050 37053 37056 37059 37062 37065 37068 37071 37074 37077 37080 37083 37086 37089 37092 37095 37098 37101 37104 37107 37110 37113 37116 37119 37122 37125 37128 37131 37134 37137 37140 37143 37146 37149 37152 37155 37158 37161 37164 37167 37170 37173 37176 37179 37182 37185 37188 37191 37194 37197 37200 37203 37206 37209 37212 37215 37218 37221 37224 37227 37230 37233 37236 37239 37242 37245 37248 37251 37254 37257 37260 37263 37266 37269 37272 37275 37278 37281 37284 37287 37290 37293 37296 37299 37302 37305 37308 37311 37314 37317 37320 37323 37326 37329 37332 37335 37338 37341 37344 37347 37350 37353 37356 37359 37362 37365 37368 37371 37374 37377 37380 37383 37386 37389 37392 37395 37398 37401 37404 37407 37410 37413 37416 37419 37422 37425 37428 37431 37434 37437 37440 37443 37446 37449 37452 37455 37458 37461 37464 37467 37470 37473 37476 37479 37482 37485 37488 37491 37494 37497 37500 37503 37506 37509 37512 37515 37518 37521 37524 37527 37530 37533 37536 37539 37542 37545 37548 37551 37554 37557 37560 37563 37566 37569 37572 37575 37578 37581 37584 37587 37590 37593 37596 37599 37602 37605 37608 37611 37614 37617 37620 37623 37626 37629 37632 37635 37638 37641 37644 37647 37650 37653 37656 37659 37662 37665 37668 37671 37674 37677 37680 37683 37686 37689 37692 37695 37698 37701 37704 37707 37710 37713 37716 37719 37722 37725 37728 37731 37734 37737 37740 37743 37746 37749 37752 37755 37758 37761 37764 37767 37770 37773 37776 37779 37782 37785 37788 37791 37794 37797 37800 37803 37806 37809 37812 37815 37818 37821 37824 37827 37830 37833 37836 37839 37842 37845 37848 37851 37854 37857 37860 37863 37866 37869 37872 37875 37878 37881 37884 37887 37890 37893 37896 37899 37902 37905 37908 37911 37914 37917 37920 37923 37926 37929 37932 37935 37938 37941 37944 37947 37950 37953 37956 37959 37962 37965 37968 37971 37974 37977 37980 37983 37986 37989 37992 37995 37998 38001 38004 38007 38010 38013 38016 38019 38022 38025 38028 38031 38034 38037 38040 38043 38046 38049 38052 38055 38058 38061 38064 38067 38070 38073 38076 38079 38082 38085 38088 38091 38094 38097 38100 38103 38106 38109 38112 38115 38118 38121 38124 38127 38130 38133 38136 38139 38142 38145 38148 38151 38154 38157 38160 38163 38166 38169 38172 38175 38178 38181 38184 38187 38190 38193 38196 38199 38202 38205 38208 38211 38214 38217 38220 38223 38226 38229 38232 38235 38238 38241 38244 38247 38250 38253 38256 38259 38262 38265 38268 38271 38274 38277 38280 38283 38286 38289 38292 38295 38298 38301 38304 38307 38310 38313 38316 38319 38322 38325 38328 38331 38334 38337 38340 38343 38346 38349 38352 38355 38358 38361 38364 38367 38370 38373 38376 38379 38382 38385 38388 38391 38394 38397 38400 38403 38406 38409 38412 38415 38418 38421 38424 38427 38430 38433 38436 38439 38442 38445 38448 38451 38454 38457 38460 38463 38466 38469 38472 38475 38478 38481 38484 38487 38490 38493 38496 38499 38502 38505 38508 38511 38514 38517 38520 38523 38526 38529 38532 38535 38538 38541 38544 38547 38550 38553 38556 38559 38562 38565 38568 38571 38574 38577 38580 38583 38586 38589 38592 38595 38598 38601 38604 38607 38610 38613 38616 38619 38622 38625 38628 38631 38634 38637 38640 38643 38646 38649 38652 38655 38658 38661 38664 38667 38670 38673 38676 38679 38682 38685 38688 38691 38694 38697 38700 38703 38706 38709 38712 38715 38718 38721 38724 38727 38730 38733 38736 38739 38742 38745 38748 38751 38754 38757 38760 38763 38766 38769 38772 38775 38778 38781 38784 38787 38790 38793 38796 38799 38802 38805 38808 38811 38814 38817 38820 38823 38826 38829 38832 38835 38838 38841 38844 38847 38850 38853 38856 38859 38862 38865 38868 38871 38874 38877 38880 38883 38886 38889 38892 38895 38898 38901 38904 38907 38910 38913 38916 38919 38922 38925 38928 38931 38934 38937 38940 38943 38946 38949 38952 38955 38958 38961 38964 38967 38970 38973 38976 38979 38982 38985 38988 38991 38994 38997 39000 39003 39006 39009 39012 39015 39018 39021 39024 39027 39030 39033 39036 39039 39042 39045 39048 39051 39054 39057 39060 39063 39066 39069 39072 39075 39078 39081 39084 39087 39090 39093 39096 39099 39102 39105 39108 39111 39114 39117 39120 39123 39126 39129 39132 39135 39138 39141 39144 39147 39150 39153 39156 39159 39162 39165 39168 39171 39174 39177 39180 39183 39186 39189 39192 39195 39198 39201 39204 39207 39210 39213 39216 39219 39222 39225 39228 39231 39234 39237 39240 39243 39246 39249 39252 39255 39258 39261 39264 39267 39270 39273 39276 39279 39282 39285 39288 39291 39294 39297 39300 39303 39306 39309 39312 39315 39318 39321 39324 39327 39330 39333 39336 39339 39342 39345 39348 39351 39354 39357 39360 39363 39366 39369 39372 39375 39378 39381 39384 39387 39390 39393 39396 39399 39402 39405 39408 39411 39414 39417 39420 39423 39426 39429 39432 39435 39438 39441 39444 39447 39450 39453 39456 39459 39462 39465 39468 39471 39474 39477 39480 39483 39486 39489 39492 39495 39498 39501 39504 39507 39510 39513 39516 39519 39522 39525 39528 39531 39534 39537 39540 39543 39546 39549 39552 39555 39558 39561 39564 39567 39570 39573 39576 39579 39582 39585 39588 39591 39594 39597 39600 39603 39606 39609 39612 39615 39618 39621 39624 39627 39630 39633 39636 39639 39642 39645 39648 39651 39654 39657 39660 39663 39666 39669 39672 39675 39678 39681 39684 39687 39690 39693 39696 39699 39702 39705 39708 39711 39714 39717 39720 39723 39726 39729 39732 39735 39738 39741 39744 39747 39750 39753 39756 39759 39762 39765 39768 39771 39774 39777 39780 39783 39786 39789 39792 39795 39798 39801 39804 39807 39810 39813 39816 39819 39822 39825 39828 39831 39834 39837 39840 39843 39846 39849 39852 39855 39858 39861 39864 39867 39870 39873 39876 39879 39882 39885 39888 39891 39894 39897 39900 39903 39906 39909 39912 39915 39918 39921 39924 39927 39930 39933 39936 39939 39942 39945 39948 39951 39954 39957 39960 39963 39966 39969 39972 39975 39978 39981 39984 39987 39990 39993 39996 39999 40002 40005 40008 40011 40014 40017 40020 40023 40026 40029 40032 40035 40038 40041 40044 40047 40050 40053 40056 40059 40062 40065 40068 40071 40074 40077 40080 40083 40086 40089 40092 40095 40098 40101 40104 40107 40110 40113 40116 40119 40122 40125 40128 40131 40134 40137 40140 40143 40146 40149 40152 40155 40158 40161 40164 40167 40170 40173 40176 40179 40182 40185 40188 40191 40194 40197 40200 40203 40206 40209 40212 40215 40218 40221 40224 40227 40230 40233 40236 40239 40242 40245 40248 40251 40254 40257 40260 40263 40266 40269 40272 40275 40278 40281 40284 40287 40290 40293 40296 40299 40302 40305 40308 40311 40314 40317 40320 40323 40326 40329 40332 40335 40338 40341 40344 40347 40350 40353 40356 40359 40362 40365 40368 40371 40374 40377 40380 40383 40386 40389 40392 40395 40398 40401 40404 40407 40410 40413 40416 40419 40422 40425 40428 40431 40434 40437 40440 40443 40446 40449 40452 40455 40458 40461 40464 40467 40470 40473 40476 40479 40482 40485 40488 40491 40494 40497 40500 40503 40506 40509 40512 40515 40518 40521 40524 40527 40530 40533 40536 40539 40542 40545 40548 40551 40554 40557 40560 40563 40566 40569 40572 40575 40578 40581 40584 40587 40590 40593 40596 40599 40602 40605 40608 40611 40614 40617 40620 40623 40626 40629 40632 40635 40638 40641 40644 40647 40650 40653 40656 40659 40662 40665 40668 40671 40674 40677 40680 40683 40686 40689 40692 40695 40698 40701 40704 40707 40710 40713 40716 40719 40722 40725 40728 40731 40734 40737 40740 40743 40746 40749 40752 40755 40758 40761 40764 40767 40770 40773 40776 40779 40782 40785 40788 40791 40794 40797 40800 40803 40806 40809 40812 40815 40818 40821 40824 40827 40830 40833 40836 40839 40842 40845 40848 40851 40854 40857 40860 40863 40866 40869 40872 40875 40878 40881 40884 40887 40890 40893 40896 40899 40902 40905 40908 40911 40914 40917 40920 40923 40926 40929 40932 40935 40938 40941 40944 40947 40950 40953 40956 40959 40962 40965 40968 40971 40974 40977 40980 40983 40986 40989 40992 40995 40998 41001 41004 41007 41010 41013 41016 41019 41022 41025 41028 41031 41034 41037 41040 41043 41046 41049 41052 41055 41058 41061 41064 41067 41070 41073 41076 41079 41082 41085 41088 41091 41094 41097 41100 41103 41106 41109 41112 41115 41118 41121 41124 41127 41130 41133 41136 41139 41142 41145 41148 41151 41154 41157 41160 41163 41166 41169 41172 41175 41178 41181 41184 41187 41190 41193 41196 41199 41202 41205 41208 41211 41214 41217 41220 41223 41226 41229 41232 41235 41238 41241 41244 41247 41250 41253 41256 41259 41262 41265 41268 41271 41274 41277 41280 41283 41286 41289 41292 41295 41298 41301 41304 41307 41310 41313 41316 41319 41322 41325 41328 41331 41334 41337 41340 41343 41346 41349 41352 41355 41358 41361 41364 41367 41370 41373 41376 41379 41382 41385 41388 41391 41394 41397 41400 41403 41406 41409 41412 </DataArray>
        <DataArray type="Int8" Name="types" format="ascii">69 69 69 69 69 69 69 69 69 69 69 69 69 69 69 69 69 69 69 69 69 69 69 69 69 69 69 69 69 69 69 69 69 69 69 69 69 69 69 69 69 69 69 69 69 69 69 69 69 69 69 69 69 69 69 69 69 69 69 69 69 69 69 69 69 69 69 69 69 69 69 69 69 69 69 69 69 69 69 69 69 69 69 69 69 69 69 69 69 69 69 69 69 69 69 69 69 69 69 69 69 69 69 69 69 69 69 69 69 69 69 69 69 69 69 69 69 69 69 69 69 69 69 69 69 69 69 69 69 69 69 69 69 69 69 69 69 69 69 69 69 69 69 69 69 69 69 69 69 69 69 69 69 69 69 69 69 69 69 69 69 69 69 69 69 69 69 69 69 69 69 69 69 69 69 69 69 69 69 69 69 69 69 69 69 69 69 69 69 69 69 69 69 69 69 69 69 69 69 69 69 69 69 69 69 69 69 69 69 69 69 69 69 69 69 69 69 69 69 69 69 69 69 69 69 69 69 69 69 69 69 69 69 69 69 69 69 69 69 69 69 69 69 69 69 69 69 69 69 69 69 69 69 69 69 69 69 69 69 69 69 69 69 69 69 69 69 69 69 69 69 69 69 69 69 69 69 69 69 69 69 69 69 69 69 69 69 69 69 69 69 69 69 69 69 69 69 69 69 69 69 69 69 69 69 69 69 69 69 69 69 69 69 69 69 69 69 69 69 69 69 69 69 69 69 69 69 69 69 69 69 69 69 69 69 69 69 69 69 69 69 69 69 69 69 69 69 69 69 69 69 69 69 69 69 69 69 69 69 69 69 69 69 69 69 69 69 69 69 69 69 69 69 69 69 69 69 69 69 69 69 69 69 69 69 69 69 69 69 69 69 69 69 69 69 69 69 69 69 69 69 69 69 69 69 69 69 69 69 69 69 69 69 69 69 69 69 69 69 69 69 69 69 69 69 69 69 69 69 69 69 69 69 69 69 69 69 69 69 69 69 69 69 69 69 69 69 69 69 69 69 69 69 69 69 69 69 69 69 69 69 69 69 69 69 69 69 69 69 69 69 69 69 69 69 69 69 69 69 69 69 69 69 69 69 69 69 69 69 69 69 69 69 69 69 69 69 69 69 69 69 69 69 69 69 69 69 69 69 69 69 69 69 69 69 69 69 69 69 69 69 69 69 69 69 69 69 69 69 69 69 69 69 69 69 69 69 69 69 69 69 69 69 69 69 69 69 69 69 69 69 69 69 69 69 69 69 69 69 69 69 69 69 69 69 69 69 69 69 69 69 69 69 69 69 69 69 69 69 69 69 69 69 69 69 69 69 69 69 69 69 69 69 69 69 69 69 69 69 69 69 69 69 69 69 69 69 69 69 69 69 69 69 69 69 69 69 69 69 69 69 69 69 69 69 69 69 69 69 69 69 69 69 69 69 69 69 69 69 69 69 69 69 69 69 69 69 69 69 69 69 69 69 69 69 69 69 69 69 69 69 69 69 69 69 69 69 69 69 69 69 69 69 69 69 69 69 69 69 69 69 69 69 69 69 69 69 69 69 69 69 69 69 69 69 69 69 69 69 69 69 69 69 69 69 69 69 69 69 69 69 69 69 69 69 69 69 69 69 69 69 69 69 69 69 69 69 69 69 69 69 69 69 69 69 69 69 69 69 69 69 69 69 69 69 69 69 69 69 69 69 69 69 69 69 69 69 69 69 69 69 69 69 69 69 69 69 69 69 69 69 69 69 69 69 69 69 69 69 69 69 69 69 69 69 69 69 69 69 69 69 69 69 69 69 69 69 69 69 69 69 69 69 69 69 69 69 69 69 69 69 69 69 69 69 69 69 69 69 69 69 69 69 69 69 69 69 69 69 69 69 69 69 69 69 69 69 69 69 69 69 69 69 69 69 69 69 69 69 69 69 69 69 69 69 69 69 69 69 69 69 69 69 69 69 69 69 69 69 69 69 69 69 69 69 69 69 69 69 69 69 69 69 69 69 69 69 69 69 69 69 69 69 69 69 69 69 69 69 69 69 69 69 69 69 69 69 69 69 69 69 69 69 69 69 69 69 69 69 69 69 69 69 69 69 69 69 69 69 69 69 69 69 69 69 69 69 69 69 69 69 69 69 69 69 69 69 69 69 69 69 69 69 69 69 69 69 69 69 69 69 69 69 69 69 69 69 69 69 69 69 69 69 69 69 69 69 69 69 69 69 69 69 69 69 69 69 69 69 69 69 69 69 69 69 69 69 69 69 69 69 69 69 69 69 69 69 69 69 69 69 69 69 69 69 69 69 69 69 69 69 69 69 69 69 69 69 69 69 69 69 69 69 69 69 69 69 69 69 69 69 69 69 69 69 69 69 69 69 69 69 69 69 69 69 69 69 69 69 69 69 69 69 69 69 69 69 69 69 69 69 69 69 69 69 69 69 69 69 69 69 69 69 69 69 69 69 69 69 69 69 69 69 69 69 69 69 69 69 69 69 69 69 69 69 69 69 69 69 69 69 69 69 69 69 69 69 69 69 69 69 69 69 69 69 69 69 69 69 69 69 69 69 69 69 69 69 69 69 69 69 69 69 69 69 69 69 69 69 69 69 69 69 69 69 69 69 69 69 69 69 69 69 69 69 69 69 69 69 69 69 69 69 69 69 69 69 69 69 69 69 69 69 69 69 69 69 69 69 69 69 69 69 69 69 69 69 69 69 69 69 69 69 69 69 69 69 69 69 69 69 69 69 69 69 69 69 69 69 69 69 69 69 69 69 69 69 69 69 69 69 69 69 69 69 69 69 69 69 69 69 69 69 69 69 69 69 69 69 69 69 69 69 69 69 69 69 69 69 69 69 69 69 69 69 69 69 69 69 69 69 69 69 69 69 69 69 69 69 69 69 69 69 69 69 69 69 69 69 69 69 69 69 69 69 69 69 69 69 69 69 69 69 69 69 69 69 69 69 69 69 69 69 69 69 69 69 69 69 69 69 69 69 69 69 69 69 69 69 69 69 69 69 69 69 69 69 69 69 69 69 69 69 69 69 69 69 69 69 69 69 69 69 69 69 69 69 69 69 69 69 69 69 69 69 69 69 69 69 69 69 69 69 69 69 69 69 69 69 69 69 69 69 69 69 69 69 69 69 69 69 69 69 69 69 69 69 69 69 69 69 69 69 69 69 69 69 69 69 69 69 69 69 69 69 69 69 69 69 69 69 69 69 69 69 69 69 69 69 69 69 69 69 69 69 69 69 69 69 69 69 69 69 69 69 69 69 69 69 69 69 69 69 69 69 69 69 69 69 69 69 69 69 69 69 69 69 69 69 69 69 69 69 69 69 69 69 69 69 69 69 69 69 69 69 69 69 69 69 69 69 69 69 69 69 69 69 69 69 69 69 69 69 69 69 69 69 69 69 69 69 69 69 69 69 69 69 69 69 69 69 69 69 69 69 69 69 69 69 69 69 69 69 69 69 69 69 69 69 69 69 69 69 69 69 69 69 69 69 69 69 69 69 69 69 69 69 69 69 69 69 69 69 69 69 69 69 69 69 69 69 69 69 69 69 69 69 69 69 69 69 69 69 69 69 69 69 69 69 69 69 69 69 69 69 69 69 69 69 69 69 69 69 69 69 69 69 69 69 69 69 69 69 69 69 69 69 69 69 69 69 69 69 69 69 69 69 69 69 69 69 69 69 69 69 69 69 69 69 69 69 69 69 69 69 69 69 69 69 69 69 69 69 69 69 69 69 69 69 69 69 69 69 69 69 69 69 69 69 69 69 69 69 69 69 69 69 69 69 69 69 69 69 69 69 69 69 69 69 69 69 69 69 69 69 69 69 69 69 69 69 69 69 69 69 69 69 69 69 69 69 69 69 69 69 69 69 69 69 69 69 69 69 69 69 69 69 69 69 69 69 69 69 69 69 69 69 69 69 69 69 69 69 69 69 69 69 69 69 69 69 69 69 69 69 69 69 69 69 69 69 69 69 69 69 69 69 69 69 69 69 69 69 69 69 69 69 69 69 69 69 69 69 69 69 69 69 69 69 69 69 69 69 69 69 69 69 69 69 69 69 69 69 69 69 69 69 69 69 69 69 69 69 69 69 69 69 69 69 69 69 69 69 69 69 69 69 69 69 69 69 69 69 69 69 69 69 69 69 69 69 69 69 69 69 69 69 69 69 69 69 69 69 69 69 69 69 69 69 69 69 69 69 69 69 69 69 69 69 69 69 69 69 69 69 69 69 69 69 69 69 69 69 69 69 69 69 69 69 69 69 69 69 69 69 69 69 69 69 69 69 69 69 69 69 69 69 69 69 69 69 69 69 69 69 69 69 69 69 69 69 69 69 69 69 69 69 69 69 69 69 69 69 69 69 69 69 69 69 69 69 69 69 69 69 69 69 69 69 69 69 69 69 69 69 69 69 69 69 69 69 69 69 69 69 69 69 69 69 69 69 69 69 69 69 69 69 69 69 69 69 69 69 69 69 69 69 69 69 69 69 69 69 69 69 69 69 69 69 69 69 69 69 69 69 69 69 69 69 69 69 69 69 69 69 69 69 69 69 69 69 69 69 69 69 69 69 69 69 69 69 69 69 69 69 69 69 69 69 69 69 69 69 69 69 69 69 69 69 69 69 69 69 69 69 69 69 69 69 69 69 69 69 69 69 69 69 69 69 69 69 69 69 69 69 69 69 69 69 69 69 69 69 69 69 69 69 69 69 69 69 69 69 69 69 69 69 69 69 69 69 69 69 69 69 69 69 69 69 69 69 69 69 69 69 69 69 69 69 69 69 69 69 69 69 69 69 69 69 69 69 69 69 69 69 69 69 69 69 69 69 69 69 69 69 69 69 69 69 69 69 69 69 69 69 69 69 69 69 69 69 69 69 69 69 69 69 69 69 69 69 69 69 69 69 69 69 69 69 69 69 69 69 69 69 69 69 69 69 69 69 69 69 69 69 69 69 69 69 69 69 69 69 69 69 69 69 69 69 69 69 69 69 69 69 69 69 69 69 69 69 69 69 69 69 69 69 69 69 69 69 69 69 69 69 69 69 69 69 69 69 69 69 69 69 69 69 69 69 69 69 69 69 69 69 69 69 69 69 69 69 69 69 69 69 69 69 69 69 69 69 69 69 69 69 69 69 69 69 69 69 69 69 69 69 69 69 69 69 69 69 69 69 69 69 69 69 69 69 69 69 69 69 69 69 69 69 69 69 69 69 69 69 69 69 69 69 69 69 69 69 69 69 69 69 69 69 69 69 69 69 69 69 69 69 69 69 69 69 69 69 69 69 69 69 69 69 69 69 69 69 69 69 69 69 69 69 69 69 69 69 69 69 69 69 69 69 69 69 69 69 69 69 69 69 69 69 69 69 69 69 69 69 69 69 69 69 69 69 69 69 69 69 69 69 69 69 69 69 69 69 69 69 69 69 69 69 69 69 69 69 69 69 69 69 69 69 69 69 69 69 69 69 69 69 69 69 69 69 69 69 69 69 69 69 69 69 69 69 69 69 69 69 69 69 69 69 69 69 69 69 69 69 69 69 69 69 69 69 69 69 69 69 69 69 69 69 69 69 69 69 69 69 69 69 69 69 69 69 69 69 69 69 69 69 69 69 69 69 69 69 69 69 69 69 69 69 69 69 69 69 69 69 69 69 69 69 69 69 69 69 69 69 69 69 69 69 69 69 69 69 69 69 69 69 69 69 69 69 69 69 69 69 69 69 69 69 69 69 69 69 69 69 69 69 69 69 69 69 69 69 69 69 69 69 69 69 69 69 69 69 69 69 69 69 69 69 69 69 69 69 69 69 69 69 69 69 69 69 69 69 69 69 69 69 69 69 69 69 69 69 69 69 69 69 69 69 69 69 69 69 69 69 69 69 69 69 69 69 69 69 69 69 69 69 69 69 69 69 69 69 69 69 69 69 69 69 69 69 69 69 69 69 69 69 69 69 69 69 69 69 69 69 69 69 69 69 69 69 69 69 69 69 69 69 69 69 69 69 69 69 69 69 69 69 69 69 69 69 69 69 69 69 69 69 69 69 69 69 69 69 69 69 69 69 69 69 69 69 69 69 69 69 69 69 69 69 69 69 69 69 69 69 69 69 69 69 69 69 69 69 69 69 69 69 69 69 69 69 69 69 69 69 69 69 69 69 69 69 69 69 69 69 69 69 69 69 69 69 69 69 69 69 69 69 69 69 69 69 69 69 69 69 69 69 69 69 69 69 69 69 69 69 69 69 69 69 69 69 69 69 69 69 69 69 69 69 69 69 69 69 69 69 69 69 69 69 69 69 69 69 69 69 69 69 69 69 69 69 69 69 69 69 69 69 69 69 69 69 69 69 69 69 69 69 69 69 69 69 69 69 69 69 69 69 69 69 69 69 69 69 69 69 69 69 69 69 69 69 69 69 69 69 69 69 69 69 69 69 69 69 69 69 69 69 69 69 69 69 69 69 69 69 69 69 69 69 69 69 69 69 69 69 69 69 69 69 69 69 69 69 69 69 69 69 69 69 69 69 69 69 69 69 69 69 69 69 69 69 69 69 69 69 69 69 69 69 69 69 69 69 69 69 69 69 69 69 69 69 69 69 69 69 69 69 69 69 69 69 69 69 69 69 69 69 69 69 69 69 69 69 69 69 69 69 69 69 69 69 69 69 69 69 69 69 69 69 69 69 69 69 69 69 69 69 69 69 69 69 69 69 69 69 69 69 69 69 69 69 69 69 69 69 69 69 69 69 69 69 69 69 69 69 69 69 69 69 69 69 69 69 69 69 69 69 69 69 69 69 69 69 69 69 69 69 69 69 69 69 69 69 69 69 69 69 69 69 69 69 69 69 69 69 69 69 69 69 69 69 69 69 69 69 69 69 69 69 69 69 69 69 69 69 69 69 69 69 69 69 69 69 69 69 69 69 69 69 69 69 69 69 69 69 69 69 69 69 69 69 69 69 69 69 69 69 69 69 69 69 69 69 69 69 69 69 69 69 69 69 69 69 69 69 69 69 69 69 69 69 69 69 69 69 69 69 69 69 69 69 69 69 69 69 69 69 69 69 69 69 69 69 69 69 69 69 69 69 69 69 69 69 69 69 69 69 69 69 69 69 69 69 69 69 69 69 69 69 69 69 69 69 69 69 69 69 69 69 69 69 69 69 69 69 69 69 69 69 69 69 69 69 69 69 69 69 69 69 69 69 69 69 69 69 69 69 69 69 69 69 69 69 69 69 69 69 69 69 69 69 69 69 69 69 69 69 69 69 69 69 69 69 69 69 69 69 69 69 69 69 69 69 69 69 69 69 69 69 69 69 69 69 69 69 69 69 69 69 69 69 69 69 69 69 69 69 69 69 69 69 69 69 69 69 69 69 69 69 69 69 69 69 69 69 69 69 69 69 69 69 69 69 69 69 69 69 69 69 69 69 69 69 69 69 69 69 69 69 69 69 69 69 69 69 69 69 69 69 69 69 69 69 69 69 69 69 69 69 69 69 69 69 69 69 69 69 69 69 69 69 69 69 69 69 69 69 69 69 69 69 69 69 69 69 69 69 69 69 69 69 69 69 69 69 69 69 69 69 69 69 69 69 69 69 69 69 69 69 69 69 69 69 69 69 69 69 69 69 69 69 69 69 69 69 69 69 69 69 69 69 69 69 69 69 69 69 69 69 69 69 69 69 69 69 69 69 69 69 69 69 69 69 69 69 69 69 69 69 69 69 69 69 69 69 69 69 69 69 69 69 69 69 69 69 69 69 69 69 69 69 69 69 69 69 69 69 69 69 69 69 69 69 69 69 69 69 69 69 69 69 69 69 69 69 69 69 69 69 69 69 69 69 69 69 69 69 69 69 69 69 69 69 69 69 69 69 69 69 69 69 69 69 69 69 69 69 69 69 69 69 69 69 69 69 69 69 69 69 69 69 69 69 69 69 69 69 69 69 69 69 69 69 69 69 69 69 69 69 69 69 69 69 69 69 69 69 69 69 69 69 69 69 69 69 69 69 69 69 69 69 69 69 69 69 69 69 69 69 69 69 69 69 69 69 69 69 69 69 69 69 69 69 69 69 69 69 69 69 69 69 69 69 69 69 69 69 69 69 69 69 69 69 69 69 69 69 69 69 69 69 69 69 69 69 69 69 69 69 69 69 69 69 69 69 69 69 69 69 69 69 69 69 69 69 69 69 69 69 69 69 69 69 69 69 69 69 69 69 69 69 69 69 69 69 69 69 69 69 69 69 69 69 69 69 69 69 69 69 69 69 69 69 69 69 69 69 69 69 69 69 69 69 69 69 69 69 69 69 69 69 69 69 69 69 69 69 69 69 69 69 69 69 69 69 69 69 69 69 69 69 69 69 69 69 69 69 69 69 69 69 69 69 69 69 69 69 69 69 69 69 69 69 69 69 69 69 69 69 69 69 69 69 69 69 69 69 69 69 69 69 69 69 69 69 69 69 69 69 69 69 69 69 69 69 69 69 69 69 69 69 69 69 69 69 69 69 69 69 69 69 69 69 69 69 69 69 69 69 69 69 69 69 69 69 69 69 69 69 69 69 69 69 69 69 69 69 69 69 69 69 69 69 69 69 69 69 69 69 69 69 69 69 69 69 69 69 69 69 69 69 69 69 69 69 69 69 69 69 69 69 69 69 69 69 69 69 69 69 69 69 69 69 69 69 69 69 69 69 69 69 69 69 69 69 69 69 69 69 69 69 69 69 69 69 69 69 69 69 69 69 69 69 69 69 69 69 69 69 69 69 69 69 69 69 69 69 69 69 69 69 69 69 69 69 69 69 69 69 69 69 69 69 69 69 69 69 69 69 69 69 69 69 69 69 69 69 69 69 69 69 69 69 69 69 69 69 69 69 69 69 69 69 69 69 69 69 69 69 69 69 69 69 69 69 69 69 69 69 69 69 69 69 69 69 69 69 69 69 69 69 69 69 69 69 69 69 69 69 69 69 69 69 69 69 69 69 69 69 69 69 69 69 69 69 69 69 69 69 69 69 69 69 69 69 69 69 69 69 69 69 69 69 69 69 69 69 69 69 69 69 69 69 69 69 69 69 69 69 69 69 69 69 69 69 69 69 69 69 69 69 69 69 69 69 69 69 69 69 69 69 69 69 69 69 69 69 69 69 69 69 69 69 69 69 69 69 69 69 69 69 69 69 69 69 69 69 69 69 69 69 69 69 69 69 69 69 69 69 69 69 69 69 69 69 69 69 69 69 69 69 69 69 69 69 69 69 69 69 69 69 69 69 69 69 69 69 69 69 69 69 69 69 69 69 69 69 69 69 69 69 69 69 69 69 69 69 69 69 69 69 69 69 69 69 69 69 69 69 69 69 69 69 69 69 69 69 69 69 69 69 69 69 69 69 69 69 69 69 69 69 69 69 69 69 69 69 69 69 69 69 69 69 69 69 69 69 69 69 69 69 69 69 69 69 69 69 69 69 69 69 69 69 69 69 69 69 69 69 69 69 69 69 69 69 69 69 69 69 69 69 69 69 69 69 69 69 69 69 69 69 69 69 69 69 69 69 69 69 69 69 69 69 69 69 69 69 69 69 69 69 69 69 69 69 69 69 69 69 69 69 69 69 69 69 69 69 69 69 69 69 69 69 69 69 69 69 69 69 69 69 69 69 69 69 69 69 69 69 69 69 69 69 69 69 69 69 69 69 69 69 69 69 69 69 69 69 69 69 69 69 69 69 69 69 69 69 69 69 69 69 69 69 69 69 69 69 69 69 69 69 69 69 69 69 69 69 69 69 69 69 69 69 69 69 69 69 69 69 69 69 69 69 69 69 69 69 69 69 69 69 69 69 69 69 69 69 69 69 69 69 69 69 69 69 69 69 69 69 69 69 69 69 69 69 69 69 69 69 69 69 69 69 69 69 69 69 69 69 69 69 69 69 69 69 69 69 69 69 69 69 69 69 69 69 69 69 69 69 69 69 69 69 69 69 69 69 69 69 69 69 69 69 69 69 69 69 69 69 69 69 69 69 69 69 69 69 69 69 69 69 69 69 69 69 69 69 69 69 69 69 69 69 69 69 69 69 69 69 69 69 69 69 69 69 69 69 69 69 69 69 69 69 69 69 69 69 69 69 69 69 69 69 69 69 69 69 69 69 69 69 69 69 69 69 69 69 69 69 69 69 69 69 69 69 69 69 69 69 69 69 69 69 69 69 69 69 69 69 69 69 69 69 69 69 69 69 69 69 69 69 69 69 69 69 69 69 69 69 69 69 69 69 69 69 69 69 69 69 69 69 69 69 69 69 69 69 69 69 69 69 69 69 69 69 69 69 69 69 69 69 69 69 69 69 69 69 69 69 69 69 69 69 69 69 69 69 69 69 69 69 69 69 69 69 69 69 69 69 69 69 69 69 69 69 69 69 69 69 69 69 69 69 69 69 69 69 69 69 69 69 69 69 69 69 69 69 69 69 69 69 69 69 69 69 69 69 69 69 69 69 69 69 69 69 69 69 69 69 69 69 69 69 69 69 69 69 69 69 69 69 69 69 69 69 69 69 69 69 69 69 69 69 69 69 69 69 69 69 69 69 69 69 69 69 69 69 69 69 69 69 69 69 69 69 69 69 69 69 69 69 69 69 69 69 69 69 69 69 69 69 69 69 69 69 69 69 69 69 69 69 69 69 69 69 69 69 69 69 69 69 69 69 69 69 69 69 69 69 69 69 69 69 69 69 69 69 69 69 69 69 69 69 69 69 69 69 69 69 69 69 69 69 69 69 69 69 69 69 69 69 69 69 69 69 69 69 69 69 69 69 69 69 69 69 69 69 69 69 69 69 69 69 69 69 69 69 69 69 69 69 69 69 69 69 69 69 69 69 69 69 69 69 69 69 69 69 69 69 69 69 69 69 69 69 69 69 69 69 69 69 69 69 69 69 69 69 69 69 69 69 69 69 69 69 69 69 69 69 69 69 69 69 69 69 69 69 69 69 69 69 69 69 69 69 69 69 69 69 69 69 69 69 69 69 69 69 69 69 69 69 69 69 69 69 69 69 69 69 69 69 69 69 69 69 69 69 69 69 69 69 69 69 69 69 69 69 69 69 69 69 69 69 69 69 69 69 69 69 69 69 69 69 69 69 69 69 69 69 69 69 69 69 69 69 69 69 69 69 69 69 69 69 69 69 69 69 69 69 69 69 69 69 69 69 69 69 69 69 69 69 69 69 69 69 69 69 69 69 69 69 69 69 69 69 69 69 69 69 69 69 69 69 69 69 69 69 69 69 69 69 69 69 69 69 69 69 69 69 69 69 69 69 69 69 69 69 69 69 69 69 69 69 69 69 69 69 69 69 69 69 69 69 69 69 69 69 69 69 69 69 69 69 69 69 69 69 69 69 69 69 69 69 69 69 69 69 69 69 69 69 69 69 69 69 69 69 69 69 69 69 69 69 69 69 69 69 69 69 69 69 69 69 69 69 69 69 69 69 69 69 69 69 69 69 69 69 69 69 69 69 69 69 69 69 69 69 69 69 69 69 69 69 69 69 69 69 69 69 69 69 69 69 69 69 69 69 69 69 69 69 69 69 69 69 69 69 69 69 69 69 69 69 69 69 69 69 69 69 69 69 69 69 69 69 69 69 69 69 69 69 69 69 69 69 69 69 69 69 69 69 69 69 69 69 69 69 69 69 69 69 69 69 69 69 69 69 69 69 69 69 69 69 69 69 69 69 69 69 69 69 69 69 69 69 69 69 69 69 69 69 69 69 69 69 69 69 69 69 69 69 69 69 69 69 69 69 69 69 69 69 69 69 69 69 69 69 69 69 69 69 69 69 69 69 69 69 69 69 69 69 69 69 69 69 69 69 69 69 69 69 69 69 69 69 69 69 69 69 69 69 69 69 69 69 69 69 69 69 69 69 69 69 69 69 69 69 69 69 69 69 69 69 69 69 69 69 69 69 69 69 69 69 69 69 69 69 69 69 69 69 69 69 69 69 69 69 69 69 69 69 69 69 69 69 69 69 69 69 69 69 69 69 69 69 69 69 69 69 69 69 69 69 69 69 69 69 69 69 69 69 69 69 69 69 69 69 69 69 69 69 69 69 69 69 69 69 69 69 69 69 69 69 69 69 69 69 69 69 69 69 69 69 69 69 69 69 69 69 69 69 69 69 69 69 69 69 69 69 69 69 69 69 69 69 69 69 69 69 69 69 69 69 69 69 69 69 69 69 69 69 69 69 69 69 69 69 69 69 69 69 69 69 69 69 69 69 69 69 69 69 69 69 69 69 69 69 69 69 69 69 69 69 69 69 69 69 69 69 69 69 69 69 69 69 69 69 69 69 69 69 69 69 69 69 69 69 69 69 69 69 69 69 69 69 69 69 69 69 69 69 69 69 69 69 69 69 69 69 69 69 69 69 69 69 69 69 69 69 69 69 69 69 69 69 69 69 69 69 69 69 69 69 69 69 69 69 69 69 69 69 69 69 69 69 69 69 69 69 69 69 69 69 69 69 69 69 69 69 69 69 69 69 69 69 69 69 69 69 69 69 69 69 69 69 69 69 69 69 69 69 69 69 69 69 69 69 69 69 69 69 69 69 69 69 69 69 69 69 69 69 69 69 69 69 69 69 69 69 69 69 69 69 69 69 69 69 69 69 69 69 69 69 69 69 69 69 69 69 69 69 69 69 69 69 69 69 69 69 69 69 69 69 69 69 69 69 69 69 69 69 69 69 69 69 69 69 69 69 69 69 69 69 69 69 69 69 69 69 69 69 69 69 69 69 69 69 69 69 69 69 69 69 69 69 69 69 69 69 69 69 69 69 69 69 69 69 69 69 69 69 69 69 69 69 69 69 69 69 69 69 69 69 69 69 69 69 69 69 69 69 69 69 69 69 69 69 69 69 69 69 69 69 69 69 69 69 69 69 69 69 69 69 69 69 69 69 69 69 69 69 69 69 69 69 69 69 69 69 69 69 69 69 69 69 69 69 69 69 69 69 69 69 69 69 69 69 69 69 69 69 69 69 69 69 69 69 69 69 69 69 69 69 69 69 69 69 69 69 69 69 69 69 69 69 69 69 69 69 69 69 69 69 69 69 69 69 69 69 69 69 69 69 69 69 69 69 69 69 69 69 69 69 69 69 69 69 69 69 69 69 69 69 69 69 69 69 69 69 69 69 69 69 69 69 69 69 69 69 69 69 69 69 69 69 69 69 69 69 69 69 69 69 69 69 69 69 69 69 69 69 69 69 69 69 69 69 69 69 69 69 69 69 69 69 69 69 69 69 69 69 69 69 69 69 69 69 69 69 69 69 69 69 69 69 69 69 69 69 69 69 69 69 69 69 69 69 69 69 69 69 69 69 69 69 69 69 69 69 69 69 69 69 69 69 69 69 69 69 69 69 69 69 69 69 69 69 69 69 69 69 69 69 69 69 69 69 69 69 69 69 69 69 69 69 69 69 69 69 69 69 69 69 69 69 69 69 69 69 69 69 69 69 69 69 69 69 69 69 69 69 69 69 69 69 69 69 69 69 69 69 69 69 69 69 69 69 69 69 69 69 69 69 69 69 69 69 69 69 69 69 69 69 69 69 69 69 69 69 69 69 69 69 69 69 69 69 69 69 69 69 69 69 69 69 69 69 69 69 69 69 69 69 69 69 69 69 69 69 69 69 69 69 69 69 69 69 69 69 69 69 69 69 69 69 69 69 69 69 69 69 69 69 69 69 69 69 69 69 69 69 69 69 69 69 69 69 69 69 69 69 69 69 69 69 69 69 69 69 69 69 69 69 69 69 69 69 69 69 69 69 69 69 69 69 69 69 69 69 69 69 69 69 69 69 69 69 69 69 69 69 69 69 69 69 69 69 69 69 69 69 69 69 69 69 69 69 69 69 69 69 69 69 69 69 69 69 69 69 69 69 69 69 69 69 69 69 69 69 69 69 69 69 69 69 69 69 69 69 69 69 69 69 69 69 69 69 69 69 69 69 69 69 69 69 69 69 69 69 69 69 69 69 69 69 69 69 69 69 69 69 69 69 69 69 69 69 69 69 69 69 69 69 69 69 69 69 69 69 69 69 69 69 69 69 69 69 69 69 69 69 69 69 69 69 69 69 69 69 69 69 69 69 69 69 69 69 69 69 69 69 69 69 69 69 69 69 69 69 69 69 69 69 69 69 69 69 69 69 69 69 69 69 69 69 69 69 69 69 69 69 69 69 69 69 69 69 69 69 69 69 69 69 69 69 69 69 69 69 69 69 69 69 69 69 69 69 69 69 69 69 69 69 69 69 69 69 69 69 69 69 69 69 69 69 69 69 69 69 69 69 69 69 69 69 69 69 69 69 69 69 69 69 69 69 69 69 69 69 69 69 69 69 69 69 69 69 69 69 69 69 69 69 69 69 69 69 69 69 69 69 69 69 69 69 69 69 69 69 69 69 69 69 69 69 69 69 69 69 69 69 69 69 69 69 69 69 69 69 69 69 69 69 69 69 69 69 69 69 69 69 69 69 69 69 69 69 69 69 69 69 69 69 69 69 69 69 69 69 69 69 69 69 69 69 69 69 69 69 69 69 69 69 69 69 69 69 69 69 69 69 69 69 69 69 69 69 69 69 69 69 69 69 69 69 69 69 69 69 69 69 69 69 69 69 69 69 69 69 69 69 69 69 69 69 69 69 69 69 69 69 69 69 69 69 69 69 69 69 69 69 69 69 69 69 69 69 69 69 69 69 69 69 69 69 69 69 69 69 69 69 69 69 69 69 69 69 69 69 69 69 69 69 69 69 69 69 69 69 69 69 69 69 69 69 69 69 69 69 69 69 69 69 69 69 69 69 69 69 69 69 69 69 69 69 69 69 69 69 69 69 69 69 69 69 69 69 69 69 69 69 69 69 69 69 69 69 69 69 69 69 69 69 69 69 69 69 69 69 69 69 69 69 69 69 69 69 69 69 69 69 69 69 69 69 69 69 69 69 69 69 69 69 69 69 69 69 69 69 69 69 69 69 69 69 69 69 69 69 69 69 69 69 69 69 69 69 69 69 69 69 69 69 69 69 69 69 69 69 69 69 69 69 69 69 69 69 69 69 69 69 69 69 69 69 69 69 69 69 69 69 69 69 69 69 69 69 69 69 69 69 69 69 69 69 69 69 69 69 69 69 69 69 69 69 69 69 69 69 69 69 69 69 69 69 69 69 69 69 69 69 69 69 69 69 69 69 69 69 69 69 69 69 69 69 69 69 69 69 69 69 69 69 69 69 69 69 69 69 69 69 69 69 69 69 69 69 69 69 69 69 69 69 69 69 69 69 69 69 69 69 69 69 69 69 69 69 69 69 69 69 69 69 69 69 69 69 69 69 69 69 69 69 69 69 69 69 69 69 69 69 69 69 69 69 69 69 69 69 69 69 69 69 69 69 69 69 69 69 69 69 69 69 69 69 69 69 69 69 69 69 69 69 69 69 69 69 69 69 69 69 69 69 69 69 69 69 69 69 69 69 69 69 69 69 69 69 69 69 69 69 69 69 69 69 69 69 69 69 69 69 69 69 69 69 69 69 69 69 69 69 69 69 69 69 69 69 69 69 69 69 69 69 69 69 69 69 69 69 69 69 69 69 69 69 69 69 69 69 69 69 69 69 69 69 69 69 69 69 69 69 69 69 69 69 69 69 69 69 69 69 69 69 69 69 69 69 69 69 69 69 69 69 69 69 69 69 69 69 69 69 69 69 69 69 69 69 69 69 69 69 69 69 69 69 69 69 69 69 69 69 69 69 69 69 69 69 69 69 69 69 69 69 69 69 69 69 69 69 69 69 69 69 69 69 69 69 69 69 69 69 69 69 69 69 69 69 69 69 69 69 69 69 69 69 69 69 69 69 69 69 69 69 69 69 69 69 69 69 69 69 69 69 69 69 69 69 69 69 69 69 69 69 69 69 69 69 69 69 69 69 69 69 69 69 69 69 69 69 69 69 69 69 69 69 69 69 69 69 69 69 69 69 69 69 69 69 69 69 69 69 69 69 69 69 69 69 69 69 69 69 69 69 69 69 69 69 69 69 69 69 69 69 69 69 69 69 69 69 69 69 69 69 69 69 69 69 69 69 69 69 69 69 69 69 69 69 69 69 69 69 69 69 69 69 69 69 69 69 69 69 69 69 69 69 69 69 69 69 69 69 69 69 69 69 69 69 69 69 69 69 69 69 69 69 69 69 69 69 69 69 69 69 69 69 69 69 69 69 69 69 69 69 69 69 69 69 69 69 69 69 69 69 69 69 69 69 69 69 69 69 69 69 69 69 69 69 69 69 69 69 69 69 69 69 69 69 69 69 69 69 69 69 69 69 69 69 69 69 69 69 69 69 69 69 69 69 69 69 69 69 69 69 69 69 69 69 69 69 69 69 69 69 69 69 69 69 69 69 69 69 69 69 69 69 69 69 69 69 69 69 69 69 69 69 69 69 69 69 69 69 69 69 69 69 69 69 69 69 69 69 69 69 69 69 69 69 69 69 69 69 69 69 69 69 69 69 69 69 69 69 69 69 69 69 69 69 69 69 69 69 69 69 69 69 69 69 69 69 69 69 69 69 69 69 69 69 69 69 69 69 69 69 69 69 69 69 69 69 69 69 69 69 69 69 69 69 69 69 69 69 69 69 69 69 69 69 69 69 69 69 69 69 69 69 69 69 69 69 69 69 69 69 69 69 69 69 69 69 69 69 69 69 69 69 69 69 69 69 69 69 69 69 69 69 69 69 69 69 69 69 69 69 69 69 69 69 69 69 69 69 69 69 69 69 69 69 69 69 69 69 69 69 69 69 69 69 69 69 69 69 69 69 69 69 69 69 69 69 69 69 69 69 69 69 69 69 69 69 69 69 69 69 69 69 69 69 69 69 69 69 69 69 69 69 69 69 69 69 69 69 69 69 69 69 69 69 69 69 69 69 69 69 69 69 69 69 69 69 69 69 69 69 69 69 69 69 69 69 69 69 69 69 69 69 69 69 69 69 69 69 69 69 69 69 69 69 69 69 69 69 69 69 69 69 69 69 69 69 69 69 69 69 69 69 69 69 69 69 69 69 69 69 69 69 69 69 69 69 69 69 69 69 69 69 69 69 69 69 69 69 69 69 69 69 69 69 69 69 69 69 69 69 69 69 69 69 69 69 69 69 69 69 69 69 69 69 69 69 69 69 69 69 69 69 69 69 69 69 69 69 69 69 69 69 69 69 69 69 69 69 69 69 69 69 69 69 69 69 69 69 69 69 69 69 69 69 69 69 69 69 69 69 69 69 69 69 69 69 69 69 69 69 69 69 69 69 69 69 69 69 69 69 69 69 69 69 69 69 69 69 69 69 69 69 69 69 69 69 69 69 69 69 69 69 69 69 69 69 69 69 69 69 69 69 69 69 69 69 69 69 69 69 69 69 69 69 69 69 69 69 69 69 69 69 69 69 69 69 69 69 69 69 69 69 69 69 69 69 69 69 69 69 69 69 69 69 69 69 69 69 69 69 69 69 69 69 69 69 69 69 69 69 69 69 69 69 69 69 69 69 69 69 69 69 69 69 69 69 69 69 69 69 69 69 69 69 69 69 69 69 69 69 69 69 69 69 69 69 69 69 69 69 69 69 69 69 69 69 69 69 69 69 69 69 69 69 69 69 69 69 69 69 69 69 69 69 69 69 69 69 69 69 69 69 69 69 69 69 69 69 69 69 69 69 69 69 69 69 69 69 69 69 69 69 69 69 69 69 69 69 69 69 69 69 69 69 69 69 69 69 69 69 69 69 69 69 69 69 69 69 69 69 69 69 69 69 69 69 69 69 69 69 69 69 69 69 69 69 69 69 69 69 69 69 69 69 69 69 69 69 69 69 69 69 69 69 69 69 69 69 69 69 69 69 69 69 69 69 69 69 69 69 69 69 69 69 69 69 69 69 69 69 69 69 69 69 69 69 69 69 69 69 69 69 69 69 69 69 69 69 69 69 69 69 69 69 69 69 69 69 69 69 69 69 69 69 69 69 69 69 69 69 69 69 69 69 69 69 69 69 69 69 69 69 69 69 69 69 69 69 69 69 69 69 69 69 69 69 69 69 69 69 69 69 69 69 69 69 69 69 69 69 69 69 69 69 69 69 69 69 69 69 69 69 69 69 69 69 69 69 69 69 69 69 69 69 69 69 69 69 69 69 69 69 69 69 69 69 69 69 69 69 69 69 69 69 69 69 69 69 69 69 69 69 69 69 69 69 69 69 69 69 69 69 69 69 69 69 69 69 69 69 69 69 69 69 69 69 69 69 69 69 69 69 69 69 69 69 69 69 69 69 69 69 69 69 69 69 69 69 69 69 69 69 69 69 69 69 69 69 69 69 69 69 69 69 69 69 69 69 69 69 69 69 69 69 69 69 69 69 69 69 69 69 69 69 69 69 69 69 69 69 69 69 69 69 69 69 69 69 69 69 69 69 69 69 69 69 69 69 69 69 69 69 69 69 69 69 69 69 69 69 69 69 69 69 69 69 69 69 69 69 69 69 69 69 69 69 69 69 69 69 69 69 69 69 69 69 69 69 69 69 69 69 69 69 69 69 69 69 69 69 69 69 69 69 69 69 69 69 69 69 69 69 69 69 69 69 69 69 69 69 69 69 69 69 69 69 69 69 69 69 69 69 69 69 69 69 69 69 69 69 69 69 69 69 69 69 69 69 69 69 69 69 69 69 69 69 69 69 69 69 69 69 69 69 69 69 69 69 69 69 69 69 69 69 69 69 69 69 69 69 69 69 69 69 69 69 69 69 69 69 69 69 69 69 69 69 69 69 69 69 69 69 69 69 69 69 69 69 69 69 69 69 69 69 69 69 69 69 69 69 69 69 69 69 69 69 69 69 69 69 69 69 69 69 69 69 69 69 69 69 69 69 69 69 69 69 69 69 69 69 69 69 69 69 69 69 69 69 69 69 69 69 69 69 69 69 69 69 69 69 69 69 69 69 69 69 69 69 69 69 69 69 69 69 69 69 69 69 69 69 69 69 69 69 69 69 69 69 69 69 69 69 69 69 69 69 69 69 69 69 69 69 69 69 69 69 69 69 69 69 69 69 69 69 69 69 69 69 69 69 69 69 69 69 69 69 69 69 69 69 69 69 69 69 69 69 69 69 69 69 69 69 69 69 69 69 69 69 69 69 69 69 69 69 69 69 69 69 69 69 69 69 69 69 69 69 69 69 69 69 69 69 69 69 69 69 69 69 69 69 69 69 69 69 69 69 69 69 69 69 69 69 69 69 69 69 69 69 69 69 69 69 69 69 69 69 69 69 69 69 69 69 69 69 69 69 69 69 69 69 69 69 69 69 69 69 69 69 69 69 69 69 69 69 69 69 69 69 69 69 69 69 69 69 69 69 69 69 69 69 69 69 69 69 69 69 69 69 69 69 69 69 69 69 69 69 69 69 69 69 69 69 69 69 69 69 69 69 69 69 69 69 69 69 69 69 69 69 69 69 69 69 69 69 69 69 69 69 69 69 69 69 69 69 69 69 69 69 69 69 69 69 69 69 69 69 69 69 69 69 69 69 69 69 69 69 69 69 69 69 69 69 69 69 69 69 69 69 69 69 69 69 69 69 69 69 69 69 69 69 69 69 69 69 69 69 69 69 69 69 69 69 69 69 69 69 69 69 69 69 69 69 69 69 69 69 69 69 69 69 69 69 69 69 69 69 69 69 69 69 69 69 69 69 69 69 69 69 69 69 69 69 69 69 69 69 69 69 69 69 69 69 69 69 69 69 69 69 69 69 69 69 69 69 69 69 69 69 69 69 69 69 69 69 69 69 69 69 69 69 69 69 69 69 69 69 69 69 69 69 69 69 69 69 69 69 69 69 69 69 69 69 69 69 69 69 69 69 69 69 69 69 69 69 69 69 69 69 69 69 69 69 69 69 69 69 69 69 69 69 69 69 69 69 69 69 69 69 69 69 69 69 69 69 69 69 69 69 69 69 69 69 69 69 69 69 69 69 69 69 69 69 69 69 69 69 69 69 69 69 69 69 69 69 69 69 69 69 69 69 69 69 69 69 69 69 69 69 69 69 69 69 69 69 69 69 69 69 69 69 69 69 69 69 69 69 69 69 69 69 69 69 69 69 69 69 69 69 69 69 69 69 69 69 69 69 69 69 69 69 69 69 69 69 69 69 69 69 69 69 69 69 69 69 69 69 69 69 69 69 69 69 69 69 69 69 69 69 69 69 69 69 69 69 69 69 69 69 69 69 69 69 69 69 69 69 69 69 69 69 69 69 69 69 69 69 69 69 69 69 69 69 69 69 69 69 69 69 69 69 69 69 69 69 69 69 69 69 69 69 69 69 69 69 69 69 69 69 69 69 69 69 69 69 69 69 69 69 69 69 69 69 69 69 69 69 69 69 69 69 69 69 69 69 69 69 69 69 69 69 69 69 69 69 69 69 69 69 69 69 69 69 69 69 69 69 69 69 69 69 69 69 69 69 69 69 69 69 69 69 69 69 69 69 69 69 69 69 69 69 69 69 69 69 69 69 69 69 69 69 69 69 69 69 69 69 69 69 69 69 69 69 69 69 69 69 69 69 69 69 69 69 69 69 69 69 69 69 69 69 69 69 69 69 69 69 69 69 69 69 69 69 69 69 69 69 69 69 69 69 69 69 69 69 69 69 69 69 69 69 69 69 69 69 69 69 69 69 69 69 69 69 69 69 69 69 69 69 69 69 69 69 69 69 69 69 69 69 69 69 69 69 69 69 69 69 69 69 69 69 69 69 69 69 69 69 69 69 69 69 69 69 69 69 69 69 69 69 69 69 69 69 69 69 69 69 69 69 69 69 69 69 69 69 69 69 69 69 69 69 69 69 69 69 69 69 69 69 69 69 69 69 69 69 69 69 69 69 69 69 69 69 69 69 69 69 69 69 69 69 69 69 69 69 69 69 69 69 69 69 69 69 69 69 69 69 69 69 69 69 69 69 69 69 69 69 69 69 69 69 69 69 69 69 69 69 69 69 69 69 69 69 69 69 69 69 69 69 69 69 69 69 69 69 69 69 69 69 69 69 69 69 69 69 69 69 69 69 69 69 69 69 69 69 69 69 69 69 69 69 69 69 69 69 69 69 69 69 69 69 69 69 69 69 69 69 69 69 69 69 69 69 69 69 69 69 69 69 69 69 69 69 69 69 69 69 69 69 69 69 69 69 69 69 69 69 69 69 69 69 69 69 69 69 69 69 69 69 69 69 69 69 69 69 69 69 69 69 69 69 69 69 69 69 69 69 69 69 69 69 69 69 69 69 69 69 69 69 69 69 69 69 69 69 69 69 69 69 69 69 69 69 69 69 69 69 69 69 69 69 69 69 69 69 69 69 69 69 69 69 69 69 69 69 69 69 69 69 69 69 69 69 69 69 69 69 69 69 69 69 69 69 69 69 69 69 69 69 69 69 69 69 69 69 69 69 69 69 69 69 69 69 69 69 69 69 69 69 69 69 69 69 69 69 69 69 69 69 69 69 69 69 69 69 69 69 69 69 69 69 69 69 69 69 69 69 69 69 69 69 69 69 69 69 69 69 69 69 69 69 69 69 69 69 69 69 69 69 69 69 69 69 69 69 69 69 69 69 69 69 69 69 69 69 69 69 69 69 69 69 69 69 69 69 69 69 69 69 69 69 69 69 69 69 69 69 69 69 69 69 69 69 69 69 69 69 69 69 69 69 69 69 69 69 69 69 69 69 69 69 69 69 69 69 69 69 69 69 69 69 69 69 69 69 69 69 69 69 69 69 69 69 69 69 69 69 69 69 69 69 69 69 69 69 69 69 69 69 69 69 69 69 69 69 69 69 69 69 69 69 69 69 69 69 69 69 69 69 69 69 69 69 69 69 69 69 69 69 69 69 69 69 69 69 69 69 69 69 69 69 69 69 69 69 69 69 69 69 69 69 69 69 69 69 69 69 69 69 69 69 69 69 69 69 69 69 69 69 69 69 69 69 69 69 69 69 69 69 69 69 69 69 69 69 69 69 69 69 69 69 69 69 69 69 69 69 69 69 69 69 69 69 69 69 69 69 69 69 69 69 69 69 69 69 69 69 69 69 69 69 69 69 69 69 69 69 69 69 69 69 69 69 69 69 69 69 69 69 69 69 69 69 69 69 69 69 69 69 69 69 69 69 69 69 69 69 69 69 69 69 69 69 69 69 69 69 69 69 69 69 69 69 69 69 69 69 69 69 69 69 69 69 69 69 69 69 69 69 69 69 69 69 69 69 69 69 69 69 69 69 69 69 69 69 69 69 69 69 69 69 69 69 69 69 69 69 69 69 69 69 69 69 69 69 69 69 69 69 69 69 69 69 69 69 69 69 69 69 69 69 69 69 69 69 69 69 69 69 69 69 69 69 69 69 69 69 69 69 69 69 69 69 69 69 69 69 69 69 69 69 69 69 69 69 69 69 69 69 69 69 69 69 69 69 69 69 69 69 69 69 69 69 69 69 69 69 69 69 69 69 69 69 69 69 69 69 69 69 69 69 69 69 69 69 69 69 69 69 69 69 69 69 69 69 69 69 69 69 69 69 69 69 69 69 69 69 69 69 69 69 69 69 69 69 69 69 69 69 69 69 69 69 69 69 69 69 69 69 69 69 69 69 69 69 69 69 69 69 69 69 69 69 69 69 69 69 69 69 69 69 69 69 69 69 69 69 69 69 69 69 69 69 69 69 69 69 69 69 69 69 69 69 69 69 69 69 69 69 69 69 69 69 69 69 69 69 69 69 69 69 69 69 69 69 69 69 69 69 69 69 69 69 69 69 69 69 69 69 69 69 69 69 69 69 69 69 69 69 69 69 69 69 69 69 69 69 69 69 69 69 69 69 69 69 69 69 69 69 69 69 69 69 69 69 69 69 69 69 69 69 69 69 69 69 69 69 69 69 69 69 69 69 69 69 69 69 69 69 69 69 69 69 69 69 69 69 69 69 69 69 69 69 69 69 69 69 69 69 69 69 69 69 69 69 69 69 69 69 69 69 69 69 69 69 69 69 69 69 69 69 69 69 69 69 69 69 69 69 69 69 69 69 69 69 69 69 69 69 69 69 69 69 69 69 69 69 69 69 69 69 69 69 69 69 69 69 69 69 69 69 69 69 69 69 69 69 69 69 69 69 69 69 69 69 69 69 69 69 69 69 69 69 69 69 69 69 69 69 69 69 69 69 69 69 69 69 69 69 69 69 69 69 69 69 69 69 69 69 69 69 69 69 69 69 69 69 69 69 69 69 69 69 69 69 69 69 69 69 69 69 69 69 69 69 69 69 69 69 69 69 69 69 69 69 69 69 69 69 69 69 69 69 69 69 69 69 69 69 69 69 69 69 69 69 69 69 69 69 69 69 69 69 69 69 69 69 69 69 69 69 69 69 69 69 69 69 69 69 69 69 69 69 69 69 69 69 69 69 69 69 69 69 69 69 69 69 69 69 69 69 69 69 69 69 69 69 69 69 69 69 69 69 69 69 69 69 69 69 69 69 69 69 69 69 69 69 69 69 69 69 69 69 69 69 69 69 69 69 69 69 69 69 69 69 69 69 69 69 69 69 69 69 69 69 69 69 69 69 69 69 69 69 69 69 69 69 69 69 69 69 69 69 69 69 69 69 69 69 69 69 69 69 69 69 69 69 69 69 69 69 69 69 69 69 69 69 69 69 69 69 69 69 69 69 69 69 69 69 69 69 69 69 69 69 69 69 69 69 69 69 69 69 69 69 69 69 69 69 69 69 69 69 69 69 69 69 69 69 69 69 69 69 69 69 69 69 69 69 69 69 69 69 69 69 69 69 69 69 69 69 69 69 69 69 69 69 69 69 69 69 69 69 69 69 69 69 69 69 69 69 69 69 69 69 69 69 69 69 69 69 69 69 69 69 69 69 69 69 69 69 69 69 69 69 69 69 69 69 69 69 69 69 69 69 69 69 69 69 69 69 69 69 69 69 69 69 69 69 69 69 69 69 69 69 69 69 69 69 69 69 69 69 69 69 69 69 69 69 69 69 69 69 69 69 69 69 69 69 69 69 69 69 69 69 69 69 69 69 69 69 69 69 69 69 69 69 69 69 69 69 69 69 69 69 69 69 69 69 69 69 69 69 69 69 69 69 69 69 69 69 69 69 69 69 69 69 69 69 69 69 69 69 69 69 69 69 69 69 69 69 69 69 69 69 69 69 69 69 69 69 69 69 69 69 69 69 69 69 69 69 69 69 69 69 69 69 69 69 69 69 69 69 69 69 69 69 69 69 69 69 69 69 69 69 69 69 69 69 69 69 69 69 69 69 69 69 69 69 69 69 69 69 69 69 69 69 69 69 69 69 69 69 69 69 69 69 69 69 69 69 69 69 69 69 69 69 69 69 69 69 69 69 69 69 69 69 69 69 69 69 69 69 69 69 69 69 69 69 69 69 69 69 69 69 69 69 69 69 69 69 69 69 69 69 69 69 69 69 69 69 69 69 69 69 69 69 69 69 69 69 69 69 69 69 69 69 69 69 69 69 69 69 69 69 69 69 69 69 69 69 69 69 69 69 69 69 69 69 69 69 69 69 69 69 69 69 69 69 69 69 69 69 69 69 69 69 69 69 69 69 69 69 69 69 69 69 69 69 69 69 69 69 69 69 69 69 69 69 69 69 69 69 69 69 69 69 69 69 69 69 69 69 69 69 69 69 69 69 69 69 69 69 69 69 69 69 69 69 69 69 69 69 69 69 69 69 69 69 69 69 69 69 69 69 69 69 69 69 69 69 69 69 69 69 69 69 69 69 69 69 69 69 69 69 69 69 69 69 69 69 69 69 69 69 69 69 69 69 69 69 69 69 69 69 69 69 69 69 69 69 69 69 69 69 69 69 69 69 69 69 69 69 69 69 69 69 69 69 69 69 69 69 69 69 69 69 69 69 69 69 69 69 69 69 69 69 69 69 69 69 69 69 69 69 69 69 69 69 69 69 69 69 69 69 69 69 69 69 69 69 69 69 69 69 69 69 69 69 69 69 69 69 69 69 69 69 69 69 69 69 69 69 69 69 69 69 69 69 69 69 69 69 69 69 69 69 69 69 69 69 69 69 69 69 69 69 69 69 69 69 69 69 69 69 69 69 69 69 69 69 69 69 69 69 69 69 69 69 69 69 69 69 69 69 69 69 69 69 69 69 69 69 69 69 69 69 69 69 69 69 69 69 69 69 69 69 69 69 69 69 69 69 69 69 69 69 69 69 69 69 69 69 69 69 69 69 69 69 69 69 69 69 69 69 69 69 69 69 69 69 69 69 69 69 69 69 69 69 69 69 69 69 69 69 69 69 69 69 69 69 69 69 69 69 69 69 69 69 69 69 69 69 69 69 69 69 69 69 69 69 69 69 69 69 69 69 69 69 69 69 69 69 69 69 69 69 69 69 69 69 69 69 69 69 69 69 69 69 69 69 69 69 69 69 69 69 69 69 69 69 69 69 69 69 69 69 69 69 69 69 69 69 69 69 69 69 69 69 69 69 69 69 69 69 69 69 69 69 69 69 69 69 69 69 69 69 69 69 69 69 69 69 69 69 69 69 69 69 69 69 69 69 69 69 69 69 69 69 69 69 69 69 69 69 69 69 69 69 69 69 69 69 69 69 69 69 69 69 69 69 69 69 69 69 69 69 69 69 69 69 69 69 69 69 69 69 69 69 69 69 69 69 69 69 69 69 69 69 69 69 69 69 69 69 69 69 69 69 69 69 69 69 69 69 69 69 69 69 69 69 69 69 69 69 69 69 69 69 69 69 69 69 69 69 69 69 69 69 69 69 69 69 69 69 69 69 69 69 69 69 69 69 69 69 69 69 69 69 69 69 69 69 69 69 69 69 69 69 69 69 69 69 69 69 69 69 69 69 69 69 69 69 69 69 69 69 69 69 69 69 69 69 69 69 69 69 69 69 69 69 69 69 69 69 69 69 69 69 69 69 69 69 69 69 69 69 69 69 69 69 69 69 69 69 69 69 69 69 69 69 69 69 69 69 69 69 69 69 69 69 69 69 69 69 69 69 69 69 69 69 69 69 69 69 69 69 69 69 69 69 69 69 69 69 69 69 69 69 69 69 69 69 69 69 69 69 69 69 69 69 69 69 69 69 69 69 69 69 69 69 69 69 69 69 69 69 69 69 69 69 69 69 69 69 69 69 69 69 69 69 69 69 69 69 69 69 69 69 69 69 69 69 69 69 69 69 69 69 69 69 69 69 69 69 69 69 69 69 69 69 69 69 69 69 69 69 69 69 69 69 69 69 69 69 69 69 69 69 69 69 69 69 69 69 69 69 69 69 69 69 69 69 69 69 69 69 69 69 69 69 69 69 69 69 69 69 69 69 69 69 69 69 69 69 69 69 69 69 69 69 69 69 69 69 69 69 69 69 69 69 69 69 69 69 69 69 69 69 69 69 69 69 69 69 69 69 69 69 69 69 69 69 69 69 69 69 69 69 69 69 69 69 69 69 69 69 69 69 69 69 69 69 69 69 69 69 69 69 69 69 69 69 69 69 69 69 69 69 69 69 69 69 69 69 69 69 69 69 69 69 69 69 69 69 69 69 69 69 69 69 69 69 69 69 69 69 69 69 69 69 69 69 69 69 69 69 69 69 69 69 69 69 69 69 69 69 69 69 69 69 69 69 69 69 69 69 69 69 69 69 69 69 69 69 69 69 69 69 69 69 69 69 69 69 69 69 69 69 69 69 69 69 69 69 69 69 69 69 69 69 69 69 69 69 69 69 69 69 69 69 69 69 69 69 69 69 69 69 69 69 69 69 69 69 69 69 69 69 69 69 69 69 69 69 69 69 69 69 69 69 69 69 69 69 69 69 69 69 69 69 69 69 69 69 69 69 69 69 69 69 69 69 69 69 69 69 69 69 69 69 69 69 69 69 69 69 69 69 69 69 69 69 69 69 69 69 69 69 69 69 69 69 69 69 69 69 69 69 69 69 69 69 69 69 69 69 69 69 69 69 69 69 69 69 69 69 69 69 69 69 69 69 69 69 69 69 69 69 69 69 69 69 69 69 69 69 69 69 69 69 69 69 69 69 69 69 69 69 69 69 69 69 69 69 69 69 69 69 69 69 69 69 69 69 69 69 69 69 69 69 69 69 69 69 69 69 69 69 69 69 69 69 69 69 69 69 69 69 69 69 69 69 69 69 69 69 69 69 69 69 69 69 69 69 69 69 69 69 69 69 69 69 69 69 69 69 69 69 69 69 69 69 69 69 69 69 69 69 69 69 69 69 69 69 69 69 69 69 69 69 69 69 69 69 69 69 69 69 69 69 69 69 69 69 69 69 69 69 69 69 69 69 69 69 69 69 69 69 69 69 69 69 69 69 69 69 69 69 69 69 69 69 69 69 69 69 69 69 69 69 69 69 69 69 69 69 69 69 69 69 69 69 69 69 69 69 69 69 69 69 69 69 69 69 69 69 69 69 69 69 69 69 69 69 69 69 69 69 69 69 69 69 69 69 69 69 69 69 69 69 69 69 69 69 69 69 69 69 69 69 69 69 69 69 69 69 69 69 69 69 69 69 69 69 69 69 69 69 69 69 69 69 69 69 69 69 69 69 69 69 69 69 69 69 69 69 69 69 69 69 69 69 69 69 69 69 69 69 69 69 69 69 69 69 69 69 69 69 69 69 69 69 69 69 69 69 69 69 69 69 69 69 69 69 69 69 69 69 69 69 69 69 69 69 69 69 69 69 69 69 69 69 69 69 69 69 69 69 69 69 69 69 69 69 69 69 69 69 69 69 69 69 69 69 69 69 69 69 69 69 69 69 69 69 69 69 69 69 69 69 69 69 69 69 69 69 69 69 69 69 69 69 69 69 69 69 69 69 69 69 69 69 69 69 69 69 69 69 69 69 69 69 69 69 69 69 69 69 69 69 69 69 69 69 69 69 69 69 69 69 69 69 69 69 69 69 69 69 69 69 69 69 69 69 69 69 69 69 69 69 69 69 69 69 69 69 69 69 69 69 69 69 69 69 69 69 69 69 69 69 69 69 69 69 69 69 69 69 69 69 69 69 69 69 69 69 69 69 69 69 69 69 69 69 69 69 69 69 69 69 69 69 69 69 69 69 69 69 69 69 69 69 69 69 69 69 69 69 69 69 69 69 69 69 69 69 69 69 69 69 69 69 69 69 69 69 69 69 69 69 69 69 69 69 69 69 69 69 69 69 69 69 69 69 69 69 69 69 69 69 69 69 69 69 69 69 69 69 69 69 69 69 69 69 69 69 69 69 69 69 69 69 69 69 69 69 69 69 69 69 69 69 69 69 69 69 69 69 69 69 69 69 69 69 69 69 69 69 69 69 69 69 69 69 69 69 69 69 69 69 69 69 69 69 69 69 69 69 69 69 69 69 69 69 69 69 69 69 69 69 69 69 69 69 69 69 69 69 69 69 69 69 69 69 69 69 69 69 69 69 69 69 69 69 69 69 69 69 69 69 69 69 69 69 69 69 69 69 69 69 69 69 69 69 69 69 69 69 69 69 69 69 69 69 69 69 69 69 69 69 69 69 69 69 69 69 69 69 69 69 69 69 69 69 69 69 69 69 69 69 69 69 69 69 69 69 69 69 69 69 69 69 69 69 69 69 69 69 69 69 69 69 69 69 69 69 69 69 69 69 69 69 69 69 69 69 69 69 69 69 69 69 69 69 69 69 69 69 69 69 69 69 69 69 69 69 69 69 69 69 69 69 69 69 69 69 69 69 69 69 69 69 69 69 69 69 69 69 69 69 69 69 69 69 69 69 69 69 69 69 69 69 69 69 69 69 69 69 69 69 69 69 69 69 69 69 69 69 69 69 69 69 69 69 69 69 69 69 69 69 69 69 69 69 69 69 69 69 69 69 69 69 69 69 69 69 69 69 69 69 69 69 69 69 69 69 69 69 69 69 69 69 69 69 69 69 69 69 69 69 69 69 69 69 69 69 69 69 69 69 69 69 69 69 69 69 69 69 69 69 69 69 69 69 69 69 69 69 69 69 69 69 69 69 69 69 69 69 69 69 69 69 69 69 69 69 69 69 69 69 69 69 69 69 69 69 69 69 69 69 69 69 69 69 69 69 69 69 69 69 69 69 69 69 69 69 69 69 69 69 69 69 69 69 69 69 69 69 69 69 69 69 69 69 69 69 69 69 69 69 69 69 69 69 69 69 69 69 69 69 69 69 69 69 69 69 69 69 69 69 69 69 69 69 69 69 69 69 69 69 69 69 69 69 69 69 69 69 69 69 69 69 69 69 69 69 69 69 69 69 69 69 69 69 69 69 69 69 69 69 69 69 69 69 69 69 69 69 69 69 69 69 69 69 69 69 69 69 69 69 69 69 69 69 69 69 69 69 69 69 69 69 69 69 69 69 69 69 69 69 69 69 69 69 69 69 69 69 69 69 69 69 69 69 69 69 69 69 69 69 69 69 69 69 69 69 69 69 69 69 69 69 69 69 69 69 69 69 69 69 69 69 69 69 69 69 69 69 69 69 69 69 69 69 69 69 69 69 69 69 69 69 69 69 69 69 69 69 69 69 69 69 69 69 69 69 69 69 69 69 69 69 69 69 69 69 69 69 69 69 69 69 69 69 69 69 69 69 69 69 69 69 69 69 69 69 69 69 69 69 69 69 69 69 69 69 69 69 69 69 69 69 69 69 69 69 69 69 69 69 69 69 69 69 69 69 69 69 69 69 69 69 69 69 69 69 69 69 69 69 69 69 69 69 69 69 69 69 69 69 69 69 69 69 69 69 69 69 69 69 69 69 69 69 69 69 69 69 69 69 69 69 69 69 69 69 69 69 69 69 69 69 69 69 69 69 69 69 69 69 69 69 69 69 69 69 69 69 69 69 69 69 69 69 69 69 69 69 69 69 69 69 69 69 69 69 69 69 69 69 69 69 69 69 69 69 69 69 69 69 69 69 69 69 69 69 69 69 69 69 69 69 69 69 69 69 69 69 69 69 69 69 69 69 69 69 69 69 69 69 69 69 69 69 69 69 69 69 69 69 69 69 69 69 69 69 69 69 69 69 69 69 69 69 69 69 69 69 69 69 69 69 69 69 69 69 69 69 69 69 69 69 69 69 69 69 69 69 69 69 69 69 69 69 69 69 69 69 69 69 69 69 69 69 69 69 69 69 69 69 69 69 69 69 69 69 69 69 69 69 69 69 69 69 69 69 69 69 69 69 69 69 69 69 69 69 69 69 69 69 69 69 69 69 69 69 69 69 69 69 69 69 69 69 69 69 69 69 69 69 69 69 69 69 69 69 69 69 69 69 69 69 69 69 69 69 69 69 69 69 69 69 69 69 69 69 69 69 69 69 69 69 69 69 69 69 69 69 69 69 69 69 69 69 69 69 69 69 69 69 69 69 69 69 69 69 69 69 69 69 69 69 69 69 69 69 69 69 69 69 69 69 69 69 69 69 69 69 69 69 69 69 69 69 69 69 69 69 69 69 69 69 69 69 69 69 69 69 69 69 69 69 69 69 69 69 69 69 69 69 69 69 69 69 69 69 69 69 69 69 69 69 69 69 69 69 69 69 69 69 69 69 69 69 69 69 69 69 69 69 69 69 69 69 69 69 69 69 69 69 69 69 69 69 69 69 69 69 69 69 69 69 69 69 69 69 69 69 69 69 69 69 69 69 69 69 69 69 69 69 69 69 69 69 69 69 69 69 69 69 69 69 69 69 69 69 69 69 69 69 69 69 69 69 69 69 69 69 69 69 69 69 69 69 69 69 69 69 69 69 69 69 69 69 69 69 69 69 69 69 69 69 69 69 69 69 69 69 69 69 69 69 69 69 69 69 69 69 69 69 69 69 69 69 69 69 69 69 69 69 69 69 69 69 69 69 69 69 69 69 69 69 69 69 69 69 69 69 69 69 69 69 69 69 69 69 69 69 69 69 69 69 69 69 69 69 69 69 69 69 69 69 69 69 69 69 69 69 69 69 69 69 69 69 69 69 69 69 69 69 69 69 69 69 69 69 69 69 69 69 69 69 69 69 69 69 69 69 69 69 69 69 69 69 69 69 69 69 69 69 69 69 69 69 69 69 69 69 69 69 69 69 69 69 69 69 69 69 69 69 69 69 69 </DataArray>
      </Cells>
      <CellData Tensors="stress" Vectors="von_mises_stress">
        <DataArray type="UInt8" Name="vtkGhostType" format="ascii" RangeMin="0" RangeMax="1">0 0 0 0 0 0 0 0 0 0 0 0 0 0 0 0 0 0 0 0 0 0 0 0 0 0 0 0 0 0 0 0 0 0 0 0 0 0 0 0 0 0 0 0 0 0 0 0 0 0 0 0 0 0 0 0 0 0 0 0 0 0 0 0 0 0 0 0 0 0 0 0 0 0 0 0 0 0 0 0 0 0 0 0 0 0 0 0 0 0 0 0 0 0 0 0 0 0 0 0 0 0 0 0 0 0 0 0 0 0 0 0 0 0 0 0 0 0 0 0 0 0 0 0 0 0 0 0 0 0 0 0 0 0 0 0 0 0 0 0 0 0 0 0 0 0 0 0 0 0 0 0 0 0 0 0 0 0 0 0 0 0 0 0 0 0 0 0 0 0 0 0 0 0 0 0 0 0 0 0 0 0 0 0 0 0 0 0 0 0 0 0 0 0 0 0 0 0 0 0 0 0 0 0 0 0 0 0 0 0 0 0 0 0 0 0 0 0 0 0 0 0 0 0 0 0 0 0 0 0 0 0 0 0 0 0 0 0 0 0 0 0 0 0 0 0 0 0 0 0 0 0 0 0 0 0 0 0 0 0 0 0 0 0 0 0 0 0 0 0 0 0 0 0 0 0 0 0 0 0 0 0 0 0 0 0 0 0 0 0 0 0 0 0 0 0 0 0 0 0 0 0 0 0 0 0 0 0 0 0 0 0 0 0 0 0 0 0 0 0 0 0 0 0 0 0 0 0 0 0 0 0 0 0 0 0 0 0 0 0 0 0 0 0 0 0 0 0 0 0 0 0 0 0 0 0 0 0 0 0 0 0 0 0 0 0 0 0 0 0 0 0 0 0 0 0 0 0 0 0 0 0 0 0 0 0 0 0 0 0 0 0 0 0 0 0 0 0 0 0 0 0 0 0 0 0 0 0 0 0 0 0 0 0 0 0 0 0 0 0 0 0 0 0 0 0 0 0 0 0 0 0 0 0 0 0 0 0 0 0 0 0 0 0 0 0 0 0 0 0 0 0 0 0 0 0 0 0 0 0 0 0 0 0 0 0 0 0 0 0 0 0 0 0 0 0 0 0 0 0 0 0 0 0 0 0 0 0 0 0 0 0 0 0 0 0 0 0 0 0 0 0 0 0 0 0 0 0 0 0 0 0 0 0 0 0 0 0 0 0 0 0 0 0 0 0 0 0 0 0 0 0 0 0 0 0 0 0 0 0 0 0 0 0 0 0 0 0 0 0 0 0 0 0 0 0 0 0 0 0 0 0 0 0 0 0 0 0 0 0 0 0 0 0 0 0 0 0 0 0 0 0 0 0 0 0 0 0 0 0 0 0 0 0 0 0 0 0 0 0 0 0 0 0 0 0 0 0 0 0 0 0 0 0 0 0 0 0 0 0 0 0 0 0 0 0 0 0 0 0 0 0 0 0 0 0 0 0 0 0 0 0 0 0 0 0 0 0 0 0 0 0 0 0 0 0 0 0 0 0 0 0 0 0 0 0 0 0 0 0 0 0 0 0 0 0 0 0 0 0 0 0 0 0 0 0 0 0 0 0 0 0 0 0 0 0 0 0 0 0 0 0 0 0 0 0 0 0 0 0 0 0 0 0 0 0 0 0 0 0 0 0 0 0 0 0 0 0 0 0 0 0 0 0 0 0 0 0 0 0 0 0 0 0 0 0 0 0 0 0 0 0 0 0 0 0 0 0 0 0 0 0 0 0 0 0 0 0 0 0 0 0 0 0 0 0 0 0 0 0 0 0 0 0 0 0 0 0 0 0 0 0 0 0 0 0 0 0 0 0 0 0 0 0 0 0 0 0 0 0 0 0 0 0 0 0 0 0 0 0 0 0 0 0 0 0 0 0 0 0 0 0 0 0 0 0 0 0 0 0 0 0 0 0 0 0 0 0 0 0 0 0 0 0 0 0 0 0 0 0 0 0 0 0 0 0 0 0 0 0 0 0 0 0 0 0 0 0 0 0 0 0 0 0 0 0 0 0 0 0 0 0 0 0 0 0 0 0 0 0 0 0 0 0 0 0 0 0 0 0 0 0 0 0 0 0 0 0 0 0 0 0 0 0 0 0 0 0 0 0 0 0 0 0 0 0 0 0 0 0 0 0 0 0 0 0 0 0 0 0 0 0 0 0 0 0 0 0 0 0 0 0 0 0 0 0 0 0 0 0 0 0 0 0 0 0 0 0 0 0 0 0 0 0 0 0 0 0 0 0 0 0 0 0 0 0 0 0 0 0 0 0 0 0 0 0 0 0 0 0 0 0 0 0 0 0 0 0 0 0 0 0 0 0 0 0 0 0 0 0 0 0 0 0 0 0 0 0 0 0 0 0 0 0 0 0 0 0 0 0 0 0 0 0 0 0 0 0 0 0 0 0 0 0 0 0 0 0 0 0 0 0 0 0 0 0 0 0 0 0 0 0 0 0 0 0 0 0 0 0 0 0 0 0 0 0 0 0 0 0 0 0 0 0 0 0 0 0 0 0 0 0 0 0 0 0 0 0 0 0 0 0 0 0 0 0 0 0 0 0 0 0 0 0 0 0 0 0 0 0 0 0 0 0 0 0 0 0 0 0 0 0 0 0 0 0 0 0 0 0 0 0 0 0 0 0 0 0 0 0 0 0 0 0 0 0 0 0 0 0 0 0 0 0 0 0 0 0 0 0 0 0 0 0 0 0 0 0 0 0 0 0 0 0 0 0 0 0 0 0 0 0 0 0 0 0 0 0 0 0 0 0 0 0 0 0 0 0 0 0 0 0 0 0 0 0 0 0 0 0 0 0 0 0 0 0 0 0 0 0 0 0 0 0 0 0 0 0 0 0 0 0 0 0 0 0 0 0 0 0 0 0 0 0 0 0 0 0 0 0 0 0 0 0 0 0 0 0 0 0 0 0 0 0 0 0 0 0 0 0 0 0 0 0 0 0 0 0 0 0 0 0 0 0 0 0 0 0 0 0 0 0 0 0 0 0 0 0 0 0 0 0 0 0 0 0 0 0 0 0 0 0 0 0 0 0 0 0 0 0 0 0 0 0 0 0 0 0 0 0 0 0 0 0 0 0 0 0 0 0 0 0 0 0 0 0 0 0 0 0 0 0 0 0 0 0 0 0 0 0 0 0 0 0 0 0 0 0 0 0 0 0 0 0 0 0 0 0 0 0 0 0 0 0 0 0 0 0 0 0 0 0 0 0 0 0 0 0 0 0 0 0 0 0 0 0 0 0 0 0 0 0 0 0 0 0 0 0 0 0 0 0 0 0 0 0 0 0 0 0 0 0 0 0 0 0 0 0 0 0 0 0 0 0 0 0 0 0 0 0 0 0 0 0 0 0 0 0 0 0 0 0 0 0 0 0 0 0 0 0 0 0 0 0 0 0 0 0 0 0 0 0 0 0 0 0 0 0 0 0 0 0 0 0 0 0 0 0 0 0 0 0 0 0 0 0 0 0 0 0 0 0 0 0 0 0 0 0 0 0 0 0 0 0 0 0 0 0 0 0 0 0 0 0 0 0 0 0 0 0 0 0 0 0 0 0 0 0 0 0 0 0 0 0 0 0 0 0 0 0 0 0 0 0 0 0 0 0 0 0 0 0 0 0 0 0 0 0 0 0 0 0 0 0 0 0 0 0 0 0 0 0 0 0 0 0 0 0 0 0 0 0 0 0 0 0 0 0 0 0 0 0 0 0 0 0 0 0 0 0 0 0 0 0 0 0 0 0 0 0 0 0 0 0 0 0 0 0 0 0 0 0 0 0 0 0 0 0 0 0 0 0 0 0 0 0 0 0 0 0 0 0 0 0 0 0 0 0 0 0 0 0 0 0 0 0 0 0 0 0 0 0 0 0 0 0 0 0 0 0 0 0 0 0 0 0 0 0 0 0 0 0 0 0 0 0 0 0 0 0 0 0 0 0 0 0 0 0 0 0 0 0 0 0 0 0 0 0 0 0 0 0 0 0 0 0 0 0 0 0 0 0 0 0 0 0 0 0 0 0 0 0 0 0 0 0 0 0 0 0 0 0 0 0 0 0 0 0 0 0 0 0 0 0 0 0 0 0 0 0 0 0 0 0 0 0 0 0 0 0 0 0 0 0 0 0 0 0 0 0 0 0 0 0 0 0 0 0 0 0 0 0 0 0 0 0 0 0 0 0 0 0 0 0 0 0 0 0 0 0 0 0 0 0 0 0 0 0 0 0 0 0 0 0 0 0 0 0 0 0 0 0 0 0 0 0 0 0 0 0 0 0 0 0 0 0 0 0 0 0 0 0 0 0 0 0 0 0 0 0 0 0 0 0 0 0 0 0 0 0 0 0 0 0 0 0 0 0 0 0 0 0 0 0 0 0 0 0 0 0 0 0 0 0 0 0 0 0 0 0 0 0 0 0 0 0 0 0 0 0 0 0 0 0 0 0 0 0 0 0 0 0 0 0 0 0 0 0 0 0 0 0 0 0 0 0 0 0 0 0 0 0 0 0 0 0 0 0 0 0 0 0 0 0 0 0 0 0 0 0 0 0 0 0 0 0 0 0 0 0 0 0 0 0 0 0 0 0 0 0 0 0 0 0 0 0 0 0 0 0 0 0 0 0 0 0 0 0 0 0 0 0 0 0 0 0 0 0 0 0 0 0 0 0 0 0 0 0 0 0 0 0 0 0 0 0 0 0 0 0 0 0 0 0 0 0 0 0 0 0 0 0 0 0 0 0 0 0 0 0 0 0 0 0 0 0 0 0 0 0 0 0 0 0 0 0 0 0 0 0 0 0 0 0 0 0 0 0 0 0 0 0 0 0 0 0 0 0 0 0 0 0 0 0 0 0 0 0 0 0 0 0 0 0 0 0 0 0 0 0 0 0 0 0 0 0 0 0 0 0 0 0 0 0 0 0 0 0 0 0 0 0 0 0 0 0 0 0 0 0 0 0 0 0 0 0 0 0 0 0 0 0 0 0 0 0 0 0 0 0 0 0 0 0 0 0 0 0 0 0 0 0 0 0 0 0 0 0 0 0 0 0 0 0 0 0 0 0 0 0 0 0 0 0 0 0 0 0 0 0 0 0 0 0 0 0 0 0 0 0 0 0 0 0 0 0 0 0 0 0 0 0 0 0 0 0 0 0 0 0 0 0 0 0 0 0 0 0 0 0 0 0 0 0 0 0 0 0 0 0 0 0 0 0 0 0 0 0 0 0 0 0 0 0 0 0 0 0 0 0 0 0 0 0 0 0 0 0 0 0 0 0 0 0 0 0 0 0 0 0 0 0 0 0 0 0 0 0 0 0 0 0 0 0 0 0 0 0 0 0 0 0 0 0 0 0 0 0 0 0 0 0 0 0 0 0 0 0 0 0 0 0 0 0 0 0 0 0 0 0 0 0 0 0 0 0 0 0 0 0 0 0 0 0 0 0 0 0 0 0 0 0 0 0 0 0 0 0 0 0 0 0 0 0 0 0 0 0 0 0 0 0 0 0 0 0 0 0 0 0 0 0 0 0 0 0 0 0 0 0 0 0 0 0 0 0 0 0 0 0 0 0 0 0 0 0 0 0 0 0 0 0 0 0 0 0 0 0 0 0 0 0 0 0 0 0 0 0 0 0 0 0 0 0 0 0 0 0 0 0 0 0 0 0 0 0 0 0 0 0 0 0 0 0 0 0 0 0 0 0 0 0 0 0 0 0 0 0 0 0 0 0 0 0 0 0 0 0 0 0 0 0 0 0 0 0 0 0 0 0 0 0 0 0 0 0 0 0 0 0 0 0 0 0 0 0 0 0 0 0 0 0 0 0 0 0 0 0 0 0 0 0 0 0 0 0 0 0 0 0 0 0 0 0 0 0 0 0 0 0 0 0 0 0 0 0 0 0 0 0 0 0 0 0 0 0 0 0 0 0 0 0 0 0 0 0 0 0 0 0 0 0 0 0 0 0 0 0 0 0 0 0 0 0 0 0 0 0 0 0 0 0 0 0 0 0 0 0 0 0 0 0 0 0 0 0 0 0 0 0 0 0 0 0 0 0 0 0 0 0 0 0 0 0 0 0 0 0 0 0 0 0 0 0 0 0 0 0 0 0 0 0 0 0 0 0 0 0 0 0 0 0 0 0 0 0 0 0 0 0 0 0 0 0 0 0 0 0 0 0 0 0 0 0 0 0 0 0 0 0 0 0 0 0 0 0 0 0 0 0 0 0 0 0 0 0 0 0 0 0 0 0 0 0 0 0 0 0 0 0 0 0 0 0 0 0 0 0 0 0 0 0 0 0 0 0 0 0 0 0 0 0 0 0 0 0 0 0 0 0 0 0 0 0 0 0 0 0 0 0 0 0 0 0 0 0 0 0 0 0 0 0 0 0 0 0 0 0 0 0 0 0 0 0 0 0 0 0 0 0 0 0 0 0 0 0 0 0 0 0 0 0 0 0 0 0 0 0 0 0 0 0 0 0 0 0 0 0 0 0 0 0 0 0 0 0 0 0 0 0 0 0 0 0 0 0 0 0 0 0 0 0 0 0 0 0 0 0 0 0 0 0 0 0 0 0 0 0 0 0 0 0 0 0 0 0 0 0 0 0 0 0 0 0 0 0 0 0 0 0 0 0 0 0 0 0 0 0 0 0 0 0 0 0 0 0 0 0 0 0 0 0 0 0 0 0 0 0 0 0 0 0 0 0 0 0 0 0 0 0 0 0 0 0 0 0 0 0 0 0 0 0 0 0 0 0 0 0 0 0 0 0 0 0 0 0 0 0 0 0 0 0 0 0 0 0 0 0 0 0 0 0 0 0 0 0 0 0 0 0 0 0 0 0 0 0 0 0 0 0 0 0 0 0 0 0 0 0 0 0 0 0 0 0 0 0 0 0 0 0 0 0 0 0 0 0 0 0 0 0 0 0 0 0 0 0 0 0 0 0 0 0 0 0 0 0 0 0 0 0 0 0 0 0 0 0 0 0 0 0 0 0 0 0 0 0 0 0 0 0 0 0 0 0 0 0 0 0 0 0 0 0 0 0 0 0 0 0 0 0 0 0 0 0 0 0 0 0 0 0 0 0 0 0 0 0 0 0 0 0 0 0 0 0 0 0 0 0 0 0 0 0 0 0 0 0 0 0 0 0 0 0 0 0 0 0 0 0 0 0 0 0 0 0 0 0 0 0 0 0 0 0 0 0 0 0 0 0 0 0 0 0 0 0 0 0 0 0 0 0 0 0 0 0 0 0 0 0 0 0 0 0 0 0 0 0 0 0 0 0 0 0 0 0 0 0 0 0 0 0 0 0 0 0 0 0 0 0 0 0 0 0 0 0 0 0 0 0 0 0 0 0 0 0 0 0 0 0 0 0 0 0 0 0 0 0 0 0 0 0 0 0 0 0 0 0 0 0 0 0 0 0 0 0 0 0 0 0 0 0 0 0 0 0 0 0 0 0 0 0 0 0 0 0 0 0 0 0 0 0 0 0 0 0 0 0 0 0 0 0 0 0 0 0 0 0 0 0 0 0 0 0 0 0 0 0 0 0 0 0 0 0 0 0 0 0 0 0 0 0 0 0 0 0 0 0 0 0 0 0 0 0 0 0 0 0 0 0 0 0 0 0 0 0 0 0 0 0 0 0 0 0 0 0 0 0 0 0 0 0 0 0 0 0 0 0 0 0 0 0 0 0 0 0 0 0 0 0 0 0 0 0 0 0 0 0 0 0 0 0 0 0 0 0 0 0 0 0 0 0 0 0 0 0 0 0 0 0 0 0 0 0 0 0 0 0 0 0 0 0 0 0 0 0 0 0 0 0 0 0 0 0 0 0 0 0 0 0 0 0 0 0 0 0 0 0 0 0 0 0 0 0 0 0 0 0 0 0 0 0 0 0 0 0 0 0 0 0 0 0 0 0 0 0 0 0 0 0 0 0 0 0 0 0 0 0 0 0 0 0 0 0 0 0 0 0 0 0 0 0 0 0 0 0 0 0 0 0 0 0 0 0 0 0 0 0 0 0 0 0 0 0 0 0 0 0 0 0 0 0 0 0 0 0 0 0 0 0 0 0 0 0 0 0 0 0 0 0 0 0 0 0 0 0 0 0 0 0 0 0 0 0 0 0 0 0 0 0 0 0 0 0 0 0 0 0 0 0 0 0 0 0 0 0 0 0 0 0 0 0 0 0 0 0 0 0 0 0 0 0 0 0 0 0 0 0 0 0 0 0 0 0 0 0 0 0 0 0 0 0 0 0 0 0 0 0 0 0 0 0 0 0 0 0 0 0 0 0 0 0 0 0 0 0 0 0 0 0 0 0 0 0 0 0 0 0 0 0 0 0 0 0 0 0 0 0 0 0 0 0 0 0 0 0 0 0 0 0 0 0 0 0 0 0 0 0 0 0 0 0 0 0 0 0 0 0 0 0 0 0 0 0 0 0 0 0 0 0 0 0 0 0 0 0 0 0 0 0 0 0 0 0 0 0 0 0 0 0 0 0 0 0 0 0 0 0 0 0 0 0 0 0 0 0 0 0 0 0 0 0 0 0 0 0 0 0 0 0 0 0 0 0 0 0 0 0 0 0 0 0 0 0 0 0 0 0 0 0 0 0 0 0 0 0 0 0 0 0 0 0 0 0 0 0 0 0 0 0 0 0 0 0 0 0 0 0 0 0 0 0 0 0 0 0 0 0 0 0 0 0 0 0 0 0 0 0 0 0 0 0 0 0 0 0 0 0 0 0 0 0 0 0 0 0 0 0 0 0 0 0 0 0 0 0 0 0 0 0 0 0 0 0 0 0 0 0 0 0 0 0 0 0 0 0 0 0 0 0 0 0 0 0 0 0 0 0 0 0 0 0 0 0 0 0 0 0 0 0 0 0 0 0 0 0 0 0 0 0 0 0 0 0 0 0 0 0 0 0 0 0 0 0 0 0 0 0 0 0 0 0 0 0 0 0 0 0 0 0 0 0 0 0 0 0 0 0 0 0 0 0 0 0 0 0 0 0 0 0 0 0 0 0 0 0 0 0 0 0 0 0 0 0 0 0 0 0 0 0 0 0 0 0 0 0 0 0 0 0 0 0 0 0 0 0 0 0 0 0 0 0 0 0 0 0 0 0 0 0 0 0 0 0 0 0 0 0 0 0 0 0 0 0 0 0 0 0 0 0 0 0 0 0 0 0 0 0 0 0 0 0 0 0 0 0 0 0 0 0 0 0 0 0 0 0 0 0 0 0 0 0 0 0 0 0 0 0 0 0 0 0 0 0 0 0 0 0 0 0 0 0 0 0 0 0 0 0 0 0 0 0 0 0 0 0 0 0 0 0 0 0 0 0 0 0 0 0 0 0 0 0 0 0 0 0 0 0 0 0 0 0 0 0 0 0 0 0 0 0 0 0 0 0 0 0 0 0 0 0 0 0 0 0 0 0 0 0 0 0 0 0 0 0 0 0 0 0 0 0 0 0 0 0 0 0 0 0 0 0 0 0 0 0 0 0 0 0 0 0 0 0 0 0 0 0 0 0 0 0 0 0 0 0 0 0 0 0 0 0 0 0 0 0 0 0 0 0 0 0 0 0 0 0 0 0 0 0 0 0 0 0 0 0 0 0 0 0 0 0 0 0 0 0 0 0 0 0 0 0 0 0 0 0 0 0 0 0 0 0 0 0 0 0 0 0 0 0 0 0 0 0 0 0 0 0 0 0 0 0 0 0 0 0 0 0 0 0 0 0 0 0 0 0 0 0 0 0 0 0 0 0 0 0 0 0 0 0 0 0 0 0 0 0 0 0 0 0 0 0 0 0 0 0 0 0 0 0 0 0 0 0 0 0 0 0 0 0 0 0 0 0 0 0 0 0 0 0 0 0 0 0 0 0 0 0 0 0 0 0 0 0 0 0 0 0 0 0 0 0 0 0 0 0 0 0 0 0 0 0 0 0 0 0 0 0 0 0 0 0 0 0 0 0 0 0 0 0 0 0 0 0 0 0 0 0 0 0 0 0 0 0 0 0 0 0 0 0 0 0 0 0 0 0 0 0 0 0 0 0 0 0 0 0 0 0 0 0 0 0 0 0 0 0 0 0 0 0 0 0 0 0 0 0 0 0 0 0 0 0 0 0 0 0 0 0 0 0 0 0 0 0 0 0 0 0 0 0 0 0 0 0 0 0 0 0 0 0 0 0 0 0 0 0 0 0 0 0 0 0 0 0 0 0 0 0 0 0 0 0 0 0 0 0 0 0 0 0 0 0 0 0 0 0 0 0 0 0 0 0 0 0 0 0 0 0 0 0 0 0 0 0 0 0 0 0 0 0 0 0 0 0 0 0 0 0 0 0 0 0 0 0 0 0 0 0 0 0 0 0 0 0 0 0 0 0 0 0 0 0 0 0 0 0 0 0 0 0 0 0 0 0 0 0 0 0 0 0 0 0 0 0 0 0 0 0 0 0 0 0 0 0 0 0 0 0 0 0 0 0 0 0 0 0 0 0 0 0 0 0 0 0 0 0 0 0 0 0 0 0 0 0 0 0 0 0 0 0 0 0 0 0 0 0 0 0 0 0 0 0 0 0 0 0 0 0 0 0 0 0 0 0 0 0 0 0 0 0 0 0 0 0 0 0 0 0 0 0 0 0 0 0 0 0 0 0 0 0 0 0 0 0 0 0 0 0 0 0 0 0 0 0 0 0 0 0 0 0 0 0 0 0 0 0 0 0 0 0 0 0 0 0 0 0 0 0 0 0 0 0 0 0 0 0 0 0 0 0 0 0 0 0 0 0 0 0 0 0 0 0 0 0 0 0 0 0 0 0 0 0 0 0 0 0 0 0 0 0 0 0 0 0 0 0 0 0 0 0 0 0 0 0 0 0 0 0 0 0 0 0 0 0 0 0 0 0 0 0 0 0 0 0 0 0 0 0 0 0 0 0 0 0 0 0 0 0 0 0 0 0 0 0 0 0 0 0 0 0 0 0 0 0 0 0 0 0 0 0 0 0 0 0 0 0 0 0 0 0 0 0 0 0 0 0 0 0 0 0 0 0 0 0 0 0 0 0 0 0 0 0 0 0 0 0 0 0 0 0 0 0 0 0 0 0 0 0 0 0 0 0 0 0 0 0 0 0 0 0 0 0 0 0 0 0 0 0 0 0 0 0 0 0 0 0 0 0 0 0 0 0 0 0 0 0 0 0 0 0 0 0 0 0 0 0 0 0 0 0 0 0 0 0 0 0 0 0 0 0 0 0 0 0 0 0 0 0 0 0 0 0 0 0 0 0 0 0 0 0 0 0 0 0 0 0 0 0 0 0 0 0 0 0 0 0 0 0 0 0 0 0 0 0 0 0 0 0 0 0 0 0 0 0 0 0 0 0 0 0 0 0 0 0 0 0 0 0 0 0 0 0 0 0 0 0 0 0 0 0 0 0 0 0 0 0 0 0 0 0 0 0 0 0 0 0 0 0 0 0 0 0 0 0 0 0 0 0 0 0 0 0 0 0 0 0 0 0 0 0 0 0 0 0 0 0 0 0 0 0 0 0 0 0 0 0 0 0 0 0 0 0 0 0 0 0 0 0 0 0 0 0 0 0 0 0 0 0 0 0 0 0 0 0 0 0 0 0 0 0 0 0 0 0 0 0 0 0 0 0 0 0 0 0 0 0 0 0 0 0 0 0 0 0 0 0 0 0 0 0 0 0 0 0 0 0 0 0 0 0 0 0 0 0 0 0 0 0 0 0 0 0 0 0 0 0 0 0 0 0 0 0 0 0 0 0 0 0 0 0 0 0 0 0 0 0 0 0 0 0 0 0 0 0 0 0 0 0 0 0 0 0 0 0 0 0 0 0 0 0 0 0 0 0 0 0 0 0 0 0 0 0 0 0 0 0 0 0 0 0 0 0 0 0 0 0 0 0 0 0 0 0 0 0 0 0 0 0 0 0 0 0 0 0 0 0 0 0 0 0 0 0 0 0 0 0 0 0 0 0 0 0 0 0 0 0 0 0 0 0 0 0 0 0 0 0 0 0 0 0 0 0 0 0 0 0 0 0 0 0 0 0 0 0 0 0 0 0 0 0 0 0 0 0 0 0 0 0 0 0 0 0 0 0 0 0 0 0 0 0 0 0 0 0 0 0 0 0 0 0 0 0 0 0 0 0 0 0 0 0 0 0 0 0 0 0 0 0 0 0 0 0 0 0 0 0 0 0 0 0 0 0 0 0 0 0 0 0 0 0 0 0 0 0 0 0 0 0 0 0 0 0 0 0 0 0 0 0 0 0 0 0 0 0 0 0 0 0 0 0 0 0 0 0 0 0 0 0 0 0 0 0 0 0 0 0 0 0 0 0 0 0 0 0 0 0 0 0 0 0 0 0 0 0 0 0 0 0 0 0 0 0 0 0 0 0 0 0 0 0 0 0 0 0 0 0 0 0 0 0 0 0 0 0 0 0 0 0 0 0 0 0 0 0 0 0 0 0 0 0 0 0 0 0 0 0 0 0 0 0 0 0 0 0 0 0 0 0 0 0 0 0 0 0 0 0 0 0 0 0 0 0 0 0 0 0 0 0 0 0 0 0 0 0 0 0 0 0 0 0 0 0 0 0 0 0 0 0 0 0 0 0 0 0 0 0 0 0 0 0 0 0 0 0 0 0 0 0 0 0 0 0 0 0 0 0 0 0 0 0 0 0 0 0 0 0 0 0 0 0 0 0 0 0 0 0 0 0 0 0 0 0 0 0 0 0 0 0 0 0 0 0 0 0 0 0 0 0 0 0 0 0 0 0 0 0 0 0 0 0 0 0 0 0 0 0 0 0 0 0 0 0 0 0 0 0 0 0 0 0 0 0 0 0 0 0 0 0 0 0 0 0 0 0 0 0 0 0 0 0 0 0 0 0 0 0 0 0 0 0 0 0 0 0 0 0 0 0 0 0 0 0 0 0 0 0 0 0 0 0 0 0 0 0 0 0 0 0 0 0 0 0 0 0 0 0 0 0 0 0 0 0 0 0 0 0 0 0 0 0 0 0 0 0 0 0 0 0 0 0 0 0 0 0 0 0 0 0 0 0 0 0 0 0 0 0 0 0 0 0 0 0 0 0 0 0 0 0 0 0 0 0 0 0 0 0 0 0 0 0 0 0 0 0 0 0 0 0 0 0 0 0 0 0 0 0 0 0 0 0 0 0 0 0 0 0 0 0 0 0 0 0 0 0 0 0 0 0 0 0 0 0 0 0 0 0 0 0 0 0 0 0 0 0 0 0 0 0 0 0 0 0 0 0 0 0 0 0 0 0 0 0 0 0 0 0 0 0 0 0 0 0 0 0 0 0 0 0 0 0 0 0 0 0 0 0 0 0 0 0 0 0 0 0 0 0 0 0 0 0 0 0 0 0 0 0 0 0 0 0 0 0 0 0 0 0 0 0 0 0 0 0 0 0 0 0 0 0 0 0 0 0 0 0 0 0 0 0 0 0 0 0 0 0 0 0 0 0 0 0 0 0 0 0 0 0 0 0 0 0 0 0 0 0 0 0 0 0 0 0 0 0 0 0 0 0 0 0 0 0 0 0 0 0 0 0 0 0 0 0 0 0 0 0 0 0 0 0 0 0 0 0 0 0 0 0 0 0 0 0 0 0 0 0 0 0 0 0 0 0 0 0 0 0 0 0 0 0 0 0 0 0 0 0 0 0 0 0 0 0 0 0 0 0 0 0 0 0 0 0 0 0 0 0 0 0 0 0 0 0 0 0 0 0 0 0 0 0 0 0 0 0 0 0 0 0 0 0 0 0 0 0 0 0 0 0 0 0 0 0 0 0 0 0 0 0 0 0 0 0 0 0 0 0 0 0 0 0 0 0 0 0 0 0 0 0 0 0 0 0 0 0 0 0 0 0 0 0 0 0 0 0 0 0 0 0 0 0 0 0 0 0 0 0 0 0 0 0 0 0 0 0 0 0 0 0 0 0 0 0 0 0 0 0 0 0 0 0 0 0 0 0 0 0 0 0 0 0 0 0 0 0 0 0 0 0 0 0 0 0 0 0 0 0 0 0 0 0 0 0 0 0 0 0 0 0 0 0 0 0 0 0 0 0 0 0 0 0 0 0 0 0 0 0 0 0 0 0 0 0 0 0 0 0 0 0 0 0 0 0 0 0 0 0 0 0 0 0 0 0 0 0 0 0 0 0 0 0 0 0 0 0 0 0 0 0 0 0 0 0 0 0 0 0 0 0 0 0 0 0 0 0 0 0 0 0 0 0 0 0 0 0 0 0 0 0 0 0 0 0 0 0 0 0 0 0 0 0 0 0 0 0 0 0 0 0 0 0 0 0 0 0 0 0 0 0 0 0 0 0 0 0 0 0 0 0 0 0 0 0 0 0 0 0 0 0 0 0 0 0 0 0 0 0 0 0 0 0 0 0 0 0 0 0 0 0 0 0 0 0 0 0 0 0 0 0 0 0 0 0 0 0 0 0 0 0 0 0 0 0 0 0 0 0 0 0 0 0 0 0 0 0 0 0 0 0 0 0 0 0 0 0 0 0 0 0 0 0 0 0 0 0 0 0 0 0 0 0 0 0 0 0 0 0 0 0 0 0 0 0 0 0 0 0 0 0 0 0 0 0 0 0 0 0 0 0 0 0 0 0 0 0 0 0 0 0 0 0 0 0 0 0 0 0 0 0 0 0 0 0 0 0 0 0 0 0 0 0 0 0 0 0 0 0 0 0 0 0 0 0 0 0 0 0 0 0 0 0 0 0 0 0 0 0 0 0 0 0 0 0 0 0 0 0 0 0 0 0 0 0 0 0 0 0 0 0 0 0 0 0 0 0 0 0 0 0 0 0 0 0 0 0 0 0 0 0 0 0 0 0 0 0 0 0 0 0 0 0 0 0 0 0 0 0 0 0 0 0 0 0 0 0 0 0 0 0 0 0 0 0 0 0 0 0 0 0 0 0 0 0 0 0 0 0 0 0 0 0 0 0 0 0 0 0 0 0 0 0 0 0 0 0 0 0 0 0 0 0 0 0 0 0 0 0 0 0 0 0 0 0 0 0 0 0 0 0 0 0 0 0 0 0 0 0 0 0 0 0 0 0 0 0 0 0 0 0 0 0 0 0 0 0 0 0 0 0 0 0 0 0 0 0 0 0 0 0 0 0 0 0 0 0 0 0 0 0 0 0 0 0 0 0 0 0 0 0 0 0 0 0 0 0 0 0 0 0 0 0 0 0 0 0 0 0 0 0 0 0 0 0 0 0 0 0 0 0 0 0 0 0 0 0 0 0 0 0 0 0 0 0 0 0 0 0 0 0 0 0 0 0 0 0 0 0 0 0 0 0 0 0 0 0 0 0 0 0 0 0 0 0 0 0 0 0 0 0 0 0 0 0 0 0 0 0 0 0 0 0 0 0 0 0 0 0 0 0 0 0 0 0 0 0 0 0 0 0 0 0 0 0 0 0 0 0 0 0 0 0 0 0 0 0 0 0 0 0 0 0 0 0 0 0 0 0 0 0 0 0 0 0 0 0 0 0 0 0 0 0 0 0 0 0 0 0 0 0 0 0 0 0 0 0 0 0 0 0 0 0 0 0 0 0 0 0 0 0 0 0 0 0 0 0 0 0 0 0 0 0 0 0 0 0 0 0 0 0 0 0 0 0 0 0 0 0 0 0 0 0 0 0 0 0 0 0 0 0 0 0 0 0 0 0 0 0 0 0 0 0 0 0 0 0 0 0 0 0 0 0 0 0 0 0 0 0 0 0 0 0 0 0 0 0 0 0 0 0 0 0 0 0 0 0 0 0 0 0 0 0 0 0 0 0 0 0 0 0 0 0 0 0 0 0 0 0 0 0 0 0 0 0 0 0 0 0 0 0 0 0 0 0 0 0 0 0 0 0 0 0 0 0 0 0 0 0 0 0 0 0 0 0 0 0 0 0 0 0 0 0 0 0 0 0 0 0 0 0 0 0 0 0 0 0 0 0 0 0 0 0 0 0 0 0 0 0 0 0 0 0 0 0 0 0 0 0 0 0 0 0 0 0 0 0 0 0 0 0 0 0 0 0 0 0 0 0 0 0 0 0 0 0 0 0 0 0 0 0 0 0 0 0 0 0 0 0 0 0 0 0 0 0 0 0 0 0 0 0 0 0 0 0 0 0 0 0 0 0 0 0 0 0 0 0 0 0 0 0 0 0 0 0 0 0 0 0 0 0 0 0 0 0 0 0 0 0 0 0 0 0 0 0 0 0 0 0 0 0 0 0 0 0 0 0 0 0 0 0 0 0 0 0 0 0 0 0 0 0 0 0 0 0 0 0 0 0 0 0 0 0 0 0 0 0 0 0 0 0 0 0 0 0 0 0 0 0 0 0 0 0 0 0 0 0 0 0 0 0 0 0 0 0 0 0 0 0 0 0 0 0 0 0 0 0 0 0 0 0 0 0 0 0 0 0 0 0 0 0 0 0 0 0 0 0 0 0 0 0 0 0 0 0 0 0 0 0 0 0 0 0 0 0 0 0 0 0 0 0 0 0 0 0 0 0 0 0 0 0 0 0 0 0 0 0 0 0 0 0 0 0 0 0 0 0 0 0 0 0 0 0 0 0 0 0 0 0 0 0 0 0 0 0 0 0 0 0 0 0 0 0 0 0 0 0 0 0 0 0 0 0 0 0 0 0 0 0 0 0 0 0 0 0 0 0 0 0 0 0 0 0 0 0 0 0 0 0 0 0 0 0 0 0 0 0 0 0 0 0 0 0 0 0 0 0 0 0 0 0 0 0 0 0 0 0 0 0 0 0 0 0 0 0 0 0 0 0 0 0 0 0 0 0 0 0 0 0 0 0 0 0 0 0 0 0 0 0 0 0 0 0 0 0 0 0 0 0 0 0 0 0 0 0 0 0 0 0 0 0 0 0 0 0 0 0 0 0 0 0 0 0 0 0 0 0 0 0 0 0 0 0 0 0 0 0 0 0 0 0 0 0 0 0 0 0 0 0 0 0 0 0 0 0 0 0 0 0 0 0 0 0 0 0 0 0 0 0 0 0 0 0 0 0 0 0 0 0 0 0 0 0 0 0 0 0 0 0 0 0 0 0 0 0 0 0 0 0 0 0 0 0 0 0 0 0 0 0 0 0 0 0 0 0 0 0 0 0 0 0 0 0 0 0 0 0 0 0 0 0 0 0 0 0 0 0 0 0 0 0 0 0 0 0 0 0 0 0 0 0 0 0 0 0 0 0 0 0 0 0 0 0 0 0 0 0 0 0 0 0 0 0 0 0 0 0 0 0 0 0 0 0 0 0 0 0 0 0 0 0 0 0 0 0 0 0 0 0 0 0 0 0 0 0 0 0 0 0 0 0 0 0 0 0 0 0 0 0 0 0 0 0 0 0 0 0 0 0 0 0 0 0 0 0 0 0 0 0 0 0 0 0 0 0 0 0 0 0 0 0 0 0 0 0 0 0 0 0 0 0 0 0 0 0 0 0 0 0 0 0 0 0 0 0 0 0 0 0 0 0 0 0 0 0 0 0 0 0 0 0 0 0 0 0 0 0 0 0 0 0 0 0 0 0 0 0 0 0 0 0 0 0 0 0 0 0 0 0 0 0 0 0 0 0 0 0 0 0 0 0 0 0 0 0 0 0 0 0 0 0 0 0 0 0 0 0 0 0 0 0 0 0 0 0 0 0 0 0 0 0 0 0 0 0 0 0 0 0 0 0 0 0 0 0 0 0 0 0 0 0 0 0 0 0 0 0 0 0 0 0 0 0 0 0 0 0 0 0 0 0 0 0 0 0 0 0 0 0 0 0 0 0 0 0 0 0 0 0 0 0 0 0 0 0 0 0 0 0 0 0 0 0 0 0 0 0 0 0 0 0 0 0 0 0 0 0 0 0 0 0 0 0 0 0 0 0 0 0 0 0 0 0 0 0 0 0 0 0 0 0 0 0 0 0 0 0 0 0 0 0 0 0 0 0 0 0 0 0 0 0 0 0 0 0 0 0 0 0 0 0 0 0 0 0 0 0 0 0 0 0 0 0 0 0 0 0 0 0 0 0 0 0 0 0 0 0 0 0 0 0 0 0 0 0 0 0 0 0 0 0 0 0 0 0 0 0 0 0 0 0 0 0 0 0 0 0 0 0 0 0 0 0 0 0 0 0 0 0 0 0 0 0 0 0 0 0 0 0 0 0 0 0 0 0 0 0 0 0 0 0 0 0 0 0 0 0 0 0 0 0 0 0 0 0 0 0 0 0 0 0 0 0 0 0 0 0 0 0 0 0 0 0 0 0 0 0 0 0 0 0 0 0 0 0 0 0 0 0 0 0 0 0 0 0 0 0 0 0 0 0 0 0 0 0 0 0 0 0 0 0 0 0 0 0 0 0 0 0 0 0 0 0 0 0 0 0 0 0 0 0 0 0 0 0 0 0 0 0 0 0 0 0 0 0 0 0 0 0 0 0 0 0 0 0 0 0 0 0 0 0 0 0 0 0 0 0 0 0 0 0 0 0 0 0 0 0 0 0 0 0 0 0 0 0 0 0 0 0 0 0 0 0 0 0 0 0 0 0 0 0 0 0 0 0 0 0 0 0 0 0 0 0 0 0 0 0 0 0 0 0 0 0 0 0 0 0 0 0 0 0 0 0 0 0 0 0 0 0 0 0 0 0 0 0 0 0 0 0 0 0 0 0 0 0 0 0 0 0 0 0 0 0 0 0 0 0 0 0 0 0 0 0 0 0 0 0 0 0 0 0 0 0 0 0 0 0 0 0 0 0 0 0 0 0 0 0 0 0 0 0 0 0 0 0 0 0 0 0 0 0 0 0 0 0 0 0 0 0 0 0 0 0 0 0 0 0 0 0 0 0 0 0 0 0 0 0 0 0 0 0 0 0 0 0 0 0 0 0 0 0 0 0 0 0 0 0 0 0 0 0 0 0 0 0 0 0 0 0 0 0 0 0 0 0 0 0 0 0 0 0 0 0 0 0 0 0 0 0 0 0 0 0 0 0 0 0 0 0 0 0 0 0 0 0 0 0 0 0 0 0 0 0 0 0 0 0 0 0 0 0 0 0 0 0 0 0 0 0 0 0 0 0 0 0 0 0 0 0 0 0 0 0 0 0 0 0 0 0 0 0 0 0 0 0 0 0 0 0 0 0 0 0 0 0 0 0 0 0 0 0 0 0 0 0 0 0 0 0 0 0 0 0 0 0 0 0 0 0 0 0 0 0 0 0 0 0 0 0 0 0 0 0 0 0 0 0 0 0 0 0 0 0 0 0 0 0 0 0 0 0 0 0 0 0 0 0 0 0 0 0 0 0 0 0 0 0 0 0 0 0 0 0 0 0 0 0 0 0 0 0 0 0 0 0 0 0 0 0 0 0 0 0 0 0 0 0 0 0 0 0 0 0 0 0 0 0 0 0 0 0 0 0 0 0 0 0 0 0 0 0 0 0 0 0 0 0 0 0 0 0 0 0 0 0 0 0 0 0 0 0 0 0 0 0 0 0 0 0 0 0 0 0 0 0 0 0 0 0 0 0 0 0 0 0 0 0 0 0 0 0 0 0 0 0 0 0 0 0 0 0 0 0 0 0 0 0 0 0 0 0 0 0 0 0 0 0 0 0 0 0 0 0 0 0 0 0 0 0 0 0 0 0 0 0 0 0 0 0 0 0 0 0 0 0 0 0 0 0 0 0 0 0 0 0 0 0 0 0 0 0 0 0 0 0 0 0 0 0 0 0 0 0 0 0 0 0 0 0 0 0 0 0 0 0 0 0 0 0 0 0 0 0 0 0 0 0 0 0 0 0 0 0 0 0 0 0 0 0 0 0 0 0 0 0 0 0 0 0 0 0 0 0 0 0 0 0 0 0 0 0 0 0 0 0 0 0 0 0 0 0 0 0 0 0 0 0 0 0 0 0 0 0 0 0 0 0 0 0 0 0 0 0 0 0 0 0 0 0 0 0 0 0 0 0 0 0 0 0 0 0 0 0 0 0 0 0 0 0 0 0 0 0 0 0 0 0 0 0 0 0 0 0 0 0 0 0 0 0 0 0 0 0 0 0 0 0 0 0 0 0 0 0 0 0 0 0 0 0 0 0 0 0 0 0 0 0 0 0 0 0 0 0 0 0 0 0 0 0 0 0 0 0 0 0 0 0 0 0 0 0 0 0 0 0 0 0 0 0 0 0 0 0 0 0 0 0 0 0 0 0 0 0 0 0 0 0 0 0 0 0 0 0 0 0 0 0 0 0 0 0 0 0 0 0 0 0 0 0 0 0 0 0 0 0 0 0 0 0 0 0 0 0 0 0 0 0 0 0 0 0 0 0 0 0 0 0 0 0 0 0 0 0 0 0 0 0 0 0 0 0 0 0 0 0 0 0 0 0 0 0 0 0 0 0 0 0 0 0 0 0 0 0 0 0 0 0 0 0 0 0 0 0 0 0 0 0 0 0 0 0 0 0 0 0 0 0 0 0 0 0 0 0 0 0 0 0 0 0 0 0 0 0 0 0 0 0 0 0 0 0 0 0 0 0 0 0 0 0 0 0 0 0 0 0 0 0 0 0 0 0 0 0 0 0 0 0 0 0 0 0 0 0 0 0 0 0 0 0 0 0 0 0 0 0 0 0 0 0 0 0 0 0 0 0 0 0 0 0 0 0 0 0 0 0 0 0 0 0 0 0 0 0 0 0 0 0 0 0 0 0 0 0 0 0 0 0 0 0 0 0 0 0 0 0 0 0 0 0 0 0 0 0 0 0 0 0 0 0 0 0 0 0 0 0 0 0 0 0 0 0 0 0 0 0 0 0 0 0 0 0 0 0 0 0 0 0 0 0 0 0 0 0 0 0 0 0 0 0 0 0 0 0 0 0 0 0 0 0 0 0 0 0 0 0 0 0 0 0 0 0 0 0 0 0 0 0 0 0 0 0 0 0 0 0 0 0 0 0 0 0 0 0 0 0 0 0 0 0 0 0 0 0 0 0 0 0 0 0 0 0 0 0 0 0 0 0 0 0 0 0 0 0 0 0 0 0 0 0 0 0 0 0 0 0 0 0 0 0 0 0 0 0 0 0 0 0 0 0 0 0 0 0 0 0 0 0 0 0 0 0 0 0 0 0 0 0 0 0 0 0 0 0 0 0 0 0 0 0 0 0 0 0 0 0 0 0 0 0 0 0 0 0 0 0 0 0 0 0 0 0 0 0 0 0 0 0 0 0 0 0 0 0 0 0 0 0 0 0 0 0 0 0 0 0 0 0 0 0 0 0 0 0 0 0 0 0 0 0 0 0 0 0 0 0 0 0 0 0 0 0 0 0 0 0 0 0 0 0 0 0 0 0 0 0 0 0 0 0 0 0 0 0 0 0 0 0 0 0 0 0 0 0 0 0 0 0 0 0 0 0 0 0 0 0 0 0 0 0 0 0 0 0 0 0 0 0 0 0 0 0 0 0 0 0 0 0 0 0 0 0 0 0 0 0 0 0 0 0 0 0 0 0 0 0 0 0 0 0 0 0 0 0 0 0 0 0 0 0 0 0 0 0 0 0 0 0 0 0 0 0 0 0 0 0 0 0 0 0 0 0 0 0 0 0 0 0 0 0 0 0 0 0 0 0 0 0 0 0 0 0 0 0 0 0 0 0 0 0 0 0 0 0 0 0 0 0 0 0 0 0 0 0 0 0 0 0 0 0 0 0 0 0 0 0 0 0 0 0 0 0 0 0 0 0 0 0 0 0 0 0 0 0 0 0 0 0 0 0 0 0 0 0 0 0 0 0 0 0 0 0 0 0 0 0 0 0 0 0 0 0 0 0 0 0 0 0 0 0 0 0 0 0 0 0 0 0 0 0 0 0 0 0 0 0 0 0 0 0 0 0 0 0 0 0 0 0 0 0 0 0 0 0 0 0 0 0 0 0 0 0 0 0 0 0 0 0 0 0 0 0 0 0 0 0 0 0 0 0 0 0 0 0 0 0 0 0 0 0 0 0 0 0 0 0 0 0 0 0 0 0 0 0 0 0 0 0 0 0 0 0 0 0 0 0 0 0 0 0 0 0 0 0 0 0 0 0 0 0 0 0 0 0 0 0 0 0 0 0 0 0 0 0 0 0 0 0 0 0 0 0 0 0 0 0 0 0 0 0 0 0 0 0 0 0 0 0 0 0 0 0 0 0 0 0 0 0 0 0 0 0 0 0 0 0 0 0 0 0 0 0 0 0 0 0 0 0 0 0 0 0 0 0 0 0 0 0 0 0 0 0 0 0 0 0 0 0 0 0 0 0 0 0 0 0 0 0 0 0 0 0 0 0 0 0 0 0 0 0 0 0 0 0 0 0 0 0 0 0 0 0 0 0 0 0 0 0 0 0 0 0 0 0 0 0 0 0 0 0 0 0 0 0 0 0 0 0 0 0 0 0 0 0 0 0 0 0 0 0 0 0 0 0 0 0 0 0 0 0 0 0 0 0 0 0 0 0 0 0 0 0 0 0 0 0 0 0 0 0 0 0 0 0 0 0 0 0 0 0 0 0 0 0 0 0 0 0 0 0 0 0 0 0 0 0 0 0 0 0 0 0 0 0 0 0 0 0 0 0 0 0 0 0 0 0 0 0 0 0 0 0 0 0 0 0 0 0 0 0 0 0 0 0 0 0 0 0 0 0 0 0 0 0 0 0 0 0 0 0 0 0 0 0 0 0 0 0 0 0 0 0 0 0 0 0 0 0 0 0 0 0 0 0 0 0 0 0 0 0 0 0 0 0 0 0 0 0 0 0 0 0 0 0 0 0 0 0 0 0 0 0 0 0 0 0 0 0 0 0 0 0 0 0 0 0 0 0 0 0 0 0 0 0 0 0 0 0 0 0 0 0 0 0 0 0 0 0 0 0 0 0 0 0 0 0 0 0 0 0 0 0 0 0 0 0 0 0 0 0 0 0 0 0 0 0 0 0 0 0 0 0 0 0 0 0 0 0 0 0 0 0 0 0 0 0 0 0 0 0 0 0 0 0 0 0 0 0 0 0 0 0 0 0 0 0 0 0 0 0 0 0 0 0 0 0 0 0 0 0 0 0 0 0 0 0 0 0 0 0 0 0 0 0 0 0 0 0 0 0 0 0 0 0 0 0 0 0 0 0 0 0 0 0 0 0 0 0 0 0 0 0 0 0 0 0 0 0 0 0 0 0 0 0 0 0 0 0 0 0 0 0 0 0 0 0 0 0 0 0 0 0 0 0 0 0 0 0 0 0 0 0 0 0 0 0 0 0 0 0 0 0 0 0 0 0 0 0 0 0 0 0 0 0 0 0 0 0 0 0 0 0 0 0 0 0 0 0 0 0 0 0 0 0 0 0 0 0 0 0 0 0 0 0 0 0 0 0 0 0 0 0 0 0 0 0 0 0 0 0 0 0 0 0 0 0 0 0 0 0 0 0 0 0 0 0 0 0 0 0 0 0 0 0 0 0 0 0 0 0 0 0 0 0 0 0 0 0 0 0 0 0 0 0 0 0 0 0 0 0 0 0 0 0 0 0 0 0 0 0 0 0 0 0 0 0 0 0 0 0 0 0 0 0 0 0 0 0 0 0 0 0 0 0 0 0 0 0 0 0 0 0 0 0 0 0 0 0 0 0 0 0 0 0 0 0 0 0 0 0 0 0 0 0 0 0 0 0 0 0 0 0 0 0 0 0 0 0 0 0 0 0 0 0 0 0 0 0 0 0 0 0 0 0 0 0 0 0 0 0 0 0 0 0 0 0 0 0 0 0 0 0 0 0 0 0 0 0 0 0 0 0 0 0 0 0 0 0 0 0 0 0 0 0 0 0 0 0 0 0 0 0 0 0 0 0 0 0 0 0 0 0 0 0 0 0 0 0 0 0 0 0 0 0 0 0 0 0 0 0 0 0 0 0 0 0 0 0 0 0 0 0 0 0 0 0 0 0 0 0 0 0 0 0 0 0 0 0 0 0 0 0 0 0 0 0 0 0 0 0 0 0 0 0 0 0 0 0 0 0 0 0 0 0 0 0 0 0 0 0 0 0 0 0 0 0 0 0 0 0 0 0 0 0 0 0 0 0 0 0 0 0 0 0 0 0 0 0 0 0 0 0 0 0 0 0 0 0 0 0 0 0 0 0 0 0 0 0 0 0 0 0 0 0 0 0 0 0 0 0 0 0 0 0 0 0 0 0 0 0 0 0 0 0 0 0 0 0 0 0 0 0 0 0 0 0 0 0 0 0 0 0 0 0 0 0 0 0 0 0 0 0 0 0 0 0 0 0 0 0 0 0 0 0 0 0 0 0 0 0 0 0 0 0 0 0 0 0 0 0 0 0 0 0 0 0 0 0 0 0 0 0 0 0 0 0 0 0 0 0 0 0 0 0 0 0 0 0 0 0 0 0 0 0 0 0 0 0 0 0 0 0 0 0 0 0 0 0 0 0 0 0 0 0 0 0 0 0 0 0 0 0 0 0 0 0 0 0 0 0 0 0 0 0 0 0 0 0 0 0 0 0 0 0 0 0 0 0 0 0 0 0 0 0 0 0 0 0 0 0 0 0 0 0 0 0 0 0 0 0 0 0 0 0 0 0 0 0 0 0 0 0 0 0 0 0 0 0 0 0 0 0 0 0 0 0 0 0 0 0 0 0 0 0 0 0 0 0 0 0 0 0 0 0 0 0 0 0 0 0 0 0 0 0 0 0 0 0 0 0 0 0 0 0 0 0 0 0 0 0 0 0 0 0 0 0 0 0 0 0 0 0 0 0 0 0 0 0 0 0 0 0 0 0 0 0 0 0 0 0 0 0 0 0 0 0 0 0 0 0 0 0 0 0 0 0 0 0 0 0 0 0 0 0 0 0 0 0 0 0 0 0 0 0 0 0 0 0 0 0 0 0 0 0 0 0 0 0 0 0 0 0 0 0 0 0 0 0 0 0 0 0 0 0 0 0 0 0 0 0 0 0 0 0 0 0 0 0 0 0 0 0 0 0 0 0 0 0 0 0 0 0 0 0 0 0 0 0 0 0 0 0 0 0 0 0 0 0 0 0 0 0 0 0 0 0 0 0 0 0 0 0 0 0 0 0 0 0 0 0 0 0 0 0 0 0 0 0 0 0 0 0 0 0 0 0 0 0 0 0 0 0 0 0 0 0 0 0 0 0 0 0 0 0 0 0 0 0 0 0 0 0 0 0 0 0 0 0 0 0 0 0 0 0 0 0 0 0 0 0 0 0 0 0 0 0 0 0 0 0 0 0 0 0 0 0 0 0 0 0 0 0 0 0 0 0 0 0 0 0 0 0 0 0 0 0 0 0 0 0 0 0 0 0 0 0 0 0 0 0 0 0 0 0 0 0 0 0 0 0 0 0 0 0 0 0 0 0 0 0 0 0 0 0 0 0 0 0 0 0 0 0 0 0 0 0 0 0 0 0 0 0 0 0 0 0 0 0 0 0 0 0 0 0 0 0 0 0 0 0 0 0 0 0 0 0 0 0 0 0 0 0 0 0 0 0 0 0 0 0 0 0 0 0 0 0 0 0 0 0 0 0 0 0 0 0 0 0 0 0 0 0 0 0 0 0 0 0 0 0 0 0 0 0 0 0 0 0 0 0 0 0 0 0 0 0 0 0 0 0 0 0 0 0 0 0 0 0 0 0 0 0 0 0 0 0 0 0 0 0 0 0 0 0 0 0 0 0 0 0 0 0 0 0 0 0 0 0 0 0 0 0 0 0 0 0 0 0 0 0 0 0 0 0 0 0 0 0 0 0 0 0 0 0 0 0 0 0 0 0 0 0 0 0 0 0 0 0 0 0 0 0 0 0 0 0 0 0 0 0 0 0 0 0 0 0 0 0 0 0 0 0 0 0 0 0 0 0 0 0 0 0 0 0 0 0 0 0 0 0 0 0 0 0 0 0 0 0 0 0 0 0 0 0 0 0 0 0 0 0 0 0 0 0 0 0 0 0 0 0 0 0 0 0 0 0 0 0 0 0 0 0 0 0 0 0 0 0 0 0 0 0 0 0 0 0 0 0 0 0 0 0 0 0 0 0 0 0 0 0 0 0 0 0 0 0 0 0 0 0 0 0 0 0 0 0 0 0 0 0 0 0 0 0 0 0 0 0 0 0 0 0 0 0 0 0 0 0 0 0 0 0 0 0 0 0 0 0 0 0 0 0 0 0 0 0 0 0 0 0 0 0 0 0 0 0 0 0 0 0 0 0 0 0 0 0 0 0 0 0 0 0 0 0 0 0 0 0 0 0 0 0 0 0 0 0 0 0 0 0 0 0 0 0 0 0 0 0 0 0 0 0 0 0 0 0 0 0 0 0 0 0 0 0 0 0 0 0 0 0 0 0 0 0 0 0 0 0 0 0 0 0 0 0 0 0 0 0 0 0 0 0 0 0 0 0 0 0 0 0 0 0 0 0 0 0 0 0 0 0 0 0 0 0 0 0 0 0 0 0 0 0 0 0 0 0 0 0 0 0 0 0 0 0 0 0 0 0 0 0 0 0 0 0 0 0 0 0 0 0 0 0 0 0 0 0 0 0 0 0 0 0 0 0 0 0 0 0 0 0 0 0 0 0 0 0 0 0 0 0 0 0 0 0 0 0 0 0 0 0 0 0 0 0 0 0 0 0 0 0 0 0 0 0 0 0 0 0 0 0 0 0 0 0 0 0 0 0 0 0 0 0 0 0 0 0 0 0 0 0 0 0 0 0 0 0 0 0 0 0 0 0 0 0 0 0 0 0 0 0 0 0 0 0 0 0 0 0 0 0 0 0 0 0 0 0 0 0 0 0 0 0 0 0 0 0 0 0 0 0 0 0 0 0 0 0 0 0 0 0 0 0 0 0 0 0 0 0 0 0 0 0 0 0 0 0 0 0 0 0 0 0 0 0 0 0 0 0 0 0 0 0 0 0 0 0 0 0 0 0 0 0 0 0 0 0 0 0 0 0 0 0 0 0 0 0 0 0 0 0 0 0 0 0 0 0 0 0 0 0 0 0 0 0 0 0 0 0 0 0 0 0 0 0 0 0 0 0 0 0 0 0 0 0 0 0 0 0 0 0 0 0 0 0 0 0 0 0 0 0 0 0 0 0 0 0 0 0 0 0 0 0 0 0 0 0 0 0 0 0 0 0 0 0 0 0 0 0 0 0 0 0 0 0 0 0 0 0 0 0 0 0 0 0 0 0 0 0 0 0 0 0 0 0 0 0 0 0 0 0 0 0 0 0 0 0 0 0 0 0 0 0 0 0 0 0 0 0 0 0 0 0 0 0 0 0 0 0 0 0 0 0 0 0 0 0 0 0 0 0 0 0 0 0 0 0 0 0 0 0 0 0 0 0 0 0 0 0 0 0 0 0 0 0 0 0 0 0 0 0 0 0 0 0 0 0 0 0 0 0 0 0 0 0 0 0 0 0 0 0 0 0 0 0 0 0 0 0 0 0 0 0 0 0 0 0 0 0 0 0 0 0 0 0 0 0 0 0 0 0 0 0 0 0 0 0 0 0 0 0 0 0 0 0 0 0 0 0 0 0 0 0 0 0 0 0 0 0 0 0 0 0 0 0 0 0 0 0 0 0 0 0 0 0 0 0 0 0 0 0 0 0 0 0 0 0 0 0 0 0 0 0 0 0 0 0 0 0 0 0 0 0 0 0 0 0 0 0 0 0 0 0 0 0 0 0 0 0 0 0 0 0 0 0 0 0 0 0 0 0 0 0 0 0 0 0 0 0 0 0 0 0 0 0 0 0 0 0 0 0 0 0 0 0 0 0 0 0 0 0 0 0 0 0 0 0 0 0 0 0 0 0 0 0 0 0 0 0 0 0 0 0 0 0 0 0 0 0 0 0 0 0 0 0 0 0 0 0 0 0 0 0 0 0 0 0 0 0 0 0 0 0 0 0 0 0 0 0 0 0 0 0 0 0 0 0 0 0 0 0 0 0 0 0 0 0 0 0 0 0 0 0 0 0 0 0 0 0 0 0 0 0 0 0 0 0 0 0 0 0 0 0 0 0 0 0 0 0 0 0 0 0 0 0 0 0 0 0 0 0 0 0 0 0 0 0 0 0 0 0 0 0 0 0 0 0 0 0 0 0 0 0 0 0 0 0 0 0 0 0 0 0 0 0 0 0 0 0 0 0 0 0 0 0 0 0 0 0 0 0 0 0 0 0 0 0 0 0 0 0 0 0 0 0 0 0 0 0 0 0 0 0 0 0 0 0 0 0 0 0 0 0 0 0 0 0 0 0 0 0 0 0 0 0 0 0 0 0 0 0 0 0 0 0 0 0 0 0 0 0 0 0 0 0 0 0 0 0 0 0 0 0 0 0 0 0 0 0 0 0 0 0 0 0 0 0 0 0 0 0 0 0 0 0 0 0 0 0 0 0 0 0 0 0 0 0 0 0 0 0 0 0 0 0 0 0 0 0 0 0 0 0 0 0 0 0 0 0 0 0 0 0 0 0 0 0 0 0 0 0 0 0 0 0 0 0 0 0 0 0 0 0 0 0 0 0 0 0 0 0 0 0 0 0 0 0 0 0 0 0 0 0 0 0 0 0 0 0 0 0 0 0 0 0 0 0 0 0 0 0 0 0 0 0 0 0 0 0 0 0 0 0 0 0 0 0 0 0 0 0 0 0 0 0 0 0 0 0 0 0 0 0 0 0 0 0 0 0 0 0 0 0 0 0 0 0 0 0 0 0 0 0 0 0 0 0 0 0 0 0 0 0 0 0 0 0 0 0 0 0 0 0 0 0 0 0 0 0 0 0 0 0 0 0 0 0 0 0 0 0 0 0 0 0 0 0 0 0 0 0 0 0 0 0 0 0 0 0 0 0 0 0 0 0 0 0 0 0 0 0 0 0 0 0 0 0 0 0 0 0 0 0 0 0 0 0 0 0 0 0 0 0 0 0 0 0 0 0 0 0 0 0 0 0 0 0 0 0 0 0 0 0 0 0 0 0 0 0 0 0 0 0 0 0 0 0 0 0 0 0 0 0 0 0 0 0 0 0 0 0 0 0 0 0 0 0 0 0 0 0 0 0 0 0 0 0 0 0 0 0 0 0 0 0 0 0 0 0 0 0 0 0 0 0 0 0 0 0 0 0 0 0 0 0 0 0 0 0 0 0 0 0 0 0 0 0 0 0 0 0 0 0 0 0 0 0 0 0 0 0 0 0 0 0 0 0 0 0 0 0 0 0 0 0 0 0 0 0 0 0 0 0 0 0 0 0 0 0 0 0 0 0 0 0 0 0 0 0 0 0 0 0 0 0 0 0 0 0 0 0 0 0 0 0 0 0 0 0 0 0 0 0 0 0 0 0 0 0 0 0 0 0 0 0 0 0 0 0 0 0 0 0 0 0 0 0 0 0 0 0 0 0 0 0 0 0 0 0 0 0 0 0 0 0 0 0 0 0 0 0 0 0 0 0 0 0 0 0 0 0 0 0 0 0 0 0 0 0 0 0 0 0 0 0 0 0 0 0 0 0 0 0 0 0 0 0 0 0 0 0 0 0 0 0 0 0 0 0 0 0 0 0 0 0 0 0 0 0 0 0 0 0 0 0 0 0 0 0 0 0 0 0 0 0 0 0 0 0 0 0 0 0 0 0 0 0 0 0 0 0 0 0 0 0 0 0 0 0 0 0 0 0 0 0 0 0 0 0 0 0 0 0 0 0 0 0 0 0 0 0 0 0 0 0 0 0 0 0 0 0 0 0 0 0 0 0 0 0 0 0 0 0 0 0 0 0 0 0 0 0 0 0 0 0 0 0 0 0 0 0 0 0 0 0 0 0 0 0 0 0 0 0 0 0 0 0 0 0 0 0 0 0 0 0 0 0 0 0 0 0 0 0 0 0 0 0 0 0 0 0 0 0 0 0 0 0 0 0 0 0 0 0 0 0 0 0 0 0 0 0 0 0 0 0 0 0 0 0 0 0 0 0 0 0 0 0 0 0 0 0 0 0 0 0 0 0 0 0 0 0 0 0 0 0 0 0 0 0 0 0 0 0 0 0 0 0 0 0 0 0 0 0 0 0 0 0 0 0 0 0 0 0 0 0 0 0 0 0 0 0 0 0 0 0 0 0 0 0 0 0 0 0 0 0 0 0 0 0 0 0 0 0 0 0 0 0 0 0 0 0 0 0 0 0 0 0 0 0 0 0 0 0 0 0 0 0 0 0 0 0 0 0 0 0 0 0 0 0 0 0 0 0 0 0 0 0 0 0 0 0 0 0 0 0 0 0 0 0 0 0 0 0 0 0 0 0 0 0 0 0 0 0 0 0 0 0 0 0 0 0 0 0 0 0 0 0 0 0 0 0 0 0 0 0 0 0 0 0 0 0 0 0 0 0 0 0 0 0 0 0 0 0 0 0 0 0 0 0 0 0 0 0 0 0 0 0 0 0 0 0 0 0 0 0 0 0 0 0 0 0 0 0 0 0 0 0 0 0 0 0 0 0 0 0 0 0 0 0 0 0 0 0 0 0 0 0 0 0 0 0 0 0 0 0 0 0 0 0 0 0 0 0 0 0 0 0 0 0 0 0 0 0 0 0 0 0 0 0 0 0 0 0 0 0 0 0 0 0 0 0 0 0 0 0 0 0 0 0 0 0 0 0 0 0 0 0 0 0 0 0 0 0 0 0 0 0 0 0 0 0 0 0 0 0 0 0 0 0 0 0 0 0 0 0 0 0 0 0 0 0 0 0 0 0 0 0 0 0 0 0 0 0 0 0 0 0 0 0 0 0 0 0 0 0 0 0 0 0 0 0 0 0 0 0 0 0 0 0 0 0 0 0 0 0 0 0 0 0 0 0 0 0 0 0 0 0 0 0 0 0 0 0 0 0 0 0 0 0 0 0 0 0 0 0 0 0 0 0 0 0 0 0 0 0 0 0 0 0 0 0 0 0 0 0 0 0 0 0 0 0 0 0 0 0 0 0 0 0 0 0 0 0 0 0 0 0 0 0 0 0 0 0 0 0 0 0 0 0 0 0 0 0 0 0 0 0 0 0 0 0 0 0 0 0 0 0 0 0 0 0 0 0 0 0 0 0 0 0 0 0 0 0 0 0 0 0 0 0 0 0 0 0 0 0 </DataArray>
        <DataArray type="Int64" IdType="1" Name="vtkOriginalCellIds" format="ascii" RangeMin="0" RangeMax="13803">0 1 2 3 4 5 6 7 8 9 10 11 12 13 14 15 16 17 18 19 20 21 22 23 24 25 26 27 28 29 30 31 32 33 34 35 36 37 38 39 40 41 42 43 44 45 46 47 48 49 50 51 52 53 54 55 56 57 58 59 60 61 62 63 64 65 66 67 68 69 70 71 72 73 74 75 76 77 78 79 80 81 82 83 84 85 86 87 88 89 90 91 92 93 94 95 96 97 98 99 100 101 102 103 104 105 106 107 108 109 110 111 112 113 114 115 116 117 118 119 120 121 122 123 124 125 126 127 128 129 130 131 132 133 134 135 136 137 138 139 140 141 142 143 144 145 146 147 148 149 150 151 152 153 154 155 156 157 158 159 160 161 162 163 164 165 166 167 168 169 170 171 172 173 174 175 176 177 178 179 180 181 182 183 184 185 186 187 188 189 190 191 192 193 194 195 196 197 198 199 200 201 202 203 204 205 206 207 208 209 210 211 212 213 214 215 216 217 218 219 220 221 222 223 224 225 226 227 228 229 230 231 232 233 234 235 236 237 238 239 240 241 242 243 244 245 246 247 248 249 250 251 252 253 254 255 256 257 258 259 260 261 262 263 264 265 266 267 268 269 270 271 272 273 274 275 276 277 278 279 280 281 282 283 284 285 286 287 288 289 290 291 292 293 294 295 296 297 298 299 300 301 302 303 304 305 306 307 308 309 310 311 312 313 314 315 316 317 318 319 320 321 322 323 324 325 326 327 328 329 330 331 332 333 334 335 336 337 338 339 340 341 342 343 344 345 346 347 348 349 350 351 352 353 354 355 356 357 358 359 360 361 362 363 364 365 366 367 368 369 370 371 372 373 374 375 376 377 378 379 380 381 382 383 384 385 386 387 388 389 390 391 392 393 394 395 396 397 398 399 400 401 402 403 404 405 406 407 408 409 410 411 412 413 414 415 416 417 418 419 420 421 422 423 424 425 426 427 428 429 430 431 432 433 434 435 436 437 438 439 440 441 442 443 444 445 446 447 448 449 450 451 452 453 454 455 456 457 458 459 460 461 462 463 464 465 466 467 468 469 470 471 472 473 474 475 476 477 478 479 480 481 482 483 484 485 486 487 488 489 490 491 492 493 494 495 496 497 498 499 500 501 502 503 504 505 506 507 508 509 510 511 512 513 514 515 516 517 518 519 520 521 522 523 524 525 526 527 528 529 530 531 532 533 534 535 536 537 538 539 540 541 542 543 544 545 546 547 548 549 550 551 552 553 554 555 556 557 558 559 560 561 562 563 564 565 566 567 568 569 570 571 572 573 574 575 576 577 578 579 580 581 582 583 584 585 586 587 588 589 590 591 592 593 594 595 596 597 598 599 600 601 602 603 604 605 606 607 608 609 610 611 612 613 614 615 616 617 618 619 620 621 622 623 624 625 626 627 628 629 630 631 632 633 634 635 636 637 638 639 640 641 642 643 644 645 646 647 648 649 650 651 652 653 654 655 656 657 658 659 660 661 662 663 664 665 666 667 668 669 670 671 672 673 674 675 676 677 678 679 680 681 682 683 684 685 686 687 688 689 690 691 692 693 694 695 696 697 698 699 700 701 702 703 704 705 706 707 708 709 710 711 712 713 714 715 716 717 718 719 720 721 722 723 724 725 726 727 728 729 730 731 732 733 734 735 736 737 738 739 740 741 742 743 744 745 746 747 748 749 750 751 752 753 754 755 756 757 758 759 760 761 762 763 764 765 766 767 768 769 770 771 772 773 774 775 776 777 778 779 780 781 782 783 784 785 786 787 788 789 790 791 792 793 794 795 796 797 798 799 800 801 802 803 804 805 806 807 808 809 810 811 812 813 814 815 816 817 818 819 820 821 822 823 824 825 826 827 828 829 830 831 832 833 834 835 836 837 838 839 840 841 842 843 844 845 846 847 848 849 850 851 852 853 854 855 856 857 858 859 860 861 862 863 864 865 866 867 868 869 870 871 872 873 874 875 876 877 878 879 880 881 882 883 884 885 886 887 888 889 890 891 892 893 894 895 896 897 898 899 900 901 902 903 904 905 906 907 908 909 910 911 912 913 914 915 916 917 918 919 920 921 922 923 924 925 926 927 928 929 930 931 932 933 934 935 936 937 938 939 940 941 942 943 944 945 946 947 948 949 950 951 952 953 954 955 956 957 958 959 960 961 962 963 964 965 966 967 968 969 970 971 972 973 974 975 976 977 978 979 980 981 982 983 984 985 986 987 988 989 990 991 992 993 994 995 996 997 998 999 1000 1001 1002 1003 1004 1005 1006 1007 1008 1009 1010 1011 1012 1013 1014 1015 1016 1017 1018 1019 1020 1021 1022 1023 1024 1025 1026 1027 1028 1029 1030 1031 1032 1033 1034 1035 1036 1037 1038 1039 1040 1041 1042 1043 1044 1045 1046 1047 1048 1049 1050 1051 1052 1053 1054 1055 1056 1057 1058 1059 1060 1061 1062 1063 1064 1065 1066 1067 1068 1069 1070 1071 1072 1073 1074 1075 1076 1077 1078 1079 1080 1081 1082 1083 1084 1085 1086 1087 1088 1089 1090 1091 1092 1093 1094 1095 1096 1097 1098 1099 1100 1101 1102 1103 1104 1105 1106 1107 1108 1109 1110 1111 1112 1113 1114 1115 1116 1117 1118 1119 1120 1121 1122 1123 1124 1125 1126 1127 1128 1129 1130 1131 1132 1133 1134 1135 1136 1137 1138 1139 1140 1141 1142 1143 1144 1145 1146 1147 1148 1149 1150 1151 1152 1153 1154 1155 1156 1157 1158 1159 1160 1161 1162 1163 1164 1165 1166 1167 1168 1169 1170 1171 1172 1173 1174 1175 1176 1177 1178 1179 1180 1181 1182 1183 1184 1185 1186 1187 1188 1189 1190 1191 1192 1193 1194 1195 1196 1197 1198 1199 1200 1201 1202 1203 1204 1205 1206 1207 1208 1209 1210 1211 1212 1213 1214 1215 1216 1217 1218 1219 1220 1221 1222 1223 1224 1225 1226 1227 1228 1229 1230 1231 1232 1233 1234 1235 1236 1237 1238 1239 1240 1241 1242 1243 1244 1245 1246 1247 1248 1249 1250 1251 1252 1253 1254 1255 1256 1257 1258 1259 1260 1261 1262 1263 1264 1265 1266 1267 1268 1269 1270 1271 1272 1273 1274 1275 1276 1277 1278 1279 1280 1281 1282 1283 1284 1285 1286 1287 1288 1289 1290 1291 1292 1293 1294 1295 1296 1297 1298 1299 1300 1301 1302 1303 1304 1305 1306 1307 1308 1309 1310 1311 1312 1313 1314 1315 1316 1317 1318 1319 1320 1321 1322 1323 1324 1325 1326 1327 1328 1329 1330 1331 1332 1333 1334 1335 1336 1337 1338 1339 1340 1341 1342 1343 1344 1345 1346 1347 1348 1349 1350 1351 1352 1353 1354 1355 1356 1357 1358 1359 1360 1361 1362 1363 1364 1365 1366 1367 1368 1369 1370 1371 1372 1373 1374 1375 1376 1377 1378 1379 1380 1381 1382 1383 1384 1385 1386 1387 1388 1389 1390 1391 1392 1393 1394 1395 1396 1397 1398 1399 1400 1401 1402 1403 1404 1405 1406 1407 1408 1409 1410 1411 1412 1413 1414 1415 1416 1417 1418 1419 1420 1421 1422 1423 1424 1425 1426 1427 1428 1429 1430 1431 1432 1433 1434 1435 1436 1437 1438 1439 1440 1441 1442 1443 1444 1445 1446 1447 1448 1449 1450 1451 1452 1453 1454 1455 1456 1457 1458 1459 1460 1461 1462 1463 1464 1465 1466 1467 1468 1469 1470 1471 1472 1473 1474 1475 1476 1477 1478 1479 1480 1481 1482 1483 1484 1485 1486 1487 1488 1489 1490 1491 1492 1493 1494 1495 1496 1497 1498 1499 1500 1501 1502 1503 1504 1505 1506 1507 1508 1509 1510 1511 1512 1513 1514 1515 1516 1517 1518 1519 1520 1521 1522 1523 1524 1525 1526 1527 1528 1529 1530 1531 1532 1533 1534 1535 1536 1537 1538 1539 1540 1541 1542 1543 1544 1545 1546 1547 1548 1549 1550 1551 1552 1553 1554 1555 1556 1557 1558 1559 1560 1561 1562 1563 1564 1565 1566 1567 1568 1569 1570 1571 1572 1573 1574 1575 1576 1577 1578 1579 1580 1581 1582 1583 1584 1585 1586 1587 1588 1589 1590 1591 1592 1593 1594 1595 1596 1597 1598 1599 1600 1601 1602 1603 1604 1605 1606 1607 1608 1609 1610 1611 1612 1613 1614 1615 1616 1617 1618 1619 1620 1621 1622 1623 1624 1625 1626 1627 1628 1629 1630 1631 1632 1633 1634 1635 1636 1637 1638 1639 1640 1641 1642 1643 1644 1645 1646 1647 1648 1649 1650 1651 1652 1653 1654 1655 1656 1657 1658 1659 1660 1661 1662 1663 1664 1665 1666 1667 1668 1669 1670 1671 1672 1673 1674 1675 1676 1677 1678 1679 1680 1681 1682 1683 1684 1685 1686 1687 1688 1689 1690 1691 1692 1693 1694 1695 1696 1697 1698 1699 1700 1701 1702 1703 1704 1705 1706 1707 1708 1709 1710 1711 1712 1713 1714 1715 1716 1717 1718 1719 1720 1721 1722 1723 1724 1725 1726 1727 1728 1729 1730 1731 1732 1733 1734 1735 1736 1737 1738 1739 1740 1741 1742 1743 1744 1745 1746 1747 1748 1749 1750 1751 1752 1753 1754 1755 1756 1757 1758 1759 1760 1761 1762 1763 1764 1765 1766 1767 1768 1769 1770 1771 1772 1773 1774 1775 1776 1777 1778 1779 1780 1781 1782 1783 1784 1785 1786 1787 1788 1789 1790 1791 1792 1793 1794 1795 1796 1797 1798 1799 1800 1801 1802 1803 1804 1805 1806 1807 1808 1809 1810 1811 1812 1813 1814 1815 1816 1817 1818 1819 1820 1821 1822 1823 1824 1825 1826 1827 1828 1829 1830 1831 1832 1833 1834 1835 1836 1837 1838 1839 1840 1841 1842 1843 1844 1845 1846 1847 1848 1849 1850 1851 1852 1853 1854 1855 1856 1857 1858 1859 1860 1861 1862 1863 1864 1865 1866 1867 1868 1869 1870 1871 1872 1873 1874 1875 1876 1877 1878 1879 1880 1881 1882 1883 1884 1885 1886 1887 1888 1889 1890 1891 1892 1893 1894 1895 1896 1897 1898 1899 1900 1901 1902 1903 1904 1905 1906 1907 1908 1909 1910 1911 1912 1913 1914 1915 1916 1917 1918 1919 1920 1921 1922 1923 1924 1925 1926 1927 1928 1929 1930 1931 1932 1933 1934 1935 1936 1937 1938 1939 1940 1941 1942 1943 1944 1945 1946 1947 1948 1949 1950 1951 1952 1953 1954 1955 1956 1957 1958 1959 1960 1961 1962 1963 1964 1965 1966 1967 1968 1969 1970 1971 1972 1973 1974 1975 1976 1977 1978 1979 1980 1981 1982 1983 1984 1985 1986 1987 1988 1989 1990 1991 1992 1993 1994 1995 1996 1997 1998 1999 2000 2001 2002 2003 2004 2005 2006 2007 2008 2009 2010 2011 2012 2013 2014 2015 2016 2017 2018 2019 2020 2021 2022 2023 2024 2025 2026 2027 2028 2029 2030 2031 2032 2033 2034 2035 2036 2037 2038 2039 2040 2041 2042 2043 2044 2045 2046 2047 2048 2049 2050 2051 2052 2053 2054 2055 2056 2057 2058 2059 2060 2061 2062 2063 2064 2065 2066 2067 2068 2069 2070 2071 2072 2073 2074 2075 2076 2077 2078 2079 2080 2081 2082 2083 2084 2085 2086 2087 2088 2089 2090 2091 2092 2093 2094 2095 2096 2097 2098 2099 2100 2101 2102 2103 2104 2105 2106 2107 2108 2109 2110 2111 2112 2113 2114 2115 2116 2117 2118 2119 2120 2121 2122 2123 2124 2125 2126 2127 2128 2129 2130 2131 2132 2133 2134 2135 2136 2137 2138 2139 2140 2141 2142 2143 2144 2145 2146 2147 2148 2149 2150 2151 2152 2153 2154 2155 2156 2157 2158 2159 2160 2161 2162 2163 2164 2165 2166 2167 2168 2169 2170 2171 2172 2173 2174 2175 2176 2177 2178 2179 2180 2181 2182 2183 2184 2185 2186 2187 2188 2189 2190 2191 2192 2193 2194 2195 2196 2197 2198 2199 2200 2201 2202 2203 2204 2205 2206 2207 2208 2209 2210 2211 2212 2213 2214 2215 2216 2217 2218 2219 2220 2221 2222 2223 2224 2225 2226 2227 2228 2229 2230 2231 2232 2233 2234 2235 2236 2237 2238 2239 2240 2241 2242 2243 2244 2245 2246 2247 2248 2249 2250 2251 2252 2253 2254 2255 2256 2257 2258 2259 2260 2261 2262 2263 2264 2265 2266 2267 2268 2269 2270 2271 2272 2273 2274 2275 2276 2277 2278 2279 2280 2281 2282 2283 2284 2285 2286 2287 2288 2289 2290 2291 2292 2293 2294 2295 2296 2297 2298 2299 2300 2301 2302 2303 2304 2305 2306 2307 2308 2309 2310 2311 2312 2313 2314 2315 2316 2317 2318 2319 2320 2321 2322 2323 2324 2325 2326 2327 2328 2329 2330 2331 2332 2333 2334 2335 2336 2337 2338 2339 2340 2341 2342 2343 2344 2345 2346 2347 2348 2349 2350 2351 2352 2353 2354 2355 2356 2357 2358 2359 2360 2361 2362 2363 2364 2365 2366 2367 2368 2369 2370 2371 2372 2373 2374 2375 2376 2377 2378 2379 2380 2381 2382 2383 2384 2385 2386 2387 2388 2389 2390 2391 2392 2393 2394 2395 2396 2397 2398 2399 2400 2401 2402 2403 2404 2405 2406 2407 2408 2409 2410 2411 2412 2413 2414 2415 2416 2417 2418 2419 2420 2421 2422 2423 2424 2425 2426 2427 2428 2429 2430 2431 2432 2433 2434 2435 2436 2437 2438 2439 2440 2441 2442 2443 2444 2445 2446 2447 2448 2449 2450 2451 2452 2453 2454 2455 2456 2457 2458 2459 2460 2461 2462 2463 2464 2465 2466 2467 2468 2469 2470 2471 2472 2473 2474 2475 2476 2477 2478 2479 2480 2481 2482 2483 2484 2485 2486 2487 2488 2489 2490 2491 2492 2493 2494 2495 2496 2497 2498 2499 2500 2501 2502 2503 2504 2505 2506 2507 2508 2509 2510 2511 2512 2513 2514 2515 2516 2517 2518 2519 2520 2521 2522 2523 2524 2525 2526 2527 2528 2529 2530 2531 2532 2533 2534 2535 2536 2537 2538 2539 2540 2541 2542 2543 2544 2545 2546 2547 2548 2549 2550 2551 2552 2553 2554 2555 2556 2557 2558 2559 2560 2561 2562 2563 2564 2565 2566 2567 2568 2569 2570 2571 2572 2573 2574 2575 2576 2577 2578 2579 2580 2581 2582 2583 2584 2585 2586 2587 2588 2589 2590 2591 2592 2593 2594 2595 2596 2597 2598 2599 2600 2601 2602 2603 2604 2605 2606 2607 2608 2609 2610 2611 2612 2613 2614 2615 2616 2617 2618 2619 2620 2621 2622 2623 2624 2625 2626 2627 2628 2629 2630 2631 2632 2633 2634 2635 2636 2637 2638 2639 2640 2641 2642 2643 2644 2645 2646 2647 2648 2649 2650 2651 2652 2653 2654 2655 2656 2657 2658 2659 2660 2661 2662 2663 2664 2665 2666 2667 2668 2669 2670 2671 2672 2673 2674 2675 2676 2677 2678 2679 2680 2681 2682 2683 2684 2685 2686 2687 2688 2689 2690 2691 2692 2693 2694 2695 2696 2697 2698 2699 2700 2701 2702 2703 2704 2705 2706 2707 2708 2709 2710 2711 2712 2713 2714 2715 2716 2717 2718 2719 2720 2721 2722 2723 2724 2725 2726 2727 2728 2729 2730 2731 2732 2733 2734 2735 2736 2737 2738 2739 2740 2741 2742 2743 2744 2745 2746 2747 2748 2749 2750 2751 2752 2753 2754 2755 2756 2757 2758 2759 2760 2761 2762 2763 2764 2765 2766 2767 2768 2769 2770 2771 2772 2773 2774 2775 2776 2777 2778 2779 2780 2781 2782 2783 2784 2785 2786 2787 2788 2789 2790 2791 2792 2793 2794 2795 2796 2797 2798 2799 2800 2801 2802 2803 2804 2805 2806 2807 2808 2809 2810 2811 2812 2813 2814 2815 2816 2817 2818 2819 2820 2821 2822 2823 2824 2825 2826 2827 2828 2829 2830 2831 2832 2833 2834 2835 2836 2837 2838 2839 2840 2841 2842 2843 2844 2845 2846 2847 2848 2849 2850 2851 2852 2853 2854 2855 2856 2857 2858 2859 2860 2861 2862 2863 2864 2865 2866 2867 2868 2869 2870 2871 2872 2873 2874 2875 2876 2877 2878 2879 2880 2881 2882 2883 2884 2885 2886 2887 2888 2889 2890 2891 2892 2893 2894 2895 2896 2897 2898 2899 2900 2901 2902 2903 2904 2905 2906 2907 2908 2909 2910 2911 2912 2913 2914 2915 2916 2917 2918 2919 2920 2921 2922 2923 2924 2925 2926 2927 2928 2929 2930 2931 2932 2933 2934 2935 2936 2937 2938 2939 2940 2941 2942 2943 2944 2945 2946 2947 2948 2949 2950 2951 2952 2953 2954 2955 2956 2957 2958 2959 2960 2961 2962 2963 2964 2965 2966 2967 2968 2969 2970 2971 2972 2973 2974 2975 2976 2977 2978 2979 2980 2981 2982 2983 2984 2985 2986 2987 2988 2989 2990 2991 2992 2993 2994 2995 2996 2997 2998 2999 3000 3001 3002 3003 3004 3005 3006 3007 3008 3009 3010 3011 3012 3013 3014 3015 3016 3017 3018 3019 3020 3021 3022 3023 3024 3025 3026 3027 3028 3029 3030 3031 3032 3033 3034 3035 3036 3037 3038 3039 3040 3041 3042 3043 3044 3045 3046 3047 3048 3049 3050 3051 3052 3053 3054 3055 3056 3057 3058 3059 3060 3061 3062 3063 3064 3065 3066 3067 3068 3069 3070 3071 3072 3073 3074 3075 3076 3077 3078 3079 3080 3081 3082 3083 3084 3085 3086 3087 3088 3089 3090 3091 3092 3093 3094 3095 3096 3097 3098 3099 3100 3101 3102 3103 3104 3105 3106 3107 3108 3109 3110 3111 3112 3113 3114 3115 3116 3117 3118 3119 3120 3121 3122 3123 3124 3125 3126 3127 3128 3129 3130 3131 3132 3133 3134 3135 3136 3137 3138 3139 3140 3141 3142 3143 3144 3145 3146 3147 3148 3149 3150 3151 3152 3153 3154 3155 3156 3157 3158 3159 3160 3161 3162 3163 3164 3165 3166 3167 3168 3169 3170 3171 3172 3173 3174 3175 3176 3177 3178 3179 3180 3181 3182 3183 3184 3185 3186 3187 3188 3189 3190 3191 3192 3193 3194 3195 3196 3197 3198 3199 3200 3201 3202 3203 3204 3205 3206 3207 3208 3209 3210 3211 3212 3213 3214 3215 3216 3217 3218 3219 3220 3221 3222 3223 3224 3225 3226 3227 3228 3229 3230 3231 3232 3233 3234 3235 3236 3237 3238 3239 3240 3241 3242 3243 3244 3245 3246 3247 3248 3249 3250 3251 3252 3253 3254 3255 3256 3257 3258 3259 3260 3261 3262 3263 3264 3265 3266 3267 3268 3269 3270 3271 3272 3273 3274 3275 3276 3277 3278 3279 3280 3281 3282 3283 3284 3285 3286 3287 3288 3289 3290 3291 3292 3293 3294 3295 3296 3297 3298 3299 3300 3301 3302 3303 3304 3305 3306 3307 3308 3309 3310 3311 3312 3313 3314 3315 3316 3317 3318 3319 3320 3321 3322 3323 3324 3325 3326 3327 3328 3329 3330 3331 3332 3333 3334 3335 3336 3337 3338 3339 3340 3341 3342 3343 3344 3345 3346 3347 3348 3349 3350 3351 3352 3353 3354 3355 3356 3357 3358 3359 3360 3361 3362 3363 3364 3365 3366 3367 3368 3369 3370 3371 3372 3373 3374 3375 3376 3377 3378 3379 3380 3381 3382 3383 3384 3385 3386 3387 3388 3389 3390 3391 3392 3393 3394 3395 3396 3397 3398 3399 3400 3401 3402 3403 3404 3405 3406 3407 3408 3409 3410 3411 3412 3413 3414 3415 3416 3417 3418 3419 3420 3421 3422 3423 3424 3425 3426 3427 3428 3429 3430 3431 3432 3433 3434 3435 3436 3437 3438 3439 3440 3441 3442 3443 3444 3445 3446 3447 3448 3449 3450 3451 3452 3453 3454 3455 3456 3457 3458 3459 3460 3461 3462 3463 3464 3465 3466 3467 3468 3469 3470 3471 3472 3473 3474 3475 3476 3477 3478 3479 3480 3481 3482 3483 3484 3485 3486 3487 3488 3489 3490 3491 3492 3493 3494 3495 3496 3497 3498 3499 3500 3501 3502 3503 3504 3505 3506 3507 3508 3509 3510 3511 3512 3513 3514 3515 3516 3517 3518 3519 3520 3521 3522 3523 3524 3525 3526 3527 3528 3529 3530 3531 3532 3533 3534 3535 3536 3537 3538 3539 3540 3541 3542 3543 3544 3545 3546 3547 3548 3549 3550 3551 3552 3553 3554 3555 3556 3557 3558 3559 3560 3561 3562 3563 3564 3565 3566 3567 3568 3569 3570 3571 3572 3573 3574 3575 3576 3577 3578 3579 3580 3581 3582 3583 3584 3585 3586 3587 3588 3589 3590 3591 3592 3593 3594 3595 3596 3597 3598 3599 3600 3601 3602 3603 3604 3605 3606 3607 3608 3609 3610 3611 3612 3613 3614 3615 3616 3617 3618 3619 3620 3621 3622 3623 3624 3625 3626 3627 3628 3629 3630 3631 3632 3633 3634 3635 3636 3637 3638 3639 3640 3641 3642 3643 3644 3645 3646 3647 3648 3649 3650 3651 3652 3653 3654 3655 3656 3657 3658 3659 3660 3661 3662 3663 3664 3665 3666 3667 3668 3669 3670 3671 3672 3673 3674 3675 3676 3677 3678 3679 3680 3681 3682 3683 3684 3685 3686 3687 3688 3689 3690 3691 3692 3693 3694 3695 3696 3697 3698 3699 3700 3701 3702 3703 3704 3705 3706 3707 3708 3709 3710 3711 3712 3713 3714 3715 3716 3717 3718 3719 3720 3721 3722 3723 3724 3725 3726 3727 3728 3729 3730 3731 3732 3733 3734 3735 3736 3737 3738 3739 3740 3741 3742 3743 3744 3745 3746 3747 3748 3749 3750 3751 3752 3753 3754 3755 3756 3757 3758 3759 3760 3761 3762 3763 3764 3765 3766 3767 3768 3769 3770 3771 3772 3773 3774 3775 3776 3777 3778 3779 3780 3781 3782 3783 3784 3785 3786 3787 3788 3789 3790 3791 3792 3793 3794 3795 3796 3797 3798 3799 3800 3801 3802 3803 3804 3805 3806 3807 3808 3809 3810 3811 3812 3813 3814 3815 3816 3817 3818 3819 3820 3821 3822 3823 3824 3825 3826 3827 3828 3829 3830 3831 3832 3833 3834 3835 3836 3837 3838 3839 3840 3841 3842 3843 3844 3845 3846 3847 3848 3849 3850 3851 3852 3853 3854 3855 3856 3857 3858 3859 3860 3861 3862 3863 3864 3865 3866 3867 3868 3869 3870 3871 3872 3873 3874 3875 3876 3877 3878 3879 3880 3881 3882 3883 3884 3885 3886 3887 3888 3889 3890 3891 3892 3893 3894 3895 3896 3897 3898 3899 3900 3901 3902 3903 3904 3905 3906 3907 3908 3909 3910 3911 3912 3913 3914 3915 3916 3917 3918 3919 3920 3921 3922 3923 3924 3925 3926 3927 3928 3929 3930 3931 3932 3933 3934 3935 3936 3937 3938 3939 3940 3941 3942 3943 3944 3945 3946 3947 3948 3949 3950 3951 3952 3953 3954 3955 3956 3957 3958 3959 3960 3961 3962 3963 3964 3965 3966 3967 3968 3969 3970 3971 3972 3973 3974 3975 3976 3977 3978 3979 3980 3981 3982 3983 3984 3985 3986 3987 3988 3989 3990 3991 3992 3993 3994 3995 3996 3997 3998 3999 4000 4001 4002 4003 4004 4005 4006 4007 4008 4009 4010 4011 4012 4013 4014 4015 4016 4017 4018 4019 4020 4021 4022 4023 4024 4025 4026 4027 4028 4029 4030 4031 4032 4033 4034 4035 4036 4037 4038 4039 4040 4041 4042 4043 4044 4045 4046 4047 4048 4049 4050 4051 4052 4053 4054 4055 4056 4057 4058 4059 4060 4061 4062 4063 4064 4065 4066 4067 4068 4069 4070 4071 4072 4073 4074 4075 4076 4077 4078 4079 4080 4081 4082 4083 4084 4085 4086 4087 4088 4089 4090 4091 4092 4093 4094 4095 4096 4097 4098 4099 4100 4101 4102 4103 4104 4105 4106 4107 4108 4109 4110 4111 4112 4113 4114 4115 4116 4117 4118 4119 4120 4121 4122 4123 4124 4125 4126 4127 4128 4129 4130 4131 4132 4133 4134 4135 4136 4137 4138 4139 4140 4141 4142 4143 4144 4145 4146 4147 4148 4149 4150 4151 4152 4153 4154 4155 4156 4157 4158 4159 4160 4161 4162 4163 4164 4165 4166 4167 4168 4169 4170 4171 4172 4173 4174 4175 4176 4177 4178 4179 4180 4181 4182 4183 4184 4185 4186 4187 4188 4189 4190 4191 4192 4193 4194 4195 4196 4197 4198 4199 4200 4201 4202 4203 4204 4205 4206 4207 4208 4209 4210 4211 4212 4213 4214 4215 4216 4217 4218 4219 4220 4221 4222 4223 4224 4225 4226 4227 4228 4229 4230 4231 4232 4233 4234 4235 4236 4237 4238 4239 4240 4241 4242 4243 4244 4245 4246 4247 4248 4249 4250 4251 4252 4253 4254 4255 4256 4257 4258 4259 4260 4261 4262 4263 4264 4265 4266 4267 4268 4269 4270 4271 4272 4273 4274 4275 4276 4277 4278 4279 4280 4281 4282 4283 4284 4285 4286 4287 4288 4289 4290 4291 4292 4293 4294 4295 4296 4297 4298 4299 4300 4301 4302 4303 4304 4305 4306 4307 4308 4309 4310 4311 4312 4313 4314 4315 4316 4317 4318 4319 4320 4321 4322 4323 4324 4325 4326 4327 4328 4329 4330 4331 4332 4333 4334 4335 4336 4337 4338 4339 4340 4341 4342 4343 4344 4345 4346 4347 4348 4349 4350 4351 4352 4353 4354 4355 4356 4357 4358 4359 4360 4361 4362 4363 4364 4365 4366 4367 4368 4369 4370 4371 4372 4373 4374 4375 4376 4377 4378 4379 4380 4381 4382 4383 4384 4385 4386 4387 4388 4389 4390 4391 4392 4393 4394 4395 4396 4397 4398 4399 4400 4401 4402 4403 4404 4405 4406 4407 4408 4409 4410 4411 4412 4413 4414 4415 4416 4417 4418 4419 4420 4421 4422 4423 4424 4425 4426 4427 4428 4429 4430 4431 4432 4433 4434 4435 4436 4437 4438 4439 4440 4441 4442 4443 4444 4445 4446 4447 4448 4449 4450 4451 4452 4453 4454 4455 4456 4457 4458 4459 4460 4461 4462 4463 4464 4465 4466 4467 4468 4469 4470 4471 4472 4473 4474 4475 4476 4477 4478 4479 4480 4481 4482 4483 4484 4485 4486 4487 4488 4489 4490 4491 4492 4493 4494 4495 4496 4497 4498 4499 4500 4501 4502 4503 4504 4505 4506 4507 4508 4509 4510 4511 4512 4513 4514 4515 4516 4517 4518 4519 4520 4521 4522 4523 4524 4525 4526 4527 4528 4529 4530 4531 4532 4533 4534 4535 4536 4537 4538 4539 4540 4541 4542 4543 4544 4545 4546 4547 4548 4549 4550 4551 4552 4553 4554 4555 4556 4557 4558 4559 4560 4561 4562 4563 4564 4565 4566 4567 4568 4569 4570 4571 4572 4573 4574 4575 4576 4577 4578 4579 4580 4581 4582 4583 4584 4585 4586 4587 4588 4589 4590 4591 4592 4593 4594 4595 4596 4597 4598 4599 4600 4601 4602 4603 4604 4605 4606 4607 4608 4609 4610 4611 4612 4613 4614 4615 4616 4617 4618 4619 4620 4621 4622 4623 4624 4625 4626 4627 4628 4629 4630 4631 4632 4633 4634 4635 4636 4637 4638 4639 4640 4641 4642 4643 4644 4645 4646 4647 4648 4649 4650 4651 4652 4653 4654 4655 4656 4657 4658 4659 4660 4661 4662 4663 4664 4665 4666 4667 4668 4669 4670 4671 4672 4673 4674 4675 4676 4677 4678 4679 4680 4681 4682 4683 4684 4685 4686 4687 4688 4689 4690 4691 4692 4693 4694 4695 4696 4697 4698 4699 4700 4701 4702 4703 4704 4705 4706 4707 4708 4709 4710 4711 4712 4713 4714 4715 4716 4717 4718 4719 4720 4721 4722 4723 4724 4725 4726 4727 4728 4729 4730 4731 4732 4733 4734 4735 4736 4737 4738 4739 4740 4741 4742 4743 4744 4745 4746 4747 4748 4749 4750 4751 4752 4753 4754 4755 4756 4757 4758 4759 4760 4761 4762 4763 4764 4765 4766 4767 4768 4769 4770 4771 4772 4773 4774 4775 4776 4777 4778 4779 4780 4781 4782 4783 4784 4785 4786 4787 4788 4789 4790 4791 4792 4793 4794 4795 4796 4797 4798 4799 4800 4801 4802 4803 4804 4805 4806 4807 4808 4809 4810 4811 4812 4813 4814 4815 4816 4817 4818 4819 4820 4821 4822 4823 4824 4825 4826 4827 4828 4829 4830 4831 4832 4833 4834 4835 4836 4837 4838 4839 4840 4841 4842 4843 4844 4845 4846 4847 4848 4849 4850 4851 4852 4853 4854 4855 4856 4857 4858 4859 4860 4861 4862 4863 4864 4865 4866 4867 4868 4869 4870 4871 4872 4873 4874 4875 4876 4877 4878 4879 4880 4881 4882 4883 4884 4885 4886 4887 4888 4889 4890 4891 4892 4893 4894 4895 4896 4897 4898 4899 4900 4901 4902 4903 4904 4905 4906 4907 4908 4909 4910 4911 4912 4913 4914 4915 4916 4917 4918 4919 4920 4921 4922 4923 4924 4925 4926 4927 4928 4929 4930 4931 4932 4933 4934 4935 4936 4937 4938 4939 4940 4941 4942 4943 4944 4945 4946 4947 4948 4949 4950 4951 4952 4953 4954 4955 4956 4957 4958 4959 4960 4961 4962 4963 4964 4965 4966 4967 4968 4969 4970 4971 4972 4973 4974 4975 4976 4977 4978 4979 4980 4981 4982 4983 4984 4985 4986 4987 4988 4989 4990 4991 4992 4993 4994 4995 4996 4997 4998 4999 5000 5001 5002 5003 5004 5005 5006 5007 5008 5009 5010 5011 5012 5013 5014 5015 5016 5017 5018 5019 5020 5021 5022 5023 5024 5025 5026 5027 5028 5029 5030 5031 5032 5033 5034 5035 5036 5037 5038 5039 5040 5041 5042 5043 5044 5045 5046 5047 5048 5049 5050 5051 5052 5053 5054 5055 5056 5057 5058 5059 5060 5061 5062 5063 5064 5065 5066 5067 5068 5069 5070 5071 5072 5073 5074 5075 5076 5077 5078 5079 5080 5081 5082 5083 5084 5085 5086 5087 5088 5089 5090 5091 5092 5093 5094 5095 5096 5097 5098 5099 5100 5101 5102 5103 5104 5105 5106 5107 5108 5109 5110 5111 5112 5113 5114 5115 5116 5117 5118 5119 5120 5121 5122 5123 5124 5125 5126 5127 5128 5129 5130 5131 5132 5133 5134 5135 5136 5137 5138 5139 5140 5141 5142 5143 5144 5145 5146 5147 5148 5149 5150 5151 5152 5153 5154 5155 5156 5157 5158 5159 5160 5161 5162 5163 5164 5165 5166 5167 5168 5169 5170 5171 5172 5173 5174 5175 5176 5177 5178 5179 5180 5181 5182 5183 5184 5185 5186 5187 5188 5189 5190 5191 5192 5193 5194 5195 5196 5197 5198 5199 5200 5201 5202 5203 5204 5205 5206 5207 5208 5209 5210 5211 5212 5213 5214 5215 5216 5217 5218 5219 5220 5221 5222 5223 5224 5225 5226 5227 5228 5229 5230 5231 5232 5233 5234 5235 5236 5237 5238 5239 5240 5241 5242 5243 5244 5245 5246 5247 5248 5249 5250 5251 5252 5253 5254 5255 5256 5257 5258 5259 5260 5261 5262 5263 5264 5265 5266 5267 5268 5269 5270 5271 5272 5273 5274 5275 5276 5277 5278 5279 5280 5281 5282 5283 5284 5285 5286 5287 5288 5289 5290 5291 5292 5293 5294 5295 5296 5297 5298 5299 5300 5301 5302 5303 5304 5305 5306 5307 5308 5309 5310 5311 5312 5313 5314 5315 5316 5317 5318 5319 5320 5321 5322 5323 5324 5325 5326 5327 5328 5329 5330 5331 5332 5333 5334 5335 5336 5337 5338 5339 5340 5341 5342 5343 5344 5345 5346 5347 5348 5349 5350 5351 5352 5353 5354 5355 5356 5357 5358 5359 5360 5361 5362 5363 5364 5365 5366 5367 5368 5369 5370 5371 5372 5373 5374 5375 5376 5377 5378 5379 5380 5381 5382 5383 5384 5385 5386 5387 5388 5389 5390 5391 5392 5393 5394 5395 5396 5397 5398 5399 5400 5401 5402 5403 5404 5405 5406 5407 5408 5409 5410 5411 5412 5413 5414 5415 5416 5417 5418 5419 5420 5421 5422 5423 5424 5425 5426 5427 5428 5429 5430 5431 5432 5433 5434 5435 5436 5437 5438 5439 5440 5441 5442 5443 5444 5445 5446 5447 5448 5449 5450 5451 5452 5453 5454 5455 5456 5457 5458 5459 5460 5461 5462 5463 5464 5465 5466 5467 5468 5469 5470 5471 5472 5473 5474 5475 5476 5477 5478 5479 5480 5481 5482 5483 5484 5485 5486 5487 5488 5489 5490 5491 5492 5493 5494 5495 5496 5497 5498 5499 5500 5501 5502 5503 5504 5505 5506 5507 5508 5509 5510 5511 5512 5513 5514 5515 5516 5517 5518 5519 5520 5521 5522 5523 5524 5525 5526 5527 5528 5529 5530 5531 5532 5533 5534 5535 5536 5537 5538 5539 5540 5541 5542 5543 5544 5545 5546 5547 5548 5549 5550 5551 5552 5553 5554 5555 5556 5557 5558 5559 5560 5561 5562 5563 5564 5565 5566 5567 5568 5569 5570 5571 5572 5573 5574 5575 5576 5577 5578 5579 5580 5581 5582 5583 5584 5585 5586 5587 5588 5589 5590 5591 5592 5593 5594 5595 5596 5597 5598 5599 5600 5601 5602 5603 5604 5605 5606 5607 5608 5609 5610 5611 5612 5613 5614 5615 5616 5617 5618 5619 5620 5621 5622 5623 5624 5625 5626 5627 5628 5629 5630 5631 5632 5633 5634 5635 5636 5637 5638 5639 5640 5641 5642 5643 5644 5645 5646 5647 5648 5649 5650 5651 5652 5653 5654 5655 5656 5657 5658 5659 5660 5661 5662 5663 5664 5665 5666 5667 5668 5669 5670 5671 5672 5673 5674 5675 5676 5677 5678 5679 5680 5681 5682 5683 5684 5685 5686 5687 5688 5689 5690 5691 5692 5693 5694 5695 5696 5697 5698 5699 5700 5701 5702 5703 5704 5705 5706 5707 5708 5709 5710 5711 5712 5713 5714 5715 5716 5717 5718 5719 5720 5721 5722 5723 5724 5725 5726 5727 5728 5729 5730 5731 5732 5733 5734 5735 5736 5737 5738 5739 5740 5741 5742 5743 5744 5745 5746 5747 5748 5749 5750 5751 5752 5753 5754 5755 5756 5757 5758 5759 5760 5761 5762 5763 5764 5765 5766 5767 5768 5769 5770 5771 5772 5773 5774 5775 5776 5777 5778 5779 5780 5781 5782 5783 5784 5785 5786 5787 5788 5789 5790 5791 5792 5793 5794 5795 5796 5797 5798 5799 5800 5801 5802 5803 5804 5805 5806 5807 5808 5809 5810 5811 5812 5813 5814 5815 5816 5817 5818 5819 5820 5821 5822 5823 5824 5825 5826 5827 5828 5829 5830 5831 5832 5833 5834 5835 5836 5837 5838 5839 5840 5841 5842 5843 5844 5845 5846 5847 5848 5849 5850 5851 5852 5853 5854 5855 5856 5857 5858 5859 5860 5861 5862 5863 5864 5865 5866 5867 5868 5869 5870 5871 5872 5873 5874 5875 5876 5877 5878 5879 5880 5881 5882 5883 5884 5885 5886 5887 5888 5889 5890 5891 5892 5893 5894 5895 5896 5897 5898 5899 5900 5901 5902 5903 5904 5905 5906 5907 5908 5909 5910 5911 5912 5913 5914 5915 5916 5917 5918 5919 5920 5921 5922 5923 5924 5925 5926 5927 5928 5929 5930 5931 5932 5933 5934 5935 5936 5937 5938 5939 5940 5941 5942 5943 5944 5945 5946 5947 5948 5949 5950 5951 5952 5953 5954 5955 5956 5957 5958 5959 5960 5961 5962 5963 5964 5965 5966 5967 5968 5969 5970 5971 5972 5973 5974 5975 5976 5977 5978 5979 5980 5981 5982 5983 5984 5985 5986 5987 5988 5989 5990 5991 5992 5993 5994 5995 5996 5997 5998 5999 6000 6001 6002 6003 6004 6005 6006 6007 6008 6009 6010 6011 6012 6013 6014 6015 6016 6017 6018 6019 6020 6021 6022 6023 6024 6025 6026 6027 6028 6029 6030 6031 6032 6033 6034 6035 6036 6037 6038 6039 6040 6041 6042 6043 6044 6045 6046 6047 6048 6049 6050 6051 6052 6053 6054 6055 6056 6057 6058 6059 6060 6061 6062 6063 6064 6065 6066 6067 6068 6069 6070 6071 6072 6073 6074 6075 6076 6077 6078 6079 6080 6081 6082 6083 6084 6085 6086 6087 6088 6089 6090 6091 6092 6093 6094 6095 6096 6097 6098 6099 6100 6101 6102 6103 6104 6105 6106 6107 6108 6109 6110 6111 6112 6113 6114 6115 6116 6117 6118 6119 6120 6121 6122 6123 6124 6125 6126 6127 6128 6129 6130 6131 6132 6133 6134 6135 6136 6137 6138 6139 6140 6141 6142 6143 6144 6145 6146 6147 6148 6149 6150 6151 6152 6153 6154 6155 6156 6157 6158 6159 6160 6161 6162 6163 6164 6165 6166 6167 6168 6169 6170 6171 6172 6173 6174 6175 6176 6177 6178 6179 6180 6181 6182 6183 6184 6185 6186 6187 6188 6189 6190 6191 6192 6193 6194 6195 6196 6197 6198 6199 6200 6201 6202 6203 6204 6205 6206 6207 6208 6209 6210 6211 6212 6213 6214 6215 6216 6217 6218 6219 6220 6221 6222 6223 6224 6225 6226 6227 6228 6229 6230 6231 6232 6233 6234 6235 6236 6237 6238 6239 6240 6241 6242 6243 6244 6245 6246 6247 6248 6249 6250 6251 6252 6253 6254 6255 6256 6257 6258 6259 6260 6261 6262 6263 6264 6265 6266 6267 6268 6269 6270 6271 6272 6273 6274 6275 6276 6277 6278 6279 6280 6281 6282 6283 6284 6285 6286 6287 6288 6289 6290 6291 6292 6293 6294 6295 6296 6297 6298 6299 6300 6301 6302 6303 6304 6305 6306 6307 6308 6309 6310 6311 6312 6313 6314 6315 6316 6317 6318 6319 6320 6321 6322 6323 6324 6325 6326 6327 6328 6329 6330 6331 6332 6333 6334 6335 6336 6337 6338 6339 6340 6341 6342 6343 6344 6345 6346 6347 6348 6349 6350 6351 6352 6353 6354 6355 6356 6357 6358 6359 6360 6361 6362 6363 6364 6365 6366 6367 6368 6369 6370 6371 6372 6373 6374 6375 6376 6377 6378 6379 6380 6381 6382 6383 6384 6385 6386 6387 6388 6389 6390 6391 6392 6393 6394 6395 6396 6397 6398 6399 6400 6401 6402 6403 6404 6405 6406 6407 6408 6409 6410 6411 6412 6413 6414 6415 6416 6417 6418 6419 6420 6421 6422 6423 6424 6425 6426 6427 6428 6429 6430 6431 6432 6433 6434 6435 6436 6437 6438 6439 6440 6441 6442 6443 6444 6445 6446 6447 6448 6449 6450 6451 6452 6453 6454 6455 6456 6457 6458 6459 6460 6461 6462 6463 6464 6465 6466 6467 6468 6469 6470 6471 6472 6473 6474 6475 6476 6477 6478 6479 6480 6481 6482 6483 6484 6485 6486 6487 6488 6489 6490 6491 6492 6493 6494 6495 6496 6497 6498 6499 6500 6501 6502 6503 6504 6505 6506 6507 6508 6509 6510 6511 6512 6513 6514 6515 6516 6517 6518 6519 6520 6521 6522 6523 6524 6525 6526 6527 6528 6529 6530 6531 6532 6533 6534 6535 6536 6537 6538 6539 6540 6541 6542 6543 6544 6545 6546 6547 6548 6549 6550 6551 6552 6553 6554 6555 6556 6557 6558 6559 6560 6561 6562 6563 6564 6565 6566 6567 6568 6569 6570 6571 6572 6573 6574 6575 6576 6577 6578 6579 6580 6581 6582 6583 6584 6585 6586 6587 6588 6589 6590 6591 6592 6593 6594 6595 6596 6597 6598 6599 6600 6601 6602 6603 6604 6605 6606 6607 6608 6609 6610 6611 6612 6613 6614 6615 6616 6617 6618 6619 6620 6621 6622 6623 6624 6625 6626 6627 6628 6629 6630 6631 6632 6633 6634 6635 6636 6637 6638 6639 6640 6641 6642 6643 6644 6645 6646 6647 6648 6649 6650 6651 6652 6653 6654 6655 6656 6657 6658 6659 6660 6661 6662 6663 6664 6665 6666 6667 6668 6669 6670 6671 6672 6673 6674 6675 6676 6677 6678 6679 6680 6681 6682 6683 6684 6685 6686 6687 6688 6689 6690 6691 6692 6693 6694 6695 6696 6697 6698 6699 6700 6701 6702 6703 6704 6705 6706 6707 6708 6709 6710 6711 6712 6713 6714 6715 6716 6717 6718 6719 6720 6721 6722 6723 6724 6725 6726 6727 6728 6729 6730 6731 6732 6733 6734 6735 6736 6737 6738 6739 6740 6741 6742 6743 6744 6745 6746 6747 6748 6749 6750 6751 6752 6753 6754 6755 6756 6757 6758 6759 6760 6761 6762 6763 6764 6765 6766 6767 6768 6769 6770 6771 6772 6773 6774 6775 6776 6777 6778 6779 6780 6781 6782 6783 6784 6785 6786 6787 6788 6789 6790 6791 6792 6793 6794 6795 6796 6797 6798 6799 6800 6801 6802 6803 6804 6805 6806 6807 6808 6809 6810 6811 6812 6813 6814 6815 6816 6817 6818 6819 6820 6821 6822 6823 6824 6825 6826 6827 6828 6829 6830 6831 6832 6833 6834 6835 6836 6837 6838 6839 6840 6841 6842 6843 6844 6845 6846 6847 6848 6849 6850 6851 6852 6853 6854 6855 6856 6857 6858 6859 6860 6861 6862 6863 6864 6865 6866 6867 6868 6869 6870 6871 6872 6873 6874 6875 6876 6877 6878 6879 6880 6881 6882 6883 6884 6885 6886 6887 6888 6889 6890 6891 6892 6893 6894 6895 6896 6897 6898 6899 6900 6901 6902 6903 6904 6905 6906 6907 6908 6909 6910 6911 6912 6913 6914 6915 6916 6917 6918 6919 6920 6921 6922 6923 6924 6925 6926 6927 6928 6929 6930 6931 6932 6933 6934 6935 6936 6937 6938 6939 6940 6941 6942 6943 6944 6945 6946 6947 6948 6949 6950 6951 6952 6953 6954 6955 6956 6957 6958 6959 6960 6961 6962 6963 6964 6965 6966 6967 6968 6969 6970 6971 6972 6973 6974 6975 6976 6977 6978 6979 6980 6981 6982 6983 6984 6985 6986 6987 6988 6989 6990 6991 6992 6993 6994 6995 6996 6997 6998 6999 7000 7001 7002 7003 7004 7005 7006 7007 7008 7009 7010 7011 7012 7013 7014 7015 7016 7017 7018 7019 7020 7021 7022 7023 7024 7025 7026 7027 7028 7029 7030 7031 7032 7033 7034 7035 7036 7037 7038 7039 7040 7041 7042 7043 7044 7045 7046 7047 7048 7049 7050 7051 7052 7053 7054 7055 7056 7057 7058 7059 7060 7061 7062 7063 7064 7065 7066 7067 7068 7069 7070 7071 7072 7073 7074 7075 7076 7077 7078 7079 7080 7081 7082 7083 7084 7085 7086 7087 7088 7089 7090 7091 7092 7093 7094 7095 7096 7097 7098 7099 7100 7101 7102 7103 7104 7105 7106 7107 7108 7109 7110 7111 7112 7113 7114 7115 7116 7117 7118 7119 7120 7121 7122 7123 7124 7125 7126 7127 7128 7129 7130 7131 7132 7133 7134 7135 7136 7137 7138 7139 7140 7141 7142 7143 7144 7145 7146 7147 7148 7149 7150 7151 7152 7153 7154 7155 7156 7157 7158 7159 7160 7161 7162 7163 7164 7165 7166 7167 7168 7169 7170 7171 7172 7173 7174 7175 7176 7177 7178 7179 7180 7181 7182 7183 7184 7185 7186 7187 7188 7189 7190 7191 7192 7193 7194 7195 7196 7197 7198 7199 7200 7201 7202 7203 7204 7205 7206 7207 7208 7209 7210 7211 7212 7213 7214 7215 7216 7217 7218 7219 7220 7221 7222 7223 7224 7225 7226 7227 7228 7229 7230 7231 7232 7233 7234 7235 7236 7237 7238 7239 7240 7241 7242 7243 7244 7245 7246 7247 7248 7249 7250 7251 7252 7253 7254 7255 7256 7257 7258 7259 7260 7261 7262 7263 7264 7265 7266 7267 7268 7269 7270 7271 7272 7273 7274 7275 7276 7277 7278 7279 7280 7281 7282 7283 7284 7285 7286 7287 7288 7289 7290 7291 7292 7293 7294 7295 7296 7297 7298 7299 7300 7301 7302 7303 7304 7305 7306 7307 7308 7309 7310 7311 7312 7313 7314 7315 7316 7317 7318 7319 7320 7321 7322 7323 7324 7325 7326 7327 7328 7329 7330 7331 7332 7333 7334 7335 7336 7337 7338 7339 7340 7341 7342 7343 7344 7345 7346 7347 7348 7349 7350 7351 7352 7353 7354 7355 7356 7357 7358 7359 7360 7361 7362 7363 7364 7365 7366 7367 7368 7369 7370 7371 7372 7373 7374 7375 7376 7377 7378 7379 7380 7381 7382 7383 7384 7385 7386 7387 7388 7389 7390 7391 7392 7393 7394 7395 7396 7397 7398 7399 7400 7401 7402 7403 7404 7405 7406 7407 7408 7409 7410 7411 7412 7413 7414 7415 7416 7417 7418 7419 7420 7421 7422 7423 7424 7425 7426 7427 7428 7429 7430 7431 7432 7433 7434 7435 7436 7437 7438 7439 7440 7441 7442 7443 7444 7445 7446 7447 7448 7449 7450 7451 7452 7453 7454 7455 7456 7457 7458 7459 7460 7461 7462 7463 7464 7465 7466 7467 7468 7469 7470 7471 7472 7473 7474 7475 7476 7477 7478 7479 7480 7481 7482 7483 7484 7485 7486 7487 7488 7489 7490 7491 7492 7493 7494 7495 7496 7497 7498 7499 7500 7501 7502 7503 7504 7505 7506 7507 7508 7509 7510 7511 7512 7513 7514 7515 7516 7517 7518 7519 7520 7521 7522 7523 7524 7525 7526 7527 7528 7529 7530 7531 7532 7533 7534 7535 7536 7537 7538 7539 7540 7541 7542 7543 7544 7545 7546 7547 7548 7549 7550 7551 7552 7553 7554 7555 7556 7557 7558 7559 7560 7561 7562 7563 7564 7565 7566 7567 7568 7569 7570 7571 7572 7573 7574 7575 7576 7577 7578 7579 7580 7581 7582 7583 7584 7585 7586 7587 7588 7589 7590 7591 7592 7593 7594 7595 7596 7597 7598 7599 7600 7601 7602 7603 7604 7605 7606 7607 7608 7609 7610 7611 7612 7613 7614 7615 7616 7617 7618 7619 7620 7621 7622 7623 7624 7625 7626 7627 7628 7629 7630 7631 7632 7633 7634 7635 7636 7637 7638 7639 7640 7641 7642 7643 7644 7645 7646 7647 7648 7649 7650 7651 7652 7653 7654 7655 7656 7657 7658 7659 7660 7661 7662 7663 7664 7665 7666 7667 7668 7669 7670 7671 7672 7673 7674 7675 7676 7677 7678 7679 7680 7681 7682 7683 7684 7685 7686 7687 7688 7689 7690 7691 7692 7693 7694 7695 7696 7697 7698 7699 7700 7701 7702 7703 7704 7705 7706 7707 7708 7709 7710 7711 7712 7713 7714 7715 7716 7717 7718 7719 7720 7721 7722 7723 7724 7725 7726 7727 7728 7729 7730 7731 7732 7733 7734 7735 7736 7737 7738 7739 7740 7741 7742 7743 7744 7745 7746 7747 7748 7749 7750 7751 7752 7753 7754 7755 7756 7757 7758 7759 7760 7761 7762 7763 7764 7765 7766 7767 7768 7769 7770 7771 7772 7773 7774 7775 7776 7777 7778 7779 7780 7781 7782 7783 7784 7785 7786 7787 7788 7789 7790 7791 7792 7793 7794 7795 7796 7797 7798 7799 7800 7801 7802 7803 7804 7805 7806 7807 7808 7809 7810 7811 7812 7813 7814 7815 7816 7817 7818 7819 7820 7821 7822 7823 7824 7825 7826 7827 7828 7829 7830 7831 7832 7833 7834 7835 7836 7837 7838 7839 7840 7841 7842 7843 7844 7845 7846 7847 7848 7849 7850 7851 7852 7853 7854 7855 7856 7857 7858 7859 7860 7861 7862 7863 7864 7865 7866 7867 7868 7869 7870 7871 7872 7873 7874 7875 7876 7877 7878 7879 7880 7881 7882 7883 7884 7885 7886 7887 7888 7889 7890 7891 7892 7893 7894 7895 7896 7897 7898 7899 7900 7901 7902 7903 7904 7905 7906 7907 7908 7909 7910 7911 7912 7913 7914 7915 7916 7917 7918 7919 7920 7921 7922 7923 7924 7925 7926 7927 7928 7929 7930 7931 7932 7933 7934 7935 7936 7937 7938 7939 7940 7941 7942 7943 7944 7945 7946 7947 7948 7949 7950 7951 7952 7953 7954 7955 7956 7957 7958 7959 7960 7961 7962 7963 7964 7965 7966 7967 7968 7969 7970 7971 7972 7973 7974 7975 7976 7977 7978 7979 7980 7981 7982 7983 7984 7985 7986 7987 7988 7989 7990 7991 7992 7993 7994 7995 7996 7997 7998 7999 8000 8001 8002 8003 8004 8005 8006 8007 8008 8009 8010 8011 8012 8013 8014 8015 8016 8017 8018 8019 8020 8021 8022 8023 8024 8025 8026 8027 8028 8029 8030 8031 8032 8033 8034 8035 8036 8037 8038 8039 8040 8041 8042 8043 8044 8045 8046 8047 8048 8049 8050 8051 8052 8053 8054 8055 8056 8057 8058 8059 8060 8061 8062 8063 8064 8065 8066 8067 8068 8069 8070 8071 8072 8073 8074 8075 8076 8077 8078 8079 8080 8081 8082 8083 8084 8085 8086 8087 8088 8089 8090 8091 8092 8093 8094 8095 8096 8097 8098 8099 8100 8101 8102 8103 8104 8105 8106 8107 8108 8109 8110 8111 8112 8113 8114 8115 8116 8117 8118 8119 8120 8121 8122 8123 8124 8125 8126 8127 8128 8129 8130 8131 8132 8133 8134 8135 8136 8137 8138 8139 8140 8141 8142 8143 8144 8145 8146 8147 8148 8149 8150 8151 8152 8153 8154 8155 8156 8157 8158 8159 8160 8161 8162 8163 8164 8165 8166 8167 8168 8169 8170 8171 8172 8173 8174 8175 8176 8177 8178 8179 8180 8181 8182 8183 8184 8185 8186 8187 8188 8189 8190 8191 8192 8193 8194 8195 8196 8197 8198 8199 8200 8201 8202 8203 8204 8205 8206 8207 8208 8209 8210 8211 8212 8213 8214 8215 8216 8217 8218 8219 8220 8221 8222 8223 8224 8225 8226 8227 8228 8229 8230 8231 8232 8233 8234 8235 8236 8237 8238 8239 8240 8241 8242 8243 8244 8245 8246 8247 8248 8249 8250 8251 8252 8253 8254 8255 8256 8257 8258 8259 8260 8261 8262 8263 8264 8265 8266 8267 8268 8269 8270 8271 8272 8273 8274 8275 8276 8277 8278 8279 8280 8281 8282 8283 8284 8285 8286 8287 8288 8289 8290 8291 8292 8293 8294 8295 8296 8297 8298 8299 8300 8301 8302 8303 8304 8305 8306 8307 8308 8309 8310 8311 8312 8313 8314 8315 8316 8317 8318 8319 8320 8321 8322 8323 8324 8325 8326 8327 8328 8329 8330 8331 8332 8333 8334 8335 8336 8337 8338 8339 8340 8341 8342 8343 8344 8345 8346 8347 8348 8349 8350 8351 8352 8353 8354 8355 8356 8357 8358 8359 8360 8361 8362 8363 8364 8365 8366 8367 8368 8369 8370 8371 8372 8373 8374 8375 8376 8377 8378 8379 8380 8381 8382 8383 8384 8385 8386 8387 8388 8389 8390 8391 8392 8393 8394 8395 8396 8397 8398 8399 8400 8401 8402 8403 8404 8405 8406 8407 8408 8409 8410 8411 8412 8413 8414 8415 8416 8417 8418 8419 8420 8421 8422 8423 8424 8425 8426 8427 8428 8429 8430 8431 8432 8433 8434 8435 8436 8437 8438 8439 8440 8441 8442 8443 8444 8445 8446 8447 8448 8449 8450 8451 8452 8453 8454 8455 8456 8457 8458 8459 8460 8461 8462 8463 8464 8465 8466 8467 8468 8469 8470 8471 8472 8473 8474 8475 8476 8477 8478 8479 8480 8481 8482 8483 8484 8485 8486 8487 8488 8489 8490 8491 8492 8493 8494 8495 8496 8497 8498 8499 8500 8501 8502 8503 8504 8505 8506 8507 8508 8509 8510 8511 8512 8513 8514 8515 8516 8517 8518 8519 8520 8521 8522 8523 8524 8525 8526 8527 8528 8529 8530 8531 8532 8533 8534 8535 8536 8537 8538 8539 8540 8541 8542 8543 8544 8545 8546 8547 8548 8549 8550 8551 8552 8553 8554 8555 8556 8557 8558 8559 8560 8561 8562 8563 8564 8565 8566 8567 8568 8569 8570 8571 8572 8573 8574 8575 8576 8577 8578 8579 8580 8581 8582 8583 8584 8585 8586 8587 8588 8589 8590 8591 8592 8593 8594 8595 8596 8597 8598 8599 8600 8601 8602 8603 8604 8605 8606 8607 8608 8609 8610 8611 8612 8613 8614 8615 8616 8617 8618 8619 8620 8621 8622 8623 8624 8625 8626 8627 8628 8629 8630 8631 8632 8633 8634 8635 8636 8637 8638 8639 8640 8641 8642 8643 8644 8645 8646 8647 8648 8649 8650 8651 8652 8653 8654 8655 8656 8657 8658 8659 8660 8661 8662 8663 8664 8665 8666 8667 8668 8669 8670 8671 8672 8673 8674 8675 8676 8677 8678 8679 8680 8681 8682 8683 8684 8685 8686 8687 8688 8689 8690 8691 8692 8693 8694 8695 8696 8697 8698 8699 8700 8701 8702 8703 8704 8705 8706 8707 8708 8709 8710 8711 8712 8713 8714 8715 8716 8717 8718 8719 8720 8721 8722 8723 8724 8725 8726 8727 8728 8729 8730 8731 8732 8733 8734 8735 8736 8737 8738 8739 8740 8741 8742 8743 8744 8745 8746 8747 8748 8749 8750 8751 8752 8753 8754 8755 8756 8757 8758 8759 8760 8761 8762 8763 8764 8765 8766 8767 8768 8769 8770 8771 8772 8773 8774 8775 8776 8777 8778 8779 8780 8781 8782 8783 8784 8785 8786 8787 8788 8789 8790 8791 8792 8793 8794 8795 8796 8797 8798 8799 8800 8801 8802 8803 8804 8805 8806 8807 8808 8809 8810 8811 8812 8813 8814 8815 8816 8817 8818 8819 8820 8821 8822 8823 8824 8825 8826 8827 8828 8829 8830 8831 8832 8833 8834 8835 8836 8837 8838 8839 8840 8841 8842 8843 8844 8845 8846 8847 8848 8849 8850 8851 8852 8853 8854 8855 8856 8857 8858 8859 8860 8861 8862 8863 8864 8865 8866 8867 8868 8869 8870 8871 8872 8873 8874 8875 8876 8877 8878 8879 8880 8881 8882 8883 8884 8885 8886 8887 8888 8889 8890 8891 8892 8893 8894 8895 8896 8897 8898 8899 8900 8901 8902 8903 8904 8905 8906 8907 8908 8909 8910 8911 8912 8913 8914 8915 8916 8917 8918 8919 8920 8921 8922 8923 8924 8925 8926 8927 8928 8929 8930 8931 8932 8933 8934 8935 8936 8937 8938 8939 8940 8941 8942 8943 8944 8945 8946 8947 8948 8949 8950 8951 8952 8953 8954 8955 8956 8957 8958 8959 8960 8961 8962 8963 8964 8965 8966 8967 8968 8969 8970 8971 8972 8973 8974 8975 8976 8977 8978 8979 8980 8981 8982 8983 8984 8985 8986 8987 8988 8989 8990 8991 8992 8993 8994 8995 8996 8997 8998 8999 9000 9001 9002 9003 9004 9005 9006 9007 9008 9009 9010 9011 9012 9013 9014 9015 9016 9017 9018 9019 9020 9021 9022 9023 9024 9025 9026 9027 9028 9029 9030 9031 9032 9033 9034 9035 9036 9037 9038 9039 9040 9041 9042 9043 9044 9045 9046 9047 9048 9049 9050 9051 9052 9053 9054 9055 9056 9057 9058 9059 9060 9061 9062 9063 9064 9065 9066 9067 9068 9069 9070 9071 9072 9073 9074 9075 9076 9077 9078 9079 9080 9081 9082 9083 9084 9085 9086 9087 9088 9089 9090 9091 9092 9093 9094 9095 9096 9097 9098 9099 9100 9101 9102 9103 9104 9105 9106 9107 9108 9109 9110 9111 9112 9113 9114 9115 9116 9117 9118 9119 9120 9121 9122 9123 9124 9125 9126 9127 9128 9129 9130 9131 9132 9133 9134 9135 9136 9137 9138 9139 9140 9141 9142 9143 9144 9145 9146 9147 9148 9149 9150 9151 9152 9153 9154 9155 9156 9157 9158 9159 9160 9161 9162 9163 9164 9165 9166 9167 9168 9169 9170 9171 9172 9173 9174 9175 9176 9177 9178 9179 9180 9181 9182 9183 9184 9185 9186 9187 9188 9189 9190 9191 9192 9193 9194 9195 9196 9197 9198 9199 9200 9201 9202 9203 9204 9205 9206 9207 9208 9209 9210 9211 9212 9213 9214 9215 9216 9217 9218 9219 9220 9221 9222 9223 9224 9225 9226 9227 9228 9229 9230 9231 9232 9233 9234 9235 9236 9237 9238 9239 9240 9241 9242 9243 9244 9245 9246 9247 9248 9249 9250 9251 9252 9253 9254 9255 9256 9257 9258 9259 9260 9261 9262 9263 9264 9265 9266 9267 9268 9269 9270 9271 9272 9273 9274 9275 9276 9277 9278 9279 9280 9281 9282 9283 9284 9285 9286 9287 9288 9289 9290 9291 9292 9293 9294 9295 9296 9297 9298 9299 9300 9301 9302 9303 9304 9305 9306 9307 9308 9309 9310 9311 9312 9313 9314 9315 9316 9317 9318 9319 9320 9321 9322 9323 9324 9325 9326 9327 9328 9329 9330 9331 9332 9333 9334 9335 9336 9337 9338 9339 9340 9341 9342 9343 9344 9345 9346 9347 9348 9349 9350 9351 9352 9353 9354 9355 9356 9357 9358 9359 9360 9361 9362 9363 9364 9365 9366 9367 9368 9369 9370 9371 9372 9373 9374 9375 9376 9377 9378 9379 9380 9381 9382 9383 9384 9385 9386 9387 9388 9389 9390 9391 9392 9393 9394 9395 9396 9397 9398 9399 9400 9401 9402 9403 9404 9405 9406 9407 9408 9409 9410 9411 9412 9413 9414 9415 9416 9417 9418 9419 9420 9421 9422 9423 9424 9425 9426 9427 9428 9429 9430 9431 9432 9433 9434 9435 9436 9437 9438 9439 9440 9441 9442 9443 9444 9445 9446 9447 9448 9449 9450 9451 9452 9453 9454 9455 9456 9457 9458 9459 9460 9461 9462 9463 9464 9465 9466 9467 9468 9469 9470 9471 9472 9473 9474 9475 9476 9477 9478 9479 9480 9481 9482 9483 9484 9485 9486 9487 9488 9489 9490 9491 9492 9493 9494 9495 9496 9497 9498 9499 9500 9501 9502 9503 9504 9505 9506 9507 9508 9509 9510 9511 9512 9513 9514 9515 9516 9517 9518 9519 9520 9521 9522 9523 9524 9525 9526 9527 9528 9529 9530 9531 9532 9533 9534 9535 9536 9537 9538 9539 9540 9541 9542 9543 9544 9545 9546 9547 9548 9549 9550 9551 9552 9553 9554 9555 9556 9557 9558 9559 9560 9561 9562 9563 9564 9565 9566 9567 9568 9569 9570 9571 9572 9573 9574 9575 9576 9577 9578 9579 9580 9581 9582 9583 9584 9585 9586 9587 9588 9589 9590 9591 9592 9593 9594 9595 9596 9597 9598 9599 9600 9601 9602 9603 9604 9605 9606 9607 9608 9609 9610 9611 9612 9613 9614 9615 9616 9617 9618 9619 9620 9621 9622 9623 9624 9625 9626 9627 9628 9629 9630 9631 9632 9633 9634 9635 9636 9637 9638 9639 9640 9641 9642 9643 9644 9645 9646 9647 9648 9649 9650 9651 9652 9653 9654 9655 9656 9657 9658 9659 9660 9661 9662 9663 9664 9665 9666 9667 9668 9669 9670 9671 9672 9673 9674 9675 9676 9677 9678 9679 9680 9681 9682 9683 9684 9685 9686 9687 9688 9689 9690 9691 9692 9693 9694 9695 9696 9697 9698 9699 9700 9701 9702 9703 9704 9705 9706 9707 9708 9709 9710 9711 9712 9713 9714 9715 9716 9717 9718 9719 9720 9721 9722 9723 9724 9725 9726 9727 9728 9729 9730 9731 9732 9733 9734 9735 9736 9737 9738 9739 9740 9741 9742 9743 9744 9745 9746 9747 9748 9749 9750 9751 9752 9753 9754 9755 9756 9757 9758 9759 9760 9761 9762 9763 9764 9765 9766 9767 9768 9769 9770 9771 9772 9773 9774 9775 9776 9777 9778 9779 9780 9781 9782 9783 9784 9785 9786 9787 9788 9789 9790 9791 9792 9793 9794 9795 9796 9797 9798 9799 9800 9801 9802 9803 9804 9805 9806 9807 9808 9809 9810 9811 9812 9813 9814 9815 9816 9817 9818 9819 9820 9821 9822 9823 9824 9825 9826 9827 9828 9829 9830 9831 9832 9833 9834 9835 9836 9837 9838 9839 9840 9841 9842 9843 9844 9845 9846 9847 9848 9849 9850 9851 9852 9853 9854 9855 9856 9857 9858 9859 9860 9861 9862 9863 9864 9865 9866 9867 9868 9869 9870 9871 9872 9873 9874 9875 9876 9877 9878 9879 9880 9881 9882 9883 9884 9885 9886 9887 9888 9889 9890 9891 9892 9893 9894 9895 9896 9897 9898 9899 9900 9901 9902 9903 9904 9905 9906 9907 9908 9909 9910 9911 9912 9913 9914 9915 9916 9917 9918 9919 9920 9921 9922 9923 9924 9925 9926 9927 9928 9929 9930 9931 9932 9933 9934 9935 9936 9937 9938 9939 9940 9941 9942 9943 9944 9945 9946 9947 9948 9949 9950 9951 9952 9953 9954 9955 9956 9957 9958 9959 9960 9961 9962 9963 9964 9965 9966 9967 9968 9969 9970 9971 9972 9973 9974 9975 9976 9977 9978 9979 9980 9981 9982 9983 9984 9985 9986 9987 9988 9989 9990 9991 9992 9993 9994 9995 9996 9997 9998 9999 10000 10001 10002 10003 10004 10005 10006 10007 10008 10009 10010 10011 10012 10013 10014 10015 10016 10017 10018 10019 10020 10021 10022 10023 10024 10025 10026 10027 10028 10029 10030 10031 10032 10033 10034 10035 10036 10037 10038 10039 10040 10041 10042 10043 10044 10045 10046 10047 10048 10049 10050 10051 10052 10053 10054 10055 10056 10057 10058 10059 10060 10061 10062 10063 10064 10065 10066 10067 10068 10069 10070 10071 10072 10073 10074 10075 10076 10077 10078 10079 10080 10081 10082 10083 10084 10085 10086 10087 10088 10089 10090 10091 10092 10093 10094 10095 10096 10097 10098 10099 10100 10101 10102 10103 10104 10105 10106 10107 10108 10109 10110 10111 10112 10113 10114 10115 10116 10117 10118 10119 10120 10121 10122 10123 10124 10125 10126 10127 10128 10129 10130 10131 10132 10133 10134 10135 10136 10137 10138 10139 10140 10141 10142 10143 10144 10145 10146 10147 10148 10149 10150 10151 10152 10153 10154 10155 10156 10157 10158 10159 10160 10161 10162 10163 10164 10165 10166 10167 10168 10169 10170 10171 10172 10173 10174 10175 10176 10177 10178 10179 10180 10181 10182 10183 10184 10185 10186 10187 10188 10189 10190 10191 10192 10193 10194 10195 10196 10197 10198 10199 10200 10201 10202 10203 10204 10205 10206 10207 10208 10209 10210 10211 10212 10213 10214 10215 10216 10217 10218 10219 10220 10221 10222 10223 10224 10225 10226 10227 10228 10229 10230 10231 10232 10233 10234 10235 10236 10237 10238 10239 10240 10241 10242 10243 10244 10245 10246 10247 10248 10249 10250 10251 10252 10253 10254 10255 10256 10257 10258 10259 10260 10261 10262 10263 10264 10265 10266 10267 10268 10269 10270 10271 10272 10273 10274 10275 10276 10277 10278 10279 10280 10281 10282 10283 10284 10285 10286 10287 10288 10289 10290 10291 10292 10293 10294 10295 10296 10297 10298 10299 10300 10301 10302 10303 10304 10305 10306 10307 10308 10309 10310 10311 10312 10313 10314 10315 10316 10317 10318 10319 10320 10321 10322 10323 10324 10325 10326 10327 10328 10329 10330 10331 10332 10333 10334 10335 10336 10337 10338 10339 10340 10341 10342 10343 10344 10345 10346 10347 10348 10349 10350 10351 10352 10353 10354 10355 10356 10357 10358 10359 10360 10361 10362 10363 10364 10365 10366 10367 10368 10369 10370 10371 10372 10373 10374 10375 10376 10377 10378 10379 10380 10381 10382 10383 10384 10385 10386 10387 10388 10389 10390 10391 10392 10393 10394 10395 10396 10397 10398 10399 10400 10401 10402 10403 10404 10405 10406 10407 10408 10409 10410 10411 10412 10413 10414 10415 10416 10417 10418 10419 10420 10421 10422 10423 10424 10425 10426 10427 10428 10429 10430 10431 10432 10433 10434 10435 10436 10437 10438 10439 10440 10441 10442 10443 10444 10445 10446 10447 10448 10449 10450 10451 10452 10453 10454 10455 10456 10457 10458 10459 10460 10461 10462 10463 10464 10465 10466 10467 10468 10469 10470 10471 10472 10473 10474 10475 10476 10477 10478 10479 10480 10481 10482 10483 10484 10485 10486 10487 10488 10489 10490 10491 10492 10493 10494 10495 10496 10497 10498 10499 10500 10501 10502 10503 10504 10505 10506 10507 10508 10509 10510 10511 10512 10513 10514 10515 10516 10517 10518 10519 10520 10521 10522 10523 10524 10525 10526 10527 10528 10529 10530 10531 10532 10533 10534 10535 10536 10537 10538 10539 10540 10541 10542 10543 10544 10545 10546 10547 10548 10549 10550 10551 10552 10553 10554 10555 10556 10557 10558 10559 10560 10561 10562 10563 10564 10565 10566 10567 10568 10569 10570 10571 10572 10573 10574 10575 10576 10577 10578 10579 10580 10581 10582 10583 10584 10585 10586 10587 10588 10589 10590 10591 10592 10593 10594 10595 10596 10597 10598 10599 10600 10601 10602 10603 10604 10605 10606 10607 10608 10609 10610 10611 10612 10613 10614 10615 10616 10617 10618 10619 10620 10621 10622 10623 10624 10625 10626 10627 10628 10629 10630 10631 10632 10633 10634 10635 10636 10637 10638 10639 10640 10641 10642 10643 10644 10645 10646 10647 10648 10649 10650 10651 10652 10653 10654 10655 10656 10657 10658 10659 10660 10661 10662 10663 10664 10665 10666 10667 10668 10669 10670 10671 10672 10673 10674 10675 10676 10677 10678 10679 10680 10681 10682 10683 10684 10685 10686 10687 10688 10689 10690 10691 10692 10693 10694 10695 10696 10697 10698 10699 10700 10701 10702 10703 10704 10705 10706 10707 10708 10709 10710 10711 10712 10713 10714 10715 10716 10717 10718 10719 10720 10721 10722 10723 10724 10725 10726 10727 10728 10729 10730 10731 10732 10733 10734 10735 10736 10737 10738 10739 10740 10741 10742 10743 10744 10745 10746 10747 10748 10749 10750 10751 10752 10753 10754 10755 10756 10757 10758 10759 10760 10761 10762 10763 10764 10765 10766 10767 10768 10769 10770 10771 10772 10773 10774 10775 10776 10777 10778 10779 10780 10781 10782 10783 10784 10785 10786 10787 10788 10789 10790 10791 10792 10793 10794 10795 10796 10797 10798 10799 10800 10801 10802 10803 10804 10805 10806 10807 10808 10809 10810 10811 10812 10813 10814 10815 10816 10817 10818 10819 10820 10821 10822 10823 10824 10825 10826 10827 10828 10829 10830 10831 10832 10833 10834 10835 10836 10837 10838 10839 10840 10841 10842 10843 10844 10845 10846 10847 10848 10849 10850 10851 10852 10853 10854 10855 10856 10857 10858 10859 10860 10861 10862 10863 10864 10865 10866 10867 10868 10869 10870 10871 10872 10873 10874 10875 10876 10877 10878 10879 10880 10881 10882 10883 10884 10885 10886 10887 10888 10889 10890 10891 10892 10893 10894 10895 10896 10897 10898 10899 10900 10901 10902 10903 10904 10905 10906 10907 10908 10909 10910 10911 10912 10913 10914 10915 10916 10917 10918 10919 10920 10921 10922 10923 10924 10925 10926 10927 10928 10929 10930 10931 10932 10933 10934 10935 10936 10937 10938 10939 10940 10941 10942 10943 10944 10945 10946 10947 10948 10949 10950 10951 10952 10953 10954 10955 10956 10957 10958 10959 10960 10961 10962 10963 10964 10965 10966 10967 10968 10969 10970 10971 10972 10973 10974 10975 10976 10977 10978 10979 10980 10981 10982 10983 10984 10985 10986 10987 10988 10989 10990 10991 10992 10993 10994 10995 10996 10997 10998 10999 11000 11001 11002 11003 11004 11005 11006 11007 11008 11009 11010 11011 11012 11013 11014 11015 11016 11017 11018 11019 11020 11021 11022 11023 11024 11025 11026 11027 11028 11029 11030 11031 11032 11033 11034 11035 11036 11037 11038 11039 11040 11041 11042 11043 11044 11045 11046 11047 11048 11049 11050 11051 11052 11053 11054 11055 11056 11057 11058 11059 11060 11061 11062 11063 11064 11065 11066 11067 11068 11069 11070 11071 11072 11073 11074 11075 11076 11077 11078 11079 11080 11081 11082 11083 11084 11085 11086 11087 11088 11089 11090 11091 11092 11093 11094 11095 11096 11097 11098 11099 11100 11101 11102 11103 11104 11105 11106 11107 11108 11109 11110 11111 11112 11113 11114 11115 11116 11117 11118 11119 11120 11121 11122 11123 11124 11125 11126 11127 11128 11129 11130 11131 11132 11133 11134 11135 11136 11137 11138 11139 11140 11141 11142 11143 11144 11145 11146 11147 11148 11149 11150 11151 11152 11153 11154 11155 11156 11157 11158 11159 11160 11161 11162 11163 11164 11165 11166 11167 11168 11169 11170 11171 11172 11173 11174 11175 11176 11177 11178 11179 11180 11181 11182 11183 11184 11185 11186 11187 11188 11189 11190 11191 11192 11193 11194 11195 11196 11197 11198 11199 11200 11201 11202 11203 11204 11205 11206 11207 11208 11209 11210 11211 11212 11213 11214 11215 11216 11217 11218 11219 11220 11221 11222 11223 11224 11225 11226 11227 11228 11229 11230 11231 11232 11233 11234 11235 11236 11237 11238 11239 11240 11241 11242 11243 11244 11245 11246 11247 11248 11249 11250 11251 11252 11253 11254 11255 11256 11257 11258 11259 11260 11261 11262 11263 11264 11265 11266 11267 11268 11269 11270 11271 11272 11273 11274 11275 11276 11277 11278 11279 11280 11281 11282 11283 11284 11285 11286 11287 11288 11289 11290 11291 11292 11293 11294 11295 11296 11297 11298 11299 11300 11301 11302 11303 11304 11305 11306 11307 11308 11309 11310 11311 11312 11313 11314 11315 11316 11317 11318 11319 11320 11321 11322 11323 11324 11325 11326 11327 11328 11329 11330 11331 11332 11333 11334 11335 11336 11337 11338 11339 11340 11341 11342 11343 11344 11345 11346 11347 11348 11349 11350 11351 11352 11353 11354 11355 11356 11357 11358 11359 11360 11361 11362 11363 11364 11365 11366 11367 11368 11369 11370 11371 11372 11373 11374 11375 11376 11377 11378 11379 11380 11381 11382 11383 11384 11385 11386 11387 11388 11389 11390 11391 11392 11393 11394 11395 11396 11397 11398 11399 11400 11401 11402 11403 11404 11405 11406 11407 11408 11409 11410 11411 11412 11413 11414 11415 11416 11417 11418 11419 11420 11421 11422 11423 11424 11425 11426 11427 11428 11429 11430 11431 11432 11433 11434 11435 11436 11437 11438 11439 11440 11441 11442 11443 11444 11445 11446 11447 11448 11449 11450 11451 11452 11453 11454 11455 11456 11457 11458 11459 11460 11461 11462 11463 11464 11465 11466 11467 11468 11469 11470 11471 11472 11473 11474 11475 11476 11477 11478 11479 11480 11481 11482 11483 11484 11485 11486 11487 11488 11489 11490 11491 11492 11493 11494 11495 11496 11497 11498 11499 11500 11501 11502 11503 11504 11505 11506 11507 11508 11509 11510 11511 11512 11513 11514 11515 11516 11517 11518 11519 11520 11521 11522 11523 11524 11525 11526 11527 11528 11529 11530 11531 11532 11533 11534 11535 11536 11537 11538 11539 11540 11541 11542 11543 11544 11545 11546 11547 11548 11549 11550 11551 11552 11553 11554 11555 11556 11557 11558 11559 11560 11561 11562 11563 11564 11565 11566 11567 11568 11569 11570 11571 11572 11573 11574 11575 11576 11577 11578 11579 11580 11581 11582 11583 11584 11585 11586 11587 11588 11589 11590 11591 11592 11593 11594 11595 11596 11597 11598 11599 11600 11601 11602 11603 11604 11605 11606 11607 11608 11609 11610 11611 11612 11613 11614 11615 11616 11617 11618 11619 11620 11621 11622 11623 11624 11625 11626 11627 11628 11629 11630 11631 11632 11633 11634 11635 11636 11637 11638 11639 11640 11641 11642 11643 11644 11645 11646 11647 11648 11649 11650 11651 11652 11653 11654 11655 11656 11657 11658 11659 11660 11661 11662 11663 11664 11665 11666 11667 11668 11669 11670 11671 11672 11673 11674 11675 11676 11677 11678 11679 11680 11681 11682 11683 11684 11685 11686 11687 11688 11689 11690 11691 11692 11693 11694 11695 11696 11697 11698 11699 11700 11701 11702 11703 11704 11705 11706 11707 11708 11709 11710 11711 11712 11713 11714 11715 11716 11717 11718 11719 11720 11721 11722 11723 11724 11725 11726 11727 11728 11729 11730 11731 11732 11733 11734 11735 11736 11737 11738 11739 11740 11741 11742 11743 11744 11745 11746 11747 11748 11749 11750 11751 11752 11753 11754 11755 11756 11757 11758 11759 11760 11761 11762 11763 11764 11765 11766 11767 11768 11769 11770 11771 11772 11773 11774 11775 11776 11777 11778 11779 11780 11781 11782 11783 11784 11785 11786 11787 11788 11789 11790 11791 11792 11793 11794 11795 11796 11797 11798 11799 11800 11801 11802 11803 11804 11805 11806 11807 11808 11809 11810 11811 11812 11813 11814 11815 11816 11817 11818 11819 11820 11821 11822 11823 11824 11825 11826 11827 11828 11829 11830 11831 11832 11833 11834 11835 11836 11837 11838 11839 11840 11841 11842 11843 11844 11845 11846 11847 11848 11849 11850 11851 11852 11853 11854 11855 11856 11857 11858 11859 11860 11861 11862 11863 11864 11865 11866 11867 11868 11869 11870 11871 11872 11873 11874 11875 11876 11877 11878 11879 11880 11881 11882 11883 11884 11885 11886 11887 11888 11889 11890 11891 11892 11893 11894 11895 11896 11897 11898 11899 11900 11901 11902 11903 11904 11905 11906 11907 11908 11909 11910 11911 11912 11913 11914 11915 11916 11917 11918 11919 11920 11921 11922 11923 11924 11925 11926 11927 11928 11929 11930 11931 11932 11933 11934 11935 11936 11937 11938 11939 11940 11941 11942 11943 11944 11945 11946 11947 11948 11949 11950 11951 11952 11953 11954 11955 11956 11957 11958 11959 11960 11961 11962 11963 11964 11965 11966 11967 11968 11969 11970 11971 11972 11973 11974 11975 11976 11977 11978 11979 11980 11981 11982 11983 11984 11985 11986 11987 11988 11989 11990 11991 11992 11993 11994 11995 11996 11997 11998 11999 12000 12001 12002 12003 12004 12005 12006 12007 12008 12009 12010 12011 12012 12013 12014 12015 12016 12017 12018 12019 12020 12021 12022 12023 12024 12025 12026 12027 12028 12029 12030 12031 12032 12033 12034 12035 12036 12037 12038 12039 12040 12041 12042 12043 12044 12045 12046 12047 12048 12049 12050 12051 12052 12053 12054 12055 12056 12057 12058 12059 12060 12061 12062 12063 12064 12065 12066 12067 12068 12069 12070 12071 12072 12073 12074 12075 12076 12077 12078 12079 12080 12081 12082 12083 12084 12085 12086 12087 12088 12089 12090 12091 12092 12093 12094 12095 12096 12097 12098 12099 12100 12101 12102 12103 12104 12105 12106 12107 12108 12109 12110 12111 12112 12113 12114 12115 12116 12117 12118 12119 12120 12121 12122 12123 12124 12125 12126 12127 12128 12129 12130 12131 12132 12133 12134 12135 12136 12137 12138 12139 12140 12141 12142 12143 12144 12145 12146 12147 12148 12149 12150 12151 12152 12153 12154 12155 12156 12157 12158 12159 12160 12161 12162 12163 12164 12165 12166 12167 12168 12169 12170 12171 12172 12173 12174 12175 12176 12177 12178 12179 12180 12181 12182 12183 12184 12185 12186 12187 12188 12189 12190 12191 12192 12193 12194 12195 12196 12197 12198 12199 12200 12201 12202 12203 12204 12205 12206 12207 12208 12209 12210 12211 12212 12213 12214 12215 12216 12217 12218 12219 12220 12221 12222 12223 12224 12225 12226 12227 12228 12229 12230 12231 12232 12233 12234 12235 12236 12237 12238 12239 12240 12241 12242 12243 12244 12245 12246 12247 12248 12249 12250 12251 12252 12253 12254 12255 12256 12257 12258 12259 12260 12261 12262 12263 12264 12265 12266 12267 12268 12269 12270 12271 12272 12273 12274 12275 12276 12277 12278 12279 12280 12281 12282 12283 12284 12285 12286 12287 12288 12289 12290 12291 12292 12293 12294 12295 12296 12297 12298 12299 12300 12301 12302 12303 12304 12305 12306 12307 12308 12309 12310 12311 12312 12313 12314 12315 12316 12317 12318 12319 12320 12321 12322 12323 12324 12325 12326 12327 12328 12329 12330 12331 12332 12333 12334 12335 12336 12337 12338 12339 12340 12341 12342 12343 12344 12345 12346 12347 12348 12349 12350 12351 12352 12353 12354 12355 12356 12357 12358 12359 12360 12361 12362 12363 12364 12365 12366 12367 12368 12369 12370 12371 12372 12373 12374 12375 12376 12377 12378 12379 12380 12381 12382 12383 12384 12385 12386 12387 12388 12389 12390 12391 12392 12393 12394 12395 12396 12397 12398 12399 12400 12401 12402 12403 12404 12405 12406 12407 12408 12409 12410 12411 12412 12413 12414 12415 12416 12417 12418 12419 12420 12421 12422 12423 12424 12425 12426 12427 12428 12429 12430 12431 12432 12433 12434 12435 12436 12437 12438 12439 12440 12441 12442 12443 12444 12445 12446 12447 12448 12449 12450 12451 12452 12453 12454 12455 12456 12457 12458 12459 12460 12461 12462 12463 12464 12465 12466 12467 12468 12469 12470 12471 12472 12473 12474 12475 12476 12477 12478 12479 12480 12481 12482 12483 12484 12485 12486 12487 12488 12489 12490 12491 12492 12493 12494 12495 12496 12497 12498 12499 12500 12501 12502 12503 12504 12505 12506 12507 12508 12509 12510 12511 12512 12513 12514 12515 12516 12517 12518 12519 12520 12521 12522 12523 12524 12525 12526 12527 12528 12529 12530 12531 12532 12533 12534 12535 12536 12537 12538 12539 12540 12541 12542 12543 12544 12545 12546 12547 12548 12549 12550 12551 12552 12553 12554 12555 12556 12557 12558 12559 12560 12561 12562 12563 12564 12565 12566 12567 12568 12569 12570 12571 12572 12573 12574 12575 12576 12577 12578 12579 12580 12581 12582 12583 12584 12585 12586 12587 12588 12589 12590 12591 12592 12593 12594 12595 12596 12597 12598 12599 12600 12601 12602 12603 12604 12605 12606 12607 12608 12609 12610 12611 12612 12613 12614 12615 12616 12617 12618 12619 12620 12621 12622 12623 12624 12625 12626 12627 12628 12629 12630 12631 12632 12633 12634 12635 12636 12637 12638 12639 12640 12641 12642 12643 12644 12645 12646 12647 12648 12649 12650 12651 12652 12653 12654 12655 12656 12657 12658 12659 12660 12661 12662 12663 12664 12665 12666 12667 12668 12669 12670 12671 12672 12673 12674 12675 12676 12677 12678 12679 12680 12681 12682 12683 12684 12685 12686 12687 12688 12689 12690 12691 12692 12693 12694 12695 12696 12697 12698 12699 12700 12701 12702 12703 12704 12705 12706 12707 12708 12709 12710 12711 12712 12713 12714 12715 12716 12717 12718 12719 12720 12721 12722 12723 12724 12725 12726 12727 12728 12729 12730 12731 12732 12733 12734 12735 12736 12737 12738 12739 12740 12741 12742 12743 12744 12745 12746 12747 12748 12749 12750 12751 12752 12753 12754 12755 12756 12757 12758 12759 12760 12761 12762 12763 12764 12765 12766 12767 12768 12769 12770 12771 12772 12773 12774 12775 12776 12777 12778 12779 12780 12781 12782 12783 12784 12785 12786 12787 12788 12789 12790 12791 12792 12793 12794 12795 12796 12797 12798 12799 12800 12801 12802 12803 12804 12805 12806 12807 12808 12809 12810 12811 12812 12813 12814 12815 12816 12817 12818 12819 12820 12821 12822 12823 12824 12825 12826 12827 12828 12829 12830 12831 12832 12833 12834 12835 12836 12837 12838 12839 12840 12841 12842 12843 12844 12845 12846 12847 12848 12849 12850 12851 12852 12853 12854 12855 12856 12857 12858 12859 12860 12861 12862 12863 12864 12865 12866 12867 12868 12869 12870 12871 12872 12873 12874 12875 12876 12877 12878 12879 12880 12881 12882 12883 12884 12885 12886 12887 12888 12889 12890 12891 12892 12893 12894 12895 12896 12897 12898 12899 12900 12901 12902 12903 12904 12905 12906 12907 12908 12909 12910 12911 12912 12913 12914 12915 12916 12917 12918 12919 12920 12921 12922 12923 12924 12925 12926 12927 12928 12929 12930 12931 12932 12933 12934 12935 12936 12937 12938 12939 12940 12941 12942 12943 12944 12945 12946 12947 12948 12949 12950 12951 12952 12953 12954 12955 12956 12957 12958 12959 12960 12961 12962 12963 12964 12965 12966 12967 12968 12969 12970 12971 12972 12973 12974 12975 12976 12977 12978 12979 12980 12981 12982 12983 12984 12985 12986 12987 12988 12989 12990 12991 12992 12993 12994 12995 12996 12997 12998 12999 13000 13001 13002 13003 13004 13005 13006 13007 13008 13009 13010 13011 13012 13013 13014 13015 13016 13017 13018 13019 13020 13021 13022 13023 13024 13025 13026 13027 13028 13029 13030 13031 13032 13033 13034 13035 13036 13037 13038 13039 13040 13041 13042 13043 13044 13045 13046 13047 13048 13049 13050 13051 13052 13053 13054 13055 13056 13057 13058 13059 13060 13061 13062 13063 13064 13065 13066 13067 13068 13069 13070 13071 13072 13073 13074 13075 13076 13077 13078 13079 13080 13081 13082 13083 13084 13085 13086 13087 13088 13089 13090 13091 13092 13093 13094 13095 13096 13097 13098 13099 13100 13101 13102 13103 13104 13105 13106 13107 13108 13109 13110 13111 13112 13113 13114 13115 13116 13117 13118 13119 13120 13121 13122 13123 13124 13125 13126 13127 13128 13129 13130 13131 13132 13133 13134 13135 13136 13137 13138 13139 13140 13141 13142 13143 13144 13145 13146 13147 13148 13149 13150 13151 13152 13153 13154 13155 13156 13157 13158 13159 13160 13161 13162 13163 13164 13165 13166 13167 13168 13169 13170 13171 13172 13173 13174 13175 13176 13177 13178 13179 13180 13181 13182 13183 13184 13185 13186 13187 13188 13189 13190 13191 13192 13193 13194 13195 13196 13197 13198 13199 13200 13201 13202 13203 13204 13205 13206 13207 13208 13209 13210 13211 13212 13213 13214 13215 13216 13217 13218 13219 13220 13221 13222 13223 13224 13225 13226 13227 13228 13229 13230 13231 13232 13233 13234 13235 13236 13237 13238 13239 13240 13241 13242 13243 13244 13245 13246 13247 13248 13249 13250 13251 13252 13253 13254 13255 13256 13257 13258 13259 13260 13261 13262 13263 13264 13265 13266 13267 13268 13269 13270 13271 13272 13273 13274 13275 13276 13277 13278 13279 13280 13281 13282 13283 13284 13285 13286 13287 13288 13289 13290 13291 13292 13293 13294 13295 13296 13297 13298 13299 13300 13301 13302 13303 13304 13305 13306 13307 13308 13309 13310 13311 13312 13313 13314 13315 13316 13317 13318 13319 13320 13321 13322 13323 13324 13325 13326 13327 13328 13329 13330 13331 13332 13333 13334 13335 13336 13337 13338 13339 13340 13341 13342 13343 13344 13345 13346 13347 13348 13349 13350 13351 13352 13353 13354 13355 13356 13357 13358 13359 13360 13361 13362 13363 13364 13365 13366 13367 13368 13369 13370 13371 13372 13373 13374 13375 13376 13377 13378 13379 13380 13381 13382 13383 13384 13385 13386 13387 13388 13389 13390 13391 13392 13393 13394 13395 13396 13397 13398 13399 13400 13401 13402 13403 13404 13405 13406 13407 13408 13409 13410 13411 13412 13413 13414 13415 13416 13417 13418 13419 13420 13421 13422 13423 13424 13425 13426 13427 13428 13429 13430 13431 13432 13433 13434 13435 13436 13437 13438 13439 13440 13441 13442 13443 13444 13445 13446 13447 13448 13449 13450 13451 13452 13453 13454 13455 13456 13457 13458 13459 13460 13461 13462 13463 13464 13465 13466 13467 13468 13469 13470 13471 13472 13473 13474 13475 13476 13477 13478 13479 13480 13481 13482 13483 13484 13485 13486 13487 13488 13489 13490 13491 13492 13493 13494 13495 13496 13497 13498 13499 13500 13501 13502 13503 13504 13505 13506 13507 13508 13509 13510 13511 13512 13513 13514 13515 13516 13517 13518 13519 13520 13521 13522 13523 13524 13525 13526 13527 13528 13529 13530 13531 13532 13533 13534 13535 13536 13537 13538 13539 13540 13541 13542 13543 13544 13545 13546 13547 13548 13549 13550 13551 13552 13553 13554 13555 13556 13557 13558 13559 13560 13561 13562 13563 13564 13565 13566 13567 13568 13569 13570 13571 13572 13573 13574 13575 13576 13577 13578 13579 13580 13581 13582 13583 13584 13585 13586 13587 13588 13589 13590 13591 13592 13593 13594 13595 13596 13597 13598 13599 13600 13601 13602 13603 13604 13605 13606 13607 13608 13609 13610 13611 13612 13613 13614 13615 13616 13617 13618 13619 13620 13621 13622 13623 13624 13625 13626 13627 13628 13629 13630 13631 13632 13633 13634 13635 13636 13637 13638 13639 13640 13641 13642 13643 13644 13645 13646 13647 13648 13649 13650 13651 13652 13653 13654 13655 13656 13657 13658 13659 13660 13661 13662 13663 13664 13665 13666 13667 13668 13669 13670 13671 13672 13673 13674 13675 13676 13677 13678 13679 13680 13681 13682 13683 13684 13685 13686 13687 13688 13689 13690 13691 13692 13693 13694 13695 13696 13697 13698 13699 13700 13701 13702 13703 13704 13705 13706 13707 13708 13709 13710 13711 13712 13713 13714 13715 13716 13717 13718 13719 13720 13721 13722 13723 13724 13725 13726 13727 13728 13729 13730 13731 13732 13733 13734 13735 13736 13737 13738 13739 13740 13741 13742 13743 13744 13745 13746 13747 13748 13749 13750 13751 13752 13753 13754 13755 13756 13757 13758 13759 13760 13761 13762 13763 13764 13765 13766 13767 13768 13769 13770 13771 13772 13773 13774 13775 13776 13777 13778 13779 13780 13781 13782 13783 13784 13785 13786 13787 13788 13789 13790 13791 13792 13793 13794 13795 13796 13797 13798 13799 13800 13801 13802 13803 </DataArray>
        <DataArray type="Float64" Name="stress" format="ascii" NumberOfComponents="9">74346182.84714633 -234613.8525440054 -234613.8525440054 3795412.495549875 0 0 0 0 0 74229791.52795383 -328535.3906772126 -328535.3906772126 3563546.263152569 0 0 0 0 0 73960881.36576635 -234450.8145222917 -234450.8145222917 3728986.817930175 0 0 0 0 0 74576777.56177983 -627409.3218058561 -627409.3218058561 3816842.003921408 0 0 0 0 0 73703334.56271048 -251120.9011657022 -251120.9011657022 3742359.05513479 0 0 0 0 0 73904594.75452739 -655473.016700407 -655473.016700407 3651345.839200471 0 0 0 0 0 74191659.61356817 -889533.3206131413 -889533.3206131413 3520066.856538383 0 0 0 0 0 73438928.83644332 -252999.5942338452 -252999.5942338452 3780910.539329034 0 0 0 0 0 73720559.13384466 -672497.7489067751 -672497.7489067751 3748775.583830489 0 0 0 0 0 74699844.51598188 -1215606.645999339 -1215606.645999339 3832382.230984434 0 0 0 0 0 73053860.00100785 -273583.2811517912 -273583.2811517912 3777861.912453928 0 0 0 0 0 73356483.77707376 -722237.6699080735 -722237.6699080735 3761825.845622062 0 0 0 0 0 73798745.90330127 -1148237.156601907 -1148237.156601907 3790932.096408123 0 0 0 0 0 74252240.90362051 -1479174.729746365 -1479174.729746365 3474319.483539237 0 0 0 0 0 73763226.68638389 -1215150.391536162 -1215150.391536162 3567152.129714692 0 0 0 0 0 72762428.16352619 -281008.2515657276 -281008.2515657276 3813126.182551364 0 0 0 0 0 73127427.6761391 -707613.3812860872 -707613.3812860872 3802285.452099025 0 0 0 0 0 73245363.21988539 -1127815.13558298 -1127815.13558298 3685564.766307448 0 0 0 0 0 74810965.9126392 -1809146.699551246 -1809146.699551246 3779353.281072796 0 0 0 0 0 74353421.72241944 -2069589.190843061 -2069589.190843061 3409184.496914793 0 0 0 0 0 74220495.81004259 -1677391.707709176 -1677391.707709176 3800829.76903866 0 0 0 0 0 72393188.45140916 -292733.7776718287 -292733.7776718287 3828432.912464322 0 0 0 0 0 72669116.11943881 -806590.5754462775 -806590.5754462775 3769694.55864781 0 0 0 0 0 73166382.1969988 -1108720.283064327 -1108720.283064327 3823875.990733929 0 0 0 0 0 73525391.41815211 -1569820.147462073 -1569820.147462073 3804063.991121409 0 0 0 0 0 73936569.12334077 -1829561.850726941 -1829561.850726941 3523051.113958764 0 0 0 0 0 74932007.12450603 -2383655.364731397 -2383655.364731397 3671469.834844602 0 0 0 0 0 74502372.12968089 -2637869.628541503 -2637869.628541503 3327281.231633062 0 0 0 0 0 73395712.23772106 -1667418.852084085 -1667418.852084085 3575202.46743193 0 0 0 0 0 71946966.72746165 -276992.604080339 -276992.604080339 3787909.11354949 0 0 0 0 0 72833688.14476731 -904108.263132214 -904108.263132214 3970054.996036021 0 0 0 0 0 72589850.81961524 -1038403.593548719 -1038403.593548719 3736363.178450185 0 0 0 0 0 72855294.09022602 -1573292.45982628 -1573292.45982628 3646082.434522879 0 0 0 0 0 74438013.62339213 -2224560.989852259 -2224560.989852259 3748629.157390807 0 0 0 0 0 74034769.73862988 -2439577.225717783 -2439577.225717783 3396940.166035554 0 0 0 0 0 75114601.75140125 -2991008.393141276 -2991008.393141276 3644919.984579722 0 0 0 0 0 74748688.77955975 -3221624.733791501 -3221624.733791501 3244106.873520637 0 0 0 0 0 73814859.48369628 -2129366.764878398 -2129366.764878398 3719446.653290418 0 0 0 0 0 71699444.68949519 -279049.3559256302 -279049.3559256302 3842643.60073374 0 0 0 0 0 72267196.8074826 -759459.7137615143 -759459.7137615143 4033898.44493424 0 0 0 0 0 71989371.6757547 -921886.2286252365 -921886.2286252365 3716198.840431246 0 0 0 0 0 72881613.14841662 -1512486.700666722 -1512486.700666722 3849335.848890739 0 0 0 0 0 73133803.29841502 -2090560.809418219 -2090560.809418219 3766030.665423064 0 0 0 0 0 73711680.37025848 -2209301.988110472 -2209301.988110472 3544172.823549226 0 0 0 0 0 74533536.74304232 -2660996.224620868 -2660996.224620868 3644756.443777875 0 0 0 0 0 74145681.12479442 -3015419.695789528 -3015419.695789528 3353103.205542149 0 0 0 0 0 75319503.43265317 -3548119.537498994 -3548119.537498994 3526675.369409089 0 0 0 0 0 73158248.69397554 -2151020.104095571 -2151020.104095571 3572068.097157126 0 0 0 0 0 71657650.48737128 -339273.1548237444 -339273.1548237444 3993249.501950064 0 0 0 0 0 71184555.23740299 -770116.6145275957 -770116.6145275957 3711048.515529501 0 0 0 0 0 72417357.24251275 -1343239.037978527 -1343239.037978527 3965754.72646455 0 0 0 0 0 72139897.40756652 -1500075.498551148 -1500075.498551148 3659627.780103942 0 0 0 0 0 72452404.43275945 -2088948.648473292 -2088948.648473292 3605284.412142169 0 0 0 0 0 73943417.952584 -2675450.225843251 -2675450.225843251 3553531.482730549 0 0 0 0 0 74702041.79093732 -3293015.871496164 -3293015.871496164 3600084.235455727 0 0 0 0 0 74950024.26125251 -3789780.101161817 -3789780.101161817 3117720.025527482 0 0 0 0 0 74332193.55202474 -3543345.778400796 -3543345.778400796 3230511.368952497 0 0 0 0 0 73458110.20914631 -2674939.112852032 -2674939.112852032 3679329.324976802 0 0 0 0 0 71053593.49588899 -348471.3129013327 -348471.3129013327 3905583.595902123 0 0 0 0 0 71746073.49746309 -1148144.353578751 -1148144.353578751 4028521.776129412 0 0 0 0 0 71413787.74985634 -1333329.352421418 -1333329.352421418 3684658.027956667 0 0 0 0 0 72556390.62840109 -1996604.356814625 -1996604.356814625 3854340.952325613 0 0 0 0 0 72865260.76414771 -2592334.736982136 -2592334.736982136 3756390.279442101 0 0 0 0 0 73541421.02189645 -2705066.774313951 -2705066.774313951 3537306.307000611 0 0 0 0 0 73802954.07870533 -3303537.627450787 -3303537.627450787 3340095.162549125 0 0 0 0 0 75543095.56715363 -4107055.150973449 -4107055.150973449 3346999.723519386 0 0 0 0 0 75009602.6347138 -3877406.926792962 -3877406.926792962 3462192.358442387 0 0 0 0 0 75214710.84328777 -4327241.1807619 -4327241.1807619 2981521.417193907 0 0 0 0 0 75579562.0326647 -4855439.900078787 -4855439.900078787 2847586.864374782 0 0 0 0 0 72827521.8276065 -2657243.595781892 -2657243.595781892 3533659.071003892 0 0 0 0 0 70642037.65464684 -360895.1921099999 -360895.1921099999 3922143.433755748 0 0 0 0 0 70752155.50994277 -1160950.994638303 -1160950.994638303 3752592.080468898 0 0 0 0 0 71888721.64612742 -1877276.28873631 -1877276.28873631 3920917.142710452 0 0 0 0 0 71758406.46342325 -1980119.855814991 -1980119.855814991 3656314.944290565 0 0 0 0 0 72126627.76555629 -2575233.121689175 -2575233.121689175 3581729.494149562 0 0 0 0 0 73878612.61752473 -3227042.239475914 -3227042.239475914 3577617.193365849 0 0 0 0 0 74319675.68814482 -3771671.974149346 -3771671.974149346 3458133.545264581 0 0 0 0 0 74606022.81955588 -4143487.632780139 -4143487.632780139 3073114.165074027 0 0 0 0 0 74097576.7661096 -3901021.078408367 -3901021.078408367 3200131.615328555 0 0 0 0 0 75775947.29544148 -4731374.327988138 -4731374.327988138 3159495.986692996 0 0 0 0 0 76124161.51898298 -5242934.854779932 -5242934.854779932 2998972.38214908 0 0 0 0 0 75928263.14695966 -5367061.443911593 -5367061.443911593 2682175.935539365 0 0 0 0 0 73204148.62502831 -3165211.554740132 -3165211.554740132 3646597.025101612 0 0 0 0 0 70340107.98918204 -338344.9842978401 -338344.9842978401 3991255.824495892 0 0 0 0 0 70836686.7450767 -1062682.466312306 -1062682.466312306 4006683.542177297 0 0 0 0 0 71239258.32914436 -1748940.996130562 -1748940.996130562 3977354.422706033 0 0 0 0 0 71069855.77776606 -1863563.794909939 -1863563.794909939 3718162.752087141 0 0 0 0 0 72192253.38902102 -2496926.889126888 -2496926.889126888 3823132.61265847 0 0 0 0 0 72537297.44526802 -3095249.835437479 -3095249.835437479 3714129.808790275 0 0 0 0 0 73190170.48008494 -3226460.046649099 -3226460.046649099 3420965.360537337 0 0 0 0 0 73615642.40161912 -3775975.067192072 -3775975.067192072 3308499.7149635 0 0 0 0 0 74871101.46709289 -4263561.74588336 -4263561.74588336 3271006.204803227 0 0 0 0 0 74619958.04244465 -4265441.19390461 -4265441.19390461 3317634.102017339 0 0 0 0 0 75113562.19235179 -4785436.485369881 -4785436.485369881 2989097.381357514 0 0 0 0 0 75399912.40405126 -5299579.154663685 -5299579.154663685 2789007.515638146 0 0 0 0 0 76535516.63530715 -5734384.634764874 -5734384.634764874 2857014.519874425 0 0 0 0 0 76319470.6430881 -5871670.538919249 -5871670.538919249 2504152.356045605 0 0 0 0 0 76751823.18975258 -6375292.113513 -6375292.113513 2314477.164209872 0 0 0 0 0 72517064.20412174 -3157219.549712169 -3157219.549712169 3491570.951961827 0 0 0 0 0 69819161.14961714 -334564.1502146087 -334564.1502146087 3935880.314656106 0 0 0 0 0 70040608.30292107 -1046210.857703818 -1046210.857703818 3831750.347602265 0 0 0 0 0 70342110.01234402 -1732878.630045831 -1732878.630045831 3756814.305545858 0 0 0 0 0 71488782.64163397 -2401994.116612894 -2401994.116612894 3889225.170557015 0 0 0 0 0 71427054.24350843 -2483257.49194951 -2483257.49194951 3644922.895478393 0 0 0 0 0 71820495.22576293 -3086676.804620661 -3086676.804620661 3551845.004072146 0 0 0 0 0 73599416.54997566 -3725108.175760563 -3725108.175760563 3522991.775690751 0 0 0 0 0 73998188.19169676 -4271708.102588268 -4271708.102588268 3382448.789253765 0 0 0 0 0 74940623.10961306 -4773130.05328673 -4773130.05328673 3186123.484357671 0 0 0 0 0 74067901.03753744 -4296585.044773236 -4296585.044773236 3206877.745000335 0 0 0 0 0 75471789.24431066 -5238638.640163504 -5238638.640163504 2989656.227568743 0 0 0 0 0 75969639.94567339 -5607632.698585602 -5607632.698585602 3009480.573554678 0 0 0 0 0 75667309.76471353 -5817126.023706242 -5817126.023706242 2592382.27057902 0 0 0 0 0 76945151.35218626 -6250838.354454812 -6250838.354454812 2700065.921956322 0 0 0 0 0 77359896.26661924 -6742620.750072338 -6742620.750072338 2452133.614075285 0 0 0 0 0 77198709.08273676 -6846900.361924237 -6846900.361924237 2106628.123983537 0 0 0 0 0 72914879.4591728 -3675903.508476918 -3675903.508476918 3588133.612977619 0 0 0 0 0 69595650.26874305 -322897.973745603 -322897.973745603 4034814.700502674 0 0 0 0 0 70029500.00473492 -979364.3792874845 -979364.3792874845 4029338.772023014 0 0 0 0 0 70449295.15204786 -1631055.448990051 -1631055.448990051 4021648.852662656 0 0 0 0 0 70796885.03791478 -2300206.70015505 -2300206.70015505 3947626.656263049 0 0 0 0 0 70697146.46723929 -2390199.458958963 -2390199.458958963 3705989.298004118 0 0 0 0 0 71837139.22647811 -3024016.82743646 -3024016.82743646 3774929.884321291 0 0 0 0 0 72222918.53245762 -3627428.024962528 -3627428.024962528 3651686.975031421 0 0 0 0 0 72942180.94322887 -3726017.548126467 -3726017.548126467 3376168.456443452 0 0 0 0 0 73397213.02174695 -4280646.259085226 -4280646.259085226 3248599.543133682 0 0 0 0 0 74529097.45857991 -4796347.437559774 -4796347.437559774 3098293.149667638 0 0 0 0 0 74451792.82017453 -4792470.477474481 -4792470.477474481 3223137.920146903 0 0 0 0 0 75219035.91976003 -5262413.910403856 -5262413.910403856 2966091.322472475 0 0 0 0 0 75103862.20651725 -5652144.367431072 -5652144.367431072 2752974.907582999 0 0 0 0 0 76288364.90779896 -6089907.009395868 -6089907.009395868 2789640.049667388 0 0 0 0 0 76008202.51612571 -6306461.306321345 -6306461.306321345 2418356.422910836 0 0 0 0 0 76518550.63672532 -6773851.585602625 -6773851.585602625 2200258.314888104 0 0 0 0 0 77795942.5246743 -7201206.125784369 -7201206.125784369 2205751.665774356 0 0 0 0 0 72249445.93514447 -3676247.714495782 -3676247.714495782 3443021.119022171 0 0 0 0 0 69080486.84393127 -303051.6121800715 -303051.6121800715 3966440.690591633 0 0 0 0 0 69353785.01226386 -944502.103374091 -944502.103374091 3910464.673368673 0 0 0 0 0 69583503.27651966 -1608759.658292503 -1608759.658292503 3813617.530866242 0 0 0 0 0 69924514.25333519 -2288082.990039484 -2288082.990039484 3732881.900339078 0 0 0 0 0 71106362.10814455 -2958160.268240135 -2958160.268240135 3836022.306202532 0 0 0 0 0 71108911.495251 -3018008.803921433 -3018008.803921433 3612354.545463049 0 0 0 0 0 71534625.53801194 -3626165.026913534 -3626165.026913534 3502267.792144527 0 0 0 0 0 73346846.3683622 -4242609.280511553 -4242609.280511553 3451470.060230326 0 0 0 0 0 73792468.24943545 -4787083.674644326 -4787083.674644326 3290765.792264785 0 0 0 0 0 74813835.50391448 -5288027.252047284 -5288027.252047284 3038083.749770495 0 0 0 0 0 73867140.1979441 -4808187.619045285 -4808187.619045285 3098123.46240307 0 0 0 0 0 75600605.54888591 -5835241.049589097 -5835241.049589097 2931779.057878945 0 0 0 0 0 75327241.87894346 -6137019.814779742 -6137019.814779742 2517665.951024895 0 0 0 0 0 76671002.8619438 -6675636.530289342 -6675636.530289342 2531323.346795156 0 0 0 0 0 77164070.32891688 -7167069.815337232 -7167069.815337232 2299949.652329348 0 0 0 0 0 77654178.21719787 -7293911.0384645 -7293911.0384645 1880361.988696689 0 0 0 0 0 77093324.41693458 -7232755.492372793 -7232755.492372793 1998950.863726585 0 0 0 0 0 72660870.0828297 -4212554.934814219 -4212554.934814219 3511911.029548629 0 0 0 0 0 68812083.02290793 -318889.2778340005 -318889.2778340005 4027902.946968604 0 0 0 0 0 69198051.72552171 -919384.7351898673 -919384.7351898673 4053504.594709006 0 0 0 0 0 69668422.05965862 -1519176.321554421 -1519176.321554421 4069240.89394363 0 0 0 0 0 70052992.6594104 -2179483.438963309 -2179483.438963309 4017182.234480445 0 0 0 0 0 70380195.05572169 -2875506.855291231 -2875506.855291231 3910723.159953943 0 0 0 0 0 70332599.18674143 -2946542.358863012 -2946542.358863012 3665142.18395979 0 0 0 0 0 71500551.22162384 -3580468.599965876 -3580468.599965876 3710309.261280498 0 0 0 0 0 71948860.68418449 -4183386.060319762 -4183386.060319762 3578366.065832227 0 0 0 0 0 72712996.2590844 -4250736.043937233 -4250736.043937233 3307814.349682467 0 0 0 0 0 73224911.40137428 -4793302.66971239 -4793302.66971239 3169732.324852734 0 0 0 0 0 74324029.01723725 -5328089.163823435 -5328089.163823435 2958493.326560408 0 0 0 0 0 74275468.36673665 -5301739.26999562 -5301739.26999562 3134057.038928734 0 0 0 0 0 74726674.55278093 -5862253.036915414 -5862253.036915414 2668791.511866226 0 0 0 0 0 75547543.57270576 -6234406.598142375 -6234406.598142375 2675153.832418214 0 0 0 0 0 75950541.43767142 -6720140.628383012 -6720140.628383012 2338409.333724558 0 0 0 0 0 76516244.75810194 -7205548.076007661 -7205548.076007661 2133256.055505353 0 0 0 0 0 78286988.19102781 -7639611.820304889 -7639611.820304889 1966472.291852587 0 0 0 0 0 77722684.52726027 -7586441.700028093 -7586441.700028093 2069540.763073612 0 0 0 0 0 78169413.50472684 -7717497.205094596 -7717497.205094596 1652644.21538973 0 0 0 0 0 78730922.80799395 -8099483.932334561 -8099483.932334561 1421094.585526551 0 0 0 0 0 71990352.37392965 -4227342.837893003 -4227342.837893003 3362003.337720707 0 0 0 0 0 68429221.37663972 -333364.3014050415 -333364.3014050415 4044601.741782411 0 0 0 0 0 68700408.74744961 -893924.3631582607 -893924.3631582607 4002700.444243544 0 0 0 0 0 68860680.57315871 -1498521.728905387 -1498521.728905387 3889233.500072913 0 0 0 0 0 69131192.1022269 -2169081.915069868 -2169081.915069868 3788698.868914607 0 0 0 0 0 69533036.59899259 -2871649.732005651 -2871649.732005651 3698212.297445135 0 0 0 0 0 70739756.42787527 -3536421.724206355 -3536421.724206355 3763687.385040368 0 0 0 0 0 70789792.6871291 -3571799.151147384 -3571799.151147384 3553187.230937673 0 0 0 0 0 71245585.48626152 -4189753.518374707 -4189753.518374707 3417086.169000851 0 0 0 0 0 73098879.06230991 -4784730.40042565 -4784730.40042565 3343553.436696926 0 0 0 0 0 73561669.7849246 -5317633.701301645 -5317633.701301645 3166631.683529939 0 0 0 0 0 74843824.35246779 -5775008.158756094 -5775008.158756094 2955993.356140388 0 0 0 0 0 73731902.63352455 -5305803.993579649 -5305803.993579649 3020068.496197014 0 0 0 0 0 75249726.9144896 -6252942.156285945 -6252942.156285945 2734829.094965007 0 0 0 0 0 75781312.31221831 -6726376.724874352 -6726376.724874352 2528281.540284256 0 0 0 0 0 76482408.86239479 -7178773.745012996 -7178773.745012996 2324180.851493671 0 0 0 0 0 77047230.14100756 -7606280.17435825 -7606280.17435825 2073370.579209766 0 0 0 0 0 77545183.94001225 -7701689.668894793 -7701689.668894793 1735557.113369698 0 0 0 0 0 77160835.73797622 -7614538.934367339 -7614538.934367339 1919690.967193177 0 0 0 0 0 78717237.87369733 -8085601.098289929 -8085601.098289929 1612488.353617802 0 0 0 0 0 79392938.01158686 -8381589.036400234 -8381589.036400234 1584862.336859801 0 0 0 0 0 79196742.38452263 -8501930.729473738 -8501930.729473738 1144836.162174174 0 0 0 0 0 72411202.17655042 -4776127.803341748 -4776127.803341748 3411546.914918633 0 0 0 0 0 67986117.82049344 -342911.4466395677 -342911.4466395677 4059897.805476337 0 0 0 0 0 68264040.76475745 -953143.7414896608 -953143.7414896608 3953104.875632789 0 0 0 0 0 68943516.3730908 -1408966.525566501 -1408966.525566501 4163785.839987875 0 0 0 0 0 69256615.80666777 -2063995.978214915 -2063995.978214915 4058454.867342059 0 0 0 0 0 69616474.31290279 -2781037.575991644 -2781037.575991644 3955094.824596804 0 0 0 0 0 69971789.78920613 -3473332.338423599 -3473332.338423599 3825808.887308348 0 0 0 0 0 70024230.909655 -3519130.645281357 -3519130.645281357 3619832.093983437 0 0 0 0 0 71199542.96636774 -4148560.848571327 -4148560.848571327 3632170.050533458 0 0 0 0 0 71684583.74447623 -4762085.212852436 -4762085.212852436 3477466.033961402 0 0 0 0 0 72498693.0689546 -4798379.972449285 -4798379.972449285 3218176.440895828 0 0 0 0 0 73041781.52766049 -5333264.707254449 -5333264.707254449 3065431.89130588 0 0 0 0 0 74214078.72128201 -5817346.263595999 -5817346.263595999 2816118.758436744 0 0 0 0 0 74054613.57702838 -5817541.117168008 -5817541.117168008 2984122.244784875 0 0 0 0 0 74792827.02257451 -6302551.234382379 -6302551.234382379 2664604.123238297 0 0 0 0 0 75392981.88999376 -6768865.639290408 -6768865.639290408 2465947.320844912 0 0 0 0 0 75961757.30989955 -7214598.0907954 -7214598.0907954 2209283.198254918 0 0 0 0 0 76583247.76679084 -7660525.637584948 -7660525.637584948 1988122.931810651 0 0 0 0 0 78036053.21983005 -7849250.66952798 -7849250.66952798 1861303.023194694 0 0 0 0 0 77473814.10082689 -7962624.129645665 -7962624.129645665 1767198.840992993 0 0 0 0 0 78622570.39640531 -8155963.152566611 -8155963.152566611 1637082.075211563 0 0 0 0 0 78511704.96039535 -8473669.793982439 -8473669.793982439 1302837.452646006 0 0 0 0 0 79886684.93839182 -8774495.403431989 -8774495.403431989 1252751.329218281 0 0 0 0 0 79743970.510948 -8852771.939052284 -8852771.939052284 878743.3143229673 0 0 0 0 0 81101799.89986625 -9499338.485150406 -9499338.485150406 389870.3347484991 0 0 0 0 0 80443878.23516001 -9181781.75079165 -9181781.75079165 645963.0166189201 0 0 0 0 0 71776412.73099539 -4788886.407777551 -4788886.407777551 3273391.095485013 0 0 0 0 0 67746202.06534667 -374747.0068498293 -374747.0068498293 4126594.376159511 0 0 0 0 0 68410351.82246064 -1059663.271865604 -1059663.271865604 4180858.780270386 0 0 0 0 0 67944978.62164529 -1393119.871235857 -1393119.871235857 3892679.386050371 0 0 0 0 0 68298027.6610498 -2035658.468518377 -2035658.468518377 3807188.661961222 0 0 0 0 0 68716719.62207364 -2768946.244013577 -2768946.244013577 3731367.132460583 0 0 0 0 0 69201876.75275424 -3468397.056180023 -3468397.056180023 3649315.155872929 0 0 0 0 0 70408072.82471052 -4132156.356186155 -4132156.356186155 3680599.902950918 0 0 0 0 0 70512635.75984116 -4154749.190710539 -4154749.190710539 3487094.342713791 0 0 0 0 0 71006637.24451935 -4780907.896119464 -4780907.896119464 3327780.676142537 0 0 0 0 0 72890054.80222909 -5337778.403894997 -5337778.403894997 3230503.066818844 0 0 0 0 0 73383757.32365575 -5862930.225228891 -5862930.225228891 3037995.120739567 0 0 0 0 0 74611621.82028186 -6309730.954887382 -6309730.954887382 2799916.532013361 0 0 0 0 0 73589976.82663856 -5841953.55474893 -5841953.55474893 2900296.192885041 0 0 0 0 0 75201636.14579043 -6792515.660218964 -6792515.660218964 2587286.661473907 0 0 0 0 0 75742036.20373522 -7240340.070678926 -7240340.070678926 2354269.094530297 0 0 0 0 0 76388076.67293318 -7675077.254711963 -7675077.254711963 2117656.929107316 0 0 0 0 0 77026868.1914755 -8077373.035201306 -8077373.035201306 1871354.306036172 0 0 0 0 0 77978098.18363059 -8263282.807398062 -8263282.807398062 1579225.294036807 0 0 0 0 0 77310054.01494589 -8022091.714893629 -8022091.714893629 1787616.703084047 0 0 0 0 0 79178519.19325712 -8666927.769522712 -8666927.769522712 1419048.926616907 0 0 0 0 0 78958182.19762781 -8853907.053395167 -8853907.053395167 969085.4906260286 0 0 0 0 0 80388237.84902976 -9213561.171573369 -9213561.171573369 879649.2558410288 0 0 0 0 0 81012113.53436939 -9524875.158340091 -9524875.158340091 603268.6777622978 0 0 0 0 0 81646443.02058765 -9780758.993705897 -9780758.993705897 344274.2053809828 0 0 0 0 0 81636557.24581696 -9783218.030391984 -9783218.030391984 87884.34775562596 0 0 0 0 0 72164442.82454479 -5357640.527888309 -5357640.527888309 3288404.836603443 0 0 0 0 0 67164119.13896465 -391145.5737129516 -391145.5737129516 4068171.657151218 0 0 0 0 0 67529821.80628279 -1089414.493616855 -1089414.493616855 3992884.055297548 0 0 0 0 0 68478671.32911146 -1910577.228119009 -1910577.228119009 4114359.976242816 0 0 0 0 0 68814494.47076294 -2667087.024878671 -2667087.024878671 4018463.986731493 0 0 0 0 0 69219046.07758817 -3400534.627075082 -3400534.627075082 3895522.874371557 0 0 0 0 0 69621730.20929502 -4098762.473709639 -4098762.473709639 3739685.720916965 0 0 0 0 0 69705268.69723995 -4130028.681972417 -4130028.681972417 3529971.735256543 0 0 0 0 0 70899571.47464949 -4758782.975798335 -4758782.975798335 3522640.432128059 0 0 0 0 0 71443550.18254246 -5369271.607089557 -5369271.607089557 3355451.33923921 0 0 0 0 0 72323962.96627589 -5354738.493503512 -5354738.493503512 3117392.12546098 0 0 0 0 0 72902722.62047181 -5883337.401531846 -5883337.401531846 2952610.040069952 0 0 0 0 0 74149146.2442327 -6335453.723520249 -6335453.723520249 2705416.642484949 0 0 0 0 0 73935814.76711833 -6362249.764220138 -6362249.764220138 2846789.654310619 0 0 0 0 0 74756035.93088591 -6824939.187796757 -6824939.187796757 2499808.702358299 0 0 0 0 0 75390773.54220301 -7283000.334524491 -7283000.334524491 2298299.520737329 0 0 0 0 0 76033185.90007481 -7715596.965370983 -7715596.965370983 2060954.853017765 0 0 0 0 0 76688643.62104972 -8124867.023055064 -8124867.023055064 1819314.136360954 0 0 0 0 0 77988201.28579102 -8323559.826016702 -8323559.826016702 1633951.641347 0 0 0 0 0 77555902.38272417 -8439176.18765587 -8439176.18765587 1608375.290757512 0 0 0 0 0 78503263.91673547 -8730254.151422676 -8730254.151422676 1213402.905467763 0 0 0 0 0 79439879.16766879 -8985789.925964121 -8985789.925964121 1149655.1789918 0 0 0 0 0 79958494.97534768 -9261202.133229449 -9261202.133229449 775385.0489707706 0 0 0 0 0 80664360.88712467 -9572890.288823361 -9572890.288823361 518560.8727124852 0 0 0 0 0 81396518.43627767 -9813195.067278245 -9813195.067278245 284007.7580898345 0 0 0 0 0 82164359.43804562 -9941923.021811856 -9941923.021811856 156106.825193283 0 0 0 0 0 71579996.46522236 -5376191.109761887 -5376191.109761887 3168525.887927984 0 0 0 0 0 66768679.53208552 -397806.8091206438 -397806.8091206438 4096932.425581927 0 0 0 0 0 67317346.03249712 -1111035.396987116 -1111035.396987116 4090247.557360311 0 0 0 0 0 67531679.52002004 -1898785.847882911 -1898785.847882911 3876075.251616176 0 0 0 0 0 67884793.20920469 -2658747.170344717 -2658747.170344717 3790787.457310063 0 0 0 0 0 68336272.76304877 -3395851.351190377 -3395851.351190377 3679952.492556361 0 0 0 0 0 68875557.54149568 -4096856.139052912 -4096856.139052912 3574313.793782595 0 0 0 0 0 70114798.6058221 -4756701.789143002 -4756701.789143002 3579844.369633163 0 0 0 0 0 70251384.00240831 -4766550.649158183 -4766550.649158183 3387881.800746266 0 0 0 0 0 70793798.22714275 -5389554.378775301 -5389554.378775301 3210447.825682644 0 0 0 0 0 72687174.55307926 -5910986.210522901 -5910986.210522901 3092755.57834647 0 0 0 0 0 73237052.91827796 -6431097.711007571 -6431097.711007571 2887764.216654463 0 0 0 0 0 74519223.08312424 -6857816.921225865 -6857816.921225865 2628248.908625938 0 0 0 0 0 73477906.7234194 -6393880.415203315 -6393880.415203315 2757722.613517834 0 0 0 0 0 75115963.24819018 -7332558.145972184 -7332558.145972184 2394798.201780592 0 0 0 0 0 75710822.49274723 -7773898.936437239 -7773898.936437239 2150015.101610756 0 0 0 0 0 76368178.53346315 -8192216.614429343 -8192216.614429343 1902072.844828327 0 0 0 0 0 77040202.48824659 -8578219.346501838 -8578219.346501838 1646800.441766529 0 0 0 0 0 78272036.77930148 -8773993.648811823 -8773993.648811823 1361173.778843845 0 0 0 0 0 77404139.89718777 -8483191.475685406 -8483191.475685406 1606311.645242711 0 0 0 0 0 78908651.00492746 -9085842.344626823 -9085842.344626823 1061622.743142587 0 0 0 0 0 79559106.90302277 -9370792.726073286 -9370792.726073286 840828.4887683806 0 0 0 0 0 80374586.24393988 -9658608.861363659 -9658608.861363659 583712.9407339951 0 0 0 0 0 81032803.24426566 -9912302.102374736 -9912302.102374736 296858.3057520911 0 0 0 0 0 81523625.03936008 -10086058.51448219 -10086058.51448219 -21211.45131629451 0 0 0 0 0 82058445.66848229 -10197725.29678144 -10197725.29678144 -206265.6913667673 0 0 0 0 0 82545657.57838197 -10031888.97053112 -10031888.97053112 -108983.2483896954 0 0 0 0 0 71952377.69956096 -5956514.318140493 -5956514.318140493 3143290.586010649 0 0 0 0 0 66283925.40369023 -395995.5061093452 -395995.5061093452 4082139.094683486 0 0 0 0 0 66872009.86377595 -1131915.976291907 -1131915.976291907 4090829.578576444 0 0 0 0 0 67494460.38775037 -1835668.650243931 -1835668.650243931 4117695.031363694 0 0 0 0 0 67994700.44434299 -2555352.20793279 -2555352.20793279 4071228.033695918 0 0 0 0 0 68402494.94489901 -3306197.407377879 -3306197.407377879 3954521.760038623 0 0 0 0 0 68841149.53191124 -4046512.09025062 -4046512.09025062 3806994.780990598 0 0 0 0 0 69292974.87647223 -4748720.430542071 -4748720.430542071 3631013.265875621 0 0 0 0 0 69422043.33426104 -4765096.002836215 -4765096.002836215 3430315.291997746 0 0 0 0 0 70634149.93112469 -5387868.084912155 -5387868.084912155 3391594.296605766 0 0 0 0 0 71221472.47435501 -5993020.196452901 -5993020.196452901 3206438.552311758 0 0 0 0 0 72171756.67241748 -5932591.38196403 -5932591.38196403 2995341.573919206 0 0 0 0 0 72778485.22991154 -6459033.162825008 -6459033.162825008 2808415.795495078 0 0 0 0 0 74087750.65201943 -6893969.745500393 -6893969.745500393 2549958.243361524 0 0 0 0 0 73831090.74423043 -6932542.66180434 -6932542.66180434 2677684.146945124 0 0 0 0 0 74738179.4819814 -7371635.942849711 -7371635.942849711 2331318.992092052 0 0 0 0 0 75408286.36153187 -7819131.462289698 -7819131.462289698 2108661.830911 0 0 0 0 0 76097070.83929051 -8234035.175225462 -8234035.175225462 1865940.741836595 0 0 0 0 0 76800275.34522761 -8622325.320797238 -8622325.320797238 1618263.737156704 0 0 0 0 0 78060878.20470423 -8839489.024933826 -8839489.024933826 1344395.327626542 0 0 0 0 0 77682841.94418193 -8933902.709900321 -8933902.709900321 1381710.875008726 0 0 0 0 0 78783307.01980442 -9149518.338542197 -9149518.338542197 1082620.063187733 0 0 0 0 0 79508490.97736 -9430216.564072797 -9430216.564072797 872208.5752112336 0 0 0 0 0 80164961.49328178 -9706892.831813822 -9706892.831813822 555119.1089602939 0 0 0 0 0 80896718.07501832 -9962971.95893411 -9962971.95893411 292140.0709320719 0 0 0 0 0 81688084.27509864 -10142951.68644351 -10142951.68644351 63471.67488746836 0 0 0 0 0 82545250.00264063 -10285529.02632965 -10285529.02632965 -53443.31790144444 0 0 0 0 0 82890805.64138 -10383201.31471237 -10383201.31471237 -267215.7993228667 0 0 0 0 0 83088332.44055738 -10294701.94649461 -10294701.94649461 -421226.8344271623 0 0 0 0 0 71427665.28144252 -5978432.47613372 -5978432.47613372 3045150.838560835 0 0 0 0 0 65922691.60548188 -414747.0955444056 -414747.0955444056 4154673.505303099 0 0 0 0 0 66431944.31600924 -1117779.719935093 -1117779.719935093 4116164.858150454 0 0 0 0 0 66633261.46693067 -1800289.443262158 -1800289.443262158 3958938.635743175 0 0 0 0 0 67010017.35158314 -2534020.614214806 -2534020.614214806 3830735.738550447 0 0 0 0 0 67471071.93318254 -3300351.567128442 -3300351.567128442 3728219.661177617 0 0 0 0 0 67985691.74951674 -4049204.447251719 -4049204.447251719 3602695.212724282 0 0 0 0 0 68563824.14854245 -4755050.786541753 -4755050.786541753 3471586.981622408 0 0 0 0 0 69832500.86819839 -5410579.362273477 -5410579.362273477 3447152.298181587 0 0 0 0 0 70030658.69305898 -5401050.228337427 -5401050.228337427 3274717.297401109 0 0 0 0 0 70619770.41444361 -6019591.29853815 -6019591.29853815 3079444.094810794 0 0 0 0 0 72525193.51489173 -6501190.333560285 -6501190.333560285 2940558.676322786 0 0 0 0 0 73121769.80547525 -7016921.030974744 -7016921.030974744 2717358.58171748 0 0 0 0 0 74455065.23966403 -7422211.310598009 -7422211.310598009 2441313.493491361 0 0 0 0 0 73389261.17057483 -6966989.13356808 -6966989.13356808 2595666.249489266 0 0 0 0 0 75088914.60287794 -7886337.90490678 -7886337.90490678 2193654.842911035 0 0 0 0 0 75738039.56003074 -8316331.208381274 -8316331.208381274 1935572.255774159 0 0 0 0 0 76411122.6721763 -8717580.624301443 -8717580.624301443 1670283.522117191 0 0 0 0 0 77109305.14297089 -9091738.49885376 -9091738.49885376 1400727.232112197 0 0 0 0 0 78348105.52865875 -9253231.711242862 -9253231.711242862 1110061.054503529 0 0 0 0 0 77520352.02382724 -8982404.415258421 -8982404.415258421 1377290.685425529 0 0 0 0 0 79081507.20228224 -9562282.209459493 -9562282.209459493 849781.2461917346 0 0 0 0 0 79746774.2955928 -9827852.35058271 -9827852.35058271 580919.2184140594 0 0 0 0 0 80516786.93228321 -10079565.65473943 -10079565.65473943 311029.8642761381 0 0 0 0 0 81212023.38500078 -10296424.07159172 -10296424.07159172 29284.29890264238 0 0 0 0 0 81824243.17104526 -10463709.91502932 -10463709.91502932 -250708.5706337148 0 0 0 0 0 82399171.5473415 -10446064.0705123 -10446064.0705123 -429263.8589728093 0 0 0 0 0 83427857.6468292 -10556422.63508974 -10556422.63508974 -684460.9378098511 0 0 0 0 0 83645480.46663438 -10494420.40050163 -10494420.40050163 -732873.6791270825 0 0 0 0 0 71779823.22095077 -6576281.739799681 -6576281.739799681 2984371.250432294 0 0 0 0 0 65379024.15631952 -422385.0386224589 -422385.0386224589 4155387.54255339 0 0 0 0 0 65776196.90859257 -1181005.141810213 -1181005.141810213 4039790.295653111 0 0 0 0 0 66696258.72291934 -1722287.670679217 -1722287.670679217 4195951.627952957 0 0 0 0 0 67155167.26964298 -2420395.885958082 -2420395.885958082 4122852.910610253 0 0 0 0 0 67549016.31620508 -3206449.872690915 -3206449.872690915 4006574.345526099 0 0 0 0 0 68004207.1509847 -3976579.535061353 -3976579.535061353 3864322.010756858 0 0 0 0 0 68495744.5954928 -4716664.696476277 -4716664.696476277 3697489.054445966 0 0 0 0 0 69010724.27230324 -5420436.262170479 -5420436.262170479 3502011.375368218 0 0 0 0 0 69172374.93737634 -5424277.989998355 -5424277.989998355 3308066.413735954 0 0 0 0 0 70398653.38828476 -6042839.499278313 -6042839.499278313 3244825.753170349 0 0 0 0 0 71028614.49920118 -6641586.41975681 -6641586.41975681 3031262.844392283 0 0 0 0 0 72044984.70510231 -6528115.019254315 -6528115.019254315 2850137.631880113 0 0 0 0 0 72705593.1732662 -7046832.258616908 -7046832.258616908 2650044.756137265 0 0 0 0 0 74057942.09677698 -7459767.198627909 -7459767.198627909 2372141.480350884 0 0 0 0 0 73768166.93769665 -7510644.835349077 -7510644.835349077 2488211.476529072 0 0 0 0 0 74751050.85997418 -7927600.123820728 -7927600.123820728 2141157.326634861 0 0 0 0 0 75461582.12715031 -8362389.844614511 -8362389.844614511 1901000.612793181 0 0 0 0 0 76189744.79834881 -8764600.868161917 -8764600.868161917 1649526.953024641 0 0 0 0 0 76930255.79847014 -9138689.118077243 -9138689.118077243 1390001.349219565 0 0 0 0 0 78245896.84445968 -9304867.102025671 -9304867.102025671 1120865.6633577 0 0 0 0 0 77795233.22157393 -9429720.531182611 -9429720.531182611 1125741.175523167 0 0 0 0 0 78980820.22998486 -9604017.570390809 -9604017.570390809 853512.7887581734 0 0 0 0 0 79721364.50058123 -9877794.658677693 -9877794.658677693 608466.5262250069 0 0 0 0 0 80444800.5903206 -10127761.52940322 -10127761.52940322 323830.679395979 0 0 0 0 0 81190174.4110744 -10347340.4793442 -10347340.4793442 60454.57079852396 0 0 0 0 0 81963802.80625615 -10511157.60569087 -10511157.60569087 -179509.6524571824 0 0 0 0 0 83053073.85569353 -10633562.99880253 -10633562.99880253 -427194.7899306276 0 0 0 0 0 83713514.72755864 -10609511.1602697 -10609511.1602697 -581055.2202302292 0 0 0 0 0 84299759.26317689 -10701731.61796665 -10701731.61796665 -779188.0828135341 0 0 0 0 0 82900510.30431515 -10749703.43962254 -10749703.43962254 -796247.8775354828 0 0 0 0 0 84354718.3471805 -10677033.0207363 -10677033.0207363 -1000977.623708227 0 0 0 0 0 85106293.15077814 -10819964.84499936 -10819964.84499936 -1256853.612435964 0 0 0 0 0 71281184.74468902 -6605965.595580583 -6605965.595580583 2886905.499068549 0 0 0 0 0 64745359.20720191 -404761.9967171373 -404761.9967171373 4097319.020619812 0 0 0 0 0 66100658.89297915 -1346758.088558015 -1346758.088558015 4321222.025860396 0 0 0 0 0 65638380.87965765 -1607703.968777444 -1607703.968777444 3935358.699494616 0 0 0 0 0 66109920.41593471 -2388341.781637771 -2388341.781637771 3856961.963079077 0 0 0 0 0 66579621.56328674 -3193332.277440591 -3193332.277440591 3766266.544924067 0 0 0 0 0 67098847.95599265 -3972362.939262938 -3972362.939262938 3645026.919676937 0 0 0 0 0 67671628.83155854 -4721757.583225712 -4721757.583225712 3502653.840446489 0 0 0 0 0 68298981.27573138 -5436323.56644923 -5436323.56644923 3345506.019129012 0 0 0 0 0 69584627.07917953 -6085340.186238816 -6085340.186238816 3287635.386843397 0 0 0 0 0 69823358.43948469 -6060371.189734019 -6060371.189734019 3131023.270821523 0 0 0 0 0 70486669.56043814 -6669056.139906899 -6669056.139906899 2926238.086787329 0 0 0 0 0 72372728.60926175 -7112803.888679737 -7112803.888679737 2748647.692542157 0 0 0 0 0 73031576.9132757 -7615420.095196731 -7615420.095196731 2516642.822798736 0 0 0 0 0 74423920.78458387 -7994599.069109394 -7994599.069109394 2234708.433773402 0 0 0 0 0 73363741.87838168 -7552072.083655813 -7552072.083655813 2419930.471297507 0 0 0 0 0 75097134.33200899 -8446084.841210244 -8446084.841210244 1971037.094435001 0 0 0 0 0 75788143.5066682 -8864147.695080789 -8864147.695080789 1698691.38501188 0 0 0 0 0 76499115.29954286 -9251450.971035777 -9251450.971035777 1420176.707042226 0 0 0 0 0 77221487.46953633 -9607937.761382854 -9607937.761382854 1137879.63933806 0 0 0 0 0 78505744.04519683 -9738968.766990811 -9738968.766990811 846311.5981682258 0 0 0 0 0 77681325.54647869 -9480538.944011996 -9480538.944011996 1133174.099171366 0 0 0 0 0 79234075.15187185 -10024841.98047881 -10024841.98047881 567515.550135396 0 0 0 0 0 79933042.84149025 -10274001.67508409 -10274001.67508409 286072.0407053807 0 0 0 0 0 80683976.30222936 -10502604.12399716 -10502604.12399716 7411.768719059635 0 0 0 0 0 81409424.88408972 -10696086.65956718 -10696086.65956718 -268330.0934832616 0 0 0 0 0 82221501.19239047 -10868477.59185553 -10868477.59185553 -528285.4075885732 0 0 0 0 0 82566690.56587161 -10717535.75499285 -10717535.75499285 -586982.2496042438 0 0 0 0 0 83580031.34276283 -10837012.21112116 -10837012.21112116 -1043159.032973808 0 0 0 0 0 83474409.52153064 -10833546.10671475 -10833546.10671475 -639862.5030435326 0 0 0 0 0 84808364.63010257 -10949323.26859589 -10949323.26859589 -1234764.599737809 0 0 0 0 0 85445175.07654069 -11074851.63061414 -11074851.63061414 -1535754.234453636 0 0 0 0 0 85756023.43070045 -10952127.95926094 -10952127.95926094 -1542202.79985672 0 0 0 0 0 71633062.99604778 -7206836.179910182 -7206836.179910182 2791284.470947982 0 0 0 0 0 64460221.55160163 -405576.1278758743 -405576.1278758743 4227301.98969107 0 0 0 0 0 65068635.0619893 -1233464.447111942 -1233464.447111942 4269523.019394742 0 0 0 0 0 64917463.22088653 -1348907.577789759 -1348907.577789759 3967948.931737254 0 0 0 0 0 66231255.84229577 -2279775.086299694 -2279775.086299694 4152808.144021842 0 0 0 0 0 66676502.62082704 -3092323.893157763 -3092323.893157763 4051641.40617472 0 0 0 0 0 67132800.73442033 -3892705.180415882 -3892705.180415882 3915846.581607318 0 0 0 0 0 67637214.88610758 -4666964.016388634 -4666964.016388634 3749666.49039283 0 0 0 0 0 68178853.16067418 -5410685.807776178 -5410685.807776178 3557470.239287079 0 0 0 0 0 68756850.98197316 -6113546.056550087 -6113546.056550087 3345374.284994472 0 0 0 0 0 68970253.69454321 -6102131.225488429 -6102131.225488429 3169212.109491779 0 0 0 0 0 70208819.27171363 -6706331.068429002 -6706331.068429002 3072382.631043128 0 0 0 0 0 70877495.18046664 -7299792.168948488 -7299792.168948488 2837562.888418839 0 0 0 0 0 71971239.42345941 -7141797.810360283 -7141797.810360283 2691334.332863094 0 0 0 0 0 72670196.11608945 -7652507.024466841 -7652507.024466841 2464232.432889395 0 0 0 0 0 74069181.4063971 -8037086.223393423 -8037086.223393423 2179033.337580601 0 0 0 0 0 73732054.39979798 -8106216.717127231 -8106216.717127231 2272419.641601193 0 0 0 0 0 74801246.1845209 -8491139.193675714 -8491139.193675714 1931063.290292249 0 0 0 0 0 75552479.23701926 -8911951.241159637 -8911951.241159637 1675035.203051956 0 0 0 0 0 76317829.47843178 -9300783.595626106 -9300783.595626106 1410524.029547818 0 0 0 0 0 77094590.82138774 -9657548.656218305 -9657548.656218305 1141402.698535644 0 0 0 0 0 78441144.62166774 -9790250.949280811 -9790250.949280811 865860.9937833941 0 0 0 0 0 77951975.57939379 -9930900.37027364 -9930900.37027364 851510.7426177621 0 0 0 0 0 79205680.63576743 -10073354.87129458 -10073354.87129458 593909.6911356983 0 0 0 0 0 79971217.52238177 -10326304.13301014 -10326304.13301014 330847.4024943236 0 0 0 0 0 80736043.79193008 -10550252.75530562 -10550252.75530562 52303.65941036851 0 0 0 0 0 81504486.16025123 -10744120.95943917 -10744120.95943917 -212908.9590543885 0 0 0 0 0 82259651.65720573 -10919290.60447038 -10919290.60447038 -484437.044404633 0 0 0 0 0 82888801.72083971 -11013175.17494519 -11013175.17494519 -830231.6838782181 0 0 0 0 0 84189353.4148746 -10909179.79286776 -10909179.79286776 -914978.9685855106 0 0 0 0 0 83438416.06688215 -11093593.41963505 -11093593.41963505 -1110152.734051124 0 0 0 0 0 84782531.91246964 -11000778.71718696 -11000778.71718696 -1236977.520815149 0 0 0 0 0 85473990.11208425 -11138228.59575911 -11138228.59575911 -1513931.042536995 0 0 0 0 0 86149644.58942321 -11186825.30215172 -11186825.30215172 -1794422.116088995 0 0 0 0 0 86492196.55431846 -11061760.42063441 -11061760.42063441 -1799049.974178442 0 0 0 0 0 87085585.7875409 -11163434.18099754 -11163434.18099754 -2094744.219595817 0 0 0 0 0 71201302.45339999 -7239897.347015372 -7239897.347015372 2720733.177450651 0 0 0 0 0 63782602.27812091 -352017.1705120936 -352017.1705120936 4086162.222400158 0 0 0 0 0 63899151.85852333 -1249959.737549462 -1249959.737549462 3957358.903815868 0 0 0 0 0 65376136.19032773 -2121425.680728265 -2121425.680728265 4205039.597886253 0 0 0 0 0 65223296.79781713 -2247015.365685071 -2247015.365685071 3889693.592730757 0 0 0 0 0 65661037.73692324 -3070525.07855103 -3070525.07855103 3794411.728044461 0 0 0 0 0 66180632.85984148 -3883939.646141781 -3883939.646141781 3682626.643482986 0 0 0 0 0 66759336.44403727 -4669150.72751077 -4669150.72751077 3541598.905654713 0 0 0 0 0 67389470.72645752 -5423327.267000536 -5423327.267000536 3377716.960662607 0 0 0 0 0 68066485.14347933 -6128129.131507554 -6128129.131507554 3195812.520318781 0 0 0 0 0 69389183.46995148 -6766279.091587759 -6766279.091587759 3117335.641294133 0 0 0 0 0 69649119.31690623 -6730495.629389127 -6730495.629389127 2965293.890127524 0 0 0 0 0 70374696.01101026 -7326560.38969498 -7326560.38969498 2743420.740637229 0 0 0 0 0 72295729.74128382 -7733875.897693429 -7733875.897693429 2548129.029077874 0 0 0 0 0 72992160.87462954 -8234089.583996204 -8234089.583996204 2293995.007167931 0 0 0 0 0 74428449.68762584 -8576158.432353457 -8576158.432353457 2005541.54659567 0 0 0 0 0 73375523.87844221 -8149275.737230938 -8149275.737230938 2215363.386582016 0 0 0 0 0 75142654.42610613 -9013222.031138923 -9013222.031138923 1726360.24756786 0 0 0 0 0 75874378.05633427 -9416995.777386455 -9416995.777386455 1440585.848214102 0 0 0 0 0 76620561.2882334 -9787958.476489272 -9787958.476489272 1149713.039979201 0 0 0 0 0 77378028.10824147 -10126316.05419186 -10126316.05419186 855447.1164572755 0 0 0 0 0 78694595.91221678 -10224338.98085841 -10224338.98085841 562764.6567320571 0 0 0 0 0 77879752.66520475 -9982342.086701117 -9982342.086701117 869309.9960511056 0 0 0 0 0 79440999.83332849 -10489118.43890083 -10489118.43890083 274676.22779989 0 0 0 0 0 80186049.72891434 -10721299.10834507 -10721299.10834507 -14128.11313657888 0 0 0 0 0 80935351.6266585 -10926292.25913052 -10926292.25913052 -300891.7506798541 0 0 0 0 0 81689058.82273482 -11105232.88994732 -11105232.88994732 -583950.5857543786 0 0 0 0 0 82421972.42653582 -11253299.76240244 -11253299.76240244 -862688.7728121077 0 0 0 0 0 83002117.6340853 -11066324.04115746 -11066324.04115746 -769492.8181927206 0 0 0 0 0 84216660.70334987 -11211707.29802133 -11211707.29802133 -1316470.807184325 0 0 0 0 0 83788501.7993324 -11168948.96737392 -11168948.96737392 -974103.2634843106 0 0 0 0 0 85006656.61308686 -11317558.85161284 -11317558.85161284 -1582307.585743703 0 0 0 0 0 85706118.55799296 -11387148.61706167 -11387148.61706167 -1832686.933185534 0 0 0 0 0 85991657.10620949 -11270661.6863179 -11270661.6863179 -1847147.366599945 0 0 0 0 0 86822498.90631345 -11321159.6792376 -11321159.6792376 -2049726.572135425 0 0 0 0 0 87454823.68834741 -11398651.73410991 -11398651.73410991 -2356007.741475403 0 0 0 0 0 87732111.21959956 -11227430.76169159 -11227430.76169159 -2369165.58549231 0 0 0 0 0 71538736.21145928 -7852983.376991351 -7852983.376991351 2579465.543256657 0 0 0 0 0 63441510.13416498 -396189.1100636497 -396189.1100636497 4089214.470154725 0 0 0 0 0 64172864.19735784 -1064825.841560593 -1064825.841560593 4383419.702496825 0 0 0 0 0 64550002.69133745 -1917836.424013858 -1917836.424013858 4273006.398898379 0 0 0 0 0 64236244.33533905 -2093405.482348444 -2093405.482348444 3932892.653909096 0 0 0 0 0 65770029.97103685 -2959340.557145498 -2959340.557145498 4105057.511867528 0 0 0 0 0 66233201.60661482 -3795037.081646154 -3795037.081646154 3969113.785138343 0 0 0 0 0 66744052.77581537 -4604935.165043553 -4604935.165043553 3805992.231157748 0 0 0 0 0 67307857.48213041 -5384184.935665036 -5384184.935665036 3616831.211219947 0 0 0 0 0 67914676.96112317 -6121630.34575407 -6121630.34575407 3403875.712446352 0 0 0 0 0 68542923.22900762 -6807958.61747066 -6807958.61747066 3165505.233248239 0 0 0 0 0 68791265.55451192 -6779287.16602541 -6779287.16602541 2999812.241595115 0 0 0 0 0 70077427.56172639 -7373431.669337257 -7373431.669337257 2880027.007184165 0 0 0 0 0 70790883.3308423 -7959551.29929508 -7959551.29929508 2628795.327584513 0 0 0 0 0 71924299.48695865 -7771817.707170126 -7771817.707170126 2495997.038627253 0 0 0 0 0 72661987.24348459 -8275020.121765811 -8275020.121765811 2251350.225032594 0 0 0 0 0 74115780.5298045 -8621605.746344548 -8621605.746344548 1961646.548392469 0 0 0 0 0 73728959.09752676 -8711173.119776683 -8711173.119776683 2036076.969948191 0 0 0 0 0 74891186.9744598 -9060748.13497071 -9060748.13497071 1698711.806888331 0 0 0 0 0 75681824.5657337 -9466463.059564216 -9466463.059564216 1428326.304044472 0 0 0 0 0 76485171.66017152 -9838583.090068605 -9838583.090068605 1151883.830439746 0 0 0 0 0 77297427.82348932 -10177621.29524493 -10177621.29524493 871157.0207403151 0 0 0 0 0 78670313.40928283 -10276091.55060021 -10276091.55060021 592272.2391465685 0 0 0 0 0 78143496.86359312 -10432142.34731995 -10432142.34731995 558838.1461399137 0 0 0 0 0 79463749.72005536 -10539539.9111827 -10539539.9111827 314515.56647107 0 0 0 0 0 80256598.06243668 -10773137.71586085 -10773137.71586085 38032.41904552126 0 0 0 0 0 81049209.18856907 -10975669.17997706 -10975669.17997706 -240067.196299679 0 0 0 0 0 81835911.43228498 -11153072.35670116 -11153072.35670116 -516249.4194430371 0 0 0 0 0 82617160.06335497 -11299442.60113172 -11299442.60113172 -784616.2015178415 0 0 0 0 0 83167019.58284837 -11379011.20610542 -11379011.20610542 -1137322.740148355 0 0 0 0 0 84524714.78683501 -11247901.10413706 -11247901.10413706 -1218396.275530002 0 0 0 0 0 83900460.82636695 -11473483.430157 -11473483.430157 -1394496.874157883 0 0 0 0 0 85234472.51159756 -11332357.61046932 -11332357.61046932 -1513801.261977596 0 0 0 0 0 85987365.91950466 -11410498.71607661 -11410498.71607661 -1746943.550894271 0 0 0 0 0 86586555.13251173 -11455215.07955507 -11455215.07955507 -1941077.018721393 0 0 0 0 0 86610010.79361951 -11376420.25894882 -11376420.25894882 -2130365.108063377 0 0 0 0 0 87354258.45578317 -11428673.43018194 -11428673.43018194 -2383593.738848634 0 0 0 0 0 88132081.84604149 -11445916.87963615 -11445916.87963615 -2620581.641153793 0 0 0 0 0 71153146.80186526 -7887637.792487295 -7887637.792487295 2521780.653125855 0 0 0 0 0 63423636.20981209 -478774.5595647062 -478774.5595647062 4300242.845951183 0 0 0 0 0 62752629.34283724 -1065182.382163123 -1065182.382163123 3975774.532250291 0 0 0 0 0 63164479.12231161 -1848537.228957533 -1848537.228957533 3882426.049182065 0 0 0 0 0 64833590.96260544 -2827474.358759093 -2827474.358759093 4144267.603924816 0 0 0 0 0 64698026.24978215 -2942620.104463495 -2942620.104463495 3841132.518995494 0 0 0 0 0 65228145.99861334 -3783549.237994798 -3783549.237994798 3722004.517025617 0 0 0 0 0 65815374.37284264 -4602207.497249493 -4602207.497249493 3582470.587538946 0 0 0 0 0 66456718.44131397 -5389878.134977942 -5389878.134977942 3417535.474772026 0 0 0 0 0 67148398.8964182 -6133909.101720663 -6133909.101720663 3230375.132058589 0 0 0 0 0 67894989.11381394 -6821752.32108486 -6821752.32108486 3035365.542694929 0 0 0 0 0 69231715.59655409 -7445643.806484911 -7445643.806484911 2923645.832868463 0 0 0 0 0 69535811.4607304 -7397656.01242762 -7397656.01242762 2780291.945945769 0 0 0 0 0 70298148.78875433 -7993884.581003766 -7993884.581003766 2535745.82006692 0 0 0 0 0 72257728.13813348 -8371976.351680793 -8371976.351680793 2325441.229060646 0 0 0 0 0 72993318.06826441 -8857593.559291802 -8857593.559291802 2054703.613211718 0 0 0 0 0 74470971.4837849 -9164255.839425698 -9164255.839425698 1752233.137766082 0 0 0 0 0 73403651.71201904 -8753697.988805601 -8753697.988805601 1987300.835802499 0 0 0 0 0 75226636.82328221 -9585747.26894257 -9585747.26894257 1459506.501713902 0 0 0 0 0 75997463.70833412 -9972596.495725917 -9972596.495725917 1160926.605510433 0 0 0 0 0 76780354.64627793 -10325581.5149869 -10325581.5149869 858244.6199858836 0 0 0 0 0 77572456.79689984 -10644883.6758133 -10644883.6758133 553135.4269639471 0 0 0 0 0 78915242.2916839 -10706756.03432029 -10706756.03432029 261563.6123131515 0 0 0 0 0 78115583.10505964 -10484044.21012544 -10484044.21012544 587526.611135675 0 0 0 0 0 79689659.06449237 -10950620.6132734 -10950620.6132734 -34719.88935331919 0 0 0 0 0 80463014.03408632 -11163107.16009928 -11163107.16009928 -329708.8533224616 0 0 0 0 0 81239520.76457997 -11347549.94126695 -11347549.94126695 -621236.9307534382 0 0 0 0 0 82006543.07969086 -11502691.44688998 -11502691.44688998 -908124.5326289585 0 0 0 0 0 82768612.00011621 -11627942.90287006 -11627942.90287006 -1190715.20917779 0 0 0 0 0 83397213.54680675 -11417252.60342834 -11417252.60342834 -1056309.160823285 0 0 0 0 0 84625415.36400661 -11548574.96289077 -11548574.96289077 -1656794.78237029 0 0 0 0 0 84170387.33949685 -11513226.71630932 -11513226.71630932 -1302869.633225941 0 0 0 0 0 85340266.03273599 -11612030.5060077 -11612030.5060077 -1917619.456490756 0 0 0 0 0 85936997.86221148 -11597526.50899338 -11597526.50899338 -2184090.354623423 0 0 0 0 0 87064070.86626238 -11608715.61866122 -11608715.61866122 -2360663.773018932 0 0 0 0 0 87720487.35773927 -11650938.04183416 -11650938.04183416 -2641920.810426991 0 0 0 0 0 88438418.14358412 -11266735.76271915 -11266735.76271915 -2619055.681773995 0 0 0 0 0 88033577.38401937 -11488279.7766575 -11488279.7766575 -2651672.782227897 0 0 0 0 0 71496281.26795712 -8514147.26229432 -8514147.26229432 2352121.363088983 0 0 0 0 0 62509102.32185287 -500973.5005516064 -500973.5005516064 4133778.349945109 0 0 0 0 0 63554100.77486311 -1626961.232577041 -1626961.232577041 4319119.56615538 0 0 0 0 0 63877667.21991303 -2657915.689049457 -2657915.689049457 4187272.324593583 0 0 0 0 0 63709722.22339927 -2790182.42612252 -2790182.42612252 3853781.265478113 0 0 0 0 0 65296942.2770675 -3688428.731098079 -3688428.731098079 4016150.959296853 0 0 0 0 0 65814205.5664722 -4531785.246666787 -4531785.246666787 3855669.904927621 0 0 0 0 0 66386551.13511942 -5344592.901781997 -5344592.901781997 3668357.992143902 0 0 0 0 0 67007931.03106969 -6118993.26649882 -6118993.26649882 3455896.009941818 0 0 0 0 0 67655369.84137678 -6845296.327530421 -6845296.327530421 3211856.080788888 0 0 0 0 0 68355129.54953967 -7515568.71073453 -7515568.71073453 2960320.054485889 0 0 0 0 0 68661523.35528277 -7465298.013724469 -7465298.013724469 2815888.590540363 0 0 0 0 0 69976547.61485301 -8052917.498911485 -8052917.498911485 2668571.286009773 0 0 0 0 0 70740711.94514357 -8636428.634412222 -8636428.634412222 2391928.103098871 0 0 0 0 0 71908604.44467859 -8410147.057881363 -8410147.057881363 2273046.212552531 0 0 0 0 0 72706400.93831967 -8897775.550765287 -8897775.550765287 2023314.552511014 0 0 0 0 0 74203745.2606457 -9210371.338479707 -9210371.338479707 1719836.589253398 0 0 0 0 0 73772860.93886527 -9315782.811103394 -9315782.811103394 1777322.692804142 0 0 0 0 0 75022170.78748517 -9634719.326138884 -9634719.326138884 1444048.416981365 0 0 0 0 0 75852416.17137873 -10023424.31823915 -10023424.31823915 1160922.245327088 0 0 0 0 0 76692757.15319403 -10377270.63674556 -10377270.63674556 872537.1281488223 0 0 0 0 0 77540023.0042278 -10696907.47294251 -10696907.47294251 580831.294310965 0 0 0 0 0 78937109.07944603 -10758315.84432698 -10758315.84432698 301946.3728871168 0 0 0 0 0 78370520.84448805 -10930973.84037224 -10930973.84037224 247158.3746499397 0 0 0 0 0 79759039.81093548 -11001267.0831231 -11001267.0831231 16356.12026220816 0 0 0 0 0 80579820.76801544 -11213103.49807207 -11213103.49807207 -267758.0201827968 0 0 0 0 0 81395715.7516942 -11395573.44867032 -11395573.44867032 -551211.8501963563 0 0 0 0 0 82206631.63116848 -11548295.52300004 -11548295.52300004 -829256.1954552942 0 0 0 0 0 83012028.5009826 -11671619.23686522 -11671619.23686522 -1102841.939512513 0 0 0 0 0 83538355.06247965 -11732206.18876466 -11732206.18876466 -1465443.002436761 0 0 0 0 0 84927188.7100746 -11587094.69726412 -11587094.69726412 -1558132.33477631 0 0 0 0 0 84292677.34178926 -11808928.67404068 -11808928.67404068 -1736009.176412553 0 0 0 0 0 85670008.88124953 -11638437.98142262 -11638437.98142262 -1822225.948607969 0 0 0 0 0 86436686.14476931 -11643256.85419877 -11643256.85419877 -2076088.135510409 0 0 0 0 0 87063933.21638761 -11653012.16439443 -11653012.16439443 -2354744.811031929 0 0 0 0 0 87759464.81206898 -11700726.49589904 -11700726.49589904 -2620097.820230549 0 0 0 0 0 88803747.57407822 -11494713.08696678 -11494713.08696678 -2903555.850285193 0 0 0 0 0 88477119.63541374 -11697084.26484391 -11697084.26484391 -2868282.827261449 0 0 0 0 0 89165571.98591308 -11284359.94604807 -11284359.94604807 -2854912.485841171 0 0 0 0 0 89844130.78528604 -11286852.29574668 -11286852.29574668 -3096471.083074965 0 0 0 0 0 71122452.7139096 -8552785.810646232 -8552785.810646232 2290303.345246174 0 0 0 0 0 62011896.23507021 -499815.2539717507 -499815.2539717507 4169996.922163172 0 0 0 0 0 62202904.91390881 -1615311.920793555 -1615311.920793555 3963316.485620209 0 0 0 0 0 62691209.88082682 -2625599.781629305 -2625599.781629305 3886909.992102877 0 0 0 0 0 64333560.5932118 -3566256.371837831 -3566256.371837831 4060929.185045153 0 0 0 0 0 64243387.7151298 -3671220.435490219 -3671220.435490219 3752958.512553391 0 0 0 0 0 64837570.68851649 -4524933.648525243 -4524933.648525243 3617875.911050501 0 0 0 0 0 65489337.07152657 -5346305.720469178 -5346305.720469178 3455321.036314688 0 0 0 0 0 66196746.11285238 -6129061.305666749 -6129061.305666749 3267296.172616719 0 0 0 0 0 66979014.26086071 -6859632.646983681 -6859632.646983681 3070414.865458563 0 0 0 0 0 67781655.82577388 -7533424.790553981 -7533424.790553981 2853416.096866109 0 0 0 0 0 69116687.62966186 -8143001.523857072 -8143001.523857072 2698551.675230946 0 0 0 0 0 69459923.29177763 -8081325.989082642 -8081325.989082642 2570221.029365295 0 0 0 0 0 70282126.77089107 -8675453.134130988 -8675453.134130988 2307159.914987537 0 0 0 0 0 72229731.40660176 -9018506.082216805 -9018506.082216805 2064967.495112983 0 0 0 0 0 73021000.74689509 -9483406.756098256 -9483406.756098256 1783178.906021604 0 0 0 0 0 74554306.06486157 -9756651.950221047 -9756651.950221047 1477821.56412243 0 0 0 0 0 73499500.73004732 -9364525.841607768 -9364525.841607768 1745258.550044544 0 0 0 0 0 75350224.00625941 -10161077.24083135 -10161077.24083135 1170803.883892577 0 0 0 0 0 76159915.91416447 -10529624.80135121 -10529624.80135121 859592.2155190688 0 0 0 0 0 76979451.73168665 -10862765.0014901 -10862765.0014901 545849.5059119856 0 0 0 0 0 77805563.08105573 -11161245.4353355 -11161245.4353355 230733.5897337564 0 0 0 0 0 79172290.18328458 -11184746.54845771 -11184746.54845771 -58132.52590623227 0 0 0 0 0 78390948.37355712 -10982870.3521409 -10982870.3521409 287396.2988111631 0 0 0 0 0 79974721.93493426 -11406743.43397233 -11406743.43397233 -361548.5555520161 0 0 0 0 0 80775943.78054839 -11597844.05932187 -11597844.05932187 -661979.431715016 0 0 0 0 0 81573295.33145155 -11758960.20304277 -11758960.20304277 -957933.0461334754 0 0 0 0 0 82364697.19013131 -11890472.47305498 -11890472.47305498 -1248889.787610275 0 0 0 0 0 83153983.7860442 -11994955.85225304 -11994955.85225304 -1534495.673530973 0 0 0 0 0 83810690.06545003 -11769862.95718459 -11769862.95718459 -1374760.622623874 0 0 0 0 0 85030293.19586681 -11859442.86900011 -11859442.86900011 -2005125.017039319 0 0 0 0 0 84595834.26583076 -11847003.50112252 -11847003.50112252 -1637678.716340071 0 0 0 0 0 85751946.60186973 -11884391.47688088 -11884391.47688088 -2266506.116229159 0 0 0 0 0 86510017.69623934 -11900864.06699078 -11900864.06699078 -2472506.161163582 0 0 0 0 0 87275212.06972523 -11912449.60003892 -11912449.60003892 -2724842.825738955 0 0 0 0 0 88011697.68417424 -11905921.45547329 -11905921.45547329 -2956024.049466192 0 0 0 0 0 88704003.06026006 -11546794.2329667 -11546794.2329667 -2949650.069589577 0 0 0 0 0 88273254.53125891 -11752829.86330578 -11752829.86330578 -2940815.798472989 0 0 0 0 0 89356669.05478571 -11523129.86944137 -11523129.86944137 -3249492.68911921 0 0 0 0 0 90065410.17029843 -11485605.24533361 -11485605.24533361 -3454242.078436617 0 0 0 0 0 90468869.73666051 -11270657.20590848 -11270657.20590848 -3344288.015929541 0 0 0 0 0 71474046.18820268 -9177810.261805344 -9177810.261805344 2084948.164682422 0 0 0 0 0 61472350.6922714 -500186.9875435613 -500186.9875435613 4180532.284288522 0 0 0 0 0 62209675.0245237 -1522165.157103128 -1522165.157103128 4228685.467710459 0 0 0 0 0 62901169.01526206 -2481427.423611983 -2481427.423611983 4214246.096239473 0 0 0 0 0 63340759.75766554 -3430907.979897137 -3430907.979897137 4101542.231294469 0 0 0 0 0 63222615.52647695 -3546304.4799298 -3546304.4799298 3782041.445199746 0 0 0 0 0 64853631.15128456 -4446777.864195976 -4446777.864195976 3902353.134252451 0 0 0 0 0 65431818.81961194 -5295341.73813333 -5295341.73813333 3714404.132337492 0 0 0 0 0 66064162.19314446 -6106609.361094565 -6106609.361094565 3498690.975992958 0 0 0 0 0 66736055.81995904 -6877680.798376387 -6877680.798376387 3258048.270718928 0 0 0 0 0 67432822.8981099 -7596595.482002931 -7596595.482002931 2988134.151803076 0 0 0 0 0 68197225.67419802 -8256735.9179709 -8256735.9179709 2719325.601596289 0 0 0 0 0 68601334.81201626 -8173686.661714143 -8173686.661714143 2607001.883924255 0 0 0 0 0 69907239.92717795 -8750397.282937665 -8750397.282937665 2423128.870351094 0 0 0 0 0 70716942.64236264 -9329543.011127505 -9329543.011127505 2120311.078817128 0 0 0 0 0 71959299.52555111 -9057343.679691231 -9057343.679691231 2042059.856559573 0 0 0 0 0 72798471.59973758 -9528771.555416018 -9528771.555416018 1767769.566131469 0 0 0 0 0 74335683.21653564 -9805998.202445179 -9805998.202445179 1459193.528677286 0 0 0 0 0 73854746.43034951 -9931899.488864023 -9931899.488864023 1491837.605751288 0 0 0 0 0 75194962.71468514 -10211990.31444309 -10211990.31444309 1168408.339567725 0 0 0 0 0 76064748.77391069 -10581497.07655366 -10581497.07655366 872203.6570994767 0 0 0 0 0 76941617.40223233 -10914952.95522282 -10914952.95522282 572339.7034833918 0 0 0 0 0 77824054.10668422 -11213280.88983147 -11213280.88983147 270603.2583678522 0 0 0 0 0 79242655.81649743 -11235869.19366823 -11235869.19366823 -6506.326675302239 0 0 0 0 0 78635726.80231513 -11425651.60303494 -11425651.60303494 -83690.62973010037 0 0 0 0 0 80092792.42219077 -11456687.98569447 -11456687.98569447 -299349.4015046729 0 0 0 0 0 80939199.47628501 -11646192.67680018 -11646192.67680018 -590047.4685443809 0 0 0 0 0 81779753.01302102 -11805070.79734743 -11805070.79734743 -877215.4642808972 0 0 0 0 0 82613642.99312389 -11934234.30360817 -11934234.30360817 -1159638.630676857 0 0 0 0 0 83438916.39198197 -12036198.26314236 -12036198.26314236 -1438365.181703205 0 0 0 0 0 83938903.79508466 -12076146.55877534 -12076146.55877534 -1812622.375236131 0 0 0 0 0 85363107.5025185 -11900318.52781026 -11900318.52781026 -1897806.030706681 0 0 0 0 0 84706802.35958791 -12132034.44247884 -12132034.44247884 -2082651.902498487 0 0 0 0 0 86117792.61670771 -11926057.31793264 -11926057.31793264 -2150767.963533493 0 0 0 0 0 86869799.56717391 -11921689.77304913 -11921689.77304913 -2375018.613927553 0 0 0 0 0 87575839.94491921 -11915870.65136242 -11915870.65136242 -2642050.734426964 0 0 0 0 0 88291668.39303957 -11916764.97523505 -11916764.97523505 -2874645.363007931 0 0 0 0 0 89263044.11569847 -11713267.15873682 -11713267.15873682 -3095412.143203991 0 0 0 0 0 88832307.46387714 -11908361.67119773 -11908361.67119773 -3060524.438784783 0 0 0 0 0 89774760.93736973 -11515033.69403437 -11515033.69403437 -3138983.443597887 0 0 0 0 0 90295128.57071556 -11474792.73197789 -11474792.73197789 -3385108.510839039 0 0 0 0 0 90727705.17986836 -11453134.68299794 -11453134.68299794 -3659869.591985931 0 0 0 0 0 91078127.04185818 -11239933.67617853 -11239933.67617853 -3585938.505478119 0 0 0 0 0 91703282.31235871 -11185454.13816047 -11185454.13816047 -3811173.213720944 0 0 0 0 0 71173451.81051734 -9220568.780494109 -9220568.780494109 2049606.481498627 0 0 0 0 0 60846084.51264177 -485693.2446825879 -485693.2446825879 4134589.19549608 0 0 0 0 0 61236994.4243374 -1472099.640041249 -1472099.640041249 4037594.370042651 0 0 0 0 0 61645333.74371073 -2440051.285546724 -2440051.285546724 3899639.655120606 0 0 0 0 0 62169197.60404404 -3409612.914050209 -3409612.914050209 3810471.003880843 0 0 0 0 0 63857270.0201885 -4350270.087082866 -4350270.087082866 3946239.008398567 0 0 0 0 0 63822604.43651686 -4436796.597711221 -4436796.597711221 3649359.998781185 0 0 0 0 0 64486132.95502616 -5295014.507725076 -5295014.507725076 3488365.04678938 0 0 0 0 0 65207423.58822208 -6115815.508011963 -6115815.508011963 3300176.49471759 0 0 0 0 0 65982117.56334578 -6896531.141804448 -6896531.141804448 3089357.197783391 0 0 0 0 0 66836759.73350541 -7616465.895888228 -7616465.895888228 2871371.5834659 0 0 0 0 0 67687970.39124079 -8285081.634587137 -8285081.634587137 2629728.784457247 0 0 0 0 0 69019107.37288015 -8879746.562075699 -8879746.562075699 2435986.249289006 0 0 0 0 0 69434287.97435644 -8789567.148910563 -8789567.148910563 2336009.952443143 0 0 0 0 0 70316007.66680625 -9372426.418612249 -9372426.418612249 2052178.714211484 0 0 0 0 0 72273502.0502883 -9667894.693175968 -9667894.693175968 1790830.880277137 0 0 0 0 0 73105983.66009355 -10124567.23446387 -10124567.23446387 1487522.914860196 0 0 0 0 0 74678833.20403408 -10353259.42829604 -10353259.42829604 1179855.56862389 0 0 0 0 0 73639543.89868073 -9981245.054184759 -9981245.054184759 1472747.879261184 0 0 0 0 0 75515571.79250038 -10738413.36120221 -10738413.36120221 859386.06774682 0 0 0 0 0 76363646.70249738 -11086068.26085524 -11086068.26085524 536488.8501222121 0 0 0 0 0 77219472.68667839 -11397373.55345563 -11397373.55345563 212441.302825877 0 0 0 0 0 78079137.11741529 -11673312.4933772 -11673312.4933772 -111689.5720593307 0 0 0 0 0 79467140.41638614 -11656869.52105813 -11656869.52105813 -396195.339669134 0 0 0 0 0 78707000.10131387 -11477010.85380494 -11477010.85380494 -31695.73977685594 0 0 0 0 0 80297735.41832386 -11855805.94740125 -11855805.94740125 -705593.2624603485 0 0 0 0 0 81123959.36412042 -12023232.17095344 -12023232.17095344 -1010752.473295419 0 0 0 0 0 81945262.40629214 -12160357.34011922 -12160357.34011922 -1310666.882031097 0 0 0 0 0 82761187.92300554 -12268892.97596712 -12268892.97596712 -1604614.924100279 0 0 0 0 0 83570054.81235306 -12351126.51671503 -12351126.51671503 -1891499.02087654 0 0 0 0 0 84252097.22647382 -12113796.27504692 -12113796.27504692 -1712183.643902794 0 0 0 0 0 85456842.55756249 -12161660.05486903 -12161660.05486903 -2343860.265531017 0 0 0 0 0 85049640.67778409 -12167127.7917698 -12167127.7917698 -1976890.424915069 0 0 0 0 0 86198150.51432316 -12168245.77946552 -12168245.77946552 -2595579.062226392 0 0 0 0 0 86937490.49410108 -12154418.42430068 -12154418.42430068 -2833186.027843827 0 0 0 0 0 87663782.98740545 -12139552.82747344 -12139552.82747344 -3068299.167336821 0 0 0 0 0 88247385.77361757 -12058310.3647535 -12058310.3647535 -3301325.029534271 0 0 0 0 0 89171317.30088894 -11716823.02345527 -11716823.02345527 -3410120.928522812 0 0 0 0 0 88851289.8998512 -11802510.71606958 -11802510.71606958 -3255788.875503567 0 0 0 0 0 89712092.38818704 -11729860.14687908 -11729860.14687908 -3643451.270715275 0 0 0 0 0 90472710.61076269 -11681560.64163271 -11681560.64163271 -3694073.400697181 0 0 0 0 0 90774809.15271516 -11471437.02832809 -11471437.02832809 -3649048.469433788 0 0 0 0 0 91321066.43955453 -11412560.1929432 -11412560.1929432 -3922268.228013318 0 0 0 0 0 91930281.56819305 -11341233.25386138 -11341233.25386138 -4147496.778397659 0 0 0 0 0 92327594.54178669 -11114607.86054419 -11114607.86054419 -4024266.487880819 0 0 0 0 0 71501586.57698089 -9856235.109986842 -9856235.109986842 1796415.346225087 0 0 0 0 0 60373207.42327112 -490560.1588709315 -490560.1588709315 4159312.607573109 0 0 0 0 0 61071450.00590625 -1433110.663407712 -1433110.663407712 4206392.080857574 0 0 0 0 0 61702264.58266781 -2340197.756666532 -2340197.756666532 4191359.371151159 0 0 0 0 0 62313092.26965319 -3286597.778182208 -3286597.778182208 4125696.010226196 0 0 0 0 0 62826745.87253273 -4245009.033455776 -4245009.033455776 3979586.265837277 0 0 0 0 0 62770645.64850376 -4338680.994022922 -4338680.994022922 3679699.464684629 0 0 0 0 0 64442237.83104181 -5237270.698310733 -5237270.698310733 3758731.36843379 0 0 0 0 0 65086401.29538412 -6086716.496688921 -6086716.496688921 3542719.914362731 0 0 0 0 0 65785596.93529829 -6896110.248936074 -6896110.248936074 3300544.172134852 0 0 0 0 0 66526655.37215556 -7660508.344562834 -7660508.344562834 3033744.416305034 0 0 0 0 0 67273739.06259395 -8370179.794625488 -8370179.794625488 2744409.382969741 0 0 0 0 0 68113714.3692866 -9018120.386388753 -9018120.386388753 2451797.307364925 0 0 0 0 0 68570579.18744795 -8909948.729625292 -8909948.729625292 2361615.513763126 0 0 0 0 0 69884151.88284332 -9469171.914993571 -9469171.914993571 2144611.142787481 0 0 0 0 0 70745712.18757291 -10033236.34641856 -10033236.34641856 1819519.694518179 0 0 0 0 0 72045543.19988605 -9714975.66756097 -9714975.66756097 1776849.242712239 0 0 0 0 0 72924249.71192186 -10172765.98089679 -10172765.98089679 1483263.913677378 0 0 0 0 0 74511386.01409753 -10404854.296188 -10404854.296188 1174968.284316947 0 0 0 0 0 73974563.78791307 -10552719.57988178 -10552719.57988178 1183315.657509115 0 0 0 0 0 75412497.67032811 -10790386.6104874 -10790386.6104874 870184.2233417876 0 0 0 0 0 76321168.82587148 -11138394.54811586 -11138394.54811586 561982.6593788076 0 0 0 0 0 77233907.23426226 -11449639.83815238 -11449639.83815238 251448.5508247163 0 0 0 0 0 78150318.59020253 -11724793.28885956 -11724793.28885956 -59639.87183876202 0 0 0 0 0 79588336.32909508 -11706989.56655257 -11706989.56655257 -333122.1476243921 0 0 0 0 0 78940554.72073574 -11914299.18319722 -11914299.18319722 -433816.0946896964 0 0 0 0 0 80465787.37397102 -11904278.17379307 -11904278.17379307 -632448.8306878228 0 0 0 0 0 81337401.1873436 -12069693.50780839 -12069693.50780839 -928131.9775121411 0 0 0 0 0 82201182.00933376 -12204400.27288214 -12204400.27288214 -1219559.624128455 0 0 0 0 0 83055290.74333675 -12310312.4287281 -12310312.4287281 -1506171.185977536 0 0 0 0 0 83897400.23547825 -12389419.34541269 -12389419.34541269 -1787242.634777453 0 0 0 0 0 84367266.06762126 -12408247.61293527 -12408247.61293527 -2169716.702256857 0 0 0 0 0 85831534.1242639 -12193275.16470063 -12193275.16470063 -2232846.319256346 0 0 0 0 0 85147321.84182848 -12438975.04603709 -12438975.04603709 -2438559.713317592 0 0 0 0 0 86603561.96399823 -12194174.5621199 -12194174.5621199 -2481210.186508157 0 0 0 0 0 87358882.33221599 -12176453.70039612 -12176453.70039612 -2717401.680422552 0 0 0 0 0 88086657.75208092 -12146442.31578916 -12146442.31578916 -2959796.058502843 0 0 0 0 0 88820158.8307671 -12086936.49977281 -12086936.49977281 -3195128.365508073 0 0 0 0 0 89722918.14712006 -11733471.38850274 -11733471.38850274 -3299883.046380429 0 0 0 0 0 89201110.18751174 -11982723.52006304 -11982723.52006304 -3482179.744291862 0 0 0 0 0 90368060.95004757 -11715310.38945337 -11715310.38945337 -3463533.331858079 0 0 0 0 0 90271857.49573798 -11737255.46907266 -11737255.46907266 -3777347.97430089 0 0 0 0 0 91117873.10251762 -11660943.54829506 -11660943.54829506 -3952874.460995809 0 0 0 0 0 91444560.56235109 -11420686.22044815 -11420686.22044815 -3884836.671548552 0 0 0 0 0 92169644.47448491 -11338918.11350155 -11338918.11350155 -4076873.894674286 0 0 0 0 0 92565254.05115905 -11246093.19559526 -11246093.19559526 -4336741.736557352 0 0 0 0 0 92937317.87847297 -11028082.57174346 -11028082.57174346 -4228680.667617012 0 0 0 0 0 93541202.07358095 -10922136.02319104 -10922136.02319104 -4421214.445094991 0 0 0 0 0 71267743.59530409 -9900227.692290662 -9900227.692290662 1778936.103138243 0 0 0 0 0 59797349.83142579 -456338.1271119522 -456338.1271119522 4124772.813149701 0 0 0 0 0 60201402.2891565 -1375020.276869066 -1375020.276869066 4046244.421335432 0 0 0 0 0 60608208.62699631 -2286887.10246538 -2286887.10246538 3934106.282029101 0 0 0 0 0 61073248.66078528 -3252711.353784645 -3252711.353784645 3808213.758913403 0 0 0 0 0 61678005.0446346 -4225164.148713786 -4225164.148713786 3692721.276398601 0 0 0 0 0 63414932.88713063 -5170587.276251107 -5170587.276251107 3796175.670662807 0 0 0 0 0 63444287.5014053 -5234305.52693666 -5234305.52693666 3518456.581705543 0 0 0 0 0 64180230.9166698 -6092384.223615048 -6092384.223615048 3330261.599447403 0 0 0 0 0 64972604.03905387 -6910320.811529755 -6910320.811529755 3116141.370320613 0 0 0 0 0 65816558.2496981 -7684626.093000252 -7684626.093000252 2878944.599908452 0 0 0 0 0 66718897.89905232 -8392647.525107268 -8392647.525107268 2639300.238509427 0 0 0 0 0 67634497.34534651 -9049652.088751139 -9049652.088751139 2367278.098939063 0 0 0 0 0 68980142.89418364 -9625978.019841071 -9625978.019841071 2154201.119481714 0 0 0 0 0 69451695.07623738 -9511068.43425253 -9511068.43425253 2068128.060838547 0 0 0 0 0 70399298.50061744 -10078074.93635564 -10078074.93635564 1766516.904481501 0 0 0 0 0 72364000.18383174 -10331139.27642494 -10331139.27642494 1490304.770897933 0 0 0 0 0 73237602.65948139 -10766128.85676383 -10766128.85676383 1174418.806458247 0 0 0 0 0 74846203.59635365 -10952399.75753595 -10952399.75753595 856233.6265591199 0 0 0 0 0 73801570.58733448 -10601010.49215958 -10601010.49215958 1174785.625726871 0 0 0 0 0 75723887.44922499 -11315143.42856659 -11315143.42856659 524723.4761544243 0 0 0 0 0 76609649.6681809 -11639921.16286883 -11639921.16286883 191305.2080756906 0 0 0 0 0 77501816.4805986 -11927553.25599196 -11927553.25599196 -141947.9190714333 0 0 0 0 0 78394589.95608869 -12179047.36685796 -12179047.36685796 -474129.5509813591 0 0 0 0 0 79801171.6963276 -12121386.14882587 -12121386.14882587 -752586.8060111472 0 0 0 0 0 79064945.53284524 -11964557.54490435 -11964557.54490435 -369886.6838013604 0 0 0 0 0 80658105.36338976 -12295720.8898311 -12295720.8898311 -1067040.617402076 0 0 0 0 0 81509593.45624216 -12438429.98391275 -12438429.98391275 -1376056.949869511 0 0 0 0 0 82354513.21800014 -12551102.44459898 -12551102.44459898 -1678663.749165463 0 0 0 0 0 83191084.93251179 -12635535.84901982 -12635535.84901982 -1973906.530602385 0 0 0 0 0 84016305.8604203 -12693214.46359275 -12693214.46359275 -2260600.828400345 0 0 0 0 0 84724854.59345581 -12442814.82169757 -12442814.82169757 -2060798.546886919 0 0 0 0 0 85914677.1530252 -12444285.63895183 -12444285.63895183 -2699046.335677617 0 0 0 0 0 85535979.24544582 -12470158.9282247 -12470158.9282247 -2324615.240273182 0 0 0 0 0 86672757.75102158 -12429782.20428664 -12429782.20428664 -2951306.249406751 0 0 0 0 0 87410910.42190734 -12394809.54524701 -12394809.54524701 -3196107.195926033 0 0 0 0 0 88107688.46590529 -12335607.5842742 -12335607.5842742 -3439923.868314504 0 0 0 0 0 88817844.5116592 -12265487.20241862 -12265487.20241862 -3620424.185896418 0 0 0 0 0 89768189.48643422 -11911220.09238068 -11911220.09238068 -3682714.644781894 0 0 0 0 0 89467041.96140786 -11998362.56314741 -11998362.56314741 -3400879.712306372 0 0 0 0 0 90847894.34715867 -11828696.92626565 -11828696.92626565 -3875102.323699135 0 0 0 0 0 90912658.75316602 -11698489.65021516 -11698489.65021516 -4025025.104832205 0 0 0 0 0 91670476.90655401 -11588056.17232748 -11588056.17232748 -4259969.592691994 0 0 0 0 0 92304705.52946946 -11467592.51854151 -11467592.51854151 -4441710.781522959 0 0 0 0 0 92738036.72740889 -11245811.63216135 -11245811.63216135 -4284906.425011718 0 0 0 0 0 93167460.18642914 -11148975.91513569 -11148975.91513569 -4547321.87411942 0 0 0 0 0 93726085.26505458 -11025447.37526616 -11025447.37526616 -4761736.458553563 0 0 0 0 0 94182834.23137911 -10798088.34117821 -10798088.34117821 -4588298.344147911 0 0 0 0 0 71594604.96193814 -10546115.88320975 -10546115.88320975 1487662.66641363 0 0 0 0 0 59228993.50069565 -497398.1075211733 -497398.1075211733 4101087.000797054 0 0 0 0 0 59891061.62229247 -1393216.982977939 -1393216.982977939 4180460.49566824 0 0 0 0 0 60576089.46875218 -2225776.015877679 -2225776.015877679 4175496.62388943 0 0 0 0 0 61192712.78186555 -3133325.381947209 -3133325.381947209 4139541.939095045 0 0 0 0 0 61763023.61866099 -4120766.953161035 -4120766.953161035 4002779.024713889 0 0 0 0 0 62351713.7844894 -5091701.583588313 -5091701.583588313 3824253.98410171 0 0 0 0 0 62362775.39294714 -5162377.034380328 -5162377.034380328 3539444.836203112 0 0 0 0 0 64070573.64065021 -6057942.610964355 -6057942.610964355 3581704.976274999 0 0 0 0 0 64786036.24749728 -6904641.816202252 -6904641.816202252 3339632.216662609 0 0 0 0 0 65555273.5343494 -7707848.96284914 -7707848.96284914 3071686.420354273 0 0 0 0 0 66365102.29304145 -8462493.181417711 -8462493.181417711 2788257.743512028 0 0 0 0 0 67176549.26077729 -9163022.926314708 -9163022.926314708 2479498.670223586 0 0 0 0 0 68041691.61897446 -9793549.159708738 -9793549.159708738 2145919.571566288 0 0 0 0 0 68567208.8048092 -9656505.149160944 -9656505.149160944 2088997.920080353 0 0 0 0 0 69909027.62602004 -10198190.24257594 -10198190.24257594 1834569.192473117 0 0 0 0 0 70829738.26736 -10743912.21251867 -10743912.21251867 1495833.086285425 0 0 0 0 0 72171365.35422665 -10376708.23158042 -10376708.23158042 1479065.585539772 0 0 0 0 0 73110696.35926044 -10813428.58016228 -10813428.58016228 1183352.98580438 0 0 0 0 0 74734908.68104401 -11003015.55061532 -11003015.55061532 864090.9071431684 0 0 0 0 0 74150286.13433923 -11169520.53318923 -11169520.53318923 851661.3258630699 0 0 0 0 0 75676691.63063422 -11367018.4713498 -11367018.4713498 548784.6818683421 0 0 0 0 0 76623921.29073891 -11692008.24365315 -11692008.24365315 230193.5020795477 0 0 0 0 0 77572051.3981844 -11979222.1765307 -11979222.1765307 -90031.69818385415 0 0 0 0 0 78521056.08597024 -12229513.56729812 -12229513.56729812 -409588.9432801891 0 0 0 0 0 79974906.08658908 -12170017.48888832 -12170017.48888832 -677979.3943209695 0 0 0 0 0 79286352.05733298 -12394949.27177552 -12394949.27177552 -802847.6508702781 0 0 0 0 0 80878708.65233466 -12342270.18785041 -12342270.18785041 -982656.8900987135 0 0 0 0 0 81774204.58208893 -12482536.81935949 -12482536.81935949 -1282831.020562985 0 0 0 0 0 82659114.77990814 -12592415.42606067 -12592415.42606067 -1577788.271067255 0 0 0 0 0 83531439.93563344 -12673702.29405992 -12673702.29405992 -1866627.930362889 0 0 0 0 0 84389073.31714348 -12727776.16468195 -12727776.16468195 -2148036.726908436 0 0 0 0 0 84826643.72567238 -12724715.52878794 -12724715.52878794 -2537797.800828819 0 0 0 0 0 86331075.46739005 -12472604.34236122 -12472604.34236122 -2580379.85935698 0 0 0 0 0 85620549.61059566 -12730463.30211984 -12730463.30211984 -2805262.407479623 0 0 0 0 0 87111357.95181616 -12454522.62107527 -12454522.62107527 -2829707.754408441 0 0 0 0 0 87868179.45656031 -12419408.46037186 -12419408.46037186 -3070427.243940962 0 0 0 0 0 88605301.60364881 -12360474.59700898 -12360474.59700898 -3304101.910070674 0 0 0 0 0 89338016.49434486 -12271734.03491629 -12271734.03491629 -3498002.047949772 0 0 0 0 0 90189769.79361685 -11921256.36884539 -11921256.36884539 -3572512.097589269 0 0 0 0 0 89510395.69550513 -12183676.11549805 -12183676.11549805 -3853555.535964329 0 0 0 0 0 90813564.2181043 -11860226.88260157 -11860226.88260157 -3892377.894972176 0 0 0 0 0 91527287.75239889 -11778155.975617 -11778155.975617 -4027480.381065357 0 0 0 0 0 92076332.18135561 -11589455.13716435 -11589455.13716435 -4150946.179077521 0 0 0 0 0 92663525.71260405 -11461698.74349394 -11461698.74349394 -4338700.308239534 0 0 0 0 0 92958747.20488514 -11371219.93847996 -11371219.93847996 -4600104.404248708 0 0 0 0 0 93320317.48208927 -11153204.18029752 -11153204.18029752 -4501888.447664506 0 0 0 0 0 93931291.59767397 -11035052.64841948 -11035052.64841948 -4701025.561068437 0 0 0 0 0 94220405.40623125 -10886106.63190918 -10886106.63190918 -4975486.178024348 0 0 0 0 0 94669921.23411863 -10682850.9109494 -10682850.9109494 -4787207.561772958 0 0 0 0 0 71385057.94480947 -10591919.13885844 -10591919.13885844 1469703.655947133 0 0 0 0 0 58664698.59389348 -489270.0397628464 -489270.0397628464 4133649.476822548 0 0 0 0 0 59143869.50450404 -1317462.71050608 -1317462.71050608 4055659.598818719 0 0 0 0 0 59530632.4111776 -2156013.144507905 -2156013.144507905 3948791.604494013 0 0 0 0 0 59927320.53349458 -3094666.860762266 -3094666.860762266 3816710.081196324 0 0 0 0 0 60538772.04132631 -4091125.434088038 -4091125.434088038 3690428.08355374 0 0 0 0 0 61239055.83989336 -5076070.22461226 -5076070.22461226 3547815.43308347 0 0 0 0 0 63016156.93285123 -6019196.767704356 -6019196.767704356 3612782.311889911 0 0 0 0 0 63113257.64046694 -6059046.040755922 -6059046.040755922 3353884.050088478 0 0 0 0 0 63923843.32767904 -6914290.150581412 -6914290.150581412 3140281.447311547 0 0 0 0 0 64790330.69247742 -7725741.029086439 -7725741.029086439 2901191.551751081 0 0 0 0 0 65687017.76447449 -8487250.934254343 -8487250.934254343 2636862.312619022 0 0 0 0 0 66645552.91160265 -9190377.457063856 -9190377.457063856 2374094.645676225 0 0 0 0 0 67687385.19441913 -9819290.696572276 -9819290.696572276 2102541.308942036 0 0 0 0 0 69012276.65498903 -10370441.89952943 -10370441.89952943 1839559.881275084 0 0 0 0 0 69539973.1878134 -10240190.21713109 -10240190.21713109 1774611.463991114 0 0 0 0 0 70541849.95922309 -10788583.98532678 -10788583.98532678 1456141.920223828 0 0 0 0 0 72472989.60935822 -10997517.11961772 -10997517.11961772 1152076.997804665 0 0 0 0 0 73400281.7441915 -11404738.14895838 -11404738.14895838 823838.0870799688 0 0 0 0 0 75059488.55646759 -11549479.56087386 -11549479.56087386 510502.2825693075 0 0 0 0 0 74042131.83679627 -11222469.16937463 -11222469.16937463 861772.1038949687 0 0 0 0 0 75976935.06236564 -11889076.10233325 -11889076.10233325 167317.431314845 0 0 0 0 0 76899747.7328372 -12189360.13909614 -12189360.13909614 -176190.77653994 0 0 0 0 0 77827117.91877477 -12451497.02866767 -12451497.02866767 -517699.9859967922 0 0 0 0 0 78752403.15199198 -12676733.30739946 -12676733.30739946 -856512.8684087058 0 0 0 0 0 80175001.61307116 -12576454.9388152 -12576454.9388152 -1126906.406607687 0 0 0 0 0 79465520.90005551 -12443661.60722113 -12443661.60722113 -726887.7754113461 0 0 0 0 0 81058043.80337033 -12724957.85567182 -12724957.85567182 -1445299.275673745 0 0 0 0 0 81933521.10600181 -12841896.88318832 -12841896.88318832 -1756940.963334103 0 0 0 0 0 82799719.32498501 -12928921.80963119 -12928921.80963119 -2060843.03929052 0 0 0 0 0 83654290.70631315 -12987654.66786326 -12987654.66786326 -2355985.642695487 0 0 0 0 0 84494571.15545119 -13019442.24133858 -13019442.24133858 -2641646.787903332 0 0 0 0 0 85230496.50016241 -12755501.58421977 -12755501.58421977 -2420515.19040809 0 0 0 0 0 86402990.19382024 -12713909.27680897 -12713909.27680897 -3063529.769719095 0 0 0 0 0 86054327.35285729 -12757822.2785269 -12757822.2785269 -2683269.330556698 0 0 0 0 0 87168209.47824031 -12677366.9639339 -12677366.9639339 -3311503.020971484 0 0 0 0 0 87907994.40195394 -12618755.38969539 -12618755.38969539 -3547764.592773357 0 0 0 0 0 88632078.03890155 -12539264.2894689 -12539264.2894689 -3772225.843447459 0 0 0 0 0 89346960.80246055 -12439397.24726585 -12439397.24726585 -3982811.5733103 0 0 0 0 0 90297659.36168371 -12089464.06479755 -12089464.06479755 -4037922.328261979 0 0 0 0 0 90040568.55975619 -12174222.14959137 -12174222.14959137 -3727590.147922085 0 0 0 0 0 90898014.01327336 -11968122.86802361 -11968122.86802361 -4287035.224925914 0 0 0 0 0 91436158.43940258 -11807857.29531861 -11807857.29531861 -4389426.207280506 0 0 0 0 0 92072643.55107047 -11686663.34157955 -11686663.34157955 -4575080.522586826 0 0 0 0 0 92693788.34781192 -11575135.40179789 -11575135.40179789 -4758853.701949846 0 0 0 0 0 93089394.56714961 -11362105.75737855 -11362105.75737855 -4559744.422786313 0 0 0 0 0 93541979.13545494 -11266022.79317871 -11266022.79317871 -4809652.063018737 0 0 0 0 0 94290332.21583349 -11133173.63377913 -11133173.63377913 -4984423.627297547 0 0 0 0 0 94757604.24739158 -10866418.28588298 -10866418.28588298 -4885990.831813253 0 0 0 0 0 94901189.66975711 -10728424.25205195 -10728424.25205195 -5039190.790683568 0 0 0 0 0 95219042.67072257 -10535931.48565804 -10535931.48565804 -4952633.278169938 0 0 0 0 0 95807770.38926651 -10376535.39755295 -10376535.39755295 -5091043.653542763 0 0 0 0 0 71716967.97242996 -11229969.91370343 -11229969.91370343 1137573.270239866 0 0 0 0 0 58003921.14369925 -514196.6144219542 -514196.6144219542 4132677.819616093 0 0 0 0 0 58630875.94097174 -1443231.716585004 -1443231.716585004 3983217.737023337 0 0 0 0 0 59541938.53840464 -2080225.413369184 -2080225.413369184 4247202.3122133 0 0 0 0 0 60084041.78373205 -2971088.977510122 -2971088.977510122 4144523.152798211 0 0 0 0 0 60630635.81419801 -3981287.470361629 -3981287.470361629 4015441.133529978 0 0 0 0 0 61247081.75076348 -4997487.166766974 -4997487.166766974 3842948.246478807 0 0 0 0 0 61922457.88077499 -5968281.95172042 -5968281.95172042 3635765.007977349 0 0 0 0 0 62004465.42573648 -6014610.680011565 -6014610.680011565 3368096.437472996 0 0 0 0 0 63745606.79153111 -6904408.91466496 -6904408.91466496 3371120.177593731 0 0 0 0 0 64533646.9543509 -7745395.347908571 -7745395.347908571 3102801.48323015 0 0 0 0 0 65373181.80062365 -8536432.399224859 -8536432.399224859 2811128.05989382 0 0 0 0 0 66232429.4538682 -9274283.749040773 -9274283.749040773 2494528.467253673 0 0 0 0 0 67125188.71466754 -9957555.407949021 -9957555.407949021 2161012.888148823 0 0 0 0 0 68036172.28022793 -10578572.05130445 -10578572.05130445 1813267.591110287 0 0 0 0 0 68654994.84562203 -10412856.43402289 -10412856.43402289 1787384.08576537 0 0 0 0 0 69978395.90462975 -10936682.67656641 -10936682.67656641 1490028.732875211 0 0 0 0 0 70955888.53469098 -11457420.97091017 -11457420.97091017 1137605.033604866 0 0 0 0 0 72369254.46589732 -11044101.36804936 -11044101.36804936 1169534.856825069 0 0 0 0 0 73349731.96706933 -11456038.41462909 -11456038.41462909 851325.5507083847 0 0 0 0 0 75009387.96228792 -11601959.5275369 -11601959.5275369 534250.5934336158 0 0 0 0 0 74368053.63386168 -11791730.25303503 -11791730.25303503 491064.7156052367 0 0 0 0 0 75990267.0343965 -11941460.2932335 -11941460.2932335 206179.620988338 0 0 0 0 0 76974623.049564 -12240972.91760357 -12240972.91760357 -123136.8864874661 0 0 0 0 0 77956716.06794901 -12502046.99223509 -12502046.99223509 -452377.0148576309 0 0 0 0 0 78936624.34992209 -12725426.40651146 -12725426.40651146 -779371.196719646 0 0 0 0 0 80403107.80716948 -12623010.24425108 -12623010.24425108 -1040729.211647271 0 0 0 0 0 79673965.39068583 -12865791.4352719 -12865791.4352719 -1190580.372366311 0 0 0 0 0 81331883.4630598 -12768958.04995805 -12768958.04995805 -1349940.641700025 0 0 0 0 0 82249560.29150908 -12882991.21982789 -12882991.21982789 -1653482.758810222 0 0 0 0 0 83153977.88419054 -12966778.72765711 -12966778.72765711 -1950463.815751918 0 0 0 0 0 84043164.91885963 -13021885.30133514 -13021885.30133514 -2239792.611321011 0 0 0 0 0 84915686.0240832 -13049842.86277116 -13049842.86277116 -2520400.693709124 0 0 0 0 0 85317923.72535655 -13025076.54445379 -13025076.54445379 -2916933.032580399 0 0 0 0 0 86859822.87913273 -12737810.5627933 -12737810.5627933 -2938089.966528032 0 0 0 0 0 86125130.30499542 -13006557.23777795 -13006557.23777795 -3181749.145417196 0 0 0 0 0 87645863.74255067 -12697261.83671349 -12697261.83671349 -3183983.640285586 0 0 0 0 0 88411280.98527424 -12634222.59105149 -12634222.59105149 -3416981.805103121 0 0 0 0 0 89160724.8119998 -12548813.4576434 -12548813.4576434 -3640538.502732495 0 0 0 0 0 89889944.75757876 -12446571.39896196 -12446571.39896196 -3848101.001428526 0 0 0 0 0 90706706.82897566 -12091051.04196941 -12091051.04196941 -3926547.763616282 0 0 0 0 0 90060008.63373722 -12340087.63154902 -12340087.63154902 -4185816.00333244 0 0 0 0 0 91369803.41789299 -11983990.17434402 -11983990.17434402 -4166616.200530558 0 0 0 0 0 92033114.68110371 -11818087.66500895 -11818087.66500895 -4258924.404150287 0 0 0 0 0 92630752.59347436 -11676770.46337188 -11676770.46337188 -4449725.980167865 0 0 0 0 0 93196358.08934312 -11541318.89802026 -11541318.89802026 -4615199.452454775 0 0 0 0 0 93423476.51505949 -11490811.25822739 -11490811.25822739 -4804801.248855542 0 0 0 0 0 93677232.93447076 -11257136.46828368 -11257136.46828368 -4768705.249184825 0 0 0 0 0 94348267.88929558 -10993342.84131762 -10993342.84131762 -5086248.025712834 0 0 0 0 0 94312810.64631976 -11129260.2827583 -11129260.2827583 -4977330.388102674 0 0 0 0 0 94724081.74874015 -10789503.40972992 -10789503.40972992 -5122415.35039321 0 0 0 0 0 95358990.34845068 -10612386.96451011 -10612386.96451011 -5288176.455715693 0 0 0 0 0 95947686.25700513 -10417555.37914008 -10417555.37914008 -5376487.831685071 0 0 0 0 0 96294054.76057903 -10215185.3297983 -10215185.3297983 -5244864.538378537 0 0 0 0 0 71590740.06995785 -11278507.72801618 -11278507.72801618 1145522.450939381 0 0 0 0 0 57308536.34185202 -411033.0862775435 -411033.0862775435 4021244.518146694 0 0 0 0 0 58781704.83201061 -1550023.982000374 -1550023.982000374 4204931.317808297 0 0 0 0 0 58148119.39987541 -1981539.977423508 -1981539.977423508 3883142.309899891 0 0 0 0 0 58724663.36014326 -2896438.208659029 -2896438.208659029 3780911.205824429 0 0 0 0 0 59360647.34101966 -3946795.646602079 -3946795.646602079 3688947.63676622 0 0 0 0 0 60071482.31064871 -4973834.814683497 -4973834.814683497 3546067.117326085 0 0 0 0 0 60851408.93328636 -5957181.44884719 -5957181.44884719 3372378.585896935 0 0 0 0 0 62665172.79904114 -6895080.157434642 -6895080.157434642 3395244.336575064 0 0 0 0 0 62834383.36107432 -6909411.001840239 -6909411.001840239 3156915.024572594 0 0 0 0 0 63722648.63462055 -7758447.033791453 -7758447.033791453 2917966.076025773 0 0 0 0 0 64664237.31178378 -8557012.153709885 -8557012.153709885 2653547.659143277 0 0 0 0 0 65650345.86501456 -9304515.559657974 -9304515.559657974 2375442.513104632 0 0 0 0 0 66672202.01608059 -9994983.323473712 -9994983.323473712 2081230.328403813 0 0 0 0 0 67769099.45908086 -10615535.07199564 -10615535.07199564 1788252.119810557 0 0 0 0 0 69074249.35607091 -11149126.77575385 -11149126.77575385 1471930.941604166 0 0 0 0 0 69708465.41104569 -10983466.28790379 -10983466.28790379 1458640.786296711 0 0 0 0 0 70746956.44877535 -11506746.31028892 -11506746.31028892 1120053.955491014 0 0 0 0 0 72660442.31798221 -11658605.19457033 -11658605.19457033 798943.1877055918 0 0 0 0 0 73635367.83704686 -12049644.8417791 -12049644.8417791 454221.6936772857 0 0 0 0 0 75317765.44691463 -12146298.48404541 -12146298.48404541 138576.0568924159 0 0 0 0 0 74319666.10950014 -11843399.352137 -11843399.352137 513474.7542159724 0 0 0 0 0 76276452.9525656 -12459325.19270858 -12459325.19270858 -214211.8413087396 0 0 0 0 0 77236058.28756101 -12732632.21775251 -12732632.21775251 -565883.974716843 0 0 0 0 0 78197452.86791289 -12967111.27131769 -12967111.27131769 -914419.0518796681 0 0 0 0 0 79154046.73888782 -13163993.35595913 -13163993.35595913 -1258413.810214281 0 0 0 0 0 80589833.86101143 -13020268.80087081 -13020268.80087081 -1518706.34741187 0 0 0 0 0 79909810.79399987 -12912263.19564398 -12912263.19564398 -1102612.899166338 0 0 0 0 0 81497646.63859282 -13141644.5447032 -13141644.5447032 -1839735.792358833 0 0 0 0 0 82395211.25126177 -13231519.82218457 -13231519.82218457 -2152707.982476854 0 0 0 0 0 83280530.58892509 -13291546.69499964 -13291546.69499964 -2456617.484347825 0 0 0 0 0 84151468.15897222 -13323411.01442055 -13323411.01442055 -2750687.793007233 0 0 0 0 0 85005442.45251773 -13328544.45444557 -13328544.45444557 -3034192.150781057 0 0 0 0 0 85769575.0199898 -13051659.65819104 -13051659.65819104 -2791175.6378582 0 0 0 0 0 86916978.6961939 -12966304.50474476 -12966304.50474476 -3435835.757853373 0 0 0 0 0 86603729.02614033 -13029181.91129926 -13029181.91129926 -3052186.423118302 0 0 0 0 0 87687681.57820399 -12904366.12164663 -12904366.12164663 -3678066.061906256 0 0 0 0 0 88438138.89427835 -12820598.33625978 -12820598.33625978 -3909512.352879158 0 0 0 0 0 89176119.0064739 -12719777.80215582 -12719777.80215582 -4128004.731641044 0 0 0 0 0 89895780.20366067 -12603816.62545468 -12603816.62545468 -4336642.269624436 0 0 0 0 0 90729057.58838025 -12214721.039796 -12214721.039796 -4390637.684079796 0 0 0 0 0 90592882.63104892 -12335584.25397572 -12335584.25397572 -4060615.882649432 0 0 0 0 0 91358223.09861143 -12072388.03003082 -12072388.03003082 -4558724.971516517 0 0 0 0 0 92001690.51388951 -11917959.00913095 -11917959.00913095 -4712519.789239077 0 0 0 0 0 92618344.96855426 -11781711.54473617 -11781711.54473617 -4848453.941203826 0 0 0 0 0 93113493.29356544 -11588177.15595898 -11588177.15595898 -4957508.372035958 0 0 0 0 0 93960006.47121282 -11393047.72551292 -11393047.72551292 -5123649.945490525 0 0 0 0 0 94936229.21599787 -10983318.58043219 -10983318.58043219 -5031986.145639452 0 0 0 0 0 94396128.69445574 -11204734.40345599 -11204734.40345599 -5280072.529140444 0 0 0 0 0 95349138.34505916 -10807491.26261787 -10807491.26261787 -5139099.159898421 0 0 0 0 0 95768950.60862252 -10581609.99009704 -10581609.99009704 -5182685.934053597 0 0 0 0 0 96115694.97995348 -10430876.57877277 -10430876.57877277 -5332257.269383843 0 0 0 0 0 96366195.37532824 -10252864.03050165 -10252864.03050165 -5554101.622563978 0 0 0 0 0 96726473.76711182 -10052666.06207667 -10052666.06207667 -5399401.113897467 0 0 0 0 0 71894653.90048546 -11919082.15250848 -11919082.15250848 765514.2567156 0 0 0 0 0 56797302.72787098 -492671.0806485089 -492671.0806485089 3979706.5639497 0 0 0 0 0 57649743.07460863 -1499403.28496231 -1499403.28496231 3967367.9423549 0 0 0 0 0 58975474.52902983 -2733582.4396255 -2733582.4396255 4160590.545875151 0 0 0 0 0 59440626.07504728 -3838077.491182127 -3838077.491182127 4020200.115516373 0 0 0 0 0 60092135.71211877 -4888430.319780593 -4888430.319780593 3853804.654325748 0 0 0 0 0 60785719.86078258 -5903318.703660226 -5903318.703660226 3651413.390606294 0 0 0 0 0 61542250.66137021 -6875079.526653843 -6875079.526653843 3412707.991029862 0 0 0 0 0 61700064.07154278 -6895077.746173239 -6895077.746173239 3164702.987679918 0 0 0 0 0 63470768.39007251 -7775368.31280929 -7775368.31280929 3124708.936856064 0 0 0 0 0 64332002.95180433 -8605856.183629891 -8605856.183629891 2827322.559484425 0 0 0 0 0 65228794.40543505 -9386803.367959779 -9386803.367959779 2508369.877716501 0 0 0 0 0 66161298.81222028 -10113156.87650635 -10113156.87650635 2165643.102188689 0 0 0 0 0 67136060.77604859 -10780053.91582835 -10780053.91582835 1810074.125928254 0 0 0 0 0 68115933.66676651 -11385292.27573334 -11385292.27573334 1437520.943997291 0 0 0 0 0 68827599.46609017 -11194531.31961996 -11194531.31961996 1450714.424637124 0 0 0 0 0 70098145.64247948 -11685924.6396353 -11685924.6396353 1112118.738115136 0 0 0 0 0 71143151.24605668 -12175518.93845332 -12175518.93845332 751561.7661856791 0 0 0 0 0 72613655.69799183 -11709937.62719848 -11709937.62719848 828865.7302185092 0 0 0 0 0 73640957.25453582 -12100206.82903543 -12100206.82903543 493662.6823195931 0 0 0 0 0 75331708.92453519 -12197970.82253074 -12197970.82253074 177268.0880908709 0 0 0 0 0 74638670.71614595 -12408882.16726036 -12408882.16726036 107064.372019737 0 0 0 0 0 76350827.70665731 -12510537.63721915 -12510537.63721915 -161600.7391242668 0 0 0 0 0 77371446.66604719 -12782558.52973943 -12782558.52973943 -499526.6260726334 0 0 0 0 0 78387737.27287772 -13015370.21907268 -13015370.21907268 -836124.4524332755 0 0 0 0 0 79397728.11053376 -13210058.22807417 -13210058.22807417 -1168853.004253988 0 0 0 0 0 80873606.76410511 -13064071.25397287 -13064071.25397287 -1421108.498551349 0 0 0 0 0 80104271.30017965 -13324725.37955992 -13324725.37955992 -1596633.15622317 0 0 0 0 0 81825611.00354044 -13182417.41059478 -13182417.41059478 -1733645.524395296 0 0 0 0 0 82763797.04827844 -13268950.02269467 -13268950.02269467 -2039201.591344592 0 0 0 0 0 83685979.2405501 -13325330.16463722 -13325330.16463722 -2336792.447119801 0 0 0 0 0 84590538.38422664 -13353271.95025964 -13353271.95025964 -2625469.994020879 0 0 0 0 0 85476053.7834466 -13354235.79580626 -13354235.79580626 -2904342.771368961 0 0 0 0 0 85841654.52521881 -13308225.74127239 -13308225.74127239 -3306188.833082798 0 0 0 0 0 87417414.60582979 -12984674.71590551 -12984674.71590551 -3303799.299873291 0 0 0 0 0 86660530.94694138 -13264466.34820994 -13264466.34820994 -3566698.838218904 0 0 0 0 0 88210581.64639497 -12918076.35151228 -12918076.35151228 -3543804.18886588 0 0 0 0 0 88983653.21568255 -12830309.49724241 -12830309.49724241 -3772745.131417349 0 0 0 0 0 89735803.42297314 -12724281.48421365 -12724281.48421365 -3991462.895657663 0 0 0 0 0 90462512.50637414 -12605157.51453967 -12605157.51453967 -4200054.419071769 0 0 0 0 0 91261889.42307632 -12216988.07082646 -12216988.07082646 -4259455.120169723 0 0 0 0 0 90590981.09948343 -12476142.5945156 -12476142.5945156 -4531704.405942596 0 0 0 0 0 91929119.50119381 -12062763.46845832 -12062763.46845832 -4433088.796091936 0 0 0 0 0 92572342.24657716 -11906479.24361382 -11906479.24361382 -4584100.424227548 0 0 0 0 0 93182652.68722804 -11742513.63155441 -11742513.63155441 -4730502.503506999 0 0 0 0 0 93770283.33967288 -11571039.45997072 -11571039.45997072 -4921083.750734267 0 0 0 0 0 94300315.54646169 -11366953.52945962 -11366953.52945962 -5029987.823468895 0 0 0 0 0 94845766.21682589 -10978230.8949545 -10978230.8949545 -5373041.575337512 0 0 0 0 0 94881374.41464335 -11194979.27987163 -11194979.27987163 -5168059.371908315 0 0 0 0 0 95257528.99026391 -10780998.46714528 -10780998.46714528 -5429537.187292848 0 0 0 0 0 95729242.38426344 -10618198.3478236 -10618198.3478236 -5463459.637768348 0 0 0 0 0 96434019.50036986 -10459296.51235098 -10459296.51235098 -5502352.171200542 0 0 0 0 0 96783187.16255993 -10229654.38024561 -10229654.38024561 -5462252.455991746 0 0 0 0 0 97005690.68290825 -10098955.887681 -10098955.887681 -5596516.247235783 0 0 0 0 0 97761214.83475904 -9658028.572777675 -9658028.572777675 -5611001.000990354 0 0 0 0 0 97413479.27519661 -9823088.108537219 -9823088.108537219 -5462060.203942326 0 0 0 0 0 71844528.89518835 -11968003.75420667 -11968003.75420667 792951.0785257093 0 0 0 0 0 56472032.50639591 -494353.2251242194 -494353.2251242194 4074861.441314777 0 0 0 0 0 57315829.8157111 -1554436.925572829 -1554436.925572829 4175703.706597791 0 0 0 0 0 57514402.32031155 -2690581.907884491 -2690581.907884491 3786862.076475865 0 0 0 0 0 58148433.32520628 -3801250.204413523 -3801250.204413523 3688851.170957644 0 0 0 0 0 58864181.43383981 -4860289.119288993 -4860289.119288993 3541067.475421011 0 0 0 0 0 59651619.80837774 -5886040.978491834 -5886040.978491834 3368746.136808204 0 0 0 0 0 60519051.59232389 -6869342.711386007 -6869342.711386007 3164353.082985755 0 0 0 0 0 62365939.58540175 -7798038.824368736 -7798038.824368736 3141737.05446158 0 0 0 0 0 62611886.06942189 -7785056.500488307 -7785056.500488307 2926159.249272991 0 0 0 0 0 63579619.67171667 -8624868.155477321 -8624868.155477321 2659857.62016079 0 0 0 0 0 64593664.24843254 -9414040.610022215 -9414040.610022215 2371944.08433558 0 0 0 0 0 65668398.02691524 -10144121.68028679 -10144121.68028679 2070498.446487686 0 0 0 0 0 66772392.5737922 -10820891.83856554 -10820891.83856554 1751910.783996677 0 0 0 0 0 67929159.06936365 -11429873.53111382 -11429873.53111382 1433617.81551249 0 0 0 0 0 69217822.26364705 -11936520.39326006 -11936520.39326006 1084608.047323747 0 0 0 0 0 69915592.50332323 -11731113.75193473 -11731113.75193473 1102219.840050212 0 0 0 0 0 71000724.47308925 -12224063.14757192 -12224063.14757192 748707.5598359965 0 0 0 0 0 72903724.06450851 -12323395.22291774 -12323395.22291774 413896.4627360239 0 0 0 0 0 73914894.59158775 -12688755.13885876 -12688755.13885876 57263.30922444344 0 0 0 0 0 75630150.27590631 -12736107.84544585 -12736107.84544585 -254950.7184333005 0 0 0 0 0 74651622.82799417 -12459896.99318399 -12459896.99318399 144178.3907897482 0 0 0 0 0 76626181.12659305 -13021504.23594495 -13021504.23594495 -617223.8517141223 0 0 0 0 0 77621601.88634403 -13265913.31180625 -13265913.31180625 -976252.6278672564 0 0 0 0 0 78614236.89746749 -13471196.28985666 -13471196.28985666 -1330915.816121876 0 0 0 0 0 79600893.94779824 -13638486.27605862 -13638486.27605862 -1679195.359708172 0 0 0 0 0 81046024.39023894 -13450681.70649225 -13450681.70649225 -1927357.975209398 0 0 0 0 0 80398728.65683706 -13368103.44050447 -13368103.44050447 -1496769.51002796 0 0 0 0 0 81976916.90575686 -13543642.07711282 -13543642.07711282 -2249652.8643099 0 0 0 0 0 82894806.80006555 -13605193.36011892 -13605193.36011892 -2562448.054109748 0 0 0 0 0 83797598.93303132 -13637142.50601133 -13637142.50601133 -2865045.946250577 0 0 0 0 0 84683815.16763981 -13641248.15775482 -13641248.15775482 -3156637.272445637 0 0 0 0 0 85550801.70554693 -13618966.36503221 -13618966.36503221 -3436432.531264237 0 0 0 0 0 86340480.57663538 -13329659.90158103 -13329659.90158103 -3172563.094516485 0 0 0 0 0 87459921.33238035 -13198451.04079227 -13198451.04079227 -3815363.27319963 0 0 0 0 0 87183494.32352395 -13281526.70937862 -13281526.70937862 -3430340.502103027 0 0 0 0 0 88238740.60613523 -13111205.62441156 -13111205.62441156 -4052336.108536102 0 0 0 0 0 88998684.51475005 -13004845.579406 -13004845.579406 -4277190.289850468 0 0 0 0 0 89740254.82877737 -12882952.77986162 -12882952.77986162 -4489348.400943011 0 0 0 0 0 90455629.77744156 -12746048.57660756 -12746048.57660756 -4688747.706295092 0 0 0 0 0 91242044.58379708 -12326617.9185735 -12326617.9185735 -4715909.090845325 0 0 0 0 0 91161080.68018635 -12472462.40857503 -12472462.40857503 -4398358.030434846 0 0 0 0 0 91907156.90557159 -12170211.58862627 -12170211.58862627 -4882908.283369966 0 0 0 0 0 92540090.76789667 -12002953.81913259 -12002953.81913259 -5041711.765153832 0 0 0 0 0 93114135.2947427 -11812316.22344392 -11812316.22344392 -5209158.805485937 0 0 0 0 0 93696552.82785243 -11629520.53017919 -11629520.53017919 -5305480.804773092 0 0 0 0 0 94260193.10447949 -11444440.22371654 -11444440.22371654 -5459900.521467771 0 0 0 0 0 95445674.87679163 -10985116.27410904 -10985116.27410904 -5279100.5374511 0 0 0 0 0 94824234.58561736 -11225270.85498455 -11225270.85498455 -5567592.513983958 0 0 0 0 0 95931455.89988898 -10771367.26215098 -10771367.26215098 -5348686.685414363 0 0 0 0 0 96208804.17393373 -10570905.18100528 -10570905.18100528 -5412550.609025173 0 0 0 0 0 96396347.7189725 -10365906.82511879 -10365906.82511879 -5669871.233045261 0 0 0 0 0 96164808.77960709 -10503054.61340342 -10503054.61340342 -5590811.243637675 0 0 0 0 0 96691195.63607013 -10201399.72076812 -10201399.72076812 -5751864.10024712 0 0 0 0 0 96996648.74186462 -9992785.046593903 -9992785.046593903 -5702254.8339856 0 0 0 0 0 97387430.41125886 -9875427.432630699 -9875427.432630699 -5828416.318001186 0 0 0 0 0 97824552.58564101 -9692528.332940146 -9692528.332940146 -5931702.798981517 0 0 0 0 0 98205419.50485824 -9459466.638628649 -9459466.638628649 -5715559.899702736 0 0 0 0 0 72145112.31191836 -12613373.18889638 -12613373.18889638 371138.3214989115 0 0 0 0 0 55578945.41718603 -573157.843900034 -573157.843900034 3950989.864530839 0 0 0 0 0 55768380.30702671 -1573552.735419534 -1573552.735419534 3775698.171650994 0 0 0 0 0 57680632.9537121 -2546286.845626436 -2546286.845626436 4136115.193591844 0 0 0 0 0 58310698.20601672 -3676125.645422515 -3676125.645422515 3995718.583218067 0 0 0 0 0 58890753.29329576 -4770640.145251691 -4770640.145251691 3858756.208411161 0 0 0 0 0 59602153.20307261 -5824326.476671767 -5824326.476671767 3660287.162416947 0 0 0 0 0 60373986.18381403 -6843101.033702106 -6843101.033702106 3422648.313054435 0 0 0 0 0 61215997.65069889 -7811415.874570344 -7811415.874570344 3151360.208168918 0 0 0 0 0 61454985.74985985 -7802586.051832261 -7802586.051832261 2927285.033908116 0 0 0 0 0 63250621.18771528 -8669688.27402523 -8669688.27402523 2842192.492065044 0 0 0 0 0 64188791.07322454 -9488579.103336539 -9488579.103336539 2517045.998958734 0 0 0 0 0 65168581.96669409 -10253583.50271061 -10253583.50271061 2169957.690711854 0 0 0 0 0 66169295.31970517 -10965981.77869694 -10965981.77869694 1801788.516847874 0 0 0 0 0 67216947.60761747 -11619002.25764735 -11619002.25764735 1421492.79590501 0 0 0 0 0 68277516.30679177 -12198200.14302826 -12198200.14302826 1037762.608857079 0 0 0 0 0 69032426.53354108 -11980558.94460745 -11980558.94460745 1073919.39631327 0 0 0 0 0 70280640.07180308 -12436976.95990723 -12436976.95990723 709353.9366070421 0 0 0 0 0 71387405.14084777 -12892462.23715014 -12892462.23715014 335349.6380120486 0 0 0 0 0 72901373.76774532 -12372598.80507219 -12372598.80507219 450727.4754223418 0 0 0 0 0 73980663.92283148 -12738461.75455899 -12738461.75455899 108980.2833206623 0 0 0 0 0 75702212.54344171 -12786671.41503211 -12786671.41503211 -203358.536686672 0 0 0 0 0 74959141.64601552 -13020763.77744865 -13020763.77744865 -300406.8487540189 0 0 0 0 0 76762160.19336656 -13070986.4654889 -13070986.4654889 -551051.3183829498 0 0 0 0 0 77817839.3600332 -13313790.18102562 -13313790.18102562 -896790.7133133668 0 0 0 0 0 78867414.8272429 -13516808.72176159 -13516808.72176159 -1239393.660239095 0 0 0 0 0 79906068.94492409 -13681411.71150185 -13681411.71150185 -1577063.539068161 0 0 0 0 0 81386708.25020246 -13491055.3623898 -13491055.3623898 -1818497.997068139 0 0 0 0 0 80577953.08725047 -13769418.3595482 -13769418.3595482 -2019956.269350925 0 0 0 0 0 82360211.02299525 -13580528.27229406 -13580528.27229406 -2132991.592488378 0 0 0 0 0 83316772.95687532 -13638291.42811772 -13638291.42811772 -2439135.577678525 0 0 0 0 0 84254997.2146323 -13666215.26080728 -13666215.26080728 -2736025.732768521 0 0 0 0 0 85173001.56428336 -13665963.20905302 -13665963.20905302 -3022925.23604608 0 0 0 0 0 86069551.87142804 -13639108.54549487 -13639108.54549487 -3298831.368291946 0 0 0 0 0 86398643.95826268 -13571909.69289008 -13571909.69289008 -3704026.507157642 0 0 0 0 0 88004327.80003946 -13210901.45518458 -13210901.45518458 -3676879.180140717 0 0 0 0 0 87226249.17300646 -13501638.37170695 -13501638.37170695 -3958970.215742549 0 0 0 0 0 88803438.74384825 -13119240.30849759 -13119240.30849759 -3911946.705329579 0 0 0 0 0 89579623.25218759 -13008531.58185578 -13008531.58185578 -4135862.995534846 0 0 0 0 0 90331289.42318916 -12881825.87275224 -12881825.87275224 -4348746.802605676 0 0 0 0 0 91056794.09718998 -12740248.9640688 -12740248.9640688 -4549035.225956148 0 0 0 0 0 91840497.52513471 -12319159.96998051 -12319159.96998051 -4578879.402393647 0 0 0 0 0 91141094.25311249 -12592202.532574 -12592202.532574 -4874703.792822071 0 0 0 0 0 92500792.90458424 -12155149.87424294 -12155149.87424294 -4751311.06837876 0 0 0 0 0 93130073.30225565 -11987544.29986389 -11987544.29986389 -4911186.40804843 0 0 0 0 0 93731946.81767258 -11805351.39730138 -11805351.39730138 -5066281.05081255 0 0 0 0 0 94326615.88287443 -11598018.7311091 -11598018.7311091 -5176376.495891514 0 0 0 0 0 94881977.61956465 -11405148.26585352 -11405148.26585352 -5338043.103921811 0 0 0 0 0 95355108.08842131 -10981533.96898338 -10981533.96898338 -5637209.449111849 0 0 0 0 0 95421806.561782 -11196772.48562507 -11196772.48562507 -5455066.206181169 0 0 0 0 0 95843689.33609164 -10699844.31678565 -10699844.31678565 -5611829.756474975 0 0 0 0 0 96820193.07615805 -10308614.18279749 -10308614.18279749 -5619334.032059488 0 0 0 0 0 96515418.73513475 -10528244.46692743 -10528244.46692743 -5722369.016484364 0 0 0 0 0 97291147.29829973 -10178766.47635304 -10178766.47635304 -5683014.244927164 0 0 0 0 0 97562004.75020888 -9978423.907523304 -9978423.907523304 -5723373.566843991 0 0 0 0 0 97637231.91873226 -9821230.144778099 -9821230.144778099 -5734719.295057133 0 0 0 0 0 98185076.81693113 -9645109.018423848 -9645109.018423848 -5828332.829858261 0 0 0 0 0 98271425.8816269 -9471123.455782773 -9471123.455782773 -6010987.282013698 0 0 0 0 0 98644879.9917652 -9249955.239012811 -9249955.239012811 -5806210.791767138 0 0 0 0 0 72145667.01724912 -12660840.54915134 -12660840.54915134 406733.0874474254 0 0 0 0 0 54811588.464852 -523035.0338245885 -523035.0338245885 3883193.273798932 0 0 0 0 0 56842553.86083251 -2018477.67965038 -2018477.67965038 4250569.727255523 0 0 0 0 0 56062549.66002945 -2406397.07801478 -2406397.07801478 3699439.689395593 0 0 0 0 0 56957015.93167105 -3615491.365898894 -3615491.365898894 3631237.476480281 0 0 0 0 0 57624857.65226202 -4743278.565496461 -4743278.565496461 3535009.592391819 0 0 0 0 0 58405065.82456345 -5803460.287745467 -5803460.287745467 3359725.747717249 0 0 0 0 0 59288916.15416809 -6832069.02357531 -6832069.02357531 3155963.991872425 0 0 0 0 0 60249476.85777269 -7810431.816042326 -7810431.816042326 2919768.557784794 0 0 0 0 0 62123792.26668185 -8726070.806809591 -8726070.806809591 2850387.262251384 0 0 0 0 0 62451282.31085896 -8683562.028689265 -8683562.028689265 2660712.864179414 0 0 0 0 0 63500874.59298866 -9511008.015468955 -9511008.015468955 2368057.276275513 0 0 0 0 0 64589470.82256863 -10286621.50789074 -10286621.50789074 2051197.814816555 0 0 0 0 0 65725396.41782427 -11004253.53117485 -11004253.53117485 1721350.845644311 0 0 0 0 0 66901607.44187517 -11659338.55186026 -11659338.55186026 1374660.182930847 0 0 0 0 0 68110616.05329901 -12235600.20054984 -12235600.20054984 1031613.070189484 0 0 0 0 0 69407109.31960616 -12710431.78662683 -12710431.78662683 660502.3768593592 0 0 0 0 0 70183053.40173186 -12480883.25093653 -12480883.25093653 721799.4911587774 0 0 0 0 0 71309766.62536091 -12938863.71181575 -12938863.71181575 346892.7311365781 0 0 0 0 0 73189868.9992051 -12990022.33389874 -12990022.33389874 2627.888892482527 0 0 0 0 0 74242972.56602368 -13323798.76826413 -13323798.76826413 -366636.1216877535 0 0 0 0 0 75990872.13120909 -13318442.23306142 -13318442.23306142 -672611.7045503444 0 0 0 0 0 75036443.64061621 -13070329.71046818 -13070329.71046818 -248722.0306603015 0 0 0 0 0 77023936.22356758 -13573663.73475769 -13573663.73475769 -1042609.879931987 0 0 0 0 0 78054120.46180746 -13787674.53227598 -13787674.53227598 -1408134.164889025 0 0 0 0 0 79077643.03211972 -13962054.17865559 -13962054.17865559 -1767348.829628405 0 0 0 0 0 80092952.0558458 -14098060.70273811 -14098060.70273811 -2118259.805603181 0 0 0 0 0 81543705.15390089 -13865713.61437732 -13865713.61437732 -2352199.156188188 0 0 0 0 0 80932157.31082827 -13809054.13063684 -13809054.13063684 -1908366.219076159 0 0 0 0 0 82496123.01010574 -13928691.37289331 -13928691.37289331 -2673925.751468315 0 0 0 0 0 83432506.76626599 -13960839.94841575 -13960839.94841575 -2985148.519192558 0 0 0 0 0 84351485.03641905 -13963745.58446352 -13963745.58446352 -3284995.937437516 0 0 0 0 0 85251245.6457414 -13939182.07709195 -13939182.07709195 -3572698.826418097 0 0 0 0 0 86129878.63407217 -13888785.32819074 -13888785.32819074 -3847641.533271958 0 0 0 0 0 86943268.01256964 -13587556.33825211 -13587556.33825211 -3563409.093606517 0 0 0 0 0 88032970.04344848 -13409811.71231375 -13409811.71231375 -4201618.883727946 0 0 0 0 0 87793530.71241571 -13512699.56643327 -13512699.56643327 -3816117.736390865 0 0 0 0 0 88818418.7489623 -13298149.49414478 -13298149.49414478 -4431598.824536717 0 0 0 0 0 89582528.65809259 -13169023.88089653 -13169023.88089653 -4648642.42967099 0 0 0 0 0 90322793.97639364 -13024253.81863823 -13024253.81863823 -4852392.886518047 0 0 0 0 0 91035233.65162903 -12863476.10390147 -12863476.10390147 -5042869.169071156 0 0 0 0 0 91811405.22220008 -12425146.71372131 -12425146.71372131 -5049139.964538103 0 0 0 0 0 91758118.08384246 -12582277.39630487 -12582277.39630487 -4735257.669889979 0 0 0 0 0 92466823.99947543 -12250466.99405744 -12250466.99405744 -5209783.277630267 0 0 0 0 0 93083753.06493181 -12062365.25429708 -12062365.25429708 -5358142.832733167 0 0 0 0 0 93676967.08370109 -11862033.5338702 -11862033.5338702 -5493706.572521284 0 0 0 0 0 94265044.46991666 -11651615.49756666 -11651615.49756666 -5622853.84080714 0 0 0 0 0 94816736.71987858 -11439688.7311434 -11439688.7311434 -5738384.76077881 0 0 0 0 0 95968081.01669461 -10952458.11676356 -10952458.11676356 -5539375.591999064 0 0 0 0 0 95346294.22404942 -11204857.52062811 -11204857.52062811 -5836353.268596915 0 0 0 0 0 96354264.7046091 -10732414.22572928 -10732414.22572928 -5714759.804662106 0 0 0 0 0 96843226.38783748 -10366432.71869662 -10366432.71869662 -5901287.83912421 0 0 0 0 0 96389822.81109659 -10572956.38135785 -10572956.38135785 -5785392.940341549 0 0 0 0 0 97200261.6975763 -10108031.42812389 -10108031.42812389 -5919572.884699359 0 0 0 0 0 97807668.38958311 -9876582.207226146 -9876582.207226146 -6035400.839112883 0 0 0 0 0 98199078.71382953 -9646219.220418507 -9646219.220418507 -6108583.616349064 0 0 0 0 0 98618269.6559262 -9439882.584278848 -9439882.584278848 -5909514.212641112 0 0 0 0 0 98727210.14971939 -9267121.163588574 -9267121.163588574 -6067216.261208907 0 0 0 0 0 72429464.06174019 -13297510.50561995 -13297510.50561995 -65185.1500929097 0 0 0 0 0 54286295.13876873 -553467.7928379045 -553467.7928379045 3923789.180167404 0 0 0 0 0 55352401.0441107 -1727834.917140119 -1727834.917140119 4125337.783183406 0 0 0 0 0 54687802.38384804 -2056476.761024458 -2056476.761024458 3609215.763942837 0 0 0 0 0 56895842.10541444 -3537989.941023376 -3537989.941023376 3918418.874576944 0 0 0 0 0 57683204.36103188 -4644077.586034773 -4644077.586034773 3858950.740896132 0 0 0 0 0 58377818.83662686 -5732087.297181196 -5732087.297181196 3665722.272390472 0 0 0 0 0 59156852.27915115 -6800041.406927898 -6800041.406927898 3423198.130822366 0 0 0 0 0 60018173.93196897 -7815394.046665399 -7815394.046665399 3150987.233992458 0 0 0 0 0 60950054.72018632 -8774464.008714039 -8774464.008714039 2848903.131674121 0 0 0 0 0 61274845.9414087 -8734217.083819538 -8734217.083819538 2653171.055748788 0 0 0 0 0 63090693.10301658 -9585560.41602149 -9585560.41602149 2523324.074031397 0 0 0 0 0 64109827.61238227 -10389095.93240643 -10389095.93240643 2173814.015861921 0 0 0 0 0 65174613.16972513 -11134903.76172023 -11134903.76172023 1804569.514023198 0 0 0 0 0 66275078.82724279 -11821132.67326865 -11821132.67326865 1418057.615011076 0 0 0 0 0 67396777.96959288 -12444390.85709131 -12444390.85709131 1021123.936610076 0 0 0 0 0 68502156.32468094 -12991128.38909782 -12991128.38909782 616375.4175937681 0 0 0 0 0 69297527.26872377 -12751220.25877228 -12751220.25877228 667689.8926116398 0 0 0 0 0 70538636.76428732 -13176607.5065502 -13176607.5065502 283790.1634883835 0 0 0 0 0 71691394.98086143 -13605316.33209299 -13605316.33209299 -114403.6258700062 0 0 0 0 0 73267172.68806112 -13039672.17195353 -13039672.17195353 58439.06042283971 0 0 0 0 0 74385860.73545136 -13371727.24086554 -13371727.24086554 -298372.2986779106 0 0 0 0 0 76128927.56874385 -13367448.59304256 -13367448.59304256 -606265.2613139966 0 0 0 0 0 75329367.07618348 -13624442.40946457 -13624442.40946457 -734864.2022124601 0 0 0 0 0 77225815.5111945 -13620838.14786645 -13620838.14786645 -962275.4806120622 0 0 0 0 0 78316718.59143119 -13832584.02708587 -13832584.02708587 -1314839.486369314 0 0 0 0 0 79397779.28352773 -14003967.82240206 -14003967.82240206 -1662340.489495022 0 0 0 0 0 80463449.77129421 -14136734.8847143 -14136734.8847143 -2003399.108497625 0 0 0 0 0 81943770.11340117 -13901683.5336021 -13901683.5336021 -2232168.991422258 0 0 0 0 0 81095789.91942412 -14197922.96374818 -14197922.96374818 -2460591.539388935 0 0 0 0 0 82935524.57512359 -13960974.17798489 -13960974.17798489 -2546997.948933234 0 0 0 0 0 83908675.56644556 -13988955.27017214 -13988955.27017214 -2852274.837623176 0 0 0 0 0 84860967.99810475 -13987375.25001966 -13987375.25001966 -3147209.829196523 0 0 0 0 0 85790480.48564215 -13958132.24249023 -13958132.24249023 -3430931.878481993 0 0 0 0 0 86696200.15028743 -13902987.02795701 -13902987.02795701 -3702671.422726167 0 0 0 0 0 86986863.21751752 -13814190.92517332 -13814190.92517332 -4109395.212344501 0 0 0 0 0 88619734.47696373 -13416164.0701637 -13416164.0701637 -4057119.696629339 0 0 0 0 0 87821778.78978468 -13717160.38645073 -13717160.38645073 -4357825.082772554 0 0 0 0 0 89421742.45224524 -13299905.77623955 -13299905.77623955 -4286256.504733817 0 0 0 0 0 90198414.07061426 -13166109.78053088 -13166109.78053088 -4503465.962270295 0 0 0 0 0 90948736.06162906 -13016473.03745246 -13016473.03745246 -4707994.705863869 0 0 0 0 0 91673046.97620556 -12851236.10467833 -12851236.10467833 -4898961.130725816 0 0 0 0 0 92434950.12744437 -12410349.71714378 -12410349.71714378 -4910307.418567887 0 0 0 0 0 91724202.19763806 -12688673.83667937 -12688673.83667937 -5219653.510053976 0 0 0 0 0 93085093.71604894 -12230632.87272169 -12230632.87272169 -5075546.409717804 0 0 0 0 0 93709300.49713527 -12039480.54238807 -12039480.54238807 -5224572.283831229 0 0 0 0 0 94313025.37109599 -11832955.16110677 -11832955.16110677 -5361531.038545534 0 0 0 0 0 94889635.67449665 -11625074.83454994 -11625074.83454994 -5491634.876398051 0 0 0 0 0 95442769.45649119 -11405562.2516037 -11405562.2516037 -5611928.92115483 0 0 0 0 0 95955033.26437287 -11000695.32249039 -11000695.32249039 -5907441.787978811 0 0 0 0 0 95986975.55045266 -11171751.32354569 -11171751.32354569 -5715090.877722935 0 0 0 0 0 96400072.97454438 -10745615.9604712 -10745615.9604712 -5708440.352486247 0 0 0 0 0 97351392.13420741 -10321833.51415887 -10321833.51415887 -5808570.549560119 0 0 0 0 0 96936955.7749557 -10592406.84853892 -10592406.84853892 -5793483.390374878 0 0 0 0 0 97791198.7407566 -10070703.09555436 -10070703.09555436 -5876138.223745435 0 0 0 0 0 98185892.08095556 -9831490.46289731 -9831490.46289731 -5926110.247825549 0 0 0 0 0 98630570.10946965 -9613421.599080669 -9613421.599080669 -5994798.602270438 0 0 0 0 0 98621625.77094558 -9425498.166919563 -9425498.166919563 -6181714.074432806 0 0 0 0 0 99051963.85793222 -9045383.995931569 -9045383.995931569 -5891401.030832654 0 0 0 0 0 98953200.23907775 -9238660.048345778 -9238660.048345778 -5997438.258781737 0 0 0 0 0 99495937.52476907 -8825035.444913307 -8825035.444913307 -5950551.983640044 0 0 0 0 0 72522376.89397956 -13345230.53202607 -13345230.53202607 -7393.177526127804 0 0 0 0 0 53652043.94476959 -481473.1351933657 -481473.1351933657 3873300.11965676 0 0 0 0 0 53724380.46291272 -1628858.515848043 -1628858.515848043 3656253.438172852 0 0 0 0 0 55954784.30008294 -2713562.433776238 -2713562.433776238 4118955.893707587 0 0 0 0 0 56057967.13838656 -3560532.264072929 -3560532.264072929 3789712.786931101 0 0 0 0 0 56427711.87239444 -4658492.479020664 -4658492.479020664 3548086.78706304 0 0 0 0 0 57106321.42468193 -5717832.403353373 -5717832.403353373 3350254.560757358 0 0 0 0 0 58008065.37654647 -6785075.46664962 -6785075.46664962 3138156.930217927 0 0 0 0 0 58994084.07691 -7808343.526436696 -7808343.526436696 2901578.262254206 0 0 0 0 0 60048840.54998838 -8776669.722270256 -8776669.722270256 2635159.777279486 0 0 0 0 0 61944713.36774067 -9675897.305660045 -9675897.305660045 2518848.449453875 0 0 0 0 0 62357191.62885217 -9601767.233795656 -9601767.233795656 2359134.611075414 0 0 0 0 0 63489547.12516035 -10411857.38936838 -10411857.38936838 2041119.440625858 0 0 0 0 0 64664180.49969496 -11163728.6975707 -11163728.6975707 1701873.544838418 0 0 0 0 0 65874287.60118934 -11856200.81535518 -11856200.81535518 1346115.920848412 0 0 0 0 0 67107395.47338419 -12481132.86759281 -12481132.86759281 977353.7526696568 0 0 0 0 0 68379573.10738096 -13030065.53525156 -13030065.53525156 620740.2294752204 0 0 0 0 0 69671348.28000064 -13471582.17187481 -13471582.17187481 222447.5079181752 0 0 0 0 0 70487556.43067466 -13218346.35533625 -13218346.35533625 302727.2399180275 0 0 0 0 0 71698279.49612933 -13650045.98260458 -13650045.98260458 -82883.47871206781 0 0 0 0 0 73535129.07654831 -13643853.61061929 -13643853.61061929 -440337.6250209879 0 0 0 0 0 74629271.14799571 -13948498.20856404 -13948498.20856404 -817637.1032302473 0 0 0 0 0 76402330.1227124 -13890617.51732304 -13890617.51732304 -1114294.422928851 0 0 0 0 0 75483255.07997116 -13671772.11635522 -13671772.11635522 -666147.6907382633 0 0 0 0 0 77472334.05668958 -14113859.77222303 -14113859.77222303 -1490953.220153856 0 0 0 0 0 78536135.79151869 -14295879.66237776 -14295879.66237776 -1861580.009554099 0 0 0 0 0 79589484.96621931 -14437562.6717989 -14437562.6717989 -2223525.029518569 0 0 0 0 0 80630772.55883332 -14541050.07795689 -14541050.07795689 -2575727.788485308 0 0 0 0 0 82083340.14025036 -14262774.43029416 -14262774.43029416 -2791638.391361097 0 0 0 0 0 81513560.04215121 -14233147.43480638 -14233147.43480638 -2336712.986915503 0 0 0 0 0 83054910.55851489 -14295065.03297057 -14295065.03297057 -3111863.968670519 0 0 0 0 0 84008446.57385327 -14296556.87977944 -14296556.87977944 -3419941.46445146 0 0 0 0 0 84941610.80761807 -14269391.56570284 -14269391.56570284 -3715470.040457488 0 0 0 0 0 85852835.91920894 -14215364.06374097 -14215364.06374097 -3997905.677458838 0 0 0 0 0 86741243.25714655 -14136155.89280657 -14136155.89280657 -4266583.94590034 0 0 0 0 0 87577155.8350423 -13823668.34662546 -13823668.34662546 -3962146.477931481 0 0 0 0 0 88634251.6744197 -13599716.21176955 -13599716.21176955 -4593044.637232402 0 0 0 0 0 88432249.50088337 -13721699.18330699 -13721699.18330699 -4208978.593545766 0 0 0 0 0 89423441.87770714 -13463586.93899577 -13463586.93899577 -4814678.945331873 0 0 0 0 0 90188158.26009291 -13310793.42779941 -13310793.42779941 -5022530.96736131 0 0 0 0 0 90926532.12979092 -13142199.12686707 -13142199.12686707 -5216619.621465504 0 0 0 0 0 91639764.99570261 -12959178.36892529 -12959178.36892529 -5396846.317668483 0 0 0 0 0 92394371.86372966 -12503350.58523671 -12503350.58523671 -5383587.450548338 0 0 0 0 0 92371896.40754172 -12671617.85400481 -12671617.85400481 -5076759.179002166 0 0 0 0 0 93037263.71599784 -12307527.31303683 -12307527.31303683 -5533764.205687152 0 0 0 0 0 93651124.17916444 -12098535.12267723 -12098535.12267723 -5671580.707025423 0 0 0 0 0 94251225.42692052 -11883269.13674306 -11883269.13674306 -5798514.936854905 0 0 0 0 0 94818655.99188474 -11658579.51922513 -11658579.51922513 -5913963.770995114 0 0 0 0 0 95364627.57333545 -11425092.75653649 -11425092.75653649 -6019729.342586254 0 0 0 0 0 96485218.31752735 -10952437.60250703 -10952437.60250703 -5805048.289163934 0 0 0 0 0 95926434.87904437 -11199693.51120728 -11199693.51120728 -6104650.194899451 0 0 0 0 0 96434596.84587651 -10778938.20378177 -10778938.20378177 -6054017.236560307 0 0 0 0 0 97253684.67112987 -10293189.9554007 -10293189.9554007 -6149349.516472678 0 0 0 0 0 96827238.47099426 -10520745.2393804 -10520745.2393804 -6067317.195829125 0 0 0 0 0 97716173.44759662 -10061565.20546588 -10061565.20546588 -6173014.212267767 0 0 0 0 0 98140740.96152721 -9832364.38449931 -9832364.38449931 -6252129.702994036 0 0 0 0 0 98575617.33489242 -9587066.450311903 -9587066.450311903 -6281279.752298963 0 0 0 0 0 99042463.40408207 -9399581.992030365 -9399581.992030365 -6067197.384022541 0 0 0 0 0 99130186.42379411 -9048790.01861213 -9048790.01861213 -6151683.799194834 0 0 0 0 0 99157755.81507264 -9276588.423419727 -9276588.423419727 -6182869.802180972 0 0 0 0 0 99467279.98951901 -8801484.427862355 -8801484.427862355 -6237379.042544721 0 0 0 0 0 99851491.131127 -8608374.183084052 -8608374.183084052 -6021497.578217587 0 0 0 0 0 72798403.56402211 -13981384.82337976 -13981384.82337976 -517781.8604338819 0 0 0 0 0 52880789.12053975 -589666.4220256383 -589666.4220256383 3785292.177116826 0 0 0 0 0 53620280.69353392 -1614368.078924022 -1614368.078924022 3783370.616219604 0 0 0 0 0 54500466.4749193 -2394956.044106961 -2394956.044106961 4060609.548752518 0 0 0 0 0 54879386.61717231 -3661378.779010854 -3661378.779010854 3554478.409567541 0 0 0 0 0 53826640.0243521 -2805481.646841628 -2805481.646841628 3481209.478062283 0 0 0 0 0 56402569.59256402 -4591306.720669378 -4591306.720669378 3849416.025667005 0 0 0 0 0 57106448.13670111 -5648411.871537335 -5648411.871537335 3628892.725114982 0 0 0 0 0 57889000.58377966 -6752245.979432633 -6752245.979432633 3397087.382138224 0 0 0 0 0 58769675.02865014 -7810732.109439836 -7810732.109439836 3135243.126799664 0 0 0 0 0 59727288.053051 -8814738.594384557 -8814738.594384557 2835769.364039158 0 0 0 0 0 60750646.58447784 -9760191.662227882 -9760191.662227882 2504476.04695235 0 0 0 0 0 61165010.80375227 -9686783.672798611 -9686783.672798611 2340014.816956939 0 0 0 0 0 62995103.69563492 -10518419.06688924 -10518419.06688924 2164139.348546879 0 0 0 0 0 64094114.49834315 -11300959.6810495 -11300959.6810495 1788337.112915205 0 0 0 0 0 65234338.90128913 -12022564.26458851 -12022564.26458851 1395549.016239298 0 0 0 0 0 66410175.17897964 -12680937.75713545 -12680937.75713545 990586.5726456458 0 0 0 0 0 67580472.25148381 -13270251.1298854 -13270251.1298854 571083.7790201836 0 0 0 0 0 68761200.79894795 -13782600.34384252 -13782600.34384252 153985.7815257547 0 0 0 0 0 69635679.37907848 -13512101.10792365 -13512101.10792365 246796.3678855653 0 0 0 0 0 70857888.84236482 -13909206.26306645 -13909206.26306645 -179145.8392057693 0 0 0 0 0 72062876.68376891 -14308550.65948162 -14308550.65948162 -587767.0266369996 0 0 0 0 0 73675221.35912713 -13690475.97646415 -13690475.97646415 -373602.9766589111 0 0 0 0 0 74844008.57947385 -13994744.75742386 -13994744.75742386 -734471.9710512854 0 0 0 0 0 76614205.24400219 -13937203.40254791 -13937203.40254791 -1031975.490616062 0 0 0 0 0 75754548.51816675 -14218139.92225482 -14218139.92225482 -1195090.207140807 0 0 0 0 0 77745587.05845411 -14158159.3278113 -14158159.3278113 -1395522.681024788 0 0 0 0 0 78868738.64681004 -14337345.62771919 -14337345.62771919 -1753846.695406188 0 0 0 0 0 79976269.08517219 -14475581.12405366 -14475581.12405366 -2105212.44513394 0 0 0 0 0 81065937.42055295 -14575091.76792632 -14575091.76792632 -2448427.052947815 0 0 0 0 0 82543027.64873828 -14294023.88773233 -14294023.88773233 -2660635.950037011 0 0 0 0 0 81656626.72257328 -14608079.22716388 -14608079.22716388 -2916949.444756664 0 0 0 0 0 83552580.74050726 -14321928.50400227 -14321928.50400227 -2974793.075662664 0 0 0 0 0 84539659.23993592 -14318895.80389323 -14318895.80389323 -3277836.58667438 0 0 0 0 0 85503445.42228454 -14286936.93055358 -14286936.93055358 -3569309.33282937 0 0 0 0 0 86442471.86879745 -14227907.84885673 -14227907.84885673 -3848497.169842196 0 0 0 0 0 87355227.0409518 -14143742.7155276 -14143742.7155276 -4114790.877473675 0 0 0 0 0 87605901.49156606 -14033667.58124836 -14033667.58124836 -4521027.942494195 0 0 0 0 0 89261642.51780672 -13599385.45641538 -13599385.45641538 -4443409.140153762 0 0 0 0 0 88446610.97526535 -13909857.7486226 -13909857.7486226 -4761574.793952854 0 0 0 0 0 90064329.32326093 -13458441.38887324 -13458441.38887324 -4665039.582664918 0 0 0 0 0 90839978.98704298 -13300719.66813189 -13300719.66813189 -4873603.440615178 0 0 0 0 0 91588010.3574194 -13127263.83943408 -13127263.83943408 -5068660.229239474 0 0 0 0 0 92308886.88980414 -12939589.29395969 -12939589.29395969 -5250281.347486622 0 0 0 0 0 93042780.74090664 -12481553.13811525 -12481553.13811525 -5243969.877854574 0 0 0 0 0 92329003.46874858 -12764108.46613369 -12764108.46613369 -5563376.856873459 0 0 0 0 0 93686865.4539361 -12280998.96249342 -12280998.96249342 -5396859.147549389 0 0 0 0 0 94305574.97368534 -12068691.68092218 -12068691.68092218 -5535975.905704178 0 0 0 0 0 94899971.65032311 -11849404.93746708 -11849404.93746708 -5666494.277121157 0 0 0 0 0 95469762.21588318 -11621646.44471998 -11621646.44471998 -5783382.481745781 0 0 0 0 0 96020497.10083432 -11384681.86345961 -11384681.86345961 -5890439.559418107 0 0 0 0 0 96401607.84108824 -10958432.90727851 -10958432.90727851 -6192213.33624204 0 0 0 0 0 96537138.87552314 -11155242.64086586 -11155242.64086586 -5989334.921541745 0 0 0 0 0 96956141.84852818 -10737576.05783685 -10737576.05783685 -5938780.967730332 0 0 0 0 0 97872073.10766698 -10248543.75549976 -10248543.75549976 -6031898.99618517 0 0 0 0 0 97439239.80309238 -10491868.24038253 -10491868.24038253 -5963742.688130593 0 0 0 0 0 98296599.99590647 -10001508.00211254 -10001508.00211254 -6075123.437176225 0 0 0 0 0 98698859.24589244 -9762090.242256558 -9762090.242256558 -6141504.236145204 0 0 0 0 0 99085408.98796023 -9528827.11832097 -9528827.11832097 -6190431.960019902 0 0 0 0 0 98944545.72331487 -9338940.279339246 -9338940.279339246 -6282198.618426477 0 0 0 0 0 99294348.04208928 -9031160.460064529 -9031160.460064529 -6100491.188467891 0 0 0 0 0 99935854.56572947 -8758590.936633326 -8758590.936633326 -6153534.822785871 0 0 0 0 0 99961783.52374034 -8604737.942153538 -8604737.942153538 -6234663.152335906 0 0 0 0 0 100222342.6713087 -8383775.371222629 -8383775.371222629 -6073399.148054665 0 0 0 0 0 72951501.80774982 -14025484.42771983 -14025484.42771983 -450159.7097400851 0 0 0 0 0 52349913.40523385 -522386.3992319269 -522386.3992319269 3738688.130481624 0 0 0 0 0 53239174.97637121 -1607336.959810532 -1607336.959810532 3833731.225045273 0 0 0 0 0 52598509.26771215 -2445198.457339029 -2445198.457339029 3487597.286077469 0 0 0 0 0 55718404.07908573 -4006120.964727984 -4006120.964727984 3974558.305921903 0 0 0 0 0 54935206.05437273 -3371746.139813374 -3371746.139813374 3979703.081748603 0 0 0 0 0 54891859.74085432 -4577570.466878284 -4577570.466878284 3402293.113407699 0 0 0 0 0 55721094.28872221 -5583170.382017672 -5583170.382017672 3238647.894677334 0 0 0 0 0 56673080.23424552 -6713327.145649341 -6713327.145649341 3080239.585296791 0 0 0 0 0 57686163.08592214 -7791929.436866334 -7791929.436866334 2863708.067999063 0 0 0 0 0 58770694.09641434 -8808654.547956457 -8808654.547956457 2603165.514731104 0 0 0 0 0 59921448.99121365 -9764414.426024269 -9764414.426024269 2309282.627592641 0 0 0 0 0 61833437.73139666 -10644451.53863791 -10644451.53863791 2145883.587733295 0 0 0 0 0 62334829.31297157 -10536949.61151112 -10536949.61151112 2018971.634634136 0 0 0 0 0 63550908.60483973 -11325886.57626511 -11325886.57626511 1675386.016900118 0 0 0 0 0 64806179.24492781 -12051754.85946735 -12051754.85946735 1313176.242617392 0 0 0 0 0 66094427.33947606 -12713046.17213136 -12713046.17213136 936078.302511157 0 0 0 0 0 67415336.74766009 -13305783.06274536 -13305783.06274536 557784.462216297 0 0 0 0 0 68757028.79038903 -13819731.70921228 -13819731.70921228 183029.8126320002 0 0 0 0 0 69986284.86325005 -14236053.39414991 -14236053.39414991 -269274.5428359235 0 0 0 0 0 70900705.56440654 -13952287.197321 -13952287.197321 -138879.3166859731 0 0 0 0 0 72154866.01875637 -14353099.8322123 -14353099.8322123 -535823.8585155663 0 0 0 0 0 73936112.56374244 -14294937.31264255 -14294937.31264255 -906554.1105898505 0 0 0 0 0 75075070.24831435 -14564240.70280305 -14564240.70280305 -1294633.229568738 0 0 0 0 0 76866893.38670316 -14450938.73916464 -14450938.73916464 -1580757.381625961 0 0 0 0 0 75988848.17197193 -14262846.32330015 -14262846.32330015 -1108727.651142877 0 0 0 0 0 77973001.78593366 -14640528.61014875 -14640528.61014875 -1961770.107505262 0 0 0 0 0 79068862.7514105 -14788077.56308481 -14788077.56308481 -2334538.189312996 0 0 0 0 0 80150710.9037029 -14894826.68084548 -14894826.68084548 -2696730.300465005 0 0 0 0 0 81218007.27966005 -14963652.09602494 -14963652.09602494 -3047995.5787513 0 0 0 0 0 82665090.69737309 -14640263.69263173 -14640263.69263173 -3245959.851701044 0 0 0 0 0 82136688.73714729 -14637725.8204722 -14637725.8204722 -2782231.425906137 0 0 0 0 0 83653950.69539706 -14640275.07715062 -14640275.07715062 -3562319.292599649 0 0 0 0 0 84622194.25469512 -14610276.03991883 -14610276.03991883 -3865684.496950483 0 0 0 0 0 85567602.29678239 -14552223.59934137 -14552223.59934137 -4155419.608449851 0 0 0 0 0 86488697.29974157 -14468069.51908693 -14468069.51908693 -4430951.367659927 0 0 0 0 0 87384709.09761721 -14359713.22533663 -14359713.22533663 -4691766.993567023 0 0 0 0 0 88241003.96468367 -14036192.51021956 -14036192.51021956 -4367692.219968495 0 0 0 0 0 89262247.90722664 -13766576.55967125 -13766576.55967125 -4987963.944226269 0 0 0 0 0 89099090.46543793 -13907309.70890768 -13907309.70890768 -4607427.410532755 0 0 0 0 0 90052426.09489556 -13605627.61490653 -13605627.61490653 -5200043.623955159 0 0 0 0 0 90816041.31985061 -13428573.91596792 -13428573.91596792 -5397682.066657379 0 0 0 0 0 91553112.35868993 -13236734.86526683 -13236734.86526683 -5580952.107877548 0 0 0 0 0 92264241.48273547 -13032199.29823746 -13032199.29823746 -5750033.650311404 0 0 0 0 0 92991319.10928465 -12557952.89358898 -12557952.89358898 -5715735.173728304 0 0 0 0 0 93001250.70159253 -12739968.08993957 -12739968.08993957 -5419386.149676319 0 0 0 0 0 93626795.95945778 -12341344.01863807 -12341344.01863807 -5855072.460941736 0 0 0 0 0 94239302.42031637 -12116209.64277043 -12116209.64277043 -5982665.026368707 0 0 0 0 0 94827014.5999938 -11883042.37242284 -11883042.37242284 -6097916.89544892 0 0 0 0 0 95389859.68121296 -11642088.29898462 -11642088.29898462 -6202129.540260186 0 0 0 0 0 95940941.9951847 -11401007.46493897 -11401007.46493897 -6293672.437196834 0 0 0 0 0 97027579.32934885 -10913648.45288094 -10913648.45288094 -6073207.019450992 0 0 0 0 0 96448413.11686651 -11153423.57707031 -11153423.57707031 -6373155.24504994 0 0 0 0 0 96870736.09050778 -10719970.11434432 -10719970.11434432 -6267676.470192296 0 0 0 0 0 97343139.96174668 -10469748.6396754 -10469748.6396754 -6314353.375439827 0 0 0 0 0 97776756.75594422 -10221961.7626964 -10221961.7626964 -6364437.569468877 0 0 0 0 0 98198471.40844312 -9970976.48284648 -9970976.48284648 -6407094.873024967 0 0 0 0 0 98603126.57071856 -9724632.28651285 -9724632.28651285 -6449936.381157847 0 0 0 0 0 98977711.59787247 -9471914.384910394 -9471914.384910394 -6480287.066259092 0 0 0 0 0 99441067.36970758 -9286980.036116723 -9286980.036116723 -6238825.931813994 0 0 0 0 0 99589993.41292827 -9049082.373094961 -9049082.373094961 -6318368.669561037 0 0 0 0 0 99639647.40718001 -8853542.772734538 -8853542.772734538 -6297762.270623216 0 0 0 0 0 99866669.13172719 -8636154.43073543 -8636154.43073543 -6282102.986403955 0 0 0 0 0 100249291.057303 -8374079.997708458 -8374079.997708458 -6356217.499493882 0 0 0 0 0 100620250.4404063 -8143595.035908425 -8143595.035908425 -6103037.886587672 0 0 0 0 0 73207069.68690692 -14647751.06432305 -14647751.06432305 -1007549.486836819 0 0 0 0 0 51456054.82509892 -652068.6548978195 -652068.6548978195 3572070.205682439 0 0 0 0 0 52060337.69381319 -1749631.804814233 -1749631.804814233 3652455.047192008 0 0 0 0 0 53419513.85279582 -2939491.771390416 -2939491.771390416 3881243.104928301 0 0 0 0 0 54013916.87711975 -4163110.061720329 -4163110.061720329 3480259.320453592 0 0 0 0 0 52745526.04257534 -3400169.556373646 -3400169.556373646 3323825.743351124 0 0 0 0 0 55897897.95000834 -5437674.162447828 -5437674.162447828 3660893.752715294 0 0 0 0 0 56559205.45486212 -6669351.850404204 -6669351.850404204 3373314.992159833 0 0 0 0 0 57477802.10671633 -7786270.722489171 -7786270.722489171 3110897.809974266 0 0 0 0 0 58455678.68846107 -8842754.26871613 -8842754.26871613 2812127.940971934 0 0 0 0 0 59506746.83231455 -9836372.127936358 -9836372.127936358 2479650.413783809 0 0 0 0 0 60622499.97515602 -10765499.18928136 -10765499.18928136 2117712.479935207 0 0 0 0 0 61130390.10763579 -10657290.09400232 -10657290.09400232 1986676.089983857 0 0 0 0 0 62968930.09902961 -11465867.01925279 -11465867.01925279 1764058.322379877 0 0 0 0 0 64149783.61572324 -12223171.24517885 -12223171.24517885 1362525.426061819 0 0 0 0 0 65366626.75384231 -12915178.29757751 -12915178.29757751 944351.9531285713 0 0 0 0 0 66598754.94196292 -13542268.98783445 -13542268.98783445 512955.3158443093 0 0 0 0 0 67837248.08015738 -14100174.2832534 -14100174.2832534 70039.08790922606 0 0 0 0 0 69093463.67252395 -14588730.63175031 -14588730.63175031 -362188.5636215254 0 0 0 0 0 70100921.38070288 -14281270.0620827 -14281270.0620827 -209367.7634561426 0 0 0 0 0 71237812.43931717 -14639310.26092803 -14639310.26092803 -671259.4386156427 0 0 0 0 0 72496402.25649913 -15005066.3900533 -15005066.3900533 -1093736.92530407 0 0 0 0 0 74163138.16236293 -14341173.78493205 -14341173.78493205 -820501.9960609459 0 0 0 0 0 75366910.65210465 -14607740.04862062 -14607740.04862062 -1196002.004975379 0 0 0 0 0 77154953.32283773 -14493833.7186114 -14493833.7186114 -1482712.723748352 0 0 0 0 0 76240702.31282797 -14799182.65849481 -14799182.65849481 -1678841.930170961 0 0 0 0 0 78319351.27830677 -14680808.23700144 -14680808.23700144 -1851540.399417408 0 0 0 0 0 79470444.64613508 -14824684.5521732 -14824684.5521732 -2213630.0288667 0 0 0 0 0 80602652.85386467 -14927400.59493206 -14927400.59493206 -2566523.314658183 0 0 0 0 0 81714525.75031094 -14991935.77966904 -14991935.77966904 -2910117.445116485 0 0 0 0 0 83184621.55550869 -14665505.62079034 -14665505.62079034 -3104740.778145576 0 0 0 0 0 82263823.46086207 -14996047.35594214 -14996047.35594214 -3386591.780241455 0 0 0 0 0 84209257.18197127 -14660899.64853188 -14660899.64853188 -3415805.386565125 0 0 0 0 0 85208585.15150738 -14625965.96506217 -14625965.96506217 -3715004.891267333 0 0 0 0 0 86181967.81713808 -14562866.55123162 -14562866.55123162 -4001405.775302499 0 0 0 0 0 87128119.60443631 -14473523.28751552 -14473523.28751552 -4274494.034959954 0 0 0 0 0 88045666.78982396 -14359949.74701807 -14359949.74701807 -4533756.044205468 0 0 0 0 0 88254797.10080473 -14229099.5807836 -14229099.5807836 -4937766.673867463 0 0 0 0 0 89929272.94104771 -13758979.47763414 -13758979.47763414 -4833752.914210666 0 0 0 0 0 89098681.47042908 -14078241.5618572 -14078241.5618572 -5168963.100011401 0 0 0 0 0 90730871.40082631 -13593003.64529541 -13593003.64529541 -5046450.754418632 0 0 0 0 0 91503809.17918578 -13410896.95688629 -13410896.95688629 -5245274.828215442 0 0 0 0 0 92247599.90839508 -13214225.70510842 -13214225.70510842 -5430265.452897282 0 0 0 0 0 92962120.50612742 -13004963.76978533 -13004963.76978533 -5601795.231831002 0 0 0 0 0 93665113.44565225 -12529412.74975562 -12529412.74975562 -5574815.889212678 0 0 0 0 0 92947029.43859746 -12815933.37283864 -12815933.37283864 -5904466.015358539 0 0 0 0 0 94301962.73472452 -12308408.91612126 -12308408.91612126 -5716778.892897467 0 0 0 0 0 94913741.79367405 -12079206.22163502 -12079206.22163502 -5846722.882768481 0 0 0 0 0 95499607.48315592 -11842028.27733429 -11842028.27733429 -5965017.045027093 0 0 0 0 0 96061290.99994893 -11597878.96830405 -11597878.96830405 -6071575.901890238 0 0 0 0 0 96594699.11329214 -11352765.30425929 -11352765.30425929 -6170424.636364439 0 0 0 0 0 96931583.4179825 -10897754.28653225 -10897754.28653225 -6443514.822698374 0 0 0 0 0 97101147.33686189 -11102366.3322241 -11102366.3322241 -6252186.202153311 0 0 0 0 0 97503832.89301074 -10662903.8672457 -10662903.8672457 -6155156.30380866 0 0 0 0 0 97959452.47183198 -10415748.76716356 -10415748.76716356 -6203747.118885376 0 0 0 0 0 98391027.81106682 -10163814.72084078 -10163814.72084078 -6257137.715963867 0 0 0 0 0 98800171.09402823 -9912695.423665609 -9912695.423665609 -6302942.345045406 0 0 0 0 0 99184210.87752905 -9664948.751444094 -9664948.751444094 -6351605.07724611 0 0 0 0 0 99547562.5830427 -9416878.041778283 -9416878.041778283 -6381461.142829078 0 0 0 0 0 99341483.70561133 -9228912.186764577 -9228912.186764577 -6482071.989712396 0 0 0 0 0 99788630.52050006 -9025484.762536127 -9025484.762536127 -6258300.381830416 0 0 0 0 0 100133442.8490681 -8821995.33148334 -8821995.33148334 -6283906.229557223 0 0 0 0 0 100378453.9461318 -8596034.929000968 -8596034.929000968 -6298649.701256073 0 0 0 0 0 100672992.198695 -8309306.862767085 -8309306.862767085 -6241714.663445038 0 0 0 0 0 100594924.2756407 -8122485.10614495 -8122485.10614495 -6380548.344973033 0 0 0 0 0 100961926.9324725 -7912316.665926404 -7912316.665926404 -6135736.987785927 0 0 0 0 0 73451650.29857481 -14691956.95849817 -14691956.95849817 -919189.1234741155 0 0 0 0 0 50693035.75400604 -613019.8507983963 -613019.8507983963 3555169.26265463 0 0 0 0 0 51360566.35911447 -1671760.347531856 -1671760.347531856 3607365.178972915 0 0 0 0 0 51503378.77713405 -2947154.849721555 -2947154.849721555 3311661.141548007 0 0 0 0 0 53882471.89662471 -4186561.501793663 -4186561.501793663 3544863.130834172 0 0 0 0 0 53767914.11776108 -4185551.935599931 -4185551.935599931 3757433.437122731 0 0 0 0 0 54353086.33633853 -5450972.474882453 -5450972.474882453 3231193.333727937 0 0 0 0 0 55285472.67472525 -6635091.782858262 -6635091.782858262 3045746.721620724 0 0 0 0 0 56321965.21344474 -7759594.713737619 -7759594.713737619 2816655.75985286 0 0 0 0 0 57437508.61937246 -8828979.195996063 -8828979.195996063 2559542.63666157 0 0 0 0 0 58623617.32036354 -9833460.583179362 -9833460.583179362 2266745.382142686 0 0 0 0 0 59872842.12508312 -10771892.21364179 -10771892.21364179 1943005.779846201 0 0 0 0 0 61794944.46446789 -11628602.62577835 -11628602.62577835 1730524.25016071 0 0 0 0 0 62389423.10295639 -11485965.25944781 -11485965.25944781 1639269.985893808 0 0 0 0 0 63690858.80031846 -12249384.0964523 -12249384.0964523 1270705.875932229 0 0 0 0 0 65026722.78773914 -12947209.9073634 -12947209.9073634 885009.9999805092 0 0 0 0 0 66389840.23699785 -13579205.73424288 -13579205.73424288 487664.3818710184 0 0 0 0 0 67787512.54713657 -14141196.47607512 -14141196.47607512 87958.57656619596 0 0 0 0 0 69148789.83667943 -14634109.46625318 -14634109.46625318 -317172.9328367024 0 0 0 0 0 70357660.49777082 -15006152.69168513 -15006152.69168513 -789510.8264115632 0 0 0 0 0 71380404.21547861 -14687328.2672068 -14687328.2672068 -603745.4381692425 0 0 0 0 0 72669742.22978789 -15046566.77622393 -15046566.77622393 -1024357.584591519 0 0 0 0 0 74402113.16462509 -14927994.57891733 -14927994.57891733 -1402223.176016948 0 0 0 0 0 75585560.8059563 -15164141.01793761 -15164141.01793761 -1793465.021933057 0 0 0 0 0 77388567.74853668 -14996137.6728288 -14996137.6728288 -2069043.201213378 0 0 0 0 0 76546161.53971715 -14839009.79515787 -14839009.79515787 -1578569.012213884 0 0 0 0 0 78528730.39632377 -15149317.39651489 -15149317.39651489 -2452091.517555809 0 0 0 0 0 79653164.17101644 -15259699.57206962 -15259699.57206962 -2824803.911629312 0 0 0 0 0 80761332.43159302 -15330127.54956059 -15330127.54956059 -3185927.76196524 0 0 0 0 0 81848508.60763659 -15362830.11483331 -15362830.11483331 -3534285.970241306 0 0 0 0 0 83289784.36680256 -14994665.62475422 -14994665.62475422 -3711966.265362452 0 0 0 0 0 82803771.59522605 -15019747.21418587 -15019747.21418587 -3241548.80119646 0 0 0 0 0 84293752.40644661 -14961770.2218551 -14961770.2218551 -4023425.387005697 0 0 0 0 0 85274029.15984464 -14899601.72700123 -14899601.72700123 -4320660.69794128 0 0 0 0 0 86229234.9707249 -14810195.06244804 -14810195.06244804 -4603150.872565132 0 0 0 0 0 87157889.45673206 -14695540.23986749 -14695540.23986749 -4870309.060658334 0 0 0 0 0 88059110.92350602 -14557766.94326016 -14557766.94326016 -5121937.580824835 0 0 0 0 0 88934026.40967819 -14224078.62880892 -14224078.62880892 -4778908.7728165 0 0 0 0 0 89915422.69649313 -13908914.61752951 -13908914.61752951 -5385265.481377498 0 0 0 0 0 89792765.69386868 -14067953.12060015 -14067953.12060015 -5010040.264385695 0 0 0 0 0 90704876.9267474 -13722919.45713289 -13722919.45713289 -5586612.540457292 0 0 0 0 0 91466291.19333667 -13521634.38220521 -13521634.38220521 -5772833.902367966 0 0 0 0 0 92200083.62721269 -13307237.15828027 -13307237.15828027 -5944309.403639307 0 0 0 0 0 92904934.41737491 -13080761.75789807 -13080761.75789807 -6101002.303488229 0 0 0 0 0 93603175.56160687 -12589710.16893443 -12589710.16893443 -6045103.855493266 0 0 0 0 0 93647119.57792336 -12784336.69423618 -12784336.69423618 -5759408.847656508 0 0 0 0 0 94232808.20470953 -12354518.6396496 -12354518.6396496 -6173361.071237804 0 0 0 0 0 94837329.75365365 -12111386.03861182 -12111386.03861182 -6289012.932581668 0 0 0 0 0 95417069.64884837 -11861463.83470375 -11861463.83470375 -6392476.429824149 0 0 0 0 0 95974842.58021541 -11607505.1625439 -11607505.1625439 -6483790.917974798 0 0 0 0 0 96503510.23129226 -11349948.78267471 -11349948.78267471 -6562224.514801972 0 0 0 0 0 97586121.87498955 -10844117.13581853 -10844117.13581853 -6323589.129545926 0 0 0 0 0 97003519.75778872 -11086538.26359526 -11086538.26359526 -6629776.558711891 0 0 0 0 0 97412571.89552264 -10645634.96692448 -10645634.96692448 -6500381.50486602 0 0 0 0 0 97860368.39216466 -10387632.38125256 -10387632.38125256 -6547856.559127455 0 0 0 0 0 98290176.76949787 -10129111.26827883 -10129111.26827883 -6587395.954197143 0 0 0 0 0 98696996.99216838 -9870656.852418602 -9870656.852418602 -6619369.516771676 0 0 0 0 0 99081045.27148445 -9614726.907848593 -9614726.907848593 -6641196.375354899 0 0 0 0 0 99442118.33227186 -9358032.133534022 -9358032.133534022 -6652796.534991859 0 0 0 0 0 99901375.62418449 -9159356.088252001 -9159356.088252001 -6382008.660210694 0 0 0 0 0 99712890.82312006 -8985575.891237903 -8985575.891237903 -6520442.577679041 0 0 0 0 0 100026442.4521516 -8727655.478651455 -8727655.478651455 -6492715.454967964 0 0 0 0 0 100278402.7627082 -8488608.084864113 -8488608.084864113 -6465189.881141337 0 0 0 0 0 100587307.4382548 -8260714.351950779 -8260714.351950779 -6500350.010148739 0 0 0 0 0 100989777.1972261 -8072442.008437065 -8072442.008437065 -6273014.320975422 0 0 0 0 0 100950112.0842477 -7894282.376946322 -7894282.376946322 -6389929.152938351 0 0 0 0 0 73700905.9065886 -15311203.64430325 -15311203.64430325 -1516104.115953319 0 0 0 0 0 49912653.72580136 -653546.8958591557 -653546.8958591557 3530678.634337701 0 0 0 0 0 50753670.80146103 -1844284.057525806 -1844284.057525806 3486898.94209459 0 0 0 0 0 51972123.13283347 -2662446.594233526 -2662446.594233526 3863013.636760678 0 0 0 0 0 52475744.81565472 -3854459.933624524 -3854459.933624524 3713408.274583799 0 0 0 0 0 54339889.20693278 -5380668.770713646 -5380668.770713646 3543757.879021411 0 0 0 0 0 52040762.45060472 -4105680.782002899 -4105680.782002899 3267644.826816994 0 0 0 0 0 55252058.96273118 -6565413.971041514 -6565413.971041514 3349965.016247059 0 0 0 0 0 56126155.2497241 -7746326.850870386 -7746326.850870386 3079652.578580873 0 0 0 0 0 57128833.74189772 -8858931.205866624 -8858931.205866624 2777553.742159262 0 0 0 0 0 58209404.75455482 -9903643.612601327 -9903643.612601327 2443421.664404348 0 0 0 0 0 59359377.33643511 -10880524.51229052 -10880524.51229052 2078446.526478638 0 0 0 0 0 60570299.60255215 -11788158.24984358 -11788158.24984358 1686497.150624098 0 0 0 0 0 61176454.98179018 -11642888.57465633 -11642888.57465633 1592570.512563553 0 0 0 0 0 63016707.48513961 -12424693.15992905 -12424693.15992905 1322247.924007331 0 0 0 0 0 64278225.32179359 -13153312.2391168 -13153312.2391168 896500.8437291046 0 0 0 0 0 65572914.19372173 -13814281.85918036 -13814281.85918036 457192.0502634731 0 0 0 0 0 66886682.04235447 -14407785.82577481 -14407785.82577481 7228.04470863285 0 0 0 0 0 68197158.07349847 -14933643.18697544 -14933643.18697544 -436368.1663327745 0 0 0 0 0 69553352.48471728 -15379097.65498605 -15379097.65498605 -887702.7830587605 0 0 0 0 0 70545851.49909881 -15039942.85319064 -15039942.85319064 -722392.710088701 0 0 0 0 0 71698190.77095895 -15364975.13246377 -15364975.13246377 -1198731.207425934 0 0 0 0 0 72995384.65546264 -15690099.53457389 -15690099.53457389 -1629592.680161243 0 0 0 0 0 74695589.63165231 -14969345.07983572 -14969345.07983572 -1304884.470504915 0 0 0 0 0 75944455.13696766 -15203168.69527148 -15203168.69527148 -1682502.223266277 0 0 0 0 0 77748397.80432001 -15034208.07970056 -15034208.07970056 -1957070.767995723 0 0 0 0 0 76785843.38530257 -15362251.65095937 -15362251.65095937 -2182832.92698537 0 0 0 0 0 78944796.51864877 -15184069.17488377 -15184069.17488377 -2328994.455679275 0 0 0 0 0 80122543.04961638 -15290418.43025141 -15290418.43025141 -2691780.615795388 0 0 0 0 0 81278035.69916864 -15356582.51323728 -15356582.51323728 -3044491.18549807 0 0 0 0 0 82409417.51392546 -15384562.74170508 -15384562.74170508 -3385483.828769234 0 0 0 0 0 83867625.95059322 -15013550.44961559 -15013550.44961559 -3561290.024994881 0 0 0 0 0 82913836.82092343 -15360069.03131147 -15360069.03131147 -3868869.744410896 0 0 0 0 0 84905036.64059792 -14975516.89831569 -14975516.89831569 -3868226.101192857 0 0 0 0 0 85914740.34541453 -14908049.76725157 -14908049.76725157 -4161908.450076504 0 0 0 0 0 86895637.81149207 -14813292.86482962 -14813292.86482962 -4441833.212969336 0 0 0 0 0 87846414.8346636 -14693249.15272431 -14693249.15272431 -4707379.983423674 0 0 0 0 0 88766363.14977936 -14550048.31841547 -14550048.31841547 -4958221.029850046 0 0 0 0 0 88932479.26125953 -14398846.6496887 -14398846.6496887 -5357991.159652272 0 0 0 0 0 90621882.96722257 -13893385.72392094 -13893385.72392094 -5226921.456591469 0 0 0 0 0 89777440.52530485 -14220751.27841408 -14220751.27841408 -5578526.758864252 0 0 0 0 0 91420505.22721389 -13702258.54188377 -13702258.54188377 -5429549.450900502 0 0 0 0 0 92188416.28669581 -13496020.659512 -13496020.659512 -5617623.615147705 0 0 0 0 0 92925995.85356104 -13276654.96765949 -13276654.96765949 -5791518.772638962 0 0 0 0 0 93632564.41993482 -13045765.79765309 -13045765.79765309 -5951519.004511981 0 0 0 0 0 94302566.23058894 -12553864.46050705 -12553864.46050705 -5903335.987953884 0 0 0 0 0 93581275.75091822 -12844072.8914146 -12844072.8914146 -6242897.437198268 0 0 0 0 0 94931306.92681524 -12314185.94234315 -12314185.94234315 -6033828.454373109 0 0 0 0 0 95533729.45938645 -12067071.13778732 -12067071.13778732 -6152649.689617868 0 0 0 0 0 96109423.14976621 -11813411.7659434 -11813411.7659434 -6259546.400905202 0 0 0 0 0 96657670.47172567 -11555922.09614462 -11555922.09614462 -6355656.09880204 0 0 0 0 0 97179007.71549593 -11294309.8168988 -11294309.8168988 -6438885.10431252 0 0 0 0 0 97485386.01404533 -10819792.45181924 -10819792.45181924 -6687388.31054928 0 0 0 0 0 97675540.88216676 -11027896.11890077 -11027896.11890077 -6509140.241504484 0 0 0 0 0 98050537.80163573 -10584490.39408713 -10584490.39408713 -6389454.573306285 0 0 0 0 0 98491625.12226489 -10325991.15498762 -10325991.15498762 -6438851.796346148 0 0 0 0 0 98908923.87715039 -10066273.69142528 -10066273.69142528 -6482221.185439607 0 0 0 0 0 99302495.65913907 -9807271.859601833 -9807271.859601833 -6517722.202075573 0 0 0 0 0 99674513.99649385 -9547366.762106735 -9547366.762106735 -6545100.634875692 0 0 0 0 0 100028678.4357211 -9286620.048730111 -9286620.048730111 -6561066.409491047 0 0 0 0 0 99791964.32396528 -9099339.738622338 -9099339.738622338 -6666158.510180932 0 0 0 0 0 100224594.8863785 -8921898.890288997 -8921898.890288997 -6438868.428768541 0 0 0 0 0 100531819.9714395 -8672811.444195239 -8672811.444195239 -6424441.8405982 0 0 0 0 0 100809784.475566 -8425933.10214846 -8425933.10214846 -6392676.982056208 0 0 0 0 0 101095196.1640065 -8189947.635993689 -8189947.635993689 -6393269.123277742 0 0 0 0 0 100910982.8365793 -8022935.851338918 -8022935.851338918 -6495696.503182342 0 0 0 0 0 101308068.7674199 -7681865.738627912 -7681865.738627912 -6153649.116408295 0 0 0 0 0 101243140.052674 -7843578.469655563 -7843578.469655563 -6289125.13178348 0 0 0 0 0 74011556.32215729 -15349564.19547231 -15349564.19547231 -1416892.147490685 0 0 0 0 0 49417133.93078446 -603970.2638048033 -603970.2638048033 3500599.151872226 0 0 0 0 0 50713901.75116957 -1888632.245322367 -1888632.245322367 3627352.844632602 0 0 0 0 0 49804043.22766263 -2634206.511836747 -2634206.511836747 3229983.895772226 0 0 0 0 0 50484200.75442991 -3770476.36269327 -3770476.36269327 3134082.768368591 0 0 0 0 0 52915067.67311127 -5313869.467516405 -5313869.467516405 3164746.266524198 0 0 0 0 0 53048015.15433142 -5199620.577327035 -5199620.577327035 3502006.527687429 0 0 0 0 0 53846230.44709273 -6527147.684693566 -6527147.684693566 2979512.830128525 0 0 0 0 0 54901141.62682516 -7718663.953815637 -7718663.953815637 2766247.65573538 0 0 0 0 0 56046521.35972276 -8838522.735303123 -8838522.735303123 2505225.361058622 0 0 0 0 0 57269069.44028442 -9893530.248370262 -9893530.248370262 2211990.467702808 0 0 0 0 0 58559384.41892127 -10879919.48657684 -10879919.48657684 1886949.956203273 0 0 0 0 0 59908780.48841663 -11795792.73994601 -11795792.73994601 1533698.11318984 0 0 0 0 0 61834293.06725132 -12625400.51748502 -12625400.51748502 1271900.880125161 0 0 0 0 0 62525383.70974782 -12445679.32626564 -12445679.32626564 1219112.22776125 0 0 0 0 0 63911975.74823099 -13179724.06497354 -13179724.06497354 827035.4097098 0 0 0 0 0 65327743.78857156 -13845102.12257867 -13845102.12257867 419754.0918050308 0 0 0 0 0 66763527.60453718 -14442601.97210538 -14442601.97210538 1506.226651073103 0 0 0 0 0 68192997.38955982 -14962117.93196069 -14962117.93196069 -418153.3295729154 0 0 0 0 0 69641410.52865948 -15411330.07411495 -15411330.07411495 -843038.533086993 0 0 0 0 0 70879515.93472594 -15739835.20433485 -15739835.20433485 -1301393.388164388 0 0 0 0 0 71880980.65043019 -15395166.94854277 -15395166.94854277 -1134492.048906561 0 0 0 0 0 73253145.01488143 -15721872.97354578 -15721872.97354578 -1546095.576353143 0 0 0 0 0 74927612.71192819 -15551946.90031966 -15551946.90031966 -1919180.028477337 0 0 0 0 0 76148462.07727498 -15746694.90641178 -15746694.90641178 -2317073.341538213 0 0 0 0 0 77968292.36950378 -15521068.76141514 -15521068.76141514 -2576292.388581304 0 0 0 0 0 77162425.96533766 -15397682.32161142 -15397682.32161142 -2068382.444788005 0 0 0 0 0 79137179.06767188 -15635609.27915249 -15635609.27915249 -2960053.779061392 0 0 0 0 0 80287771.31544198 -15708070.82160799 -15708070.82160799 -3331592.816049454 0 0 0 0 0 81417522.17448191 -15741131.43391728 -15741131.43391728 -3689822.051102969 0 0 0 0 0 82524753.98597272 -15737039.59244689 -15737039.59244689 -4033780.873346181 0 0 0 0 0 83955792.30421151 -15324235.8858769 -15324235.8858769 -4188807.316864714 0 0 0 0 0 83514923.79580912 -15376890.13285892 -15376890.13285892 -3713994.511519495 0 0 0 0 0 84972505.65406068 -15257709.01961 -15257709.01961 -4493806.175510667 0 0 0 0 0 85962938.1647584 -15162756.6088161 -15162756.6088161 -4783432.401708025 0 0 0 0 0 86925614.53280672 -15041470.81812905 -15041470.81812905 -5057035.306498409 0 0 0 0 0 87859414.79716952 -14896095.82401818 -14896095.82401818 -5314382.336506221 0 0 0 0 0 88763612.97291365 -14728709.38388096 -14728709.38388096 -5555320.748814422 0 0 0 0 0 89654929.73267254 -14385715.65875002 -14385715.65875002 -5194222.545718422 0 0 0 0 0 90593594.14792436 -14025271.13048548 -14025271.13048548 -5783458.335628469 0 0 0 0 0 90512035.29702257 -14202252.69066165 -14202252.69066165 -5415371.761954634 0 0 0 0 0 91380150.67846254 -13814199.59497822 -13814199.59497822 -5972756.597325259 0 0 0 0 0 92137551.17192194 -13589256.8823904 -13589256.8823904 -6146629.10908497 0 0 0 0 0 92865252.20145747 -13352115.38062092 -13352115.38062092 -6305203.700600822 0 0 0 0 0 93562587.87321074 -13104279.34972314 -13104279.34972314 -6448176.035848902 0 0 0 0 0 94228712.09876123 -12598226.7321 -12598226.7321 -6371301.758436882 0 0 0 0 0 94307784.43196197 -12804645.80277833 -12804645.80277833 -6096882.282244924 0 0 0 0 0 94851101.56735308 -12344776.86198144 -12344776.86198144 -6487209.236902625 0 0 0 0 0 95447310.94346635 -12084395.85442409 -12084395.85442409 -6590072.315789002 0 0 0 0 0 96018117.01898383 -11819080.89361181 -11819080.89361181 -6680383.262807513 0 0 0 0 0 96561670.16858092 -11549763.4700825 -11549763.4700825 -6758171.621185734 0 0 0 0 0 97078242.5756382 -11276575.02062579 -11276575.02062579 -6824107.732270067 0 0 0 0 0 98148786.56039728 -10758409.66056289 -10758409.66056289 -6570551.723550694 0 0 0 0 0 97570633.14636308 -11000051.84908152 -11000051.84908152 -6879266.457071995 0 0 0 0 0 97949662.82006159 -10554058.8042866 -10554058.8042866 -6733810.277584774 0 0 0 0 0 98387243.16162857 -10286923.61824447 -10286923.61824447 -6770389.651874908 0 0 0 0 0 98802592.1484918 -10019742.2507499 -10019742.2507499 -6797852.450311682 0 0 0 0 0 99193663.19228654 -9752277.395592337 -9752277.395592337 -6816616.640925418 0 0 0 0 0 99564412.54986909 -9485444.639092317 -9485444.639092317 -6826854.567501029 0 0 0 0 0 99919318.26655518 -9221331.542952942 -9221331.542952942 -6828445.222267501 0 0 0 0 0 100358667.5942483 -9032199.878608841 -9032199.878608841 -6573939.282343908 0 0 0 0 0 100117475.7862258 -8847067.437156122 -8847067.437156122 -6658741.623706004 0 0 0 0 0 100430249.2376046 -8600349.942540221 -8600349.942540221 -6631405.302978417 0 0 0 0 0 100706431.6420491 -8357381.992540871 -8357381.992540871 -6613962.833161706 0 0 0 0 0 100981878.9968099 -8114408.244441872 -8114408.244441872 -6603238.923375952 0 0 0 0 0 101362518.8350659 -7957311.558850507 -7957311.558850507 -6395876.643145015 0 0 0 0 0 101251928.408456 -7657711.233454538 -7657711.233454538 -6412199.19393484 0 0 0 0 0 101433713.7349204 -7813262.483863396 -7813262.483863396 -6470068.328553252 0 0 0 0 0 101604511.1442161 -7461058.7004809 -7461058.7004809 -6173406.672044583 0 0 0 0 0 74238259.43677489 -15948915.78887043 -15948915.78887043 -2061660.801933006 0 0 0 0 0 48383190.76505286 -741318.0178091133 -741318.0178091133 3293051.723675882 0 0 0 0 0 49126734.56294741 -2005023.819321573 -2005023.819321573 3299971.294490101 0 0 0 0 0 50889856.74538447 -3541998.569810623 -3541998.569810623 3565520.87781765 0 0 0 0 0 51467035.8274321 -5013579.273688129 -5013579.273688129 3392431.080199355 0 0 0 0 0 53762425.06055605 -6473026.323102807 -6473026.323102807 3284919.198483401 0 0 0 0 0 51384895.40722261 -5123717.787022993 -5123717.787022993 3055739.951599482 0 0 0 0 0 54724997.72400296 -7700523.236067699 -7700523.236067699 3028280.178893202 0 0 0 0 0 55744564.50533836 -8865141.61696835 -8865141.61696835 2728816.82264099 0 0 0 0 0 56855298.73424704 -9962333.118108571 -9962333.118108571 2393582.248228538 0 0 0 0 0 58040724.19758625 -10989069.99073216 -10989069.99073216 2026091.919846973 0 0 0 0 0 59291977.56126312 -11943516.95603652 -11943516.95603652 1629969.684155134 0 0 0 0 0 60600138.99653975 -12824255.47574251 -12824255.47574251 1209458.970019886 0 0 0 0 0 61307806.27309982 -12639977.17729686 -12639977.17729686 1156065.944376618 0 0 0 0 0 63142823.98044185 -13391732.24334297 -13391732.24334297 838747.9793954182 0 0 0 0 0 64487730.64183293 -14087146.45920408 -14087146.45920408 391482.285517187 0 0 0 0 0 65862150.84374591 -14712235.20639638 -14712235.20639638 -65468.44874834966 0 0 0 0 0 67258256.14019042 -15267582.92342913 -15267582.92342913 -522035.7360684731 0 0 0 0 0 68637065.67237948 -15747427.32660505 -15747427.32660505 -983024.7235350558 0 0 0 0 0 69979971.77798699 -16137639.21358821 -16137639.21358821 -1439568.154171639 0 0 0 0 0 71048926.1632088 -15775429.34410985 -15775429.34410985 -1236298.732004129 0 0 0 0 0 72221605.33028913 -16069355.93780947 -16069355.93780947 -1748267.579960384 0 0 0 0 0 73566285.62858929 -16351331.1358811 -16351331.1358811 -2192752.854165179 0 0 0 0 0 75311763.52670068 -15590452.15983395 -15590452.15983395 -1804260.115044195 0 0 0 0 0 76591036.91955362 -15779949.70959399 -15779949.70959399 -2191674.266416654 0 0 0 0 0 78399457.85768284 -15553964.37115813 -15553964.37115813 -2450888.72377602 0 0 0 0 0 77385962.00524522 -15904525.20151282 -15904525.20151282 -2709639.443206127 0 0 0 0 0 79624696.6623116 -15664505.9124044 -15664505.9124044 -2823933.88710751 0 0 0 0 0 80826260.93057647 -15732479.99309427 -15732479.99309427 -3186339.7755962 0 0 0 0 0 82002591.50013638 -15760620.10512628 -15760620.10512628 -3536775.33225719 0 0 0 0 0 83151132.25369047 -15751424.1005998 -15751424.1005998 -3874398.421776667 0 0 0 0 0 84592269.74803771 -15335831.91315882 -15335831.91315882 -4029045.244028211 0 0 0 0 0 83606544.62276678 -15698127.7966373 -15698127.7966373 -4362498.239192551 0 0 0 0 0 85640242.65954138 -15263840.11897826 -15263840.11897826 -4330215.046457286 0 0 0 0 0 86657593.11744674 -15163300.76402747 -15163300.76402747 -4617089.688920764 0 0 0 0 0 87643221.53181702 -15036391.43247454 -15036391.43247454 -4889029.891286477 0 0 0 0 0 88596250.69004917 -14885380.52641594 -14885380.52641594 -5145599.456840679 0 0 0 0 0 89516133.90673853 -14712415.82069812 -14712415.82069812 -5386591.862173978 0 0 0 0 0 89637829.72617894 -14541275.7942238 -14541275.7942238 -5779913.073394165 0 0 0 0 0 91337516.72201744 -14001426.8968803 -14001426.8968803 -5621596.018084077 0 0 0 0 0 90481740.75365244 -14335907.5160842 -14335907.5160842 -5988321.05032903 0 0 0 0 0 92131153.1747475 -13785246.45910358 -13785246.45910358 -5813032.990197328 0 0 0 0 0 92891904.93456648 -13555295.96948896 -13555295.96948896 -5989410.218642174 0 0 0 0 0 93620358.53753902 -13313438.6000797 -13313438.6000797 -6151118.786844521 0 0 0 0 0 94316572.37299936 -13061204.18300733 -13061204.18300733 -6298133.208321285 0 0 0 0 0 94954179.73077236 -12554347.43847069 -12554347.43847069 -6228293.361348405 0 0 0 0 0 94229734.36886559 -12847381.83887307 -12847381.83887307 -6577049.726413217 0 0 0 0 0 95572991.32182197 -12296603.54693868 -12296603.54693868 -6347403.710619712 0 0 0 0 0 96163991.99677192 -12032381.25833569 -12032381.25833569 -6454081.084827489 0 0 0 0 0 96726814.49575125 -11763401.94232005 -11763401.94232005 -6548789.916022813 0 0 0 0 0 97262056.80083229 -11490448.5068948 -11490448.5068948 -6631211.907801888 0 0 0 0 0 97771031.63787821 -11213723.37725869 -11213723.37725869 -6701232.374793396 0 0 0 0 0 98041746.9528778 -10722518.85275051 -10722518.85275051 -6924067.539680029 0 0 0 0 0 98254827.17506509 -10934395.52255937 -10934395.52255937 -6760413.090548659 0 0 0 0 0 98598901.72921489 -10488650.90190959 -10488650.90190959 -6623082.167062806 0 0 0 0 0 99025161.00837982 -10219538.95994796 -10219538.95994796 -6663690.753079365 0 0 0 0 0 99427741.46102175 -9950427.258798877 -9950427.258798877 -6695512.203372324 0 0 0 0 0 99807766.16077425 -9681189.073420266 -9681189.073420266 -6718119.860603765 0 0 0 0 0 100166719.3480492 -9412219.999704381 -9412219.999704381 -6732630.520541643 0 0 0 0 0 100503178.5639584 -9146353.570888041 -9146353.570888041 -6739672.729894524 0 0 0 0 0 100245722.0759427 -8956411.833597673 -8956411.833597673 -6821347.065221572 0 0 0 0 0 100669665.6242761 -8774236.970617311 -8774236.970617311 -6579455.99273299 0 0 0 0 0 100950492.0981887 -8532244.417073354 -8532244.417073354 -6571781.870527052 0 0 0 0 0 101225137.007777 -8289625.34086993 -8289625.34086993 -6544519.019143263 0 0 0 0 0 101490389.1902657 -8045717.446860211 -8045717.446860211 -6528937.572273747 0 0 0 0 0 101261126.8968902 -7883489.692054741 -7883489.692054741 -6579028.023819104 0 0 0 0 0 101695372.4047898 -7558817.046787741 -7558817.046787741 -6307367.898248633 0 0 0 0 0 101429515.049685 -7671566.014967906 -7671566.014967906 -6478567.327090291 0 0 0 0 0 101548902.8461671 -7429678.176888118 -7429678.176888118 -6431083.628870256 0 0 0 0 0 101865907.5508282 -7234282.031649872 -7234282.031649872 -6191014.638427699 0 0 0 0 0 102645455.2920987 -6535444.179259961 -6535444.179259961 -6173468.885741141 0 0 0 0 0 102419139.7864539 -6762245.878859491 -6762245.878859491 -6180784.850452751 0 0 0 0 0 102141949.6945727 -7002393.604558154 -7002393.604558154 -6191981.53701432 0 0 0 0 0 74652245.6963817 -15983015.51489316 -15983015.51489316 -1943601.660157183 0 0 0 0 0 47624299.27616642 -656185.6130954002 -656185.6130954002 3187629.973737164 0 0 0 0 0 48608302.62305292 -1967684.003529577 -1967684.003529577 3313376.868402232 0 0 0 0 0 48987574.67847925 -3486866.312360127 -3486866.312360127 3020773.999925606 0 0 0 0 0 49808109.05836874 -4934808.153560948 -4934808.153560948 2942580.95149116 0 0 0 0 0 52350651.7745834 -6429714.852210836 -6429714.852210836 2918207.681316497 0 0 0 0 0 52327991.95290041 -6363181.335091197 -6363181.335091197 3200732.200025255 0 0 0 0 0 53422422.25729847 -7661402.327845656 -7661402.327845656 2689282.114643278 0 0 0 0 0 54596179.47128439 -8837589.274501879 -8837589.274501879 2435608.478320729 0 0 0 0 0 55854775.42440908 -9944339.835518105 -9944339.835518105 2142460.308284517 0 0 0 0 0 57187750.05960654 -10980603.77144213 -10980603.77144213 1816626.227481102 0 0 0 0 0 58584390.66620348 -11943703.86292652 -11943703.86292652 1461073.161321994 0 0 0 0 0 60034679.65955272 -12831854.48412851 -12831854.48412851 1079534.485430493 0 0 0 0 0 61956678.28844067 -13630508.94411966 -13630508.94411966 768817.7166202426 0 0 0 0 0 62747577.96582256 -13411891.86578146 -13411891.86578146 758072.4715488281 0 0 0 0 0 64219301.14151127 -14111389.52020275 -14111389.52020275 343875.9493885832 0 0 0 0 0 65714679.20769839 -14738844.67991627 -14738844.67991627 -82586.93942142703 0 0 0 0 0 67213697.99288528 -15291649.8386605 -15291649.8386605 -517143.3591179817 0 0 0 0 0 68718839.07142007 -15771274.01050245 -15771274.01050245 -947162.5936138838 0 0 0 0 0 70259094.35453252 -16162847.22319144 -16162847.22319144 -1361764.176291153 0 0 0 0 0 71409660.57990126 -16460622.51048109 -16460622.51048109 -1880281.688559575 0 0 0 0 0 72488142.22661172 -16098026.58623901 -16098026.58623901 -1665204.508043672 0 0 0 0 0 73919978.24202693 -16380109.46249439 -16380109.46249439 -2088291.576313977 0 0 0 0 0 75517788.93968727 -16148663.106116 -16148663.106116 -2465490.185580725 0 0 0 0 0 76773832.67006515 -16304683.72638209 -16304683.72638209 -2862949.208167021 0 0 0 0 0 78600393.26866107 -16023234.38570093 -16023234.38570093 -3103268.087542491 0 0 0 0 0 77841445.47884792 -15933685.28784734 -15933685.28784734 -2580420.997143486 0 0 0 0 0 79796680.35776374 -16098073.96254624 -16098073.96254624 -3485632.622695351 0 0 0 0 0 80971244.67657261 -16131404.27277768 -16131404.27277768 -3854034.35840745 0 0 0 0 0 82121728.1180722 -16125747.85028049 -16125747.85028049 -4207533.810416603 0 0 0 0 0 83245831.6549255 -16083694.813721 -16083694.813721 -4545136.138338155 0 0 0 0 0 84661904.80245148 -15627026.86760187 -15627026.86760187 -4675479.354094514 0 0 0 0 0 84270284.14924522 -15707203.37952297 -15707203.37952297 -4197925.01979677 0 0 0 0 0 85689454.45587847 -15526207.21418015 -15526207.21418015 -4972254.570888378 0 0 0 0 0 86687847.02790628 -15397857.24492539 -15397857.24492539 -5252411.806155049 0 0 0 0 0 87655737.97103433 -15244334.60568634 -15244334.60568634 -5515471.871498165 0 0 0 0 0 88592224.30542035 -15068065.42022739 -15068065.42022739 -5761518.399903612 0 0 0 0 0 89496889.79978135 -14870835.37452758 -14870835.37452758 -5990159.892504194 0 0 0 0 0 90402350.34166051 -14519458.51840915 -14519458.51840915 -5611934.183711591 0 0 0 0 0 91295232.72817795 -14114386.2543233 -14114386.2543233 -6180660.907951394 0 0 0 0 0 91255316.1150005 -14308637.87346024 -14308637.87346024 -5821767.293611223 0 0 0 0 0 92077077.19173476 -13878470.97407935 -13878470.97407935 -6356700.885035962 0 0 0 0 0 92827898.79065952 -13630183.42793942 -13630183.42793942 -6516805.699485328 0 0 0 0 0 93547451.58296737 -13370866.78468257 -13370866.78468257 -6660984.462471046 0 0 0 0 0 94235358.22853069 -13102175.78250288 -13102175.78250288 -6790098.851830735 0 0 0 0 0 94869638.8656518 -12582865.67171814 -12582865.67171814 -6692640.957494092 0 0 0 0 0 94982026.68573253 -12799690.93793801 -12799690.93793801 -6430427.849420734 0 0 0 0 0 95482435.06084436 -12311447.60521936 -12311447.60521936 -6794908.092351611 0 0 0 0 0 96068059.2082198 -12034649.72307398 -12034649.72307398 -6884079.712846408 0 0 0 0 0 96626128.84756568 -11753741.14392935 -11753741.14392935 -6960585.068843391 0 0 0 0 0 97156971.02381468 -11469408.93338443 -11469408.93338443 -7024901.65960133 0 0 0 0 0 97662224.51870212 -11182448.77715343 -11182448.77715343 -7077790.917508572 0 0 0 0 0 98713943.03388496 -10654079.29978322 -10654079.29978322 -6809947.657703143 0 0 0 0 0 98143163.86361487 -10894066.89957672 -10894066.89957672 -7119810.333949803 0 0 0 0 0 98490596.46909551 -10445454.60987717 -10445454.60987717 -6958325.526296346 0 0 0 0 0 98914650.10027188 -10168401.61329663 -10168401.61329663 -6982627.959098822 0 0 0 0 0 99315210.07205962 -9891430.704942964 -9891430.704942964 -6997569.542729772 0 0 0 0 0 99693518.2917203 -9614950.235835548 -9614950.235835548 -7003975.365059012 0 0 0 0 0 100052348.4640824 -9340741.373838346 -9340741.373838346 -7001868.632049832 0 0 0 0 0 100388554.2863808 -9069035.755872998 -9069035.755872998 -6990125.269655129 0 0 0 0 0 100818894.4977617 -8881804.867514921 -8881804.867514921 -6737516.789804832 0 0 0 0 0 100565614.5043508 -8702024.523914112 -8702024.523914112 -6798536.116789767 0 0 0 0 0 100844871.5669213 -8448034.673911029 -8448034.673911029 -6767722.970162459 0 0 0 0 0 101111790.9773163 -8200293.938776722 -8200293.938776722 -6746620.741682788 0 0 0 0 0 101378462.1857578 -7956580.253717233 -7956580.253717233 -6716609.299884716 0 0 0 0 0 101709389.4692245 -7824937.05437664 -7824937.05437664 -6537801.907848394 0 0 0 0 0 101613239.4302921 -7516104.038880642 -7516104.038880642 -6548425.341583889 0 0 0 0 0 101807041.8348894 -7621621.506623365 -7621621.506623365 -6534211.151560886 0 0 0 0 0 101918357.6713549 -7329838.826801605 -7329838.826801605 -6315601.282532752 0 0 0 0 0 101818892.3135785 -7200712.734434377 -7200712.734434377 -6433266.74713642 0 0 0 0 0 102344155.5999828 -6713811.236842245 -6713811.236842245 -6401423.657679748 0 0 0 0 0 102580245.6596109 -6489157.49833765 -6489157.49833765 -6381807.747037254 0 0 0 0 0 102085920.2909875 -6963374.315667011 -6963374.315667011 -6443708.5257613 0 0 0 0 0 102883858.8792795 -6305994.077233386 -6305994.077233386 -6151589.259699629 0 0 0 0 0 74864909.97746937 -16572096.62485849 -16572096.62485849 -2621730.972463586 0 0 0 0 0 46728302.99767057 -769884.3654368003 -769884.3654368003 3041245.739327839 0 0 0 0 0 47765473.33831082 -2086143.434122844 -2086143.434122844 3219022.574088866 0 0 0 0 0 48977093.15805482 -3406989.702618834 -3406989.702618834 3325016.214634242 0 0 0 0 0 49963684.74144108 -4805383.081711221 -4805383.081711221 3274540.8656441 0 0 0 0 0 50789838.53086016 -6209585.609820587 -6209585.609820587 3091287.407081882 0 0 0 0 0 53249281.88400271 -7641977.901300408 -7641977.901300408 2953003.508909281 0 0 0 0 0 50782562.26932642 -6291436.734487648 -6291436.734487648 2782782.349134163 0 0 0 0 0 54303796.91716872 -8861521.158718189 -8861521.158718189 2659503.187802725 0 0 0 0 0 55443560.68435761 -10011862.50223287 -10011862.50223287 2326531.363710974 0 0 0 0 0 56664793.19595631 -11090378.33154177 -11090378.33154177 1958139.993732876 0 0 0 0 0 57956943.0666393 -12094018.63214899 -12094018.63214899 1558871.28808226 0 0 0 0 0 59311001.05743928 -13020585.80074078 -13020585.80074078 1133299.587502388 0 0 0 0 0 60717702.69528818 -13868963.61527295 -13868963.61527295 685929.0377527769 0 0 0 0 0 61529378.90552852 -13644136.49813206 -13644136.49813206 675990.841714346 0 0 0 0 0 63352977.41777448 -14362059.76811588 -14362059.76811588 312291.3329431798 0 0 0 0 0 64780835.37549815 -15019099.98924357 -15019099.98924357 -155444.0847950278 0 0 0 0 0 66231890.67427184 -15601383.24287025 -15601383.24287025 -629703.1030917641 0 0 0 0 0 67674974.72536765 -16108434.49628156 -16108434.49628156 -1111031.125541253 0 0 0 0 0 69110372.33886543 -16541999.96520212 -16541999.96520212 -1588505.86261636 0 0 0 0 0 70510300.67576696 -16897722.84640426 -16897722.84640426 -2046151.660369545 0 0 0 0 0 71717445.5707486 -16494183.36669862 -16494183.36669862 -1784914.471402566 0 0 0 0 0 72810145.98916993 -16752414.52507508 -16752414.52507508 -2330520.086566753 0 0 0 0 0 74208923.81423113 -16990483.39224044 -16990483.39224044 -2774403.285738715 0 0 0 0 0 75975502.93297717 -16179356.7412206 -16179356.7412206 -2338998.092333748 0 0 0 0 0 77296063.57292803 -16332433.13134928 -16332433.13134928 -2722816.577590398 0 0 0 0 0 79108868.66384549 -16049890.41618391 -16049890.41618391 -2963669.970043971 0 0 0 0 0 78043421.57650848 -16422665.64772737 -16422665.64772737 -3256362.090160988 0 0 0 0 0 80358165.56129995 -16119990.1378814 -16119990.1378814 -3336538.94178996 0 0 0 0 0 81581728.4228256 -16148371.65845895 -16148371.65845895 -3696644.990634579 0 0 0 0 0 82775810.32069162 -16137384.98400143 -16137384.98400143 -4043366.96493002 0 0 0 0 0 83938619.46393174 -16089792.5832903 -16089792.5832903 -4375545.944588836 0 0 0 0 0 85358210.41232303 -15630481.12399735 -15630481.12399735 -4506899.785810974 0 0 0 0 0 84341920.43715803 -16007838.57681714 -16007838.57681714 -4866170.165293655 0 0 0 0 0 86413724.24490146 -15523825.58131899 -15523825.58131899 -4800830.89222822 0 0 0 0 0 87435858.19166246 -15389716.64072409 -15389716.64072409 -5079200.980435242 0 0 0 0 0 88423331.35274194 -15230346.49589739 -15230346.49589739 -5341508.235498668 0 0 0 0 0 89376519.76519336 -15048265.80512177 -15048265.80512177 -5587569.456352595 0 0 0 0 0 90293438.69243667 -14845373.02198258 -14845373.02198258 -5817141.658835465 0 0 0 0 0 90369666.29164065 -14655035.78818391 -14655035.78818391 -6201889.359102365 0 0 0 0 0 92074749.36557546 -14081841.45237808 -14081841.45237808 -6016184.720820359 0 0 0 0 0 91210132.73934582 -14422626.166239 -14422626.166239 -6396920.5614386 0 0 0 0 0 92860780.14270629 -13840754.17997983 -13840754.17997983 -6194980.843939371 0 0 0 0 0 93612482.57014653 -13587573.05697082 -13587573.05697082 -6358455.844596747 0 0 0 0 0 94329703.6247607 -13323761.62646759 -13323761.62646759 -6506697.650805679 0 0 0 0 0 95014965.52169864 -13050645.38476902 -13050645.38476902 -6639735.586714589 0 0 0 0 0 95618228.17874919 -12530708.55929377 -12530708.55929377 -6549449.659930409 0 0 0 0 0 94893598.71807782 -12825840.0852583 -12825840.0852583 -6905588.667701242 0 0 0 0 0 96224898.92657593 -12255252.00134438 -12255252.00134438 -6655620.999318189 0 0 0 0 0 96802593.6140774 -11974713.04830434 -11974713.04830434 -6749207.659271023 0 0 0 0 0 97351720.06252138 -11690185.40065039 -11690185.40065039 -6830337.769461564 0 0 0 0 0 97873362.05633393 -11402396.79064959 -11402396.79064959 -6899219.892879543 0 0 0 0 0 98368118.80954078 -11112379.89497339 -11112379.89497339 -6956659.630899218 0 0 0 0 0 98600357.82032393 -10605679.20454377 -10605679.20454377 -7151372.621391144 0 0 0 0 0 98837009.13837525 -10821297.64902055 -10821297.64902055 -7003427.200871636 0 0 0 0 0 99148846.88279814 -10373991.90404632 -10373991.90404632 -6849535.593323341 0 0 0 0 0 99559672.89909808 -10094645.02858349 -10094645.02858349 -6878528.532398649 0 0 0 0 0 99947275.76581734 -9815659.987522939 -9815659.987522939 -6897934.240397303 0 0 0 0 0 100313078.237676 -9537372.317583589 -9537372.317583589 -6908557.88012502 0 0 0 0 0 100657343.3396054 -9261432.772634581 -9261432.772634581 -6911687.642892016 0 0 0 0 0 100977742.5355931 -8990231.279096112 -8990231.279096112 -6907800.583792862 0 0 0 0 0 100707439.7622866 -8803678.323718302 -8803678.323718302 -6968853.92066183 0 0 0 0 0 101104504.3601697 -8630996.852980275 -8630996.852980275 -6736592.730964635 0 0 0 0 0 101376944.9179908 -8378206.430771617 -8378206.430771617 -6714152.083550357 0 0 0 0 0 101639643.66935 -8126949.279315364 -8126949.279315364 -6686187.884808503 0 0 0 0 0 101874698.3842305 -7877132.47514699 -7877132.47514699 -6652118.215563143 0 0 0 0 0 101622489.5125375 -7696237.937862473 -7696237.937862473 -6652721.654465786 0 0 0 0 0 101924644.5881702 -7440043.260060054 -7440043.260060054 -6430615.468680198 0 0 0 0 0 101888608.5269857 -7312626.812882903 -7312626.812882903 -6568160.048521903 0 0 0 0 0 102240877.1349526 -7100366.76073491 -7100366.76073491 -6307002.922003895 0 0 0 0 0 102746590.0416653 -6642034.745161957 -6642034.745161957 -6291806.612783012 0 0 0 0 0 102963846.9164829 -6413960.778858094 -6413960.778858094 -6262214.379352694 0 0 0 0 0 102513469.426656 -6863023.752754133 -6863023.752754133 -6314868.117323468 0 0 0 0 0 102818310.9179826 -6262138.62042137 -6262138.62042137 -6321213.75367064 0 0 0 0 0 103111112.3208788 -6091463.614692588 -6091463.614692588 -6122566.379034325 0 0 0 0 0 103295637.8810277 -5861248.78434827 -5861248.78434827 -6096324.855033254 0 0 0 0 0 75350403.67172085 -16598602.59133398 -16598602.59133398 -2491486.103498387 0 0 0 0 0 46085235.88810973 -724913.4880014702 -724913.4880014702 3009661.497619039 0 0 0 0 0 46947296.01593957 -1999448.260372188 -1999448.260372188 3120524.57062566 0 0 0 0 0 47421741.91821557 -3308719.403095035 -3308719.403095035 2953743.515348703 0 0 0 0 0 48170066.20731676 -4712703.865201843 -4712703.865201843 2788596.342779746 0 0 0 0 0 49157250.95857745 -6133813.789006536 -6133813.789006536 2649730.538807731 0 0 0 0 0 51881080.69450562 -7592510.879825479 -7592510.879825479 2592549.19941175 0 0 0 0 0 51744351.75753567 -7563248.245523957 -7563248.245523957 2853555.892834478 0 0 0 0 0 53084395.43907975 -8822165.170385737 -8822165.170385737 2341765.294560269 0 0 0 0 0 54379863.24860856 -9984143.618627431 -9984143.618627431 2053709.273638825 0 0 0 0 0 55755487.99527323 -11072868.12761444 -11072868.12761444 1729059.255289351 0 0 0 0 0 57200747.55937976 -12085588.25517786 -12085588.25517786 1372508.55647524 0 0 0 0 0 58704637.55269224 -13019995.00476636 -13019995.00476636 988057.7384866574 0 0 0 0 0 60256540.54026419 -13874981.55690487 -13874981.55690487 579828.6766148591 0 0 0 0 0 62167701.3997021 -14638950.30006716 -14638950.30006716 220998.4718724779 0 0 0 0 0 63059679.18196907 -14380318.12993779 -14380318.12993779 254638.5206793142 0 0 0 0 0 64615811.18473262 -15040451.31751074 -15040451.31751074 -180343.558254362 0 0 0 0 0 66190458.770617 -15623460.20383077 -15623460.20383077 -624553.2066593597 0 0 0 0 0 67761403.16586216 -16133075.65245745 -16133075.65245745 -1073720.839776726 0 0 0 0 0 69330945.77231815 -16570493.39107349 -16570493.39107349 -1516553.467307934 0 0 0 0 0 70923547.77562198 -16920766.59818048 -16920766.59818048 -1936724.249670663 0 0 0 0 0 71985922.79821657 -17192746.49060412 -17192746.49060412 -2513450.483288185 0 0 0 0 0 73206178.48129681 -16782979.44626571 -16782979.44626571 -2215275.534950261 0 0 0 0 0 74658889.14523518 -17015922.82249412 -17015922.82249412 -2648973.320929379 0 0 0 0 0 76169223.33547363 -16729250.40894101 -16729250.40894101 -3029162.318354584 0 0 0 0 0 77459356.22027047 -16840792.63910421 -16840792.63910421 -3429846.199383609 0 0 0 0 0 79287690.02706726 -16500451.69926811 -16500451.69926811 -3648397.951769248 0 0 0 0 0 78581939.84110889 -16445768.87934585 -16445768.87934585 -3111216.467263106 0 0 0 0 0 80509199.42317066 -16534079.69285953 -16534079.69285953 -4027194.115060066 0 0 0 0 0 81705503.68873166 -16526763.0063419 -16526763.0063419 -4390419.384500917 0 0 0 0 0 82873903.11096266 -16481239.61594815 -16481239.61594815 -4736992.701704546 0 0 0 0 0 84012664.0089597 -16400416.62914954 -16400416.62914954 -5066331.159422326 0 0 0 0 0 85408596.78964421 -15900825.14002481 -15900825.14002481 -5170248.294019953 0 0 0 0 0 85068616.87223375 -16008177.86872379 -16008177.86872379 -4692438.937732536 0 0 0 0 0 86444355.44611733 -15765063.33031243 -15765063.33031243 -5456749.935712021 0 0 0 0 0 87447924.52458589 -15602845.98116541 -15602845.98116541 -5725609.902689259 0 0 0 0 0 88418374.16622718 -15417200.34262539 -15417200.34262539 -5976878.987990533 0 0 0 0 0 89355165.09250425 -15209593.97388925 -15209593.97388925 -6209660.294050425 0 0 0 0 0 90257675.58408225 -14982842.0154408 -14982842.0154408 -6424744.246356701 0 0 0 0 0 91174906.37091337 -14623993.70056122 -14623993.70056122 -6030413.217832516 0 0 0 0 0 92018270.05763008 -14175367.67768743 -14175367.67768743 -6575197.557085978 0 0 0 0 0 92021158.39029217 -14386117.43791102 -14386117.43791102 -6227593.246870577 0 0 0 0 0 92793579.70008036 -13915047.60609051 -13915047.60609051 -6736690.75911785 0 0 0 0 0 93535410.28371499 -13643666.37406132 -13643666.37406132 -6881927.498916774 0 0 0 0 0 94244214.72405642 -13362870.20650479 -13362870.20650479 -7011432.778632184 0 0 0 0 0 94921830.95860285 -13073955.84752662 -13073955.84752662 -7126270.455566173 0 0 0 0 0 95523178.78412274 -12542657.14058238 -12542657.14058238 -7006988.737530238 0 0 0 0 0 95669150.94646296 -12769545.62978104 -12769545.62978104 -6758673.433894594 0 0 0 0 0 96124294.49336027 -12254133.92473187 -12254133.92473187 -7094988.530385866 0 0 0 0 0 96697126.03885084 -11961355.79708114 -11961355.79708114 -7169912.433178402 0 0 0 0 0 97241973.10102068 -11665390.81689993 -11665390.81689993 -7232348.473835867 0 0 0 0 0 97759937.800675 -11367045.14136569 -11367045.14136569 -7282705.013966461 0 0 0 0 0 98251798.75197628 -11067551.4717008 -11067551.4717008 -7321803.616634378 0 0 0 0 0 99280639.96051377 -10530234.9586891 -10530234.9586891 -7040038.651609798 0 0 0 0 0 98718500.09983554 -10767906.31423572 -10767906.31423572 -7350175.910865032 0 0 0 0 0 99033808.07295622 -10318070.83640873 -10318070.83640873 -7172729.105050643 0 0 0 0 0 99442990.24361657 -10031185.47890567 -10031185.47890567 -7184201.167170677 0 0 0 0 0 99829229.59913386 -9745352.741135962 -9745352.741135962 -7186795.813736773 0 0 0 0 0 100194389.2106862 -9461437.134735085 -9461437.134735085 -7181166.61289207 0 0 0 0 0 100539030.1278583 -9180303.781909566 -9180303.781909566 -7165974.85354952 0 0 0 0 0 100861029.0805212 -8903804.382016471 -8903804.382016471 -7141936.528954759 0 0 0 0 0 101272290.8952042 -8726724.512662893 -8726724.512662893 -6898269.385008259 0 0 0 0 0 100992678.1536557 -8537726.689443778 -8537726.689443778 -6934151.175071104 0 0 0 0 0 101265616.7842458 -8287492.742167448 -8287492.742167448 -6912097.402231063 0 0 0 0 0 101528691.3225801 -8029595.662537613 -8029595.662537613 -6868280.766310842 0 0 0 0 0 101754709.2503118 -7772096.554170856 -7772096.554170856 -6837362.233368556 0 0 0 0 0 102115320.5498836 -7617029.706985724 -7617029.706985724 -6628278.359176256 0 0 0 0 0 101970827.6047709 -7426281.041245974 -7426281.041245974 -6683685.639982617 0 0 0 0 0 102302236.1546693 -7221172.614383819 -7221172.614383819 -6436293.977799307 0 0 0 0 0 102183838.9872804 -7061452.044187775 -7061452.044187775 -6556589.124160159 0 0 0 0 0 102637948.3064676 -6571940.826699085 -6571940.826699085 -6481985.258558894 0 0 0 0 0 102428340.8856709 -6811004.734163887 -6811004.734163887 -6507283.61265735 0 0 0 0 0 102835657.3494758 -6333280.000235981 -6333280.000235981 -6447966.480016927 0 0 0 0 0 103160583.0592033 -6183057.644883625 -6183057.644883625 -6227080.474602605 0 0 0 0 0 103023249.3315125 -6032053.396773167 -6032053.396773167 -6328733.146555205 0 0 0 0 0 103218751.519108 -5809933.146713899 -5809933.146713899 -6284160.134412606 0 0 0 0 0 103499227.142052 -5636678.695931576 -5636678.695931576 -6054778.862678631 0 0 0 0 0 75535951.75229059 -17163422.56234209 -17163422.56234209 -3212566.297416245 0 0 0 0 0 45051505.85723179 -847193.0136577896 -847193.0136577896 2857234.664060615 0 0 0 0 0 45596627.47587254 -2236025.259421342 -2236025.259421342 2830692.41328481 0 0 0 0 0 47374632.02909343 -3254196.160780804 -3254196.160780804 3184646.328697889 0 0 0 0 0 48251814.5027753 -4615611.274096105 -4615611.274096105 3081005.16049323 0 0 0 0 0 49185005.11752172 -6051701.213131391 -6051701.213131391 2936858.595639024 0 0 0 0 0 50158471.20439898 -7462852.01742049 -7462852.01742049 2718783.948278138 0 0 0 0 0 52804578.25895117 -8842063.714504588 -8842063.714504588 2567499.679107112 0 0 0 0 0 50276785.30028516 -7497185.972356279 -7497185.972356279 2458045.659014765 0 0 0 0 0 53972920.2162819 -10050317.60779794 -10050317.60779794 2238290.465891164 0 0 0 0 0 55228844.76906087 -11183482.72472713 -11183482.72472713 1871015.909419819 0 0 0 0 0 56563143.44474623 -12238711.81034754 -12238711.81034754 1470376.115916266 0 0 0 0 0 57964250.26134585 -13213623.31560773 -13213623.31560773 1040984.788556985 0 0 0 0 0 59422313.7060555 -14106637.21190727 -14106637.21190727 587740.4227541441 0 0 0 0 0 60927825.44293646 -14917298.40999733 -14917298.40999733 115370.2472395949 0 0 0 0 0 61846977.52633119 -14650268.06079674 -14650268.06079674 152029.6821126702 0 0 0 0 0 63651878.54172852 -15330579.46335187 -15330579.46335187 -257185.8139856835 0 0 0 0 0 65162584.60678977 -15944053.95541627 -15944053.95541627 -744739.1516830303 0 0 0 0 0 66680215.77055463 -16483033.38104926 -16483033.38104926 -1233453.748800972 0 0 0 0 0 68182894.01927708 -16945733.57751122 -16945733.57751122 -1728911.563089952 0 0 0 0 0 69690918.87276413 -17330982.31439329 -17330982.31439329 -2218550.19899698 0 0 0 0 0 71197314.8293286 -17639916.66375597 -17639916.66375597 -2696077.519219277 0 0 0 0 0 72507846.53936394 -17217476.14592263 -17217476.14592263 -2379808.123963016 0 0 0 0 0 73467812.02149799 -17420221.81632074 -17420221.81632074 -2945050.362454621 0 0 0 0 0 74916764.56292039 -17609906.69169635 -17609906.69169635 -3392494.940441336 0 0 0 0 0 76721853.61015211 -16756067.77471352 -16756067.77471352 -2885764.935192709 0 0 0 0 0 78067719.20017284 -16861035.64979186 -16861035.64979186 -3276605.948052684 0 0 0 0 0 79875125.08983244 -16519539.61049138 -16519539.61049138 -3494823.342484589 0 0 0 0 0 78760808.83809973 -16915356.67994281 -16915356.67994281 -3822497.756717892 0 0 0 0 0 81146531.71139976 -16548114.95681113 -16548114.95681113 -3865388.11705202 0 0 0 0 0 82388242.27613264 -16535263.18164389 -16535263.18164389 -4221535.395167356 0 0 0 0 0 83596891.28955461 -16484024.17781796 -16484024.17781796 -4562406.012642213 0 0 0 0 0 84770922.56479096 -16397249.37430913 -16397249.37430913 -4887355.227612671 0 0 0 0 0 86164142.21237151 -15895217.3039229 -15895217.3039229 -4993549.66037441 0 0 0 0 0 85120189.21838492 -16286887.24224849 -16286887.24224849 -5377705.705692383 0 0 0 0 0 87223823.78594297 -15753485.60038873 -15753485.60038873 -5278334.482804975 0 0 0 0 0 88247513.01763006 -15585278.42131697 -15585278.42131697 -5546406.000986917 0 0 0 0 0 89235699.84230646 -15393572.50612113 -15393572.50612113 -5797516.51562285 0 0 0 0 0 90184961.06858052 -15180187.97859483 -15180187.97859483 -6031399.393938677 0 0 0 0 0 91096819.24663442 -14947652.12517723 -14947652.12517723 -6248158.357259715 0 0 0 0 0 91126361.18424745 -14738893.98772551 -14738893.98772551 -6622196.575406755 0 0 0 0 0 92832155.03260487 -14133649.21160113 -14133649.21160113 -6408662.749407453 0 0 0 0 0 91960775.25600627 -14479684.45411489 -14479684.45411489 -6802348.019357161 0 0 0 0 0 93607936.95151664 -13868293.54749116 -13868293.54749116 -6573821.653850522 0 0 0 0 0 94348123.31108736 -13592162.85828787 -13592162.85828787 -6723439.631196077 0 0 0 0 0 95053869.32141827 -13306797.64191549 -13306797.64191549 -6857007.006644437 0 0 0 0 0 95726618.05646452 -13013098.54733648 -13013098.54733648 -6975419.089271984 0 0 0 0 0 96292398.66934828 -12482169.648541 -12482169.648541 -6864255.846168209 0 0 0 0 0 95569411.19427936 -12778420.93554241 -12778420.93554241 -7226787.797073752 0 0 0 0 0 96885449.7322401 -12189728.87430158 -12189728.87430158 -6956791.596092487 0 0 0 0 0 97448736.03355382 -11893255.12316571 -11893255.12316571 -7036477.104945689 0 0 0 0 0 97983164.16981328 -11593820.55721567 -11593820.55721567 -7103699.733265134 0 0 0 0 0 98489275.2022624 -11292390.39980513 -11292390.39980513 -7159005.71911033 0 0 0 0 0 98968320.93070711 -10990117.374684 -10990117.374684 -7203180.17807901 0 0 0 0 0 99160600.13093467 -10469109.55868123 -10469109.55868123 -7368179.757391313 0 0 0 0 0 99421037.77825205 -10687882.88877874 -10687882.88877874 -7236660.519785753 0 0 0 0 0 99699625.40519987 -10240065.8385437 -10240065.8385437 -7066611.275819944 0 0 0 0 0 100094132.9668967 -9951198.122289337 -9951198.122289337 -7083201.834644456 0 0 0 0 0 100465598.6494251 -9663565.798109576 -9663565.798109576 -7090225.5355801 0 0 0 0 0 100816620.6811899 -9377942.055566898 -9377942.055566898 -7089139.629567371 0 0 0 0 0 101144806.9863211 -9096535.20694511 -9096535.20694511 -7081990.884134132 0 0 0 0 0 101448219.2546173 -8820725.906925488 -8820725.906925488 -7068672.082130779 0 0 0 0 0 101155341.0939726 -8630373.658531936 -8630373.658531936 -7110807.633547662 0 0 0 0 0 101547615.1831639 -8465064.160111645 -8465064.160111645 -6882091.296289661 0 0 0 0 0 101809227.9758116 -8202731.496338774 -8202731.496338774 -6847474.087241109 0 0 0 0 0 102047982.1718603 -7949021.908193343 -7949021.908193343 -6808521.044616042 0 0 0 0 0 102281115.1606433 -7692496.175522805 -7692496.175522805 -6765138.220099286 0 0 0 0 0 102004033.2813589 -7526389.394136442 -7526389.394136442 -6794295.36229947 0 0 0 0 0 102353480.0870015 -7347174.555789624 -7347174.555789624 -6563374.274017665 0 0 0 0 0 102240853.2565969 -7179283.911707641 -7179283.911707641 -6641912.807432862 0 0 0 0 0 102554127.3825328 -6975486.610586203 -6975486.610586203 -6420563.791969754 0 0 0 0 0 103074413.1052094 -6472258.795135823 -6472258.795135823 -6392357.606841065 0 0 0 0 0 102862340.8520339 -6705951.60742735 -6705951.60742735 -6461629.385216461 0 0 0 0 0 103239370.2905332 -6269868.081152201 -6269868.081152201 -6365736.500560152 0 0 0 0 0 103132108.6644379 -6140213.159324355 -6140213.159324355 -6389701.340944749 0 0 0 0 0 103361682.4996522 -5944306.227268002 -5944306.227268002 -6214972.493051193 0 0 0 0 0 103613944.2003257 -5717689.880475398 -5717689.880475398 -6163382.791739356 0 0 0 0 0 103419309.8973743 -5584903.149565987 -5584903.149565987 -6228637.999893784 0 0 0 0 0 76124692.93322341 -17186255.70968752 -17186255.70968752 -3064222.122246858 0 0 0 0 0 43869947.18643405 -750194.7621061063 -750194.7621061063 2618081.083548915 0 0 0 0 0 46369917.31272507 -2557672.09352094 -2557672.09352094 3183560.054231272 0 0 0 0 0 45419462.05840094 -3059916.868575213 -3059916.868575213 2639159.366921745 0 0 0 0 0 46450346.14510378 -4471442.715106207 -4471442.715106207 2570766.981880878 0 0 0 0 0 47462624.07515333 -5946086.577008962 -5946086.577008962 2454648.882470667 0 0 0 0 0 48605877.91878062 -7378309.120816622 -7378309.120816622 2290595.798263725 0 0 0 0 0 51508700.24037129 -8791037.753908211 -8791037.753908211 2223252.729543404 0 0 0 0 0 51247741.0158902 -8806375.331336768 -8806375.331336768 2446284.206154551 0 0 0 0 0 52840280.25652649 -10010863.08332739 -10010863.08332739 1940981.686132476 0 0 0 0 0 54259737.73920371 -11155044.6806953 -11155044.6806953 1620263.801842777 0 0 0 0 0 55754730.20215917 -12220051.36624748 -12220051.36624748 1264578.91212883 0 0 0 0 0 57314101.58892319 -13203471.38823683 -13203471.38823683 878785.0278621361 0 0 0 0 0 58926151.90678558 -14103729.64813102 -14103729.64813102 467245.9181153496 0 0 0 0 0 60579783.03325199 -14920347.05016798 -14920347.05016798 34275.68587290998 0 0 0 0 0 62471212.95056888 -15645811.26417221 -15645811.26417221 -371980.7247413421 0 0 0 0 0 63467281.768879 -15345725.02400189 -15345725.02400189 -290966.2486328453 0 0 0 0 0 65108023.29380111 -15962175.588685 -15962175.588685 -745406.6520356135 0 0 0 0 0 66751325.29202297 -16501099.58716779 -16501099.58716779 -1204290.408082544 0 0 0 0 0 68412384.54297166 -16964073.21241163 -16964073.21241163 -1661922.210369901 0 0 0 0 0 70057651.282965 -17353158.19292712 -17353158.19292712 -2116341.594047936 0 0 0 0 0 71670081.58469561 -17668536.06696086 -17668536.06696086 -2566750.162525068 0 0 0 0 0 72693361.04262051 -17875415.9741937 -17875415.9741937 -3146774.899803864 0 0 0 0 0 73984038.57330449 -17442735.14626725 -17442735.14626725 -2808493.658612656 0 0 0 0 0 75463690.49717809 -17624299.06829555 -17624299.06829555 -3250267.250071154 0 0 0 0 0 76887557.4059131 -17277632.09542066 -17277632.09542066 -3619758.643732222 0 0 0 0 0 78212147.40527931 -17347325.77365476 -17347325.77365476 -4014560.651740308 0 0 0 0 0 80030603.46339893 -16949385.999931 -16949385.999931 -4210559.850817677 0 0 0 0 0 79378042.68725076 -16928867.51516114 -16928867.51516114 -3664708.994253736 0 0 0 0 0 81274995.29977135 -16940452.47189196 -16940452.47189196 -4583204.108014715 0 0 0 0 0 82490037.59646718 -16891215.5897546 -16891215.5897546 -4938690.744292812 0 0 0 0 0 83673530.27725799 -16805131.39863389 -16805131.39863389 -5276410.431766113 0 0 0 0 0 84823895.8505411 -16684711.62785591 -16684711.62785591 -5595299.993623452 0 0 0 0 0 86194828.0661049 -16143278.72218545 -16143278.72218545 -5670835.105963381 0 0 0 0 0 85908555.93354514 -16277606.58165169 -16277606.58165169 -5195628.222774935 0 0 0 0 0 87235616.61540914 -15972301.77792397 -15972301.77792397 -5945283.691604457 0 0 0 0 0 88241996.90027437 -15776060.43334737 -15776060.43334737 -6201396.033401204 0 0 0 0 0 89212243.09832135 -15557853.77978905 -15557853.77978905 -6438721.221799374 0 0 0 0 0 90146485.12035388 -15319524.64701169 -15319524.64701169 -6657204.714043624 0 0 0 0 0 91044477.38374673 -15063214.72430571 -15063214.72430571 -6856981.568629278 0 0 0 0 0 91970786.42704201 -14698024.6179258 -14698024.6179258 -6447906.262918867 0 0 0 0 0 92761121.40218087 -14206949.35402885 -14206949.35402885 -6965341.876118271 0 0 0 0 0 92808120.70717245 -14433476.88028561 -14433476.88028561 -6631069.045283047 0 0 0 0 0 93527377.3137195 -13922968.50644502 -13922968.50644502 -7111410.236120628 0 0 0 0 0 94258299.53067534 -13629125.45808211 -13629125.45808211 -7240960.594468893 0 0 0 0 0 94955741.22096248 -13327162.97761589 -13327162.97761589 -7354979.617205514 0 0 0 0 0 95621938.98152108 -13018682.06411914 -13018682.06411914 -7454637.347896199 0 0 0 0 0 96186991.27598935 -12477606.46079304 -12477606.46079304 -7313418.842331368 0 0 0 0 0 96367269.53905252 -12713162.85269848 -12713162.85269848 -7080439.355270155 0 0 0 0 0 96775028.04904707 -12172471.81481183 -12172471.81481183 -7386442.104777236 0 0 0 0 0 97334012.92150205 -11864276.95740297 -11864276.95740297 -7446573.190522285 0 0 0 0 0 97864765.83758235 -11553951.78903257 -11553951.78903257 -7494128.574118444 0 0 0 0 0 98368049.11362623 -11242807.45491899 -11242807.45491899 -7530157.492586922 0 0 0 0 0 98844844.06477752 -10931600.25135942 -10931600.25135942 -7554985.275988403 0 0 0 0 0 99848058.82239413 -10386612.93562753 -10386612.93562753 -7259931.420727577 0 0 0 0 0 99295906.34086752 -10621287.29167558 -10621287.29167558 -7569285.819956124 0 0 0 0 0 99578407.86637229 -10171690.01970656 -10171690.01970656 -7376130.340738742 0 0 0 0 0 99971934.53088826 -9876047.549571496 -9876047.549571496 -7374644.262531792 0 0 0 0 0 100342767.1135463 -9582995.846166199 -9582995.846166199 -7365510.174757686 0 0 0 0 0 100693547.9080389 -9292307.526398676 -9292307.526398676 -7347693.661912708 0 0 0 0 0 101022695.7992811 -9005580.183749432 -9005580.183749432 -7321642.092627157 0 0 0 0 0 101327892.2975912 -8722285.174475934 -8722285.174475934 -7285607.048697192 0 0 0 0 0 101729138.7441826 -8548325.254127607 -8548325.254127607 -7045664.632401293 0 0 0 0 0 101436277.7389176 -8367306.04948387 -8367306.04948387 -7078742.448071746 0 0 0 0 0 101702522.1279862 -8100247.186602531 -8100247.186602531 -7020471.075055384 0 0 0 0 0 101935619.4953836 -7844025.06732525 -7844025.06732525 -6976308.141446546 0 0 0 0 0 102166634.3552774 -7588003.309100229 -7588003.309100229 -6927412.339822368 0 0 0 0 0 102526942.8796714 -7428756.928961904 -7428756.928961904 -6701645.292311325 0 0 0 0 0 102264832.6830689 -7292512.113522074 -7292512.113522074 -6785278.19103273 0 0 0 0 0 102588584.9839893 -7093320.253987067 -7093320.253987067 -6520853.536731219 0 0 0 0 0 102631569.6890357 -6954203.932637821 -6954203.932637821 -6680555.176167645 0 0 0 0 0 102800262.1825806 -6586108.488767348 -6586108.488767348 -6562128.512384434 0 0 0 0 0 102973996.9315207 -6369731.014222917 -6369731.014222917 -6511134.736945206 0 0 0 0 0 102712751.7471611 -6777636.86367141 -6777636.86367141 -6583088.575177052 0 0 0 0 0 103171629.3422281 -6142097.231506133 -6142097.231506133 -6387230.274799545 0 0 0 0 0 103306787.5903387 -5898103.045840555 -5898103.045840555 -6399488.166911652 0 0 0 0 0 103498489.4167624 -5645305.598897924 -5645305.598897924 -6336763.771414245 0 0 0 0 0 103702927.7461288 -5416501.616423544 -5416501.616423544 -6004064.297930285 0 0 0 0 0 103791004.8195187 -5490962.640469026 -5490962.640469026 -6120416.442333402 0 0 0 0 0 76295644.48896399 -17738669.18703305 -17738669.18703305 -3821179.07274105 0 0 0 0 0 43302543.07465549 -814580.5001645989 -814580.5001645989 2634001.021869915 0 0 0 0 0 44544248.82058202 -2316366.298580925 -2316366.298580925 2787291.858614977 0 0 0 0 0 43985418.71518451 -2586389.144447558 -2586389.144447558 2468742.370613751 0 0 0 0 0 46635334.86777192 -4339224.191115275 -4339224.191115275 2893451.919269556 0 0 0 0 0 47483184.04618378 -5864698.673724927 -5864698.673724927 2747925.255474541 0 0 0 0 0 48512874.24525078 -7336989.150796333 -7336989.150796333 2551000.628965924 0 0 0 0 0 49623079.41776714 -8747985.155454595 -8747985.155454595 2293693.732555712 0 0 0 0 0 52441163.80322719 -10074903.13042026 -10074903.13042026 2125099.259791081 0 0 0 0 0 49866226.33054204 -8737875.237587141 -8737875.237587141 2069655.173971364 0 0 0 0 0 53732624.53462569 -11265956.33333084 -11265956.33333084 1761661.693511523 0 0 0 0 0 55108488.46647141 -12375868.29664763 -12375868.29664763 1361484.985569915 0 0 0 0 0 56557721.24889844 -13402001.39794673 -13402001.39794673 929909.5633648699 0 0 0 0 0 58068849.89840543 -14342526.22702946 -14342526.22702946 472130.5447705935 0 0 0 0 0 59631424.9851611 -15196475.11984912 -15196475.11984912 -6768.364441795315 0 0 0 0 0 61235961.45273926 -15963947.40607167 -15963947.40607167 -501892.5530774434 0 0 0 0 0 62265749.78344428 -15653535.55995273 -15653535.55995273 -415816.1673586786 0 0 0 0 0 64042685.21601489 -16292892.78664994 -16292892.78664994 -869853.3141965937 0 0 0 0 0 65629856.61250597 -16859442.7518774 -16859442.7518774 -1372883.895071442 0 0 0 0 0 67220659.77213101 -17347975.42614084 -17347975.42614084 -1879802.850731087 0 0 0 0 0 68795610.71501516 -17760857.75900995 -17760857.75900995 -2381803.165400054 0 0 0 0 0 70372890.34482732 -18098017.35205829 -18098017.35205829 -2873102.584399477 0 0 0 0 0 71983677.5365358 -18355122.6365718 -18355122.6365718 -3345484.638388277 0 0 0 0 0 73269557.07477553 -17892829.14981674 -17892829.14981674 -3015123.422226207 0 0 0 0 0 74221985.52318001 -18059898.88576229 -18059898.88576229 -3584960.71882173 0 0 0 0 0 75700436.83125438 -18198227.14944056 -18198227.14944056 -4026833.701844991 0 0 0 0 0 77517968.28856993 -17294748.43796485 -17294748.43796485 -3464210.654602993 0 0 0 0 0 78898532.36575104 -17359359.81283795 -17359359.81283795 -3847995.285531667 0 0 0 0 0 80695489.69933556 -16959418.19917645 -16959418.19917645 -4044512.492893856 0 0 0 0 0 79538174.8521681 -17377928.0344959 -17377928.0344959 -4403217.81322696 0 0 0 0 0 81988080.92416807 -16945333.647785 -16945333.647785 -4409420.205186541 0 0 0 0 0 83244558.11262769 -16890323.6538913 -16890323.6538913 -4759033.186368896 0 0 0 0 0 84465004.58684662 -16798080.5576038 -16798080.5576038 -5092076.338164672 0 0 0 0 0 85646857.24690832 -16671369.803711 -16671369.803711 -5407749.42157754 0 0 0 0 0 87008654.96290626 -16127838.68906085 -16127838.68906085 -5486915.319495941 0 0 0 0 0 85939720.86119485 -16532874.9665862 -16532874.9665862 -5895103.977794426 0 0 0 0 0 88069766.16618727 -15950680.73893186 -15950680.73893186 -5760581.796783172 0 0 0 0 0 89092458.41190036 -15748521.75586763 -15748521.75586763 -6016516.49692694 0 0 0 0 0 90076893.28018042 -15524083.1610022 -15524083.1610022 -6255117.328520896 0 0 0 0 0 91020725.82267392 -15279793.29873697 -15279793.29873697 -6475307.294120721 0 0 0 0 0 91924063.88418125 -15017699.41366823 -15017699.41366823 -6677690.669425093 0 0 0 0 0 91906378.93121231 -14791525.89301619 -14791525.89301619 -7038971.118534456 0 0 0 0 0 93608155.66234772 -14155718.98182945 -14155718.98182945 -6797665.106334024 0 0 0 0 0 92732455.08109643 -14505770.71834459 -14505770.71834459 -7202847.533746107 0 0 0 0 0 94371348.55491786 -13866765.0402394 -13866765.0402394 -6947831.582943518 0 0 0 0 0 95098723.94850434 -13568294.59326171 -13568294.59326171 -7082205.398255328 0 0 0 0 0 95790916.36703314 -13261493.34722409 -13261493.34722409 -7200524.282501743 0 0 0 0 0 96449389.06517278 -12948430.83822619 -12948430.83822619 -7304410.858430165 0 0 0 0 0 96976264.88760844 -12408278.73004693 -12408278.73004693 -7171792.754210921 0 0 0 0 0 96256729.01150954 -12704877.34609117 -12704877.34609117 -7539712.083624681 0 0 0 0 0 97553747.02814277 -12099462.66335815 -12099462.66335815 -7249763.585327494 0 0 0 0 0 98100998.2528078 -11787815.59373653 -11787815.59373653 -7314895.545282635 0 0 0 0 0 98618764.08074765 -11474488.58528393 -11474488.58528393 -7367862.51555322 0 0 0 0 0 99108181.81245917 -11160482.56073127 -11160482.56073127 -7409166.410138692 0 0 0 0 0 99570146.87918888 -10846687.03376759 -10846687.03376759 -7439379.774149054 0 0 0 0 0 99721981.89116982 -10312928.09918087 -10312928.09918087 -7573502.273992598 0 0 0 0 0 100005616.380456 -10533954.67534092 -10533954.67534092 -7459024.941216799 0 0 0 0 0 100249704.8591767 -10087199.3639343 -10087199.3639343 -7273558.953577858 0 0 0 0 0 100626934.4940584 -9790164.226103516 -9790164.226103516 -7277306.814724892 0 0 0 0 0 100982170.0150924 -9495552.342582369 -9495552.342582369 -7272094.745297919 0 0 0 0 0 101316305.8108455 -9204144.613757158 -9204144.613757158 -7259663.310560718 0 0 0 0 0 101629051.8048052 -8916124.955007548 -8916124.955007548 -7240478.500641773 0 0 0 0 0 101919340.446667 -8632127.081042394 -8632127.081042394 -7213894.55969666 0 0 0 0 0 101611449.6473148 -8445200.399628067 -8445200.399628067 -7245918.870436047 0 0 0 0 0 102002820.7969965 -8271843.908077927 -8271843.908077927 -7003047.754901818 0 0 0 0 0 102239943.7395558 -8016650.15089424 -8016650.15089424 -6980719.691692634 0 0 0 0 0 102465499.1660875 -7754786.050005592 -7754786.050005592 -6921054.903092831 0 0 0 0 0 102694285.3038965 -7492095.844045581 -7492095.844045581 -6866345.649593743 0 0 0 0 0 102415007.1129059 -7342016.660397151 -7342016.660397151 -6876422.562244236 0 0 0 0 0 102726901.2410232 -7208008.711140005 -7208008.711140005 -6692618.563423422 0 0 0 0 0 102673095.3664114 -7080941.372994227 -7080941.372994227 -6747010.073873544 0 0 0 0 0 102846879.5249546 -6879753.48612859 -6879753.48612859 -6571642.240793948 0 0 0 0 0 103255220.9370905 -6492987.962979689 -6492987.962979689 -6511090.476149323 0 0 0 0 0 103404846.3475191 -6273922.894304588 -6273922.894304588 -6459204.129574648 0 0 0 0 0 103108798.5585728 -6704485.175718456 -6704485.175718456 -6592022.734104238 0 0 0 0 0 103526301.3097443 -6062728.840258003 -6062728.840258003 -6420445.336048868 0 0 0 0 0 103705981.2897585 -5804305.524516189 -5804305.524516189 -6293863.622791512 0 0 0 0 0 103874678.6421716 -5561487.332092664 -5561487.332092664 -6230491.279919497 0 0 0 0 0 103597335.2955663 -5349125.538718108 -5349125.538718108 -6182815.656092179 0 0 0 0 0 103686638.7220536 -5424693.763585718 -5424693.763585718 -6265731.770595534 0 0 0 0 0 103859224.9845079 -5195768.617486922 -5195768.617486922 -5958882.648262589 0 0 0 0 0 76961419.0477632 -17749514.90493209 -17749514.90493209 -3661099.593122884 0 0 0 0 0 42088465.00539771 -596631.5869360605 -596631.5869360605 2272174.183934099 0 0 0 0 0 42254743.62639122 -2300680.226472161 -2300680.226472161 2102944.80297895 0 0 0 0 0 45110458.69570943 -3970822.581247412 -3970822.581247412 2718180.067645639 0 0 0 0 0 44676379.50424887 -4194151.505116972 -4194151.505116972 2324648.687473095 0 0 0 0 0 45699634.35755039 -5738104.076982805 -5738104.076982805 2239384.174405948 0 0 0 0 0 46863680.44378486 -7230350.282583032 -7230350.282583032 2085216.334378598 0 0 0 0 0 48154164.41698744 -8661256.177287446 -8661256.177287446 1883887.275308776 0 0 0 0 0 51234345.15488733 -10021132.35527328 -10021132.35527328 1800243.953610865 0 0 0 0 0 50846634.3698695 -10082269.88998044 -10082269.88998044 1983437.782931807 0 0 0 0 0 52697525.83655389 -11224433.93041182 -11224433.93041182 1486163.042080507 0 0 0 0 0 54243587.43656518 -12345180.33643707 -12345180.33643707 1134005.998579049 0 0 0 0 0 55859874.56951317 -13380642.86623147 -13380642.86623147 748675.3783610886 0 0 0 0 0 57534282.4189542 -14329080.93421306 -14329080.93421306 335291.0546705079 0 0 0 0 0 59255029.10955258 -15189512.31724197 -15189512.31724197 -101378.007631978 0 0 0 0 0 61010248.78461093 -15962242.62218705 -15962242.62218705 -556962.052080133 0 0 0 0 0 62871819.81411087 -16645997.89134644 -16645997.89134644 -1008112.687917533 0 0 0 0 0 63973170.79698886 -16304304.17340388 -16304304.17340388 -878704.7855277446 0 0 0 0 0 65690417.91644196 -16872784.83046956 -16872784.83046956 -1349333.146282226 0 0 0 0 0 67405051.49595687 -17363865.75082244 -17363865.75082244 -1824708.325957604 0 0 0 0 0 69129159.20751959 -17774443.90638268 -17774443.90638268 -2293139.029071379 0 0 0 0 0 70838972.27484956 -18102896.0598212 -18102896.0598212 -2760017.72586959 0 0 0 0 0 72494153.8263232 -18360952.94149659 -18360952.94149659 -3227241.984186464 0 0 0 0 0 73513800.12414177 -18530368.90759702 -18530368.90759702 -3785407.29879645 0 0 0 0 0 74797550.42464396 -18061134.59989603 -18061134.59989603 -3445072.62048573 0 0 0 0 0 76336884.36600806 -18199065.59556561 -18199065.59556561 -3871860.624009181 0 0 0 0 0 77669448.41877423 -17804052.75416984 -17804052.75416984 -4225062.997051512 0 0 0 0 0 79019583.32907365 -17824302.37872816 -17824302.37872816 -4618492.829003042 0 0 0 0 0 80830389.97847991 -17367076.28785164 -17367076.28785164 -4785945.049755299 0 0 0 0 0 80235742.87346789 -17383044.35926052 -17383044.35926052 -4231602.935425775 0 0 0 0 0 82093706.40881048 -17313854.98109298 -17313854.98109298 -5150717.076793511 0 0 0 0 0 83323976.51453982 -17222300.1982988 -17222300.1982988 -5497045.091805547 0 0 0 0 0 84519498.25344022 -17094560.59628493 -17094560.59628493 -5823588.80317873 0 0 0 0 0 85678276.68852672 -16934074.62158032 -16934074.62158032 -6130167.596289624 0 0 0 0 0 87019336.38135728 -16352210.60948815 -16352210.60948815 -6175243.886016884 0 0 0 0 0 86789118.25857902 -16513153.53399522 -16513153.53399522 -5705529.144087628 0 0 0 0 0 88061312.08597612 -16145490.83540387 -16145490.83540387 -6435869.034110424 0 0 0 0 0 89068450.07120027 -15915651.29946172 -15915651.29946172 -6677482.852632706 0 0 0 0 0 90035673.99753506 -15665277.84172204 -15665277.84172204 -6899541.828495043 0 0 0 0 0 90964852.51766819 -15395933.40032616 -15395933.40032616 -7101610.239716852 0 0 0 0 0 91855459.0798746 -15111047.7023121 -15111047.7023121 -7285598.418378708 0 0 0 0 0 92788966.17774919 -14740368.40996921 -14740368.40996921 -6862716.023247132 0 0 0 0 0 93522583.74025187 -14208329.85379158 -14208329.85379158 -7349283.639234575 0 0 0 0 0 93614503.65802823 -14449400.6212476 -14449400.6212476 -7030460.775858245 0 0 0 0 0 94276614.87216713 -13901055.21090066 -13901055.21090066 -7479179.026113839 0 0 0 0 0 94995696.08462718 -13585442.00540169 -13585442.00540169 -7592248.011133715 0 0 0 0 0 95681113.45103367 -13263388.54292096 -13263388.54292096 -7690167.979161323 0 0 0 0 0 96333560.90147278 -12935869.71989618 -12935869.71989618 -7773428.064113676 0 0 0 0 0 96860462.94362891 -12386789.35268492 -12386789.35268492 -7610394.824754128 0 0 0 0 0 97074540.70655423 -12630380.71811814 -12630380.71811814 -7394380.554465011 0 0 0 0 0 97433646.56571728 -12065892.78073499 -12065892.78073499 -7667805.496322688 0 0 0 0 0 97977415.74793315 -11743168.94989423 -11743168.94989423 -7712335.94970784 0 0 0 0 0 98492379.03089085 -11419785.66127723 -11419785.66127723 -7744917.521439763 0 0 0 0 0 98979552.76540831 -11096569.63060009 -11096569.63060009 -7765977.208313483 0 0 0 0 0 99439866.6076733 -10774455.4727226 -10774455.4727226 -7776201.193689983 0 0 0 0 0 100414865.4984183 -10223443.13800742 -10223443.13800742 -7468871.976125272 0 0 0 0 0 99874422.93980092 -10454515.01928204 -10454515.01928204 -7776216.073276887 0 0 0 0 0 100123143.8175883 -10006813.89489342 -10006813.89489342 -7567248.893694862 0 0 0 0 0 100499812.5450195 -9703696.927873878 -9703696.927873878 -7553123.534472417 0 0 0 0 0 100854483.6554157 -9403529.700707341 -9403529.700707341 -7531056.418072046 0 0 0 0 0 101188400.4754321 -9107285.358736483 -9107285.358736483 -7502552.707894613 0 0 0 0 0 101502110.5550309 -8813963.679696474 -8813963.679696474 -7464608.678529968 0 0 0 0 0 101794385.7912593 -8525151.261836344 -8525151.261836344 -7419731.266984371 0 0 0 0 0 102194140.1328458 -8348416.709528229 -8348416.709528229 -7173818.806157744 0 0 0 0 0 101887392.2483452 -8172470.629136832 -8172470.629136832 -7198599.89680288 0 0 0 0 0 102130189.2392417 -7902007.815591179 -7902007.815591179 -7127909.091261997 0 0 0 0 0 102349211.79936 -7644817.314892327 -7644817.314892327 -7083877.415155937 0 0 0 0 0 102581203.8948512 -7389217.794259045 -7389217.794259045 -7028169.685380041 0 0 0 0 0 102902318.9168076 -7244751.391488803 -7244751.391488803 -6817374.500784952 0 0 0 0 0 102641671.4102787 -7090572.570638414 -7090572.570638414 -6762218.719936183 0 0 0 0 0 102821080.1421292 -6855559.094086788 -6855559.094086788 -6794138.786229164 0 0 0 0 0 103165190.0506469 -6376990.074211397 -6376990.074211397 -6618621.49765667 0 0 0 0 0 103014145.7691238 -6605105.427279645 -6605105.427279645 -6683649.36463323 0 0 0 0 0 103308608.8756422 -6151512.127823011 -6151512.127823011 -6552025.185959735 0 0 0 0 0 103434031.0072718 -5929606.825456065 -5929606.825456065 -6472105.896844859 0 0 0 0 0 103569261.733573 -5708149.353786837 -5708149.353786837 -6433387.213825545 0 0 0 0 0 103753054.8892019 -5486964.864652765 -5486964.864652765 -6371366.080013609 0 0 0 0 0 103942821.239689 -5256118.593311517 -5256118.593311517 -6059168.761101864 0 0 0 0 0 104017795.1429945 -5329337.096622914 -5329337.096622914 -6146511.636680511 0 0 0 0 0 103761952.9792683 -5124326.501538231 -5124326.501538231 -6079865.989982083 0 0 0 0 0 104002565.4051897 -4999556.39657536 -4999556.39657536 -5909342.419351256 0 0 0 0 0 77104612.5052256 -18271229.65750613 -18271229.65750613 -4456000.208299065 0 0 0 0 0 41406742.90997958 -778925.4849433094 -778925.4849433094 2071229.224042966 0 0 0 0 0 42788785.27907583 -2009690.282314936 -2009690.282314936 2611378.009100286 0 0 0 0 0 43431282.01846242 -3592468.187784461 -3592468.187784461 2484846.383631928 0 0 0 0 0 42855215.58530539 -3860666.98171681 -3860666.98171681 2083921.132822723 0 0 0 0 0 45823045.08414459 -5622416.048118431 -5622416.048118431 2556951.737325445 0 0 0 0 0 46789364.88147846 -7180527.995903704 -7180527.995903704 2358177.062376772 0 0 0 0 0 47929105.74736287 -8665699.730741713 -8665699.730741713 2110206.607005929 0 0 0 0 0 49182247.18377458 -10069422.66229693 -10069422.66229693 1810633.460870306 0 0 0 0 0 52172204.02599437 -11335234.96558014 -11335234.96558014 1626293.830500046 0 0 0 0 0 49558430.48233883 -10011523.6898895 -10011523.6898895 1627530.50599941 0 0 0 0 0 53590403.97796555 -12503456.19060851 -12503456.19060851 1228951.316144699 0 0 0 0 0 55088551.32308973 -13584062.71867456 -13584062.71867456 796968.6279579264 0 0 0 0 0 56654653.16993776 -14575091.95295745 -14575091.95295745 336262.2542226125 0 0 0 0 0 58276896.43575951 -15475368.83501441 -15475368.83501441 -147896.3097808529 0 0 0 0 0 59944294.97145902 -16284707.07863504 -16284707.07863504 -649986.0082475088 0 0 0 0 0 61646894.73299768 -17003720.74711698 -17003720.74711698 -1164803.409082088 0 0 0 0 0 62788440.63744584 -16647795.78255243 -16647795.78255243 -1026810.849589909 0 0 0 0 0 64528767.50301951 -17243246.48485626 -17243246.48485626 -1520270.588830409 0 0 0 0 0 66194807.77743619 -17756777.14766486 -17756777.14766486 -2033988.032356042 0 0 0 0 0 67867402.48449519 -18189279.82994456 -18189279.82994456 -2548316.300887197 0 0 0 0 0 69537957.52470993 -18546008.44510221 -18546008.44510221 -3055663.127597181 0 0 0 0 0 71178898.21293364 -18833344.91529813 -18833344.91529813 -3550148.156443789 0 0 0 0 0 72749656.75172757 -19033354.09883329 -19033354.09883329 -4028308.931396619 0 0 0 0 0 74124728.32451592 -18536973.28267789 -18536973.28267789 -3646749.761607153 0 0 0 0 0 75046048.12379396 -18660570.61499837 -18660570.61499837 -4232893.090489251 0 0 0 0 0 76554682.17627983 -18749625.35995346 -18749625.35995346 -4684645.57309756 0 0 0 0 0 78398911.00072365 -17814144.98190231 -17814144.98190231 -4054945.049391564 0 0 0 0 0 79797904.17496617 -17825700.27312292 -17825700.27312292 -4439903.225174915 0 0 0 0 0 81574945.30773698 -17368122.66004683 -17368122.66004683 -4607317.215409105 0 0 0 0 0 80369690.49261485 -17807377.36452821 -17807377.36452821 -5001449.022159873 0 0 0 0 0 82881549.98007102 -17308820.57176555 -17308820.57176555 -4965904.969804351 0 0 0 0 0 84150978.64647417 -17210853.00029681 -17210853.00029681 -5307173.742480893 0 0 0 0 0 85379146.03149407 -17076709.36106966 -17076709.36106966 -5630306.702598716 0 0 0 0 0 86565837.98587476 -16909534.27929573 -16909534.27929573 -5934753.932719554 0 0 0 0 0 87890260.59511124 -16326113.14343127 -16326113.14343127 -5984881.376623189 0 0 0 0 0 86799032.61110519 -16743266.98288227 -16743266.98288227 -6416031.290465938 0 0 0 0 0 88949898.32511723 -16113053.17834726 -16113053.17834726 -6245476.713721747 0 0 0 0 0 89968598.99160108 -15877224.36798927 -15877224.36798927 -6488020.862972026 0 0 0 0 0 90947058.15316974 -15620630.15273702 -15620630.15273702 -6712048.14537272 0 0 0 0 0 91880883.42381936 -15345443.53528027 -15345443.53528027 -6917022.089575795 0 0 0 0 0 92775713.2347732 -15054480.73894309 -15054480.73894309 -7104023.882347014 0 0 0 0 0 92708429.11847281 -14811617.71634251 -14811617.71634251 -7450327.811999139 0 0 0 0 0 94400859.52379476 -14146969.94957949 -14146969.94957949 -7181252.444660637 0 0 0 0 0 93523570.34584038 -14499981.71014826 -14499981.71014826 -7596552.646658828 0 0 0 0 0 95149763.26799013 -13834823.6073125 -13834823.6073125 -7315370.671648854 0 0 0 0 0 95862150.73142479 -13514742.13023605 -13514742.13023605 -7433627.163360352 0 0 0 0 0 96538397.42795134 -13188017.47988986 -13188017.47988986 -7536295.674644526 0 0 0 0 0 97180706.55942944 -12856089.88637494 -12856089.88637494 -7624140.99389554 0 0 0 0 0 97666974.89863004 -12308647.44707402 -12308647.44707402 -7470442.643178881 0 0 0 0 0 96953502.00375529 -12604402.43589369 -12604402.43589369 -7841711.090196314 0 0 0 0 0 98227527.64469609 -11984275.61543735 -11984275.61543735 -7533279.463834693 0 0 0 0 0 98757111.21078555 -11658578.29624763 -11658578.29624763 -7583610.572848411 0 0 0 0 0 99257035.35245696 -11332293.92807347 -11332293.92807347 -7621630.177283277 0 0 0 0 0 99728371.72829609 -11006497.74411056 -11006497.74411056 -7648261.455105024 0 0 0 0 0 100172185.9086456 -10682006.36672456 -10682006.36672456 -7664024.707404697 0 0 0 0 0 100283276.9935097 -10137143.24973492 -10137143.24973492 -7765758.531194635 0 0 0 0 0 100589391.4846824 -10359834.48461719 -10359834.48461719 -7669541.505125754 0 0 0 0 0 100797920.3779817 -9916128.55543516 -9916128.55543516 -7469315.893219228 0 0 0 0 0 101157891.7774133 -9611449.952332873 -9611449.952332873 -7459907.155945378 0 0 0 0 0 101495772.2129856 -9310421.530985087 -9310421.530985087 -7442914.352105976 0 0 0 0 0 101813439.5481562 -9012182.136235362 -9012182.136235362 -7417042.963638744 0 0 0 0 0 102110355.3757862 -8718137.270546351 -8718137.270546351 -7385170.486877697 0 0 0 0 0 102389723.9942972 -8426786.479122043 -8426786.479122043 -7344263.767249868 0 0 0 0 0 102073898.0330254 -8243877.532755728 -8243877.532755728 -7367859.764603369 0 0 0 0 0 102442088.4035574 -8079799.287966309 -8079799.287966309 -7139285.054322863 0 0 0 0 0 102661047.5322441 -7818722.565152448 -7818722.565152448 -7095904.511717217 0 0 0 0 0 102878535.3683307 -7551775.152603582 -7551775.152603582 -7026718.067527467 0 0 0 0 0 103085865.3549141 -7295500.105037035 -7295500.105037035 -6970710.163971142 0 0 0 0 0 102785036.3986232 -7133988.880598097 -7133988.880598097 -6969635.649766276 0 0 0 0 0 103069136.5582492 -7011160.207302668 -7011160.207302668 -6795594.39992566 0 0 0 0 0 103252032.6705679 -6751627.2518927 -6751627.2518927 -6701888.184102514 0 0 0 0 0 103591708.0283512 -6287265.273017732 -6287265.273017732 -6577777.929205516 0 0 0 0 0 103435154.6389412 -6515381.907828738 -6515381.907828738 -6644222.92633831 0 0 0 0 0 103726543.0677095 -6065924.488931146 -6065924.488931146 -6512645.518822809 0 0 0 0 0 103862307.1505792 -5837035.672022263 -5837035.672022263 -6430447.229843169 0 0 0 0 0 104008929.3272634 -5609982.617837293 -5609982.617837293 -6342373.422697026 0 0 0 0 0 104127965.5266438 -5407291.782515146 -5407291.782515146 -6288313.138497835 0 0 0 0 0 103931711.2550285 -5218864.430672786 -5218864.430672786 -6253297.091894574 0 0 0 0 0 104026840.50443 -5300168.659406118 -5300168.659406118 -6310095.460893321 0 0 0 0 0 104082762.203715 -5023965.946911128 -5023965.946911128 -6054003.974397849 0 0 0 0 0 103898713.187121 -4934069.251576749 -4934069.251576749 -6055427.26004842 0 0 0 0 0 77879294.46616721 -18274456.47698519 -18274456.47698519 -4281320.517866214 0 0 0 0 0 41231241.79556411 -785233.8613895096 -785233.8613895096 2149176.111248447 0 0 0 0 0 40078676.07687764 -1965285.050408494 -1965285.050408494 1812905.570071558 0 0 0 0 0 40787690.51337418 -3467487.91191352 -3467487.91191352 1691276.55458416 0 0 0 0 0 44031661.2834506 -5382971.430291709 -5382971.430291709 2283512.451138135 0 0 0 0 0 43871057.44921045 -5499341.868336747 -5499341.868336747 2007465.326144897 0 0 0 0 0 45051155.55341056 -7067885.995187658 -7067885.995187658 1867271.110614375 0 0 0 0 0 46367519.2385859 -8562693.160996277 -8562693.160996277 1667785.317039868 0 0 0 0 0 47808978.46057798 -9981347.901203258 -9981347.901203258 1422652.477353138 0 0 0 0 0 51066795.18500853 -11278508.65674946 -11278508.65674946 1323609.385592873 0 0 0 0 0 50544343.33462855 -11388985.26911941 -11388985.26911941 1461591.227863514 0 0 0 0 0 52664621.16431414 -12458712.9330732 -12458712.9330732 977339.3068080263 0 0 0 0 0 54339621.34884398 -13549723.19676168 -13549723.19676168 594677.2280892794 0 0 0 0 0 56077740.96937876 -14549531.2877879 -14549531.2877879 181040.7181742543 0 0 0 0 0 57867183.6878605 -15457024.3488953 -15457024.3488953 -258252.1788317368 0 0 0 0 0 59695550.64892405 -16271978.02708779 -16271978.02708779 -718062.2157504576 0 0 0 0 0 61550887.1170595 -16994924.50584454 -16994924.50584454 -1193724.27841022 0 0 0 0 0 63373738.51452902 -17632991.11077901 -17632991.11077901 -1687379.281996737 0 0 0 0 0 64580936.33485947 -17246517.1357987 -17246517.1357987 -1505597.408902474 0 0 0 0 0 66379065.71633066 -17760381.78988476 -17760381.78988476 -1987664.744940273 0 0 0 0 0 68173656.07483463 -18193296.95000388 -18193296.95000388 -2472579.9219837 0 0 0 0 0 69956731.29039423 -18548461.73498096 -18548461.73498096 -2953214.477731451 0 0 0 0 0 71690851.76028995 -18827286.11059109 -18827286.11059109 -3430207.61917945 0 0 0 0 0 73411201.41173111 -19032975.99991837 -19032975.99991837 -3883543.974342015 0 0 0 0 0 74336844.81194709 -19149003.41767931 -19149003.41767931 -4460920.311895106 0 0 0 0 0 75699198.22962222 -18660626.41846918 -18660626.41846918 -4077345.095257027 0 0 0 0 0 77295950.05061358 -18744364.58582049 -18744364.58582049 -4509653.391680163 0 0 0 0 0 78518713.61197658 -18288083.39048157 -18288083.39048157 -4853880.668264785 0 0 0 0 0 79893625.5519798 -18261314.28449218 -18261314.28449218 -5237180.692355087 0 0 0 0 0 81684428.12224953 -17749504.94654614 -17749504.94654614 -5373778.503393058 0 0 0 0 0 81156211.03869329 -17801019.80642805 -17801019.80642805 -4816324.022036649 0 0 0 0 0 82963788.65873305 -17652294.466425 -17652294.466425 -5729099.186686234 0 0 0 0 0 84206595.10339801 -17516986.69979637 -17516986.69979637 -6063271.383860782 0 0 0 0 0 85410628.82855541 -17347515.49852307 -17347515.49852307 -6377166.313231722 0 0 0 0 0 86574514.14150783 -17145927.57394131 -17145927.57394131 -6668169.690429658 0 0 0 0 0 87880333.28577441 -16525122.95921757 -16525122.95921757 -6681100.649121541 0 0 0 0 0 87708481.07286522 -16712265.10133859 -16712265.10133859 -6219735.421984726 0 0 0 0 0 88922185.88875219 -16283418.79187494 -16283418.79187494 -6926317.916349399 0 0 0 0 0 89925268.89718898 -16020090.1157657 -16020090.1157657 -7152108.360583807 0 0 0 0 0 90886812.55415516 -15737577.98608953 -15737577.98608953 -7356860.264934114 0 0 0 0 0 91808155.88413399 -15438645.81156868 -15438645.81156868 -7542824.587635403 0 0 0 0 0 92689904.53524572 -15124310.25554736 -15124310.25554736 -7707993.487567348 0 0 0 0 0 93627450.92242764 -14749614.47455412 -14749614.47455412 -7272953.079517455 0 0 0 0 0 94300798.80747944 -14178628.80031592 -14178628.80031592 -7725611.667766223 0 0 0 0 0 94437244.32496934 -14433061.82305684 -14433061.82305684 -7423749.415249576 0 0 0 0 0 95041704.8640518 -13849042.22850689 -13849042.22850689 -7838141.286975496 0 0 0 0 0 95746903.53178598 -13512584.21489966 -13512584.21489966 -7933957.737524098 0 0 0 0 0 96417173.45872621 -13170957.98712158 -13170957.98712158 -8014550.218294481 0 0 0 0 0 97054352.43201181 -12825268.33753731 -12825268.33753731 -8080826.574657225 0 0 0 0 0 97541591.01531205 -12270169.21117174 -12270169.21117174 -7896126.83151253 0 0 0 0 0 97788677.06498541 -12520881.11693368 -12520881.11693368 -7698696.893333338 0 0 0 0 0 98098645.37503043 -11934467.9315902 -11934467.9315902 -7937381.555901541 0 0 0 0 0 98625353.64153102 -11598308.30685903 -11598308.30685903 -7966118.693581424 0 0 0 0 0 99123069.25024444 -11262640.94675053 -11262640.94675053 -7983129.703242987 0 0 0 0 0 99592791.24300566 -10928344.52221827 -10928344.52221827 -7988997.55561265 0 0 0 0 0 100035659.585024 -10596352.33520289 -10596352.33520289 -7984320.349148262 0 0 0 0 0 100979242.5171914 -10041256.12761549 -10041256.12761549 -7666244.387784999 0 0 0 0 0 100452460.5982342 -10267382.99747656 -10267382.99747656 -7969605.71111551 0 0 0 0 0 100666194.5025794 -9823440.471034812 -9823440.471034812 -7746278.419295368 0 0 0 0 0 101025998.8133547 -9513421.444577185 -9513421.444577185 -7719335.005338841 0 0 0 0 0 101364044.1065856 -9207295.060181394 -9207295.060181394 -7684826.965797443 0 0 0 0 0 101681947.4289654 -8904673.02431613 -8904673.02431613 -7642868.562089158 0 0 0 0 0 101979610.9621913 -8606189.42082219 -8606189.42082219 -7593808.285194637 0 0 0 0 0 102261715.4838574 -8314169.598412343 -8314169.598412343 -7538534.130473102 0 0 0 0 0 102643874.0098655 -8146068.679955778 -8146068.679955778 -7302826.888442493 0 0 0 0 0 102324231.8288962 -7965397.772846363 -7965397.772846363 -7300423.828589594 0 0 0 0 0 102547649.7265968 -7698715.07269154 -7698715.07269154 -7233507.269764476 0 0 0 0 0 102762296.787385 -7439385.084498761 -7439385.084498761 -7175611.118228924 0 0 0 0 0 102968974.7201509 -7180580.017631213 -7180580.017631213 -7108920.341623851 0 0 0 0 0 103274268.910874 -7044589.720320811 -7044589.720320811 -6913585.363655021 0 0 0 0 0 102969364.4122693 -6888869.055568699 -6888869.055568699 -6889305.048574682 0 0 0 0 0 103143594.5472738 -6645325.756204526 -6645325.756204526 -6831069.412268481 0 0 0 0 0 103486313.1863938 -6174510.951368815 -6174510.951368815 -6672436.162147624 0 0 0 0 0 103329160.3071609 -6406034.486506866 -6406034.486506866 -6752787.076699164 0 0 0 0 0 103622129.7776155 -5945066.551764829 -5945066.551764829 -6589679.476992709 0 0 0 0 0 103759633.2046227 -5722138.850164911 -5722138.850164911 -6506053.94675542 0 0 0 0 0 103890676.7164088 -5510560.520163176 -5510560.520163176 -6435064.334563189 0 0 0 0 0 104037613.1790669 -5294162.226667061 -5294162.226667061 -6300968.432270428 0 0 0 0 0 104031531.6930386 -5061037.525180465 -5061037.525180465 -6120829.672793137 0 0 0 0 0 104179104.5769827 -5136785.241070803 -5136785.241070803 -6146410.619676467 0 0 0 0 0 104029949.3253833 -4928350.151565836 -4928350.151565836 -6122922.320737568 0 0 0 0 0 104154353.8396769 -4788799.117736963 -4788799.117736963 -5849458.691238749 0 0 0 0 0 104243513.7041301 -4814829.083582207 -4814829.083582207 -5935663.205527024 0 0 0 0 0 78003958.19096129 -18776005.9229774 -18776005.9229774 -5102172.177910818 0 0 0 0 0 39611785.30877988 -969844.7664829167 -969844.7664829167 1736977.797171115 0 0 0 0 0 41627997.62671608 -3068715.467331655 -3068715.467331655 2176708.199080285 0 0 0 0 0 42257005.93435954 -5036578.492246591 -5036578.492246591 2020882.77181089 0 0 0 0 0 41954779.47968202 -5211750.07660589 -5211750.07660589 1670736.654837657 0 0 0 0 0 45013362.53675128 -7013610.024215707 -7013610.024215707 2117928.072520275 0 0 0 0 0 46158664.80992237 -8564436.44733803 -8564436.44733803 1887679.754448781 0 0 0 0 0 47445054.05369584 -10037028.54000662 -10037028.54000662 1601929.679011991 0 0 0 0 0 48843914.26403561 -11425653.40712181 -11425653.40712181 1263004.89428317 0 0 0 0 0 52004919.66608045 -12619640.84032978 -12619640.84032978 1068850.555711695 0 0 0 0 0 49363007.57203207 -11315188.82609834 -11315188.82609834 1129075.585607174 0 0 0 0 0 53553340.27189265 -13758303.42866331 -13758303.42866331 638773.5526628764 0 0 0 0 0 55175883.79597572 -14803014.291136 -14803014.291136 176966.1375805087 0 0 0 0 0 56860571.77368091 -15752369.52194291 -15752369.52194291 -310602.1715571696 0 0 0 0 0 58594651.31766774 -16606182.49791647 -16606182.49791647 -818562.493811501 0 0 0 0 0 60366871.73148186 -17364900.57888797 -17364900.57888797 -1341232.99778412 0 0 0 0 0 62164671.60890485 -18029374.99273385 -18029374.99273385 -1873565.989994951 0 0 0 0 0 63421858.03783715 -17626956.34540497 -17626956.34540497 -1680028.585020865 0 0 0 0 0 65111912.80597361 -18174184.85822239 -18174184.85822239 -2213288.984527727 0 0 0 0 0 66855474.15511391 -18630677.23150709 -18630677.23150709 -2738293.756297999 0 0 0 0 0 68600500.60540214 -19007506.28300941 -19007506.28300941 -3259661.230709939 0 0 0 0 0 70331695.42013285 -19314114.15231479 -19314114.15231479 -3769312.242715267 0 0 0 0 0 71993697.45939919 -19541933.07949391 -19541933.07949391 -4264796.385326664 0 0 0 0 0 73608119.81635267 -19670949.20029451 -19670949.20029451 -4725934.607562588 0 0 0 0 0 75058297.36414078 -19151570.09870111 -19151570.09870111 -4303117.393377336 0 0 0 0 0 75928833.47299205 -19232051.66023338 -19232051.66023338 -4916276.390851626 0 0 0 0 0 77483417.97641462 -19264546.84366396 -19264546.84366396 -5356569.295092645 0 0 0 0 0 79328549.5037943 -18284992.83403767 -18284992.83403767 -4672667.467588277 0 0 0 0 0 80753024.88762292 -18252800.90156566 -18252800.90156566 -5046085.386797715 0 0 0 0 0 82508686.80586916 -17739101.87549866 -17739101.87549866 -5183916.58770277 0 0 0 0 0 81263122.37292112 -18198056.49751814 -18198056.49751814 -5610130.702583411 0 0 0 0 0 83830712.60627288 -17635585.56593126 -17635585.56593126 -5533070.250136551 0 0 0 0 0 85108510.38607059 -17493632.04485151 -17493632.04485151 -5863527.153587007 0 0 0 0 0 86343699.50440024 -17317121.8024962 -17317121.8024962 -6174649.148167391 0 0 0 0 0 87528321.02363171 -17109222.38511378 -17109222.38511378 -6465262.00587561 0 0 0 0 0 88806598.30658977 -16487783.20820847 -16487783.20820847 -6485027.867256314 0 0 0 0 0 87696527.63224022 -16915675.66191934 -16915675.66191934 -6937371.577233694 0 0 0 0 0 89861824.64058982 -16239453.74096727 -16239453.74096727 -6731291.501957073 0 0 0 0 0 90877139.31609033 -15969586.61872671 -15969586.61872671 -6958159.953258973 0 0 0 0 0 91847118.78758159 -15680640.95435201 -15680640.95435201 -7166450.542975059 0 0 0 0 0 92770518.3831276 -15375573.72259765 -15375573.72259765 -7355036.330125212 0 0 0 0 0 93648257.18673065 -15056304.60243365 -15056304.60243365 -7524913.622897143 0 0 0 0 0 93530624.92893842 -14797946.3184861 -14797946.3184861 -7853362.457734385 0 0 0 0 0 95208300.22743993 -14106780.71978354 -14106780.71978354 -7557593.196384761 0 0 0 0 0 94331768.95947075 -14461912.83646535 -14461912.83646535 -7981539.35058485 0 0 0 0 0 95941424.23375002 -13772487.82962663 -13772487.82962663 -7675162.030119115 0 0 0 0 0 96636289.5696869 -13431556.98794373 -13431556.98794373 -7776457.366066303 0 0 0 0 0 97294660.14627801 -13085694.39434847 -13085694.39434847 -7862351.308360144 0 0 0 0 0 97918496.4591801 -12736146.43039509 -12736146.43039509 -7933606.609932947 0 0 0 0 0 98362665.27471139 -12183229.33766101 -12183229.33766101 -7758792.995305108 0 0 0 0 0 97657696.24513002 -12477025.44347139 -12477025.44347139 -8131607.81676587 0 0 0 0 0 98904492.69802876 -11844514.28654912 -11844514.28654912 -7805989.318980358 0 0 0 0 0 99415214.79084158 -11505452.52236552 -11505452.52236552 -7840485.975957232 0 0 0 0 0 99896088.49870157 -11167182.68432093 -11167182.68432093 -7863243.142483054 0 0 0 0 0 100348231.4676478 -10830552.22174999 -10830552.22174999 -7874893.401351988 0 0 0 0 0 100772617.3879011 -10496429.52975104 -10496429.52975104 -7876031.004884069 0 0 0 0 0 100842588.5201822 -9942127.884294016 -9942127.884294016 -7944495.238808883 0 0 0 0 0 101169529.3203731 -10165929.32564253 -10165929.32564253 -7867706.926031769 0 0 0 0 0 101343706.5645668 -9726254.00019121 -9726254.00019121 -7652514.373507376 0 0 0 0 0 101685770.3176441 -9414833.646615637 -9414833.646615637 -7630200.050665203 0 0 0 0 0 102007440.0230576 -9106725.386316437 -9106725.386316437 -7599406.403641775 0 0 0 0 0 102307876.0274115 -8803135.845137909 -8803135.845137909 -7562273.775424975 0 0 0 0 0 102588805.1704396 -8503758.434936831 -8503758.434936831 -7517826.10987062 0 0 0 0 0 102848821.0242712 -8211619.844808051 -8211619.844808051 -7468670.993641921 0 0 0 0 0 102520133.1762144 -8028362.14574769 -8028362.14574769 -7472568.075475985 0 0 0 0 0 102868895.1539739 -7875859.541838145 -7875859.541838145 -7259273.689159755 0 0 0 0 0 103078041.6273839 -7607186.123201849 -7607186.123201849 -7194542.547203545 0 0 0 0 0 103280663.3670251 -7342735.447034523 -7342735.447034523 -7123378.892115527 0 0 0 0 0 103470045.6849754 -7081992.116646145 -7081992.116646145 -7056293.057472586 0 0 0 0 0 103156826.9812029 -6924003.974376776 -6924003.974376776 -7035612.311539392 0 0 0 0 0 103454082.9776935 -6790328.126065586 -6790328.126065586 -6840538.225463143 0 0 0 0 0 103620188.3469201 -6545868.201937858 -6545868.201937858 -6784882.554826616 0 0 0 0 0 103915804.6139764 -6079221.515960551 -6079221.515960551 -6634640.673470013 0 0 0 0 0 103775778.7054741 -6308773.568465942 -6308773.568465942 -6712284.265311454 0 0 0 0 0 104047138.4352593 -5849575.959753178 -5849575.959753178 -6553081.978063164 0 0 0 0 0 104169178.961401 -5627643.540794197 -5627643.540794197 -6472599.73465259 0 0 0 0 0 104282041.8470732 -5413259.767978418 -5413259.767978418 -6385722.203673351 0 0 0 0 0 104360528.4023451 -5215759.128815124 -5215759.128815124 -6329886.054052357 0 0 0 0 0 104290031.1549699 -5006677.152166158 -5006677.152166158 -6165252.364342536 0 0 0 0 0 104115170.6350573 -5094942.572804444 -5094942.572804444 -6272469.480196032 0 0 0 0 0 104336502.250169 -4835464.604815674 -4835464.604815674 -6035782.598173386 0 0 0 0 0 104042366.0439625 -4718506.610603952 -4718506.610603952 -5998947.704639873 0 0 0 0 0 104164914.075675 -4763526.484104428 -4763526.484104428 -6070525.141040895 0 0 0 0 0 104269316.7425078 -4580168.534773316 -4580168.534773316 -5793242.928849386 0 0 0 0 0 104514870.4094095 -4181040.811016455 -4181040.811016455 -5655659.780869615 0 0 0 0 0 104405107.4633867 -4377233.548487239 -4377233.548487239 -5723820.353553241 0 0 0 0 0 78860117.88093747 -18765521.58575618 -18765521.58575618 -4914439.97411775 0 0 0 0 0 38581330.4855861 -796259.7387846262 -796259.7387846262 1505378.49132938 0 0 0 0 0 38760725.58443151 -2951542.349206036 -2951542.349206036 1338252.662140562 0 0 0 0 0 39879158.55572359 -4876814.857072226 -4876814.857072226 1322481.193891917 0 0 0 0 0 43174818.65922226 -6804369.403357092 -6804369.403357092 1831926.506465715 0 0 0 0 0 43163784.36137857 -6872603.58240768 -6872603.58240768 1580380.594991156 0 0 0 0 0 44510739.84475844 -8441699.064984627 -8441699.064984627 1411556.145356424 0 0 0 0 0 45986332.89251677 -9930127.691072769 -9930127.691072769 1180809.413849341 0 0 0 0 0 47584120.36475032 -11333725.27919872 -11333725.27919872 899502.9616688914 0 0 0 0 0 51015183.88999311 -12558876.89567455 -12558876.89567455 791050.8010621155 0 0 0 0 0 50349508.05364209 -12722517.60298673 -12722517.60298673 877792.6834997589 0 0 0 0 0 52749618.37737606 -13708967.62250894 -13708967.62250894 413175.0458827743 0 0 0 0 0 54554154.47318581 -14763265.79062214 -14763265.79062214 1400.870316632956 0 0 0 0 0 56414560.40491584 -15720654.61563208 -15720654.61563208 -438735.6541901559 0 0 0 0 0 58318670.86946025 -16580932.36823621 -16580932.36823621 -901676.7918066267 0 0 0 0 0 60253420.04640723 -17344499.25927434 -17344499.25927434 -1382218.677489196 0 0 0 0 0 62207134.30675411 -18012374.65167683 -18012374.65167683 -1875023.157173505 0 0 0 0 0 63977939.27162477 -18601305.26481671 -18601305.26481671 -2409558.219111421 0 0 0 0 0 65297871.78175704 -18170018.96945653 -18170018.96945653 -2171840.7282913 0 0 0 0 0 67170291.90340556 -18627272.09217587 -18627272.09217587 -2665572.951331461 0 0 0 0 0 69031563.49749988 -19002822.8410037 -19002822.8410037 -3159847.512701568 0 0 0 0 0 70847961.13637143 -19300550.36678595 -19300550.36678595 -3650346.327496803 0 0 0 0 0 72644401.73412248 -19523031.42667954 -19523031.42667954 -4118766.050631543 0 0 0 0 0 74445520.1198803 -19663139.84834369 -19663139.84834369 -4568489.099272823 0 0 0 0 0 75264388.57325339 -19734172.49797357 -19734172.49797357 -5172499.930257321 0 0 0 0 0 76699271.09685318 -19219563.78371005 -19219563.78371005 -4740608.389599458 0 0 0 0 0 78330772.22828615 -19243915.08749185 -19243915.08749185 -5166468.753739066 0 0 0 0 0 79433046.8016267 -18741909.00348257 -18741909.00348257 -5490425.129796643 0 0 0 0 0 80828924.28879102 -18664178.18955927 -18664178.18955927 -5867349.233145779 0 0 0 0 0 82593921.35773958 -18094356.71165045 -18094356.71165045 -5972242.337222628 0 0 0 0 0 82130754.04612151 -18180216.26582106 -18180216.26582106 -5412615.79246275 0 0 0 0 0 83884860.71906084 -17953020.17745719 -17953020.17745719 -6317312.730731127 0 0 0 0 0 85137637.55851668 -17773369.44621507 -17773369.44621507 -6637955.887759557 0 0 0 0 0 86346643.03191194 -17559848.10437292 -17559848.10437292 -6934073.984736427 0 0 0 0 0 87510106.84792896 -17317643.0141059 -17317643.0141059 -7206272.845174932 0 0 0 0 0 88776739.457004 -16660937.08820085 -16660937.08820085 -7186345.177535725 0 0 0 0 0 88663894.91838253 -16873203.8389245 -16873203.8389245 -6735350.909242166 0 0 0 0 0 89814641.72657335 -16384560.86046961 -16384560.86046961 -7416059.912395099 0 0 0 0 0 90813733.42922887 -16086813.73544992 -16086813.73544992 -7623820.058029253 0 0 0 0 0 91766017.53207646 -15773256.94234358 -15773256.94234358 -7811546.960334172 0 0 0 0 0 92676763.30610715 -15444105.06058704 -15444105.06058704 -7976583.276366866 0 0 0 0 0 93544643.806162 -15102502.09412268 -15102502.09412268 -8121419.330836304 0 0 0 0 0 94482214.56502084 -14725249.56614468 -14725249.56614468 -7676016.676893652 0 0 0 0 0 95094812.81482294 -14117570.43161615 -14117570.43161615 -8092657.508878782 0 0 0 0 0 95274686.21719475 -14384170.73683106 -14384170.73683106 -7809246.207446359 0 0 0 0 0 95820515.66031201 -13766092.37079651 -13766092.37079651 -8186538.55748612 0 0 0 0 0 96509203.90019642 -13409666.84389732 -13409666.84389732 -8264230.246942596 0 0 0 0 0 97162405.94519284 -13049529.65784987 -13049529.65784987 -8326645.409440764 0 0 0 0 0 97781702.69072287 -12686663.30603455 -12686663.30603455 -8374882.143635569 0 0 0 0 0 98228221.18986012 -12127887.74578241 -12127887.74578241 -8169330.517925289 0 0 0 0 0 98507095.24854967 -12384508.78854516 -12384508.78854516 -7991380.048604085 0 0 0 0 0 98767141.48827596 -11778395.43161853 -11778395.43161853 -8193975.793759989 0 0 0 0 0 99275702.94605029 -11429712.34441974 -11429712.34441974 -8206445.630187998 0 0 0 0 0 99755015.76092261 -11082765.66221692 -11082765.66221692 -8207608.316560294 0 0 0 0 0 100206190.8887946 -10738351.80921897 -10738351.80921897 -8197993.088233409 0 0 0 0 0 100630422.2444288 -10397673.46843679 -10397673.46843679 -8178270.878288941 0 0 0 0 0 101539840.7649604 -9839864.626853621 -9839864.626853621 -7849861.689623689 0 0 0 0 0 101027556.5915727 -10060772.39805914 -10060772.39805914 -8148001.405041547 0 0 0 0 0 101207415.9297572 -9621733.082269859 -9621733.082269859 -7912114.541456412 0 0 0 0 0 101549554.8341194 -9305562.44536766 -9305562.44536766 -7872399.073707827 0 0 0 0 0 101871699.9782826 -8993248.558677088 -8993248.558677088 -7825040.330239815 0 0 0 0 0 102173022.9344081 -8685595.607291002 -8685595.607291002 -7770658.819039961 0 0 0 0 0 102456038.0676406 -8384042.506454261 -8384042.506454261 -7709896.355801391 0 0 0 0 0 102719424.1201254 -8090127.48047433 -8090127.48047433 -7641906.125086142 0 0 0 0 0 103081265.7816725 -7930840.325914872 -7930840.325914872 -7419038.86719231 0 0 0 0 0 102750202.7119084 -7750959.187586589 -7750959.187586589 -7395678.83918394 0 0 0 0 0 102962453.492472 -7482313.38436856 -7482313.38436856 -7321532.29087285 0 0 0 0 0 103161246.8257371 -7219577.712949663 -7219577.712949663 -7254093.278751539 0 0 0 0 0 103350987.3116907 -6958398.977808191 -6958398.977808191 -7176981.020272466 0 0 0 0 0 103649053.016 -6825336.287267823 -6825336.287267823 -6985141.938994395 0 0 0 0 0 103337591.2147946 -6670523.774502709 -6670523.774502709 -6960942.625273851 0 0 0 0 0 103509788.6751693 -6427118.919978254 -6427118.919978254 -6881914.693104623 0 0 0 0 0 103668462.7227427 -6190775.26793019 -6190775.26793019 -6798200.705524607 0 0 0 0 0 103807796.8192674 -5957648.407884511 -5957648.407884511 -6711838.961332001 0 0 0 0 0 103942300.3730907 -5730326.748512544 -5730326.748512544 -6623923.189807799 0 0 0 0 0 104068693.430893 -5511372.846179727 -5511372.846179727 -6533973.295545791 0 0 0 0 0 104173570.9837699 -5295354.905544178 -5295354.905544178 -6445511.076602418 0 0 0 0 0 104265404.3456108 -5089725.17703722 -5089725.17703722 -6351246.447216776 0 0 0 0 0 104227013.8907182 -4893789.546636838 -4893789.546636838 -6142779.828025229 0 0 0 0 0 104457655.7777192 -4998341.886642422 -4998341.886642422 -6220806.115651219 0 0 0 0 0 104336689.2571126 -4709974.860821073 -4709974.860821073 -5990201.004137913 0 0 0 0 0 104380442.6261917 -4615854.704591298 -4615854.704591298 -5884784.702527323 0 0 0 0 0 104172357.4273479 -4519171.767434962 -4519171.767434962 -5925254.083075435 0 0 0 0 0 104295125.3537603 -4309502.3216977 -4309502.3216977 -5839213.090888963 0 0 0 0 0 104400053.2687691 -4112883.069627597 -4112883.069627597 -5767261.811535688 0 0 0 0 0 104613813.1862553 -3986513.975014918 -3986513.975014918 -5584601.189844502 0 0 0 0 0 78952639.81413519 -19230377.12687947 -19230377.12687947 -5766520.983557977 0 0 0 0 0 37685649.42618773 -951975.0365688899 -951975.0365688899 1318312.875840798 0 0 0 0 0 39216118.11352238 -2761280.483056071 -2761280.483056071 1600621.168355316 0 0 0 0 0 40609001.35013542 -4570136.458708577 -4570136.458708577 1711540.428108789 0 0 0 0 0 41346375.99950017 -6519968.320431476 -6519968.320431476 1528605.988115477 0 0 0 0 0 41191882.45742724 -6636789.542821973 -6636789.542821973 1244161.942624806 0 0 0 0 0 44329354.3718464 -8438090.058239497 -8438090.058239497 1621498.974959654 0 0 0 0 0 45630762.49217489 -9985298.964837618 -9985298.964837618 1350892.725864454 0 0 0 0 0 47067589.43790322 -11445280.22585949 -11445280.22585949 1026123.462342054 0 0 0 0 0 48618946.92724581 -12810227.95419593 -12810227.95419593 650669.761567701 0 0 0 0 0 51948480.26880896 -13923133.8999515 -13923133.8999515 451443.6710732428 0 0 0 0 0 49287267.46105213 -12644008.2751686 -12644008.2751686 570516.8621471436 0 0 0 0 0 53629812.03869722 -15024689.95380287 -15024689.95380287 -9242.714189419394 0 0 0 0 0 55378571.12111615 -16026112.99090112 -16026112.99090112 -498400.0466872177 0 0 0 0 0 57182198.88444613 -16927211.74479467 -16927211.74479467 -1010191.097428679 0 0 0 0 0 59027616.04391841 -17728358.02659 -17728358.02659 -1539184.223548139 0 0 0 0 0 60902693.2111855 -18430528.66453887 -18430528.66453887 -2079246.281727816 0 0 0 0 0 62794651.52449359 -19035352.64545576 -19035352.64545576 -2624802.415574878 0 0 0 0 0 64166111.68733899 -18586191.89513627 -18586191.89513627 -2374993.584765535 0 0 0 0 0 65798356.48971379 -19083339.7328675 -19083339.7328675 -2944742.388414167 0 0 0 0 0 67620370.71058245 -19479800.82115228 -19479800.82115228 -3476045.498523979 0 0 0 0 0 69435000.26183648 -19800057.57354606 -19800057.57354606 -3996000.401646574 0 0 0 0 0 71192766.15356022 -20038365.35028914 -20038365.35028914 -4513484.830730553 0 0 0 0 0 72926962.82851422 -20193833.96044901 -20193833.96044901 -5013488.798131522 0 0 0 0 0 74582314.6003661 -20269253.44538658 -20269253.44538658 -5463533.537113345 0 0 0 0 0 76125858.82833938 -19716847.5219725 -19716847.5219725 -4989637.075470094 0 0 0 0 0 76900774.46135776 -19759398.70417378 -19759398.70417378 -5617138.203247303 0 0 0 0 0 78485772.9864431 -19730629.19246762 -19730629.19246762 -6045215.672601429 0 0 0 0 0 80338270.71133693 -18729145.81278506 -18729145.81278506 -5297184.711726874 0 0 0 0 0 81763313.59800066 -18642860.67142273 -18642860.67142273 -5670782.304124508 0 0 0 0 0 83502255.95658101 -18071023.6024578 -18071023.6024578 -5769893.925813626 0 0 0 0 0 82213253.69677991 -18550052.55189995 -18550052.55189995 -6231378.66430923 0 0 0 0 0 84844223.20067208 -17922106.89524283 -17922106.89524283 -6108851.944372782 0 0 0 0 0 86125582.5312292 -17736284.02643295 -17736284.02643295 -6426147.462723627 0 0 0 0 0 87351518.77584039 -17517129.22887146 -17517129.22887146 -6723096.06227595 0 0 0 0 0 88526661.9500259 -17268870.38034378 -17268870.38034378 -6997784.790640786 0 0 0 0 0 89754937.43412563 -16612046.35701912 -16612046.35701912 -6985295.814822351 0 0 0 0 0 88629381.95000604 -17049287.97738376 -17049287.97738376 -7457276.016262593 0 0 0 0 0 90805003.66813308 -16329201.51146639 -16329201.51146639 -7216314.411902388 0 0 0 0 0 91807186.4010215 -16025289.68075708 -16025289.68075708 -7426558.393603889 0 0 0 0 0 92767453.27889495 -15703818.3820735 -15703818.3820735 -7617498.680956841 0 0 0 0 0 93675450.04187422 -15369044.66018636 -15369044.66018636 -7788854.253811038 0 0 0 0 0 94535109.65917338 -15023023.35577529 -15023023.35577529 -7940886.522232855 0 0 0 0 0 94370167.66452555 -14750788.5805798 -14750788.5805798 -8247394.347130901 0 0 0 0 0 96029133.52902569 -14034973.22568174 -14034973.22568174 -7925462.82196546 0 0 0 0 0 95155340.41867009 -14391182.12611801 -14391182.12611801 -8356651.550143604 0 0 0 0 0 96743376.25432652 -13679004.2483111 -13679004.2483111 -8025159.505513708 0 0 0 0 0 97418950.56823893 -13318383.95732284 -13318383.95732284 -8108788.613939678 0 0 0 0 0 98057100.7104367 -12954349.16143923 -12954349.16143923 -8176986.748910182 0 0 0 0 0 98660630.08263095 -12588105.9751747 -12588105.9751747 -8230715.791836188 0 0 0 0 0 99061484.19750279 -12032103.98541781 -12032103.98541781 -8035178.576067725 0 0 0 0 0 98366751.34525828 -12323216.37758707 -12323216.37758707 -8408447.316017754 0 0 0 0 0 99583365.47332744 -11679788.24449674 -11679788.24449674 -8065920.597367967 0 0 0 0 0 100073637.8533645 -11328519.42975029 -11328519.42975029 -8084481.656804925 0 0 0 0 0 100534376.0147743 -10979276.27621811 -10979276.27621811 -8091587.190054 0 0 0 0 0 100966434.9964518 -10632826.57997062 -10632826.57997062 -8087963.026391016 0 0 0 0 0 101369786.1893574 -10290465.5398332 -10290465.5398332 -8074546.344239829 0 0 0 0 0 101398528.1067991 -9729107.090236234 -9729107.090236234 -8109606.334991554 0 0 0 0 0 101745037.8807622 -9952912.333031621 -9952912.333031621 -8051864.737554873 0 0 0 0 0 101886105.8443736 -9517903.01575185 -9517903.01575185 -7822372.13894283 0 0 0 0 0 102210933.5826811 -9199960.068526706 -9199960.068526706 -7786414.213597218 0 0 0 0 0 102514434.6370136 -8886651.553747164 -8886651.553747164 -7743853.121295026 0 0 0 0 0 102797103.125536 -8578332.174670054 -8578332.174670054 -7694365.904185339 0 0 0 0 0 103059600.854878 -8276298.017849679 -8276298.017849679 -7638949.439805806 0 0 0 0 0 103299629.5651071 -7983325.357001295 -7983325.357001295 -7579583.092987964 0 0 0 0 0 102957411.1479658 -7799405.092521362 -7799405.092521362 -7557027.333179641 0 0 0 0 0 103291141.6725914 -7656615.913201994 -7656615.913201994 -7355172.780114091 0 0 0 0 0 103485027.7693809 -7385472.922380463 -7385472.922380463 -7285004.412843854 0 0 0 0 0 103673372.7093022 -7117438.944414916 -7117438.944414916 -7203519.424824783 0 0 0 0 0 103851516.7215467 -6855955.370849944 -6855955.370849944 -7127567.400875546 0 0 0 0 0 103531346.6942446 -6700875.748243166 -6700875.748243166 -7095625.052367418 0 0 0 0 0 103814130.9430683 -6574346.850935538 -6574346.850935538 -6912523.282706593 0 0 0 0 0 103967232.7027309 -6329157.685695554 -6329157.685695554 -6839273.496293077 0 0 0 0 0 104107603.3917776 -6092179.397667555 -6092179.397667555 -6760343.739983454 0 0 0 0 0 104236696.5803602 -5859964.429957595 -5859964.429957595 -6675788.98971579 0 0 0 0 0 104354824.8906792 -5633895.137722393 -5633895.137722393 -6591072.950443263 0 0 0 0 0 104460579.9405133 -5416305.54204659 -5416305.54204659 -6505612.086274059 0 0 0 0 0 104550489.6441102 -5207235.242210293 -5207235.242210293 -6421019.79073915 0 0 0 0 0 104637890.1377355 -4994777.238028711 -4994777.238028711 -6322641.625027267 0 0 0 0 0 104541054.5153646 -4799723.363993666 -4799723.363993666 -6142650.768322832 0 0 0 0 0 104349980.6218611 -4885781.866289655 -4885781.866289655 -6260998.925045587 0 0 0 0 0 104559218.0138068 -4651597.491358326 -4651597.491358326 -6086886.595595883 0 0 0 0 0 104289795.8046013 -4557509.825112058 -4557509.825112058 -6020483.29324225 0 0 0 0 0 104534605.5269338 -4421162.278878835 -4421162.278878835 -5818270.289998017 0 0 0 0 0 104622338.4779483 -4224624.465937516 -4224624.465937516 -5754555.229080413 0 0 0 0 0 104714989.3134488 -4030280.560030823 -4030280.560030823 -5669240.208303531 0 0 0 0 0 104513665.0241214 -3927123.39671413 -3927123.39671413 -5666976.731347247 0 0 0 0 0 104715425.0121623 -3805504.012873235 -3805504.012873235 -5506989.528099405 0 0 0 0 0 104781751.7750515 -3618491.690949326 -3618491.690949326 -5434591.633553694 0 0 0 0 0 79918047.83742788 -19209235.18614104 -19209235.18614104 -5566233.157974344 0 0 0 0 0 36577523.78777907 -727026.1252185724 -727026.1252185724 977168.5597797813 0 0 0 0 0 37315232.60293098 -2494354.046603214 -2494354.046603214 1025346.06681258 0 0 0 0 0 37951580.1725179 -4425255.880115636 -4425255.880115636 936327.4712432239 0 0 0 0 0 39157906.5019106 -6370862.941671587 -6370862.941671587 891763.366588691 0 0 0 0 0 42427856.2675177 -8278227.909379317 -8278227.909379317 1313259.784182968 0 0 0 0 0 42570307.87027054 -8292899.289149224 -8292899.289149224 1102544.099604184 0 0 0 0 0 44083733.29770193 -9857292.221392525 -9857292.221392525 894573.1664127057 0 0 0 0 0 45724502.97501372 -11332126.56437358 -11332126.56437358 628223.955119701 0 0 0 0 0 47485837.55961351 -12710287.81717675 -12710287.81717675 312320.7430221428 0 0 0 0 0 51084545.41049989 -13856273.98257662 -13856273.98257662 199562.3292496571 0 0 0 0 0 50274468.23818648 -14074671.64674354 -14074671.64674354 231837.423223035 0 0 0 0 0 52958189.99769524 -14968303.73527328 -14968303.73527328 -208015.5093106805 0 0 0 0 0 54893479.47738118 -15978701.6154516 -15978701.6154516 -646534.4340371182 0 0 0 0 0 56876246.62894344 -16887191.38129266 -16887191.38129266 -1110518.31208788 0 0 0 0 0 58893970.08085638 -17694187.29220131 -17694187.29220131 -1594359.540224701 0 0 0 0 0 60932298.32160717 -18400520.17791284 -18400520.17791284 -2092565.91085052 0 0 0 0 0 62980281.00474985 -19007711.4311308 -19007711.4311308 -2599280.43507292 0 0 0 0 0 64694490.89117465 -19544587.64716591 -19544587.64716591 -3170992.452506286 0 0 0 0 0 66123185.44792558 -19068842.39045209 -19068842.39045209 -2877370.708197074 0 0 0 0 0 68068120.64443067 -19464140.7666195 -19464140.7666195 -3379712.250343388 0 0 0 0 0 69991724.42145205 -19777491.57948281 -19777491.57948281 -3875565.144674499 0 0 0 0 0 71878460.98446685 -20013612.63301898 -20013612.63301898 -4363434.87461536 0 0 0 0 0 73720484.80379906 -20176780.84088874 -20176780.84088874 -4839284.710640465 0 0 0 0 0 75541718.99205701 -20247711.9119645 -20247711.9119645 -5269266.924830985 0 0 0 0 0 76268527.66310358 -20282261.7565157 -20282261.7565157 -5905011.247686354 0 0 0 0 0 77805254.74690761 -19738440.5108275 -19738440.5108275 -5415318.659185108 0 0 0 0 0 79433832.04718973 -19703023.54008821 -19703023.54008821 -5836186.918430488 0 0 0 0 0 80410840.36998367 -19150699.54332598 -19150699.54332598 -6146133.808625084 0 0 0 0 0 81819519.10217938 -19023174.82771336 -19023174.82771336 -6499819.232707256 0 0 0 0 0 83561907.65853189 -18400160.50496128 -18400160.50496128 -6584261.014356245 0 0 0 0 0 83149447.03133135 -18521287.44763801 -18521287.44763801 -6024132.869430566 0 0 0 0 0 84861190.21547788 -18210900.43456878 -18210900.43456878 -6913713.799516473 0 0 0 0 0 86117187.80780867 -17986947.35123768 -17986947.35123768 -7215443.768502522 0 0 0 0 0 87325923.58158754 -17731006.75593669 -17731006.75593669 -7490650.677194821 0 0 0 0 0 88484530.65988281 -17448472.02948357 -17448472.02948357 -7743701.770807927 0 0 0 0 0 89705207.35918102 -16758778.85894068 -16758778.85894068 -7689653.039164129 0 0 0 0 0 89653849.28881267 -16993748.08364477 -16993748.08364477 -7250912.979281306 0 0 0 0 0 90737712.08124778 -16446355.15213438 -16446355.15213438 -7898452.053130154 0 0 0 0 0 91728345.66062923 -16116411.5606642 -16116411.5606642 -8087979.954091878 0 0 0 0 0 92673117.51652873 -15770214.0745344 -15770214.0745344 -8253827.600787211 0 0 0 0 0 93569407.55782299 -15412794.9649611 -15412794.9649611 -8398575.440887196 0 0 0 0 0 94418561.50951906 -15044949.23654847 -15044949.23654847 -8522320.996435391 0 0 0 0 0 95350712.57602981 -14666459.38484371 -14666459.38484371 -8071524.374137424 0 0 0 0 0 95902260.15139438 -14023910.25911892 -14023910.25911892 -8447816.151255386 0 0 0 0 0 96126041.25189662 -14301883.43199773 -14301883.43199773 -8185546.58824602 0 0 0 0 0 96610255.78354964 -13651890.65939363 -13651890.65939363 -8522544.645559238 0 0 0 0 0 97280413.03898309 -13276404.55070044 -13276404.55070044 -8581116.340156063 0 0 0 0 0 97914340.24678424 -12899068.76800831 -12899068.76800831 -8624762.855674796 0 0 0 0 0 98514162.34253062 -12520562.05140028 -12520562.05140028 -8654793.149859741 0 0 0 0 0 98918338.13267151 -11959821.14639972 -11959821.14639972 -8428478.767505068 0 0 0 0 0 99228301.25609381 -12221255.02172745 -12221255.02172745 -8271330.851406756 0 0 0 0 0 99438019.84242861 -11597490.72869951 -11597490.72869951 -8436070.675168179 0 0 0 0 0 99926944.74789445 -11237566.48209569 -11237566.48209569 -8432155.976974804 0 0 0 0 0 100386715.2515528 -10880347.99663484 -10880347.99663484 -8417188.933559148 0 0 0 0 0 100818674.1282781 -10527111.88890381 -10527111.88890381 -8391863.783518165 0 0 0 0 0 101222454.613836 -10178227.19346773 -10178227.19346773 -8356298.548635381 0 0 0 0 0 102096066.2676183 -9620077.503876258 -9620077.503876258 -8019209.017396497 0 0 0 0 0 101598694.7328117 -9835370.362104785 -9835370.362104785 -8311803.880066648 0 0 0 0 0 101745315.5973967 -9402186.855695119 -9402186.855695119 -8063944.71828424 0 0 0 0 0 102070625.9330076 -9080043.365255106 -9080043.365255106 -8011068.598766401 0 0 0 0 0 102375213.9483835 -8762820.205620587 -8762820.205620587 -7950865.382982865 0 0 0 0 0 102659693.2292123 -8451805.286209797 -8451805.286209797 -7884438.838364653 0 0 0 0 0 102925099.7788917 -8148316.960948889 -8148316.960948889 -7811540.31510688 0 0 0 0 0 103168501.0239147 -7850335.722844807 -7850335.722844807 -7730725.161356143 0 0 0 0 0 103510683.7864587 -7700784.414588087 -7700784.414588087 -7521173.46870229 0 0 0 0 0 103169665.5076985 -7522098.757505466 -7522098.757505466 -7479739.212541974 0 0 0 0 0 103367628.7812275 -7253265.482824488 -7253265.482824488 -7396738.124842564 0 0 0 0 0 103551480.5867856 -6989774.684546651 -6989774.684546651 -7320132.257734663 0 0 0 0 0 103730976.5637525 -6726123.190951432 -6726123.190951432 -7232962.863375251 0 0 0 0 0 104015587.2990647 -6598936.076855785 -6598936.076855785 -7049280.220502231 0 0 0 0 0 103698365.4942128 -6448941.926328332 -6448941.926328332 -7011354.556235522 0 0 0 0 0 103855642.1433671 -6204995.608663234 -6204995.608663234 -6923780.603909345 0 0 0 0 0 103998220.5384367 -5967423.537854551 -5967423.537854551 -6833099.789892836 0 0 0 0 0 104129453.434033 -5735633.326317547 -5735633.326317547 -6740405.066155002 0 0 0 0 0 104251209.5912925 -5511256.998760338 -5511256.998760338 -6645745.895851187 0 0 0 0 0 104359323.3598983 -5293986.885300115 -5293986.885300115 -6549458.271489324 0 0 0 0 0 104450426.8692606 -5080930.925011676 -5080930.925011676 -6450715.046459091 0 0 0 0 0 104540192.6183148 -4872792.405628571 -4872792.405628571 -6353438.631546929 0 0 0 0 0 104461206.8089736 -4694786.406649536 -4694786.406649536 -6150225.348602746 0 0 0 0 0 104716421.8666855 -4793201.261740149 -4793201.261740149 -6236528.168379463 0 0 0 0 0 104509599.0960397 -4513040.596700932 -4513040.596700932 -6066128.382639653 0 0 0 0 0 104658156.1756447 -4435143.59402131 -4435143.59402131 -5932442.079136542 0 0 0 0 0 104411950.8618353 -4332731.660233557 -4332731.660233557 -5916410.507420922 0 0 0 0 0 104498798.6702437 -4138295.926220064 -4138295.926220064 -5827887.499329919 0 0 0 0 0 104572747.4334939 -3949440.712351049 -3949440.712351049 -5755779.477010136 0 0 0 0 0 104795470.5793717 -3840604.890905558 -3840604.890905558 -5584404.205919137 0 0 0 0 0 104606646.6831317 -3741500.948978783 -3741500.948978783 -5617899.592828932 0 0 0 0 0 104686245.1667134 -3564129.557258481 -3564129.557258481 -5533040.946400513 0 0 0 0 0 104879318.3075067 -3432651.566502431 -3432651.566502431 -5347819.092626452 0 0 0 0 0 79989522.34366587 -19651389.59679768 -19651389.59679768 -6441086.358410513 0 0 0 0 0 35599157.04684991 -956272.6189386012 -956272.6189386012 673595.6077469724 0 0 0 0 0 36837966.0634341 -2590269.493630582 -2590269.493630582 981733.5557448468 0 0 0 0 0 38001577.89492004 -4353726.288420304 -4353726.288420304 1127790.758224086 0 0 0 0 0 39390147.49782097 -6252404.111590101 -6252404.111590101 1099989.04454408 0 0 0 0 0 40483482.15416641 -8093009.245460611 -8093009.245460611 934581.4389420989 0 0 0 0 0 40551514.27164882 -8119718.4249182 -8119718.4249182 757129.8291946132 0 0 0 0 0 43753163.30539655 -9907296.557059675 -9907296.557059675 1057086.676171287 0 0 0 0 0 45218290.42745209 -11443327.89185654 -11443327.89185654 745398.657423303 0 0 0 0 0 46813845.5865692 -12879843.10558262 -12879843.10558262 382430.7422340916 0 0 0 0 0 48519914.35522505 -14213075.1662218 -14213075.1662218 -27220.1628909994 0 0 0 0 0 52014544.40366125 -15236907.05926753 -15236907.05926753 -225307.3906635235 0 0 0 0 0 49344392.50318746 -13988138.4023866 -13988138.4023866 -49257.17002630793 0 0 0 0 0 53829288.30904575 -16294194.82497676 -16294194.82497676 -714150.1500654409 0 0 0 0 0 55703926.48721468 -17245920.57945691 -17245920.57945691 -1228122.039699867 0 0 0 0 0 57625818.71259797 -18092476.32046125 -18092476.32046125 -1761077.725974782 0 0 0 0 0 59580848.40603793 -18834817.43424816 -18834817.43424816 -2307547.745574212 0 0 0 0 0 61557178.52254369 -19474192.97887157 -19474192.97887157 -2860974.860039168 0 0 0 0 0 63541140.12306925 -20013212.65561816 -20013212.65561816 -3416915.188886294 0 0 0 0 0 65027001.84306926 -19518432.05163311 -19518432.05163311 -3109815.3041044 0 0 0 0 0 66595647.40090627 -19962634.3807785 -19962634.3807785 -3713138.455097368 0 0 0 0 0 68488895.32993522 -20294881.36461269 -20294881.36461269 -4248898.476449971 0 0 0 0 0 70345526.92963007 -20547374.3166559 -20547374.3166559 -4775329.737422748 0 0 0 0 0 72157709.73959959 -20720477.67824731 -20720477.67824731 -5287442.37209592 0 0 0 0 0 73941305.98446402 -20813003.98796044 -20813003.98796044 -5769637.908724022 0 0 0 0 0 75669237.96799357 -20822639.05566875 -20822639.05566875 -6223739.746118318 0 0 0 0 0 77282091.9843511 -20253868.3898668 -20253868.3898668 -5702242.020154237 0 0 0 0 0 77935938.43029039 -20246378.1218248 -20246378.1218248 -6338167.118694359 0 0 0 0 0 79558071.68192294 -20159413.04860884 -20159413.04860884 -6743398.550155645 0 0 0 0 0 81402014.15906964 -19118467.51024282 -19118467.51024282 -5939952.793019601 0 0 0 0 0 82852750.30459791 -18988792.42825648 -18988792.42825648 -6291484.264080029 0 0 0 0 0 84540971.28701426 -18365827.89899866 -18365827.89899866 -6369696.431906398 0 0 0 0 0 83219564.90084907 -18861588.25052916 -18861588.25052916 -6855671.720853828 0 0 0 0 0 85887952.41753645 -18167148.63826949 -18167148.63826949 -6696499.159454417 0 0 0 0 0 87169508.74581698 -17935588.07768772 -17935588.07768772 -6999739.922420518 0 0 0 0 0 88390736.32812485 -17674309.19905217 -17674309.19905217 -7278236.824874659 0 0 0 0 0 89557049.24012055 -17385330.182458 -17385330.182458 -7532769.449211232 0 0 0 0 0 90740978.28267963 -16695715.22112215 -16695715.22112215 -7483607.148926076 0 0 0 0 0 89598043.57907663 -17141844.39958771 -17141844.39958771 -7976520.595436194 0 0 0 0 0 91779666.10041167 -16377526.87447747 -16377526.87447747 -7696836.335079907 0 0 0 0 0 92767442.03613387 -16040618.6851734 -16040618.6851734 -7887706.764139134 0 0 0 0 0 93706584.91765195 -15689544.68285007 -15689544.68285007 -8060178.222482622 0 0 0 0 0 94595702.5440751 -15326986.29069585 -15326986.29069585 -8211468.81119513 0 0 0 0 0 95437348.44455612 -14954642.53237179 -14954642.53237179 -8343303.382431165 0 0 0 0 0 95225690.02876285 -14669087.95568176 -14669087.95568176 -8629681.46872798 0 0 0 0 0 96859701.41472775 -13930343.84153237 -13930343.84153237 -8282573.651282586 0 0 0 0 0 95992964.10331124 -14285801.87160288 -14285801.87160288 -8717904.535902042 0 0 0 0 0 97553495.11973813 -13554144.73843686 -13554144.73843686 -8363466.303755088 0 0 0 0 0 98207452.41253228 -13174846.4035639 -13174846.4035639 -8428540.92188191 0 0 0 0 0 98823406.69703197 -12794104.49603786 -12794104.49603786 -8478470.513890946 0 0 0 0 0 99404686.08295375 -12412124.4671982 -12412124.4671982 -8513464.652859211 0 0 0 0 0 99761227.05152391 -11855220.16161865 -11855220.16161865 -8297953.483188892 0 0 0 0 0 99079184.69414379 -12142500.44599122 -12142500.44599122 -8669700.315361068 0 0 0 0 0 100261189.4726898 -11490433.76364481 -11490433.76364481 -8312038.324414434 0 0 0 0 0 100730478.1757543 -11128208.80802016 -11128208.80802016 -8314374.364068295 0 0 0 0 0 101169891.3712037 -10769018.19482845 -10769018.19482845 -8305530.559631766 0 0 0 0 0 101580465.9515674 -10413959.70231427 -10413959.70231427 -8286342.544453567 0 0 0 0 0 101962132.1829182 -10064343.79627055 -10064343.79627055 -8258536.386439561 0 0 0 0 0 101950214.9719581 -9497219.992316527 -9497219.992316527 -8259578.398315302 0 0 0 0 0 102316763.4002214 -9720465.188867329 -9720465.188867329 -8220529.08439878 0 0 0 0 0 102424091.5295602 -9291516.49394585 -9291516.49394585 -7977769.557917952 0 0 0 0 0 102730360.2804217 -8968260.317757558 -8968260.317757558 -7929333.542457676 0 0 0 0 0 103014890.9975538 -8650538.512266364 -8650538.512266364 -7874294.05730283 0 0 0 0 0 103278685.7982959 -8339258.373185853 -8339258.373185853 -7813010.988955369 0 0 0 0 0 103520742.2335966 -8035546.924342849 -8035546.924342849 -7746209.28666262 0 0 0 0 0 103741241.07073 -7741988.493338315 -7741988.493338315 -7677728.956017483 0 0 0 0 0 103386756.3281065 -7560606.49902865 -7560606.49902865 -7633180.275246799 0 0 0 0 0 103704751.0890986 -7421157.271550562 -7421157.271550562 -7438475.161356297 0 0 0 0 0 103884813.2427628 -7151388.502997562 -7151388.502997562 -7357538.158582013 0 0 0 0 0 104060503.2362776 -6882988.09571839 -6882988.09571839 -7271330.494153363 0 0 0 0 0 104224380.5832395 -6619946.556151728 -6619946.556151728 -7187303.40695145 0 0 0 0 0 103897285.4094454 -6468461.833072355 -6468461.833072355 -7142685.733469293 0 0 0 0 0 104166659.8489208 -6347915.600844703 -6347915.600844703 -6968196.904298328 0 0 0 0 0 104305319.0059988 -6103842.293640519 -6103842.293640519 -6885141.576348333 0 0 0 0 0 104432279.3993279 -5866572.980924428 -5866572.980924428 -6797969.747751587 0 0 0 0 0 104547794.2293554 -5635981.665613939 -5635981.665613939 -6708242.472141428 0 0 0 0 0 104651151.8296873 -5413127.061262397 -5413127.061262397 -6617646.395502673 0 0 0 0 0 104742826.1387303 -5197004.85045991 -5197004.85045991 -6524359.549784878 0 0 0 0 0 104825877.233771 -4984268.855342284 -4984268.855342284 -6427491.039554146 0 0 0 0 0 104900340.0294081 -4778126.469719443 -4778126.469719443 -6332102.305792373 0 0 0 0 0 104772756.2484973 -4606607.662721443 -4606607.662721443 -6158531.005174625 0 0 0 0 0 104623159.8582433 -4673171.131566892 -4673171.131566892 -6253896.111330738 0 0 0 0 0 104850384.8661935 -4403382.527710489 -4403382.527710489 -6036242.852623431 0 0 0 0 0 104567167.1339377 -4321645.389377303 -4321645.389377303 -5974632.727367647 0 0 0 0 0 104743731.2887598 -4234863.518310357 -4234863.518310357 -5848653.984986484 0 0 0 0 0 104824762.7805836 -4052387.11919216 -4052387.11919216 -5762276.530462174 0 0 0 0 0 104880032.3537553 -3884933.97352514 -3884933.97352514 -5693647.993841485 0 0 0 0 0 104737493.9076183 -3800735.425377408 -3800735.425377408 -5683141.236080645 0 0 0 0 0 104868885.3342768 -3654578.33541583 -3654578.33541583 -5529359.079045688 0 0 0 0 0 104976577.8608063 -3485318.526946948 -3485318.526946948 -5448251.416763463 0 0 0 0 0 104774777.2147651 -3375472.551198666 -3375472.551198666 -5432628.741082187 0 0 0 0 0 104957757.885443 -3254636.205860456 -3254636.205860456 -5262139.025529666 0 0 0 0 0 81023697.66430916 -19612661.38531428 -19612661.38531428 -6228198.409518528 0 0 0 0 0 34723445.626095 -734809.5016686032 -734809.5016686032 357164.6399981531 0 0 0 0 0 35455550.68731948 -2389234.535165791 -2389234.535165791 576900.6558284577 0 0 0 0 0 36083394.12483387 -4176026.189894004 -4176026.189894004 546963.3186898248 0 0 0 0 0 37069110.45259873 -6047495.986020127 -6047495.986020127 395145.6645705118 0 0 0 0 0 38465187.38553946 -7902414.144646213 -7902414.144646213 321371.6846741682 0 0 0 0 0 41798291.64958631 -9803744.518561795 -9803744.518561795 704447.6474184713 0 0 0 0 0 42095337.71523298 -9758125.657623759 -9758125.657623759 559440.7329276484 0 0 0 0 0 43785549.58854543 -11307281.19521577 -11307281.19521577 310661.676002167 0 0 0 0 0 45599777.15800453 -12757616.53726549 -12757616.53726549 9397.88131280563 0 0 0 0 0 47523897.16769785 -14104051.87389276 -14104051.87389276 -339273.8229321698 0 0 0 0 0 51287453.96984167 -15161847.44704451 -15161847.44704451 -450059.6211937976 0 0 0 0 0 50323211.51698195 -15438902.26199619 -15438902.26199619 -477425.2305877095 0 0 0 0 0 53300071.15980285 -16228905.14583288 -16228905.14583288 -885000.8129982637 0 0 0 0 0 55365456.3728524 -17188919.80711666 -17188919.80711666 -1347769.569878137 0 0 0 0 0 57468514.5208104 -18042131.79544089 -18042131.79544089 -1832891.351459496 0 0 0 0 0 59597413.19717284 -18789366.45959114 -18789366.45959114 -2334502.419077674 0 0 0 0 0 61735995.74117444 -19432215.42267375 -19432215.42267375 -2846809.336601653 0 0 0 0 0 63875159.18974362 -19973444.13922504 -19973444.13922504 -3364426.335111215 0 0 0 0 0 65525345.8138729 -20455744.37335427 -20455744.37335427 -3968842.004111079 0 0 0 0 0 67059027.76000795 -19936395.28793377 -19936395.28793377 -3620491.760616554 0 0 0 0 0 69070606.97900559 -20267433.50474885 -20267433.50474885 -4128550.310011564 0 0 0 0 0 71050684.55069806 -20513836.34828721 -20513836.34828721 -4625183.676322117 0 0 0 0 0 73001544.95881161 -20683289.73795596 -20683289.73795596 -5111473.842267158 0 0 0 0 0 74904962.54144083 -20772892.90738016 -20772892.90738016 -5571031.698527824 0 0 0 0 0 76753184.09921893 -20787523.26513958 -20787523.26513958 -6012021.824460953 0 0 0 0 0 77404488.94741391 -20776380.39307411 -20776380.39307411 -6646030.398901617 0 0 0 0 0 78969468.76611768 -20204190.25567194 -20204190.25567194 -6126222.534163794 0 0 0 0 0 80605076.18046142 -20109265.5743378 -20109265.5743378 -6522727.733132365 0 0 0 0 0 81443024.19156107 -19514192.81433246 -19514192.81433246 -6809250.138924509 0 0 0 0 0 82864944.23388712 -19334938.62546448 -19334938.62546448 -7156858.673940218 0 0 0 0 0 84588234.38876668 -18658788.78439501 -18658788.78439501 -7191066.778027039 0 0 0 0 0 84264193.32758334 -18817988.52344371 -18817988.52344371 -6634069.351371132 0 0 0 0 0 85899214.6537347 -18422131.49629311 -18422131.49629311 -7501251.610129397 0 0 0 0 0 87150835.28748524 -18152738.02220058 -18152738.02220058 -7783530.025093401 0 0 0 0 0 88348798.85084963 -17856350.32147139 -17856350.32147139 -8040288.216859899 0 0 0 0 0 89495113.73719007 -17534347.65296935 -17534347.65296935 -8274321.840897148 0 0 0 0 0 90668406.14209902 -16814441.16051252 -16814441.16051252 -8188606.212751363 0 0 0 0 0 90678409.94544218 -17071826.93260309 -17071826.93260309 -7764364.266472098 0 0 0 0 0 91689664.18896465 -16467471.4666872 -16467471.4666872 -8376209.99578135 0 0 0 0 0 92666636.85633406 -16105317.03731644 -16105317.03731644 -8542290.897369741 0 0 0 0 0 93594451.98713499 -15730385.83821264 -15730385.83821264 -8686337.125896728 0 0 0 0 0 94472829.25925705 -15345168.18981229 -15345168.18981229 -8809932.432580587 0 0 0 0 0 95304289.60330251 -14951335.26888703 -14951335.26888703 -8912748.803264074 0 0 0 0 0 96233847.58999078 -14572716.12566227 -14572716.12566227 -8454359.682410302 0 0 0 0 0 96720375.89424726 -13897693.9116308 -13897693.9116308 -8789305.115626071 0 0 0 0 0 96987266.87472375 -14185245.01738603 -14185245.01738603 -8549372.241569225 0 0 0 0 0 97408642.13463552 -13506078.84312134 -13506078.84312134 -8843886.533796042 0 0 0 0 0 98058245.3583467 -13112991.17978759 -13112991.17978759 -8882748.005689381 0 0 0 0 0 98670689.57290171 -12719662.67524469 -12719662.67524469 -8906915.055608822 0 0 0 0 0 99249108.7550109 -12326815.8849844 -12326815.8849844 -8918341.251160258 0 0 0 0 0 99610022.27987124 -11766287.5854554 -11766287.5854554 -8671993.704216756 0 0 0 0 0 99950292.99407053 -12031633.89566063 -12031633.89566063 -8537029.262132101 0 0 0 0 0 100108746.955893 -11392915.37160429 -11392915.37160429 -8662775.042824581 0 0 0 0 0 100577097.7206193 -11022440.02253789 -11022440.02253789 -8641891.595061015 0 0 0 0 0 101016282.2728276 -10656253.39693643 -10656253.39693643 -8610513.394853681 0 0 0 0 0 101427348.2967893 -10295180.43308041 -10295180.43308041 -8569602.512748877 0 0 0 0 0 101810171.1555429 -9939396.640913222 -9939396.640913222 -8518433.500533711 0 0 0 0 0 102647189.2023113 -9381222.593839584 -9381222.593839584 -8173494.562524196 0 0 0 0 0 102166148.8757238 -9589802.372260667 -9589802.372260667 -8459243.787125435 0 0 0 0 0 102279117.0137509 -9164828.659962056 -9164828.659962056 -8200758.239986435 0 0 0 0 0 102586586.7116907 -8837739.174694831 -8837739.174694831 -8134327.490877464 0 0 0 0 0 102873012.075722 -8517133.66549886 -8517133.66549886 -8061539.562801016 0 0 0 0 0 103139166.4456672 -8203567.089802757 -8203567.089802757 -7982737.95840525 0 0 0 0 0 103385300.9352979 -7899068.591308647 -7899068.591308647 -7897320.385738422 0 0 0 0 0 103609079.4944859 -7597732.429767296 -7597732.429767296 -7796592.401198735 0 0 0 0 0 103931011.0907367 -7459078.591554996 -7459078.591554996 -7602301.070447744 0 0 0 0 0 103581939.2279731 -7284748.268231908 -7284748.268231908 -7546830.211046584 0 0 0 0 0 103764308.7772455 -7015163.334076617 -7015163.334076617 -7461834.981042746 0 0 0 0 0 103937205.6101859 -6748099.319085826 -6748099.319085826 -7371939.715351873 0 0 0 0 0 104103126.9647132 -6484000.832559261 -6484000.832559261 -7275703.83226877 0 0 0 0 0 104373641.0971979 -6362983.603608544 -6362983.603608544 -7100617.566040625 0 0 0 0 0 104051150.2696084 -6217588.525078941 -6217588.525078941 -7049784.669087948 0 0 0 0 0 104192981.8836822 -5974008.136440414 -5974008.136440414 -6954276.429725356 0 0 0 0 0 104322758.9587713 -5737373.901172673 -5737373.901172673 -6856489.294381688 0 0 0 0 0 104441261.5794494 -5507900.232285569 -5507900.232285569 -6756565.10767246 0 0 0 0 0 104547660.2676964 -5285317.904227613 -5285317.904227613 -6654782.624046165 0 0 0 0 0 104640493.5469061 -5068396.520612487 -5068396.520612487 -6552177.750856936 0 0 0 0 0 104726339.8440261 -4856913.071169071 -4856913.071169071 -6448393.569726547 0 0 0 0 0 104803938.5163178 -4652271.049802264 -4652271.049802264 -6344225.478801082 0 0 0 0 0 104691165.1226452 -4478472.225287192 -4478472.225287192 -6150743.542574132 0 0 0 0 0 104965499.2251729 -4579078.141238781 -4579078.141238781 -6236127.879428773 0 0 0 0 0 104763715.9119498 -4291899.59185499 -4291899.59185499 -6052290.270438808 0 0 0 0 0 104901826.0213414 -4227378.153658635 -4227378.153658635 -5953315.225945135 0 0 0 0 0 104638537.046947 -4137973.190848491 -4137973.190848491 -5887950.761597847 0 0 0 0 0 104711327.7743052 -3954478.046214223 -3954478.046214223 -5794143.402631041 0 0 0 0 0 104787233.0364972 -3784600.735063551 -3784600.735063551 -5657867.755313123 0 0 0 0 0 104793706.4915173 -3611064.887350021 -3611064.887350021 -5615802.900301551 0 0 0 0 0 104848851.654412 -3422859.793835288 -3422859.793835288 -5518008.759642535 0 0 0 0 0 105025111.59193 -3293289.136161895 -3293289.136161895 -5335221.786669277 0 0 0 0 0 104845626.6491601 -3180324.826492601 -3180324.826492601 -5306196.091999362 0 0 0 0 0 105007904.189904 -3092830.590900139 -3092830.590900139 -5180646.219340903 0 0 0 0 0 81074872.32169753 -20017606.15105493 -20017606.15105493 -7126914.532089691 0 0 0 0 0 33451147.57391737 -1033809.501487469 -1033809.501487469 -76342.38431056691 0 0 0 0 0 34502637.74000111 -2612747.376749294 -2612747.376749294 361004.5753131901 0 0 0 0 0 35948329.01295225 -4198833.852126356 -4198833.852126356 583410.2525619406 0 0 0 0 0 37103740.59369316 -5991269.105596234 -5991269.105596234 564323.0034068249 0 0 0 0 0 38436164.70033183 -7875193.03768959 -7875193.03768959 456156.7390710713 0 0 0 0 0 39768284.68353491 -9674469.048409645 -9674469.048409645 270960.3143930483 0 0 0 0 0 40031544.23942333 -9628898.858988268 -9628898.858988268 163151.6359224081 0 0 0 0 0 43295401.6132492 -11417716.38529825 -11417716.38529825 413167.9115266082 0 0 0 0 0 44930280.6939613 -12930008.66410572 -12930008.66410572 66340.30753544181 0 0 0 0 0 46689828.11895112 -14334983.86762033 -14334983.86762033 -330344.2856866104 0 0 0 0 0 48554960.31972405 -15627703.33865261 -15627703.33865261 -770816.9104952218 0 0 0 0 0 52207453.97075677 -16554910.76091904 -16554910.76091904 -962587.2566487282 0 0 0 0 0 49539379.30798405 -15341711.35569209 -15341711.35569209 -730744.2991521518 0 0 0 0 0 54156508.15035146 -17560650.49964473 -17560650.49964473 -1476121.027466701 0 0 0 0 0 56157336.1485283 -18455452.389047 -18455452.389047 -2011057.790179937 0 0 0 0 0 58196843.3678861 -19240516.54351085 -19240516.54351085 -2561429.947816711 0 0 0 0 0 60258929.45810281 -19917317.4596318 -19917317.4596318 -3121049.167803134 0 0 0 0 0 62333502.2808643 -20488251.90457318 -20488251.90457318 -3683977.207547048 0 0 0 0 0 64407117.01964819 -20957050.82397646 -20957050.82397646 -4245083.149425624 0 0 0 0 0 66001633.86114416 -20416285.32062037 -20416285.32062037 -3882187.41852189 0 0 0 0 0 67501535.19743791 -20806559.6104029 -20806559.6104029 -4514408.870036171 0 0 0 0 0 69458565.34529851 -21069798.76149565 -21069798.76149565 -5049616.512948012 0 0 0 0 0 71380952.97452103 -21252312.69566564 -21252312.69566564 -5575356.375990604 0 0 0 0 0 73243760.45744093 -21351438.30775748 -21351438.30775748 -6077186.381584051 0 0 0 0 0 75079245.9786265 -21377894.19867776 -21377894.19867776 -6553257.752638546 0 0 0 0 0 76846705.65961389 -21328776.69651877 -21328776.69651877 -6989982.780070503 0 0 0 0 0 78503149.44882761 -20730838.54560709 -20730838.54560709 -6428474.748305096 0 0 0 0 0 79066610.28333892 -20678554.08761244 -20678554.08761244 -7058533.230985885 0 0 0 0 0 80695368.31825912 -20529252.61487367 -20529252.61487367 -7449386.856566538 0 0 0 0 0 82531228.90324751 -19474003.55526216 -19474003.55526216 -6595061.934320609 0 0 0 0 0 83994567.55313388 -19286133.80477935 -19286133.80477935 -6932539.647766572 0 0 0 0 0 85641442.97831583 -18610270.53924521 -18610270.53924521 -6967462.944491184 0 0 0 0 0 84276650.19625778 -19123187.34855599 -19123187.34855599 -7491834.57907872 0 0 0 0 0 86979314.18189928 -18366975.86354065 -18366975.86354065 -7278948.40334647 0 0 0 0 0 88252447.99778475 -18090999.20588601 -18090999.20588601 -7564352.615095413 0 0 0 0 0 89466315.15432759 -17786666.6928662 -17786666.6928662 -7823041.806602255 0 0 0 0 0 90627675.57952435 -17457234.91133758 -17457234.91133758 -8057822.873082519 0 0 0 0 0 91755732.98079711 -16737904.6194654 -16737904.6194654 -7979444.560954712 0 0 0 0 0 90603224.6778328 -17190725.85139207 -17190725.85139207 -8488195.706379252 0 0 0 0 0 92777810.78511617 -16384018.86435374 -16384018.86435374 -8171153.03892237 0 0 0 0 0 93745656.43252267 -16016833.14897491 -16016833.14897491 -8343421.214193415 0 0 0 0 0 94663718.2776622 -15636864.56825154 -15636864.56825154 -8494234.576797031 0 0 0 0 0 95532172.26999545 -15246799.77899323 -15246799.77899323 -8624050.946324661 0 0 0 0 0 96352881.77411777 -14847821.07270218 -14847821.07270218 -8733610.284392942 0 0 0 0 0 96093966.31589662 -14551613.50990937 -14551613.50990937 -8998356.959086817 0 0 0 0 0 97698255.01794745 -13792986.79420138 -13792986.79420138 -8626563.006954905 0 0 0 0 0 96840977.65373243 -14146559.81027015 -14146559.81027015 -9064697.289099874 0 0 0 0 0 98368900.67292978 -13397741.97662637 -13397741.97662637 -8687894.797986163 0 0 0 0 0 98999822.91971222 -13001122.63281704 -13001122.63281704 -8733748.783559101 0 0 0 0 0 99591997.2105616 -12604562.81739928 -12604562.81739928 -8764589.59370878 0 0 0 0 0 100149153.502342 -12208820.96732222 -12208820.96732222 -8781390.695286132 0 0 0 0 0 100459297.9647643 -11653020.36179649 -11653020.36179649 -8546106.567605309 0 0 0 0 0 99792885.7012805 -11935374.64388762 -11935374.64388762 -8914281.982916348 0 0 0 0 0 100936904.8111304 -11277382.15266063 -11277382.15266063 -8543063.912105924 0 0 0 0 0 101383553.221032 -10905198.13699765 -10905198.13699765 -8528698.865105743 0 0 0 0 0 101800442.1201931 -10537374.59386988 -10537374.59386988 -8503702.423880486 0 0 0 0 0 102188238.5511258 -10175017.43995259 -10175017.43995259 -8469461.927474333 0 0 0 0 0 102548662.5434506 -9818536.883928157 -9818536.883928157 -8425738.910589462 0 0 0 0 0 102497675.93399 -9247041.618152227 -9247041.618152227 -8393815.505941615 0 0 0 0 0 102882307.2688337 -9468222.948473183 -9468222.948473183 -8373170.393585114 0 0 0 0 0 102955939.5828566 -9047544.265999151 -9047544.265999151 -8118679.634288048 0 0 0 0 0 103242375.4137079 -8720090.837635981 -8720090.837635981 -8057512.52838932 0 0 0 0 0 103507400.6996646 -8399278.132301003 -8399278.132301003 -7989969.250832734 0 0 0 0 0 103751723.3390766 -8085541.611909486 -8085541.611909486 -7916478.810528087 0 0 0 0 0 103971936.4280384 -7782374.296760819 -7782374.296760819 -7839577.011922857 0 0 0 0 0 104165261.3788858 -7491604.063019231 -7491604.063019231 -7763657.821367822 0 0 0 0 0 103804071.5419427 -7312781.400882416 -7312781.400882416 -7699299.909477997 0 0 0 0 0 104107192.247171 -7180369.486713253 -7180369.486713253 -7513219.525346945 0 0 0 0 0 104279388.194526 -6905695.427591897 -6905695.427591897 -7418664.374696699 0 0 0 0 0 104440925.6376938 -6637561.546371249 -6637561.546371249 -7326931.035746697 0 0 0 0 0 104588040.9450485 -6374155.796948584 -6374155.796948584 -7234497.961874894 0 0 0 0 0 104255240.4287292 -6227102.067727295 -6227102.067727295 -7176842.98966981 0 0 0 0 0 104510163.6658697 -6112918.394351986 -6112918.394351986 -7011312.93958887 0 0 0 0 0 104634689.955286 -5869901.763383349 -5869901.763383349 -6919563.715682871 0 0 0 0 0 104747553.0554792 -5634139.930554226 -5634139.930554226 -6825264.097216805 0 0 0 0 0 104848459.4292431 -5405972.474306537 -5405972.474306537 -6729221.040974054 0 0 0 0 0 104938374.8664457 -5184631.29168366 -5184631.29168366 -6631027.780153645 0 0 0 0 0 105018808.7336281 -4968574.698055672 -4968574.698055672 -6529762.725128952 0 0 0 0 0 105090398.0773997 -4758754.75226693 -4758754.75226693 -6428607.848999586 0 0 0 0 0 105153415.6232346 -4555146.177003651 -4555146.177003651 -6326770.81216687 0 0 0 0 0 105028536.029873 -4381431.964984185 -4381431.964984185 -6136078.414201663 0 0 0 0 0 104870565.2884788 -4452436.012930605 -4452436.012930605 -6239631.232002598 0 0 0 0 0 105078529.8972089 -4198766.908446606 -4198766.908446606 -6039839.309878337 0 0 0 0 0 104819329.3781817 -4106050.521338631 -4106050.521338631 -5951181.374160221 0 0 0 0 0 104953866.8328962 -4046529.850571365 -4046529.850571365 -5860915.28231823 0 0 0 0 0 105004562.5097898 -3868649.702646674 -3868649.702646674 -5763880.52159402 0 0 0 0 0 105023470.9572797 -3711840.861070339 -3711840.861070339 -5685576.058588536 0 0 0 0 0 105084762.9729687 -3520451.897588722 -3520451.897588722 -5549703.385541514 0 0 0 0 0 105143952.2043676 -3348753.269866854 -3348753.269866854 -5448042.30193147 0 0 0 0 0 105061713.7402309 -3256181.273587447 -3256181.273587447 -5440863.760085396 0 0 0 0 0 105047962.7318036 -3105784.740371902 -3105784.740371902 -5315701.891353033 0 0 0 0 0 104895769.4742759 -3033804.368920416 -3033804.368920416 -5263742.817791337 0 0 0 0 0 105052300.6152975 -2921747.450897457 -2921747.450897457 -5096910.13662137 0 0 0 0 0 82204292.90479143 -19967116.80464319 -19967116.80464319 -6904312.603058232 0 0 0 0 0 32468554.34103604 -834329.53671459 -834329.53671459 -354824.0802652577 0 0 0 0 0 33481218.59824443 -2359122.358404566 -2359122.358404566 1947.754638316948 0 0 0 0 0 34006078.73316267 -3992368.355273506 -3992368.355273506 -25984.86695500893 0 0 0 0 0 34957712.81712768 -5773381.593036546 -5773381.593036546 -104432.9535963436 0 0 0 0 0 36304861.01127873 -7637815.727455329 -7637815.727455329 -215675.6401613368 0 0 0 0 0 37895075.68618126 -9460433.366020609 -9460433.366020609 -322260.5968834942 0 0 0 0 0 41290435.61180146 -11366575.57904379 -11366575.57904379 14869.75170836515 0 0 0 0 0 41759337.80253213 -11255693.74734867 -11255693.74734867 -64054.73565215972 0 0 0 0 0 43628346.26741441 -12781641.70775021 -12781641.70775021 -345675.6172672469 0 0 0 0 0 45618322.40954934 -14199876.36637172 -14199876.36637172 -678165.264456563 0 0 0 0 0 47709504.88317792 -15505367.52258657 -15505367.52258657 -1055973.439166266 0 0 0 0 0 51630905.05110283 -16468770.33113833 -16468770.33113833 -1158939.622933629 0 0 0 0 0 50509547.73124862 -16805964.87291654 -16805964.87291654 -1248817.015663827 0 0 0 0 0 53782313.20898713 -17483750.36150796 -17483750.36150796 -1617843.036909264 0 0 0 0 0 55976282.79285701 -18386139.72177707 -18386139.72177707 -2101466.915136557 0 0 0 0 0 58197675.14225801 -19177254.98616286 -19177254.98616286 -2604183.180567191 0 0 0 0 0 60433818.76615366 -19858316.95999252 -19858316.95999252 -3119437.512077531 0 0 0 0 0 62669632.45886563 -20432144.26858982 -20432144.26858982 -3641876.394421042 0 0 0 0 0 64895080.99526773 -20902232.95079118 -20902232.95079118 -4166160.609085668 0 0 0 0 0 66471352.03248318 -21328122.11267258 -21328122.11267258 -4799616.482082058 0 0 0 0 0 68105963.83571383 -20766299.57900159 -20766299.57900159 -4397520.597687253 0 0 0 0 0 70179403.60469703 -21027882.17241808 -21027882.17241808 -4905785.077333538 0 0 0 0 0 72207398.89271745 -21207380.23414273 -21207380.23414273 -5403714.821785868 0 0 0 0 0 74200715.28871654 -21305025.95806208 -21305025.95806208 -5882006.176969422 0 0 0 0 0 76139022.98822303 -21322343.55760222 -21322343.55760222 -6340764.600788425 0 0 0 0 0 78017530.78426205 -21271133.42761904 -21271133.42761904 -6775887.891452648 0 0 0 0 0 78589327.33181921 -21217840.20608924 -21217840.20608924 -7404464.200684277 0 0 0 0 0 80211288.27712619 -20622510.40429883 -20622510.40429883 -6836200.950981115 0 0 0 0 0 81835112.13817684 -20463948.71945779 -20463948.71945779 -7216770.127216532 0 0 0 0 0 82550564.59896237 -19825169.23653745 -19825169.23653745 -7474376.551467379 0 0 0 0 0 83998637.36363579 -19598925.36128486 -19598925.36128486 -7804920.300293148 0 0 0 0 0 85648518.68009514 -18874436.75272668 -18874436.75272668 -7805667.436412943 0 0 0 0 0 85405903.23933327 -19062023.89450631 -19062023.89450631 -7262050.269482267 0 0 0 0 0 86959125.90540829 -18589159.68070835 -18589159.68070835 -8092043.318495299 0 0 0 0 0 88207470.97943191 -18276104.25062906 -18276104.25062906 -8352164.303777651 0 0 0 0 0 89398478.18654615 -17936635.02772572 -17936635.02772572 -8587944.9309981 0 0 0 0 0 90541045.08321933 -17574772.22922841 -17574772.22922841 -8799634.898151159 0 0 0 0 0 91662110.74784938 -16825802.07558993 -16825802.07558993 -8676096.954229319 0 0 0 0 0 91735644.72941451 -17106417.42655595 -17106417.42655595 -8272146.621317784 0 0 0 0 0 92670858.90181315 -16446170.14581849 -16446170.14581849 -8840996.2332124 0 0 0 0 0 93627566.54549496 -16053717.66635076 -16053717.66635076 -8984046.260270897 0 0 0 0 0 94534620.2503624 -15650254.05686723 -15650254.05686723 -9105441.282149319 0 0 0 0 0 95393161.64485164 -15238401.55549408 -15238401.55549408 -9206356.488658588 0 0 0 0 0 96206154.8722249 -14820474.35654417 -14820474.35654417 -9287139.112968065 0 0 0 0 0 97126796.78915323 -14443249.13696448 -14443249.13696448 -8825281.505686764 0 0 0 0 0 97546823.53654534 -13738731.14379957 -13738731.14379957 -9115050.795449009 0 0 0 0 0 97856480.69347139 -14034288.86729668 -14034288.86729668 -8899155.101977298 0 0 0 0 0 98212997.92349254 -13329004.55994247 -13329004.55994247 -9149106.665460562 0 0 0 0 0 98840361.12739092 -12919252.26330923 -12919252.26330923 -9167455.542915562 0 0 0 0 0 99430000.37245843 -12511388.57097652 -12511388.57097652 -9172359.082127877 0 0 0 0 0 99985127.30369954 -12105668.69417766 -12105668.69417766 -9163972.551928757 0 0 0 0 0 100300865.9157348 -11548194.66393076 -11548194.66393076 -8899124.749930564 0 0 0 0 0 100669786.5351645 -11815660.62707484 -11815660.62707484 -8786747.235965835 0 0 0 0 0 100777528.0654776 -11164171.25943887 -11164171.25943887 -8871883.220911345 0 0 0 0 0 101223883.227103 -10784733.61822493 -10784733.61822493 -8834274.845274236 0 0 0 0 0 101641332.9325036 -10411126.35459915 -10411126.35459915 -8787058.819119714 0 0 0 0 0 102029953.1891543 -10042590.60676684 -10042590.60676684 -8729544.413560327 0 0 0 0 0 102391786.7387055 -9680952.167120975 -9680952.167120975 -8663646.260300035 0 0 0 0 0 103192404.17399 -9124165.730370676 -9124165.730370676 -8311921.937028345 0 0 0 0 0 102727732.1278623 -9326310.9922473 -9326310.9922473 -8590371.304510562 0 0 0 0 0 102807606.836324 -8910034.688994939 -8910034.688994939 -8321063.010882191 0 0 0 0 0 103095870.6443189 -8579607.081121018 -8579607.081121018 -8241588.235201176 0 0 0 0 0 103363147.8784079 -8256398.512949126 -8256398.512949126 -8156333.505871413 0 0 0 0 0 103610948.2453332 -7941659.502756808 -7941659.502756808 -8064527.728893636 0 0 0 0 0 103837644.9620825 -7634578.508789244 -7634578.508789244 -7962188.87449699 0 0 0 0 0 104032878.3500218 -7340825.22418405 -7340825.22418405 -7854209.644652355 0 0 0 0 0 104338827.5924558 -7207086.965551106 -7207086.965551106 -7669032.315268124 0 0 0 0 0 103981353.8081226 -7038172.089006281 -7038172.089006281 -7606444.246559371 0 0 0 0 0 104154366.7862641 -6765533.894783194 -6765533.894783194 -7511736.245106569 0 0 0 0 0 104316559.4173931 -6495462.85622 -6495462.85622 -7409662.970998191 0 0 0 0 0 104466841.7610784 -6232586.050737293 -6232586.050737293 -7304783.067799975 0 0 0 0 0 104722273.2279582 -6118277.888686618 -6118277.888686618 -7139306.759171911 0 0 0 0 0 104394743.6215414 -5977493.142663673 -5977493.142663673 -7075803.704057248 0 0 0 0 0 104522480.2599133 -5735301.995718188 -5735301.995718188 -6972669.19498211 0 0 0 0 0 104638619.1449082 -5500522.19996799 -5500522.19996799 -6867529.021576981 0 0 0 0 0 104742717.5122968 -5272825.338374943 -5272825.338374943 -6760393.147328125 0 0 0 0 0 104834867.6681254 -5051786.532881211 -5051786.532881211 -6652487.77113199 0 0 0 0 0 104917542.043374 -4836960.998745968 -4836960.998745968 -6543952.265909879 0 0 0 0 0 104991923.2875445 -4628232.681637336 -4628232.681637336 -6434528.099076452 0 0 0 0 0 105057448.0926973 -4425613.93986667 -4425613.93986667 -6324931.712562257 0 0 0 0 0 104940309.7052937 -4261933.377873496 -4261933.377873496 -6134391.157964283 0 0 0 0 0 105210352.2015243 -4356610.840395153 -4356610.840395153 -6223653.831694985 0 0 0 0 0 104990978.749885 -4076024.114725641 -4076024.114725641 -6028822.443990576 0 0 0 0 0 105123017.033348 -4016402.499105824 -4016402.499105824 -5940385.130454477 0 0 0 0 0 104868184.680856 -3927439.008077219 -3927439.008077219 -5851984.859494962 0 0 0 0 0 104915212.7446242 -3756633.786156013 -3756633.786156013 -5752046.520438374 0 0 0 0 0 104940112.3999962 -3588125.636771864 -3588125.636771864 -5651789.064880555 0 0 0 0 0 104966621.644237 -3423845.335796976 -3423845.335796976 -5552286.045031645 0 0 0 0 0 105024522.5835127 -3266793.975307227 -3266793.975307227 -5455154.86510842 0 0 0 0 0 105085334.0097243 -3092737.22964516 -3092737.22964516 -5295579.417677558 0 0 0 0 0 105077876.4365091 -2959620.333597613 -2959620.333597613 -5169758.884404887 0 0 0 0 0 104959438.735223 -2869804.292218632 -2869804.292218632 -5148819.693255885 0 0 0 0 0 105083907.3676673 -2767901.084134726 -2767901.084134726 -5013362.659554161 0 0 0 0 0 82221566.32297514 -20329050.2135871 -20329050.2135871 -7811216.244686266 0 0 0 0 0 31211740.62359788 -1080737.702929744 -1080737.702929744 -716256.5472320819 0 0 0 0 0 32229759.04784523 -2797775.855971947 -2797775.855971947 -548992.7843603599 0 0 0 0 0 34062654.60084607 -3954338.64022005 -3954338.64022005 68045.40402829247 0 0 0 0 0 35021177.8932374 -5728255.129063954 -5728255.129063954 2860.792136367596 0 0 0 0 0 36210191.12423128 -7634447.414817663 -7634447.414817663 -105155.5967830623 0 0 0 0 0 37644751.24453486 -9511737.950648285 -9511737.950648285 -251862.6991854541 0 0 0 0 0 39200685.97709425 -11285234.62765802 -11285234.62765802 -465473.3514942988 0 0 0 0 0 39651537.5571914 -11170607.83803722 -11170607.83803722 -510016.061026246 0 0 0 0 0 42969517.27549148 -12956422.77948815 -12956422.77948815 -307226.6187671594 0 0 0 0 0 44779879.27082245 -14436347.70422422 -14436347.70422422 -685271.0832596157 0 0 0 0 0 46708094.76142199 -15800406.26089267 -15800406.26089267 -1111397.962392153 0 0 0 0 0 48732441.59187936 -17044943.11891926 -17044943.11891926 -1578876.806991168 0 0 0 0 0 52536396.30939303 -17869064.80239855 -17869064.80239855 -1758903.097698717 0 0 0 0 0 49882204.4954946 -16695690.2335309 -16695690.2335309 -1473726.925302364 0 0 0 0 0 54619798.09263053 -18815582.8616267 -18815582.8616267 -2293216.231293703 0 0 0 0 0 56745382.61859458 -19646330.20049401 -19646330.20049401 -2845162.361012558 0 0 0 0 0 58899148.71532454 -20363101.19096651 -20363101.19096651 -3408654.493565916 0 0 0 0 0 61065409.77656296 -20968054.77313662 -20968054.77313662 -3977351.587560675 0 0 0 0 0 63234323.2911538 -21465265.2094298 -21465265.2094298 -4545675.495851288 0 0 0 0 0 65392352.51105297 -21859032.90895085 -21859032.90895085 -5107995.858432475 0 0 0 0 0 67096633.50483625 -21273152.89693136 -21273152.89693136 -4687759.729116105 0 0 0 0 0 68516286.79100469 -21606796.98272029 -21606796.98272029 -5343403.60795648 0 0 0 0 0 70532545.51970389 -21797534.57168526 -21797534.57168526 -5871620.570099209 0 0 0 0 0 72507819.76422635 -21903492.76820118 -21903492.76820118 -6385773.441310477 0 0 0 0 0 74443947.08374447 -21930379.74425441 -21930379.74425441 -6873036.585030999 0 0 0 0 0 76326859.52697937 -21888925.65454148 -21888925.65454148 -7337243.770719764 0 0 0 0 0 78108412.83750814 -21775901.94237319 -21775901.94237319 -7756139.381208963 0 0 0 0 0 79782872.1596316 -21152245.95572228 -21152245.95572228 -7177728.675467754 0 0 0 0 0 80261049.33036685 -21051414.06149126 -21051414.06149126 -7782351.744598215 0 0 0 0 0 81896420.81626704 -20848265.049551 -20848265.049551 -8163853.048849549 0 0 0 0 0 83726255.58697416 -19771292.44226034 -19771292.44226034 -7246420.173845109 0 0 0 0 0 85189014.58686246 -19533600.74428246 -19533600.74428246 -7575116.706333753 0 0 0 0 0 86787008.36245945 -18808744.15507444 -18808744.15507444 -7575961.302889002 0 0 0 0 0 85407710.75718617 -19334208.51603206 -19334208.51603206 -8119050.69025806 0 0 0 0 0 88110557.33379099 -18517998.83055208 -18517998.83055208 -7865158.36992327 0 0 0 0 0 89374694.53151532 -18198023.88156748 -18198023.88156748 -8127363.426063484 0 0 0 0 0 90579274.17337021 -17851472.34484613 -17851472.34484613 -8365009.774072338 0 0 0 0 0 91726183.32817538 -17481786.02984685 -17481786.02984685 -8579060.852094216 0 0 0 0 0 92791806.34349212 -16735615.79246783 -16735615.79246783 -8465297.123596236 0 0 0 0 0 91636020.50157258 -17193354.48901497 -17193354.48901497 -8987691.492629169 0 0 0 0 0 93793192.57868424 -16350582.36504267 -16350582.36504267 -8637596.844290039 0 0 0 0 0 94739856.55126742 -15952726.91907452 -15952726.91907452 -8786893.275078163 0 0 0 0 0 95635091.32430035 -15543966.02028766 -15543966.02028766 -8914696.078778056 0 0 0 0 0 96480883.06726426 -15126973.79845255 -15126973.79845255 -9021927.773608513 0 0 0 0 0 97277433.92805333 -14704441.00677246 -14704441.00677246 -9110314.692456018 0 0 0 0 0 96973523.33481164 -14397851.78488071 -14397851.78488071 -9349834.005025432 0 0 0 0 0 98543013.88980962 -13622755.10251069 -13622755.10251069 -8956372.711471627 0 0 0 0 0 97697912.50987479 -13972721.79372662 -13972721.79372662 -9394716.611750368 0 0 0 0 0 99188358.22719304 -13209831.39135222 -13209831.39135222 -8997184.99778018 0 0 0 0 0 99793297.69837402 -12796893.42325687 -12796893.42325687 -9022890.035284454 0 0 0 0 0 100361068.3051838 -12386048.85772849 -12386048.85772849 -9034429.308611419 0 0 0 0 0 100892174.7101805 -11978171.8534987 -11978171.8534987 -9032416.610852491 0 0 0 0 0 101155177.5356253 -11426124.66084991 -11426124.66084991 -8777411.239831023 0 0 0 0 0 100504911.2219484 -11702305.36047299 -11702305.36047299 -9140503.243415985 0 0 0 0 0 101608525.2702735 -11040728.22650047 -11040728.22650047 -8757228.644896263 0 0 0 0 0 102031406.0478509 -10659879.25602008 -10659879.25602008 -8726311.661638377 0 0 0 0 0 102424569.4871366 -10284655.87211669 -10284655.87211669 -8684943.116797039 0 0 0 0 0 102789732.740718 -9915608.537898023 -9915608.537898023 -8635076.037971141 0 0 0 0 0 103127328.0722781 -9553286.351432897 -9553286.351432897 -8576327.023751471 0 0 0 0 0 103039510.0404565 -8978959.262413774 -8978959.262413774 -8510689.456735054 0 0 0 0 0 103439819.8440326 -9197718.517071182 -9197718.517071182 -8508729.503663387 0 0 0 0 0 103480005.6302373 -8786725.500287529 -8786725.500287529 -8244226.432686847 0 0 0 0 0 103745776.0573909 -8456205.414545961 -8456205.414545961 -8170057.985207432 0 0 0 0 0 103990887.5506281 -8133169.794578128 -8133169.794578128 -8089946.422699288 0 0 0 0 0 104213650.7598449 -7818069.40540426 -7818069.40540426 -8004422.545572449 0 0 0 0 0 104409279.7375099 -7519901.282804246 -7519901.282804246 -7923036.59615365 0 0 0 0 0 104578225.4553996 -7230559.449692471 -7230559.449692471 -7829478.300414923 0 0 0 0 0 104208818.1432357 -7057310.821261833 -7057310.821261833 -7751931.841914337 0 0 0 0 0 104505821.997835 -6927157.629415426 -6927157.629415426 -7567639.277034316 0 0 0 0 0 104665036.5672913 -6650325.552695512 -6650325.552695512 -7468706.379793341 0 0 0 0 0 104810257.7098867 -6381331.338320274 -6381331.338320274 -7369329.718792757 0 0 0 0 0 104941779.0802822 -6119529.441023878 -6119529.441023878 -7268345.078548066 0 0 0 0 0 104604083.2332465 -5977246.201679702 -5977246.201679702 -7197840.955000154 0 0 0 0 0 104844213.4651973 -5869650.002422404 -5869650.002422404 -7041766.948668053 0 0 0 0 0 104954370.795077 -5628415.042576989 -5628415.042576989 -6942149.947710427 0 0 0 0 0 105052892.0703761 -5394765.102095001 -5394765.102095001 -6840692.256359844 0 0 0 0 0 105139956.282626 -5168505.77394239 -5168505.77394239 -6737675.97652456 0 0 0 0 0 105217538.4291949 -4948632.617691285 -4948632.617691285 -6631928.976393617 0 0 0 0 0 105286024.6021219 -4735055.831500517 -4735055.831500517 -6525343.76765042 0 0 0 0 0 105345870.2466989 -4527771.355393817 -4527771.355393817 -6418272.521244998 0 0 0 0 0 105398403.5912121 -4326712.901338869 -4326712.901338869 -6310709.525960981 0 0 0 0 0 105258520.4022801 -4167089.828988967 -4167089.828988967 -6122718.535474386 0 0 0 0 0 105118326.4443398 -4230249.212847978 -4230249.212847978 -6215167.754759804 0 0 0 0 0 105299509.9887905 -3983089.277663134 -3983089.277663134 -6018352.208528574 0 0 0 0 0 105037314.4511745 -3896162.162148496 -3896162.162148496 -5923106.508956151 0 0 0 0 0 105160510.8572673 -3840422.787862358 -3840422.787862358 -5840977.149740756 0 0 0 0 0 105189597.2342789 -3672039.84094349 -3672039.84094349 -5742293.367662232 0 0 0 0 0 105223385.8312311 -3499704.255052397 -3499704.255052397 -5633436.074592928 0 0 0 0 0 105240690.4539125 -3344152.346866613 -3344152.346866613 -5540393.205570081 0 0 0 0 0 105267754.2551432 -3174136.656424046 -3174136.656424046 -5424355.350006617 0 0 0 0 0 105192317.0384019 -3031270.827267326 -3031270.827267326 -5372967.684967384 0 0 0 0 0 105160659.5069994 -2921822.414993244 -2921822.414993244 -5265759.736753835 0 0 0 0 0 105157379.7745119 -2797036.106726325 -2797036.106726325 -5138060.081650235 0 0 0 0 0 105054538.230419 -2737751.122457041 -2737751.122457041 -5095979.094251574 0 0 0 0 0 83448498.18808429 -20262974.91971889 -20262974.91971889 -7582864.850234133 0 0 0 0 0 30339606.95151029 -815919.2939680817 -815919.2939680817 -1124862.897918889 0 0 0 0 0 32598074.03106406 -2877711.777306833 -2877711.777306833 -599278.1385984299 0 0 0 0 0 31411997.1899849 -3713352.723682014 -3713352.723682014 -740200.1489485098 0 0 0 0 0 32579258.32387593 -5451308.815707152 -5451308.815707152 -776452.1930670923 0 0 0 0 0 34031982.58940995 -7366818.605951459 -7366818.605951459 -810979.1554156515 0 0 0 0 0 35660285.9563604 -9247161.273105079 -9247161.273105079 -905553.1996195276 0 0 0 0 0 37465945.87931181 -11045677.45943271 -11045677.45943271 -1042528.713689857 0 0 0 0 0 40922157.26490677 -12954885.91549261 -12954885.91549261 -751223.3357713571 0 0 0 0 0 41572274.98777249 -12776188.40283862 -12776188.40283862 -763701.5916234594 0 0 0 0 0 43627331.74777855 -14271293.63608047 -14271293.63608047 -1072894.032178659 0 0 0 0 0 45793605.69039509 -15649226.18837652 -15649226.18837652 -1432732.055151237 0 0 0 0 0 48052289.64414646 -16906560.53436491 -16906560.53436491 -1835567.460680155 0 0 0 0 0 52122826.48813739 -17769127.37545177 -17769127.37545177 -1925704.935226315 0 0 0 0 0 50839969.51497909 -18168479.59826215 -18168479.59826215 -2081440.982485992 0 0 0 0 0 54411286.09124561 -18724390.82387958 -18724390.82387958 -2405075.007670087 0 0 0 0 0 56731176.96499743 -19562166.04814659 -19562166.04814659 -2905765.003833143 0 0 0 0 0 59067829.98332585 -20284371.20492854 -20284371.20492854 -3421870.799530511 0 0 0 0 0 61407136.9441404 -20893288.3641913 -20893288.3641913 -3946677.781383563 0 0 0 0 0 63734741.13077378 -21392779.168524 -21392779.168524 -4475454.172466884 0 0 0 0 0 66039857.89200884 -21787115.6131335 -21787115.6131335 -5002377.797157616 0 0 0 0 0 67531122.28698339 -22154314.67254846 -22154314.67254846 -5660174.749511794 0 0 0 0 0 69266299.86370778 -21550092.38146453 -21550092.38146453 -5202738.71442986 0 0 0 0 0 71394647.18675996 -21737342.41640148 -21737342.41640148 -5706511.837715575 0 0 0 0 0 73474099.02093574 -21840394.47434226 -21840394.47434226 -6197457.283623968 0 0 0 0 0 75499095.81718662 -21864913.98092962 -21864913.98092962 -6666825.995365488 0 0 0 0 0 77460074.50840543 -21816154.74773028 -21816154.74773028 -7114192.122323933 0 0 0 0 0 79361760.77412573 -21700574.52986828 -21700574.52986828 -7530069.839839151 0 0 0 0 0 79852686.92823257 -21591428.4925634 -21591428.4925634 -8138618.032771127 0 0 0 0 0 81490910.49754019 -20980719.62779604 -20980719.62779604 -7553225.119984935 0 0 0 0 0 83136195.63393049 -20764649.16158652 -20764649.16158652 -7919168.30507494 0 0 0 0 0 83722409.90389812 -20086389.06195965 -20086389.06195965 -8144351.900313723 0 0 0 0 0 85162634.40215625 -19804916.20253945 -19804916.20253945 -8453642.615546234 0 0 0 0 0 86765932.2504517 -19035621.68512591 -19035621.68512591 -8411131.418625651 0 0 0 0 0 86597836.01452033 -19260615.18238864 -19260615.18238864 -7884792.8700158 0 0 0 0 0 88065514.83824986 -18705614.96381433 -18705614.96381433 -8675112.007714584 0 0 0 0 0 89304931.31012514 -18348143.55213406 -18348143.55213406 -8912747.206565451 0 0 0 0 0 90489521.62191857 -17967506.28016194 -17967506.28016194 -9124265.817871191 0 0 0 0 0 91621659.20342501 -17567410.03255714 -17567410.03255714 -9311215.135724043 0 0 0 0 0 92680533.53687352 -16795116.38276934 -16795116.38276934 -9151816.226915158 0 0 0 0 0 92815777.8590906 -17094478.5353915 -17094478.5353915 -8772433.671828529 0 0 0 0 0 93668918.43069306 -16383351.64188865 -16383351.64188865 -9292332.700277761 0 0 0 0 0 94604270.34771553 -15961007.51639741 -15961007.51639741 -9410914.695091723 0 0 0 0 0 95490079.02229637 -15530305.36870489 -15530305.36870489 -9508408.271284448 0 0 0 0 0 96327682.18909225 -15093242.75730402 -15093242.75730402 -9585698.988221576 0 0 0 0 0 97117212.67253393 -14652174.23679995 -14652174.23679995 -9643494.682168445 0 0 0 0 0 98026278.73204049 -14278056.38218622 -14278056.38218622 -9180739.896650951 0 0 0 0 0 98379901.88638352 -13546044.86299227 -13546044.86299227 -9422830.450172404 0 0 0 0 0 98729927.7010062 -13848995.65582076 -13848995.65582076 -9232500.627709137 0 0 0 0 0 99021563.74847147 -13119631.69129222 -13119631.69129222 -9435909.104805687 0 0 0 0 0 99624502.39259198 -12695699.28542442 -12695699.28542442 -9434317.942730108 0 0 0 0 0 100190787.8474275 -12274461.92714028 -12274461.92714028 -9418640.779001558 0 0 0 0 0 100719742.0948015 -11855772.49495216 -11855772.49495216 -9389619.013231309 0 0 0 0 0 100989421.7822733 -11304227.15822298 -11304227.15822298 -9106793.742433924 0 0 0 0 0 101386545.3541187 -11573312.23673938 -11573312.23673938 -9018443.265032714 0 0 0 0 0 101442502.2201716 -10911447.02471166 -10911447.02471166 -9062578.729404489 0 0 0 0 0 101865977.5681885 -10524435.60597414 -10524435.60597414 -9007959.778113293 0 0 0 0 0 102259901.3650225 -10143397.40685589 -10143397.40685589 -8944241.051114636 0 0 0 0 0 102626661.404991 -9769698.690449119 -9769698.690449119 -8871787.243427029 0 0 0 0 0 102966623.2596067 -9403079.974858105 -9403079.974858105 -8790715.165197434 0 0 0 0 0 103728604.5923373 -8849888.720380316 -8849888.720380316 -8434049.962311365 0 0 0 0 0 103281726.4560557 -9044666.766215496 -9044666.766215496 -8703396.311813828 0 0 0 0 0 103329026.6915336 -8638659.349622237 -8638659.349622237 -8424385.787976647 0 0 0 0 0 103597145.8569904 -8306017.998870573 -8306017.998870573 -8331974.02003254 0 0 0 0 0 103844614.2717583 -7981001.954280647 -7981001.954280647 -8234757.64953147 0 0 0 0 0 104073723.2191475 -7668231.912574771 -7668231.912574771 -8129040.140432371 0 0 0 0 0 104277760.6939811 -7362795.489400805 -7362795.489400805 -8013726.142355527 0 0 0 0 0 104447940.7570628 -7071515.053332236 -7071515.053332236 -7899338.325771628 0 0 0 0 0 104740991.1103792 -6944061.357979906 -6944061.357979906 -7721410.665560103 0 0 0 0 0 104376815.1675442 -6778564.840831283 -6778564.840831283 -7652902.70584623 0 0 0 0 0 104538486.6938038 -6502657.175468377 -6502657.175468377 -7544338.089037111 0 0 0 0 0 104686190.0722774 -6233769.112887031 -6233769.112887031 -7433415.885656462 0 0 0 0 0 104821014.8325407 -5972673.147366913 -5972673.147366913 -7320186.11413929 0 0 0 0 0 105060898.224424 -5865346.221748263 -5865346.221748263 -7164861.898452044 0 0 0 0 0 104729164.0230482 -5729445.26125404 -5729445.26125404 -7088988.166249809 0 0 0 0 0 104842645.0956138 -5489237.310859403 -5489237.310859403 -6978410.89144427 0 0 0 0 0 104944552.5894422 -5256494.270551976 -5256494.270551976 -6866309.792557607 0 0 0 0 0 105035008.9375904 -5030829.320641794 -5030829.320641794 -6752255.420087887 0 0 0 0 0 105114688.5515702 -4812464.438510979 -4812464.438510979 -6639124.537172747 0 0 0 0 0 105186219.1342878 -4599886.686607384 -4599886.686607384 -6524232.023866205 0 0 0 0 0 105248844.6472277 -4394154.548392107 -4394154.548392107 -6409527.270929297 0 0 0 0 0 105304589.9889686 -4195296.352778512 -4195296.352778512 -6294744.844631435 0 0 0 0 0 105169734.1852732 -4041765.547020199 -4041765.547020199 -6104963.874214449 0 0 0 0 0 105443191.5592771 -4132944.668694288 -4132944.668694288 -6203720.173645499 0 0 0 0 0 105212974.1770923 -3859178.166211338 -3859178.166211338 -5994796.394885797 0 0 0 0 0 105333475.7076054 -3804751.291255208 -3804751.291255208 -5914667.225527566 0 0 0 0 0 105078131.5680141 -3722661.671946666 -3722661.671946666 -5817355.701079039 0 0 0 0 0 105106711.798834 -3552528.956200237 -3552528.956200237 -5711782.23386481 0 0 0 0 0 105140837.6408252 -3389273.370423526 -3389273.370423526 -5608783.597844874 0 0 0 0 0 105155139.9975362 -3231025.625269988 -3231025.625269988 -5517193.453091658 0 0 0 0 0 105165054.3358185 -3096515.183442547 -3096515.183442547 -5441388.692403267 0 0 0 0 0 105318974.1769709 -2979619.306051369 -2979619.306051369 -5296555.477787876 0 0 0 0 0 105250379.4458344 -2881024.94092366 -2881024.94092366 -5203348.35353356 0 0 0 0 0 105175706.1160494 -2786456.667680982 -2786456.667680982 -5118621.353823482 0 0 0 0 0 105146295.9341556 -2687403.85760189 -2687403.85760189 -5030187.357175922 0 0 0 0 0 83449315.06396061 -20594614.3924375 -20594614.3924375 -8499485.242852062 0 0 0 0 0 28948117.5688912 -1152087.443951474 -1152087.443951474 -1670223.113140188 0 0 0 0 0 30271314.83763413 -3105087.822634724 -3105087.822634724 -1257900.96539091 0 0 0 0 0 32878947.21688608 -5326134.781482 -5326134.781482 -693287.8295248167 0 0 0 0 0 34032392.67090957 -7345397.586349325 -7345397.586349325 -723942.6407229572 0 0 0 0 0 35434301.46589503 -9293468.184278566 -9293468.184278566 -840173.1640157955 0 0 0 0 0 37031420.30523266 -11161638.22917328 -11161638.22917328 -1022669.221346901 0 0 0 0 0 38782640.04834465 -12922657.93051022 -12922657.93051022 -1274608.301024913 0 0 0 0 0 39428964.36181384 -12737265.4213724 -12737265.4213724 -1256032.60154958 0 0 0 0 0 42785760.32358587 -14514400.84877415 -14514400.84877415 -1102364.462076928 0 0 0 0 0 44776669.91700716 -15953586.26093314 -15953586.26093314 -1508085.924990301 0 0 0 0 0 46874715.81876313 -17268402.8967888 -17268402.8967888 -1959969.231324327 0 0 0 0 0 49062544.6458234 -18456549.14579874 -18456549.14579874 -2450424.787281522 0 0 0 0 0 53009503.76306133 -19170319.45698757 -19170319.45698757 -2611802.535618369 0 0 0 0 0 50383966.21561252 -18041927.12328452 -18041927.12328452 -2276488.866915643 0 0 0 0 0 55225793.99264216 -20050119.25727822 -20050119.25727822 -3162621.298598749 0 0 0 0 0 57473709.01680896 -20809773.30382616 -20809773.30382616 -3727110.224149857 0 0 0 0 0 59738140.66627665 -21451667.31251571 -21451667.31251571 -4298921.010731001 0 0 0 0 0 62005425.76520061 -21979536.81846394 -21979536.81846394 -4872090.451987362 0 0 0 0 0 64263687.51888004 -22397885.48181356 -22397885.48181356 -5441026.777111437 0 0 0 0 0 66501097.70890675 -22711697.80060767 -22711697.80060767 -6000240.348377179 0 0 0 0 0 68311148.99238412 -22081449.52985965 -22081449.52985965 -5523357.301405234 0 0 0 0 0 69640456.05688308 -22356136.88401227 -22356136.88401227 -6197735.585512573 0 0 0 0 0 71710647.73993623 -22469315.50885301 -22469315.50885301 -6717234.125146387 0 0 0 0 0 73733725.29067399 -22500218.61399823 -22500218.61399823 -7215376.879368505 0 0 0 0 0 75704740.71137883 -22455936.31380022 -22455936.31380022 -7687562.519982728 0 0 0 0 0 77614576.32162488 -22340376.59711829 -22340376.59711829 -8132186.057608879 0 0 0 0 0 79417678.91880904 -22149260.73631138 -22149260.73631138 -8519074.414597347 0 0 0 0 0 81113177.74382755 -21516949.7546752 -21516949.7546752 -7919648.189722994 0 0 0 0 0 81529228.00156175 -21369234.93231128 -21369234.93231128 -8512128.410123061 0 0 0 0 0 83167328.32819052 -21108044.50656905 -21108044.50656905 -8870904.625277884 0 0 0 0 0 84964639.53152783 -20011546.79062916 -20011546.79062916 -7912647.808212998 0 0 0 0 0 86429180.48736118 -19724425.4200733 -19724425.4200733 -8217055.328273732 0 0 0 0 0 87967872.1903462 -18955475.80324794 -18955475.80324794 -8178402.570513457 0 0 0 0 0 86572076.22186221 -19492413.84165551 -19492413.84165551 -8743375.97663909 0 0 0 0 0 89280039.7428617 -18618846.89556056 -18618846.89556056 -8443915.389668806 0 0 0 0 0 90530342.60342443 -18254348.23379488 -18254348.23379488 -8683680.876231894 0 0 0 0 0 91719359.90640424 -17866671.38003556 -17866671.38003556 -8898944.37692976 0 0 0 0 0 92846601.37666799 -17460334.4553986 -17460334.4553986 -9091307.374758631 0 0 0 0 0 93848363.25804077 -16691090.52793167 -16691090.52793167 -8942965.640943404 0 0 0 0 0 92697215.81656952 -17150316.72120858 -17150316.72120858 -9473526.463620408 0 0 0 0 0 94825573.05531943 -16274030.51386441 -16274030.51386441 -9090065.801477846 0 0 0 0 0 95748572.48545118 -15846428.44673683 -15846428.44673683 -9215281.501404915 0 0 0 0 0 96618951.5939355 -15410641.02713329 -15410641.02713329 -9319857.712138088 0 0 0 0 0 97438341.43198973 -14969079.61062343 -14969079.61062343 -9404538.913438538 0 0 0 0 0 98207676.89931849 -14523982.65370024 -14523982.65370024 -9470250.838542109 0 0 0 0 0 97860340.26088589 -14208349.41219521 -14208349.41219521 -9682335.769226281 0 0 0 0 0 99389975.9830479 -13418992.47615138 -13418992.47615138 -9268549.337920809 0 0 0 0 0 98559369.95942019 -13764177.72059917 -13764177.72059917 -9705294.166591708 0 0 0 0 0 100009595.4389727 -12989562.04349219 -12989562.04349219 -9288715.122268403 0 0 0 0 0 100588576.6161199 -12561846.51049404 -12561846.51049404 -9293931.16308732 0 0 0 0 0 101129505.1893713 -12138601.68324723 -12138601.68324723 -9286813.686483834 0 0 0 0 0 101630220.5279463 -11718997.95478669 -11718997.95478669 -9265235.171763968 0 0 0 0 0 101846601.4270402 -11173607.3152753 -11173607.3152753 -8991729.19968085 0 0 0 0 0 101214266.9162468 -11442703.37527588 -11442703.37527588 -9348125.104077952 0 0 0 0 0 102275051.2608441 -10779359.18933782 -10779359.18933782 -8953822.290345637 0 0 0 0 0 102672881.5579901 -10391131.14965527 -10391131.14965527 -8905704.952194506 0 0 0 0 0 103041615.6079575 -10009548.71931231 -10009548.71931231 -8848482.885572791 0 0 0 0 0 103382646.4839514 -9635108.077942088 -9635108.077942088 -8781935.550836377 0 0 0 0 0 103697840.2227387 -9268481.662243286 -9268481.662243286 -8708090.803982951 0 0 0 0 0 103572911.8627097 -8694098.865605839 -8694098.865605839 -8609636.750820968 0 0 0 0 0 103987701.590458 -8909592.562722066 -8909592.562722066 -8626536.767341398 0 0 0 0 0 103994851.8443913 -8509626.305107204 -8509626.305107204 -8353055.783351309 0 0 0 0 0 104239377.969559 -8177074.397762473 -8177074.397762473 -8266045.43400827 0 0 0 0 0 104465204.1285394 -7852699.063439984 -7852699.063439984 -8173552.917482346 0 0 0 0 0 104658869.1806447 -7543037.205797782 -7543037.205797782 -8081469.496081019 0 0 0 0 0 104830626.876739 -7245371.563160522 -7245371.563160522 -7985411.006134097 0 0 0 0 0 104990555.0717541 -6956610.334242847 -6956610.334242847 -7876049.48360471 0 0 0 0 0 104610083.8685927 -6786781.82903684 -6786781.82903684 -7791165.333971597 0 0 0 0 0 104897461.513292 -6659210.421840264 -6659210.421840264 -7609504.659149259 0 0 0 0 0 105040386.0216121 -6384114.142842693 -6384114.142842693 -7505328.538338902 0 0 0 0 0 105169227.9227251 -6116362.432302872 -6116362.432302872 -7397907.31489158 0 0 0 0 0 105285022.9971392 -5856608.603195216 -5856608.603195216 -7288559.243049448 0 0 0 0 0 104943246.6413838 -5719434.285820577 -5719434.285820577 -7205390.502678959 0 0 0 0 0 105168066.6890539 -5618741.375607124 -5618741.375607124 -7059424.718839057 0 0 0 0 0 105263780.9899606 -5379746.353845284 -5379746.353845284 -6952245.500024471 0 0 0 0 0 105348490.5126468 -5148279.527244365 -5148279.527244365 -6843436.021790996 0 0 0 0 0 105422223.8930884 -4924496.933549202 -4924496.933549202 -6733907.882866587 0 0 0 0 0 105487548.0628932 -4706792.335009578 -4706792.335009578 -6621466.915676108 0 0 0 0 0 105543932.2488122 -4496053.6941605 -4496053.6941605 -6509483.339688897 0 0 0 0 0 105592353.7083596 -4291994.921002207 -4291994.921002207 -6396969.659843067 0 0 0 0 0 105633131.4108855 -4094939.189790445 -4094939.189790445 -6284685.297596335 0 0 0 0 0 105480726.3813083 -3945728.242066585 -3945728.242066585 -6096000.060877783 0 0 0 0 0 105352408.8577186 -4003377.484365295 -4003377.484365295 -6180000.197186165 0 0 0 0 0 105511305.3200374 -3764841.030675146 -3764841.030675146 -5987674.97172469 0 0 0 0 0 105249365.8129832 -3682548.947450147 -3682548.947450147 -5884696.37863066 0 0 0 0 0 105360441.3485576 -3632411.654130441 -3632411.654130441 -5811082.183553731 0 0 0 0 0 105383177.78979 -3464103.648502736 -3464103.648502736 -5706231.325030395 0 0 0 0 0 105398900.2264509 -3304618.487450799 -3304618.487450799 -5604717.038916487 0 0 0 0 0 105414699.7859476 -3148274.683751358 -3148274.683751358 -5497654.361898098 0 0 0 0 0 105406234.224468 -3005381.176220814 -3005381.176220814 -5388469.021950415 0 0 0 0 0 105340013.1231835 -2923073.706086237 -2923073.706086237 -5391280.900875148 0 0 0 0 0 105319336.6701629 -2828316.984325214 -2828316.984325214 -5298497.891032645 0 0 0 0 0 105269380.6182451 -2739619.640745184 -2739619.640745184 -5206411.287895981 0 0 0 0 0 105218803.8920034 -2649171.782631086 -2649171.782631086 -5101470.619770817 0 0 0 0 0 84747362.6063789 -20507620.24721587 -20507620.24721587 -8262273.743172271 0 0 0 0 0 27960847.62639219 -834500.3406215804 -834500.3406215804 -2146162.749533939 0 0 0 0 0 29448468.31642534 -2845670.827774197 -2845670.827774197 -1640702.746567714 0 0 0 0 0 30369767.125893 -5018872.69160347 -5018872.69160347 -1501784.670468616 0 0 0 0 0 31736929.74693662 -7060032.833159942 -7060032.833159942 -1466484.874750281 0 0 0 0 0 33350517.15870248 -9013623.006581219 -9013623.006581219 -1529058.215304023 0 0 0 0 0 35176218.97936436 -10885444.39726263 -10885444.39726263 -1653555.869879934 0 0 0 0 0 37199460.94139024 -12663098.65539051 -12663098.65539051 -1829364.230914511 0 0 0 0 0 40703700.0579914 -14564119.141306 -14564119.141306 -1592069.126034187 0 0 0 0 0 41545722.01639704 -14313686.49308287 -14313686.49308287 -1535181.969659438 0 0 0 0 0 43788918.89178761 -15768411.50090695 -15768411.50090695 -1870068.210457757 0 0 0 0 0 46135043.19807248 -17097436.21882065 -17097436.21882065 -2253070.383514977 0 0 0 0 0 48561840.04745049 -18298888.91021588 -18298888.91021588 -2677363.187732059 0 0 0 0 0 52770388.01174109 -19053804.26004077 -19053804.26004077 -2748197.85610148 0 0 0 0 0 51322040.20697509 -19517122.65919217 -19517122.65919217 -2972306.737165299 0 0 0 0 0 55192835.5778965 -19941915.28145094 -19941915.28145094 -3244077.671657458 0 0 0 0 0 57635268.96800945 -20707972.43284369 -20707972.43284369 -3757714.181463229 0 0 0 0 0 60081990.52413874 -21354948.15865013 -21354948.15865013 -4282547.657320206 0 0 0 0 0 62518782.11568565 -21886351.93524946 -21886351.93524946 -4812847.489840047 0 0 0 0 0 64932265.43926854 -22306454.65414463 -22306454.65414463 -5343469.915025656 0 0 0 0 0 67311234.91931212 -22620270.22595722 -22620270.22595722 -5868843.307192121 0 0 0 0 0 68708192.69914997 -22926533.39768904 -22926533.39768904 -6545216.241324744 0 0 0 0 0 70539378.24601541 -22281133.58777773 -22281133.58777773 -6033932.00923798 0 0 0 0 0 72715795.47186653 -22391749.4492365 -22391749.4492365 -6530132.704204782 0 0 0 0 0 74832530.98461446 -22419167.10839414 -22419167.10839414 -7008575.403464453 0 0 0 0 0 76879644.74129182 -22371001.85165324 -22371001.85165324 -7465619.025530172 0 0 0 0 0 78844449.27641055 -22251372.82745076 -22251372.82745076 -7899893.460731581 0 0 0 0 0 80719158.08475642 -22062299.18696082 -22062299.18696082 -8300091.555758534 0 0 0 0 0 81160578.75399789 -21913012.49272361 -21913012.49272361 -8882404.560786743 0 0 0 0 0 82826474.87649825 -21277181.61061008 -21277181.61061008 -8271594.741504536 0 0 0 0 0 84495907.73778865 -21004225.94858473 -21004225.94858473 -8618437.583906399 0 0 0 0 0 84944208.36959189 -20295417.18531319 -20295417.18531319 -8805826.909820465 0 0 0 0 0 86381798.79072715 -19960246.065346 -19960246.065346 -9092476.293131532 0 0 0 0 0 87920561.73854755 -19145513.92956812 -19145513.92956812 -9009095.055665292 0 0 0 0 0 87831135.06970167 -19402375.99144246 -19402375.99144246 -8501263.951331506 0 0 0 0 0 89209811.83232863 -18770228.01684621 -18770228.01684621 -9248512.879771529 0 0 0 0 0 90440102.61671308 -18370138.54840823 -18370138.54840823 -9460424.364950921 0 0 0 0 0 91611468.95830117 -17949757.15547145 -17949757.15547145 -9646271.504783385 0 0 0 0 0 92722893.18876009 -17512410.7850434 -17512410.7850434 -9806639.017685698 0 0 0 0 0 93717227.48536916 -16719346.55391492 -16719346.55391492 -9611965.685599003 0 0 0 0 0 93913677.13097158 -17037447.22669375 -17037447.22669375 -9259569.127973137 0 0 0 0 0 94683212.27912235 -16277257.47902984 -16277257.47902984 -9727306.572999435 0 0 0 0 0 95596354.04260416 -15826631.35741824 -15826631.35741824 -9820764.746519659 0 0 0 0 0 96458478.82138567 -15370015.38603566 -15370015.38603566 -9893274.534418976 0 0 0 0 0 97271016.67868973 -14909401.54945181 -14909401.54945181 -9945774.893900746 0 0 0 0 0 98034444.11705862 -14446614.57212914 -14446614.57212914 -9979155.322251841 0 0 0 0 0 98928686.47880366 -14076993.9861306 -14076993.9861306 -9517827.19730073 0 0 0 0 0 99216355.99793632 -13320981.09032503 -13320981.09032503 -9711787.605850779 0 0 0 0 0 99604520.2245812 -13629053.87001766 -13629053.87001766 -9547556.692019425 0 0 0 0 0 99832923.29832381 -12878916.83838055 -12878916.83838055 -9704099.120389106 0 0 0 0 0 100411327.0309344 -12441539.67318795 -12441539.67318795 -9681962.335171312 0 0 0 0 0 100951555.2332829 -12006848.27925256 -12006848.27925256 -9643326.291080315 0 0 0 0 0 101452131.0001214 -11579502.76917962 -11579502.76917962 -9594463.962275622 0 0 0 0 0 101674904.3206929 -11036053.18521401 -11036053.18521401 -9296483.026540915 0 0 0 0 0 102097677.1663112 -11304808.14215376 -11304808.14215376 -9231163.889987715 0 0 0 0 0 102104235.2565435 -10635443.29075542 -10635443.29075542 -9234375.486681558 0 0 0 0 0 102503251.2822544 -10241659.06914022 -10241659.06914022 -9162807.65484342 0 0 0 0 0 102873767.8916008 -9855337.711585257 -9855337.711585257 -9082277.263542797 0 0 0 0 0 103216718.7393465 -9477170.337080121 -9477170.337080121 -8994336.780916285 0 0 0 0 0 103534297.9518464 -9106960.930224568 -9106960.930224568 -8898779.758038178 0 0 0 0 0 104254446.7098352 -8559261.480151549 -8559261.480151549 -8538491.646623665 0 0 0 0 0 103827074.119174 -8745826.422282809 -8745826.422282809 -8797212.228314247 0 0 0 0 0 103841642.7382053 -8351591.594385157 -8351591.594385157 -8510292.730737226 0 0 0 0 0 104089245.1483024 -8017897.754509335 -8017897.754509335 -8405216.887587627 0 0 0 0 0 104318998.7129463 -7693394.457218147 -7693394.457218147 -8294761.925742372 0 0 0 0 0 104525075.7959076 -7380126.159470532 -7380126.159470532 -8170771.297969971 0 0 0 0 0 104695545.2005 -7082742.294104056 -7082742.294104056 -8051380.654586798 0 0 0 0 0 104854371.1907406 -6790269.160306252 -6790269.160306252 -7933730.431025263 0 0 0 0 0 105139639.1770619 -6665624.976329989 -6665624.976329989 -7757894.517836179 0 0 0 0 0 104767488.2654022 -6505751.15435715 -6505751.15435715 -7680351.86813062 0 0 0 0 0 104913477.7122018 -6230515.537354343 -6230515.537354343 -7562469.099687749 0 0 0 0 0 105045513.85507 -5963584.538806085 -5963584.538806085 -7442953.791988524 0 0 0 0 0 105164964.0654288 -5704775.426696475 -5704775.426696475 -7321583.58216836 0 0 0 0 0 105388845.3510372 -5604726.453909218 -5604726.453909218 -7177054.431513586 0 0 0 0 0 105053640.6027876 -5473968.350539342 -5473968.350539342 -7089061.156006998 0 0 0 0 0 105152639.6381504 -5236214.487956481 -5236214.487956481 -6971379.458295825 0 0 0 0 0 105240730.344685 -5005946.650481222 -5005946.650481222 -6852528.707364552 0 0 0 0 0 105318204.0966175 -4783053.584795665 -4783053.584795665 -6732961.295202304 0 0 0 0 0 105386009.4845119 -4567107.50567394 -4567107.50567394 -6613217.883299842 0 0 0 0 0 105445422.7361383 -4358061.593159832 -4358061.593159832 -6493303.795147141 0 0 0 0 0 105497027.2182934 -4155996.182958093 -4155996.182958093 -6373360.073559784 0 0 0 0 0 105540932.495603 -3960984.013822625 -3960984.013822625 -6253636.798933665 0 0 0 0 0 105392815.4890619 -3818133.520659994 -3818133.520659994 -6065458.451489958 0 0 0 0 0 105666684.2047114 -3904713.209323122 -3904713.209323122 -6172264.893587811 0 0 0 0 0 105425995.0511865 -3638879.172506264 -3638879.172506264 -5951113.994498109 0 0 0 0 0 105535298.9769621 -3589764.653250581 -3589764.653250581 -5879513.91467829 0 0 0 0 0 105278397.5833533 -3511158.571577141 -3511158.571577141 -5774799.739490165 0 0 0 0 0 105305064.7858 -3346465.434781498 -3346465.434781498 -5664909.62189798 0 0 0 0 0 105323997.2385278 -3188407.214817048 -3188407.214817048 -5554237.841630089 0 0 0 0 0 105351900.7218278 -3036623.549234192 -3036623.549234192 -5449348.896690009 0 0 0 0 0 105400700.8379466 -2896335.877094207 -2896335.877094207 -5347700.785800606 0 0 0 0 0 105417869.3346401 -2780622.586072613 -2780622.586072613 -5221720.437832118 0 0 0 0 0 105362523.43381 -2692491.017524223 -2692491.017524223 -5129799.973710105 0 0 0 0 0 105313453.8603562 -2606231.045630401 -2606231.045630401 -5033071.529309956 0 0 0 0 0 84717119.28993221 -20791869.15228895 -20791869.15228895 -9183697.321824301 0 0 0 0 0 26606935.12268869 -1206308.914132965 -1206308.914132965 -2713485.296033629 0 0 0 0 0 28073333.89815219 -3225109.611338781 -3225109.611338781 -2172609.583942967 0 0 0 0 0 29980921.31203835 -5182055.891851783 -5182055.891851783 -1726825.573193165 0 0 0 0 0 31714872.94175334 -7071075.188254904 -7071075.188254904 -1485449.707266743 0 0 0 0 0 33182689.87236008 -9059624.147547301 -9059624.147547301 -1525247.429558707 0 0 0 0 0 34776272.1043255 -11000086.61257181 -11000086.61257181 -1666909.941121139 0 0 0 0 0 36565914.65075168 -12854344.33878933 -12854344.33878933 -1884522.489855795 0 0 0 0 0 38526333.47576867 -14584189.31593075 -14584189.31593075 -2165833.467705587 0 0 0 0 0 39376832.42543392 -14322564.31461284 -14322564.31461284 -2073444.374084194 0 0 0 0 0 42760366.10354766 -16082190.43785299 -16082190.43785299 -1969337.810331393 0 0 0 0 0 44932989.34423909 -17471726.38623983 -17471726.38623983 -2399536.229850938 0 0 0 0 0 47203580.96448911 -18729108.85591778 -18729108.85591778 -2872466.440771115 0 0 0 0 0 49554467.63785394 -19852303.05862489 -19852303.05862489 -3380731.103128181 0 0 0 0 0 53633258.61366989 -20449479.38163239 -20449479.38163239 -3518255.347701998 0 0 0 0 0 51049278.13634276 -19370983.19389551 -19370983.19389551 -3136919.421436137 0 0 0 0 0 55980149.93963087 -21255128.97398595 -21255128.97398595 -4081203.692422235 0 0 0 0 0 58346838.37162143 -21936448.47845635 -21936448.47845635 -4652262.417608551 0 0 0 0 0 60718399.34208667 -22497695.77172955 -22497695.77172955 -5227258.88231821 0 0 0 0 0 63081003.60548786 -22943167.0974739 -22943167.0974739 -5800530.786332665 0 0 0 0 0 65423032.83624093 -23277619.93402969 -23277619.93402969 -6365817.204199737 0 0 0 0 0 67733142.51652105 -23506959.72292959 -23506959.72292959 -6916846.816013811 0 0 0 0 0 69645131.06273951 -22833708.01188645 -22833708.01188645 -6384392.933612965 0 0 0 0 0 70874543.91290848 -23048119.74472987 -23048119.74472987 -7071724.789632306 0 0 0 0 0 72991524.59505618 -23082043.5880733 -23082043.5880733 -7575335.144230568 0 0 0 0 0 75053676.76002103 -23035686.63721202 -23035686.63721202 -8053029.024509662 0 0 0 0 0 77048995.16437282 -22915775.11893786 -22915775.11893786 -8501846.918679602 0 0 0 0 0 78983262.89285263 -22725688.94558536 -22725688.94558536 -8907835.582877247 0 0 0 0 0 80784580.69853088 -22465376.87355758 -22465376.87355758 -9275840.468126196 0 0 0 0 0 82510325.29396033 -21813627.50181796 -21813627.50181796 -8650607.38355911 0 0 0 0 0 82857258.55430874 -21630522.72190831 -21630522.72190831 -9240911.92786951 0 0 0 0 0 84497329.38833876 -21302952.47735152 -21302952.47735152 -9575737.308758117 0 0 0 0 0 86267593.22048812 -20205201.20581631 -20205201.20581631 -8570749.892906211 0 0 0 0 0 87712665.25552219 -19860670.64175861 -19860670.64175861 -8859007.437275194 0 0 0 0 0 89188958.21082152 -19049414.98375792 -19049414.98375792 -8771374.90030285 0 0 0 0 0 87776773.07391153 -19595956.86488679 -19595956.86488679 -9359200.675366871 0 0 0 0 0 90486231.09108992 -18666820.72686477 -18666820.72686477 -9013664.604032418 0 0 0 0 0 91717588.70029858 -18260168.72818397 -18260168.72818397 -9229853.94757776 0 0 0 0 0 92884391.5275282 -17833630.43081259 -17833630.43081259 -9420982.820643079 0 0 0 0 0 93987852.91990091 -17390252.79304544 -17390252.79304544 -9587311.356716039 0 0 0 0 0 94922085.77798921 -16600910.8460392 -16600910.8460392 -9404549.290195042 0 0 0 0 0 93776083.65908952 -17060949.35026069 -17060949.35026069 -9942340.613665206 0 0 0 0 0 95873161.57985781 -16153570.67912928 -16153570.67912928 -9526998.770808887 0 0 0 0 0 96769054.13548623 -15698031.71093904 -15698031.71093904 -9627604.976049168 0 0 0 0 0 97611419.50032824 -15237005.33346599 -15237005.33346599 -9708111.788210109 0 0 0 0 0 98401404.53391039 -14772318.63814768 -14772318.63814768 -9768686.62639988 0 0 0 0 0 99141156.75636879 -14306338.66400192 -14306338.66400192 -9811074.513403149 0 0 0 0 0 98751121.11384065 -13984034.35642215 -13984034.35642215 -9994885.894247472 0 0 0 0 0 100237485.6673257 -13182679.17011573 -13182679.17011573 -9561713.200065425 0 0 0 0 0 99423572.71951096 -13522586.03153654 -13522586.03153654 -9995102.921979081 0 0 0 0 0 100831838.9777274 -12737125.62977147 -12737125.62977147 -9559915.782147681 0 0 0 0 0 101383729.4983782 -12296119.89812288 -12296119.89812288 -9545984.121607719 0 0 0 0 0 101892490.4321417 -11861393.33527574 -11861393.33527574 -9519170.671358386 0 0 0 0 0 102364551.3068414 -11433259.30640914 -11433259.30640914 -9478354.220602449 0 0 0 0 0 102532652.4216369 -10896300.60775234 -10896300.60775234 -9186099.810377151 0 0 0 0 0 101919564.4824339 -11158446.40439858 -11158446.40439858 -9535576.115800088 0 0 0 0 0 102935440.1258001 -10494686.46262246 -10494686.46262246 -9131371.709043259 0 0 0 0 0 103308000.5048413 -10100170.2315559 -10100170.2315559 -9066620.450093213 0 0 0 0 0 103650771.3897186 -9713525.861973612 -9713525.861973612 -8993027.618538627 0 0 0 0 0 103967735.188908 -9335382.539618304 -9335382.539618304 -8911419.151699977 0 0 0 0 0 104258101.2193614 -8965510.395663043 -8965510.395663043 -8821935.228387177 0 0 0 0 0 104096634.9573532 -8393374.797661943 -8393374.797661943 -8689790.207383679 0 0 0 0 0 104525008.1113861 -8604692.890266443 -8604692.890266443 -8726357.321385905 0 0 0 0 0 104498882.2861709 -8217305.149253599 -8217305.149253599 -8444499.029192513 0 0 0 0 0 104720398.1908135 -7884155.527558666 -7884155.527558666 -8345202.234907258 0 0 0 0 0 104922245.9765961 -7560906.099303426 -7560906.099303426 -8240529.778057797 0 0 0 0 0 105087895.5641106 -7258988.977687122 -7258988.977687122 -8142595.024503781 0 0 0 0 0 105244039.342511 -6964879.716340617 -6964879.716340617 -8028678.488136365 0 0 0 0 0 105390728.6194254 -6667480.870225805 -6667480.870225805 -7903324.067268828 0 0 0 0 0 105006704.1683402 -6503061.179417865 -6503061.179417865 -7814556.204200045 0 0 0 0 0 105278666.6463648 -6382348.499759923 -6382348.499759923 -7642193.220176606 0 0 0 0 0 105404213.2840021 -6108581.210874223 -6108581.210874223 -7528333.709458666 0 0 0 0 0 105516806.980717 -5843108.91605319 -5843108.91605319 -7412224.444708548 0 0 0 0 0 105617068.0115622 -5586041.58215306 -5586041.58215306 -7294797.615873264 0 0 0 0 0 105272004.3952224 -5454262.1562146 -5454262.1562146 -7199330.646626006 0 0 0 0 0 105481266.4026927 -5360668.559226736 -5360668.559226736 -7063983.358017841 0 0 0 0 0 105562638.1101276 -5124360.146315642 -5124360.146315642 -6949524.387326146 0 0 0 0 0 105633519.8031468 -4895718.030468519 -4895718.030468519 -6834008.131991132 0 0 0 0 0 105695016.3087473 -4674173.951935717 -4674173.951935717 -6717203.973324779 0 0 0 0 0 105747490.4219727 -4459971.176289828 -4459971.176289828 -6599832.327773798 0 0 0 0 0 105791859.8336883 -4252652.15966305 -4252652.15966305 -6482174.905506387 0 0 0 0 0 105828427.167499 -4052517.912414876 -4052517.912414876 -6364732.035444021 0 0 0 0 0 105857676.0497635 -3859501.254451954 -3859501.254451954 -6247492.784049457 0 0 0 0 0 105693570.9860154 -3721031.070734384 -3721031.070734384 -6059648.742136568 0 0 0 0 0 105577376.9666206 -3772918.317620968 -3772918.317620968 -6134474.036909694 0 0 0 0 0 105714081.5160967 -3543547.446617066 -3543547.446617066 -5947180.825165322 0 0 0 0 0 105452328.1447996 -3465364.897179857 -3465364.897179857 -5837349.340414073 0 0 0 0 0 105553861.9862769 -3419839.156008319 -3419839.156008319 -5771254.029517691 0 0 0 0 0 105566447.4855415 -3256249.215882289 -3256249.215882289 -5663839.115095782 0 0 0 0 0 105574269.8985237 -3098492.980593977 -3098492.980593977 -5555783.991822183 0 0 0 0 0 105585312.93401 -2947708.452694036 -2947708.452694036 -5448957.581560783 0 0 0 0 0 105556306.0585821 -2815491.900603889 -2815491.900603889 -5359883.136774443 0 0 0 0 0 105487782.3187539 -2728407.646510117 -2728407.646510117 -5317898.093160418 0 0 0 0 0 105428800.2391227 -2640114.246477487 -2640114.246477487 -5225938.737095659 0 0 0 0 0 105376466.2152986 -2550543.993513333 -2550543.993513333 -5128286.690754471 0 0 0 0 0 86110906.5154943 -20689725.13855605 -20689725.13855605 -8941792.153058939 0 0 0 0 0 25517467.68613369 -838830.5782937909 -838830.5782937909 -3282668.149170575 0 0 0 0 0 26968541.98952581 -2849645.979349313 -2849645.979349313 -2756386.485777969 0 0 0 0 0 28581930.50926946 -4771552.862663717 -4771552.862663717 -2368167.048251625 0 0 0 0 0 29499533.97333068 -6754918.179785833 -6754918.179785833 -2226615.28841834 0 0 0 0 0 30985075.28575207 -8749472.313337488 -8749472.313337488 -2262699.631377217 0 0 0 0 0 32797442.51034261 -10689445.71299058 -10689445.71299058 -2351196.092907174 0 0 0 0 0 34867473.19138851 -12552652.59824713 -12552652.59824713 -2495570.101852138 0 0 0 0 0 37112416.09062194 -14296918.56539453 -14296918.56539453 -2699267.541305888 0 0 0 0 0 40649897.71481147 -16183298.51962955 -16183298.51962955 -2507426.729597308 0 0 0 0 0 41691485.41154458 -15857931.10375169 -15857931.10375169 -2377307.212214378 0 0 0 0 0 44125574.38013434 -17263202.01725955 -17263202.01725955 -2734338.618218909 0 0 0 0 0 46650152.62820586 -18535006.77123468 -18535006.77123468 -3136808.194254864 0 0 0 0 0 49243526.92968003 -19671284.69084912 -19671284.69084912 -3578264.147612798 0 0 0 0 0 53578523.23227736 -20313291.78329332 -20313291.78329332 -3623975.896222172 0 0 0 0 0 51964421.02208506 -20840914.44276396 -20840914.44276396 -3916757.773801283 0 0 0 0 0 56131086.71578769 -21127381.88882444 -21127381.88882444 -4132005.538734304 0 0 0 0 0 58684481.83635626 -21814940.15185441 -21814940.15185441 -4654160.594083697 0 0 0 0 0 61232113.07865297 -22380285.22855278 -22380285.22855278 -5184254.485013691 0 0 0 0 0 63763903.4195375 -22828133.97661828 -22828133.97661828 -5715555.005374053 0 0 0 0 0 66262170.18672781 -23164397.37283462 -23164397.37283462 -6242203.081621625 0 0 0 0 0 68708508.43615706 -23393846.08145422 -23393846.08145422 -6760666.92688497 0 0 0 0 0 70001225.73144242 -23637380.69343222 -23637380.69343222 -7449904.798794546 0 0 0 0 0 71925054.70496038 -22952612.76310796 -22952612.76310796 -6885590.376713876 0 0 0 0 0 74142915.49783771 -22982760.11557496 -22982760.11557496 -7368449.04856864 0 0 0 0 0 76292945.9288027 -22930561.57652445 -22930561.57652445 -7829384.040574335 0 0 0 0 0 78366485.16161394 -22805913.355493 -22805913.355493 -8267044.873455065 0 0 0 0 0 80321135.89244437 -22617440.82809171 -22617440.82809171 -8679347.807964819 0 0 0 0 0 82190148.44389808 -22360144.82399534 -22360144.82399534 -9041401.397509823 0 0 0 0 0 82537104.10247768 -22164694.77624867 -22164694.77624867 -9625601.263042102 0 0 0 0 0 84236120.30613612 -21516752.63879313 -21516752.63879313 -8990530.003556183 0 0 0 0 0 85918336.33964625 -21183860.00353365 -21183860.00353365 -9315755.430010349 0 0 0 0 0 86214498.75603059 -20442199.63186028 -20442199.63186028 -9469663.94997203 0 0 0 0 0 87643317.83825594 -20055907.90759173 -20055907.90759173 -9719373.918104101 0 0 0 0 0 89114442.39197519 -19202354.2329468 -19202354.2329468 -9598447.630649369 0 0 0 0 0 89100267.90519536 -19487102.67878969 -19487102.67878969 -9114325.124253193 0 0 0 0 0 90390884.01397368 -18781667.93213144 -18781667.93213144 -9809663.794343213 0 0 0 0 0 91603884.05806613 -18340526.50962063 -18340526.50962063 -9994071.748956624 0 0 0 0 0 92754347.58032693 -17881808.19389597 -17881808.19389597 -10152039.4383903 0 0 0 0 0 93843377.95014346 -17408670.03153558 -17408670.03153558 -10284165.14817879 0 0 0 0 0 94772508.62584153 -16598231.99091399 -16598231.99091399 -10054266.37950305 0 0 0 0 0 95029342.28086902 -16933131.47588862 -16933131.47588862 -9729650.202300468 0 0 0 0 0 95713483.64374328 -16127058.38910581 -16127058.38910581 -10143121.56317923 0 0 0 0 0 96601030.38691607 -15650049.31056616 -15650049.31056616 -10210560.50700606 0 0 0 0 0 97436246.30441917 -15169138.6956279 -15169138.6956279 -10257029.85410276 0 0 0 0 0 98220696.54021995 -14686838.715907 -14686838.715907 -10284248.90041215 0 0 0 0 0 98956067.12403595 -14204721.0711646 -14204721.0711646 -10292873.30112695 0 0 0 0 0 99832837.75676747 -13840680.88485516 -13840680.88485516 -9834981.160339331 0 0 0 0 0 100053449.1580124 -13062951.32480632 -13062951.32480632 -9979648.848194653 0 0 0 0 0 100479046.5746893 -13375642.18200981 -13375642.18200981 -9842140.509439921 0 0 0 0 0 100645482.6432971 -12606345.26345764 -12606345.26345764 -9951283.532142764 0 0 0 0 0 101198775.0457253 -12154897.38893998 -12154897.38893998 -9904811.549716985 0 0 0 0 0 101708581.5369294 -11711968.46628133 -11711968.46628133 -9847334.693232333 0 0 0 0 0 102181153.6553506 -11276077.60302326 -11276077.60302326 -9778500.469058601 0 0 0 0 0 102355566.406537 -10743757.18981198 -10743757.18981198 -9465651.261060419 0 0 0 0 0 102803999.0194499 -11010427.30221728 -11010427.30221728 -9424416.521066774 0 0 0 0 0 102760025.8609045 -10336473.1194471 -10336473.1194471 -9386125.786065664 0 0 0 0 0 103134428.831538 -9936904.951671641 -9936904.951671641 -9296811.447009319 0 0 0 0 0 103479921.0018035 -9547116.711220317 -9547116.711220317 -9201211.603684744 0 0 0 0 0 103799242.6471123 -9164968.767009629 -9164968.767009629 -9096156.881390732 0 0 0 0 0 104092400.5121266 -8793347.964477196 -8793347.964477196 -8987252.431444976 0 0 0 0 0 104768926.3159619 -8252833.345564366 -8252833.345564366 -8624618.399798095 0 0 0 0 0 104362411.9251746 -8430525.633456016 -8430525.633456016 -8871441.423635572 0 0 0 0 0 104343913.9548271 -8049655.951856164 -8049655.951856164 -8577440.362869175 0 0 0 0 0 104569787.1593986 -7716492.236886043 -7716492.236886043 -8458422.062464776 0 0 0 0 0 104775035.0780683 -7396924.739188924 -7396924.739188924 -8331756.949629354 0 0 0 0 0 104951578.5992047 -7086860.59160749 -7086860.59160749 -8198023.623113456 0 0 0 0 0 105103167.4187563 -6789681.104061448 -6789681.104061448 -8075127.412381006 0 0 0 0 0 105251815.5371801 -6497240.317633938 -6497240.317633938 -7952964.603152316 0 0 0 0 0 105526024.4657108 -6376703.85738771 -6376703.85738771 -7781353.858578152 0 0 0 0 0 105148472.8432296 -6222456.707442982 -6222456.707442982 -7691833.527622585 0 0 0 0 0 105277681.3819982 -5949669.138181315 -5949669.138181315 -7565408.374238866 0 0 0 0 0 105393717.3160705 -5685571.686811006 -5685571.686811006 -7437849.165788796 0 0 0 0 0 105497655.7996369 -5429815.028116805 -5429815.028116805 -7309075.147583255 0 0 0 0 0 105705711.3823856 -5337028.020188706 -5337028.020188706 -7175586.652573962 0 0 0 0 0 105367696.5959118 -5211611.966180134 -5211611.966180134 -7075848.785603509 0 0 0 0 0 105452473.2056878 -4976763.823799291 -4976763.823799291 -6951428.082060143 0 0 0 0 0 105526733.866943 -4749538.170277983 -4749538.170277983 -6826451.787053753 0 0 0 0 0 105591627.4210176 -4529815.728890345 -4529815.728890345 -6701128.449419037 0 0 0 0 0 105647266.6765682 -4317365.636895205 -4317365.636895205 -6575818.695712301 0 0 0 0 0 105694853.5958246 -4112174.903193195 -4112174.903193195 -6450740.990565655 0 0 0 0 0 105734772.5065062 -3914180.206550243 -3914180.206550243 -6325841.693304197 0 0 0 0 0 105767051.7519647 -3723472.205174068 -3723472.205174068 -6201900.509256179 0 0 0 0 0 105607004.2476068 -3591298.641907939 -3591298.641907939 -6015885.814564223 0 0 0 0 0 105880364.1031012 -3673227.857596597 -3673227.857596597 -6130278.943323455 0 0 0 0 0 105630177.8167014 -3415696.353135485 -3415696.353135485 -5897907.869654244 0 0 0 0 0 105728791.6372131 -3371815.868265455 -3371815.868265455 -5835017.398616864 0 0 0 0 0 105473738.9841197 -3297827.890868239 -3297827.890868239 -5724161.515954738 0 0 0 0 0 105489250.1243644 -3136684.296750248 -3136684.296750248 -5611038.211579488 0 0 0 0 0 105501895.9704758 -2984381.960904298 -2984381.960904298 -5498489.28532723 0 0 0 0 0 105513240.389088 -2838318.572234374 -2838318.572234374 -5400527.217947529 0 0 0 0 0 105541112.6774359 -2694818.418285122 -2694818.418285122 -5255647.706471567 0 0 0 0 0 105527952.9979775 -2592147.322737864 -2592147.322737864 -5148721.719137348 0 0 0 0 0 105481460.3813593 -2501973.110317821 -2501973.110317821 -5051164.559852929 0 0 0 0 0 86054612.09513874 -20934530.74629857 -20934530.74629857 -9858918.996744039 0 0 0 0 0 24168029.8986612 -1268312.046741558 -1268312.046741558 -3936917.090160136 0 0 0 0 0 25461121.24264601 -3301568.382179436 -3301568.382179436 -3409812.470218164 0 0 0 0 0 27032700.84541927 -5203320.217266756 -5203320.217266756 -2952125.339450709 0 0 0 0 0 28883865.83012211 -6981122.843130475 -6981122.843130475 -2483624.817028572 0 0 0 0 0 30857438.65093952 -8806798.991506772 -8806798.991506772 -2345645.933229044 0 0 0 0 0 32466708.84387284 -10801381.16708007 -10801381.16708007 -2426032.324281179 0 0 0 0 0 34258189.6782654 -12749969.05881554 -12749969.05881554 -2600303.251856938 0 0 0 0 0 36269662.62672888 -14568418.28053971 -14568418.28053971 -2836511.872988473 0 0 0 0 0 38448952.1663706 -16251686.23969804 -16251686.23969804 -3133653.734234694 0 0 0 0 0 39502257.89263082 -15912968.12834077 -15912968.12834077 -2965816.113756812 0 0 0 0 0 42903071.32624955 -17649934.89014911 -17649934.89014911 -2906865.814707022 0 0 0 0 0 45260216.84788103 -18980435.00308399 -18980435.00308399 -3355616.21052776 0 0 0 0 0 47705077.69409163 -20170644.11800211 -20170644.11800211 -3843985.517679399 0 0 0 0 0 50215845.45774671 -21219770.41461263 -21219770.41461263 -4364625.931684447 0 0 0 0 0 54414402.75497408 -21696301.96672805 -21696301.96672805 -4473040.087752528 0 0 0 0 0 51884307.56221513 -20671603.02490703 -20671603.02490703 -4051115.377602313 0 0 0 0 0 56887035.06294569 -22420181.22388705 -22420181.22388705 -5040657.249264767 0 0 0 0 0 59370134.08629421 -23016164.5821402 -23016164.5821402 -5612270.805547326 0 0 0 0 0 61844407.41590448 -23491158.96363727 -23491158.96363727 -6186973.142111505 0 0 0 0 0 64296429.84526472 -23847946.95805496 -23847946.95805496 -6754791.067259605 0 0 0 0 0 66713393.14085104 -24095499.11572492 -24095499.11572492 -7313031.90768934 0 0 0 0 0 69088270.85258053 -24236931.28838449 -24236931.28838449 -7851548.876178338 0 0 0 0 0 71097140.57522722 -23522721.60672369 -23522721.60672369 -7265912.608274053 0 0 0 0 0 72217798.13642921 -23675198.39584646 -23675198.39584646 -7961055.641704041 0 0 0 0 0 74375885.52921604 -23627203.60509831 -23627203.60509831 -8446563.633276086 0 0 0 0 0 76469540.90774871 -23501742.57889543 -23501742.57889543 -8904002.05870882 0 0 0 0 0 78474996.70244038 -23306826.63076218 -23306826.63076218 -9325038.167746088 0 0 0 0 0 80370592.7184107 -23038847.19879121 -23038847.19879121 -9698418.763851335 0 0 0 0 0 82197392.64622465 -22719929.13122143 -22719929.13122143 -10043780.47711814 0 0 0 0 0 83983612.07217923 -22043881.57558245 -22043881.57558245 -9371208.97181705 0 0 0 0 0 84239831.7525626 -21822159.57003662 -21822159.57003662 -9963599.29702514 0 0 0 0 0 85888403.01895119 -21433402.88954832 -21433402.88954832 -10261341.10772964 0 0 0 0 0 87610073.84263459 -20328593.23299678 -20328593.23299678 -9224917.531062011 0 0 0 0 0 89046373.91182408 -19940427.17397449 -19940427.17397449 -9481618.456561787 0 0 0 0 0 90448358.3448419 -19088438.50314309 -19088438.50314309 -9356527.922767693 0 0 0 0 0 89024774.00220664 -19644441.20496762 -19644441.20496762 -9961628.594943626 0 0 0 0 0 91723346.80558437 -18661422.60507375 -18661422.60507375 -9572941.141178373 0 0 0 0 0 92931071.46295984 -18213939.53149876 -18213939.53149876 -9762892.864735864 0 0 0 0 0 94072371.7593274 -17749195.83995369 -17749195.83995369 -9927038.132904831 0 0 0 0 0 95147755.67108452 -17270295.25928337 -17270295.25928337 -10066230.94314222 0 0 0 0 0 96010254.06898254 -16465100.79479294 -16465100.79479294 -9848878.259690341 0 0 0 0 0 94872333.79865524 -16924300.93230513 -16924300.93230513 -10391935.06985077 0 0 0 0 0 96932119.36885676 -15988973.78758239 -15988973.78758239 -9945773.204558739 0 0 0 0 0 97797931.64370184 -15507445.67562181 -15507445.67562181 -10021017.2960717 0 0 0 0 0 98609141.09641838 -15022822.58114551 -15022822.58114551 -10076321.64018674 0 0 0 0 0 99367241.47549158 -14537081.83986459 -14537081.83986459 -10112122.84553744 0 0 0 0 0 100075731.8422471 -14051961.69619711 -14051961.69619711 -10130093.67761231 0 0 0 0 0 99643773.85606128 -13724024.15665402 -13724024.15665402 -10285195.33540636 0 0 0 0 0 101083457.3850326 -12913117.0038872 -12913117.0038872 -9833782.580448719 0 0 0 0 0 100287344.1487912 -13246244.61290189 -13246244.61290189 -10261898.40494328 0 0 0 0 0 101650628.3341351 -12452351.94734972 -12452351.94734972 -9809602.60878621 0 0 0 0 0 102171382.0667059 -12000796.24411762 -12000796.24411762 -9778142.177345499 0 0 0 0 0 102649036.4862436 -11556853.98454773 -11556853.98454773 -9729824.327424552 0 0 0 0 0 103092395.8554638 -11119992.09857021 -11119992.09857021 -9668229.471731475 0 0 0 0 0 103211345.562422 -10594499.7170213 -10594499.7170213 -9361064.21403919 0 0 0 0 0 102621336.9711013 -10847591.4303248 -10847591.4303248 -9701001.766798446 0 0 0 0 0 103587772.2046754 -10187067.54397657 -10187067.54397657 -9289745.419647988 0 0 0 0 0 103933109.4554112 -9787773.886048436 -9787773.886048436 -9207088.77727115 0 0 0 0 0 104250381.1048458 -9397572.538735317 -9397572.538735317 -9118905.150492229 0 0 0 0 0 104540683.8999501 -9017278.004899377 -9017278.004899377 -9020572.363314521 0 0 0 0 0 104807541.2095668 -8645581.857283374 -8645581.857283374 -8916746.141805233 0 0 0 0 0 104609577.6633865 -8077372.171353564 -8077372.171353564 -8750819.429147221 0 0 0 0 0 105049863.1551482 -8283595.333911518 -8283595.333911518 -8807155.615708236 0 0 0 0 0 104991775.4906161 -7909960.337054503 -7909960.337054503 -8517477.195434077 0 0 0 0 0 105188026.8992934 -7579240.941018227 -7579240.941018227 -8408364.820117498 0 0 0 0 0 105354816.1441665 -7267672.695516004 -7267672.695516004 -8299180.700890034 0 0 0 0 0 105500606.6381969 -6963626.469554185 -6963626.469554185 -8185156.160667961 0 0 0 0 0 105644884.9071033 -6663608.941275788 -6663608.941275788 -8047973.202427409 0 0 0 0 0 105782083.6278588 -6365955.968557179 -6365955.968557179 -7915235.190842938 0 0 0 0 0 105392264.287647 -6208906.493348398 -6208906.493348398 -7820718.123870111 0 0 0 0 0 105647005.1484782 -6095752.210588537 -6095752.210588537 -7658959.777136459 0 0 0 0 0 105755657.4917729 -5824800.804025892 -5824800.804025892 -7536172.715898792 0 0 0 0 0 105852495.3349955 -5562557.329690896 -5562557.329690896 -7412107.810720309 0 0 0 0 0 105937206.0207635 -5308527.966095905 -5308527.966095905 -7286742.285225544 0 0 0 0 0 105589780.2048473 -5182323.907768092 -5182323.907768092 -7179477.913440225 0 0 0 0 0 105783346.5853472 -5095987.071018033 -5095987.071018033 -7055211.382683534 0 0 0 0 0 105850520.7266307 -4862838.281701013 -4862838.281701013 -6933881.708175643 0 0 0 0 0 105908101.4718078 -4637285.328634378 -4637285.328634378 -6811651.17730415 0 0 0 0 0 105956609.9546489 -4419366.945833763 -4419366.945833763 -6689038.601085003 0 0 0 0 0 105996699.9625447 -4208823.247632652 -4208823.247632652 -6566147.578735213 0 0 0 0 0 106028995.6674194 -4005594.714088392 -4005594.714088392 -6443423.143638667 0 0 0 0 0 106053773.6370052 -3809846.136692681 -3809846.136692681 -6321338.679775268 0 0 0 0 0 106071902.1513996 -3621042.126451591 -3621042.126451591 -6199270.521938741 0 0 0 0 0 105896866.3821055 -3493343.42425795 -3493343.42425795 -6013261.299239816 0 0 0 0 0 105792601.713661 -3539451.92955986 -3539451.92955986 -6078648.31325349 0 0 0 0 0 105907663.0866174 -3319680.287490149 -3319680.287490149 -5896883.160439921 0 0 0 0 0 105647673.2177849 -3246038.492380316 -3246038.492380316 -5780858.218196894 0 0 0 0 0 105737885.1774607 -3205985.831143307 -3205985.831143307 -5723672.450509306 0 0 0 0 0 105740634.6889682 -3046377.428685538 -3046377.428685538 -5613025.04995719 0 0 0 0 0 105735860.0605751 -2895104.155543428 -2895104.155543428 -5503244.152210592 0 0 0 0 0 105747863.6772767 -2750220.644278826 -2750220.644278826 -5389664.199384051 0 0 0 0 0 105688014.2975043 -2631138.593008011 -2631138.593008011 -5321782.112045131 0 0 0 0 0 105594777.6208281 -2535959.027021422 -2535959.027021422 -5245366.388636104 0 0 0 0 0 105536490.3913291 -2446536.342558349 -2446536.342558349 -5145751.859528373 0 0 0 0 0 87510124.18677559 -20807047.49405359 -20807047.49405359 -9608708.239338551 0 0 0 0 0 23076118.45720685 -846158.651963014 -846158.651963014 -4599181.756986716 0 0 0 0 0 24721259.19581636 -2961475.259259235 -2961475.259259235 -3949835.913685723 0 0 0 0 0 26425482.51815894 -4918771.617788776 -4918771.617788776 -3416741.096842904 0 0 0 0 0 27819029.22632949 -6623527.574569469 -6623527.574569469 -3036732.793460082 0 0 0 0 0 28649353.20146375 -8490173.040838666 -8490173.040838666 -3092607.798007341 0 0 0 0 0 30334461.40429718 -10446612.19359457 -10446612.19359457 -3177151.750652852 0 0 0 0 0 32445154.10228128 -12400064.87311426 -12400064.87311426 -3271379.783908566 0 0 0 0 0 34744157.68362141 -14229400.91264109 -14229400.91264109 -3431693.276238964 0 0 0 0 0 37207753.60292789 -15927532.94525193 -15927532.94525193 -3651448.741748817 0 0 0 0 0 40778620.19032844 -17798182.0888556 -17798182.0888556 -3494769.43338367 0 0 0 0 0 42022016.95254809 -17396988.11979293 -17396988.11979293 -3289491.31904461 0 0 0 0 0 44647423.01014195 -18743853.43029462 -18743853.43029462 -3663007.635535283 0 0 0 0 0 47349077.46351657 -19949052.98426106 -19949052.98426106 -4079831.603984134 0 0 0 0 0 50105793.32588795 -21012032.84498807 -21012032.84498807 -4532287.328889845 0 0 0 0 0 54552516.03706313 -21537153.17258261 -21537153.17258261 -4548267.727814245 0 0 0 0 0 52772831.77013522 -22128880.37091157 -22128880.37091157 -4909264.103414254 0 0 0 0 0 57225246.87042268 -22268778.35338815 -22268778.35338815 -5063217.710040119 0 0 0 0 0 59883960.85560183 -22870895.29080942 -22870895.29080942 -5588034.80504316 0 0 0 0 0 62531731.57143459 -23350693.31912182 -23350693.31912182 -6117696.457142383 0 0 0 0 0 65142814.1955438 -23710844.53192154 -23710844.53192154 -6645468.994495653 0 0 0 0 0 67721193.51947893 -23958815.31744154 -23958815.31744154 -7164956.843431608 0 0 0 0 0 70230419.25948529 -24100033.78514646 -24100033.78514646 -7671653.102336597 0 0 0 0 0 71410605.0977819 -24279807.76781024 -24279807.76781024 -8367743.467072192 0 0 0 0 0 73420498.70684315 -23557822.50318239 -23557822.50318239 -7753671.032435784 0 0 0 0 0 75671190.97341827 -23506113.28011331 -23506113.28011331 -8219688.230776317 0 0 0 0 0 77844495.88953656 -23374701.04144585 -23374701.04144585 -8661241.247124773 0 0 0 0 0 79921132.49003199 -23177541.46309253 -23177541.46309253 -9083441.866867576 0 0 0 0 0 81882058.30116357 -22906791.47821243 -22906791.47821243 -9449017.138608411 0 0 0 0 0 83753744.72615767 -22582442.28995216 -22582442.28995216 -9798601.631307174 0 0 0 0 0 83975165.75911546 -22354479.07057721 -22354479.07057721 -10376216.52877881 0 0 0 0 0 85726459.75383703 -21688876.5235837 -21688876.5235837 -9698658.956333907 0 0 0 0 0 87387773.02845795 -21292467.69701319 -21292467.69701319 -9995700.396646542 0 0 0 0 0 87529552.04092953 -20526431.72989536 -20526431.72989536 -10112488.41309559 0 0 0 0 0 88942451.08841911 -20089116.16137328 -20089116.16137328 -10339360.38306917 0 0 0 0 0 90347398.35423096 -19201587.57829978 -19201587.57829978 -10171568.62490333 0 0 0 0 0 90421789.47099918 -19518225.9428862 -19518225.9428862 -9712767.538095396 0 0 0 0 0 91603506.28801852 -18738814.21553595 -18738814.21553595 -10354456.62907841 0 0 0 0 0 92794260.40059988 -18257811.75629289 -18257811.75629289 -10509512.89159047 0 0 0 0 0 93920474.99922694 -17761788.02259524 -17761788.02259524 -10637761.86952835 0 0 0 0 0 94983291.7892634 -17254884.02646261 -17254884.02646261 -10740277.60022165 0 0 0 0 0 95842650.68178335 -16431401.67711323 -16431401.67711323 -10476208.74145348 0 0 0 0 0 96160352.34664662 -16780738.66873581 -16780738.66873581 -10181386.30438514 0 0 0 0 0 96755986.0772907 -15932925.0723781 -15932925.0723781 -10537443.12412804 0 0 0 0 0 97614719.44129945 -15431040.93327547 -15431040.93327547 -10577391.59281498 0 0 0 0 0 98420088.68915017 -14927803.3449587 -14927803.3449587 -10597220.13932256 0 0 0 0 0 99173715.55188881 -14425733.18619764 -14425733.18619764 -10599079.43904614 0 0 0 0 0 99878742.31345944 -13925373.89188209 -13925373.89188209 -10582513.35477499 0 0 0 0 0 100736670.9460103 -13568218.61505791 -13568218.61505791 -10129963.61091052 0 0 0 0 0 100889552.361312 -12772102.24103024 -12772102.24103024 -10224744.89214623 0 0 0 0 0 101351900.3685648 -13087183.56901783 -13087183.56901783 -10114030.2903639 0 0 0 0 0 101455922.8254994 -12303574.20435246 -12303574.20435246 -10173840.1685332 0 0 0 0 0 101980045.3328969 -11840996.41936824 -11840996.41936824 -10104913.31272116 0 0 0 0 0 102459319.6916905 -11389190.45888534 -11389190.45888534 -10026768.9194371 0 0 0 0 0 102904095.0292284 -10946368.15614878 -10946368.15614878 -9939621.1469466 0 0 0 0 0 103030707.3941254 -10427703.79100095 -10427703.79100095 -9614298.4875856 0 0 0 0 0 103503056.4775051 -10690221.53368904 -10690221.53368904 -9596350.146487242 0 0 0 0 0 103409350.281648 -10013844.13917797 -10013844.13917797 -9513891.457282752 0 0 0 0 0 103756784.450116 -9612769.584601214 -9612769.584601214 -9412854.326299673 0 0 0 0 0 104078331.0117052 -9217463.851957798 -9217463.851957798 -9294615.343795966 0 0 0 0 0 104370118.7939842 -8836109.628427915 -8836109.628427915 -9179465.172051396 0 0 0 0 0 104640310.6445163 -8462365.888650436 -8462365.888650436 -9054809.41672417 0 0 0 0 0 105270831.8160564 -7931449.373606844 -7931449.373606844 -8691857.461133093 0 0 0 0 0 104886568.571358 -8099448.166083437 -8099448.166083437 -8925361.601822169 0 0 0 0 0 104836162.051982 -7734051.452362448 -7734051.452362448 -8625725.699140504 0 0 0 0 0 105043354.1070868 -7403575.868773966 -7403575.868773966 -8489099.711103339 0 0 0 0 0 105216040.6767233 -7084721.583580777 -7084721.583580777 -8353116.435696643 0 0 0 0 0 105369270.4055084 -6779941.859867541 -6779941.859867541 -8208519.400387454 0 0 0 0 0 105505560.0744688 -6487441.312665739 -6487441.312665739 -8086288.952322873 0 0 0 0 0 105643358.3145654 -6191448.827132512 -6191448.827132512 -7950383.879071994 0 0 0 0 0 105898633.9482123 -6078170.093277572 -6078170.093277572 -7788712.422469056 0 0 0 0 0 105517636.9095498 -5930504.65038737 -5930504.65038737 -7687171.484850241 0 0 0 0 0 105630101.0594364 -5661378.032284846 -5661378.032284846 -7553385.710595168 0 0 0 0 0 105730436.3018042 -5400387.095816878 -5400387.095816878 -7418066.118572778 0 0 0 0 0 105818879.2310386 -5148056.205899752 -5148056.205899752 -7282058.483151253 0 0 0 0 0 106010741.0724628 -5062841.347006901 -5062841.347006901 -7160276.488741408 0 0 0 0 0 105670849.1241331 -4942976.63844889 -4942976.63844889 -7049231.873657845 0 0 0 0 0 105741500.1080096 -4711571.389752047 -4711571.389752047 -6918523.252888429 0 0 0 0 0 105802482.5405349 -4488036.262196926 -4488036.262196926 -6787689.466377491 0 0 0 0 0 105854339.9773913 -4272174.335320288 -4272174.335320288 -6656972.513451157 0 0 0 0 0 105897780.4162889 -4063850.991845028 -4063850.991845028 -6526588.106178627 0 0 0 0 0 105933463.1449906 -3863036.08485991 -3863036.08485991 -6396682.494714719 0 0 0 0 0 105961671.9733214 -3669558.865618966 -3669558.865618966 -6267531.778302923 0 0 0 0 0 105982964.5863036 -3483123.145171277 -3483123.145171277 -6139417.174374914 0 0 0 0 0 105811940.2105024 -3361826.744638529 -3361826.744638529 -5956207.881757206 0 0 0 0 0 106083944.6857074 -3438879.077849626 -3438879.077849626 -6077645.270261186 0 0 0 0 0 105825570.885388 -3190424.512227625 -3190424.512227625 -5834811.457916704 0 0 0 0 0 105912899.1411125 -3152212.335683813 -3152212.335683813 -5781598.317792622 0 0 0 0 0 105659496.846314 -3082484.710180895 -3082484.710180895 -5664738.667306075 0 0 0 0 0 105666567.3573636 -2926079.675404471 -2926079.675404471 -5548064.280327259 0 0 0 0 0 105671242.5475671 -2782087.710675615 -2782087.710675615 -5428412.314692742 0 0 0 0 0 105667193.8442857 -2638048.296365279 -2638048.296365279 -5327452.978898579 0 0 0 0 0 105689468.3087264 -2486319.231707732 -2486319.231707732 -5165915.272130996 0 0 0 0 0 105649923.462887 -2393081.803315496 -2393081.803315496 -5060775.013386406 0 0 0 0 0 87429259.45631768 -21006198.82361989 -21006198.82361989 -10519914.79987564 0 0 0 0 0 21648797.93667205 -1341006.986395648 -1341006.986395648 -5371642.762665223 0 0 0 0 0 22918431.24434753 -3442083.426741944 -3442083.426741944 -4692651.469223408 0 0 0 0 0 24383835.62176121 -5375284.725153667 -5375284.725153667 -4136832.618420893 0 0 0 0 0 26060244.55693593 -7159989.347268165 -7159989.347268165 -3778075.014127447 0 0 0 0 0 28433881.51632267 -8569653.625997566 -8569653.625997566 -3156107.306971614 0 0 0 0 0 30098467.95247621 -10557467.49437213 -10557467.49437213 -3350069.453668959 0 0 0 0 0 31870555.36234824 -12608759.8645992 -12608759.8645992 -3456345.490097688 0 0 0 0 0 33923958.22091218 -14510774.65237458 -14510774.65237458 -3625119.713660143 0 0 0 0 0 36162261.45015962 -16278039.40569079 -16278039.40569079 -3866694.401496038 0 0 0 0 0 38565295.04820149 -17907582.34851939 -17907582.34851939 -4174351.136297805 0 0 0 0 0 39822101.01840185 -17492725.30250849 -17492725.30250849 -3931339.201114102 0 0 0 0 0 43226161.59750623 -19205528.07015269 -19205528.07015269 -3910086.699945437 0 0 0 0 0 45767199.83494158 -20467438.33288995 -20467438.33288995 -4371967.084637566 0 0 0 0 0 48383223.96165758 -21581324.16426685 -21581324.16426685 -4869323.540732141 0 0 0 0 0 51051621.89713711 -22548527.27863739 -22548527.27863739 -5396906.905533433 0 0 0 0 0 55357362.0425676 -22899653.96415229 -22899653.96415229 -5469311.324854444 0 0 0 0 0 52895443.04605717 -21933047.02413174 -21933047.02413174 -5013186.054542723 0 0 0 0 0 57946312.67425316 -23534310.46132418 -23534310.46132418 -6037003.297147505 0 0 0 0 0 60536586.02724157 -24039758.5222504 -24039758.5222504 -6606495.619615989 0 0 0 0 0 63106030.17123035 -24423076.00033109 -24423076.00033109 -7171858.979386019 0 0 0 0 0 65647571.17588878 -24688523.21366265 -24688523.21366265 -7730828.977376612 0 0 0 0 0 68134746.77174836 -24843244.41677858 -24843244.41677858 -8275873.214443849 0 0 0 0 0 70565812.24522744 -24893842.79605074 -24893842.79605074 -8797566.168789703 0 0 0 0 0 72665262.40327249 -24141361.17044901 -24141361.17044901 -8161998.282759973 0 0 0 0 0 73670200.57244523 -24231596.49308195 -24231596.49308195 -8858322.590414343 0 0 0 0 0 75861860.59409544 -24100282.55132245 -24100282.55132245 -9321603.05747311 0 0 0 0 0 77985910.27809058 -23899608.68436237 -23899608.68436237 -9753451.033686398 0 0 0 0 0 79972595.22704077 -23618798.51774457 -23618798.51774457 -10137176.97126277 0 0 0 0 0 81893411.76237099 -23289875.13435162 -23289875.13435162 -10497828.57809158 0 0 0 0 0 83717254.29679577 -22902146.27649723 -22902146.27649723 -10803100.88334822 0 0 0 0 0 85533076.75743794 -22203548.38465015 -22203548.38465015 -10103763.98659621 0 0 0 0 0 85688728.22231774 -21942083.2973416 -21942083.2973416 -10667609.98586414 0 0 0 0 0 87322243.16736282 -21495783.15113952 -21495783.15113952 -10938264.72318891 0 0 0 0 0 88999598.19944856 -20399105.40614019 -20399105.40614019 -9872272.388723629 0 0 0 0 0 90416037.50081702 -19954752.97171784 -19954752.97171784 -10097550.57945499 0 0 0 0 0 91737596.16763118 -19070290.20488598 -19070290.20488598 -9928606.139699828 0 0 0 0 0 90308754.68941899 -19628872.93906748 -19628872.93906748 -10548488.57209346 0 0 0 0 0 92987131.900398 -18601052.69566081 -18601052.69566081 -10117351.0708292 0 0 0 0 0 94167663.54997824 -18114035.81280481 -18114035.81280481 -10278878.95781879 0 0 0 0 0 95278932.4527624 -17612250.20031915 -17612250.20031915 -10414368.7858727 0 0 0 0 0 96323359.64961511 -17099755.91948707 -17099755.91948707 -10524984.74184675 0 0 0 0 0 97109483.83394516 -16283104.96353633 -16283104.96353633 -10274109.02522788 0 0 0 0 0 95984725.64882633 -16739365.1830355 -16739365.1830355 -10818997.94376403 0 0 0 0 0 97999313.03639238 -15780209.23099951 -15780209.23099951 -10344183.17277501 0 0 0 0 0 98831983.25789675 -15274437.14398276 -15274437.14398276 -10392923.11333682 0 0 0 0 0 99608271.82993482 -14768217.12157503 -14768217.12157503 -10422192.90382551 0 0 0 0 0 100333559.8339844 -14263003.19343037 -14263003.19343037 -10432474.48307835 0 0 0 0 0 101007831.7511486 -13760050.4283938 -13760050.4283938 -10425191.80473704 0 0 0 0 0 100536630.1244115 -13428017.69579462 -13428017.69579462 -10551090.52270503 0 0 0 0 0 101927389.8432244 -12610215.6590194 -12610215.6590194 -10083069.23214363 0 0 0 0 0 101150602.8180903 -12936090.68516509 -12936090.68516509 -10504758.19409964 0 0 0 0 0 102459509.6058777 -12139997.09527609 -12139997.09527609 -10039339.63218037 0 0 0 0 0 102947804.6755183 -11677654.44418113 -11677654.44418113 -9984900.822736375 0 0 0 0 0 103396438.799985 -11225421.07309977 -11225421.07309977 -9916393.277740151 0 0 0 0 0 103809370.0096207 -10781145.72148993 -10781145.72148993 -9835204.478347493 0 0 0 0 0 103881895.9999396 -10268783.05918669 -10268783.05918669 -9514530.113369729 0 0 0 0 0 103316718.8867276 -10511876.79725001 -10511876.79725001 -9843018.713580895 0 0 0 0 0 104228215.1209494 -9858357.425732899 -9858357.425732899 -9427776.686220866 0 0 0 0 0 104549121.4346716 -9454094.357025135 -9454094.357025135 -9325148.216871526 0 0 0 0 0 104837708.6256866 -9064271.916159168 -9064271.916159168 -9225572.925738836 0 0 0 0 0 105101700.9134163 -8680709.031871961 -8680709.031871961 -9109510.523764893 0 0 0 0 0 105343126.7837659 -8308638.085617023 -8308638.085617023 -8991428.761495259 0 0 0 0 0 105111051.7895571 -7747113.801297443 -7747113.801297443 -8792306.856346002 0 0 0 0 0 105561137.1885415 -7947224.06196121 -7947224.06196121 -8868388.731296398 0 0 0 0 0 105471464.7622736 -7589211.000381796 -7589211.000381796 -8572167.54141696 0 0 0 0 0 105637765.4677643 -7265021.870827974 -7265021.870827974 -8457836.97878571 0 0 0 0 0 105785338.556856 -6951469.1994723 -6951469.1994723 -8331071.329349685 0 0 0 0 0 105908727.1388626 -6649499.784185609 -6649499.784185609 -8205308.477104946 0 0 0 0 0 106041198.0652988 -6349624.742955555 -6349624.742955555 -8053487.228382036 0 0 0 0 0 106161124.2385195 -6055875.856195982 -6055875.856195982 -7916514.526547609 0 0 0 0 0 105765770.7671416 -5905749.770080669 -5905749.770080669 -7808944.165524539 0 0 0 0 0 106001419.8472119 -5801140.202127636 -5801140.202127636 -7659581.373946179 0 0 0 0 0 106095431.2210976 -5534034.728028147 -5534034.728028147 -7528876.516916391 0 0 0 0 0 106175914.6266112 -5274881.536163103 -5274881.536163103 -7397186.867502269 0 0 0 0 0 106244932.0480579 -5024576.874428926 -5024576.874428926 -7264370.417413279 0 0 0 0 0 105896039.6147077 -4904242.998426941 -4904242.998426941 -7145701.404207676 0 0 0 0 0 106073783.2396152 -4825322.781251757 -4825322.781251757 -7032979.909117477 0 0 0 0 0 106127015.4184886 -4595827.785008196 -4595827.785008196 -6905133.058960625 0 0 0 0 0 106171112.0984569 -4374266.747691371 -4374266.747691371 -6776991.847988628 0 0 0 0 0 106206734.2997545 -4160421.518813882 -4160421.518813882 -6648758.053455505 0 0 0 0 0 106234416.8982884 -3954203.625941716 -3954203.625941716 -6520766.651071388 0 0 0 0 0 106254577.4226706 -3755615.552131948 -3755615.552131948 -6393380.53474005 0 0 0 0 0 106268120.0044094 -3564309.065444515 -3564309.065444515 -6266516.426544533 0 0 0 0 0 106275512.981038 -3379872.566894758 -3379872.566894758 -6140128.133770668 0 0 0 0 0 106090323.6830611 -3263203.068309302 -3263203.068309302 -5956749.086498704 0 0 0 0 0 105998005.611276 -3303436.622428547 -3303436.622428547 -6012362.888162582 0 0 0 0 0 106091368.1263489 -3093991.998321361 -3093991.998321361 -5836912.092506484 0 0 0 0 0 105833764.6718356 -3025086.075714259 -3025086.075714259 -5714940.620109138 0 0 0 0 0 105912293.2566165 -2990825.624475573 -2990825.624475573 -5667517.230955893 0 0 0 0 0 105903303.7078962 -2836554.908324101 -2836554.908324101 -5555298.999144228 0 0 0 0 0 105878495.7582265 -2696384.607277759 -2696384.607277759 -5448059.54926863 0 0 0 0 0 105893997.7466056 -2543437.936490845 -2543437.936490845 -5310380.936061288 0 0 0 0 0 105760350.7678942 -2432840.534674666 -2432840.534674666 -5265612.406029333 0 0 0 0 0 105698220.5037955 -2337531.888529835 -2337531.888529835 -5155217.428602084 0 0 0 0 0 88960989.92043735 -20863706.01473565 -20863706.01473565 -10268552.88508539 0 0 0 0 0 20525936.11108771 -840714.633392665 -840714.633392665 -6164444.201464783 0 0 0 0 0 22257169.3906669 -3017028.645148843 -3017028.645148843 -5370681.402549029 0 0 0 0 0 24475549.81511908 -5110362.018539012 -5110362.018539012 -4652461.520170952 0 0 0 0 0 26921374.17499215 -7216111.403861132 -7216111.403861132 -4007097.514859734 0 0 0 0 0 25627605.21296449 -8301085.267072963 -8301085.267072963 -4044170.762964869 0 0 0 0 0 27700385.33293142 -10081388.29828165 -10081388.29828165 -4239741.204522349 0 0 0 0 0 29917603.12202973 -12173541.73745451 -12173541.73745451 -4217397.239052664 0 0 0 0 0 32283152.34676212 -14101628.08175736 -14101628.08175736 -4294774.370115569 0 0 0 0 0 34829485.49428301 -15890245.43697976 -15890245.43697976 -4450344.882985815 0 0 0 0 0 37519350.00207263 -17541957.38081244 -17541957.38081244 -4673292.300979845 0 0 0 0 0 41097922.15729531 -19397248.44818246 -19397248.44818246 -4547326.350389079 0 0 0 0 0 42549260.56398951 -18918929.18430997 -18918929.18430997 -4266767.764552931 0 0 0 0 0 45366890.64965812 -20198412.29021077 -20198412.29021077 -4650670.614528671 0 0 0 0 0 48239595.44028948 -21328736.03635988 -21328736.03635988 -5075458.869474006 0 0 0 0 0 51156657.35226177 -22310332.8646534 -22310332.8646534 -5533855.695191472 0 0 0 0 0 55694217.94437803 -22713394.15814792 -22713394.15814792 -5515550.967978152 0 0 0 0 0 53752806.8198971 -23370087.9369708 -23370087.9369708 -5943780.043159154 0 0 0 0 0 58482528.61370497 -23356116.01543091 -23356116.01543091 -6031313.307616383 0 0 0 0 0 61243654.5793048 -23868871.90595341 -23868871.90595341 -6552824.3681305 0 0 0 0 0 63977867.95019893 -24256824.39484284 -24256824.39484284 -7075684.889262979 0 0 0 0 0 66674129.17504711 -24526897.48200022 -24526897.48200022 -7594535.461994702 0 0 0 0 0 69314546.15735631 -24682491.40814642 -24682491.40814642 -8102944.836866247 0 0 0 0 0 71875857.33488497 -24731662.09322195 -24731662.09322195 -8594617.234041627 0 0 0 0 0 72933439.54858379 -24846233.92703913 -24846233.92703913 -9291394.236512216 0 0 0 0 0 75022222.12078534 -24090495.24543637 -24090495.24543637 -8631450.321039209 0 0 0 0 0 77297602.07345244 -23955517.6978653 -23955517.6978653 -9076902.341736702 0 0 0 0 0 79480953.89806736 -23747386.86496788 -23747386.86496788 -9495837.896327002 0 0 0 0 0 81563923.1558412 -23469035.75668321 -23469035.75668321 -9887578.976147953 0 0 0 0 0 83517113.21724752 -23124367.01499213 -23124367.01499213 -10229203.92118075 0 0 0 0 0 85400323.19036002 -22736489.78453277 -22736489.78453277 -10539605.20455184 0 0 0 0 0 85489825.55761679 -22468465.66737168 -22468465.66737168 -11096865.62266945 0 0 0 0 0 87261389.75118336 -21790045.66284925 -21790045.66284925 -10397980.65397725 0 0 0 0 0 88907644.08266744 -21333190.79966643 -21333190.79966643 -10666609.50923742 0 0 0 0 0 88892714.53028707 -20544219.52727448 -20544219.52727448 -10738488.85264246 0 0 0 0 0 90292554.37328984 -20060927.43976261 -20060927.43976261 -10933897.2536281 0 0 0 0 0 91610206.05102415 -19144848.07838628 -19144848.07838628 -10728828.23626918 0 0 0 0 0 91763392.67204216 -19483710.22718089 -19483710.22718089 -10299540.6631591 0 0 0 0 0 92843354.10154162 -18640365.29810896 -18640365.29810896 -10879465.22994916 0 0 0 0 0 94008243.25566287 -18120566.25260271 -18120566.25260271 -11003076.32422916 0 0 0 0 0 95106252.78801914 -17589273.17111614 -17589273.17111614 -11100665.37489235 0 0 0 0 0 96139586.96044552 -17050295.54486446 -17050295.54486446 -11171862.35451472 0 0 0 0 0 96924898.12238461 -16218609.42171809 -16218609.42171809 -10875036.36185272 0 0 0 0 0 97302917.34880874 -16579123.31039948 -16579123.31039948 -10611397.20463369 0 0 0 0 0 97807484.60393323 -15694387.52387268 -15694387.52387268 -10907348.01920164 0 0 0 0 0 98634361.55592476 -15169229.87492082 -15169229.87492082 -10918123.9519135 0 0 0 0 0 99406497.19743058 -14646783.52141918 -14646783.52141918 -10912542.57068094 0 0 0 0 0 100128162.485542 -14125899.20148323 -14125899.20148323 -10887249.44502443 0 0 0 0 0 100800165.8627996 -13609657.01782562 -13609657.01782562 -10845861.31321081 0 0 0 0 0 101637180.073582 -13260049.00068767 -13260049.00068767 -10400654.28868359 0 0 0 0 0 101725681.4300126 -12449373.86998496 -12449373.86998496 -10443541.92185531 0 0 0 0 0 102220555.1639686 -12764666.13341041 -12764666.13341041 -10361353.48165563 0 0 0 0 0 102257668.8571835 -11969886.06297448 -11969886.06297448 -10368243.96412709 0 0 0 0 0 102749469.8284032 -11499981.31601044 -11499981.31601044 -10280150.70255752 0 0 0 0 0 103200504.5857364 -11040858.37822908 -11040858.37822908 -10181881.48202773 0 0 0 0 0 103616146.3160549 -10591815.34184664 -10591815.34184664 -10074908.77536781 0 0 0 0 0 103698296.4954269 -10086221.34570085 -10086221.34570085 -9736148.826416666 0 0 0 0 0 104190524.3977915 -10345671.48482719 -10345671.48482719 -9744244.257754331 0 0 0 0 0 104046977.4485129 -9671516.738703657 -9671516.738703657 -9621477.993997974 0 0 0 0 0 104369404.5324661 -9265567.008838367 -9265567.008838367 -9501246.555038072 0 0 0 0 0 104664142.2624208 -8870406.153601199 -8870406.153601199 -9370657.663372051 0 0 0 0 0 104931582.3879667 -8487475.634680199 -8487475.634680199 -9238419.609948676 0 0 0 0 0 105176003.7442186 -8115100.661375461 -8115100.661375461 -9101071.947180446 0 0 0 0 0 105758593.9975762 -7596419.773000632 -7596419.773000632 -8740155.318470737 0 0 0 0 0 105398468.2729566 -7753596.102785517 -7753596.102785517 -8958341.363930918 0 0 0 0 0 105316405.5192613 -7406257.301609645 -7406257.301609645 -8655112.143180378 0 0 0 0 0 105497599.8654547 -7074973.494146829 -7074973.494146829 -8501529.261969574 0 0 0 0 0 105649492.253428 -6761755.50705216 -6761755.50705216 -8362343.331585472 0 0 0 0 0 105786647.7847821 -6460590.6666987 -6460590.6666987 -8205919.912509319 0 0 0 0 0 105905916.3053641 -6168552.128742619 -6168552.128742619 -8072799.589712893 0 0 0 0 0 106018858.6702846 -5879894.467289592 -5879894.467289592 -7934938.248436309 0 0 0 0 0 106258379.5403695 -5771867.866675314 -5771867.866675314 -7782319.239070911 0 0 0 0 0 105873753.3089493 -5632069.30411669 -5632069.30411669 -7667824.817735028 0 0 0 0 0 105970728.9045406 -5365751.729548099 -5365751.729548099 -7526300.804860648 0 0 0 0 0 106055132.5478453 -5108445.033164215 -5108445.033164215 -7383193.769467784 0 0 0 0 0 106128075.0431968 -4860238.802000273 -4860238.802000273 -7240511.323521589 0 0 0 0 0 106303491.6789121 -4782785.896258833 -4782785.896258833 -7130946.401354981 0 0 0 0 0 105962669.8376182 -4668731.151433131 -4668731.151433131 -7009095.148644945 0 0 0 0 0 106019509.1411685 -4441426.383772453 -4441426.383772453 -6872539.507872972 0 0 0 0 0 106067136.1036934 -4222138.141486579 -4222138.141486579 -6736245.572956954 0 0 0 0 0 106106230.9733695 -4010716.440378265 -4010716.440378265 -6600485.293600396 0 0 0 0 0 106137514.3292602 -3806997.977458693 -3806997.977458693 -6465318.906477981 0 0 0 0 0 106161269.588083 -3610863.831459374 -3610863.831459374 -6330999.585402322 0 0 0 0 0 106177998.3927759 -3422149.213588479 -3422149.213588479 -6198099.683359377 0 0 0 0 0 106188515.0289125 -3240429.461071014 -3240429.461071014 -6066338.765152362 0 0 0 0 0 106007392.5270199 -3130261.882253644 -3130261.882253644 -5886232.386403242 0 0 0 0 0 106277332.3415224 -3202161.094501066 -3202161.094501066 -6014530.764732554 0 0 0 0 0 106011547.8187194 -2963629.697873902 -2963629.697873902 -5761265.243243911 0 0 0 0 0 106087224.7844313 -2931476.671474767 -2931476.671474767 -5718878.67058745 0 0 0 0 0 105836044.9471324 -2866111.427425648 -2866111.427425648 -5596644.200830537 0 0 0 0 0 105832827.9969444 -2716689.205572847 -2716689.205572847 -5476306.445074537 0 0 0 0 0 105815397.927827 -2584953.418994027 -2584953.418994027 -5360823.84336234 0 0 0 0 0 105794043.6833513 -2490202.330102026 -2490202.330102026 -5355193.290532029 0 0 0 0 0 105824234.8094296 -2277342.598096578 -2277342.598096578 -5059495.166328048 0 0 0 0 0 105922147.0930917 -2355730.853546047 -2355730.853546047 -5157624.580057342 0 0 0 0 0 88845875.54457605 -21008207.82097154 -21008207.82097154 -11156287.86771718 0 0 0 0 0 19092875.41710669 -1403801.308768073 -1403801.308768073 -7050562.072699603 0 0 0 0 0 20492564.66333065 -3598948.51709852 -3598948.51709852 -6275835.158879858 0 0 0 0 0 22117159.22432947 -5653215.679169292 -5653215.679169292 -5539947.875393578 0 0 0 0 0 23871619.90524407 -7601999.351034744 -7601999.351034744 -4903358.184792373 0 0 0 0 0 27658788.11860954 -10129822.35966558 -10129822.35966558 -4399298.017951051 0 0 0 0 0 29365141.09127317 -12387059.91113649 -12387059.91113649 -4435683.375317151 0 0 0 0 0 31492694.22362599 -14388805.51678188 -14388805.51678188 -4540913.406878372 0 0 0 0 0 33779577.2472989 -16254975.92452995 -16254975.92452995 -4719433.762403982 0 0 0 0 0 36246583.02180793 -17975188.67302849 -17975188.67302849 -4969281.861530389 0 0 0 0 0 38875479.2845071 -19548512.35177042 -19548512.35177042 -5283808.49754127 0 0 0 0 0 40357256.17792882 -19052020.35575032 -19052020.35575032 -4959096.441587943 0 0 0 0 0 43739440.32456623 -20736477.39658475 -20736477.39658475 -4973931.083516981 0 0 0 0 0 46460672.70115297 -21920903.24770295 -21920903.24770295 -5440963.043451891 0 0 0 0 0 49246648.0215104 -22950300.90954871 -22950300.90954871 -5942962.366968811 0 0 0 0 0 52067555.26525912 -23826877.21458292 -23826877.21458292 -6469780.876590239 0 0 0 0 0 56460822.1182592 -24050093.06716346 -24050093.06716346 -6503923.435327382 0 0 0 0 0 54086504.95194198 -23144459.6921205 -23144459.6921205 -6017142.094218761 0 0 0 0 0 59157979.09411597 -24590818.28673273 -24590818.28673273 -7066617.341356815 0 0 0 0 0 61850842.31354718 -24999284.80318883 -24999284.80318883 -7625615.846337647 0 0 0 0 0 64508530.32834415 -25283857.74705713 -25283857.74705713 -8180193.56507841 0 0 0 0 0 67130161.01174778 -25454208.09479575 -25454208.09479575 -8723245.704267172 0 0 0 0 0 69682047.26123922 -25515962.62563977 -25515962.62563977 -9251417.565051317 0 0 0 0 0 72163655.54047281 -25469355.21929246 -25469355.21929246 -9746282.24993504 0 0 0 0 0 74344311.91795164 -24682480.09492113 -24682480.09492113 -9065555.489625115 0 0 0 0 0 75228028.78091769 -24711167.89773634 -24711167.89773634 -9757378.310075982 0 0 0 0 0 77447329.88243227 -24497322.10444829 -24497322.10444829 -10192896.21889793 0 0 0 0 0 79570834.76193103 -24212713.39015495 -24212713.39015495 -10598196.42181518 0 0 0 0 0 81578257.45043628 -23864618.39328118 -23864618.39328118 -10948237.33431714 0 0 0 0 0 83490018.50845847 -23457649.59428209 -23457649.59428209 -11273469.03979056 0 0 0 0 0 85321177.4551686 -22993179.37555238 -22993179.37555238 -11550148.44677629 0 0 0 0 0 87162125.87388596 -22300638.10639006 -22300638.10639006 -10832109.82745205 0 0 0 0 0 87193155.8020319 -21992522.44415949 -21992522.44415949 -11359416.31155838 0 0 0 0 0 88807355.98066472 -21485105.04304143 -21485105.04304143 -11595574.82665032 0 0 0 0 0 90430388.39332899 -20399830.36233435 -20399830.36233435 -10493753.70805094 0 0 0 0 0 91816014.14790972 -19907343.19614818 -19907343.19614818 -10694653.35454129 0 0 0 0 0 93054801.86654799 -18993681.47085997 -18993681.47085997 -10485585.51670083 0 0 0 0 0 91631677.91662239 -19556655.25872275 -19556655.25872275 -11114314.34595582 0 0 0 0 0 94275547.63143073 -18484269.68458925 -18484269.68458925 -10643187.7478579 0 0 0 0 0 95423175.4178074 -17959169.97084354 -17959169.97084354 -10774381.79507688 0 0 0 0 0 96500562.65626693 -17422482.99892306 -17422482.99892306 -10879706.44260887 0 0 0 0 0 97507911.30816451 -16877693.19828519 -16877693.19828519 -10960432.48622244 0 0 0 0 0 98218241.71195634 -16054097.55945429 -16054097.55945429 -10678105.07063056 0 0 0 0 0 97110328.47094834 -16507321.81589859 -16507321.81589859 -11223929.04588535 0 0 0 0 0 99071310.91348563 -15526763.72740893 -15526763.72740893 -10720239.44755735 0 0 0 0 0 99864616.7193695 -14999288.82480153 -14999288.82480153 -10739485.93478412 0 0 0 0 0 100609395.6396928 -14473689.44872484 -14473689.44872484 -10742939.25065084 0 0 0 0 0 101295844.3551501 -13950257.59098792 -13950257.59098792 -10727747.05050689 0 0 0 0 0 101935744.4597844 -13432075.68172357 -13432075.68172357 -10694737.40020933 0 0 0 0 0 101426621.7843781 -13097307.8204566 -13097307.8204566 -10790712.4626941 0 0 0 0 0 102761847.1885528 -12276621.19962049 -12276621.19962049 -10309051.13179131 0 0 0 0 0 102010933.2402645 -12592675.06308849 -12592675.06308849 -10719809.55470662 0 0 0 0 0 103257347.2667731 -11797770.44595293 -11797770.44595293 -10244373.40308699 0 0 0 0 0 103712135.9772835 -11327788.1440532 -11327788.1440532 -10167095.58121603 0 0 0 0 0 104129771.831032 -10868287.77395339 -10868287.77395339 -10077158.73693691 0 0 0 0 0 104512374.5344496 -10419042.3306759 -10419042.3306759 -9977420.704817152 0 0 0 0 0 104538108.3038143 -9922165.982851649 -9922165.982851649 -9647533.08765164 0 0 0 0 0 103999740.4286349 -10153558.08065918 -10153558.08065918 -9959433.746683029 0 0 0 0 0 104857417.9183237 -9507549.000533231 -9507549.000533231 -9539768.57899319 0 0 0 0 0 105148279.8094275 -9103381.43082406 -9103381.43082406 -9425471.28926051 0 0 0 0 0 105411596.825705 -8709321.626214132 -8709321.626214132 -9304025.791804273 0 0 0 0 0 105649224.1438548 -8327126.902840086 -8327126.902840086 -9176927.037737796 0 0 0 0 0 105865160.9532887 -7956174.515368572 -7956174.515368572 -9044561.957180779 0 0 0 0 0 105599556.1724435 -7403595.449968354 -7403595.449968354 -8813243.838291556 0 0 0 0 0 106057783.9753994 -7596889.942634368 -7596889.942634368 -8908958.744600289 0 0 0 0 0 105935131.9719415 -7256650.419158157 -7256650.419158157 -8608244.915432539 0 0 0 0 0 106079514.0838342 -6933780.47477308 -6933780.47477308 -8484546.408479281 0 0 0 0 0 106214187.2596311 -6617674.614775321 -6617674.614775321 -8340764.854944957 0 0 0 0 0 106315559.8811288 -6318160.321329808 -6318160.321329808 -8209259.342791256 0 0 0 0 0 106421266.8721365 -6027053.311136579 -6027053.311136579 -8055639.905567564 0 0 0 0 0 106526006.4190868 -5739865.611120407 -5739865.611120407 -7900105.215856 0 0 0 0 0 106124059.8414322 -5598173.671476859 -5598173.671476859 -7781454.976918798 0 0 0 0 0 106345840.9078261 -5500625.218594605 -5500625.218594605 -7644337.282640751 0 0 0 0 0 106422788.7132119 -5235895.737064174 -5235895.737064174 -7506646.493440672 0 0 0 0 0 106485946.0237917 -4980823.673274112 -4980823.673274112 -7367330.971818574 0 0 0 0 0 106539738.9950425 -4734862.11215513 -4734862.11215513 -7227423.127595483 0 0 0 0 0 106190359.8138871 -4620689.585551615 -4620689.585551615 -7097824.092998412 0 0 0 0 0 106352096.084512 -4549384.11198035 -4549384.11198035 -6997204.672131451 0 0 0 0 0 106391524.553771 -4324206.527128829 -4324206.527128829 -6863374.711744891 0 0 0 0 0 106422268.0614237 -4107081.147272107 -4107081.147272107 -6729627.080186971 0 0 0 0 0 106445184.0772154 -3897861.66317912 -3897861.66317912 -6596208.85588381 0 0 0 0 0 106460600.072029 -3696487.571607545 -3696487.571607545 -6463557.209067412 0 0 0 0 0 106469055.5096578 -3502712.800296234 -3502712.800296234 -6331741.185329404 0 0 0 0 0 106471572.8640744 -3316157.97728718 -3316157.97728718 -6200407.312166286 0 0 0 0 0 106468537.5676739 -3136525.474931839 -3136525.474931839 -6070106.123212839 0 0 0 0 0 106273723.0271718 -3031041.635227293 -3031041.635227293 -5890058.830976658 0 0 0 0 0 106193400.5242411 -3065351.194429347 -3065351.194429347 -5935751.206969668 0 0 0 0 0 106265217.8491263 -2866478.00511024 -2866478.00511024 -5766739.622016491 0 0 0 0 0 106010918.2733184 -2802919.857602802 -2802919.857602802 -5638293.292667926 0 0 0 0 0 106075699.6920868 -2775783.159405238 -2775783.159405238 -5603380.885584126 0 0 0 0 0 106045881.4064744 -2634525.859137428 -2634525.859137428 -5497696.674779775 0 0 0 0 0 105961476.8012729 -2525867.695472463 -2525867.695472463 -5413391.715734867 0 0 0 0 0 106028647.7464877 -2394353.049058401 -2394353.049058401 -5235899.136281341 0 0 0 0 0 105862645.2687184 -2222037.199049848 -2222037.199049848 -5152508.574793048 0 0 0 0 0 105916035.2241646 -2313621.90802709 -2313621.90802709 -5260710.871078349 0 0 0 0 0 90454174.94109295 -20846708.14743957 -20846708.14743957 -10910576.62612732 0 0 0 0 0 17908100.94922811 -855562.1230258696 -855562.1230258696 -7921090.189832583 0 0 0 0 0 19696464.80222205 -3105850.894679831 -3105850.894679831 -7068669.134321055 0 0 0 0 0 21645931.51994615 -5236810.901170955 -5236810.901170955 -6257775.95674176 0 0 0 0 0 23841494.92096284 -7295196.853685915 -7295196.853685915 -5467600.178376874 0 0 0 0 0 25163414.34404469 -9701121.065348895 -9701121.065348895 -5279751.663317712 0 0 0 0 0 27315490.99407897 -11907735.36857892 -11907735.36857892 -5251964.554323349 0 0 0 0 0 29728861.72928249 -13911934.62147685 -13911934.62147685 -5285932.536568825 0 0 0 0 0 32357516.88146437 -15795704.4785749 -15795704.4785749 -5372519.351238477 0 0 0 0 0 35154971.43950452 -17539288.75885462 -17539288.75885462 -5527551.659239186 0 0 0 0 0 38073906.72174773 -19139383.88693993 -19139383.88693993 -5754162.007185622 0 0 0 0 0 41616920.37126008 -20970882.83658228 -20970882.83658228 -5660668.172802716 0 0 0 0 0 43294329.47550391 -20412574.94441376 -20412574.94441376 -5300203.471461227 0 0 0 0 0 46292876.6784685 -21616110.74217799 -21616110.74217799 -5688579.571588566 0 0 0 0 0 49333153.96932491 -22663744.0537418 -22663744.0537418 -6116894.91403217 0 0 0 0 0 52395862.40226448 -23556259.78694561 -23556259.78694561 -6575933.147009214 0 0 0 0 0 57014557.50857062 -23835087.16854341 -23835087.16854341 -6516840.377681773 0 0 0 0 0 54903258.31524237 -24552978.47329584 -24552978.47329584 -7014487.530300092 0 0 0 0 0 59907876.29540145 -24384569.83468112 -24384569.83468112 -7029424.689028114 0 0 0 0 0 62763830.71889912 -24802353.05572316 -24802353.05572316 -7543144.785147887 0 0 0 0 0 65573163.65281005 -25092490.70134712 -25092490.70134712 -8055119.91942948 0 0 0 0 0 68336759.85809581 -25263982.00222072 -25263982.00222072 -8561245.731838716 0 0 0 0 0 71047637.42879353 -25325994.31829022 -25325994.31829022 -9053206.97718871 0 0 0 0 0 73634913.33692566 -25280540.91536406 -25280540.91536406 -9522812.091533879 0 0 0 0 0 74566401.00000319 -25331157.8912803 -25331157.8912803 -10213738.23972039 0 0 0 0 0 76725893.4465711 -24544850.76162694 -24544850.76162694 -9512486.840931455 0 0 0 0 0 79015003.87167528 -24327259.07248886 -24327259.07248886 -9933789.382594457 0 0 0 0 0 81204935.48519956 -24036955.64431924 -24036955.64431924 -10324038.59244264 0 0 0 0 0 83298854.11544091 -23679246.56227409 -23679246.56227409 -10670487.07668651 0 0 0 0 0 85259598.36121167 -23271889.25134609 -23271889.25134609 -11003011.3771463 0 0 0 0 0 87088261.47210446 -22806990.44171045 -22806990.44171045 -11285632.23250636 0 0 0 0 0 87061774.77276389 -22495554.57086045 -22495554.57086045 -11797951.72155801 0 0 0 0 0 88848695.02404238 -21816610.77012357 -21816610.77012357 -11082632.45144538 0 0 0 0 0 90467325.70997727 -21301773.34219673 -21301773.34219673 -11320008.65920135 0 0 0 0 0 90296042.94716033 -20499565.25042642 -20499565.25042642 -11348429.3016508 0 0 0 0 0 91665660.28937736 -19969925.91130615 -19969925.91130615 -11509389.78325824 0 0 0 0 0 92904313.24935098 -19028141.72970733 -19028141.72970733 -11261042.05446668 0 0 0 0 0 93134362.4219854 -19391008.59531304 -19391008.59531304 -10864025.2756541 0 0 0 0 0 94108070.75545853 -18483966.33533109 -18483966.33533109 -11379619.53592369 0 0 0 0 0 95241618.60762799 -17927923.18096199 -17927923.18096199 -11471446.91242046 0 0 0 0 0 96307771.25560872 -17363985.51199541 -17363985.51199541 -11537507.24663003 0 0 0 0 0 97308237.68402138 -16797680.45872224 -16797680.45872224 -11577578.19303641 0 0 0 0 0 98018305.73869197 -15959594.38509537 -15959594.38509537 -11248022.236019 0 0 0 0 0 98452964.6832381 -16328407.86286892 -16328407.86286892 -11017366.47111383 0 0 0 0 0 98865268.88210218 -15410050.98752997 -15410050.98752997 -11245474.16845414 0 0 0 0 0 99654733.44393885 -14868505.41744664 -14868505.41744664 -11234799.67210981 0 0 0 0 0 100394952.3900179 -14324705.09823271 -14324705.09823271 -11199130.41318606 0 0 0 0 0 101080373.7827949 -13788790.51258199 -13788790.51258199 -11147639.75444542 0 0 0 0 0 101717431.7399798 -13256550.89433121 -13256550.89433121 -11079533.30309807 0 0 0 0 0 102529935.6997829 -12916572.09400205 -12916572.09400205 -10644165.85900559 0 0 0 0 0 102552829.8945746 -12095825.17910247 -12095825.17910247 -10634176.83312306 0 0 0 0 0 103080680.9555172 -12410554.6698688 -12410554.6698688 -10583536.08885304 0 0 0 0 0 103050019.11958 -11608710.8857187 -11608710.8857187 -10536380.78678869 0 0 0 0 0 103507897.2902067 -11133231.43075632 -11133231.43075632 -10428145.09591719 0 0 0 0 0 103928164.8801386 -10668802.63679359 -10668802.63679359 -10310454.14177873 0 0 0 0 0 104314679.3547361 -10216110.46341253 -10216110.46341253 -10184671.50437524 0 0 0 0 0 104350944.7485791 -9725827.810672434 -9725827.810672434 -9835829.518526707 0 0 0 0 0 104860827.6563801 -9981755.832377171 -9981755.832377171 -9870175.680809312 0 0 0 0 0 104672493.6153065 -9308079.275471447 -9308079.275471447 -9703906.441904176 0 0 0 0 0 104966109.5285872 -8901371.930561187 -8901371.930561187 -9566530.242348135 0 0 0 0 0 105235105.9962609 -8506744.167192413 -8506744.167192413 -9423557.063832391 0 0 0 0 0 105477865.7913202 -8124409.921644777 -8124409.921644777 -9276184.914839417 0 0 0 0 0 105697425.9275571 -7753489.113293136 -7753489.113293136 -9125238.830004582 0 0 0 0 0 106230024.6483649 -7248780.78065316 -7248780.78065316 -8768422.178459615 0 0 0 0 0 105896021.9010448 -7394138.11255722 -7394138.11255722 -8969403.218023701 0 0 0 0 0 105779808.9485462 -7064457.55402596 -7064457.55402596 -8665384.978819339 0 0 0 0 0 105941323.4182667 -6737531.027196357 -6737531.027196357 -8505849.497806353 0 0 0 0 0 106079463.0469353 -6425057.555702911 -6425057.555702911 -8361174.451784339 0 0 0 0 0 106212497.1321592 -6121530.174462471 -6121530.174462471 -8180012.251184642 0 0 0 0 0 106295478.7065835 -5842936.815790915 -5842936.815790915 -8037185.615574275 0 0 0 0 0 106375880.3959385 -5569384.569233171 -5569384.569233171 -7918525.693771529 0 0 0 0 0 106611019.3411748 -5459317.672152334 -5459317.672152334 -7763185.117439702 0 0 0 0 0 106218554.0383193 -5326213.4407037 -5326213.4407037 -7633990.683592001 0 0 0 0 0 106298919.9311423 -5063046.398951042 -5063046.398951042 -7482953.962706086 0 0 0 0 0 106367020.2086165 -4810596.844425227 -4810596.844425227 -7333256.233951709 0 0 0 0 0 106424674.9634769 -4567110.478004292 -4567110.478004292 -7184200.735600192 0 0 0 0 0 106583386.1583175 -4497687.003749083 -4497687.003749083 -7087572.638171897 0 0 0 0 0 106242696.666091 -4389694.729665771 -4389694.729665771 -6955469.074456714 0 0 0 0 0 106285820.8991518 -4166959.747924236 -4166959.747924236 -6813425.755814285 0 0 0 0 0 106320259.5359914 -3952475.462538119 -3952475.462538119 -6672124.341300149 0 0 0 0 0 106346755.6210445 -3746003.165133401 -3746003.165133401 -6531742.515330522 0 0 0 0 0 106365882.076321 -3547291.938269921 -3547291.938269921 -6392397.840417348 0 0 0 0 0 106378065.9207075 -3356205.199747398 -3356205.199747398 -6254019.92438699 0 0 0 0 0 106383570.7009693 -3172638.880707106 -3172638.880707106 -6117736.690848839 0 0 0 0 0 106383711.1726327 -2995859.655898754 -2995859.655898754 -5982590.799946472 0 0 0 0 0 106192934.2510356 -2896950.397985577 -2896950.397985577 -5806298.990492712 0 0 0 0 0 106460331.6659486 -2963673.626184731 -2963673.626184731 -5941104.585113599 0 0 0 0 0 106187663.0452913 -2735193.105568861 -2735193.105568861 -5677979.90145225 0 0 0 0 0 106253651.4553264 -2708193.659134512 -2708193.659134512 -5644905.619255722 0 0 0 0 0 106006714.4425451 -2649606.556727814 -2649606.556727814 -5513834.545777034 0 0 0 0 0 106005113.591461 -2500428.902493344 -2500428.902493344 -5365954.096222493 0 0 0 0 0 105982905.4359173 -2356727.37813643 -2356727.37813643 -5331144.180912186 0 0 0 0 0 105987349.7780823 -2162065.470484744 -2162065.470484744 -5056636.012608312 0 0 0 0 0 106093606.8189847 -2232497.678763731 -2232497.678763731 -5140484.027266726 0 0 0 0 0 90317120.57948062 -20950070.54774123 -20950070.54774123 -11775288.30427101 0 0 0 0 0 16447296.09552075 -1460185.258332321 -1460185.258332321 -8875805.188347993 0 0 0 0 0 17867280.32583901 -3772427.83228839 -3772427.83228839 -8112697.27580529 0 0 0 0 0 19661104.02830418 -5838952.00962303 -5838952.00962303 -7195769.481491432 0 0 0 0 0 21850365.80011115 -7834029.464268384 -7834029.464268384 -6258540.740349429 0 0 0 0 0 24429241.61169716 -10011693.77431027 -10011693.77431027 -5738909.55649696 0 0 0 0 0 26821207.7400382 -12137886.1172253 -12137886.1172253 -5606176.906205405 0 0 0 0 0 28950425.0678915 -14217437.6799714 -14217437.6799714 -5621618.268578365 0 0 0 0 0 31303974.38690499 -16179569.5327808 -16179569.5327808 -5719584.464558281 0 0 0 0 0 33837176.02203204 -17998146.220246 -17998146.220246 -5892999.565621194 0 0 0 0 0 36535354.87249784 -19663081.29995694 -19663081.29995694 -6138097.301803931 0 0 0 0 0 39394208.73230263 -21166391.15120682 -21166391.15120682 -6448931.755222048 0 0 0 0 0 41110659.62376386 -20584896.56063973 -20584896.56063973 -6042894.006578375 0 0 0 0 0 44449667.82104126 -22233013.70839591 -22233013.70839591 -6089679.071698016 0 0 0 0 0 47349813.56489863 -23330215.47919926 -23330215.47919926 -6556457.421456428 0 0 0 0 0 50299434.573254 -24266346.87775211 -24266346.87775211 -7053902.919527121 0 0 0 0 0 53268443.82369372 -25043385.19867726 -25043385.19867726 -7573139.375700801 0 0 0 0 0 57729921.04202156 -25137063.53019924 -25137063.53019924 -7569260.213011902 0 0 0 0 0 55457954.35555848 -24296429.09280192 -24296429.09280192 -7056619.580975879 0 0 0 0 0 60532814.44329938 -25575802.70844015 -25575802.70844015 -8117952.474811956 0 0 0 0 0 63316778.23271244 -25882363.26396291 -25882363.26396291 -8662467.805846212 0 0 0 0 0 66064817.05218548 -26067283.19620014 -26067283.19620014 -9198854.497866204 0 0 0 0 0 68757298.33069049 -26138387.74748291 -26138387.74748291 -9725365.100292675 0 0 0 0 0 71357430.18736507 -26099200.39887019 -26099200.39887019 -10221778.85516977 0 0 0 0 0 73874770.38163584 -25959646.91100204 -25959646.91100204 -10691165.56024759 0 0 0 0 0 76128207.2677191 -25140882.6405641 -25140882.6405641 -9969658.960873464 0 0 0 0 0 76887105.94097185 -25108923.19302218 -25108923.19302218 -10651262.09530397 0 0 0 0 0 79119943.5542677 -24809816.41160708 -24809816.41160708 -11053879.63518059 0 0 0 0 0 81245792.68738011 -24439790.66963506 -24439790.66963506 -11424230.39331652 0 0 0 0 0 83265682.10679796 -24010247.85754351 -24010247.85754351 -11755652.23789545 0 0 0 0 0 85174730.60384642 -23533779.0685465 -23533779.0685465 -12029088.86419672 0 0 0 0 0 86985158.39031339 -23009817.97445976 -23009817.97445976 -12262352.07050318 0 0 0 0 0 88827874.83646414 -22305895.64641685 -22305895.64641685 -11533346.41749172 0 0 0 0 0 88742966.83706552 -21968223.45725561 -21968223.45725561 -12029746.0386214 0 0 0 0 0 90336408.50088166 -21402838.25657782 -21402838.25657782 -12218878.23945088 0 0 0 0 0 91887201.26131251 -20330644.79460237 -20330644.79460237 -11104664.07711273 0 0 0 0 0 93246359.23846982 -19794426.44372919 -19794426.44372919 -11266504.60409729 0 0 0 0 0 94396191.93408591 -18859185.95569463 -18859185.95569463 -11019214.87540518 0 0 0 0 0 92975767.31094494 -19421376.76247752 -19421376.76247752 -11655516.00478443 0 0 0 0 0 95581766.01346825 -18309954.42675057 -18309954.42675057 -11145400.35069341 0 0 0 0 0 96692768.61114328 -17749011.42189382 -17749011.42189382 -11245038.93537248 0 0 0 0 0 97731169.99470636 -17180756.31790274 -17180756.31790274 -11319593.156663 0 0 0 0 0 98698177.26196519 -16606032.20420376 -16606032.20420376 -11365858.70333071 0 0 0 0 0 99329666.55443025 -15780096.34195491 -15780096.34195491 -11057910.71599962 0 0 0 0 0 98245922.17840858 -16227314.01877455 -16227314.01877455 -11597748.99456974 0 0 0 0 0 100144315.6230977 -15231355.8626764 -15231355.8626764 -11068381.27491696 0 0 0 0 0 100903846.1490262 -14681971.75359087 -14681971.75359087 -11061726.50095572 0 0 0 0 0 101603701.7301698 -14137056.65942796 -14137056.65942796 -11037926.29448087 0 0 0 0 0 102255349.0635241 -13600231.57877307 -13600231.57877307 -10996092.56908875 0 0 0 0 0 102850902.3570798 -13066878.86515424 -13066878.86515424 -10935188.24561956 0 0 0 0 0 102310400.1134489 -12734025.45162645 -12734025.45162645 -11002148.515315 0 0 0 0 0 103582607.25666 -11914090.39269184 -11914090.39269184 -10509392.82729782 0 0 0 0 0 102863616.9343349 -12217186.88198585 -12217186.88198585 -10904514.77073352 0 0 0 0 0 104042099.1902972 -11427710.32560248 -11427710.32560248 -10422013.40628669 0 0 0 0 0 104462493.1617276 -10952305.43146708 -10952305.43146708 -10322944.93545502 0 0 0 0 0 104847110.5276319 -10488421.33633 -10488421.33633 -10213373.54194088 0 0 0 0 0 105197416.8130057 -10036146.46292272 -10036146.46292272 -10094769.24869484 0 0 0 0 0 105179532.4599783 -9554515.75465527 -9554515.75465527 -9753373.364743715 0 0 0 0 0 104666912.0977325 -9774631.022907889 -9774631.022907889 -10050183.75106473 0 0 0 0 0 105469253.6653994 -9138939.521689074 -9138939.521689074 -9630192.709531905 0 0 0 0 0 105731254.4864907 -8733409.896575015 -8733409.896575015 -9499027.688478518 0 0 0 0 0 105967543.6522895 -8339965.728335756 -8339965.728335756 -9362251.171026418 0 0 0 0 0 106179561.320921 -7959323.732316018 -7959323.732316018 -9221399.922490694 0 0 0 0 0 106369725.6502853 -7590108.218574611 -7590108.218574611 -9075673.474400869 0 0 0 0 0 106071923.3734947 -7047643.634797317 -7047643.634797317 -8812941.460217586 0 0 0 0 0 106537326.2172979 -7233746.37950708 -7233746.37950708 -8927539.679225273 0 0 0 0 0 106383254.5800525 -6911764.852177572 -6911764.852177572 -8624593.694394987 0 0 0 0 0 106512039.8146749 -6588148.195907811 -6588148.195907811 -8484013.565770259 0 0 0 0 0 106638691.24548 -6265881.706002773 -6265881.706002773 -8323449.187224501 0 0 0 0 0 106715133.1089391 -5980270.104684792 -5980270.104684792 -8205295.123833301 0 0 0 0 0 106787401.2037826 -5710057.127801253 -5710057.127801253 -8048112.030150315 0 0 0 0 0 106890976.6304621 -5416871.401077204 -5416871.401077204 -7863385.766790682 0 0 0 0 0 106476220.2940255 -5285791.837162705 -5285791.837162705 -7746108.491201314 0 0 0 0 0 106683249.8659557 -5188787.805452835 -5188787.805452835 -7615482.653484581 0 0 0 0 0 106738542.2540649 -4931772.557476681 -4931772.557476681 -7468155.204739702 0 0 0 0 0 106783256.2064766 -4681615.899017225 -4681615.899017225 -7321530.313946173 0 0 0 0 0 106820686.8957927 -4440237.684199098 -4440237.684199098 -7175838.887040476 0 0 0 0 0 106472194.4561114 -4332603.499718337 -4332603.499718337 -7036150.397029409 0 0 0 0 0 106617960.7861772 -4268954.569926948 -4268954.569926948 -6947879.531594333 0 0 0 0 0 106643469.8086421 -4048542.806606202 -4048542.806606202 -6808461.883525615 0 0 0 0 0 106661187.8126077 -3836440.030956952 -3836440.030956952 -6669552.835788647 0 0 0 0 0 106671609.4287985 -3632375.895496391 -3632375.895496391 -6531429.305985714 0 0 0 0 0 106675212.5517555 -3436073.416382015 -3436073.416382015 -6394306.720596252 0 0 0 0 0 106672178.6990412 -3247553.900638838 -3247553.900638838 -6258579.733886266 0 0 0 0 0 106663923.0066141 -3066094.368303664 -3066094.368303664 -6123302.641139769 0 0 0 0 0 106650591.9171423 -2891679.90755607 -2891679.90755607 -5989648.314404416 0 0 0 0 0 106446922.9929571 -2797322.049234957 -2797322.049234957 -5813355.606511262 0 0 0 0 0 106378531.1089936 -2825741.866723935 -2825741.866723935 -5849188.769502102 0 0 0 0 0 106429066.083744 -2637329.260117718 -2637329.260117718 -5686524.34738792 0 0 0 0 0 106177632.846709 -2577408.153807244 -2577408.153807244 -5554171.523811828 0 0 0 0 0 106231969.5187297 -2554575.430121651 -2554575.430121651 -5524271.141798877 0 0 0 0 0 106194213.2648756 -2419816.251453633 -2419816.251453633 -5424217.144526328 0 0 0 0 0 106205718.2966681 -2262191.751802787 -2262191.751802787 -5248978.31999295 0 0 0 0 0 106025624.9277641 -2104146.878706356 -2104146.878706356 -5150501.1366589 0 0 0 0 0 106092894.4852657 -2187536.19103009 -2187536.19103009 -5229445.102251034 0 0 0 0 0 91978184.28817399 -20763878.45308521 -20763878.45308521 -11525226.13325717 0 0 0 0 0 15276238.24157698 -732253.2502583023 -732253.2502583023 -10048189.05704443 0 0 0 0 0 17568781.12661223 -3238002.410650651 -3238002.410650651 -8991279.900863055 0 0 0 0 0 19617662.60578464 -5509986.769286027 -5509986.769286027 -7809806.015519611 0 0 0 0 0 21199482.18417635 -7380927.683186564 -7380927.683186564 -6998620.779078871 0 0 0 0 0 22703729.62996817 -9443649.398283221 -9443649.398283221 -6596095.694750233 0 0 0 0 0 24615568.65048349 -11560704.25359161 -11560704.25359161 -6529423.150835871 0 0 0 0 0 27076794.52450094 -13661948.74515321 -13661948.74515321 -6446579.645582972 0 0 0 0 0 29763418.51311492 -15641653.77217221 -15641653.77217221 -6453265.854045161 0 0 0 0 0 32637154.2271036 -17483164.23304797 -17483164.23304797 -6529995.712861392 0 0 0 0 0 35674757.99743861 -19170826.22617269 -19170826.22617269 -6679971.453252718 0 0 0 0 0 38831651.55424407 -20699969.99380484 -20699969.99380484 -6901130.48428596 0 0 0 0 0 42354588.73010904 -22505164.56166585 -22505164.56166585 -6820719.470129276 0 0 0 0 0 44243411.6320316 -21867540.03895151 -21867540.03895151 -6387112.858007317 0 0 0 0 0 47417675.28107016 -22985396.12370889 -22985396.12370889 -6774445.936803865 0 0 0 0 0 50618967.7424543 -23940724.22551793 -23940724.22551793 -7199970.267604082 0 0 0 0 0 53822840.94711226 -24735292.06097222 -24735292.06097222 -7651321.267712261 0 0 0 0 0 58502389.81263914 -24888886.81716598 -24888886.81716598 -7549569.747443927 0 0 0 0 0 56239962.11382446 -25668661.08472009 -25668661.08472009 -8108864.463308139 0 0 0 0 0 61504713.88088235 -25340652.41194065 -25340652.41194065 -8052830.114719201 0 0 0 0 0 64444199.71325514 -25654667.70888571 -25654667.70888571 -8550478.028885596 0 0 0 0 0 67320806.18833625 -25846387.41325036 -25846387.41325036 -9046874.15964324 0 0 0 0 0 70136292.43084922 -25921460.04967009 -25921460.04967009 -9535083.444547992 0 0 0 0 0 72872228.03155848 -25881443.59640465 -25881443.59640465 -10007561.11073835 0 0 0 0 0 75500202.66133265 -25740228.68759668 -25740228.68759668 -10451949.52766232 0 0 0 0 0 76305054.34893638 -25729576.52844519 -25729576.52844519 -11128813.55885519 0 0 0 0 0 78527556.26661831 -24915934.70643103 -24915934.70643103 -10390304.80923428 0 0 0 0 0 80817848.29535611 -24613367.52190486 -24613367.52190486 -10781543.26512319 0 0 0 0 0 83003579.48063494 -24239598.31512686 -24239598.31512686 -11140082.81814487 0 0 0 0 0 85083416.55230249 -23801637.92414875 -23801637.92414875 -11458237.78491025 0 0 0 0 0 87026470.78949343 -23325322.66074111 -23325322.66074111 -11757320.51988398 0 0 0 0 0 88820812.9303508 -22801480.98628695 -22801480.98628695 -12002116.37137619 0 0 0 0 0 88700042.25479238 -22451619.14271579 -22451619.14271579 -12474617.09391688 0 0 0 0 0 90485964.8628134 -21764825.56734164 -21764825.56734164 -11746328.354506 0 0 0 0 0 92055922.10657038 -21195234.07834549 -21195234.07834549 -11945556.08224441 0 0 0 0 0 91732828.89309065 -20390524.68204608 -20390524.68204608 -11926473.29806515 0 0 0 0 0 93071345.37603815 -19813336.96918386 -19813336.96918386 -12056359.83516657 0 0 0 0 0 94220503.17201582 -18851662.93648905 -18851662.93648905 -11767042.84006668 0 0 0 0 0 94534364.71887562 -19236942.58763973 -19236942.58763973 -11404522.26843225 0 0 0 0 0 95391511.78162618 -18269912.59772647 -18269912.59772647 -11851242.23626701 0 0 0 0 0 96490890.69821709 -17680308.29525687 -17680308.29525687 -11908828.12184166 0 0 0 0 0 97518302.85478348 -17084421.84792263 -17084421.84792263 -11941160.36140497 0 0 0 0 0 98480476.44123647 -16492665.4919497 -16492665.4919497 -11952709.29753104 0 0 0 0 0 99114670.49238245 -15651531.0374882 -15651531.0374882 -11584319.70299532 0 0 0 0 0 99610308.64095895 -16030821.35000516 -16030821.35000516 -11394443.31738208 0 0 0 0 0 99923239.09254694 -15086174.05639962 -15086174.05639962 -11565642.99165607 0 0 0 0 0 100681436.6681625 -14520905.18563897 -14520905.18563897 -11518599.6668491 0 0 0 0 0 101380863.2308945 -13964534.59622766 -13964534.59622766 -11456713.59094376 0 0 0 0 0 102030053.125312 -13409979.86347134 -13409979.86347134 -11372005.88970866 0 0 0 0 0 102625463.9534757 -12872388.68445931 -12872388.68445931 -11285998.91349326 0 0 0 0 0 103414624.535845 -12541794.04884841 -12541794.04884841 -10860620.14344583 0 0 0 0 0 103367827.5040302 -11713128.65043148 -11713128.65043148 -10795927.7253946 0 0 0 0 0 103925634.9307784 -12025804.76540332 -12025804.76540332 -10778218.52149006 0 0 0 0 0 103830231.6678035 -11220862.5711989 -11220862.5711989 -10676741.8743032 0 0 0 0 0 104254003.5283164 -10741194.63498501 -10741194.63498501 -10548401.13693865 0 0 0 0 0 104642006.445034 -10273625.09998928 -10273625.09998928 -10411201.30407998 0 0 0 0 0 104996160.5629605 -9818244.932776377 -9818244.932776377 -10266613.81411466 0 0 0 0 0 104989264.1466981 -9344787.286619585 -9344787.286619585 -9909336.511930544 0 0 0 0 0 105515415.4439901 -9596097.820057746 -9596097.820057746 -9968815.176904485 0 0 0 0 0 105282031.3101836 -8926611.355781263 -8926611.355781263 -9761449.335532861 0 0 0 0 0 105548316.2464346 -8521066.003281577 -8521066.003281577 -9608784.673743114 0 0 0 0 0 105789571.540631 -8128129.778426549 -8128129.778426549 -9452156.478939306 0 0 0 0 0 106006939.5792741 -7747421.56500525 -7747421.56500525 -9291183.928902037 0 0 0 0 0 106201109.1166428 -7379636.328725497 -7379636.328725497 -9126871.820764022 0 0 0 0 0 106685825.945398 -6889407.74662064 -6889407.74662064 -8774937.861786034 0 0 0 0 0 106374472.9279525 -7024693.657982744 -7024693.657982744 -8959921.818286769 0 0 0 0 0 106228147.3079486 -6711557.405887048 -6711557.405887048 -8654475.231118295 0 0 0 0 0 106368030.0823992 -6387739.342026631 -6387739.342026631 -8494612.525738483 0 0 0 0 0 106493962.3667035 -6084107.331091398 -6084107.331091398 -8342838.587467817 0 0 0 0 0 106609612.3239698 -5786712.92640413 -5786712.92640413 -8136458.642298716 0 0 0 0 0 106653515.0268753 -5529662.964540393 -5529662.964540393 -8015981.352440593 0 0 0 0 0 106730699.6469571 -5247570.190405702 -5247570.190405702 -7877066.750683658 0 0 0 0 0 106958919.1624065 -5139768.864272907 -5139768.864272907 -7725776.824069145 0 0 0 0 0 106555540.2060633 -5011890.615416668 -5011890.615416668 -7575049.861418658 0 0 0 0 0 106612764.0429728 -4755821.672152416 -4755821.672152416 -7423861.035901081 0 0 0 0 0 106665799.5452117 -4507707.816678752 -4507707.816678752 -7268716.515358325 0 0 0 0 0 106708270.2605883 -4269824.290724354 -4269824.290724354 -7113648.98342742 0 0 0 0 0 106850705.7825222 -4208280.446422914 -4208280.446422914 -7030042.416987413 0 0 0 0 0 106510589.6407692 -4106349.462576604 -4106349.462576604 -6888117.996580512 0 0 0 0 0 106539953.7167352 -3888915.468450386 -3888915.468450386 -6741195.645772766 0 0 0 0 0 106561412.6969613 -3679779.54401582 -3679779.54401582 -6595408.203918071 0 0 0 0 0 106575499.0839306 -3478627.590975464 -3478627.590975464 -6450888.331842557 0 0 0 0 0 106582818.5205629 -3285284.225118238 -3285284.225118238 -6307714.580884579 0 0 0 0 0 106583689.7893465 -3099605.699265113 -3099605.699265113 -6165974.005275455 0 0 0 0 0 106578458.9958626 -2921378.019834135 -2921378.019834135 -6026345.593943028 0 0 0 0 0 106568329.651572 -2750100.13315362 -2750100.13315362 -5888401.031365854 0 0 0 0 0 106368254.2549613 -2662208.534442435 -2662208.534442435 -5716874.544700677 0 0 0 0 0 106632944.7247975 -2724025.296586793 -2724025.296586793 -5857553.967347367 0 0 0 0 0 106353619.9275722 -2505945.479067734 -2505945.479067734 -5584523.024262029 0 0 0 0 0 106414070.0014453 -2482716.121372472 -2482716.121372472 -5560306.273517516 0 0 0 0 0 106164701.0463412 -2428284.377815254 -2428284.377815254 -5424693.683267447 0 0 0 0 0 106141856.6677717 -2296555.948229742 -2296555.948229742 -5298439.945222883 0 0 0 0 0 106123118.3259525 -2166842.581206301 -2166842.581206301 -5188491.246003182 0 0 0 0 0 106139803.2945305 -2049647.13950747 -2049647.13950747 -5061521.699128489 0 0 0 0 0 91810610.07764955 -20812550.82545041 -20812550.82545041 -12363031.0263426 0 0 0 0 0 13861497.31044412 -1511777.395223606 -1511777.395223606 -11304006.57684642 0 0 0 0 0 15351040.37593966 -3940909.612414972 -3940909.612414972 -10096638.77225507 0 0 0 0 0 16446301.93189858 -6052092.185839892 -6052092.185839892 -8895239.522707896 0 0 0 0 0 18778375.99090448 -7977885.841222558 -7977885.841222558 -7991569.639630149 0 0 0 0 0 22102769.94621495 -9732252.364733148 -9732252.364733148 -7080872.308411758 0 0 0 0 0 24101991.19500193 -11830109.79415522 -11830109.79415522 -7014071.514315479 0 0 0 0 0 26335682.94577841 -13987541.92368913 -13987541.92368913 -6903261.842426592 0 0 0 0 0 28743274.28610108 -16037836.73143028 -16037836.73143028 -6883081.04136936 0 0 0 0 0 31358660.7370246 -17949139.63404248 -17949139.63404248 -6954943.160540389 0 0 0 0 0 34155544.79839192 -19706129.17100489 -19706129.17100489 -7112166.890281389 0 0 0 0 0 37089278.98439121 -21299774.44266181 -21299774.44266181 -7346604.452678506 0 0 0 0 0 40152241.48444823 -22724930.46173793 -22724930.46173793 -7648636.717083069 0 0 0 0 0 42080535.69549957 -22067444.32639268 -22067444.32639268 -7183063.438125481 0 0 0 0 0 45375468.33161069 -23676082.39786014 -23676082.39786014 -7242213.249928682 0 0 0 0 0 48450463.23330339 -24677307.57513376 -24677307.57513376 -7701770.753549589 0 0 0 0 0 51551413.59689011 -25511254.59589434 -25511254.59589434 -8189483.117616436 0 0 0 0 0 54659887.82394144 -26183958.03010997 -26183958.03010997 -8697655.389942493 0 0 0 0 0 59175818.71771275 -26145820.08640033 -26145820.08640033 -8652443.841406822 0 0 0 0 0 57013555.17389975 -25375773.93098454 -25375773.93098454 -8122857.127650507 0 0 0 0 0 62077008.17191269 -26480082.37572106 -26480082.37572106 -9182926.64172221 0 0 0 0 0 64940069.8563997 -26683003.49829634 -26683003.49829634 -9708035.683571974 0 0 0 0 0 67753782.49130106 -26765009.53815918 -26765009.53815918 -10221685.99760829 0 0 0 0 0 70513220.42571907 -26734264.70186115 -26734264.70186115 -10716806.09173259 0 0 0 0 0 73158476.7156557 -26591605.52430039 -26591605.52430039 -11183690.63345802 0 0 0 0 0 75701258.28535622 -26353180.83523744 -26353180.83523744 -11621575.77672944 0 0 0 0 0 78020221.24139844 -25509741.94685441 -25509741.94685441 -10867889.4425288 0 0 0 0 0 78641639.05676629 -25416657.04368423 -25416657.04368423 -11530305.2728815 0 0 0 0 0 80875953.94934906 -25031115.32469247 -25031115.32469247 -11895692.60531226 0 0 0 0 0 83011263.7582581 -24580061.09038238 -24580061.09038238 -12223256.5085859 0 0 0 0 0 85044812.11666605 -24077233.02122987 -24077233.02122987 -12513527.59333425 0 0 0 0 0 86917978.71913105 -23523449.26019682 -23523449.26019682 -12744632.51931404 0 0 0 0 0 88691162.36360112 -22947603.19044724 -22947603.19044724 -12954724.87504897 0 0 0 0 0 90533345.02094463 -22234972.02321474 -22234972.02321474 -12214084.19722279 0 0 0 0 0 90342596.20312086 -21860263.64386534 -21860263.64386534 -12661670.81281776 0 0 0 0 0 91895807.71667926 -21249044.12034179 -21249044.12034179 -12820136.7520898 0 0 0 0 0 93383955.08254705 -20203701.802457 -20203701.802457 -11687744.30415216 0 0 0 0 0 94702118.43661839 -19617093.57296153 -19617093.57296153 -11820159.94164384 0 0 0 0 0 95757051.71594839 -18663657.50605251 -18663657.50605251 -11527443.87037474 0 0 0 0 0 94348022.6593798 -19221863.05502944 -19221863.05502944 -12167865.56465958 0 0 0 0 0 96901644.62735477 -18076874.3988836 -18076874.3988836 -11620803.93186363 0 0 0 0 0 97971286.09073947 -17483560.62969369 -17483560.62969369 -11687784.84324859 0 0 0 0 0 98965355.9023124 -16885559.01439015 -16885559.01439015 -11730441.75898054 0 0 0 0 0 99881719.21193543 -16285830.80234103 -16285830.80234103 -11745682.81053198 0 0 0 0 0 100445031.4586318 -15461818.36881009 -15461818.36881009 -11417523.73670891 0 0 0 0 0 99385097.35992496 -15898100.62570511 -15898100.62570511 -11948874.69775828 0 0 0 0 0 101220945.2917385 -14885535.71495401 -14885535.71495401 -11385404.29896106 0 0 0 0 0 101939621.3159134 -14320010.91691478 -14320010.91691478 -11352280.65446055 0 0 0 0 0 102596492.2887966 -13762160.48763268 -13762160.48763268 -11304051.87904262 0 0 0 0 0 103197124.671182 -13211686.30793935 -13211686.30793935 -11233744.11376202 0 0 0 0 0 103764931.1331969 -12669227.32405901 -12669227.32405901 -11147212.00954339 0 0 0 0 0 103185808.277426 -12336886.706596 -12336886.706596 -11180870.42291172 0 0 0 0 0 104389053.829498 -11522492.48783043 -11522492.48783043 -10680947.64736727 0 0 0 0 0 103702019.3708298 -11812455.66678403 -11812455.66678403 -11059000.67341497 0 0 0 0 0 104811301.6618893 -11030949.18879986 -11030949.18879986 -10571396.92555217 0 0 0 0 0 105197360.3738017 -10552019.35120878 -10552019.35120878 -10451536.72221725 0 0 0 0 0 105547785.366479 -10085510.88434178 -10085510.88434178 -10322580.12987696 0 0 0 0 0 105865249.8154986 -9631428.598568033 -9631428.598568033 -10185486.79025873 0 0 0 0 0 105803535.4052141 -9167732.916969353 -9167732.916969353 -9835315.353734612 0 0 0 0 0 105318567.8992232 -9375212.677281529 -9375212.677281529 -10114566.72348035 0 0 0 0 0 106063624.6093766 -8751515.461302573 -8751515.461302573 -9694833.167694394 0 0 0 0 0 106296885.8318174 -8347622.462952484 -8347622.462952484 -9548884.323284941 0 0 0 0 0 106505799.2678182 -7956165.98528433 -7956165.98528433 -9397820.806739885 0 0 0 0 0 106691615.3103292 -7577781.61142927 -7577781.61142927 -9243161.798809156 0 0 0 0 0 106854981.7513668 -7212923.374421622 -7212923.374421622 -9085440.150824836 0 0 0 0 0 106526743.6164458 -6681571.707606894 -6681571.707606894 -8792251.525939682 0 0 0 0 0 106997812.959198 -6860548.673195815 -6860548.673195815 -8924818.64928158 0 0 0 0 0 106816696.5587965 -6555747.077824972 -6555747.077824972 -8619892.431790665 0 0 0 0 0 106930650.0691108 -6232364.702199522 -6232364.702199522 -8462565.734577555 0 0 0 0 0 107025640.037148 -5925987.271226722 -5925987.271226722 -8302978.52083256 0 0 0 0 0 107063205.0995281 -5663210.129619359 -5663210.129619359 -8197479.91855483 0 0 0 0 0 107144651.3475356 -5378639.614338304 -5378639.614338304 -8000689.613406455 0 0 0 0 0 107242173.4290639 -5090013.275936714 -5090013.275936714 -7819722.41783403 0 0 0 0 0 106823798.8512029 -4955952.201187094 -4955952.201187094 -7679375.357734728 0 0 0 0 0 107001869.3282753 -4879583.278494761 -4879583.278494761 -7582579.943073912 0 0 0 0 0 107038110.7394513 -4623584.734790576 -4623584.734790576 -7417689.744972147 0 0 0 0 0 107065582.5970415 -4376489.884389292 -4376489.884389292 -7261219.508644302 0 0 0 0 0 107089334.2728552 -4141639.454125252 -4141639.454125252 -7109978.783355829 0 0 0 0 0 106741714.2065173 -4040027.527107882 -4040027.527107882 -6959965.547394791 0 0 0 0 0 106870477.5790785 -3984589.721077711 -3984589.721077711 -6885010.495757589 0 0 0 0 0 106882546.9294871 -3769663.779904441 -3769663.779904441 -6740412.437080549 0 0 0 0 0 106887592.5515098 -3563080.054088966 -3563080.054088966 -6596818.88813517 0 0 0 0 0 106885891.2409383 -3364473.990857695 -3364473.990857695 -6454361.927901514 0 0 0 0 0 106877834.828573 -3173705.254507824 -3173705.254507824 -6313283.068898528 0 0 0 0 0 106863854.2298209 -2990602.45600611 -2990602.45600611 -6173766.270055089 0 0 0 0 0 106844864.0402004 -2814741.673796156 -2814741.673796156 -6035299.646072056 0 0 0 0 0 106821244.8791271 -2646172.269868427 -2646172.269868427 -5898809.939763688 0 0 0 0 0 106610342.4102875 -2562347.703177564 -2562347.703177564 -5726924.285228898 0 0 0 0 0 106553226.5826637 -2585238.180643015 -2585238.180643015 -5753582.982304841 0 0 0 0 0 106582991.1855308 -2406877.513821182 -2406877.513821182 -5597075.70585386 0 0 0 0 0 106334213.4278052 -2351134.738772856 -2351134.738772856 -5459450.46494228 0 0 0 0 0 106372647.8125302 -2335991.467881052 -2335991.467881052 -5440618.003615942 0 0 0 0 0 106318536.664245 -2206629.933131699 -2206629.933131699 -5336738.037049483 0 0 0 0 0 106267514.0897052 -2078062.553647052 -2078062.553647052 -5216105.444127254 0 0 0 0 0 106186140.7598305 -1984441.205477026 -1984441.205477026 -5151623.203426072 0 0 0 0 0 93535686.04055654 -20608920.04604767 -20608920.04604767 -12120810.47727853 0 0 0 0 0 12545327.65659605 -715910.5570019576 -715910.5570019576 -12592338.87369033 0 0 0 0 0 13632086.7727064 -3120665.21739111 -3120665.21739111 -11291810.53195661 0 0 0 0 0 18387428.365089 -6204782.036131315 -6204782.036131315 -9658894.104262929 0 0 0 0 0 20452110.74858091 -8161172.895715537 -8161172.895715537 -8505416.8746862 0 0 0 0 0 19076923.86308214 -9161910.411094045 -9161910.411094045 -8186647.055561345 0 0 0 0 0 21795754.1853902 -11093012.67836516 -11093012.67836516 -8091553.266628924 0 0 0 0 0 24335709.6353411 -13312529.93199516 -13312529.93199516 -7840417.117593157 0 0 0 0 0 27078113.35719397 -15394649.96214229 -15394649.96214229 -7718155.517941531 0 0 0 0 0 30030076.46046377 -17333853.68496648 -17333853.68496648 -7691206.209126172 0 0 0 0 0 33157335.04479413 -19121465.96534522 -19121465.96534522 -7748239.614377361 0 0 0 0 0 36430118.00780978 -20746558.73748313 -20746558.73748313 -7880528.522393375 0 0 0 0 0 39812356.16309774 -22201462.75705604 -22201462.75705604 -8086022.819062259 0 0 0 0 0 43309006.00268946 -23975312.0545709 -23975312.0545709 -8009735.35936573 0 0 0 0 0 45397394.20740958 -23263463.5436634 -23263463.5436634 -7516790.002182918 0 0 0 0 0 48744190.02198415 -24287609.15563362 -24287609.15563362 -7897148.420402542 0 0 0 0 0 52102748.16266377 -25143775.98051546 -25143775.98051546 -8309790.153170278 0 0 0 0 0 55443326.77494798 -25836247.29488286 -25836247.29488286 -8747443.387117585 0 0 0 0 0 60162894.2901311 -25865938.48570755 -25865938.48570755 -8605886.520000899 0 0 0 0 0 57751497.89816919 -26703446.56478043 -26703446.56478043 -9218765.496213619 0 0 0 0 0 63259029.13622425 -26212848.09587146 -26212848.09587146 -9089158.696497869 0 0 0 0 0 66272606.33894014 -26422516.17270429 -26422516.17270429 -9569733.079674913 0 0 0 0 0 69212546.02069251 -26508646.24125731 -26508646.24125731 -10042712.39539957 0 0 0 0 0 72070323.01986317 -26482516.2381727 -26482516.2381727 -10510767.08459129 0 0 0 0 0 74828979.33626923 -26344401.86213262 -26344401.86213262 -10948415.5420941 0 0 0 0 0 77476357.41446835 -26106903.97346596 -26106903.97346596 -11362290.4447626 0 0 0 0 0 78145168.82560347 -26031032.8490133 -26031032.8490133 -12024081.12461461 0 0 0 0 0 80419372.67161901 -25195326.54440308 -25195326.54440308 -11255653.10901324 0 0 0 0 0 82703051.77068791 -24806771.79161256 -24806771.79161256 -11611373.09015618 0 0 0 0 0 84872382.67508516 -24351459.03724182 -24351459.03724182 -11933574.73474442 0 0 0 0 0 86911885.03325245 -23841931.12021906 -23841931.12021906 -12221251.47221313 0 0 0 0 0 88827690.22706488 -23293570.07237146 -23293570.07237146 -12483540.69099298 0 0 0 0 0 90586377.46519449 -22708340.3057636 -22708340.3057636 -12690698.9925157 0 0 0 0 0 90381247.60262462 -22317759.36844039 -22317759.36844039 -13098905.40665782 0 0 0 0 0 92132289.40340061 -21635172.98313806 -21635172.98313806 -12386442.5724708 0 0 0 0 0 93686349.37081906 -21020133.88847947 -21020133.88847947 -12544156.47109199 0 0 0 0 0 93197867.78609213 -20207795.77101647 -20207795.77101647 -12483284.95039967 0 0 0 0 0 94504950.68170688 -19589376.32438043 -19589376.32438043 -12571608.68945773 0 0 0 0 0 95556820.73433287 -18613773.99497302 -18613773.99497302 -12243073.97689267 0 0 0 0 0 95948786.50410841 -19016214.91150625 -19016214.91150625 -11921460.48519358 0 0 0 0 0 96690495.87504566 -17997659.86641026 -17997659.86641026 -12290231.60885211 0 0 0 0 0 97749635.69336541 -17376197.12751796 -17376197.12751796 -12311671.50410631 0 0 0 0 0 98734996.68297766 -16753360.66766151 -16753360.66766151 -12311244.30580984 0 0 0 0 0 99651672.509587 -16143631.46448754 -16143631.46448754 -12291697.71848914 0 0 0 0 0 100217590.4551804 -15298594.3884342 -15298594.3884342 -11894592.69661848 0 0 0 0 0 100762827.3381757 -15688036.8687898 -15688036.8687898 -11740604.23803071 0 0 0 0 0 100990074.0459798 -14712612.95213802 -14712612.95213802 -11844300.32291822 0 0 0 0 0 101707561.7290005 -14130954.97516166 -14130954.97516166 -11772966.80103117 0 0 0 0 0 102366442.7856148 -13556435.50784099 -13556435.50784099 -11670116.17448463 0 0 0 0 0 102965210.9485459 -13002619.91849587 -13002619.91849587 -11575874.98603346 0 0 0 0 0 103531548.9326651 -12448292.04499556 -12448292.04499556 -11456199.44455092 0 0 0 0 0 104283008.649097 -12134055.65472605 -12134055.65472605 -11049842.76019582 0 0 0 0 0 104169626.6738874 -11302721.51320684 -11302721.51320684 -10927522.38655099 0 0 0 0 0 104752046.0084167 -11611409.73368624 -11611409.73368624 -10942537.57281335 0 0 0 0 0 104595747.8548406 -10807537.93493389 -10807537.93493389 -10788087.51892392 0 0 0 0 0 104985485.1936625 -10324992.6505968 -10324992.6505968 -10639688.87603343 0 0 0 0 0 105339939.2323179 -9855595.163531592 -9855595.163531592 -10483549.94031588 0 0 0 0 0 105661753.6010235 -9399751.619181294 -9399751.619181294 -10320790.87121246 0 0 0 0 0 105610924.0259748 -8945565.765604841 -8945565.765604841 -9956942.121514393 0 0 0 0 0 106151727.631882 -9190431.136910234 -9190431.136910234 -10041533.375647 0 0 0 0 0 105875206.949534 -8529046.962458257 -8529046.962458257 -9794296.495758167 0 0 0 0 0 106113575.3223177 -8125334.11978097 -8125334.11978097 -9627142.394309921 0 0 0 0 0 106327716.6164022 -7734972.489539473 -7734972.489539473 -9456389.283377035 0 0 0 0 0 106519258.1830113 -7357964.73087702 -7357964.73087702 -9282398.56738648 0 0 0 0 0 106688043.7892254 -6994251.67587697 -6994251.67587697 -9106057.006563501 0 0 0 0 0 107123915.1202943 -6519114.560388454 -6519114.560388454 -8759919.682711514 0 0 0 0 0 106836504.7029167 -6643160.993036359 -6643160.993036359 -8928334.619963581 0 0 0 0 0 106662092.3201203 -6348826.807723355 -6348826.807723355 -8622022.365538599 0 0 0 0 0 106788868.5076073 -6032080.621724027 -6032080.621724027 -8454303.075238381 0 0 0 0 0 106897787.113421 -5728721.769223534 -5728721.769223534 -8277093.904985274 0 0 0 0 0 106973036.1617962 -5457078.313525739 -5457078.313525739 -8104952.183791052 0 0 0 0 0 107013003.3410668 -5193911.115588968 -5193911.115588968 -7961606.042160727 0 0 0 0 0 107080279.7363143 -4899892.86961779 -4899892.86961779 -7791598.338753419 0 0 0 0 0 107273265.0148271 -4819594.673445641 -4819594.673445641 -7682850.480820754 0 0 0 0 0 106874220.5504071 -4692627.435843698 -4692627.435843698 -7506289.726534076 0 0 0 0 0 106912700.4045686 -4442525.394117749 -4442525.394117749 -7350106.83638588 0 0 0 0 0 106950012.4351408 -4201465.362204965 -4201465.362204965 -7189878.876235058 0 0 0 0 0 106980519.4072535 -3967108.193950967 -3967108.193950967 -7026778.399714503 0 0 0 0 0 107103688.9289337 -3915128.397879775 -3915128.397879775 -6958992.21517454 0 0 0 0 0 106765479.6446843 -3819751.746020221 -3819751.746020221 -6807335.133124599 0 0 0 0 0 106781493.8759506 -3608105.326262027 -3608105.326262027 -6656039.395821531 0 0 0 0 0 106790249.4490425 -3404671.952972651 -3404671.952972651 -6506236.202887711 0 0 0 0 0 106792238.6231106 -3209234.61822992 -3209234.61822992 -6357985.760950509 0 0 0 0 0 106787861.4925588 -3021635.693349654 -3021635.693349654 -6211491.034748209 0 0 0 0 0 106777680.1092719 -2841711.994233852 -2841711.994233852 -6066794.977672769 0 0 0 0 0 106762072.3149887 -2669245.688294222 -2669245.688294222 -5923946.922594878 0 0 0 0 0 106741882.7807954 -2504344.975901952 -2504344.975901952 -5783544.880014301 0 0 0 0 0 106533579.5693652 -2426653.560777961 -2426653.560777961 -5620038.103357601 0 0 0 0 0 106795080.7100382 -2484467.689624297 -2484467.689624297 -5764315.154469293 0 0 0 0 0 106509535.549984 -2273882.369285916 -2273882.369285916 -5484577.576825582 0 0 0 0 0 106574358.2124194 -2250010.818656221 -2250010.818656221 -5458607.397094491 0 0 0 0 0 106329284.2871038 -2197766.406436094 -2197766.406436094 -5315657.162596393 0 0 0 0 0 106331444.9485189 -2052967.030734233 -2052967.030734233 -5181006.497055069 0 0 0 0 0 106306691.5266712 -1922430.633525972 -1922430.633525972 -5047068.595557628 0 0 0 0 0 93346267.0201306 -20611699.88906941 -20611699.88906941 -12921282.58733075 0 0 0 0 0 11169782.18146407 -1532222.214372844 -1532222.214372844 -13945161.54178364 0 0 0 0 0 12890759.14736828 -3768783.273553862 -3768783.273553862 -12559342.88655647 0 0 0 0 0 15167061.91164468 -6077094.324281231 -6077094.324281231 -11750455.63199843 0 0 0 0 0 16711657.84971222 -8421888.471436992 -8421888.471436992 -9585958.818025319 0 0 0 0 0 14305473.8642828 -6170997.649986205 -6170997.649986205 -10864956.90783186 0 0 0 0 0 21557377.63902806 -11303409.3446739 -11303409.3446739 -8674882.390394095 0 0 0 0 0 23573959.44729787 -13666470.84557609 -13666470.84557609 -8384481.956152492 0 0 0 0 0 26097854.19000358 -15804975.19717116 -15804975.19717116 -8243579.243164938 0 0 0 0 0 28772819.1176479 -17815997.58318733 -17815997.58318733 -8195078.177317136 0 0 0 0 0 31645483.47754519 -19672287.35666554 -19672287.35666554 -8241339.581034698 0 0 0 0 0 34684380.65661027 -21363111.76683448 -21363111.76683448 -8375771.895792798 0 0 0 0 0 37856656.60312895 -22879244.28384231 -22879244.28384231 -8590526.113834159 0 0 0 0 0 41132706.99949831 -24215902.19572301 -24215902.19572301 -8875888.053305268 0 0 0 0 0 43272409.25514525 -23482179.87306213 -23482179.87306213 -8353935.439551624 0 0 0 0 0 46516129.68598548 -25049119.86779173 -25049119.86779173 -8420838.670512486 0 0 0 0 0 49752242.20377018 -25947455.49564086 -25947455.49564086 -8867091.837108118 0 0 0 0 0 52998950.55056092 -26674920.80947175 -26674920.80947175 -9340502.794814745 0 0 0 0 0 56240615.29591256 -27239097.7244371 -27239097.7244371 -9832635.385578349 0 0 0 0 0 60792896.69590726 -27069664.36638501 -27069664.36638501 -9740542.639170708 0 0 0 0 0 58752420.97985717 -26371725.56402871 -26371725.56402871 -9204337.269677944 0 0 0 0 0 63786912.97605371 -27294946.25460695 -27294946.25460695 -10250892.45267057 0 0 0 0 0 66720517.22210947 -27390442.55261832 -27390442.55261832 -10752965.51429836 0 0 0 0 0 69598030.92661427 -27367630.00094872 -27367630.00094872 -11240048.85651281 0 0 0 0 0 72375111.174785 -27228233.57140587 -27228233.57140587 -11699747.22573073 0 0 0 0 0 75054560.17800905 -26984335.80319723 -26984335.80319723 -12132426.86449061 0 0 0 0 0 77629613.1968742 -26650856.37713011 -26650856.37713011 -12533265.70152419 0 0 0 0 0 80005261.69646843 -25782533.00741864 -25782533.00741864 -11748271.5450378 0 0 0 0 0 80485129.42657067 -25628851.92816494 -25628851.92816494 -12387341.34497081 0 0 0 0 0 82715778.9802056 -25159370.76223548 -25159370.76223548 -12712389.39295645 0 0 0 0 0 84842392.68986118 -24628519.67272139 -24628519.67272139 -12991553.4507484 0 0 0 0 0 86845066.76448166 -24059522.68974197 -24059522.68974197 -13246915.01271952 0 0 0 0 0 88705892.85342409 -23446941.25880447 -23446941.25880447 -13435519.12408035 0 0 0 0 0 90427125.25351855 -22786781.10878035 -22786781.10878035 -13561966.40280859 0 0 0 0 0 92237857.05911231 -22090438.02461141 -22090438.02461141 -12846261.74851642 0 0 0 0 0 91970873.87738594 -21686809.92340979 -21686809.92340979 -13264876.74070009 0 0 0 0 0 93493401.18593985 -21016125.94923235 -21016125.94923235 -13375745.51240492 0 0 0 0 0 94895874.8990019 -19996669.94419346 -19996669.94419346 -12243809.47440344 0 0 0 0 0 96171692.5946735 -19372830.07313911 -19372830.07313911 -12336446.19349182 0 0 0 0 0 97128800.24629357 -18405575.92101223 -18405575.92101223 -12007424.0555315 0 0 0 0 0 95741955.75840378 -18959733.25767242 -18959733.25767242 -12644289.26678508 0 0 0 0 0 98229711.03314613 -17785858.4069454 -17785858.4069454 -12065429.32808952 0 0 0 0 0 99256903.47052154 -17161058.97910314 -17161058.97910314 -12097617.72242713 0 0 0 0 0 100217721.5573491 -16534615.65831988 -16534615.65831988 -12105349.14909351 0 0 0 0 0 101092317.4533575 -15915545.70813485 -15915545.70813485 -12091145.61048877 0 0 0 0 0 101568269.8570775 -15092123.5766999 -15092123.5766999 -11725456.55944544 0 0 0 0 0 100514722.382902 -15515340.39727336 -15515340.39727336 -12251177.46504826 0 0 0 0 0 102298290.7765736 -14498701.71645371 -14498701.71645371 -11679251.65934261 0 0 0 0 0 102969838.7296584 -13910930.8366706 -13910930.8366706 -11611659.02177476 0 0 0 0 0 103577326.5445673 -13348549.01316864 -13348549.01316864 -11543718.99614275 0 0 0 0 0 104142225.0028247 -12784782.35987545 -12784782.35987545 -11438503.35992032 0 0 0 0 0 104658734.5443307 -12232517.78887568 -12232517.78887568 -11329245.8020976 0 0 0 0 0 104050160.6836768 -11906135.80807868 -11906135.80807868 -11324629.90118003 0 0 0 0 0 105176874.7066559 -11103486.07597256 -11103486.07597256 -10822437.10626096 0 0 0 0 0 104525156.9172764 -11378627.3587928 -11378627.3587928 -11180522.5219317 0 0 0 0 0 105564039.6306415 -10609275.02997923 -10609275.02997923 -10691560.15900057 0 0 0 0 0 105914242.8003813 -10128024.57761292 -10128024.57761292 -10551682.04177771 0 0 0 0 0 106230172.5797731 -9660346.574331103 -9660346.574331103 -10403605.14247346 0 0 0 0 0 106514144.3180732 -9206582.591287393 -9206582.591287393 -10248664.12851806 0 0 0 0 0 106408995.1105528 -8762669.03797294 -8762669.03797294 -9891163.954448828 0 0 0 0 0 105953093.0122631 -8957819.904508298 -8957819.904508298 -10152338.5307503 0 0 0 0 0 106639186.031537 -8348040.495066806 -8348040.495066806 -9734806.983820334 0 0 0 0 0 106844267.8470283 -7946456.57171595 -7946456.57171595 -9574043.456948617 0 0 0 0 0 107025347.0338994 -7558501.803265109 -7558501.803265109 -9409627.81876847 0 0 0 0 0 107184048.0062678 -7184372.422592576 -7184372.422592576 -9242476.350044258 0 0 0 0 0 107321784.1805228 -6823603.419012844 -6823603.419012844 -9072122.804930512 0 0 0 0 0 106966217.6161001 -6304315.540789315 -6304315.540789315 -8749949.016423266 0 0 0 0 0 107441553.1170438 -6475223.170871417 -6475223.170871417 -8899188.413764477 0 0 0 0 0 107233876.7588947 -6189000.555684373 -6189000.555684373 -8593940.132136226 0 0 0 0 0 107326192.5379807 -5872322.134023612 -5872322.134023612 -8426820.887473511 0 0 0 0 0 107383621.9237612 -5583224.317217211 -5583224.317217211 -8279430.059386035 0 0 0 0 0 107420406.7185286 -5312822.39718211 -5312822.39718211 -8132693.9379559 0 0 0 0 0 107471148.6228793 -5033591.910613271 -5033591.910613271 -7946325.474438849 0 0 0 0 0 107541694.8160853 -4746765.003886803 -4746765.003886803 -7771204.083296597 0 0 0 0 0 107151051.6573429 -4617086.710893622 -4617086.710893622 -7592319.955573477 0 0 0 0 0 107294449.5955396 -4561807.950177964 -4561807.950177964 -7523030.476320852 0 0 0 0 0 107315760.1385126 -4308434.38299248 -4308434.38299248 -7350298.692484137 0 0 0 0 0 107332335.151931 -4065177.352683965 -4065177.352683965 -7187020.944037339 0 0 0 0 0 107342035.4801969 -3839044.998437821 -3839044.998437821 -7032173.70200983 0 0 0 0 0 106996952.2087874 -3744745.89784573 -3744745.89784573 -6870415.362599054 0 0 0 0 0 107109314.3954291 -3697278.320926537 -3697278.320926537 -6808509.983629558 0 0 0 0 0 107108644.2086359 -3488342.568693224 -3488342.568693224 -6659318.009528825 0 0 0 0 0 107101297.0974184 -3287607.436215312 -3287607.436215312 -6511495.625371757 0 0 0 0 0 107087654.2097474 -3094902.290996887 -3094902.290996887 -6365229.668059347 0 0 0 0 0 107068253.2802992 -2909981.523310757 -2909981.523310757 -6220567.281443638 0 0 0 0 0 107043501.2150271 -2732642.390086271 -2732642.390086271 -6077654.643962529 0 0 0 0 0 107013685.8822517 -2562879.970052186 -2562879.970052186 -5936558.991123512 0 0 0 0 0 106979695.5245827 -2400719.778287818 -2400719.778287818 -5797315.314166794 0 0 0 0 0 106762543.0112488 -2328141.395704529 -2328141.395704529 -5632286.913314069 0 0 0 0 0 106717389.0207155 -2345010.625747588 -2345010.625747588 -5648689.513321909 0 0 0 0 0 106725858.4135199 -2170331.40908497 -2170331.40908497 -5492799.318301684 0 0 0 0 0 106486430.4278073 -2107288.544568147 -2107288.544568147 -5358476.74282639 0 0 0 0 0 106514948.4095726 -2092651.946762343 -2092651.946762343 -5333084.67465682 0 0 0 0 0 106432671.870323 -1950166.45742215 -1950166.45742215 -5221660.733315961 0 0 0 0 0 106349533.6885733 -1860734.626471362 -1860734.626471362 -5137059.934865789 0 0 0 0 0 95116153.37418661 -20381012.9326492 -20381012.9326492 -12676093.90758339 0 0 0 0 0 10149367.45513801 -645613.5958910915 -645613.5958910915 -15457296.29800806 0 0 0 0 0 11037427.6780392 -2820798.742342164 -2820798.742342164 -13953428.96348446 0 0 0 0 0 12101760.60075916 -5214425.995421246 -5214425.995421246 -13096847.58993442 0 0 0 0 0 17203725.96124662 -8024339.047546767 -8024339.047546767 -10368300.14957578 0 0 0 0 0 16716756.32727841 -8447649.69183906 -8447649.69183906 -11196531.07270423 0 0 0 0 0 18968187.46635097 -10526527.34533619 -10526527.34533619 -9827030.721304879 0 0 0 0 0 21531296.14272315 -12904269.95105637 -12904269.95105637 -9396267.645338666 0 0 0 0 0 24300902.15783562 -15047019.77367208 -15047019.77367208 -9188664.177486224 0 0 0 0 0 27319029.71435717 -17087354.61712122 -17087354.61712122 -9038133.300084941 0 0 0 0 0 30538623.99426235 -18976745.5683848 -18976745.5683848 -8979008.274478819 0 0 0 0 0 33921927.94282196 -20703425.57411697 -20703425.57411697 -9006842.680651719 0 0 0 0 0 37432309.34684179 -22257188.92513343 -22257188.92513343 -9115088.142252093 0 0 0 0 0 41034146.24927223 -23631104.33131614 -23631104.33131614 -9297408.509239046 0 0 0 0 0 44478296.65575031 -25370625.68132376 -25370625.68132376 -9221291.114295978 0 0 0 0 0 46774357.40141068 -24585450.41463277 -24585450.41463277 -8672501.405045807 0 0 0 0 0 50288864.88680662 -25511882.40685226 -25511882.40685226 -9036888.416341245 0 0 0 0 0 53792778.00741374 -26264105.94154583 -26264105.94154583 -9432363.030260175 0 0 0 0 0 57259997.22879317 -26849982.14572131 -26849982.14572131 -9853066.122993987 0 0 0 0 0 61999334.26734596 -26754623.03398727 -26754623.03398727 -9670463.653247375 0 0 0 0 0 59437832.12976725 -27646428.43841843 -27646428.43841843 -10333747.27236288 0 0 0 0 0 65168850.95385958 -26991850.99705097 -26991850.99705097 -10131769.04860515 0 0 0 0 0 68253192.31677553 -27095512.12597765 -27095512.12597765 -10588085.4048356 0 0 0 0 0 71239743.41808599 -27079003.41270718 -27079003.41270718 -11038128.87526778 0 0 0 0 0 74122190.77627639 -26946052.59372644 -26946052.59372644 -11470886.79918915 0 0 0 0 0 76896339.79386328 -26704554.7927371 -26704554.7927371 -11876481.28728965 0 0 0 0 0 79558185.15892906 -26372179.28342831 -26372179.28342831 -12257535.07709334 0 0 0 0 0 80080411.8205713 -26232775.64824114 -26232775.64824114 -12894155.45144297 0 0 0 0 0 82396927.62138303 -25378528.78562661 -25378528.78562661 -12100439.81943538 0 0 0 0 0 84660582.05839694 -24908109.51660165 -24908109.51660165 -12419764.39407894 0 0 0 0 0 86772944.21284549 -24376070.4300749 -24376070.4300749 -12701205.17684989 0 0 0 0 0 88778552.36016701 -23799282.99783038 -23799282.99783038 -12952225.09095462 0 0 0 0 0 90670874.97162218 -23178842.21360388 -23178842.21360388 -13151981.81621761 0 0 0 0 0 92388005.08208239 -22555217.55384237 -22555217.55384237 -13359858.63498815 0 0 0 0 0 92062798.79849955 -22122534.55341177 -22122534.55341177 -13721933.04223955 0 0 0 0 0 93835932.80652525 -21437290.74782821 -21437290.74782821 -12988086.97871667 0 0 0 0 0 95338364.60850629 -20761818.02808839 -20761818.02808839 -13103920.4229643 0 0 0 0 0 94691917.60572548 -19959161.02616841 -19959161.02616841 -12994145.28456127 0 0 0 0 0 95953157.60522778 -19300522.45091735 -19300522.45091735 -13047815.56819138 0 0 0 0 0 96908333.79736917 -18315598.44552203 -18315598.44552203 -12682708.91636678 0 0 0 0 0 97373804.55090576 -18735422.19363148 -18735422.19363148 -12402250.60239018 0 0 0 0 0 97998916.71590288 -17667883.7307481 -17667883.7307481 -12694841.47524446 0 0 0 0 0 99016801.45093672 -17017237.01747119 -17017237.01747119 -12683239.63775188 0 0 0 0 0 99967064.96088284 -16361604.46370679 -16361604.46370679 -12649052.63373117 0 0 0 0 0 100843526.6862081 -15715963.2837045 -15715963.2837045 -12590758.24853492 0 0 0 0 0 101320486.8824602 -14895043.42326809 -14895043.42326809 -12174730.21904428 0 0 0 0 0 101907242.7913146 -15290143.69896605 -15290143.69896605 -12056936.97157658 0 0 0 0 0 102053440.9569218 -14287692.24233201 -14287692.24233201 -12088335.61758946 0 0 0 0 0 102730526.3738561 -13696668.0145933 -13696668.0145933 -11984572.63759272 0 0 0 0 0 103342131.5630538 -13114847.51559124 -13114847.51559124 -11864473.39671078 0 0 0 0 0 103908424.1606733 -12544063.18942942 -12544063.18942942 -11732757.76649295 0 0 0 0 0 104427133.683592 -11987858.26583801 -11987858.26583801 -11587516.11814082 0 0 0 0 0 105131526.5249584 -11693614.13183972 -11693614.13183972 -11206792.64314621 0 0 0 0 0 104954135.7268115 -10867443.594152 -10867443.594152 -11029381.22007298 0 0 0 0 0 105559490.5396665 -11169388.54074879 -11169388.54074879 -11076182.57167618 0 0 0 0 0 105345193.4678575 -10369453.68042666 -10369453.68042666 -10868988.36037771 0 0 0 0 0 105699915.1640792 -9885756.205102878 -9885756.205102878 -10700995.73750134 0 0 0 0 0 106020747.5875291 -9416640.98502937 -9416640.98502937 -10526596.00924935 0 0 0 0 0 106309922.5947552 -8962198.734315559 -8962198.734315559 -10346622.18606628 0 0 0 0 0 106215604.6072314 -8529758.866773486 -8529758.866773486 -9978722.038631756 0 0 0 0 0 106768503.0950854 -8766677.9551879 -8766677.9551879 -10087291.45547001 0 0 0 0 0 106450833.9145075 -8115368.613898642 -8115368.613898642 -9801065.217901884 0 0 0 0 0 106661335.9224569 -7714877.976339198 -7714877.976339198 -9620013.461455183 0 0 0 0 0 106848503.9138404 -7328510.649197211 -7328510.649197211 -9436179.311624832 0 0 0 0 0 107013167.12469 -6956072.451557598 -6956072.451557598 -9249938.418743333 0 0 0 0 0 107156456.3020278 -6597317.807804161 -6597317.807804161 -9062503.422952913 0 0 0 0 0 107544726.1865278 -6138884.006604973 -6138884.006604973 -8724072.247842593 0 0 0 0 0 107281019.6660756 -6251815.664110687 -6251815.664110687 -8875149.573533984 0 0 0 0 0 107081975.6709355 -5977710.384241936 -5977710.384241936 -8569817.730053112 0 0 0 0 0 107187814.2968761 -5667549.692318611 -5667549.692318611 -8393068.246768733 0 0 0 0 0 107277218.0121817 -5371081.451109289 -5371081.451109289 -8204963.861890385 0 0 0 0 0 107353985.5748553 -5084925.208847673 -5084925.208847673 -8026383.475502064 0 0 0 0 0 107404438.9214827 -4802479.208500942 -4802479.208500942 -7850351.808150193 0 0 0 0 0 107420759.5163317 -4531728.678774536 -4531728.678774536 -7676866.422751063 0 0 0 0 0 107560992.2867888 -4479345.15394283 -4479345.15394283 -7610520.857969047 0 0 0 0 0 107182808.6743796 -4362499.898561098 -4362499.898561098 -7419330.946806349 0 0 0 0 0 107202439.8041973 -4122178.223129867 -4122178.223129867 -7264974.501424298 0 0 0 0 0 107229406.8120055 -3884818.568658745 -3884818.568658745 -7086444.397689412 0 0 0 0 0 107239588.9439114 -3660479.804376096 -3660479.804376096 -6924895.989830722 0 0 0 0 0 107341213.2171103 -3618785.306580404 -3618785.306580404 -6873719.116030808 0 0 0 0 0 107007014.8097388 -3530779.444331204 -3530779.444331204 -6713363.709533133 0 0 0 0 0 107010180.1676051 -3325175.978122058 -3325175.978122058 -6558101.136601907 0 0 0 0 0 107006579.6977907 -3127810.633358885 -3127810.633358885 -6404688.771889096 0 0 0 0 0 106996668.8005809 -2938474.195474316 -2938474.195474316 -6253227.479201033 0 0 0 0 0 106980927.25796 -2756933.755220798 -2756933.755220798 -6103819.6747653 0 0 0 0 0 106959900.3907196 -2583054.42366994 -2583054.42366994 -5956311.903466986 0 0 0 0 0 106933739.5090315 -2417049.021950043 -2417049.021950043 -5810615.696600611 0 0 0 0 0 106903996.7549302 -2259422.545704728 -2259422.545704728 -5665961.025477957 0 0 0 0 0 106684957.2005818 -2188110.964881246 -2188110.964881246 -5517549.251140524 0 0 0 0 0 106946614.0591297 -2246139.239101802 -2246139.239101802 -5660813.104008145 0 0 0 0 0 106628548.0877006 -2036246.151204083 -2036246.151204083 -5385875.889044108 0 0 0 0 0 106757387.4282474 -1970989.904343717 -1970989.904343717 -5283405.152101383 0 0 0 0 0 106519049.2487646 -1913729.538245604 -1913729.538245604 -5164664.694713419 0 0 0 0 0 106497256.3942456 -1787250.111682715 -1787250.111682715 -5017147.902144022 0 0 0 0 0 94898001.45359592 -20325746.9569787 -20325746.9569787 -13432394.5038501 0 0 0 0 0 8462511.488538599 -1668998.806036609 -1668998.806036609 -17125790.3056472 0 0 0 0 0 9933039.688184824 -3556865.47724498 -3556865.47724498 -15409663.71793847 0 0 0 0 0 11985233.55513751 -5590759.186910905 -5590759.186910905 -14274793.53748763 0 0 0 0 0 14098549.09545594 -7859888.295739694 -7859888.295739694 -13470188.33522993 0 0 0 0 0 18290735.58395088 -10907071.02985246 -10907071.02985246 -10534562.50072749 0 0 0 0 0 13858903.48710448 -7641386.187114591 -7641386.187114591 -12436377.31474266 0 0 0 0 0 20947461.63992803 -13257642.965439 -13257642.965439 -10132834.30789148 0 0 0 0 0 23347329.05431207 -15480480.14447498 -15480480.14447498 -9832504.814119086 0 0 0 0 0 26088316.2856823 -17588234.41555892 -17588234.41555892 -9642014.488000605 0 0 0 0 0 29034132.9979558 -19546504.04414824 -19546504.04414824 -9553053.555422219 0 0 0 0 0 32164295.05420804 -21339471.85293632 -21339471.85293632 -9564123.415313205 0 0 0 0 0 35447653.79495069 -22955723.92248005 -22955723.92248005 -9667949.20703974 0 0 0 0 0 38848782.55512001 -24387113.71847532 -24387113.71847532 -9855271.290315812 0 0 0 0 0 42335257.3789776 -25629572.33731762 -25629572.33731762 -10116060.21201566 0 0 0 0 0 44693064.20033284 -24821079.11432229 -24821079.11432229 -9543034.834465686 0 0 0 0 0 47858562.75745299 -26342170.12999698 -26342170.12999698 -9616080.096008772 0 0 0 0 0 51255690.84675661 -27132565.42767556 -27132565.42767556 -10043045.3254878 0 0 0 0 0 54645152.1095792 -27748027.58300447 -27748027.58300447 -10496019.10664303 0 0 0 0 0 58007110.21331766 -28197154.57684799 -28197154.57684799 -10966947.31177076 0 0 0 0 0 62578609.83770398 -27900038.82201443 -27900038.82201443 -10827244.5613991 0 0 0 0 0 60678138.98278291 -27275392.23027506 -27275392.23027506 -10288549.48353948 0 0 0 0 0 65650637.15785959 -28012808.3755519 -28012808.3755519 -11314241.89013816 0 0 0 0 0 68650767.70344843 -27997848.78476561 -27997848.78476561 -11786866.34385062 0 0 0 0 0 71561256.26271133 -27863385.93659801 -27863385.93659801 -12237930.61134377 0 0 0 0 0 74371371.96916792 -27617415.77872452 -27617415.77872452 -12658871.73012883 0 0 0 0 0 77077574.43382116 -27271039.79819693 -27271039.79819693 -13053972.1191598 0 0 0 0 0 79657284.77447411 -26841372.96183478 -26841372.96183478 -13414386.13214215 0 0 0 0 0 82079437.84857605 -25953676.62333325 -25953676.62333325 -12605613.17907559 0 0 0 0 0 82415410.50044695 -25742312.22555069 -25742312.22555069 -13212693.399427 0 0 0 0 0 84624695.78379613 -25188013.00128327 -25188013.00128327 -13481290.0989607 0 0 0 0 0 86714741.70522352 -24596565.77079021 -24596565.77079021 -13727572.83354669 0 0 0 0 0 88675871.85792732 -23947353.93055684 -23947353.93055684 -13926571.68014941 0 0 0 0 0 90521154.87118275 -23263410.40090944 -23263410.40090944 -14080545.18474244 0 0 0 0 0 92186184.68392965 -22551012.95673992 -22551012.95673992 -14170327.24612717 0 0 0 0 0 94002167.46596119 -21853198.26791684 -21853198.26791684 -13440153.25383669 0 0 0 0 0 93635363.78392334 -21424209.99589428 -21424209.99589428 -13824164.91395843 0 0 0 0 0 95114210.06447846 -20700628.11366172 -20700628.11366172 -13887232.94135086 0 0 0 0 0 96429724.17937014 -19730173.69205748 -19730173.69205748 -12765313.99926924 0 0 0 0 0 97652244.75399673 -19063868.33968061 -19063868.33968061 -12822926.51429363 0 0 0 0 0 98506862.08867343 -18090067.66573592 -18090067.66573592 -12454010.37228872 0 0 0 0 0 97143840.06453164 -18634750.4145694 -18634750.4145694 -13083856.8367546 0 0 0 0 0 99556929.42413814 -17439907.25334949 -17439907.25334949 -12477406.29736185 0 0 0 0 0 100533936.8945783 -16786054.10053517 -16786054.10053517 -12473255.27146843 0 0 0 0 0 101456209.8359924 -16123002.30645191 -16123002.30645191 -12442101.50434535 0 0 0 0 0 102295174.1990936 -15473502.855909 -15473502.855909 -12401526.53097201 0 0 0 0 0 102667932.7961707 -14672297.3684123 -14672297.3684123 -12002906.2472443 0 0 0 0 0 101650745.2505285 -15082829.33328034 -15082829.33328034 -12515192.44063452 0 0 0 0 0 103352032.2211851 -14061069.77951289 -14061069.77951289 -11926499.18533073 0 0 0 0 0 103973114.4232765 -13474009.11374193 -13474009.11374193 -11842290.4686057 0 0 0 0 0 104547888.8243347 -12887803.86708384 -12887803.86708384 -11729327.47716405 0 0 0 0 0 105069383.1733318 -12318130.31259635 -12318130.31259635 -11608893.83015237 0 0 0 0 0 105538238.674539 -11765820.30899463 -11765820.30899463 -11478437.22861337 0 0 0 0 0 104898714.9235173 -11447211.21635287 -11447211.21635287 -11434855.94287795 0 0 0 0 0 105947758.6582983 -10659458.91322726 -10659458.91322726 -10933335.8181817 0 0 0 0 0 105329957.113906 -10919900.15047889 -10919900.15047889 -11271384.20578154 0 0 0 0 0 106297176.316153 -10163212.84513701 -10163212.84513701 -10781694.65800395 0 0 0 0 0 106611044.1341712 -9681583.829356002 -9681583.829356002 -10622125.15945991 0 0 0 0 0 106892112.0416987 -9214787.48165698 -9214787.48165698 -10455616.59551156 0 0 0 0 0 107142544.6273279 -8762819.119784182 -8762819.119784182 -10283095.21223142 0 0 0 0 0 106994938.898322 -8340894.590669622 -8340894.590669622 -9920713.078941667 0 0 0 0 0 106569562.282962 -8522454.80237036 -8522454.80237036 -10162014.60234063 0 0 0 0 0 107195434.0856988 -7929127.088148905 -7929127.088148905 -9749551.431179758 0 0 0 0 0 107371748.8846051 -7531423.268156334 -7531423.268156334 -9574828.477850851 0 0 0 0 0 107524928.9578712 -7148006.299466671 -7148006.299466671 -9397317.125438211 0 0 0 0 0 107657070.1890434 -6779026.842479655 -6779026.842479655 -9217695.681654146 0 0 0 0 0 107769545.4915774 -6423650.720390889 -6423650.720390889 -9036033.755165184 0 0 0 0 0 107389227.1583493 -5918670.836799731 -5918670.836799731 -8686520.699283093 0 0 0 0 0 107865629.7778387 -6080765.864120875 -6080765.864120875 -8851847.987997411 0 0 0 0 0 107631589.7623685 -5815184.112156808 -5815184.112156808 -8548861.569684407 0 0 0 0 0 107700566.7958827 -5505789.237004311 -5505789.237004311 -8372511.036426096 0 0 0 0 0 107745295.2914751 -5214941.888166112 -5214941.888166112 -8208091.809979224 0 0 0 0 0 107795901.46278 -4925075.911621916 -4925075.911621916 -8034369.739995046 0 0 0 0 0 107820231.5669661 -4652973.201864553 -4652973.201864553 -7857357.160750431 0 0 0 0 0 107850243.2781163 -4384396.283970678 -4384396.283970678 -7675158.682647726 0 0 0 0 0 107463639.399816 -4269175.584960582 -4269175.584960582 -7486447.011349728 0 0 0 0 0 107574036.8539155 -4227240.74940673 -4227240.74940673 -7438484.518592705 0 0 0 0 0 107593700.7756243 -3979516.906288601 -3979516.906288601 -7257053.486825934 0 0 0 0 0 107585433.2133792 -3748240.627697681 -3748240.627697681 -7102404.863223598 0 0 0 0 0 107577997.4546101 -3533342.519979166 -3533342.519979166 -6940254.106269176 0 0 0 0 0 107237949.9820406 -3447523.780794726 -3447523.780794726 -6767046.118367033 0 0 0 0 0 107334803.5765125 -3407879.338527156 -3407879.338527156 -6718624.611736882 0 0 0 0 0 107321477.4581063 -3205174.86894348 -3205174.86894348 -6565312.320460528 0 0 0 0 0 107301977.6863802 -3010700.580054233 -3010700.580054233 -6413752.962527759 0 0 0 0 0 107276751.6830449 -2824211.252294733 -2824211.252294733 -6264044.910025565 0 0 0 0 0 107246348.0513595 -2645450.857590475 -2645450.857590475 -6116257.135403528 0 0 0 0 0 107210900.9751269 -2474367.370051166 -2474367.370051166 -5970662.042237484 0 0 0 0 0 107170489.2789983 -2310601.244067484 -2310601.244067484 -5826782.365377326 0 0 0 0 0 107125734.8325439 -2154543.224485085 -2154543.224485085 -5684369.329680854 0 0 0 0 0 106905529.9732322 -2093846.668904678 -2093846.668904678 -5527410.326084964 0 0 0 0 0 106869601.9408197 -2104573.187081086 -2104573.187081086 -5530642.477639705 0 0 0 0 0 106833260.5625637 -1950829.33639185 -1950829.33639185 -5399134.032292772 0 0 0 0 0 106616989.4792881 -1904614.296441122 -1904614.296441122 -5345639.764723077 0 0 0 0 0 106603430.8261666 -1820121.350731558 -1820121.350731558 -5231051.910720651 0 0 0 0 0 106512470.5878344 -1727801.189099343 -1727801.189099343 -5116866.295003788 0 0 0 0 0 96705565.83192097 -20078061.77524365 -20078061.77524365 -13201598.36290597 0 0 0 0 0 7327802.454112443 -590070.6989641698 -590070.6989641698 -18923223.41914228 0 0 0 0 0 8576994.015437385 -2625891.781300337 -2625891.781300337 -16944621.68143946 0 0 0 0 0 9706690.537054937 -4537453.121112567 -4537453.121112567 -15814962.89896299 0 0 0 0 0 11190939.42615592 -6839977.521520161 -6839977.521520161 -14875529.5282913 0 0 0 0 0 16104991.08506593 -10006870.86550429 -10006870.86550429 -11738131.49638606 0 0 0 0 0 16033010.90081432 -10320391.61859046 -10320391.61859046 -12758691.96558402 0 0 0 0 0 18637383.83270591 -12329976.74969846 -12329976.74969846 -11331688.27890947 0 0 0 0 0 21444904.75714483 -14600782.63247298 -14600782.63247298 -10885695.84094248 0 0 0 0 0 24513652.55535443 -16730524.97390703 -16730524.97390703 -10601740.52373237 0 0 0 0 0 27811417.27697522 -18723631.48534023 -18723631.48534023 -10405117.59031288 0 0 0 0 0 31299873.65465305 -20556751.35625622 -20556751.35625622 -10303099.3911347 0 0 0 0 0 34936449.55754481 -22216503.58251141 -22216503.58251141 -10293094.1351217 0 0 0 0 0 38679519.94858027 -23692422.30080752 -23692422.30080752 -10368377.52028483 0 0 0 0 0 42494935.77438392 -24978574.2367535 -24978574.2367535 -10520804.44237369 0 0 0 0 0 45871660.87514992 -26681457.20159496 -26681457.20159496 -10438321.88178449 0 0 0 0 0 48374773.29276001 -25826372.11867665 -25826372.11867665 -9841868.155770039 0 0 0 0 0 52044033.10144705 -26648359.93355751 -26648359.93355751 -10185807.12542031 0 0 0 0 0 55681476.844506 -27291874.11310598 -27291874.11310598 -10560542.15056016 0 0 0 0 0 59267401.30613525 -27765454.78578517 -27765454.78578517 -10959394.14175484 0 0 0 0 0 64010477.28841763 -27546281.89795982 -27546281.89795982 -10732105.13464113 0 0 0 0 0 61305377.34744649 -28486885.99412844 -28486885.99412844 -11442722.27724522 0 0 0 0 0 67251537.62732035 -27672398.02320289 -27672398.02320289 -11167463.04619021 0 0 0 0 0 70384818.91645099 -27666998.94805873 -27666998.94805873 -11597294.79664872 0 0 0 0 0 73402578.70523618 -27541050.21148655 -27541050.21148655 -12014540.48590057 0 0 0 0 0 76297222.5273716 -27303297.53870281 -27303297.53870281 -12410293.18488176 0 0 0 0 0 79070318.07754768 -26959974.95498734 -26959974.95498734 -12778234.77516692 0 0 0 0 0 81729797.78921674 -26530729.69932549 -26530729.69932549 -13123791.99978558 0 0 0 0 0 82103861.57945579 -26327487.90036767 -26327487.90036767 -13725321.03640766 0 0 0 0 0 84444889.41739878 -25462504.59453634 -25462504.59453634 -12917489.76323993 0 0 0 0 0 86656540.19141531 -24911350.20270995 -24911350.20270995 -13196947.83273091 0 0 0 0 0 88744790.24531715 -24308866.32721949 -24308866.32721949 -13426512.84535946 0 0 0 0 0 90715691.17178699 -23662938.62983285 -23662938.62983285 -13633253.98246215 0 0 0 0 0 92545765.42629258 -22988072.16172534 -22988072.16172534 -13810490.27364586 0 0 0 0 0 94252331.44632103 -22273652.03183607 -22273652.03183607 -13930601.37063119 0 0 0 0 0 93794766.4604421 -21835039.37911855 -21835039.37911855 -14287205.09658803 0 0 0 0 0 95570166.22827098 -21152494.05677382 -21152494.05677382 -13547601.29374731 0 0 0 0 0 96989236.64904714 -20427296.60060284 -20427296.60060284 -13620783.02862165 0 0 0 0 0 96198075.96448615 -19637316.73131465 -19637316.73131465 -13471952.59215409 0 0 0 0 0 97412867.08405028 -18944132.62018158 -18944132.62018158 -13483755.20585438 0 0 0 0 0 98265808.53948416 -17958247.15740829 -17958247.15740829 -13083197.66309589 0 0 0 0 0 98804301.31743574 -18390832.14778757 -18390832.14778757 -12849185.70799186 0 0 0 0 0 99306805.83429039 -17280873.27480483 -17280873.27480483 -13057289.65672582 0 0 0 0 0 100272178.439579 -16602063.1309342 -16602063.1309342 -13013794.19638294 0 0 0 0 0 101190890.9632061 -15929932.15897691 -15929932.15897691 -12946342.04876847 0 0 0 0 0 102035577.0590437 -15257642.37935965 -15257642.37935965 -12848641.89205843 0 0 0 0 0 102411752.5613572 -14447978.44511077 -14447978.44511077 -12408157.07423738 0 0 0 0 0 103058290.144404 -14841114.55334217 -14841114.55334217 -12333190.94518267 0 0 0 0 0 103100707.1515259 -13833753.45821815 -13833753.45821815 -12292888.74059387 0 0 0 0 0 103721818.3593897 -13228753.08321654 -13228753.08321654 -12160570.97730487 0 0 0 0 0 104298088.2304716 -12639803.16436911 -12639803.16436911 -12016209.17841486 0 0 0 0 0 104823895.6005936 -12064885.66957676 -12064885.66957676 -11858263.73307802 0 0 0 0 0 105299075.662119 -11505981.19803192 -11505981.19803192 -11687998.33574436 0 0 0 0 0 105962961.0184091 -11227451.33733849 -11227451.33733849 -11332418.72415087 0 0 0 0 0 105721743.5960014 -10406286.9129191 -10406286.9129191 -11098445.43015518 0 0 0 0 0 106349238.6182727 -10701542.2850289 -10701542.2850289 -11176706.40932631 0 0 0 0 0 106076109.6570792 -9907920.505273035 -9907920.505273035 -10918012.94731331 0 0 0 0 0 106395334.4161272 -9425266.103244495 -9425266.103244495 -10731443.04635336 0 0 0 0 0 106681948.0955737 -8958143.438059555 -8958143.438059555 -10539495.34176665 0 0 0 0 0 106938073.0553969 -8506686.388599845 -8506686.388599845 -10343189.00511429 0 0 0 0 0 106801585.1830034 -8097307.047339141 -8097307.047339141 -9973307.362023802 0 0 0 0 0 107364568.1579748 -8325724.092840471 -8325724.092840471 -10105406.76363053 0 0 0 0 0 107007674.9232842 -7686886.888317668 -7686886.888317668 -9781620.242272798 0 0 0 0 0 107189868.6923945 -7291105.986794696 -7291105.986794696 -9587454.808328586 0 0 0 0 0 107349701.3751585 -6909920.098317461 -6909920.098317461 -9390960.015211185 0 0 0 0 0 107487900.0761221 -6543392.892543172 -6543392.892543172 -9193997.517172603 0 0 0 0 0 107606627.5291607 -6190649.138303691 -6190649.138303691 -8996226.225593695 0 0 0 0 0 107945436.7731703 -5750996.165302575 -5750996.165302575 -8667488.342551095 0 0 0 0 0 107707397.4584465 -5851708.863265519 -5851708.863265519 -8799123.667903552 0 0 0 0 0 107482391.410319 -5599107.664370205 -5599107.664370205 -8497041.627650963 0 0 0 0 0 107562069.413791 -5290384.699516585 -5290384.699516585 -8308174.738374061 0 0 0 0 0 107627930.2324093 -4991447.79851089 -4991447.79851089 -8120818.894807203 0 0 0 0 0 107677111.2254906 -4711652.610641167 -4711652.610641167 -7933228.61396268 0 0 0 0 0 107720512.1719655 -4437558.475187087 -4437558.475187087 -7747398.542694204 0 0 0 0 0 107731084.711733 -4177023.889796909 -4177023.889796909 -7559780.75534019 0 0 0 0 0 107849532.5472416 -4131611.239449713 -4131611.239449713 -7511691.948703943 0 0 0 0 0 107471233.8040584 -4031769.478615339 -4031769.478615339 -7324198.227505684 0 0 0 0 0 107485792.5430549 -3792106.029546174 -3792106.029546174 -7160623.551141048 0 0 0 0 0 107502789.6735965 -3558691.670830471 -3558691.670830471 -6957694.214999538 0 0 0 0 0 107478460.7796935 -3355858.663226464 -3355858.663226464 -6813432.901353856 0 0 0 0 0 107565919.9926763 -3321307.679439459 -3321307.679439459 -6774502.030038985 0 0 0 0 0 107235298.9934288 -3239866.419229886 -3239866.419229886 -6606143.862008858 0 0 0 0 0 107225845.1734207 -3040727.254668122 -3040727.254668122 -6447414.928068683 0 0 0 0 0 107210107.7792864 -2849827.207448314 -2849827.207448314 -6290931.240055618 0 0 0 0 0 107188599.3255522 -2666929.397710962 -2666929.397710962 -6136768.910384895 0 0 0 0 0 107161789.7220872 -2491821.691241522 -2491821.691241522 -5984952.911047401 0 0 0 0 0 107129980.5913199 -2324236.21513484 -2324236.21513484 -5835600.36068422 0 0 0 0 0 107093388.979394 -2164517.569023736 -2164517.569023736 -5687668.386677503 0 0 0 0 0 107052895.9759704 -2015472.606876188 -2015472.606876188 -5539327.262133349 0 0 0 0 0 106833070.426149 -1947443.674299613 -1947443.674299613 -5387631.622707995 0 0 0 0 0 107096726.3452938 -2002667.057557809 -2002667.057557809 -5540396.101676888 0 0 0 0 0 106859476.2578733 -1794427.798043249 -1794427.798043249 -5176194.385297516 0 0 0 0 0 106771135.6297043 -1739941.249681446 -1739941.249681446 -5105965.011684433 0 0 0 0 0 106669191.6320861 -1650773.700385738 -1650773.700385738 -4994196.569797545 0 0 0 0 0 96470072.47430354 -19978520.30792822 -19978520.30792822 -13904079.03361866 0 0 0 0 0 5919191.116357857 -1729439.078659716 -1729439.078659716 -20859236.14070858 0 0 0 0 0 6947996.335201412 -3548697.638678554 -3548697.638678554 -18717327.23665239 0 0 0 0 0 9488605.824264742 -4980623.652446004 -4980623.652446004 -17318525.91421414 0 0 0 0 0 11074985.50153924 -7216367.372037652 -7216367.372037652 -16358770.14377067 0 0 0 0 0 13123331.80442404 -9628946.905786796 -9628946.905786796 -15456913.63990632 0 0 0 0 0 18066104.29151398 -12709893.85773076 -12709893.85773076 -12177918.2670853 0 0 0 0 0 13225344.90697544 -9261547.467930065 -9261547.467930065 -14150119.38963685 0 0 0 0 0 20578293.82002405 -15054180.58572349 -15054180.58572349 -11700738.84893461 0 0 0 0 0 23316633.72614272 -17254891.95019354 -17254891.95019354 -11333484.75073336 0 0 0 0 0 26326588.09471165 -19313631.72882739 -19313631.72882739 -11079062.29830218 0 0 0 0 0 29544923.85853117 -21211727.16615418 -21211727.16615418 -10936444.30187543 0 0 0 0 0 32933656.38713584 -22934010.68526366 -22934010.68526366 -10900719.77983318 0 0 0 0 0 36458748.35541705 -24468492.67853763 -24468492.67853763 -10965091.230489 0 0 0 0 0 40084694.46224299 -25808003.19603114 -25808003.19603114 -11118214.30388426 0 0 0 0 0 43775429.43991302 -26950135.63447012 -26950135.63447012 -11348217.38743051 0 0 0 0 0 46342602.1099273 -26071928.76974821 -26071928.76974821 -10739781.82398558 0 0 0 0 0 49423466.78126075 -27543431.15956559 -27543431.15956559 -10808270.91751189 0 0 0 0 0 52972157.62743045 -28219542.61525512 -28219542.61525512 -11211099.37755639 0 0 0 0 0 56494502.48160526 -28718316.53271284 -28718316.53271284 -11640708.1045358 0 0 0 0 0 59967355.7723483 -29048336.87059804 -29048336.87059804 -12083092.57963081 0 0 0 0 0 64528004.41556595 -28624148.76723794 -28624148.76723794 -11908216.19317622 0 0 0 0 0 62775964.23744628 -28075155.73391048 -28075155.73391048 -11369951.35815386 0 0 0 0 0 67671213.42518203 -28623531.75354083 -28623531.75354083 -12363742.3833436 0 0 0 0 0 70719514.68532802 -28494637.42588834 -28494637.42588834 -12798843.43421556 0 0 0 0 0 73656049.86370139 -28247833.39461124 -28247833.39461124 -13208709.09168812 0 0 0 0 0 76478525.27959576 -27895305.66298275 -27895305.66298275 -13588508.19020337 0 0 0 0 0 79201946.67543967 -27451599.54911957 -27451599.54911957 -13942534.34830315 0 0 0 0 0 81775271.50783725 -26920139.38974554 -26920139.38974554 -14245272.40569124 0 0 0 0 0 84211507.33009955 -26018804.4480509 -26018804.4480509 -13430649.10266642 0 0 0 0 0 84418794.89665486 -25754132.25613573 -25754132.25613573 -13990636.46936318 0 0 0 0 0 86584139.54128219 -25127447.91352312 -25127447.91352312 -14221713.27065945 0 0 0 0 0 88627515.54114845 -24452953.41199204 -24452953.41199204 -14422201.3191951 0 0 0 0 0 90560987.11318037 -23741413.38913446 -23741413.38913446 -14575233.56184729 0 0 0 0 0 92347837.41885486 -22996425.17666675 -22996425.17666675 -14684603.24917015 0 0 0 0 0 94019645.36654715 -22221199.05993205 -22221199.05993205 -14740934.69856772 0 0 0 0 0 95829832.61085297 -21537318.92899127 -21537318.92899127 -14005895.33863183 0 0 0 0 0 95330849.49608916 -21069539.12919388 -21069539.12919388 -14320640.31720084 0 0 0 0 0 96741949.34439284 -20318881.94172797 -20318881.94172797 -14352549.97176884 0 0 0 0 0 97964455.11407417 -19384386.73409332 -19384386.73409332 -13245890.9974355 0 0 0 0 0 99136526.58233958 -18687835.32452101 -18687835.32452101 -13263948.41973778 0 0 0 0 0 99884219.32463843 -17713861.85753777 -17713861.85753777 -12862309.7543876 0 0 0 0 0 98553682.72831653 -18246289.21272582 -18246289.21272582 -13479668.68932072 0 0 0 0 0 100883658.950633 -17034605.7486918 -17034605.7486918 -12847721.86913915 0 0 0 0 0 101817415.1653493 -16352140.53002345 -16352140.53002345 -12805105.04171997 0 0 0 0 0 102681061.0042591 -15675884.17955029 -15675884.17955029 -12744512.66790886 0 0 0 0 0 103467133.4114002 -15003210.43237999 -15003210.43237999 -12670740.07725664 0 0 0 0 0 103751116.8002293 -14210918.96062322 -14210918.96062322 -12249627.14358872 0 0 0 0 0 102791557.937612 -14604762.46231958 -14604762.46231958 -12732805.36789069 0 0 0 0 0 104383143.6009807 -13597777.56389646 -13597777.56389646 -12147059.63315527 0 0 0 0 0 104961792.5593119 -12993325.9234965 -12993325.9234965 -12025079.42636882 0 0 0 0 0 105486664.0703785 -12405651.28336254 -12405651.28336254 -11890780.94158881 0 0 0 0 0 105960092.6314334 -11832910.44521262 -11832910.44521262 -11745458.78860515 0 0 0 0 0 106384939.4949794 -11276761.48897442 -11276761.48897442 -11589310.41278728 0 0 0 0 0 105726289.258923 -10962865.52501218 -10962865.52501218 -11512337.53764644 0 0 0 0 0 106696794.1788569 -10190274.33609706 -10190274.33609706 -11012232.73480006 0 0 0 0 0 106117066.6943478 -10433817.03283497 -10433817.03283497 -11326302.22916723 0 0 0 0 0 107008060.1579173 -9694507.352689506 -9694507.352689506 -10840325.35397739 0 0 0 0 0 107285733.4150376 -9214583.764730906 -9214583.764730906 -10661833.51736662 0 0 0 0 0 107531585.379065 -8750379.821546609 -8750379.821546609 -10477631.66519345 0 0 0 0 0 107748234.4302218 -8302026.951532042 -8302026.951532042 -10288507.09710921 0 0 0 0 0 107559904.6179453 -7903600.017869571 -7903600.017869571 -9923617.561813692 0 0 0 0 0 107165809.3097322 -8070792.769158956 -8070792.769158956 -10143278.92373275 0 0 0 0 0 107730435.6821805 -7496255.087215626 -7496255.087215626 -9738207.594351226 0 0 0 0 0 107877952.6173908 -7103715.494307425 -7103715.494307425 -9550070.565236388 0 0 0 0 0 108003190.4705929 -6726272.737500729 -6726272.737500729 -9360600.612743203 0 0 0 0 0 108109367.881091 -6363241.054713387 -6363241.054713387 -9168884.991435857 0 0 0 0 0 108197247.987408 -6014247.911975137 -6014247.911975137 -8976373.555361651 0 0 0 0 0 107792578.0715148 -5525691.148263409 -5525691.148263409 -8601620.675827712 0 0 0 0 0 108269055.2336027 -5678644.500344744 -5678644.500344744 -8782684.034458844 0 0 0 0 0 108008721.2171604 -5434486.981063549 -5434486.981063549 -8483059.281144239 0 0 0 0 0 108057352.6595776 -5129773.114299534 -5129773.114299534 -8298911.117452217 0 0 0 0 0 108096595.1190014 -4834539.339113995 -4834539.339113995 -8115405.888699831 0 0 0 0 0 108122110.6888884 -4555747.609611082 -4555747.609611082 -7931806.42756147 0 0 0 0 0 108137798.7848954 -4285926.326167861 -4285926.326167861 -7750521.358460545 0 0 0 0 0 108135252.0224616 -4033754.549871888 -4033754.549871888 -7570873.790158993 0 0 0 0 0 107747439.5554942 -3931426.831333341 -3931426.831333341 -7381141.164213931 0 0 0 0 0 107855475.4266405 -3887040.27211616 -3887040.27211616 -7329121.689716392 0 0 0 0 0 107860955.4094779 -3644885.646483183 -3644885.646483183 -7149351.678030063 0 0 0 0 0 107816545.6968129 -3434908.221304629 -3434908.221304629 -7011481.458690135 0 0 0 0 0 107799680.1351766 -3227102.189650054 -3227102.189650054 -6829405.587917982 0 0 0 0 0 107465715.5213612 -3148308.347913174 -3148308.347913174 -6649735.623112698 0 0 0 0 0 107546407.5027302 -3116851.326481583 -3116851.326481583 -6615443.131167158 0 0 0 0 0 107520758.7173804 -2920825.265450599 -2920825.265450599 -6458468.540463957 0 0 0 0 0 107489437.5202033 -2732991.876382037 -2732991.876382037 -6303633.677880824 0 0 0 0 0 107452964.4057434 -2553108.325399445 -2553108.325399445 -6151031.453811347 0 0 0 0 0 107411737.6006416 -2380986.528344072 -2380986.528344072 -6000788.752138514 0 0 0 0 0 107366265.0291128 -2216331.495853881 -2216331.495853881 -5852951.068658577 0 0 0 0 0 107314982.5237432 -2058957.791435795 -2058957.791435795 -5707607.87699184 0 0 0 0 0 107257093.3685149 -1911939.32980095 -1911939.32980095 -5567231.478847854 0 0 0 0 0 107063473.5545902 -1830814.854179892 -1830814.854179892 -5382174.29385517 0 0 0 0 0 106994239.427624 -1867191.924947872 -1867191.924947872 -5431217.05354774 0 0 0 0 0 106862775.0996771 -1734833.298229401 -1734833.298229401 -5295800.728961435 0 0 0 0 0 106747523.8715892 -1680356.141572041 -1680356.141572041 -5218707.486147321 0 0 0 0 0 106677312.1682387 -1590041.377021717 -1590041.377021717 -5082074.778675593 0 0 0 0 0 98305547.33120646 -19705229.82488532 -19705229.82488532 -13673182.5608554 0 0 0 0 0 4655855.77028325 -394617.2700923344 -394617.2700923344 -22778164.52206052 0 0 0 0 0 8136460.206137757 -3648653.070411224 -3648653.070411224 -20378907.93694585 0 0 0 0 0 6678079.95344644 -3922626.141518868 -3922626.141518868 -18876870.76341574 0 0 0 0 0 8414317.839089587 -6054988.360035354 -6054988.360035354 -17871176.50273168 0 0 0 0 0 10300323.07132863 -8388607.00182597 -8388607.00182597 -16975723.51745176 0 0 0 0 0 15703770.03040283 -11690768.00378868 -11690768.00378868 -13435809.74715003 0 0 0 0 0 15244599.12599419 -12127767.99449458 -12127767.99449458 -14628263.33179432 0 0 0 0 0 18512508.24090937 -14015810.97932494 -14015810.97932494 -12900846.49355976 0 0 0 0 0 21621116.32559549 -16247138.20639358 -16247138.20639358 -12424408.9709206 0 0 0 0 0 24984878.16399962 -18341287.48778912 -18341287.48778912 -12061168.85319145 0 0 0 0 0 28564348.10818697 -20284676.23565289 -20284676.23565289 -11801131.5768744 0 0 0 0 0 32316426.35009786 -22057056.37382104 -22057056.37382104 -11644856.7963832 0 0 0 0 0 36200696.29518538 -23643978.43188134 -23643978.43188134 -11588076.87495997 0 0 0 0 0 40171348.02284906 -25036351.08972 -25036351.08972 -11622560.95095893 0 0 0 0 0 44190878.13227934 -26228714.32573327 -26228714.32573327 -11738675.95904978 0 0 0 0 0 47494889.5702021 -27892911.75929655 -27892911.75929655 -11640453.04160467 0 0 0 0 0 50187652.84265772 -26971968.61486258 -26971968.61486258 -11013054.33769937 0 0 0 0 0 54006065.51400916 -27684137.20984095 -27684137.20984095 -11330677.82719878 0 0 0 0 0 57773150.34869286 -28214401.81512626 -28214401.81512626 -11678557.41226663 0 0 0 0 0 61461730.95808121 -28571645.20265473 -28571645.20265473 -12049167.53392223 0 0 0 0 0 66188003.89402626 -28232215.3905428 -28232215.3905428 -11782886.23266398 0 0 0 0 0 63352710.18478812 -29215364.62482261 -29215364.62482261 -12527784.66065111 0 0 0 0 0 69482792.50447927 -28244555.47574807 -28244555.47574807 -12190717.92374191 0 0 0 0 0 72651667.75820963 -28127718.58378892 -28127718.58378892 -12588184.72377993 0 0 0 0 0 75686686.6521838 -27891461.56858793 -27891461.56858793 -12967973.87866497 0 0 0 0 0 78580916.29939139 -27546398.54025039 -27546398.54025039 -13321666.36337934 0 0 0 0 0 81339510.19181927 -27104555.31348264 -27104555.31348264 -13648607.6472686 0 0 0 0 0 83957744.03927243 -26578204.7390131 -26578204.7390131 -13953238.22052542 0 0 0 0 0 84203001.63972683 -26323066.18952558 -26323066.18952558 -14506760.26629854 0 0 0 0 0 86534001.70288675 -25450280.70340412 -25450280.70340412 -13704579.91708731 0 0 0 0 0 88717343.04243903 -24819907.21641514 -24819907.21641514 -13925101.56167941 0 0 0 0 0 90774725.76063849 -24143560.16314968 -24143560.16314968 -14114694.84905669 0 0 0 0 0 92695376.39262107 -23435571.50876176 -23435571.50876176 -14280238.73234793 0 0 0 0 0 94473652.52325206 -22686981.21059571 -22686981.21059571 -14395641.08034582 0 0 0 0 0 96129752.24505284 -21906501.56647934 -21906501.56647934 -14469409.53571085 0 0 0 0 0 95576852.07689805 -21431222.69358206 -21431222.69358206 -14760136.13242858 0 0 0 0 0 97282492.29274957 -20781851.27405244 -20781851.27405244 -14060343.46660321 0 0 0 0 0 98653235.59525411 -20020459.53307468 -20020459.53307468 -14091200.02040776 0 0 0 0 0 97718051.69411369 -19251705.3846708 -19251705.3846708 -13898555.19202478 0 0 0 0 0 98879493.53529742 -18523908.79783387 -18523908.79783387 -13871065.74184103 0 0 0 0 0 99623967.8680937 -17540756.6425854 -17540756.6425854 -13440436.66056755 0 0 0 0 0 100234075.6360102 -17984429.28822408 -17984429.28822408 -13251854.29779551 0 0 0 0 0 100615119.3487379 -16836302.09782606 -16836302.09782606 -13379809.31169983 0 0 0 0 0 101542322.0146198 -16136941.62566112 -16136941.62566112 -13301466.27661449 0 0 0 0 0 102398010.2572753 -15437578.98082832 -15437578.98082832 -13193642.23254408 0 0 0 0 0 103194608.4919669 -14756246.88223597 -14756246.88223597 -13060292.72522413 0 0 0 0 0 103488665.3288603 -13966183.12775074 -13966183.12775074 -12602816.79513898 0 0 0 0 0 104170911.4781907 -14356509.33999355 -14356509.33999355 -12572304.39205985 0 0 0 0 0 104121203.588752 -13340476.0207355 -13340476.0207355 -12457342.15486195 0 0 0 0 0 104704048.5133437 -12730152.48864094 -12730152.48864094 -12298067.42437004 0 0 0 0 0 105232111.1959314 -12135479.6846364 -12135479.6846364 -12127124.04507563 0 0 0 0 0 105711170.7145734 -11557201.48339836 -11557201.48339836 -11944218.6736657 0 0 0 0 0 106142572.5984982 -10995931.78206482 -10995931.78206482 -11751502.06012138 0 0 0 0 0 106769640.8211588 -10734580.47946546 -10734580.47946546 -11419044.33787669 0 0 0 0 0 106469352.8578748 -9921185.071586877 -9921185.071586877 -11133431.56635512 0 0 0 0 0 107114313.9334047 -10208231.93100803 -10208231.93100803 -11242292.06029344 0 0 0 0 0 106786020.8441765 -9425069.815242361 -9425069.815242361 -10934527.59303972 0 0 0 0 0 107069514.6305814 -8945121.170675134 -8945121.170675134 -10730174.23244472 0 0 0 0 0 107321538.135277 -8481852.133863911 -8481852.133863911 -10521665.80501636 0 0 0 0 0 107544364.7075455 -8035108.749696529 -8035108.749696529 -10309988.35313919 0 0 0 0 0 107367234.8266794 -7650303.584753854 -7650303.584753854 -9940463.511975873 0 0 0 0 0 107937728.9006258 -7869401.7174514 -7869401.7174514 -10095336.24872971 0 0 0 0 0 107544016.3169837 -7245194.818017947 -7245194.818017947 -9735378.862010058 0 0 0 0 0 107697860.2680493 -6855374.198417332 -6855374.198417332 -9529009.2414019 0 0 0 0 0 107830441.7997951 -6480810.006520283 -6480810.006520283 -9321156.188642895 0 0 0 0 0 107942470.0465104 -6121152.345145037 -6121152.345145037 -9113767.265088664 0 0 0 0 0 108036506.3582579 -5775882.129857936 -5775882.129857936 -8906866.771118714 0 0 0 0 0 108325361.7171996 -5356344.33775061 -5356344.33775061 -8589320.577712648 0 0 0 0 0 108113716.3307358 -5444382.61732731 -5444382.61732731 -8700522.78087751 0 0 0 0 0 107860874.0254227 -5212152.442837741 -5212152.442837741 -8404630.448191719 0 0 0 0 0 107913943.4267247 -4909977.691480679 -4909977.691480679 -8209250.905158903 0 0 0 0 0 107961275.3039856 -4622262.022566416 -4622262.022566416 -8014772.811294473 0 0 0 0 0 107990088.2724366 -4345709.364732812 -4345709.364732812 -7821882.535163828 0 0 0 0 0 108013494.0113708 -4083017.820893753 -4083017.820893753 -7629621.912023822 0 0 0 0 0 108016849.7625602 -3828796.881046903 -3828796.881046903 -7440060.954052304 0 0 0 0 0 108128334.1832029 -3784687.644933796 -3784687.644933796 -7391747.899971483 0 0 0 0 0 107752635.4374681 -3691217.506635546 -3691217.506635546 -7207316.047706856 0 0 0 0 0 107755016.3255866 -3456436.96205497 -3456436.96205497 -7027811.55348963 0 0 0 0 0 107750814.6748013 -3240124.216640815 -3240124.216640815 -6828055.091027109 0 0 0 0 0 107704516.090841 -3048273.564654313 -3048273.564654313 -6685465.777353314 0 0 0 0 0 107775674.8926041 -3022217.677232072 -3022217.677232072 -6661547.255669358 0 0 0 0 0 107450009.9860563 -2947687.111944274 -2947687.111944274 -6485722.506528744 0 0 0 0 0 107428182.4217387 -2755437.096182224 -2755437.096182224 -6324090.843239754 0 0 0 0 0 107400616.2003527 -2571413.44636362 -2571413.44636362 -6165119.319171282 0 0 0 0 0 107367890.2575272 -2395337.278498014 -2395337.278498014 -6008782.957804849 0 0 0 0 0 107330306.6872156 -2226992.762704226 -2226992.762704226 -5855238.35851457 0 0 0 0 0 107288265.3746731 -2065805.432004377 -2065805.432004377 -5705197.322544955 0 0 0 0 0 107243431.4522794 -1913618.874608764 -1913618.874608764 -5557657.447734636 0 0 0 0 0 107197061.1017145 -1779685.681420781 -1779685.681420781 -5402972.678580342 0 0 0 0 0 106944522.3156431 -1741881.445230406 -1741881.445230406 -5320304.349662091 0 0 0 0 0 107252020.7328437 -1759845.626988116 -1759845.626988116 -5406966.852503787 0 0 0 0 0 107079302.2052388 -1631652.099739418 -1631652.099739418 -5147496.572895665 0 0 0 0 0 106961839.1518678 -1575004.528455501 -1575004.528455501 -5051350.948750957 0 0 0 0 0 106838080.757168 -1510005.87539569 -1510005.87539569 -4951223.407982782 0 0 0 0 0 98045256.40986384 -19552034.9835102 -19552034.9835102 -14325841.87454163 0 0 0 0 0 3487245.960047621 -1711328.48808993 -1711328.48808993 -25222441.98184346 0 0 0 0 0 4935493.710901693 -3655677.627857954 -3655677.627857954 -23755175.61787912 0 0 0 0 0 4715942.992466075 -3194591.844077396 -3194591.844077396 -21383512.6556553 0 0 0 0 0 8589844.628895679 -6362333.946379704 -6362333.946379704 -19731127.19846268 0 0 0 0 0 10235070.0950609 -8831580.649221625 -8831580.649221625 -18603987.87028205 0 0 0 0 0 12360163.7602091 -11370312.11585073 -11370312.11585073 -17529921.86213611 0 0 0 0 0 17689374.32699126 -14509039.53655144 -14509039.53655144 -13916890.20089329 0 0 0 0 0 12746004.53794684 -10884278.57021933 -10884278.57021933 -16071028.08995892 0 0 0 0 0 20485237.69445324 -16798135.90495115 -16798135.90495115 -13325347.23013328 0 0 0 0 0 23535496.38358397 -18954045.19211709 -18954045.19211709 -12861586.67120035 0 0 0 0 0 26826488.15331385 -20958507.24600923 -20958507.24600923 -12526219.30893034 0 0 0 0 0 30316284.80603667 -22791499.43979098 -22791499.43979098 -12317132.10757918 0 0 0 0 0 33962270.82012949 -24437068.77298933 -24437068.77298933 -12225832.31165397 0 0 0 0 0 37723963.01007041 -25884211.35052056 -25884211.35052056 -12243743.70774183 0 0 0 0 0 41567688.58555142 -27127089.93048405 -27127089.93048405 -12358040.92378975 0 0 0 0 0 45451454.56775412 -28162141.49613557 -28162141.49613557 -12553167.49174465 0 0 0 0 0 48221250.01599583 -27219812.85890431 -27219812.85890431 -11924984.37051359 0 0 0 0 0 51208525.78526787 -28638462.73855298 -28638462.73855298 -11981756.49804974 0 0 0 0 0 54897260.0739646 -29196384.98876855 -29196384.98876855 -12359411.27915527 0 0 0 0 0 58539279.98737212 -29573904.00337951 -29573904.00337951 -12759436.35058107 0 0 0 0 0 62104474.73737381 -29779136.41585682 -29779136.41585682 -13169883.42335999 0 0 0 0 0 66653512.81114262 -29234887.37435467 -29234887.37435467 -12961796.37772196 0 0 0 0 0 65052036.45313448 -28763741.99929095 -28763741.99929095 -12429247.19008826 0 0 0 0 0 69849005.15167855 -29116051.68721256 -29116051.68721256 -13379837.85041342 0 0 0 0 0 72928312.24338569 -28871784.37668484 -28871784.37668484 -13774335.26675345 0 0 0 0 0 75880045.63176386 -28514332.06912216 -28514332.06912216 -14138846.63952628 0 0 0 0 0 78704375.80549796 -28058540.21348203 -28058540.21348203 -14475215.80302177 0 0 0 0 0 81417178.92610647 -27517158.48440393 -27517158.48440393 -14776774.59707203 0 0 0 0 0 83965044.10529196 -26893987.2134381 -26893987.2134381 -15029345.86583062 0 0 0 0 0 86401387.37577981 -25987601.40670453 -25987601.40670453 -14219486.04151428 0 0 0 0 0 86461903.96663374 -25664198.462361 -25664198.462361 -14726773.52148841 0 0 0 0 0 88597428.18217334 -24958382.80102282 -24958382.80102282 -14913396.63936229 0 0 0 0 0 90611907.87758625 -24213883.3639454 -24213883.3639454 -15065200.73062919 0 0 0 0 0 92486866.1151033 -23430151.87578828 -23430151.87578828 -15163190.02322228 0 0 0 0 0 94233245.51453196 -22620571.44784956 -22620571.44784956 -15220654.24609414 0 0 0 0 0 95880981.13800557 -21806184.46369905 -21806184.46369905 -15232217.63963429 0 0 0 0 0 97618447.3263348 -21133770.73224235 -21133770.73224235 -14541147.80795025 0 0 0 0 0 97024170.96749103 -20657597.57510047 -20657597.57510047 -14788670.13802272 0 0 0 0 0 98380360.21894784 -19859617.70244858 -19859617.70244858 -14766951.30102316 0 0 0 0 0 99513677.07365201 -18978308.08530743 -18978308.08530743 -13681713.14364328 0 0 0 0 0 100624830.8256335 -18246066.83763185 -18246066.83763185 -13668298.62073123 0 0 0 0 0 101255218.6938779 -17279297.18910664 -17279297.18910664 -13227938.02823661 0 0 0 0 0 99963989.05269551 -17796219.56653688 -17796219.56653688 -13828607.27034154 0 0 0 0 0 102203092.099235 -16571476.75845541 -16571476.75845541 -13173256.23499505 0 0 0 0 0 103091260.6728897 -15867465.2889735 -15867465.2889735 -13096636.4789358 0 0 0 0 0 103894296.32149 -15170161.06056174 -15170161.06056174 -13004374.29222442 0 0 0 0 0 104613991.0008078 -14492637.6201728 -14492637.6201728 -12900333.78814409 0 0 0 0 0 104811629.5266983 -13718076.29452902 -13718076.29452902 -12455473.33128181 0 0 0 0 0 103896982.7803836 -14093031.01463184 -14093031.01463184 -12914784.86264652 0 0 0 0 0 105395147.5801455 -13093346.75322757 -13093346.75322757 -12321121.82760569 0 0 0 0 0 105923873.4935222 -12484402.35142471 -12484402.35142471 -12173836.31629514 0 0 0 0 0 106400845.4909903 -11891627.21977315 -11891627.21977315 -12013050.75457584 0 0 0 0 0 106828143.5921528 -11316068.17119493 -11316068.17119493 -11842400.26830931 0 0 0 0 0 107209819.9039226 -10757488.30468739 -10757488.30468739 -11661597.26037554 0 0 0 0 0 106530842.521274 -10451830.01587512 -10451830.01587512 -11552672.64332544 0 0 0 0 0 107421962.9673762 -9698506.70994533 -9698506.70994533 -11057577.25730869 0 0 0 0 0 106880705.1513579 -9924809.223667257 -9924809.223667257 -11346355.95782978 0 0 0 0 0 107695389.7881643 -9205330.650744738 -9205330.650744738 -10866484.72196663 0 0 0 0 0 107936122.3435988 -8728746.307462433 -8728746.307462433 -10670072.47125951 0 0 0 0 0 108146644.0691857 -8269013.903128176 -8269013.903128176 -10469057.28357564 0 0 0 0 0 108329497.0482753 -7825918.676868586 -7825918.676868586 -10264166.87622151 0 0 0 0 0 108102115.7276834 -7452356.182625669 -7452356.182625669 -9898909.046549771 0 0 0 0 0 107740115.5879981 -7604645.522771284 -7604645.522771284 -10095665.07078621 0 0 0 0 0 108242713.0562023 -7050917.080985533 -7050917.080985533 -9700187.459065411 0 0 0 0 0 108361614.4555201 -6664833.513477703 -6664833.513477703 -9499562.291852802 0 0 0 0 0 108459467.9210459 -6294476.703086528 -6294476.703086528 -9298538.482359236 0 0 0 0 0 108539419.1135587 -5938827.497548646 -5938827.497548646 -9096295.037793482 0 0 0 0 0 108603230.0971099 -5597423.861428364 -5597423.861428364 -8893487.987366812 0 0 0 0 0 108175205.4280813 -5126027.00356412 -5126027.00356412 -8494965.24141678 0 0 0 0 0 108651219.8341051 -5269829.780724896 -5269829.780724896 -8690923.205059344 0 0 0 0 0 108367020.3496518 -5046709.095723 -5046709.095723 -8396026.318971703 0 0 0 0 0 108396980.0680302 -4748551.239076566 -4748551.239076566 -8203401.087109037 0 0 0 0 0 108414771.355255 -4463997.126995057 -4463997.126995057 -8013818.648751508 0 0 0 0 0 108421646.548666 -4191570.891447698 -4191570.891447698 -7823395.079553928 0 0 0 0 0 108416935.8576441 -3931773.095877376 -3931773.095877376 -7636099.302994189 0 0 0 0 0 108403615.8530303 -3682274.761678335 -3682274.761678335 -7448676.000176896 0 0 0 0 0 108017606.497108 -3587570.978927411 -3587570.978927411 -7253896.884794758 0 0 0 0 0 108122617.1741168 -3545841.809958885 -3545841.809958885 -7209134.096082763 0 0 0 0 0 108102506.8364971 -3319610.762551726 -3319610.762551726 -7035599.575430281 0 0 0 0 0 108039978.98478 -3121661.006682558 -3121661.006682558 -6893797.195310351 0 0 0 0 0 108007858.2317204 -2920460.943484974 -2920460.943484974 -6703428.001686337 0 0 0 0 0 107679070.238458 -2848340.1733132 -2848340.1733132 -6518910.04133382 0 0 0 0 0 107744020.587899 -2824954.926998623 -2824954.926998623 -6498865.601403181 0 0 0 0 0 107706234.7872467 -2636018.205901452 -2636018.205901452 -6338822.053662178 0 0 0 0 0 107663515.1252404 -2455225.173776367 -2455225.173776367 -6181280.342297694 0 0 0 0 0 107616040.2719846 -2282361.603340939 -2282361.603340939 -6026402.95099971 0 0 0 0 0 107564207.6047417 -2117214.780972986 -2117214.780972986 -5874201.148760207 0 0 0 0 0 107509029.2680531 -1959703.892887937 -1959703.892887937 -5724890.349069081 0 0 0 0 0 107442740.0642421 -1814237.500837218 -1814237.500837218 -5584265.195127289 0 0 0 0 0 107314391.6721351 -1706351.576918871 -1706351.576918871 -5474540.715391271 0 0 0 0 0 107219245.1514751 -1615340.58879415 -1615340.58879415 -5270127.287999475 0 0 0 0 0 107129444.2208128 -1671834.479800703 -1671834.479800703 -5370690.219695615 0 0 0 0 0 107032005.9229411 -1578290.243917444 -1578290.243917444 -5261546.60831334 0 0 0 0 0 106930640.7595474 -1516448.735559376 -1516448.735559376 -5159286.590177244 0 0 0 0 0 106836556.0024652 -1448020.874147296 -1448020.874147296 -5056552.962965071 0 0 0 0 0 99908344.7336535 -19260576.10305042 -19260576.10305042 -14105670.31858789 0 0 0 0 0 2425718.784783551 -179300.6152210983 -179300.6152210983 -27548959.80184077 0 0 0 0 0 4314876.181005967 -2277892.247338687 -2277892.247338687 -25433250.26430073 0 0 0 0 0 6569343.537480493 -4878679.879032543 -4878679.879032543 -23619738.51353663 0 0 0 0 0 5422916.624531335 -5285250.127057578 -5285250.127057578 -21103123.97985452 0 0 0 0 0 7398392.617845634 -7412932.720478798 -7412932.720478798 -20260520.44438218 0 0 0 0 0 9802224.812453333 -9927105.030197291 -9927105.030197291 -19125406.61326598 0 0 0 0 0 15534344.8282331 -13291647.05973038 -13291647.05973038 -15260223.10077525 0 0 0 0 0 14817441.16140789 -13823323.84397558 -13823323.84397558 -16539061.97931089 0 0 0 0 0 18652214.30586725 -15603578.74579813 -15603578.74579813 -14576287.24643545 0 0 0 0 0 22064187.38205568 -17802910.48063117 -17802910.48063117 -13996482.74559783 0 0 0 0 0 25721234.05419045 -19859009.43146831 -19859009.43146831 -13538158.15523287 0 0 0 0 0 29581636.21882504 -21750748.4683158 -21750748.4683158 -13200273.95272977 0 0 0 0 0 33594227.54893292 -23458982.41452993 -23458982.41452993 -12979063.27737254 0 0 0 0 0 37722527.00600927 -24970393.07066706 -24970393.07066706 -12866249.722853 0 0 0 0 0 41915234.07863733 -26275715.49595252 -26275715.49595252 -12853464.39509326 0 0 0 0 0 46132658.45951809 -27371270.13540579 -27371270.13540579 -12928597.23125135 0 0 0 0 0 49338699.37141334 -28990724.20645145 -28990724.20645145 -12813471.88335797 0 0 0 0 0 52225044.74314743 -28011193.88943196 -28011193.88943196 -12166593.08878145 0 0 0 0 0 56183743.41362933 -28609705.69355797 -28609705.69355797 -12451701.13986667 0 0 0 0 0 60062068.34440354 -29022866.76068427 -29022866.76068427 -12770182.77280351 0 0 0 0 0 63837753.02098758 -29259406.87463139 -29259406.87463139 -13108945.10159477 0 0 0 0 0 68523586.31145826 -28802530.70312324 -28802530.70312324 -12810104.0231654 0 0 0 0 0 65575432.51284742 -29823870.75516836 -29823870.75516836 -13578876.87761177 0 0 0 0 0 71856190.04308824 -28700287.71627282 -28700287.71627282 -13186076.39739553 0 0 0 0 0 75042438.66069746 -28470016.50989193 -28470016.50989193 -13544928.14200327 0 0 0 0 0 78078841.75542253 -28123711.26842885 -28123711.26842885 -13882287.83998449 0 0 0 0 0 80966035.71734598 -27672465.74262302 -27672465.74262302 -14190281.46918112 0 0 0 0 0 83695436.10075405 -27138289.92082449 -27138289.92082449 -14478233.34476112 0 0 0 0 0 86263996.66506095 -26525044.79357974 -26525044.79357974 -14729830.64104043 0 0 0 0 0 86337594.64355142 -26205440.73090232 -26205440.73090232 -15239009.96707908 0 0 0 0 0 88691941.4379482 -25331681.18581128 -25331681.18581128 -14432306.08545478 0 0 0 0 0 90833080.06854723 -24625768.74046355 -24625768.74046355 -14612021.90449202 0 0 0 0 0 92834657.05462156 -23877241.42873712 -23877241.42873712 -14755000.01796327 0 0 0 0 0 94699690.06609623 -23093195.88369831 -23093195.88369831 -14861754.74041686 0 0 0 0 0 96422476.56229128 -22285980.70310321 -22285980.70310321 -14937309.65205826 0 0 0 0 0 97976043.8412157 -21480953.90337263 -21480953.90337263 -14985153.98715276 0 0 0 0 0 97356780.80063652 -20984045.33493455 -20984045.33493455 -15206659.47406642 0 0 0 0 0 99012280.37467329 -20336482.88472045 -20336482.88472045 -14527140.69031568 0 0 0 0 0 100316732.3152854 -19541187.90678337 -19541187.90678337 -14513401.42026697 0 0 0 0 0 99243618.63002084 -18796265.56648645 -18796265.56648645 -14290016.30786792 0 0 0 0 0 100353408.5689594 -18036867.24595262 -18036867.24595262 -14209926.64815268 0 0 0 0 0 100976492.6685201 -17064441.7974284 -17064441.7974284 -13750732.42023615 0 0 0 0 0 101658110.6617916 -17513211.78928897 -17513211.78928897 -13613897.57026889 0 0 0 0 0 101917990.7768264 -16340017.92098448 -16340017.92098448 -13657935.13605737 0 0 0 0 0 102796426.1926829 -15614635.38532642 -15614635.38532642 -13537934.53858748 0 0 0 0 0 103602399.9022253 -14903308.06865927 -14903308.06865927 -13391594.76621838 0 0 0 0 0 104329704.7102146 -14211825.52199313 -14211825.52199313 -13227371.13552965 0 0 0 0 0 104540311.75097 -13444830.77520002 -13444830.77520002 -12754466.68450107 0 0 0 0 0 105262258.2522456 -13831428.11205216 -13831428.11205216 -12766340.46805828 0 0 0 0 0 105127308.8054625 -12812698.45871294 -12812698.45871294 -12580677.49669261 0 0 0 0 0 105660310.2124311 -12197712.95272352 -12197712.95272352 -12394564.16000446 0 0 0 0 0 106141937.4569286 -11599991.72970556 -11599991.72970556 -12197786.35199987 0 0 0 0 0 106575746.859811 -11019959.83176439 -11019959.83176439 -11991166.30041843 0 0 0 0 0 106964996.6411475 -10459244.02507282 -10459244.02507282 -11775851.15891924 0 0 0 0 0 107550552.7115224 -10216457.73904539 -10216457.73904539 -11470794.06649797 0 0 0 0 0 107193543.8162487 -9415319.053582987 -9415319.053582987 -11134924.1863528 0 0 0 0 0 107853103.3950191 -9692832.333150115 -9692832.333150115 -11273219.9551966 0 0 0 0 0 107473076.4051198 -8922516.886049788 -8922516.886049788 -10917706.65724004 0 0 0 0 0 107720302.6780908 -8447324.452929294 -8447324.452929294 -10696683.35954093 0 0 0 0 0 107937577.1085592 -7989610.322253431 -7989610.322253431 -10472599.64746481 0 0 0 0 0 108127026.6591915 -7549193.836083706 -7549193.836083706 -10246560.98587554 0 0 0 0 0 107910870.1286474 -7190279.854102037 -7190279.854102037 -9879630.266792361 0 0 0 0 0 108486580.9586509 -7399323.329208899 -7399323.329208899 -10056431.00307153 0 0 0 0 0 108058315.4619386 -6791868.057997912 -6791868.057997912 -9662213.328314526 0 0 0 0 0 108183924.4349775 -6409309.609331006 -6409309.609331006 -9444340.34483302 0 0 0 0 0 108289788.0773713 -6042343.373782266 -6042343.373782266 -9226207.948348453 0 0 0 0 0 108375412.0116157 -5691302.483827131 -5691302.483827131 -9009725.045376291 0 0 0 0 0 108444694.691942 -5354453.692961656 -5354453.692961656 -8794394.823488316 0 0 0 0 0 108684976.1962107 -4955412.307756557 -4955412.307756557 -8488980.466481052 0 0 0 0 0 108498687.7484328 -5031093.017595574 -5031093.017595574 -8579847.767565545 0 0 0 0 0 108222118.3552719 -4820136.391663673 -4820136.391663673 -8290713.443791159 0 0 0 0 0 108257837.1721586 -4527336.189573675 -4527336.189573675 -8088648.885647339 0 0 0 0 0 108281486.2260364 -4247637.596631736 -4247637.596631736 -7888277.007857011 0 0 0 0 0 108293991.6232948 -3980039.649788718 -3980039.649788718 -7689518.737771945 0 0 0 0 0 108294222.807225 -3724416.517407785 -3724416.517407785 -7493152.515518865 0 0 0 0 0 108285889.6150758 -3479918.526215427 -3479918.526215427 -7300499.772033409 0 0 0 0 0 108379876.5829617 -3444783.121244473 -3444783.121244473 -7267419.553082559 0 0 0 0 0 108007613.9279753 -3356060.816511791 -3356060.816511791 -7072892.557914851 0 0 0 0 0 107986540.6069001 -3135922.453981644 -3135922.453981644 -6892448.127914384 0 0 0 0 0 107972260.1280217 -2928164.013354188 -2928164.013354188 -6695186.501124913 0 0 0 0 0 107915306.8794083 -2741161.512456598 -2741161.512456598 -6544183.867901206 0 0 0 0 0 107971004.2108988 -2722977.094879324 -2722977.094879324 -6534059.342053466 0 0 0 0 0 107650806.081435 -2655008.005592169 -2655008.005592169 -6352211.137236214 0 0 0 0 0 107616869.1718991 -2470128.97145292 -2470128.97145292 -6188384.675617665 0 0 0 0 0 107577877.0067763 -2293317.63643204 -2293317.63643204 -6027426.198561353 0 0 0 0 0 107534241.8425321 -2124337.320032094 -2124337.320032094 -5869303.275682675 0 0 0 0 0 107486186.466416 -1963239.618895786 -1963239.618895786 -5713858.447902039 0 0 0 0 0 107435384.8987317 -1810446.869072872 -1810446.869072872 -5561445.611262578 0 0 0 0 0 107389068.8792887 -1661741.918580156 -1661741.918580156 -5392040.938285786 0 0 0 0 0 107382471.3236689 -1543253.791422057 -1543253.791422057 -5252715.753636056 0 0 0 0 0 107160905.9115579 -1502717.858453681 -1502717.858453681 -5124061.075626669 0 0 0 0 0 107095557.5188882 -1429905.080120886 -1429905.080120886 -5018868.827785784 0 0 0 0 0 107001950.9715137 -1362964.900565261 -1362964.900565261 -4920057.444526076 0 0 0 0 0 99631345.73609135 -19063622.22408299 -19063622.22408299 -14699639.40423975 0 0 0 0 0 1155516.936533581 -1746798.254614343 -1746798.254614343 -30191823.69609246 0 0 0 0 0 2135640.172891721 -3730806.032940257 -3730806.032940257 -27727267.06696635 0 0 0 0 0 3160562.012976294 -5007322.680249535 -5007322.680249535 -24584309.17831668 0 0 0 0 0 7418343.785250999 -7982499.27228057 -7982499.27228057 -22447466.59735835 0 0 0 0 0 9461032.572061567 -10496754.05967836 -10496754.05967836 -20951313.37520197 0 0 0 0 0 11909969.9487383 -12967152.27363662 -12967152.27363662 -19643966.10796467 0 0 0 0 0 17590155.95068038 -16185346.51828505 -16185346.51828505 -15676082.73110461 0 0 0 0 0 12536683.95318467 -12381944.54085547 -12381944.54085547 -18064870.90269724 0 0 0 0 0 20675983.76687096 -18438504.40783363 -18438504.40783363 -14951645.64367387 0 0 0 0 0 24022683.17143583 -20551353.68437879 -20551353.68437879 -14376749.07018226 0 0 0 0 0 27596468.60391675 -22500723.7217386 -22500723.7217386 -13950025.04952126 0 0 0 0 0 31351026.36557994 -24266568.09341759 -24266568.09341759 -13666394.32090865 0 0 0 0 0 35246547.69302973 -25832471.71150034 -25832471.71150034 -13513575.53306766 0 0 0 0 0 39240501.82986906 -27189546.27556065 -27189546.27556065 -13482173.8530641 0 0 0 0 0 43291247.02518547 -28331255.34972567 -28331255.34972567 -13554032.27061638 0 0 0 0 0 47360025.33560286 -29256490.41023629 -29256490.41023629 -13712142.65350308 0 0 0 0 0 50335631.68135542 -28256204.78331005 -28256204.78331005 -13076703.69076267 0 0 0 0 0 53205561.04974584 -29618309.30605184 -29618309.30605184 -13124635.23924686 0 0 0 0 0 57027277.21124589 -30053984.75387317 -30053984.75387317 -13470203.0406603 0 0 0 0 0 60774783.9626159 -30305679.23662886 -30305679.23662886 -13836589.4794846 0 0 0 0 0 64425418.06923681 -30384661.37961151 -30384661.37961151 -14210660.77754312 0 0 0 0 0 68934152.20423092 -29721982.41743188 -29721982.41743188 -13976430.20494961 0 0 0 0 0 67491158.95510182 -29330769.6541732 -29330769.6541732 -13456246.75099808 0 0 0 0 0 72164981.07446657 -29483884.15131083 -29483884.15131083 -14350776.08591588 0 0 0 0 0 75261213.72101612 -29124679.79595415 -29124679.79595415 -14700552.67378208 0 0 0 0 0 78216077.61227734 -28657594.72074604 -28657594.72074604 -15020504.99695619 0 0 0 0 0 81035934.93075427 -28099932.33848296 -28099932.33848296 -15308691.07834889 0 0 0 0 0 83697964.51187938 -27457406.44607776 -27457406.44607776 -15555526.22910126 0 0 0 0 0 86199556.42346779 -26744380.93843937 -26744380.93843937 -15759883.27495186 0 0 0 0 0 88667200.45561939 -25844537.62504279 -25844537.62504279 -14942265.16948591 0 0 0 0 0 88571120.13547686 -25467744.56340615 -25467744.56340615 -15413139.39598519 0 0 0 0 0 90667834.92981094 -24689112.57774149 -24689112.57774149 -15547133.58067618 0 0 0 0 0 92630771.26723216 -23872019.04508397 -23872019.04508397 -15639644.59607985 0 0 0 0 0 94463332.9031283 -23027490.43306199 -23027490.43306199 -15689420.27021717 0 0 0 0 0 96166995.5879271 -22173192.41151642 -22173192.41151642 -15690716.26211479 0 0 0 0 0 97697167.47678986 -21310035.46615162 -21310035.46615162 -15659255.6026029 0 0 0 0 0 99406514.61985895 -20657286.72518985 -20657286.72518985 -14979617.37327612 0 0 0 0 0 98733368.11705974 -20160683.70225057 -20160683.70225057 -15183025.01473252 0 0 0 0 0 100020307.8255847 -19325870.67826076 -19325870.67826076 -15115558.01966889 0 0 0 0 0 101058385.8584895 -18494826.06305025 -18494826.06305025 -14067299.43728147 0 0 0 0 0 102114155.3674288 -17740163.73714874 -17740163.73714874 -14014484.27203751 0 0 0 0 0 102628541.4840111 -16784366.94016349 -16784366.94016349 -13545957.6904583 0 0 0 0 0 101374461.7704894 -17283857.43570761 -17283857.43570761 -14125951.66303334 0 0 0 0 0 103520631.4915394 -16053648.9339684 -16053648.9339684 -13455204.65825014 0 0 0 0 0 104341074.9962664 -15330551.84017778 -15330551.84017778 -13344680.03887903 0 0 0 0 0 105075289.9753729 -14624802.96153002 -14624802.96153002 -13221913.04477955 0 0 0 0 0 105734275.70766 -13935861.85567906 -13935861.85567906 -13077910.2778389 0 0 0 0 0 105850747.6918931 -13184863.14048312 -13184863.14048312 -12618133.43913269 0 0 0 0 0 104980944.2232001 -13540464.53038112 -13540464.53038112 -13051219.53749808 0 0 0 0 0 106382569.8974478 -12554830.26438643 -12554830.26438643 -12456114.36053715 0 0 0 0 0 106860681.9631799 -11942078.2272661 -11942078.2272661 -12281439.34069722 0 0 0 0 0 107288653.3144568 -11347153.7073666 -11347153.7073666 -12095339.98284344 0 0 0 0 0 107669819.6533443 -10770438.04491763 -10770438.04491763 -11899842.47077821 0 0 0 0 0 108006036.9110046 -10214176.08709445 -10214176.08709445 -11697078.43333943 0 0 0 0 0 107310636.8961817 -9917966.939690892 -9917966.939690892 -11556247.40443979 0 0 0 0 0 108121611.0792356 -9186332.308169121 -9186332.308169121 -11068695.35140569 0 0 0 0 0 107618816.7760544 -9395111.004015015 -9395111.004015015 -11331424.97426369 0 0 0 0 0 108356364.5562687 -8697329.171403233 -8697329.171403233 -10859576.65681218 0 0 0 0 0 108560290.7191941 -8226116.496131354 -8226116.496131354 -10646134.91846803 0 0 0 0 0 108735504.6067578 -7772522.263241488 -7772522.263241488 -10429323.39919867 0 0 0 0 0 108884744.226183 -7336329.711245961 -7336329.711245961 -10209722.71131794 0 0 0 0 0 108619998.325519 -6988865.640652357 -6988865.640652357 -9846392.511030657 0 0 0 0 0 108290887.9665998 -7125738.812481261 -7125738.812481261 -10018993.84598642 0 0 0 0 0 108731128.1386486 -6594701.131414966 -6594701.131414966 -9635140.101538224 0 0 0 0 0 108821635.3479769 -6216356.175230813 -6216356.175230813 -9422969.529893238 0 0 0 0 0 108892765.4277543 -5854273.75241977 -5854273.75241977 -9211462.595860532 0 0 0 0 0 108947016.2850949 -5507504.082096233 -5507504.082096233 -8999365.519541735 0 0 0 0 0 108986330.4764198 -5174527.858616775 -5174527.858616775 -8787368.403459612 0 0 0 0 0 108538127.9150033 -4721145.715891195 -4721145.715891195 -8367032.015440723 0 0 0 0 0 109011385.6538723 -4855446.943255855 -4855446.943255855 -8576593.989635929 0 0 0 0 0 108705746.312533 -4653799.994633171 -4653799.994633171 -8288240.384772459 0 0 0 0 0 108715132.6184513 -4365230.25367761 -4365230.25367761 -8089506.999640078 0 0 0 0 0 108713603.7152588 -4089225.991413631 -4089225.991413631 -7892369.267389839 0 0 0 0 0 108701159.2225266 -3825990.085447295 -3825990.085447295 -7697385.519652198 0 0 0 0 0 108678909.9951421 -3574096.207060604 -3574096.207060604 -7503803.58484989 0 0 0 0 0 108649836.6446817 -3333945.138598891 -3333945.138598891 -7312996.953529686 0 0 0 0 0 108272864.5078624 -3248027.188263586 -3248027.188263586 -7108852.414814342 0 0 0 0 0 108354077.5382386 -3218819.195608919 -3218819.195608919 -7086869.372714847 0 0 0 0 0 108317936.2206274 -3003126.314206473 -3003126.314206473 -6903938.566808909 0 0 0 0 0 108242448.0283117 -2811404.119292424 -2811404.119292424 -6755538.506551776 0 0 0 0 0 108201574.3436328 -2614124.818199132 -2614124.818199132 -6563318.796143062 0 0 0 0 0 107878404.9546181 -2548037.082698632 -2548037.082698632 -6374505.837961215 0 0 0 0 0 107926921.9261323 -2533072.207201685 -2533072.207201685 -6369132.079830947 0 0 0 0 0 107877782.8745318 -2351574.977573001 -2351574.977573001 -6206617.904627587 0 0 0 0 0 107824036.2398046 -2178072.924300415 -2178072.924300415 -6046907.353100407 0 0 0 0 0 107766080.5779624 -2012419.23094982 -2012419.23094982 -5890187.265982987 0 0 0 0 0 107703773.2263122 -1854229.006919291 -1854229.006919291 -5736133.285004133 0 0 0 0 0 107637971.0036964 -1704915.13818758 -1704915.13818758 -5585586.252934095 0 0 0 0 0 107564481.3056784 -1566235.748936205 -1566235.748936205 -5448855.566544038 0 0 0 0 0 107324880.5873979 -1509312.336120731 -1509312.336120731 -5319192.429067549 0 0 0 0 0 107221056.415169 -1438181.623979284 -1438181.623979284 -5223869.00163525 0 0 0 0 0 107099501.4033859 -1369987.573276424 -1369987.573276424 -5125326.706894178 0 0 0 0 0 106996102.9594005 -1304284.8026335 -1304284.8026335 -5019450.008081055 0 0 0 0 0 101512080.8365379 -18744297.07518288 -18744297.07518288 -14472587.14423187 0 0 0 0 0 245271.3430278017 112680.047935659 112680.047935659 -33205726.59475806 0 0 0 0 0 2164518.853612753 -2087611.190948625 -2087611.190948625 -30456499.11892498 0 0 0 0 0 3944427.750426602 -4161955.63433933 -4161955.63433933 -27312198.61633318 0 0 0 0 0 4806641.699586984 -6304277.762684547 -6304277.762684547 -24370956.70893131 0 0 0 0 0 6917922.009363433 -8850189.29446055 -8850189.29446055 -22688614.70345038 0 0 0 0 0 9542861.607962074 -11278408.98506373 -11278408.98506373 -21360256.82278784 0 0 0 0 0 15636646.05942734 -14775562.68753874 -14775562.68753874 -17101739.83458314 0 0 0 0 0 14670305.52494859 -15395695.22965041 -15395695.22965041 -18451963.71804947 0 0 0 0 0 19060973.51080481 -17073405.93797269 -17073405.93797269 -16266795.9617035 0 0 0 0 0 22776863.39428139 -19246503.88352937 -19246503.88352937 -15562451.33479255 0 0 0 0 0 26727019.65094123 -21265881.29822349 -21265881.29822349 -14997205.58541533 0 0 0 0 0 30863933.62004847 -23106939.43055423 -23106939.43055423 -14570128.40430104 0 0 0 0 0 35139155.41922018 -24751792.3653232 -24751792.3653232 -14276268.02125605 0 0 0 0 0 39502215.84769844 -26185683.55117913 -26185683.55117913 -14101903.13661484 0 0 0 0 0 43908543.22997286 -27401862.20594109 -27401862.20594109 -14038675.69038586 0 0 0 0 0 48314106.56847075 -28397070.34248763 -28397070.34248763 -14069106.78087147 0 0 0 0 0 51409106.89172358 -29967580.61714798 -29967580.61714798 -13937888.76623576 0 0 0 0 0 54489263.48591958 -28935539.55461885 -28935539.55461885 -13282268.79796103 0 0 0 0 0 58567765.52219331 -29416288.49527112 -29416288.49527112 -13535439.84011272 0 0 0 0 0 62542418.29584809 -29707615.19987257 -29707615.19987257 -13820530.89438843 0 0 0 0 0 66389095.6401857 -29820982.19174752 -29820982.19174752 -14124281.63493234 0 0 0 0 0 71002086.07296129 -29249953.90597892 -29249953.90597892 -13802036.35265412 0 0 0 0 0 67960976.83758798 -30304683.21600956 -30304683.21600956 -14580273.8723765 0 0 0 0 0 74357963.33046484 -29031706.43574175 -29031706.43574175 -14138348.30503743 0 0 0 0 0 77549070.97863932 -28687859.1728536 -28687859.1728536 -14456530.22102653 0 0 0 0 0 80575553.14852738 -28231753.47108024 -28231753.47108024 -14746997.38862788 0 0 0 0 0 83437580.23298991 -27682822.80513167 -27682822.80513167 -15013561.43041632 0 0 0 0 0 86125116.37858017 -27051523.1866406 -27051523.1866406 -15250595.62482892 0 0 0 0 0 88639719.92185199 -26345990.77217266 -26345990.77217266 -15448129.20536008 0 0 0 0 0 88544086.81725937 -25974819.76616197 -25974819.76616197 -15916319.01267813 0 0 0 0 0 90905167.44778879 -25105506.00305206 -25105506.00305206 -15109632.70445856 0 0 0 0 0 92992178.77605866 -24323761.20689961 -24323761.20689961 -15239679.3432737 0 0 0 0 0 94929243.95376301 -23507773.88139996 -23507773.88139996 -15336142.3150147 0 0 0 0 0 96720773.63228855 -22665514.39959775 -22665514.39959775 -15395559.29737354 0 0 0 0 0 98348884.35359611 -21818828.4827224 -21818828.4827224 -15431906.68703113 0 0 0 0 0 99841934.63169464 -20959192.74480889 -20959192.74480889 -15412049.57958206 0 0 0 0 0 99115640.62727046 -20448319.7334428 -20448319.7334428 -15592518.92997114 0 0 0 0 0 100736673.9194995 -19822185.69029653 -19822185.69029653 -14933823.30074218 0 0 0 0 0 101972957.3356303 -18989299.12289692 -18989299.12289692 -14876173.30303911 0 0 0 0 0 100772541.3818354 -18269138.91462059 -18269138.91462059 -14612557.34706066 0 0 0 0 0 101822992.464581 -17481481.74480868 -17481481.74480868 -14502522.03606896 0 0 0 0 0 102332729.7609691 -16526983.80830095 -16526983.80830095 -14017544.7737446 0 0 0 0 0 103086350.2771856 -16984558.06051842 -16984558.06051842 -13930012.15593875 0 0 0 0 0 103223649.4615635 -15777770.56129777 -15777770.56129777 -13877674.2492066 0 0 0 0 0 104038843.4998587 -15042006.60969635 -15042006.60969635 -13720978.79068597 0 0 0 0 0 104779266.8378549 -14322235.46965163 -14322235.46965163 -13538941.77643432 0 0 0 0 0 105443399.23568 -13627262.08351723 -13627262.08351723 -13347108.03766295 0 0 0 0 0 105573197.7703755 -12886485.15300929 -12886485.15300929 -12862013.52023823 0 0 0 0 0 106329230.1157959 -13267318.93316753 -13267318.93316753 -12914668.6828028 0 0 0 0 0 106109554.5479538 -12250515.22934753 -12250515.22934753 -12660565.68118476 0 0 0 0 0 106592857.4080162 -11633434.10662101 -11633434.10662101 -12448421.54252481 0 0 0 0 0 107026366.8108431 -11035635.90575342 -11035635.90575342 -12227247.52687557 0 0 0 0 0 107414500.6495618 -10457955.17724964 -10457955.17724964 -11997690.6536718 0 0 0 0 0 107758635.3872498 -9901140.977048839 -9901140.977048839 -11762188.43150152 0 0 0 0 0 108303376.592579 -9676650.401038451 -9676650.401038451 -11485472.19646457 0 0 0 0 0 107893179.6922193 -8889573.774539638 -8889573.774539638 -11101136.64808185 0 0 0 0 0 108565183.4789879 -9156881.146918459 -9156881.146918459 -11267523.66826915 0 0 0 0 0 108134865.6157497 -8402427.658225726 -8402427.658225726 -10867053.57618459 0 0 0 0 0 108345777.1458693 -7933729.451274605 -7933729.451274605 -10630528.47147782 0 0 0 0 0 108528306.054614 -7483309.273141206 -7483309.273141206 -10392030.46273856 0 0 0 0 0 108684578.9924705 -7050859.282743748 -7050859.282743748 -10152713.69354589 0 0 0 0 0 108430811.0115566 -6719139.917288976 -6719139.917288976 -9790753.351018691 0 0 0 0 0 109009561.3936307 -6917294.196097684 -6917294.196097684 -9988427.369864918 0 0 0 0 0 108548891.6493954 -6328841.639945644 -6328841.639945644 -9562264.649807326 0 0 0 0 0 108646526.5971985 -5955136.135727893 -5955136.135727893 -9334002.88551848 0 0 0 0 0 108725296.3777215 -5597489.997838561 -5597489.997838561 -9107045.847553967 0 0 0 0 0 108786241.0160687 -5255004.765832348 -5255004.765832348 -8881832.245128762 0 0 0 0 0 108831355.7642834 -4927075.862969914 -4927075.862969914 -8658555.006210811 0 0 0 0 0 109023365.7015521 -4549965.545775254 -4549965.545775254 -8367320.731612099 0 0 0 0 0 108862503.4473871 -4613073.613113487 -4613073.613113487 -8437014.988608204 0 0 0 0 0 108565065.5010328 -4424587.908002405 -4424587.908002405 -8156346.83223365 0 0 0 0 0 108579583.7444254 -4141318.484539901 -4141318.484539901 -7948596.077039029 0 0 0 0 0 108583725.5444833 -3870683.019164926 -3870683.019164926 -7742929.468041602 0 0 0 0 0 108576738.7531656 -3612006.461637285 -3612006.461637285 -7539748.60310545 0 0 0 0 0 108560669.739831 -3365864.783900792 -3365864.783900792 -7339177.037562902 0 0 0 0 0 108538162.9331746 -3134600.064888333 -3134600.064888333 -7142837.789360523 0 0 0 0 0 108607875.4906199 -3111857.351210006 -3111857.351210006 -7135745.596061357 0 0 0 0 0 108234580.9668224 -3031291.646079849 -3031291.646079849 -6926692.667504171 0 0 0 0 0 108199349.5888529 -2816184.373036793 -2816184.373036793 -6738023.146105291 0 0 0 0 0 108169163.9851994 -2621850.38079261 -2621850.38079261 -6558046.462554177 0 0 0 0 0 108111919.7838117 -2434244.737321001 -2434244.737321001 -6389818.684060456 0 0 0 0 0 108152051.0082696 -2423872.226378684 -2423872.226378684 -6393561.002111828 0 0 0 0 0 107837370.6220782 -2362770.197920936 -2362770.197920936 -6206143.420048283 0 0 0 0 0 107791821.1191356 -2185466.246042224 -2185466.246042224 -6040597.093689267 0 0 0 0 0 107741701.0150698 -2016148.378787482 -2016148.378787482 -5878198.083237561 0 0 0 0 0 107687351.7729129 -1854401.088119924 -1854401.088119924 -5719011.140504534 0 0 0 0 0 107629454.7235214 -1700963.57657817 -1700963.57657817 -5561073.372224256 0 0 0 0 0 107568766.7814584 -1555670.623742899 -1555670.623742899 -5409771.764524492 0 0 0 0 0 107477331.757951 -1438461.495807633 -1438461.495807633 -5267295.548269783 0 0 0 0 0 107400569.979239 -1349652.395692346 -1349652.395692346 -5082825.688605106 0 0 0 0 0 107556052.9867927 -1381658.511602985 -1381658.511602985 -5186800.051310108 0 0 0 0 0 107273558.3910403 -1277507.076135963 -1277507.076135963 -4974531.017023152 0 0 0 0 0 107174198.9143957 -1212079.746017448 -1212079.746017448 -4871521.261097098 0 0 0 0 0 101209671.7034185 -18494390.8081433 -18494390.8081433 -15013021.47764066 0 0 0 0 0 -776762.3865608986 -1764556.592079891 -1764556.592079891 -36328799.65478793 0 0 0 0 0 262279.9522587099 -3753592.445484002 -3753592.445484002 -33071770.78371957 0 0 0 0 0 1055518.555891181 -5238097.549467198 -5238097.549467198 -28976134.50431215 0 0 0 0 0 4024530.790306369 -7255704.682390045 -7255704.682390045 -26591313.76561491 0 0 0 0 0 6697093.505605608 -9517146.568086607 -9517146.568086607 -25045672.46743139 0 0 0 0 0 9051712.682219071 -11930872.37211139 -11930872.37211139 -23349228.38227166 0 0 0 0 0 11752057.66141655 -14389039.11535767 -14389039.11535767 -21743488.87320382 0 0 0 0 0 17755147.38611127 -17735159.84761919 -17735159.84761919 -17412195.0930723 0 0 0 0 0 12588348.37012579 -13725488.0410571 -13725488.0410571 -20086084.09949428 0 0 0 0 0 21143028.25975958 -19956119.2831368 -19956119.2831368 -16538422.65934215 0 0 0 0 0 24782630.34022984 -22027942.46923745 -22027942.46923745 -15839410.65380337 0 0 0 0 0 28635800.71623906 -23923454.68809897 -23923454.68809897 -15312973.70238849 0 0 0 0 0 32652330.33392793 -25621889.77478195 -25621889.77478195 -14948905.87179166 0 0 0 0 0 36794973.02544396 -27108853.43902941 -27108853.43902941 -14733487.53433727 0 0 0 0 0 41012555.84351234 -28373132.87912519 -28373132.87912519 -14650305.70748116 0 0 0 0 0 45263892.257149 -29410772.52690618 -29410772.52690618 -14679091.33789143 0 0 0 0 0 49508440.85361061 -30222061.58892269 -30222061.58892269 -14799451.34407708 0 0 0 0 0 52679517.3670812 -29172731.76608069 -29172731.76608069 -14176597.57685694 0 0 0 0 0 55421903.47987396 -30473443.6044395 -30473443.6044395 -14215469.22035879 0 0 0 0 0 59359874.60638963 -30781720.23623111 -30781720.23623111 -14526975.68056993 0 0 0 0 0 63198045.14446609 -30904475.98817001 -30904475.98817001 -14857459.79275611 0 0 0 0 0 66915736.81687438 -30854993.68584751 -30854993.68584751 -15192517.85556558 0 0 0 0 0 71358223.1438549 -30078211.61145417 -30078211.61145417 -14935494.65343593 0 0 0 0 0 70087929.15661502 -29770005.37677997 -29770005.37677997 -14434480.28515875 0 0 0 0 0 74611193.86169918 -29721591.00336919 -29721591.00336919 -15267127.08556687 0 0 0 0 0 77708935.36509478 -29247915.07791911 -29247915.07791911 -15569230.89440654 0 0 0 0 0 80657147.78793386 -28675850.59264994 -28675850.59264994 -15842652.72987795 0 0 0 0 0 83444300.79873829 -28014521.66800524 -28014521.66800524 -16077186.57485013 0 0 0 0 0 86063550.22363476 -27277841.09451203 -27277841.09451203 -16268767.41250651 0 0 0 0 0 88519926.10683408 -26479539.59662753 -26479539.59662753 -16417717.751139 0 0 0 0 0 90983832.05595423 -25581717.27907106 -25581717.27907106 -15607330.40096393 0 0 0 0 0 90736490.07183069 -25162036.6192478 -25162036.6192478 -16037535.98814777 0 0 0 0 0 92783810.07212569 -24310934.89954749 -24310934.89954749 -16115443.63894158 0 0 0 0 0 94687162.37270731 -23431557.40807918 -23431557.40807918 -16153196.99123983 0 0 0 0 0 96456516.75564332 -22540305.85815394 -22540305.85815394 -16148796.4130283 0 0 0 0 0 98061007.83660862 -21632827.13058614 -21632827.13058614 -16096356.90442523 0 0 0 0 0 99536063.44402313 -20730226.86983274 -20730226.86983274 -16026067.00526302 0 0 0 0 0 101195990.8988686 -20096686.11537849 -20096686.11537849 -15367984.6966165 0 0 0 0 0 100430415.6802187 -19587395.917937 -19587395.917937 -15520238.09744166 0 0 0 0 0 101652720.7777006 -18718117.68470521 -18718117.68470521 -15399330.57122401 0 0 0 0 0 102593687.3433718 -17954700.82385756 -17954700.82385756 -14409749.72985097 0 0 0 0 0 103584941.396712 -17164239.66351173 -17164239.66351173 -14307220.82703584 0 0 0 0 0 103991801.3187282 -16221315.52433445 -16221315.52433445 -13812533.40947544 0 0 0 0 0 102786462.2516474 -16697665.26120813 -16697665.26120813 -14367960.29135861 0 0 0 0 0 104819840.0546931 -15477232.88878 -15477232.88878 -13691715.08933476 0 0 0 0 0 105565047.7384264 -14744491.93206041 -14744491.93206041 -13546177.22663456 0 0 0 0 0 106232977.8506443 -14032182.70101533 -14032182.70101533 -13388800.47966815 0 0 0 0 0 106831466.5796617 -13339634.16970453 -13339634.16970453 -13210828.86270876 0 0 0 0 0 106863766.8941296 -12615815.69212994 -12615815.69212994 -12737573.86804191 0 0 0 0 0 106041798.9522018 -12950444.61243058 -12950444.61243058 -13141332.16404545 0 0 0 0 0 107342512.3893609 -11982737.53308061 -11982737.53308061 -12547913.54277312 0 0 0 0 0 107769104.8894972 -11368918.27934972 -11368918.27934972 -12347060.55695288 0 0 0 0 0 108147340.7962269 -10774936.44699854 -10774936.44699854 -12136698.27346465 0 0 0 0 0 108479805.3947868 -10202127.06408524 -10202127.06408524 -11919231.89510873 0 0 0 0 0 108770466.6033667 -9650003.947170025 -9650003.947170025 -11694732.42761024 0 0 0 0 0 108061520.6195504 -9364282.244418584 -9364282.244418584 -11523718.37370283 0 0 0 0 0 108792884.9113976 -8655420.71918169 -8655420.71918169 -11045160.73914574 0 0 0 0 0 108330667.569408 -8845460.399219982 -8845460.399219982 -11279321.76429065 0 0 0 0 0 108989108.0467335 -8172667.69937973 -8172667.69937973 -10818933.68708005 0 0 0 0 0 109156616.215143 -7708570.366805064 -7708570.366805064 -10589525.88922282 0 0 0 0 0 109296722.6139505 -7262847.564626941 -7262847.564626941 -10358018.02839965 0 0 0 0 0 109412310.4058345 -6835202.632435186 -6835202.632435186 -10124976.84223033 0 0 0 0 0 109112151.8459033 -6515199.870904451 -6515199.870904451 -9765972.442258559 0 0 0 0 0 108816587.2075974 -6636082.219487614 -6636082.219487614 -9913080.09768681 0 0 0 0 0 109194223.4478878 -6129572.393636138 -6129572.393636138 -9543138.11834974 0 0 0 0 0 109256285.6111313 -5760853.283339035 -5760853.283339035 -9320978.120041383 0 0 0 0 0 109301421.7488008 -5407918.290488544 -5407918.290488544 -9099333.472310593 0 0 0 0 0 109331046.168257 -5069966.633878154 -5069966.633878154 -8878092.469952634 0 0 0 0 0 109346646.8802584 -4746464.649302016 -4746464.649302016 -8658076.818100074 0 0 0 0 0 108880541.9550512 -4312959.331013045 -4312959.331013045 -8217887.88145456 0 0 0 0 0 109348996.262966 -4437190.364333774 -4437190.364333774 -8440246.481382878 0 0 0 0 0 109023058.2409326 -4258178.404185535 -4258178.404185535 -8160473.1090148 0 0 0 0 0 109012524.6648724 -3979217.502947801 -3979217.502947801 -7955372.976853445 0 0 0 0 0 108991617.4543509 -3712819.039097262 -3712819.039097262 -7752793.888225987 0 0 0 0 0 108961453.0369775 -3458416.852750425 -3458416.852750425 -7552584.240712509 0 0 0 0 0 108920594.2613203 -3216794.219869137 -3216794.219869137 -7355789.74255495 0 0 0 0 0 108869162.4848243 -2995887.048676843 -2995887.048676843 -7171877.969586324 0 0 0 0 0 108497944.7808228 -2917417.315348534 -2917417.315348534 -6953541.224986993 0 0 0 0 0 108562930.3113126 -2899257.537591481 -2899257.537591481 -6948691.251316329 0 0 0 0 0 108506744.5338006 -2690800.047091248 -2690800.047091248 -6764256.289515214 0 0 0 0 0 108439990.2449467 -2494568.128161193 -2494568.128161193 -6592876.371671322 0 0 0 0 0 108381708.3535377 -2308738.710113531 -2308738.710113531 -6412751.254540084 0 0 0 0 0 108061836.8365095 -2249500.79533792 -2249500.79533792 -6218194.467207395 0 0 0 0 0 108095974.2387217 -2242050.022442793 -2242050.022442793 -6226419.257237186 0 0 0 0 0 108035345.6061407 -2068140.061187484 -2068140.061187484 -6062154.086681197 0 0 0 0 0 107971027.4574461 -1902236.800603683 -1902236.800603683 -5900878.307183055 0 0 0 0 0 107903428.7581573 -1743767.086598668 -1743767.086598668 -5742689.476977136 0 0 0 0 0 107829807.631144 -1592289.644684293 -1592289.644684293 -5587157.801421543 0 0 0 0 0 107756861.3210081 -1456054.621353853 -1456054.621353853 -5442740.289146759 0 0 0 0 0 107631426.3982363 -1369543.914147145 -1369543.914147145 -5350395.189760664 0 0 0 0 0 107372760.9087201 -1286378.769564776 -1286378.769564776 -5193099.031752883 0 0 0 0 0 107469391.4489267 -1335870.40818921 -1335870.40818921 -5269805.08011063 0 0 0 0 0 107268171.2570726 -1218715.280994778 -1218715.280994778 -5071721.942681495 0 0 0 0 0 107156264.7361915 -1154235.131066578 -1154235.131066578 -4968506.501886576 0 0 0 0 0 103090555.9035017 -18158348.65511336 -18158348.65511336 -14790513.93836468 0 0 0 0 0 -1573383.481738874 402125.6677692683 402125.6677692683 -39916990.75686604 0 0 0 0 0 -767268.433436143 -1346324.375433701 -1346324.375433701 -35980355.31449538 0 0 0 0 0 2986024.373345578 -5447764.100591545 -5447764.100591545 -32258434.39955231 0 0 0 0 0 1996863.06187128 -5435712.916346805 -5435712.916346805 -28847557.34182569 0 0 0 0 0 4097882.166077643 -7493142.103919717 -7493142.103919717 -27140005.04736281 0 0 0 0 0 6603089.418283743 -9925513.094447138 -9925513.094447138 -25297139.6827821 0 0 0 0 0 9537890.0853274 -12411209.12434062 -12411209.12434062 -23617053.58919934 0 0 0 0 0 16003498.72126052 -16115479.9875301 -16115479.9875301 -18932899.98342093 0 0 0 0 0 14810778.67788581 -16805928.11397133 -16805928.11397133 -20310890.06484075 0 0 0 0 0 19740962.85951127 -18406055.67412465 -18406055.67412465 -17929160.51001895 0 0 0 0 0 23759424.56609192 -20560925.85650574 -20560925.85650574 -17082451.72488673 0 0 0 0 0 28002401.96480094 -22547609.96284715 -22547609.96284715 -16399808.33215285 0 0 0 0 0 32416698.06885634 -24341711.34077337 -24341711.34077337 -15876184.43528716 0 0 0 0 0 36948988.37875963 -25923450.39114675 -25923450.39114675 -15502957.73140161 0 0 0 0 0 41545042.6656956 -27280469.72905521 -27280469.72905521 -15266233.03639597 0 0 0 0 0 46156134.29084355 -28405417.01231856 -28405417.01231856 -15150036.93703664 0 0 0 0 0 50737553.56664394 -29297288.64283536 -29297288.64283536 -15135636.60020542 0 0 0 0 0 53715079.61137521 -30813100.44035956 -30813100.44035956 -14990978.5969312 0 0 0 0 0 56967334.9256288 -29735683.77056747 -29735683.77056747 -14347612.90227114 0 0 0 0 0 61149623.45415669 -30095061.16551639 -30095061.16551639 -14565378.08426874 0 0 0 0 0 65200193.87792903 -30261722.38722412 -30261722.38722412 -14814558.56964295 0 0 0 0 0 69098445.7286032 -30250458.80360325 -30250458.80360325 -15081895.48175375 0 0 0 0 0 73623500.2465792 -29569776.19883726 -29569776.19883726 -14742408.70486504 0 0 0 0 0 70494128.19210495 -30648211.78175578 -30648211.78175578 -15521277.60817261 0 0 0 0 0 76980964.65826793 -29234062.27906278 -29234062.27906278 -15035611.89516383 0 0 0 0 0 80160128.61862603 -28777684.53603871 -28777684.53603871 -15307674.97053798 0 0 0 0 0 83164162.46399808 -28217711.86913415 -28217711.86913415 -15554997.45072153 0 0 0 0 0 85982504.55887604 -27567830.60356934 -27567830.60356934 -15773388.0154373 0 0 0 0 0 88616477.10643494 -26840513.03265982 -26840513.03265982 -15956092.83541924 0 0 0 0 0 91067714.86727345 -26049692.49295621 -26049692.49295621 -16102538.20543205 0 0 0 0 0 90813055.75514573 -25631817.4579512 -25631817.4579512 -16523335.96559497 0 0 0 0 0 93160839.75444776 -24767848.35354548 -24767848.35354548 -15725826.85408142 0 0 0 0 0 95176707.81127794 -23919514.47271864 -23919514.47271864 -15809115.41433182 0 0 0 0 0 97038060.84346524 -23042828.25749774 -23042828.25749774 -15854742.8181315 0 0 0 0 0 98741562.9653852 -22153354.06389153 -22153354.06389153 -15866369.91473837 0 0 0 0 0 100294597.0879983 -21255341.17304115 -21255341.17304115 -15848211.69334935 0 0 0 0 0 101713074.7538472 -20347319.57085053 -20347319.57085053 -15778990.01745974 0 0 0 0 0 100885365.9068451 -19831672.14313926 -19831672.14313926 -15910620.65745716 0 0 0 0 0 102456843.812071 -19227820.79054654 -19227820.79054654 -15278064.97898094 0 0 0 0 0 103602784.2897363 -18364306.96640715 -18364306.96640715 -15172216.47681353 0 0 0 0 0 102286749.6826409 -17672645.959118 -17672645.959118 -14878267.94110151 0 0 0 0 0 103275127.7671385 -16860611.42784658 -16860611.42784658 -14722184.94549874 0 0 0 0 0 103685121.9795437 -15928254.82280546 -15928254.82280546 -14222065.55287405 0 0 0 0 0 104497719.5903235 -16382349.1055218 -16382349.1055218 -14179097.88389632 0 0 0 0 0 104513883.6261407 -15164908.40751187 -15164908.40751187 -14042395.0241139 0 0 0 0 0 105256073.7335473 -14425128.29001305 -14425128.29001305 -13850364.11026115 0 0 0 0 0 105930818.9607805 -13702728.38038634 -13702728.38038634 -13639364.12094338 0 0 0 0 0 106534097.4813071 -13003189.37690949 -13003189.37690949 -13416755.83470754 0 0 0 0 0 106581216.2398101 -12293131.30231301 -12293131.30231301 -12923610.4594187 0 0 0 0 0 107368278.862659 -12666266.94418623 -12666266.94418623 -13017399.5837309 0 0 0 0 0 107065717.5896005 -11656070.08850468 -11656070.08850468 -12695514.74322322 0 0 0 0 0 107498930.2452406 -11040043.47556756 -11040043.47556756 -12458604.52456232 0 0 0 0 0 107884447.29819 -10445266.04209218 -10445266.04209218 -12213898.02370774 0 0 0 0 0 108225039.0735766 -9872496.666915733 -9872496.666915733 -11963505.5053915 0 0 0 0 0 108523783.595024 -9320771.123864207 -9320771.123864207 -11708978.52679862 0 0 0 0 0 109025775.6791283 -9116251.902980966 -9116251.902980966 -11461753.55161178 0 0 0 0 0 108565680.1800466 -8346399.703377195 -8346399.703377195 -11031967.95337403 0 0 0 0 0 109246201.39624 -8602213.919409351 -8602213.919409351 -11225799.70986108 0 0 0 0 0 108769390.032119 -7866951.787115955 -7866951.787115955 -10782332.27665158 0 0 0 0 0 108944112.3309802 -7406442.164669592 -7406442.164669592 -10531490.80502597 0 0 0 0 0 109092440.2270385 -6964811.612704726 -6964811.612704726 -10279655.92099951 0 0 0 0 0 109215533.5123189 -6542031.603450861 -6542031.603450861 -10028441.61036085 0 0 0 0 0 108926042.3153469 -6238566.479708487 -6238566.479708487 -9673788.895123243 0 0 0 0 0 109505304.7239581 -6425372.965144056 -6425372.965144056 -9891299.933787435 0 0 0 0 0 109015161.4223168 -5858109.149922375 -5858109.149922375 -9435332.103089634 0 0 0 0 0 109085265.6036372 -5493908.847455013 -5493908.847455013 -9197821.444446804 0 0 0 0 0 109137362.2166849 -5146141.744300156 -5146141.744300156 -8962901.650329787 0 0 0 0 0 109173680.3240789 -4813592.881101809 -4813592.881101809 -8730263.574345641 0 0 0 0 0 109195653.5238323 -4495593.588319148 -4495593.588319148 -8499912.386164878 0 0 0 0 0 109339256.3396552 -4142069.612754838 -4142069.612754838 -8224955.372245029 0 0 0 0 0 109204543.7197293 -4192069.625536907 -4192069.625536907 -8272321.50171337 0 0 0 0 0 108886495.5261077 -4026479.099580287 -4026479.099580287 -8001837.574780223 0 0 0 0 0 108881155.0437119 -3753123.129041333 -3753123.129041333 -7789185.710010906 0 0 0 0 0 108866011.0728651 -3491958.940951132 -3491958.940951132 -7579148.45959829 0 0 0 0 0 108841422.8409864 -3243105.001814307 -3243105.001814307 -7371994.312936403 0 0 0 0 0 108813204.4199398 -3010689.431414283 -3010689.431414283 -7165144.912739328 0 0 0 0 0 108765064.7839981 -2792311.254018588 -2792311.254018588 -6971182.120521759 0 0 0 0 0 108811539.7596688 -2785623.358323828 -2785623.358323828 -6986258.28354929 0 0 0 0 0 108445962.7441114 -2706662.417572895 -2706662.417572895 -6765015.583743609 0 0 0 0 0 108390932.7085174 -2506262.609769673 -2506262.609769673 -6582664.057909484 0 0 0 0 0 108351646.7254545 -2314220.197864244 -2314220.197864244 -6400404.75405845 0 0 0 0 0 108291450.6346253 -2130019.539008548 -2130019.539008548 -6224343.66184286 0 0 0 0 0 108318114.4856011 -2126707.889299246 -2126707.889299246 -6240437.862757862 0 0 0 0 0 108009626.4886249 -2071685.594933301 -2071685.594933301 -6047984.705167741 0 0 0 0 0 107952852.0484706 -1902239.674700432 -1902239.674700432 -5881191.505586714 0 0 0 0 0 107892142.9966405 -1740562.512502316 -1740562.512502316 -5718073.343451427 0 0 0 0 0 107827433.4981291 -1585733.544395255 -1585733.544395255 -5559231.002465096 0 0 0 0 0 107762200.9577354 -1443258.433840912 -1443258.433840912 -5396189.228693216 0 0 0 0 0 107703465.7350022 -1318734.449415019 -1318734.449415019 -5235142.473768506 0 0 0 0 0 107665028.4738947 -1237696.97754463 -1237696.97754463 -5102715.469180693 0 0 0 0 0 107570408.1141802 -1178441.961799899 -1178441.961799899 -5023238.783452252 0 0 0 0 0 107460977.0637807 -1121846.707076841 -1121846.707076841 -4917424.348499159 0 0 0 0 0 107341834.4832406 -1057529.177498951 -1057529.177498951 -4813555.332908395 0 0 0 0 0 102768494.6047264 -17860657.97589884 -17860657.97589884 -15253398.01774 0 0 0 0 0 -2374596.347601363 -1758956.503098779 -1758956.503098779 -43582052.59338548 0 0 0 0 0 -1474241.540863838 -3209062.889542792 -3209062.889542792 -40063400.09525739 0 0 0 0 0 274456.6296554494 -4954221.498780673 -4954221.498780673 -37850303.26097999 0 0 0 0 0 892.9354199049252 -3976625.065500095 -3976625.065500095 -33316008.90136305 0 0 0 0 0 4113758.083340467 -8155619.127415325 -8155619.127415325 -29939814.83731659 0 0 0 0 0 6302140.268119562 -10634542.06487546 -10634542.06487546 -27710292.12740423 0 0 0 0 0 8889629.929704057 -13116292.11063383 -13116292.11063383 -25639211.25285839 0 0 0 0 0 11872868.91192439 -15597762.56284095 -15597762.56284095 -23736255.20886557 0 0 0 0 0 18198443.19455322 -19132689.31090279 -19132689.31090279 -19070867.30517679 0 0 0 0 0 12894616.72937915 -14882529.92317629 -14882529.92317629 -22078092.07062947 0 0 0 0 0 21886814.10253917 -21331122.82184821 -21331122.82184821 -18034798.80222331 0 0 0 0 0 25817840.96693894 -23367401.37373607 -23367401.37373607 -17204897.00116988 0 0 0 0 0 29946580.48836526 -25213818.40140397 -25213818.40140397 -16574453.48598673 0 0 0 0 0 34224670.53676672 -26848016.05225597 -26848016.05225597 -16130493.9527797 0 0 0 0 0 38604427.6696304 -28255232.35430013 -28255232.35430013 -15854076.94852278 0 0 0 0 0 43037806.98139643 -29425839.25974608 -29425839.25974608 -15722112.6669032 0 0 0 0 0 47481031.1713458 -30356995.87485194 -30356995.87485194 -15709997.91252894 0 0 0 0 0 51893129.70387391 -31052290.85583394 -31052290.85583394 -15794974.05029304 0 0 0 0 0 55247571.55546077 -29960323.76588146 -29960323.76588146 -15204752.69058076 0 0 0 0 0 57850857.26919842 -31192218.46820083 -31192218.46820083 -15234004.17812819 0 0 0 0 0 61887462.02221797 -31371235.52113985 -31371235.52113985 -15510295.58578475 0 0 0 0 0 65800281.56485771 -31363259.83831532 -31363259.83831532 -15803007.38450632 0 0 0 0 0 69567048.05073895 -31184417.06123598 -31184417.06123598 -16097585.38767082 0 0 0 0 0 73915239.60304074 -30299607.0742094 -30299607.0742094 -15830487.65682533 0 0 0 0 0 72824322.76902395 -30076071.29629954 -30076071.29629954 -15353373.58693527 0 0 0 0 0 77171324.03937063 -29824381.18911958 -29824381.18911958 -16114572.40697725 0 0 0 0 0 80262615.12862815 -29241472.25800408 -29241472.25800408 -16371619.22760555 0 0 0 0 0 83185811.13848016 -28562647.33594225 -28562647.33594225 -16590593.62333951 0 0 0 0 0 85931388.69229819 -27802747.05836562 -27802747.05836562 -16769540.12701054 0 0 0 0 0 88501823.12896958 -26976015.37614932 -26976015.37614932 -16906128.84309111 0 0 0 0 0 90898163.46678892 -26095513.92031786 -26095513.92031786 -16999138.07111645 0 0 0 0 0 93341413.76575157 -25206409.08065983 -25206409.08065983 -16208037.89289736 0 0 0 0 0 92948660.43623732 -24745664.84706349 -24745664.84706349 -16587651.06133948 0 0 0 0 0 94928214.67746772 -23830165.56612758 -23830165.56612758 -16610791.57873268 0 0 0 0 0 96761987.77640219 -22897453.26201741 -22897453.26201741 -16593625.51497067 0 0 0 0 0 98439988.49774842 -21953035.28570991 -21953035.28570991 -16540236.55857899 0 0 0 0 0 99979635.46841939 -21006682.26157748 -21006682.26157748 -16439778.32233032 0 0 0 0 0 101386519.5999328 -20061236.83238989 -20061236.83238989 -16314795.38972562 0 0 0 0 0 102988139.3070159 -19455207.93057889 -19455207.93057889 -15692865.26678563 0 0 0 0 0 102128247.7014425 -18930364.25741831 -18930364.25741831 -15773802.14217976 0 0 0 0 0 103264659.4845791 -18045522.83400182 -18045522.83400182 -15622462.03468868 0 0 0 0 0 104108269.0080591 -17340820.76275175 -17340820.76275175 -14678157.45925999 0 0 0 0 0 105026825.4769964 -16535432.13171067 -16535432.13171067 -14547446.63866663 0 0 0 0 0 105334187.0718204 -15610113.85186689 -15610113.85186689 -14035106.47152036 0 0 0 0 0 104179961.8049487 -16065945.99027819 -16065945.99027819 -14561188.58811235 0 0 0 0 0 106082321.1360596 -14853372.18255819 -14853372.18255819 -13876940.6343378 0 0 0 0 0 106755489.0579802 -14118923.77251282 -14118923.77251282 -13697144.74463733 0 0 0 0 0 107358381.5213687 -13401129.96910418 -13401129.96910418 -13503166.49230942 0 0 0 0 0 107896459.3923732 -12705350.20619998 -12705350.20619998 -13293418.84976241 0 0 0 0 0 107846770.9383408 -12012589.33762307 -12012589.33762307 -12811726.15292281 0 0 0 0 0 107076067.0224979 -12324285.60850521 -12324285.60850521 -13182272.726092 0 0 0 0 0 108271513.1369949 -11379484.9770233 -11379484.9770233 -12595239.73125367 0 0 0 0 0 108645895.2692549 -10767696.91523802 -10767696.91523802 -12369456.7867134 0 0 0 0 0 108973331.802823 -10178097.5846481 -10178097.5846481 -12136776.80466558 0 0 0 0 0 109257981.1459268 -9610555.493254507 -9610555.493254507 -11897075.71948211 0 0 0 0 0 109504575.5817046 -9063278.360185811 -9063278.360185811 -11651074.14039211 0 0 0 0 0 108785077.9974019 -8789713.627868867 -8789713.627868867 -11451304.2048436 0 0 0 0 0 109434014.1329415 -8108041.145583563 -8108041.145583563 -10986304.57465199 0 0 0 0 0 109013272.7393191 -8278631.379712809 -8278631.379712809 -11190128.47257865 0 0 0 0 0 109591924.4832527 -7633580.222662893 -7633580.222662893 -10744198.72760128 0 0 0 0 0 109723290.1195972 -7178113.78940071 -7178113.78940071 -10499933.46594451 0 0 0 0 0 109828741.6193089 -6741958.300620191 -6741958.300620191 -10255076.88812268 0 0 0 0 0 109911232.9598554 -6324461.733827709 -6324461.733827709 -10009738.72446107 0 0 0 0 0 109577502.5175996 -6032950.095819892 -6032950.095819892 -9657497.14511029 0 0 0 0 0 109315982.3812382 -6137335.650376578 -6137335.650376578 -9777826.666951383 0 0 0 0 0 109630548.8367031 -5657591.930487519 -5657591.930487519 -9424329.81335458 0 0 0 0 0 109665670.2871844 -5298793.260439897 -5298793.260439897 -9192775.767234581 0 0 0 0 0 109685201.7821085 -4955808.638261403 -4955808.638261403 -8961944.942788722 0 0 0 0 0 109690726.8067476 -4627975.133050751 -4627975.133050751 -8732763.009942265 0 0 0 0 0 109683142.1615545 -4315028.050553275 -4315028.050553275 -8506030.682297304 0 0 0 0 0 109201043.962398 -3902692.317280142 -3902692.317280142 -8048129.227239266 0 0 0 0 0 109663361.0463125 -4016727.01402285 -4016727.01402285 -8282261.924564974 0 0 0 0 0 109318768.1514309 -3860431.097567889 -3860431.097567889 -8012176.592718858 0 0 0 0 0 109288822.1170929 -3591534.248439524 -3591534.248439524 -7801668.516463473 0 0 0 0 0 109249675.7259923 -3334861.040622502 -3334861.040622502 -7594427.171380132 0 0 0 0 0 109201941.8739995 -3090145.999126337 -3090145.999126337 -7390049.854923707 0 0 0 0 0 109134240.1633621 -2869625.571576775 -2869625.571576775 -7201277.311577346 0 0 0 0 0 109066552.0101809 -2661838.669417568 -2661838.669417568 -7012401.776692433 0 0 0 0 0 108704126.3559864 -2585970.603259753 -2585970.603259753 -6781545.72624739 0 0 0 0 0 108749476.1991201 -2578237.620340277 -2578237.620340277 -6794084.39644139 0 0 0 0 0 108685562.8139913 -2375910.600834807 -2375910.600834807 -6604326.289547847 0 0 0 0 0 108614699.3381325 -2185673.203207139 -2185673.203207139 -6428928.824867652 0 0 0 0 0 108543949.3130521 -2004751.939735912 -2004751.939735912 -6249158.298694066 0 0 0 0 0 108231305.5535301 -1951860.199014566 -1951860.199014566 -6049292.367964843 0 0 0 0 0 108250139.9883607 -1952358.308451185 -1952358.308451185 -6071646.869374338 0 0 0 0 0 108178760.761694 -1786415.53831797 -1786415.53831797 -5905930.234985863 0 0 0 0 0 108104556.50004 -1628411.537131649 -1628411.537131649 -5743610.654100678 0 0 0 0 0 108028497.1947454 -1477462.35124673 -1477462.35124673 -5584832.304656176 0 0 0 0 0 107927495.9749898 -1341329.852203732 -1341329.852203732 -5436829.616462922 0 0 0 0 0 107814215.3472945 -1240969.672624383 -1240969.672624383 -5317690.032138548 0 0 0 0 0 107679757.7039067 -1167996.261276106 -1167996.261276106 -5220657.66264495 0 0 0 0 0 107542738.7030769 -1122176.416709694 -1122176.416709694 -5127587.142693363 0 0 0 0 0 107427024.9849101 -1060727.93717328 -1060727.93717328 -5020638.809557438 0 0 0 0 0 107315116.6627732 -999784.5855799691 -999784.5855799691 -4908880.425235504 0 0 0 0 0 104645555.1009454 -17510441.48804342 -17510441.48804342 -15048092.20323372 0 0 0 0 0 -2929120.981751265 787813.4650358694 787813.4650358694 -47921286.94624277 0 0 0 0 0 -2468604.990032288 -606673.8164812747 -606673.8164812747 -43277826.07467308 0 0 0 0 0 -1550279.09592907 -2247515.262647116 -2247515.262647116 -39889058.54913519 0 0 0 0 0 1578831.107421097 -7117675.17434772 -7117675.17434772 -35836385.96923544 0 0 0 0 0 1684773.390698982 -6019932.756020991 -6019932.756020991 -31923148.04058674 0 0 0 0 0 3803424.488694407 -8335537.582751701 -8335537.582751701 -29871759.25219757 0 0 0 0 0 6543567.366520778 -10791752.94587872 -10791752.94587872 -27779197.82711434 0 0 0 0 0 9778660.653320972 -13317973.00336598 -13317973.00336598 -25787263.0029555 0 0 0 0 0 16625802.99895048 -17289089.05481219 -17289089.05481219 -20702391.59621089 0 0 0 0 0 15231788.45830372 -18026519.71040922 -18026519.71040922 -22044875.51285975 0 0 0 0 0 20680989.54280358 -19585417.9187342 -19585417.9187342 -19511865.01602184 0 0 0 0 0 25005354.2890172 -21732453.56465281 -21732453.56465281 -18511653.21561941 0 0 0 0 0 29541704.24948058 -23695236.46629164 -23695236.46629164 -17704379.92437379 0 0 0 0 0 34233846.11607836 -25447385.32703827 -25447385.32703827 -17081297.06650812 0 0 0 0 0 39022067.0301144 -26969040.29078747 -26969040.29078747 -16629081.71617602 0 0 0 0 0 43845207.62470447 -28248407.10198804 -28248407.10198804 -16330018.50779286 0 0 0 0 0 48649553.95105055 -29280070.58066702 -29280070.58066702 -16163496.7174702 0 0 0 0 0 53392035.52615049 -30065862.20820381 -30065862.20820381 -16107606.764353 0 0 0 0 0 56237316.24464472 -31518718.41802813 -31518718.41802813 -15953279.77554371 0 0 0 0 0 59651838.85388388 -30403461.24941382 -30403461.24941382 -15339402.51786222 0 0 0 0 0 63921105.49946824 -30638225.67417296 -30638225.67417296 -15521433.63283841 0 0 0 0 0 68029324.97758313 -30678827.02438773 -30678827.02438773 -15734497.11182037 0 0 0 0 0 71960621.39347054 -30541739.99177508 -30541739.99177508 -15962612.33703243 0 0 0 0 0 76365492.83213992 -29755161.41687183 -29755161.41687183 -15618122.73473133 0 0 0 0 0 73170733.13871422 -30850749.47891065 -30850749.47891065 -16382113.79273432 0 0 0 0 0 79712237.04321529 -29303416.3434152 -29303416.3434152 -15867465.14853564 0 0 0 0 0 82869642.02055445 -28737326.63604466 -28737326.63604466 -16092089.74345162 0 0 0 0 0 85828759.8878278 -28073473.33341993 -28073473.33341993 -16291266.14637604 0 0 0 0 0 88590737.71412124 -27326058.27691248 -27326058.27691248 -16457984.11291837 0 0 0 0 0 91156788.26454934 -26509512.80689035 -26509512.80689035 -16588687.48161475 0 0 0 0 0 93531979.96505886 -25637021.76430434 -25637021.76430434 -16681062.84955545 0 0 0 0 0 93125958.69240336 -25173623.5121315 -25173623.5121315 -17049395.53846148 0 0 0 0 0 95440847.61245987 -24325266.50840489 -24325266.50840489 -16277747.56371551 0 0 0 0 0 97372871.7366395 -23414694.80243531 -23414694.80243531 -16308726.45899497 0 0 0 0 0 99143025.18312773 -22486661.03862031 -22486661.03862031 -16303983.39577817 0 0 0 0 0 100761047.2790761 -21545439.98597777 -21545439.98597777 -16260169.2122342 0 0 0 0 0 102232248.7534056 -20602116.06726358 -20602116.06726358 -16183317.12594114 0 0 0 0 0 103571510.5061899 -19653782.20529623 -19653782.20529623 -16068198.11207229 0 0 0 0 0 102661469.2352035 -19110619.05992512 -19110619.05992512 -16120792.85744491 0 0 0 0 0 104139840.7364841 -18561694.14104222 -18561694.14104222 -15554457.50891197 0 0 0 0 0 105210044.4046082 -17672761.64873823 -17672761.64873823 -15406725.04978902 0 0 0 0 0 103782189.2911011 -17018937.96031228 -17018937.96031228 -15082522.62370885 0 0 0 0 0 104702088.3375521 -16191372.18478557 -16191372.18478557 -14889083.58128565 0 0 0 0 0 105014966.061093 -15277638.93390938 -15277638.93390938 -14364517.04151919 0 0 0 0 0 105870640.7432676 -15732906.10284912 -15732906.10284912 -14374658.5847666 0 0 0 0 0 105768594.2961687 -14512672.43576711 -14512672.43576711 -14153043.6197803 0 0 0 0 0 106441686.2334056 -13767476.51986183 -13767476.51986183 -13926783.16724159 0 0 0 0 0 107050645.9317808 -13043987.43475407 -13043987.43475407 -13686622.75362478 0 0 0 0 0 107594486.7877736 -12343192.95896753 -12343192.95896753 -13434633.2196285 0 0 0 0 0 107560902.1718446 -11667039.20390193 -11667039.20390193 -12937507.49354804 0 0 0 0 0 108374354.0512173 -12030669.93043551 -12030669.93043551 -13071160.03197827 0 0 0 0 0 107992633.0552524 -11032121.3370696 -11032121.3370696 -12684231.58165434 0 0 0 0 0 108375166.608705 -10420065.68843344 -10420065.68843344 -12424041.041662 0 0 0 0 0 108711309.3140907 -9831020.98687288 -9831020.98687288 -12157377.23560723 0 0 0 0 0 109004217.6886224 -9264652.703762706 -9264652.703762706 -11887839.00521741 0 0 0 0 0 109258475.3944725 -8721122.52659734 -8721122.52659734 -11615419.14048562 0 0 0 0 0 109716636.8212029 -8537164.847322406 -8537164.847322406 -11400379.75166109 0 0 0 0 0 109209075.2821689 -7788117.119731648 -7788117.119731648 -10927191.42934784 0 0 0 0 0 109895204.7163291 -8031454.237506276 -8031454.237506276 -11147208.64204423 0 0 0 0 0 109375263.0207132 -7317803.592460424 -7317803.592460424 -10663207.96949453 0 0 0 0 0 109513889.5422074 -6867467.248900346 -6867467.248900346 -10399319.43331526 0 0 0 0 0 109628035.9441441 -6436409.123647179 -6436409.123647179 -10135831.78419802 0 0 0 0 0 109718608.730785 -6024647.956561699 -6024647.956561699 -9873817.002794955 0 0 0 0 0 109395476.9381312 -5750384.631757467 -5750384.631757467 -9528660.015107619 0 0 0 0 0 109972741.0985968 -5925327.369900334 -5925327.369900334 -9765006.825006569 0 0 0 0 0 109455697.2998102 -5380533.611187537 -5380533.611187537 -9281628.304756615 0 0 0 0 0 109498857.2833499 -5027203.036996386 -5027203.036996386 -9036239.569802366 0 0 0 0 0 109525476.1099635 -4690149.502466487 -4690149.502466487 -8794139.810549142 0 0 0 0 0 109537719.5411546 -4368426.693841057 -4368426.693841057 -8554881.39573656 0 0 0 0 0 109536683.0798799 -4061732.395982074 -4061732.395982074 -8318919.15497059 0 0 0 0 0 109632806.4238537 -3732426.326114489 -3732426.326114489 -8061312.178215277 0 0 0 0 0 109523573.5875874 -3769512.869025114 -3769512.869025114 -8086438.65328313 0 0 0 0 0 109186673.4512063 -3626811.533652726 -3626811.533652726 -7827527.409789701 0 0 0 0 0 109162241.071567 -3363597.946858033 -3363597.946858033 -7610857.745892143 0 0 0 0 0 109128737.5644682 -3112646.9498513 -3112646.9498513 -7397649.169436888 0 0 0 0 0 109089592.9830225 -2877598.272807301 -2877598.272807301 -7182996.246182553 0 0 0 0 0 109039332.0026424 -2657221.024616374 -2657221.024616374 -6976133.908812412 0 0 0 0 0 108964775.6788445 -2455642.272104108 -2455642.272104108 -6790145.438751088 0 0 0 0 0 108997244.7630923 -2453946.362779717 -2453946.362779717 -6814206.050336259 0 0 0 0 0 108641602.8906155 -2385924.744886922 -2385924.744886922 -6595432.839237491 0 0 0 0 0 108582476.5243369 -2189584.160729839 -2189584.160729839 -6407962.185311624 0 0 0 0 0 108525540.9050976 -2003436.037448193 -2003436.037448193 -6224104.509992517 0 0 0 0 0 108457157.1033933 -1825660.004227848 -1825660.004227848 -6044112.287126173 0 0 0 0 0 108468510.7859492 -1830490.96595308 -1830490.96595308 -6075118.066490291 0 0 0 0 0 108167531.1305941 -1782334.686446196 -1782334.686446196 -5877968.549615977 0 0 0 0 0 108100042.5396011 -1621062.731673584 -1621062.731673584 -5710292.454167015 0 0 0 0 0 108029347.996528 -1467442.619707553 -1467442.619707553 -5546988.728522835 0 0 0 0 0 107956126.1045448 -1319331.04694253 -1319331.04694253 -5385071.206814948 0 0 0 0 0 107902189.3994012 -1182500.877018457 -1182500.877018457 -5199064.614930033 0 0 0 0 0 107833315.0362582 -1081618.476923577 -1081618.476923577 -5064483.763320928 0 0 0 0 0 107740789.6575565 -1016460.39796344 -1016460.39796344 -4955111.264602563 0 0 0 0 0 107621217.244204 -957113.5651169504 -957113.5651169504 -4854597.644843697 0 0 0 0 0 107510106.264759 -899344.3417202949 -899344.3417202949 -4748617.660203286 0 0 0 0 0 104308857.1159575 -17168467.24347116 -17168467.24347116 -15429878.04048158 0 0 0 0 0 -3523477.857713358 -1767542.488163896 -1767542.488163896 -52269199.96818782 0 0 0 0 0 -2968792.006246713 -2425024.957809865 -2425024.957809865 -47992464.17588683 0 0 0 0 0 -1872909.413251428 -3933521.509913638 -3933521.509913638 -44787285.20724979 0 0 0 0 0 -640113.0828493546 -5644746.605554137 -5644746.605554137 -42575313.94747147 0 0 0 0 0 -407871.9347058895 -4411457.595951521 -4411457.595951521 -37635807.75412759 0 0 0 0 0 3529265.535917209 -9220118.597887145 -9220118.597887145 -32992068.90345598 0 0 0 0 0 6107493.214373592 -11568564.73399193 -11568564.73399193 -30311406.81201584 0 0 0 0 0 8970974.650925463 -14068402.97041099 -14068402.97041099 -27813326.89799255 0 0 0 0 0 12255456.47939418 -16579610.81011721 -16579610.81011721 -25559233.05673501 0 0 0 0 0 18923975.05690005 -20356238.58979576 -20356238.58979576 -20591733.07379492 0 0 0 0 0 13448358.03433861 -15833165.81351872 -15833165.81351872 -23964656.08436809 0 0 0 0 0 22907010.22571534 -22545508.03322684 -22545508.03322684 -19384723.35217662 0 0 0 0 0 27126640.49192986 -24557338.75033089 -24557338.75033089 -18422650.09316346 0 0 0 0 0 31530593.19312043 -26361672.19685406 -26361672.19685406 -17691450.27404427 0 0 0 0 0 36066383.13855116 -27935972.5300149 -27935972.5300149 -17174017.3088401 0 0 0 0 0 40679516.22511222 -29264885.13842733 -29264885.13842733 -16841683.2863483 0 0 0 0 0 45319706.68909633 -30340579.46023857 -30340579.46023857 -16666797.32196917 0 0 0 0 0 49943594.09224664 -31163216.42271625 -31163216.42271625 -16620857.47280448 0 0 0 0 0 54505705.20600216 -31738809.94785609 -31738809.94785609 -16675717.34458223 0 0 0 0 0 58031201.46349207 -30613224.66827459 -30613224.66827459 -16140392.59142166 0 0 0 0 0 60482122.63563312 -31768450.14104352 -31768450.14104352 -16163716.46131231 0 0 0 0 0 64598541.80884274 -31815565.37441605 -31815565.37441605 -16405484.76559929 0 0 0 0 0 68564980.19134562 -31675645.06462845 -31675645.06462845 -16660804.21769289 0 0 0 0 0 72362051.6214994 -31367287.68585303 -31367287.68585303 -16915867.428139 0 0 0 0 0 76597728.39339615 -30380278.03568808 -30380278.03568808 -16646661.68652836 0 0 0 0 0 75696378.00113225 -30243946.79663062 -30243946.79663062 -16193965.07323645 0 0 0 0 0 79843531.75150067 -29790269.15155829 -29790269.15155829 -16885414.69254136 0 0 0 0 0 82910948.4647208 -29097205.76042949 -29097205.76042949 -17089252.14587289 0 0 0 0 0 85791024.51675153 -28316514.28879289 -28316514.28879289 -17254712.87078957 0 0 0 0 0 88483531.70471871 -27462629.9197253 -27462629.9197253 -17378011.43537688 0 0 0 0 0 90989716.85667169 -26550294.2586678 -26550294.2586678 -17457994.12382792 0 0 0 0 0 93314686.36608045 -25593217.95287882 -25593217.95287882 -17494410.49370473 0 0 0 0 0 95721034.87926023 -24722460.54318816 -24722460.54318816 -16735557.60735248 0 0 0 0 0 95186380.12513334 -24221226.0554316 -24221226.0554316 -17057051.07303681 0 0 0 0 0 97087244.70199884 -23249371.38374344 -23249371.38374344 -17024139.72478449 0 0 0 0 0 98830558.2753716 -22265030.77638914 -22265030.77638914 -16952216.20016757 0 0 0 0 0 100427507.5368115 -21274797.9572234 -21274797.9572234 -16843508.64796932 0 0 0 0 0 101882584.9978674 -20285732.94807296 -20285732.94807296 -16699132.46616747 0 0 0 0 0 103215897.371429 -19312137.19601554 -19312137.19601554 -16513603.06003736 0 0 0 0 0 104735756.4793533 -18744755.08280699 -18744755.08280699 -15968371.08641803 0 0 0 0 0 103793952.5534877 -18219111.1453327 -18219111.1453327 -15980569.86383008 0 0 0 0 0 104856746.2235818 -17307843.60241444 -17307843.60241444 -15770688.15520653 0 0 0 0 0 105585441.4334729 -16673638.60204143 -16673638.60204143 -14894160.20518717 0 0 0 0 0 106436153.9075695 -15846220.98172362 -15846220.98172362 -14714514.42210123 0 0 0 0 0 106627886.5661195 -14952368.92855492 -14952368.92855492 -14198474.32676873 0 0 0 0 0 105541171.6124197 -15381480.484744 -15381480.484744 -14680805.28789952 0 0 0 0 0 107306836.1164019 -14191732.31602277 -14191732.31602277 -14003652.61767283 0 0 0 0 0 107911397.3705447 -13451522.1390052 -13451522.1390052 -13790285.11617356 0 0 0 0 0 108449454.0560728 -12732247.68370555 -12732247.68370555 -13563849.81327819 0 0 0 0 0 108925261.8366496 -12036420.02344057 -12036420.02344057 -13324805.45167347 0 0 0 0 0 108796196.0624862 -11378125.59293769 -11378125.59293769 -12838537.69755742 0 0 0 0 0 108078833.4495093 -11665585.89073432 -11665585.89073432 -13172985.70893563 0 0 0 0 0 109165996.1611606 -10748101.82999054 -10748101.82999054 -12596769.20330584 0 0 0 0 0 109487740.6116046 -10141215.87788267 -10141215.87788267 -12347668.66779725 0 0 0 0 0 109764782.1257528 -9558222.807998007 -9558222.807998007 -12093453.23249 0 0 0 0 0 110002661.1173109 -8997628.880325073 -8997628.880325073 -11832607.81148781 0 0 0 0 0 110204377.8387363 -8459165.92019774 -8459165.92019774 -11567815.52797878 0 0 0 0 0 109477911.0903261 -8198286.479091286 -8198286.479091286 -11340240.74490102 0 0 0 0 0 110043392.7707592 -7546405.550030232 -7546405.550030232 -10891695.67515142 0 0 0 0 0 109664876.7495775 -7696849.662393497 -7696849.662393497 -11063654.66580054 0 0 0 0 0 110163473.1998157 -7081788.217947125 -7081788.217947125 -10635001.80419904 0 0 0 0 0 110258560.9735768 -6637130.701306455 -6637130.701306455 -10377500.80614425 0 0 0 0 0 110330103.2559928 -6211950.066015167 -6211950.066015167 -10120421.93345994 0 0 0 0 0 110380320.91795 -5806019.653704295 -5806019.653704295 -9864121.886237808 0 0 0 0 0 110015011.842872 -5543901.097178631 -5543901.097178631 -9521170.822855253 0 0 0 0 0 109788076.6280645 -5631401.2331752 -5631401.2331752 -9613724.867906686 0 0 0 0 0 110040086.0801277 -5179285.993482323 -5179285.993482323 -9278352.66707539 0 0 0 0 0 110049003.9661497 -4831511.392781688 -4831511.392781688 -9038138.369533511 0 0 0 0 0 110043782.5733529 -4499640.956568695 -4499640.956568695 -8799689.913463978 0 0 0 0 0 110025423.5437776 -4183302.732531042 -4183302.732531042 -8564099.111972226 0 0 0 0 0 109995114.7963305 -3882019.372601282 -3882019.372601282 -8331640.99501249 0 0 0 0 0 109499395.2310378 -3491286.297407924 -3491286.297407924 -7857951.787244174 0 0 0 0 0 109954079.7334834 -3595135.294895865 -3595135.294895865 -8102583.421671717 0 0 0 0 0 109592787.1959912 -3461367.05107676 -3461367.05107676 -7843324.666406136 0 0 0 0 0 109544521.6926726 -3203100.143797908 -3203100.143797908 -7628609.68583069 0 0 0 0 0 109487324.0286968 -2957121.606098562 -2957121.606098562 -7418074.263538181 0 0 0 0 0 109412378.8377857 -2731775.323065419 -2731775.323065419 -7220266.386499876 0 0 0 0 0 109328237.9821709 -2523436.487548247 -2523436.487548247 -7030606.092092042 0 0 0 0 0 109255266.199524 -2316051.079452205 -2316051.079452205 -6823105.98088676 0 0 0 0 0 108897888.4287471 -2253751.318691866 -2253751.318691866 -6597058.010983766 0 0 0 0 0 108926865.5976298 -2251251.761010064 -2251251.761010064 -6618807.802725022 0 0 0 0 0 108851572.4695893 -2058623.56554013 -2058623.56554013 -6432674.811051303 0 0 0 0 0 108772723.0182356 -1875422.586143533 -1875422.586143533 -6252054.279748666 0 0 0 0 0 108690096.0405663 -1702152.448600388 -1702152.448600388 -6072390.990703495 0 0 0 0 0 108385755.7258596 -1656303.40305188 -1656303.40305188 -5868304.198763766 0 0 0 0 0 108389787.6253827 -1664622.951993367 -1664622.951993367 -5904874.121895696 0 0 0 0 0 108308016.7478914 -1506947.165801247 -1506947.165801247 -5738169.659935487 0 0 0 0 0 108224473.3257475 -1357319.670311197 -1357319.670311197 -5575216.999382711 0 0 0 0 0 108137874.7436979 -1213888.359685889 -1213888.359685889 -5414618.595144297 0 0 0 0 0 108007373.8552203 -1089003.947410879 -1089003.947410879 -5273597.804435972 0 0 0 0 0 107843368.8604953 -1009325.852994612 -1009325.852994612 -5174537.433233186 0 0 0 0 0 107714397.5941715 -956324.4450199289 -956324.4450199289 -5061306.576380504 0 0 0 0 0 107591210.8769404 -897867.6986432716 -897867.6986432716 -4953069.095585304 0 0 0 0 0 107470474.6665067 -840102.3289370623 -840102.3289370623 -4846559.637183371 0 0 0 0 0 106171781.7580422 -16802167.74496977 -16802167.74496977 -15238780.56523649 0 0 0 0 0 -3927014.548257979 1334066.527123723 1334066.527123723 -57542996.14638479 0 0 0 0 0 -3631417.2317578 157366.7616706559 157366.7616706559 -51781353.32796489 0 0 0 0 0 -3340312.102336132 -1041930.570697272 -1041930.570697272 -47541630.32404476 0 0 0 0 0 -2244407.16136289 -2677579.270277479 -2677579.270277479 -44232304.26943558 0 0 0 0 0 1176887.566080042 -7512527.939289463 -7512527.939289463 -39399217.13222989 0 0 0 0 0 1379711.568227987 -6476007.274551345 -6476007.274551345 -35380359.84145446 0 0 0 0 0 3681100.093157629 -8805616.900226092 -8805616.900226092 -32771020.96118132 0 0 0 0 0 6712145.175820013 -11353328.64525069 -11353328.64525069 -30200556.89512382 0 0 0 0 0 10246473.14471861 -13962950.24590224 -13962950.24590224 -27819670.92819583 0 0 0 0 0 17499359.08625868 -18277840.47776464 -18277840.47776464 -22347183.87588226 0 0 0 0 0 15917806.69384602 -19040475.55508142 -19040475.55508142 -23584243.55256026 0 0 0 0 0 21873140.56027711 -20599654.11055844 -20599654.11055844 -20956855.29468657 0 0 0 0 0 26508633.43948746 -22753962.5980791 -22753962.5980791 -19797485.42291447 0 0 0 0 0 31341632.83854468 -24703231.67346711 -24703231.67346711 -18864930.14409858 0 0 0 0 0 36316408.99939728 -26420501.15812011 -26420501.15812011 -18144979.69948074 0 0 0 0 0 41351507.64755528 -27884228.91482887 -27884228.91482887 -17618839.81753672 0 0 0 0 0 46393091.06763212 -29085707.49613449 -29085707.49613449 -17264584.23849173 0 0 0 0 0 51378675.19896136 -30021671.59914688 -30021671.59914688 -17053958.02132289 0 0 0 0 0 56268649.94956428 -30698658.08423531 -30698658.08423531 -16962198.81788719 0 0 0 0 0 58970366.55615427 -32078119.15236958 -32078119.15236958 -16805554.80937375 0 0 0 0 0 62533837.18311203 -30933533.26504598 -30933533.26504598 -16239957.61287985 0 0 0 0 0 66870610.53600273 -31041743.35743332 -31041743.35743332 -16387328.40826961 0 0 0 0 0 71019252.54304904 -30955427.30878254 -30955427.30878254 -16564161.55105367 0 0 0 0 0 74963477.00984131 -30691707.59957308 -30691707.59957308 -16753810.28122194 0 0 0 0 0 79226288.23550686 -29803736.4048704 -29803736.4048704 -16415627.41087915 0 0 0 0 0 75973909.97549507 -30908781.61456737 -30908781.61456737 -17156874.53628916 0 0 0 0 0 82547037.37957482 -29236774.08191322 -29236774.08191322 -16615991.8616286 0 0 0 0 0 85658268.47909003 -28563293.41125843 -28563293.41125843 -16795436.80770048 0 0 0 0 0 88558096.78748268 -27798738.41767303 -27798738.41767303 -16944798.16816355 0 0 0 0 0 91247361.40427673 -26958381.44335477 -26958381.44335477 -17059600.8096594 0 0 0 0 0 93731639.90387549 -26057543.11894522 -26057543.11894522 -17137357.83166212 0 0 0 0 0 96015948.9054824 -25110260.91549299 -25110260.91549299 -17176762.04106624 0 0 0 0 0 95461637.15630424 -24603452.08557138 -24603452.08557138 -17487626.20101532 0 0 0 0 0 97730507.34257051 -23776916.81582129 -23776916.81582129 -16751716.69789245 0 0 0 0 0 99567677.75551791 -22811205.55851414 -22811205.55851414 -16730038.96464835 0 0 0 0 0 101242942.7805863 -21831947.7772475 -21831947.7772475 -16670048.07773066 0 0 0 0 0 102764802.9959977 -20847090.83928677 -20847090.83928677 -16576057.22418804 0 0 0 0 0 104144126.7103208 -19862193.51090188 -19862193.51090188 -16446159.42340949 0 0 0 0 0 105359637.993291 -18904135.76406642 -18904135.76406642 -16304859.20577467 0 0 0 0 0 104394097.524243 -18353175.41801305 -18353175.41801305 -16284621.35902954 0 0 0 0 0 105800115.7163506 -17821670.74894165 -17821670.74894165 -15753104.43328493 0 0 0 0 0 106784317.0475433 -16921033.07798348 -16921033.07798348 -15570659.93683859 0 0 0 0 0 105246480.8740152 -16309337.92195944 -16309337.92195944 -15219073.68686449 0 0 0 0 0 106098930.8489111 -15471362.35529694 -15471362.35529694 -14986745.16031932 0 0 0 0 0 106300202.7879781 -14589711.92564122 -14589711.92564122 -14452300.56369062 0 0 0 0 0 107199963.0613161 -15040973.27620281 -15040973.27620281 -14516493.87245441 0 0 0 0 0 106983292.8761256 -13819277.80826544 -13819277.80826544 -14206971.30060918 0 0 0 0 0 107592600.0249945 -13071838.45406589 -13071838.45406589 -13948645.67062148 0 0 0 0 0 108137329.4585908 -12348902.95071558 -12348902.95071558 -13679067.89249359 0 0 0 0 0 108620261.8140258 -11650790.83351828 -11650790.83351828 -13399867.5466567 0 0 0 0 0 108508411.7467498 -11011406.82181355 -11011406.82181355 -12902697.95853454 0 0 0 0 0 109343607.7303593 -11363956.12498249 -11363956.12498249 -13075101.51930685 0 0 0 0 0 108886618.0286125 -10381781.60480845 -10381781.60480845 -12626119.0722231 0 0 0 0 0 109217672.9852466 -9776667.804093331 -9776667.804093331 -12344438.79134865 0 0 0 0 0 109504504.5157921 -9195516.363052148 -9195516.363052148 -12057191.02616482 0 0 0 0 0 109749872.6311393 -8639091.950593958 -8639091.950593958 -11771028.90716197 0 0 0 0 0 109960682.4304446 -8104316.943958799 -8104316.943958799 -11480515.7632102 0 0 0 0 0 110372707.815478 -7942268.324922121 -7942268.324922121 -11300259.64546977 0 0 0 0 0 109821723.3607403 -7216602.691139165 -7216602.691139165 -10786475.45722395 0 0 0 0 0 110510372.6167374 -7446791.348436065 -7446791.348436065 -11031031.03967154 0 0 0 0 0 109950978.5551209 -6757341.729992855 -6757341.729992855 -10509567.26832832 0 0 0 0 0 110054023.6613877 -6318670.994338321 -6318670.994338321 -10234091.72987355 0 0 0 0 0 110133987.7070439 -5900029.519272322 -5900029.519272322 -9960662.47243952 0 0 0 0 0 110192596.8812098 -5500680.50753783 -5500680.50753783 -9689310.786257783 0 0 0 0 0 109838085.6611637 -5255949.475696594 -5255949.475696594 -9355943.81732074 0 0 0 0 0 110411451.8602889 -5418629.902890742 -5418629.902890742 -9609263.21788577 0 0 0 0 0 109870434.321058 -4897790.428321453 -4897790.428321453 -9101036.662438408 0 0 0 0 0 109886977.802407 -4556394.331700703 -4556394.331700703 -8849239.284359686 0 0 0 0 0 109888832.92905 -4231121.924091484 -4231121.924091484 -8600970.21582396 0 0 0 0 0 109877480.8822427 -3921390.340956285 -3921390.340956285 -8356429.947794353 0 0 0 0 0 109854018.1342763 -3626609.014521058 -3626609.014521058 -8115976.178459172 0 0 0 0 0 109903649.6106358 -3322028.057864923 -3322028.057864923 -7876761.556249661 0 0 0 0 0 109819587.1880774 -3346299.963855247 -3346299.963855247 -7879618.355043679 0 0 0 0 0 109465475.0332394 -3226523.818200098 -3226523.818200098 -7633516.313969169 0 0 0 0 0 109422882.4604806 -2974060.439112263 -2974060.439112263 -7413768.902684757 0 0 0 0 0 109374428.7429062 -2736303.682369131 -2736303.682369131 -7195753.202161523 0 0 0 0 0 109318636.1313508 -2511456.508697474 -2511456.508697474 -6977826.246789619 0 0 0 0 0 109240453.7383288 -2309064.85277636 -2309064.85277636 -6779882.195874874 0 0 0 0 0 109157676.7749092 -2110983.726364749 -2110983.726364749 -6588057.270731186 0 0 0 0 0 109175962.1671451 -2115215.45789363 -2115215.45789363 -6624454.680265952 0 0 0 0 0 108830979.0684986 -2057010.57153051 -2057010.57153051 -6404102.186564459 0 0 0 0 0 108760057.490169 -1869625.210556472 -1869625.210556472 -6215884.651680158 0 0 0 0 0 108686628.303007 -1692567.487501906 -1692567.487501906 -6031537.926904486 0 0 0 0 0 108607527.7959666 -1523951.849789252 -1523951.849789252 -5851525.87620684 0 0 0 0 0 108604019.1052737 -1536777.267997252 -1536777.267997252 -5897361.837540278 0 0 0 0 0 108311039.5403797 -1495302.390078142 -1495302.390078142 -5696384.509833869 0 0 0 0 0 108233380.2048163 -1342572.004935991 -1342572.004935991 -5527798.981057833 0 0 0 0 0 108152462.133361 -1195787.517127435 -1195787.517127435 -5362632.737827176 0 0 0 0 0 108070241.5742595 -1050204.124254338 -1050204.124254338 -5194273.744705282 0 0 0 0 0 108041012.4950148 -900542.2689782756 -900542.2689782756 -4992061.712814137 0 0 0 0 0 107924557.0714638 -844543.9416141579 -844543.9416141579 -4882786.46539555 0 0 0 0 0 107798076.4210461 -789164.9955178039 -789164.9955178039 -4779421.529095055 0 0 0 0 0 107672733.6542775 -733622.7575830023 -733622.7575830023 -4676391.703330087 0 0 0 0 0 105820136.5986037 -16415572.67942107 -16415572.67942107 -15537881.09860137 0 0 0 0 0 -3957483.592157886 -1719686.757016688 -1719686.757016688 -62484837.68367845 0 0 0 0 0 -3934138.800313035 -1536670.432297372 -1536670.432297372 -55980486.97981357 0 0 0 0 0 -2804463.424559543 -2388555.384625329 -2388555.384625329 -53179407.09926004 0 0 0 0 0 -1960200.543167123 -3551844.889343905 -3551844.889343905 -50655747.16986004 0 0 0 0 0 -688005.8023694453 -5358498.630550475 -5358498.630550475 -47034415.21886994 0 0 0 0 0 -830682.4769875738 -4292836.875112345 -4292836.875112345 -41906545.66896679 0 0 0 0 0 3417210.072879541 -9690286.038499078 -9690286.038499078 -35901389.79439244 0 0 0 0 0 6182498.473956018 -12147242.12733715 -12147242.12733715 -32695399.7711538 0 0 0 0 0 9319733.649123043 -14717427.36115111 -14717427.36115111 -29733087.16635878 0 0 0 0 0 12893097.461011 -17304345.87500728 -17304345.87500728 -27106446.28480969 0 0 0 0 0 19914954.58963821 -21393385.83747097 -21393385.83747097 -21906535.83500242 0 0 0 0 0 14232929.2279324 -16559141.81650238 -16559141.81650238 -25675397.3532128 0 0 0 0 0 24195011.21927189 -23591270.21408268 -23591270.21408268 -20529727.14651047 0 0 0 0 0 28702172.77615229 -25591850.63125072 -25591850.63125072 -19442373.76940708 0 0 0 0 0 33382287.19126486 -27363066.61578497 -27363066.61578497 -18622200.61130585 0 0 0 0 0 38172455.9527249 -28882204.62793367 -28882204.62793367 -18040850.98186538 0 0 0 0 0 43013682.53872576 -30133281.33847329 -30133281.33847329 -17664369.11689325 0 0 0 0 0 47851089.08766821 -31112694.8502374 -31112694.8502374 -17458218.41760832 0 0 0 0 0 52641127.3597418 -31824133.08200958 -31824133.08200958 -17388367.96444419 0 0 0 0 0 57336799.56387316 -32277312.88156791 -32277312.88156791 -17421556.28751088 0 0 0 0 0 61021008.2309198 -31127037.38616754 -31127037.38616754 -16962159.86927772 0 0 0 0 0 63305846.67891962 -32196357.85803116 -32196357.85803116 -16986354.19516329 0 0 0 0 0 67483118.26389863 -32109498.12803807 -32109498.12803807 -17195601.31804799 0 0 0 0 0 71485343.89467682 -31837929.92183052 -31837929.92183052 -17415867.36391849 0 0 0 0 0 75294231.40024762 -31400823.22618613 -31400823.22618613 -17632007.98743359 0 0 0 0 0 79388480.42730972 -30317615.99962156 -30317615.99962156 -17375193.52912304 0 0 0 0 0 78690231.36978866 -30271158.34057331 -30271158.34057331 -16944237.47988855 0 0 0 0 0 82613146.73057213 -29615027.6574556 -29615027.6574556 -17563549.56899779 0 0 0 0 0 85637726.85743961 -28816090.44719882 -28816090.44719882 -17715188.19884495 0 0 0 0 0 88461106.55258222 -27937059.06869377 -27937059.06869377 -17825254.00271555 0 0 0 0 0 91085087.7704483 -26994418.67798405 -26994418.67798405 -17892471.99264163 0 0 0 0 0 93513947.44252628 -26002440.94692421 -26002440.94692421 -17915303.07349785 0 0 0 0 0 95752303.3091885 -24975138.72591101 -24975138.72591101 -17894606.64871077 0 0 0 0 0 98108290.02021568 -24129346.32455566 -24129346.32455566 -17177415.9543272 0 0 0 0 0 97436634.47665699 -23591849.79989645 -23591849.79989645 -17438882.17526588 0 0 0 0 0 99245257.00979152 -22567459.68081482 -22567459.68081482 -17350625.45174761 0 0 0 0 0 100897789.0911017 -21537912.7252882 -21537912.7252882 -17225131.73332249 0 0 0 0 0 102402833.5490287 -20510070.26101671 -20510070.26101671 -17064270.6278155 0 0 0 0 0 103777049.4163527 -19498925.59268393 -19498925.59268393 -16869983.97920781 0 0 0 0 0 104993170.0991338 -18505200.69824143 -18505200.69824143 -16635239.93234655 0 0 0 0 0 106440422.3141987 -17957892.12551836 -17957892.12551836 -16132066.94107732 0 0 0 0 0 105440281.9406069 -17433081.31226114 -17433081.31226114 -16098516.47343493 0 0 0 0 0 106416956.3843336 -16509055.99573653 -16509055.99573653 -15845032.65249106 0 0 0 0 0 107033607.1969535 -15947009.78826195 -15947009.78826195 -15042669.17580258 0 0 0 0 0 107801169.8377919 -15115935.30270436 -15115935.30270436 -14829971.33570218 0 0 0 0 0 107883924.1578407 -14253870.93450136 -14253870.93450136 -14302031.17028029 0 0 0 0 0 106860645.7437418 -14654318.45730075 -14654318.45730075 -14742565.97494383 0 0 0 0 0 108490845.173699 -13488187.79988831 -13488187.79988831 -14071607.1460808 0 0 0 0 0 109028145.8299848 -12746313.21680144 -12746313.21680144 -13826661.87072854 0 0 0 0 0 109500811.875857 -12028846.80432812 -12028846.80432812 -13570360.84413155 0 0 0 0 0 109913907.2599367 -11336482.97904007 -11336482.97904007 -13303493.58740767 0 0 0 0 0 109708222.9237232 -10715563.74410234 -10715563.74410234 -12816941.05201002 0 0 0 0 0 109046220.8873684 -10977711.94052815 -10977711.94052815 -13112475.43945844 0 0 0 0 0 110023099.6759379 -10091716.12522446 -10091716.12522446 -12551344.36554902 0 0 0 0 0 110292555.4905998 -9492517.665177649 -9492517.665177649 -12280210.34872581 0 0 0 0 0 110518996.9024975 -8919064.659218458 -8919064.659218458 -12006805.69943712 0 0 0 0 0 110710298.2725574 -8367356.543796478 -8367356.543796478 -11726022.63538662 0 0 0 0 0 110866419.9316639 -7839455.626497202 -7839455.626497202 -11444763.30372595 0 0 0 0 0 110137112.0991865 -7592562.686808998 -7592562.686808998 -11190364.29895203 0 0 0 0 0 110619607.9193408 -6972672.71611178 -6972672.71611178 -10760973.20719602 0 0 0 0 0 110283196.9185933 -7102863.749394621 -7102863.749394621 -10900060.74420944 0 0 0 0 0 110702444.6259261 -6519737.487140552 -6519737.487140552 -10491165.95538123 0 0 0 0 0 110761874.9046008 -6087428.061719618 -6087428.061719618 -10221926.24433436 0 0 0 0 0 110800274.6555824 -5674931.376413764 -5674931.376413764 -9953927.506653896 0 0 0 0 0 110819164.6274101 -5281771.47331579 -5281771.47331579 -9688067.854184054 0 0 0 0 0 110424846.5317758 -5049027.020947536 -5049027.020947536 -9356299.428882981 0 0 0 0 0 110231745.3444277 -5119831.38646195 -5119831.38646195 -9420842.536624512 0 0 0 0 0 110422491.3987219 -4696715.221099163 -4696715.221099163 -9105672.059767729 0 0 0 0 0 110405807.8707125 -4361017.745932829 -4361017.745932829 -8857944.507245852 0 0 0 0 0 110376146.1566074 -4041481.180079265 -4041481.180079265 -8613311.766524848 0 0 0 0 0 110334701.3859121 -3737454.210326981 -3737454.210326981 -8372227.032048939 0 0 0 0 0 110282747.8524279 -3448312.651599928 -3448312.651599928 -8134848.192727616 0 0 0 0 0 109775337.4500656 -3079918.962136007 -3079918.962136007 -7647837.170476916 0 0 0 0 0 110221268.6161278 -3173450.397439808 -3173450.397439808 -7901450.772348701 0 0 0 0 0 109844847.9531773 -3062151.760549345 -3062151.760549345 -7654487.133249871 0 0 0 0 0 109779794.7428955 -2815139.443686381 -2815139.443686381 -7436426.680582415 0 0 0 0 0 109700971.537952 -2582268.775028508 -2582268.775028508 -7224980.490948909 0 0 0 0 0 109608135.9002894 -2371464.319510307 -2371464.319510307 -7030196.198563973 0 0 0 0 0 109515812.5465775 -2169946.78471256 -2169946.78471256 -6828801.084700215 0 0 0 0 0 109428934.8535861 -1972596.379540546 -1972596.379540546 -6623037.574674024 0 0 0 0 0 109080734.0190187 -1916637.474518912 -1916637.474518912 -6392795.282211938 0 0 0 0 0 109092668.2825495 -1923501.005551311 -1923501.005551311 -6432297.938410456 0 0 0 0 0 109005278.8837947 -1740666.994824248 -1740666.994824248 -6244913.155811311 0 0 0 0 0 108914470.0448105 -1567236.41474837 -1567236.41474837 -6062265.215142637 0 0 0 0 0 108820829.5725768 -1402889.664403997 -1402889.664403997 -5882817.511799406 0 0 0 0 0 108525252.9812221 -1363590.763963623 -1363590.763963623 -5675902.019332924 0 0 0 0 0 108515178.1815444 -1379445.18131619 -1379445.18131619 -5726332.556179928 0 0 0 0 0 108423879.9348595 -1229783.40517547 -1229783.40517547 -5558903.607682074 0 0 0 0 0 108337513.2394774 -1082608.776937453 -1082608.776937453 -5389654.58143611 0 0 0 0 0 108259400.5490628 -926929.0329477832 -926929.0329477832 -5204461.025190026 0 0 0 0 0 107999795.0471221 -845412.3754097186 -845412.3754097186 -5088297.274735817 0 0 0 0 0 107880439.4854304 -786049.9469842089 -786049.9469842089 -4981312.725670488 0 0 0 0 0 107749643.9244549 -730324.2724608872 -730324.2724608872 -4876395.428445698 0 0 0 0 0 107625433.4768836 -676505.9722374569 -676505.9722374569 -4769903.972034141 0 0 0 0 0 107659866.4212139 -16034796.08038636 -16034796.08038636 -15359530.73453928 0 0 0 0 0 -4540431.489857344 2273050.978786927 2273050.978786927 -68544830.65827332 0 0 0 0 0 -2971141.037947412 -307858.4018818506 -307858.4018818506 -62011972.4541074 0 0 0 0 0 -4115163.285400243 -138597.1641306969 -138597.1641306969 -55141099.38334658 0 0 0 0 0 -3654516.439623472 -692397.7212892885 -692397.7212892885 -52282424.38860896 0 0 0 0 0 -2647016.093350703 -1783284.714593129 -1783284.714593129 -49466676.2395091 0 0 0 0 0 1249164.647271359 -7327934.615780243 -7327934.615780243 -42682974.94155657 0 0 0 0 0 1115485.174365572 -6378942.750918512 -6378942.750918512 -38818172.51195705 0 0 0 0 0 3754937.39358437 -8892511.114646129 -8892511.114646129 -35490069.95514226 0 0 0 0 0 7066057.905763996 -11582181.27419976 -11582181.27419976 -32405192.37894241 0 0 0 0 0 10914444.73069812 -14333148.44523503 -14333148.44523503 -29600857.00690833 0 0 0 0 0 18608237.15647026 -19073184.20098808 -19073184.20098808 -23798369.0225094 0 0 0 0 0 16858188.85548425 -19831810.91551194 -19831810.91551194 -24837146.62063995 0 0 0 0 0 23308561.75656333 -21445567.16107991 -21445567.16107991 -22201707.61175936 0 0 0 0 0 28265123.43459918 -23625983.94212364 -23625983.94212364 -20884624.29862589 0 0 0 0 0 33403039.73040535 -25574748.54613875 -25574748.54613875 -19832880.50957124 0 0 0 0 0 38648951.89457849 -27261129.71075528 -27261129.71075528 -19026493.83735676 0 0 0 0 0 43931439.1495989 -28669307.31358275 -28669307.31358275 -18440229.2471218 0 0 0 0 0 49182070.76646909 -29791419.87926024 -29791419.87926024 -18040218.88214018 0 0 0 0 0 54336696.18453118 -30629348.15481867 -30629348.15481867 -17795685.35145516 0 0 0 0 0 59357772.93656798 -31193990.22228408 -31193990.22228408 -17675906.70361643 0 0 0 0 0 61904510.03576337 -32487634.88168516 -32487634.88168516 -17529881.19968201 0 0 0 0 0 65602928.79337479 -31321954.67392874 -31321954.67392874 -17030782.43848872 0 0 0 0 0 69988874.02771889 -31302065.40180435 -31302065.40180435 -17146323.56479216 0 0 0 0 0 74157426.81179112 -31086718.90140082 -31086718.90140082 -17288890.39170316 0 0 0 0 0 78094474.52152865 -30696324.46895285 -30696324.46895285 -17441041.02954884 0 0 0 0 0 82191925.67900962 -29710531.02839936 -29710531.02839936 -17120303.30136057 0 0 0 0 0 78895911.29104306 -30817375.89597459 -30817375.89597459 -17829169.02614546 0 0 0 0 0 85465462.00099815 -29032719.54236233 -29032719.54236233 -17277720.63836717 0 0 0 0 0 88513994.03816798 -28254526.66090304 -28254526.66090304 -17408229.79298804 0 0 0 0 0 91336337.5230885 -27393317.55475017 -27393317.55475017 -17506704.19628393 0 0 0 0 0 93937792.43190666 -26465755.1614381 -26465755.1614381 -17569276.51291064 0 0 0 0 0 96324288.57267374 -25486774.86700904 -25486774.86700904 -17593757.86088216 0 0 0 0 0 98505249.38597935 -24470609.28102582 -24470609.28102582 -17579399.21907269 0 0 0 0 0 97806855.19645289 -23923917.14156646 -23923917.14156646 -17831069.11164258 0 0 0 0 0 100016952.3721012 -23125770.25722252 -23125770.25722252 -17139762.61138083 0 0 0 0 0 101752306.9275491 -22108421.46730309 -22108421.46730309 -17063811.90821208 0 0 0 0 0 103324568.3470788 -21085630.17451684 -21085630.17451684 -16952105.43921511 0 0 0 0 0 104743330.2920457 -20064509.55621323 -20064509.55621323 -16807304.70174969 0 0 0 0 0 106004922.9578792 -19060115.35587981 -19060115.35587981 -16637265.93357057 0 0 0 0 0 107117918.1844728 -18082477.75780154 -18082477.75780154 -16441136.26107204 0 0 0 0 0 106081162.764931 -17536334.6934333 -17536334.6934333 -16376699.1827346 0 0 0 0 0 107425767.0566585 -17020414.17057825 -17020414.17057825 -15887677.77136167 0 0 0 0 0 108317961.9552967 -16109692.3955253 -16109692.3955253 -15657947.85061328 0 0 0 0 0 106684680.56275 -15546483.52225249 -15546483.52225249 -15286474.26390065 0 0 0 0 0 107455154.6600668 -14701225.66438426 -14701225.66438426 -15018298.37147864 0 0 0 0 0 107548899.0305077 -13857183.34747651 -13857183.34747651 -14478170.19649295 0 0 0 0 0 108488787.0819341 -14301977.90271149 -14301977.90271149 -14592319.78102439 0 0 0 0 0 108161771.5985359 -13085923.38451493 -13085923.38451493 -14201281.81115615 0 0 0 0 0 108705925.3396884 -12340277.59608933 -12340277.59608933 -13913121.89936305 0 0 0 0 0 109186376.4308179 -11621255.27249048 -11621255.27249048 -13615907.44460052 0 0 0 0 0 109607833.7232597 -10929154.47055816 -10929154.47055816 -13310924.9881026 0 0 0 0 0 109419572.9035968 -10330137.67350557 -10330137.67350557 -12818690.85092326 0 0 0 0 0 110271997.2809218 -10669830.30679823 -10669830.30679823 -13028262.34052903 0 0 0 0 0 109744124.9256935 -9708250.115113612 -9708250.115113612 -12520390.32743694 0 0 0 0 0 110024433.065635 -9112127.750456877 -9112127.750456877 -12218380.71982553 0 0 0 0 0 110262455.1736503 -8541270.265864104 -8541270.265864104 -11914149.47984071 0 0 0 0 0 110461847.6701031 -7995386.881425755 -7995386.881425755 -11610047.65585317 0 0 0 0 0 110627852.2173477 -7473357.288593165 -7473357.288593165 -11304912.50966944 0 0 0 0 0 110992241.5891272 -7334172.801137205 -7334172.801137205 -11161319.09679502 0 0 0 0 0 110401483.6431228 -6634784.570314364 -6634784.570314364 -10610250.37964641 0 0 0 0 0 111089795.5844759 -6851142.396790013 -6851142.396790013 -10877653.52929355 0 0 0 0 0 110494188.9687098 -6188286.069427991 -6188286.069427991 -10321990.21376985 0 0 0 0 0 110562267.8510776 -5763047.317842167 -5763047.317842167 -10036730.06611108 0 0 0 0 0 110608954.6085949 -5358034.986409916 -5358034.986409916 -9754868.618048087 0 0 0 0 0 110636959.1537857 -4971731.324013584 -4971731.324013584 -9474775.305653755 0 0 0 0 0 110252953.9406788 -4757232.335819352 -4757232.335819352 -9155932.556448214 0 0 0 0 0 110820244.3707125 -4907407.509215914 -4907407.509215914 -9424680.366252629 0 0 0 0 0 110258180.9094982 -4411878.528528236 -4411878.528528236 -8894594.205087194 0 0 0 0 0 110249007.2424129 -4083294.588022497 -4083294.588022497 -8637202.238303188 0 0 0 0 0 110226559.6999065 -3770851.965387697 -3770851.965387697 -8384171.45484871 0 0 0 0 0 110192174.011254 -3473859.197844039 -3473859.197844039 -8135546.057685496 0 0 0 0 0 110146949.8816368 -3191772.594422786 -3191772.594422786 -7891806.057909052 0 0 0 0 0 110151651.0197604 -2912226.459680911 -2912226.459680911 -7671848.695583946 0 0 0 0 0 110092169.5972087 -2923922.95360788 -2923922.95360788 -7652593.597881707 0 0 0 0 0 109722798.4719917 -2826918.940057563 -2826918.940057563 -7420171.312251253 0 0 0 0 0 109663095.9777464 -2586152.636005729 -2586152.636005729 -7198901.419442941 0 0 0 0 0 109598159.5094283 -2358740.230663173 -2358740.230663173 -6974189.107711093 0 0 0 0 0 109516536.9824838 -2153235.068897044 -2153235.068897044 -6767339.689302323 0 0 0 0 0 109429480.8561434 -1957404.894537391 -1957404.894537391 -6566453.696470325 0 0 0 0 0 109334031.5890301 -1768999.213241963 -1768999.213241963 -6372848.682624367 0 0 0 0 0 109337329.9587859 -1781144.861631889 -1781144.861631889 -6423478.294794867 0 0 0 0 0 109001421.2090054 -1730021.491552181 -1730021.491552181 -6199524.567166561 0 0 0 0 0 108918509.2144005 -1552844.97476679 -1552844.97476679 -6010945.845767137 0 0 0 0 0 108832346.6243475 -1385127.46655728 -1385127.46655728 -5826563.424811001 0 0 0 0 0 108742505.98986 -1225844.781161008 -1225844.781161008 -5647049.316755171 0 0 0 0 0 108724361.6707094 -1246635.064724696 -1246635.064724696 -5707804.777536132 0 0 0 0 0 108440112.6992164 -1211253.55257787 -1211253.55257787 -5504788.911951239 0 0 0 0 0 108351480.428763 -1065679.728360262 -1065679.728360262 -5339283.545605935 0 0 0 0 0 108248824.2464093 -924504.3080822747 -924504.3080822747 -5181494.702725385 0 0 0 0 0 108123336.1344918 -808896.6677654625 -808896.6677654625 -5064456.848549766 0 0 0 0 0 108117169.3598747 -667777.608688877 -667777.608688877 -4792733.194357363 0 0 0 0 0 108258579.338676 -706701.0278861548 -706701.0278861548 -4897369.324746334 0 0 0 0 0 107967472.9860347 -616025.5134828401 -616025.5134828401 -4693855.242215754 0 0 0 0 0 107836169.5940335 -564993.591452132 -564993.591452132 -4591750.440420224 0 0 0 0 0 107297477.956208 -15607582.96943232 -15607582.96943232 -15571922.50977966 0 0 0 0 0 -2828211.9061081 -1077110.312938149 -1077110.312938149 -75049429.68413915 0 0 0 0 0 -3791126.050316541 -697191.721732239 -697191.721732239 -69749360.21550465 0 0 0 0 0 -3859991.398366842 770091.6919272938 770091.6919272938 -62215775.25570447 0 0 0 0 0 -2981119.517869428 -1184229.550770695 -1184229.550770695 -60296996.51567065 0 0 0 0 0 -2063974.456691924 -2675975.910457768 -2675975.910457768 -56758793.97916433 0 0 0 0 0 -458423.0890891759 -4416844.379644286 -4416844.379644286 -50890962.32177911 0 0 0 0 0 -1274694.857325468 -3441224.647467516 -3441224.647467516 -45882489.56378344 0 0 0 0 0 3542318.603142811 -9733694.086465862 -9733694.086465862 -38514335.57417633 0 0 0 0 0 6497306.434791087 -12338012.88095096 -12338012.88095096 -34706225.64051181 0 0 0 0 0 9898364.845154811 -15049018.57529279 -15049018.57529279 -31267869.36446984 0 0 0 0 0 13762221.88474101 -17759905.0358419 -17759905.0358419 -28258211.11618682 0 0 0 0 0 21158644.99131484 -22238953.96229823 -22238953.96229823 -22941540.79284103 0 0 0 0 0 15219147.01105217 -17056968.0030964 -17056968.0030964 -27117115.8384252 0 0 0 0 0 25738386.63952482 -24468230.21791307 -24468230.21791307 -21408008.19856091 0 0 0 0 0 30537478.87772226 -26472969.60880143 -26472969.60880143 -20212275.03533722 0 0 0 0 0 35497089.36542442 -28219787.36067358 -28219787.36067358 -19321172.16976207 0 0 0 0 0 40535711.00597645 -29685129.00181723 -29685129.00181723 -18697044.90760548 0 0 0 0 0 45597230.85967255 -30859019.30139013 -30859019.30139013 -18294540.11304437 0 0 0 0 0 50620849.97908583 -31740594.32984043 -31740594.32984043 -18072637.61122042 0 0 0 0 0 55561742.55824059 -32338308.39146487 -32338308.39146487 -17991659.26747895 0 0 0 0 0 60376033.45139994 -32666930.69278805 -32666930.69278805 -18014967.37207258 0 0 0 0 0 64205363.99090612 -31499809.25133229 -31499809.25133229 -17650495.18987769 0 0 0 0 0 66310506.96435685 -32472311.13542653 -32472311.13542653 -17686131.14651788 0 0 0 0 0 70532094.37605219 -32251993.36684616 -32251993.36684616 -17867174.45627099 0 0 0 0 0 74549955.77824657 -31848026.17908556 -31848026.17908556 -18054277.59865713 0 0 0 0 0 78351478.86028259 -31282477.18954766 -31282477.18954766 -18232372.13048797 0 0 0 0 0 82288877.89237007 -30109668.12654929 -30109668.12654929 -18000988.30910659 0 0 0 0 0 81792368.87277681 -30152780.92323507 -30152780.92323507 -17590869.52228087 0 0 0 0 0 85466913.13773355 -29297437.7230546 -29297437.7230546 -18139758.58859399 0 0 0 0 0 88431344.35716484 -28396371.14283967 -28396371.14283967 -18237480.91056525 0 0 0 0 0 91181474.6388554 -27425146.39469558 -27425146.39469558 -18292720.33803065 0 0 0 0 0 93721734.66988473 -26399486.37096939 -26399486.37096939 -18303155.58950595 0 0 0 0 0 96057777.30756193 -25335075.40801532 -25335075.40801532 -18269851.32619264 0 0 0 0 0 98197341.93316364 -24244121.11378702 -24244121.11378702 -18192464.21867008 0 0 0 0 0 100489726.5929357 -23429351.53616868 -23429351.53616868 -17526042.22814814 0 0 0 0 0 99685096.15961373 -22859007.75435749 -22859007.75435749 -17726607.99000045 0 0 0 0 0 101396517.1697047 -21789326.68718548 -21789326.68718548 -17584090.86380006 0 0 0 0 0 102950471.160936 -20721890.22168833 -20721890.22168833 -17405861.12714043 0 0 0 0 0 104360930.4669699 -19669663.69116934 -19669663.69116934 -17194740.68787396 0 0 0 0 0 105620112.8048543 -18633635.58624522 -18633635.58624522 -16944305.71477403 0 0 0 0 0 106734930.856943 -17621263.68291215 -17621263.68291215 -16671761.79326644 0 0 0 0 0 108111347.296454 -17121107.25767338 -17121107.25767338 -16214790.2945512 0 0 0 0 0 107053039.0705603 -16588272.81364016 -16588272.81364016 -16129228.49688195 0 0 0 0 0 107938108.3621764 -15654772.42702172 -15654772.42702172 -15841503.9562451 0 0 0 0 0 108437211.2870328 -15173349.57604107 -15173349.57604107 -15127452.64638236 0 0 0 0 0 109125462.6032207 -14333953.89019048 -14333953.89019048 -14874223.03584641 0 0 0 0 0 109097682.4665866 -13511202.67807074 -13511202.67807074 -14343383.4461021 0 0 0 0 0 108143590.2072798 -13880324.24651944 -13880324.24651944 -14737298.31483671 0 0 0 0 0 109633611.288331 -12745855.88899817 -12745855.88899817 -14080481.7814585 0 0 0 0 0 110102095.2703589 -12006704.5528495 -12006704.5528495 -13805913.10988886 0 0 0 0 0 110508836.0016183 -11294287.89790161 -11294287.89790161 -13521453.95747726 0 0 0 0 0 110858397.788954 -10609318.66884957 -10609318.66884957 -13229078.24716609 0 0 0 0 0 110579223.965879 -10028845.27273843 -10028845.27273843 -12746212.38246339 0 0 0 0 0 109974586.58606 -10264133.64455779 -10264133.64455779 -13000251.36471462 0 0 0 0 0 110839897.5980996 -9413564.68640531 -9413564.68640531 -12458435.43529819 0 0 0 0 0 111056855.0786462 -8824558.887604559 -8824558.887604559 -12167373.18015162 0 0 0 0 0 111235601.3863916 -8260587.99189696 -8260587.99189696 -11873579.09773701 0 0 0 0 0 111379663.8250965 -7721613.61021711 -7721613.61021711 -11577017.18061349 0 0 0 0 0 111490580.5863009 -7207159.336707514 -7207159.336707514 -11280783.60369975 0 0 0 0 0 110761375.9952383 -6975167.624032033 -6975167.624032033 -11001617.10735349 0 0 0 0 0 111160394.7764394 -6389774.006468911 -6389774.006468911 -10594607.7892037 0 0 0 0 0 110867301.8413623 -6498838.490582186 -6498838.490582186 -10699165.11338487 0 0 0 0 0 111206739.4727429 -5950264.396266735 -5950264.396266735 -10313322.56448125 0 0 0 0 0 111231910.8098348 -5531842.709594909 -5531842.709594909 -10033721.39327535 0 0 0 0 0 111238310.3963816 -5132733.177013504 -5132733.177013504 -9755855.735202344 0 0 0 0 0 111226084.7576998 -4753952.087895102 -4753952.087895102 -9482578.119726373 0 0 0 0 0 110805614.6620997 -4550908.164497066 -4550908.164497066 -9163883.621475656 0 0 0 0 0 110646019.2986515 -4604998.287960848 -4604998.287960848 -9200015.364262676 0 0 0 0 0 110776829.3238589 -4211734.028667608 -4211734.028667608 -8906480.77413616 0 0 0 0 0 110735151.0554419 -3889263.390265444 -3889263.390265444 -8652815.819112884 0 0 0 0 0 110681958.6147207 -3582847.142972327 -3582847.142972327 -8403015.50750882 0 0 0 0 0 110618365.175566 -3291853.210711521 -3291853.210711521 -8157534.454798089 0 0 0 0 0 110545705.0025044 -3015470.431887334 -3015470.431887334 -7916248.019349549 0 0 0 0 0 110028694.4014648 -2669892.324123532 -2669892.324123532 -7418511.143824112 0 0 0 0 0 110464519.3775063 -2753266.9462591 -2753266.9462591 -7679691.916887471 0 0 0 0 0 110074493.6379609 -2664296.193545477 -2664296.193545477 -7446557.122781947 0 0 0 0 0 109994474.7276196 -2429401.291385853 -2429401.291385853 -7226123.902455971 0 0 0 0 0 109889629.4941225 -2215912.552701565 -2215912.552701565 -7020730.138667195 0 0 0 0 0 109784880.4922314 -2014463.936949234 -2014463.936949234 -6816270.870091542 0 0 0 0 0 109682135.1429118 -1821381.921986986 -1821381.921986986 -6614243.371067468 0 0 0 0 0 109585292.3518177 -1631604.295775191 -1631604.295775191 -6406090.77302018 0 0 0 0 0 109246246.3246191 -1583072.264361897 -1583072.264361897 -6174938.003185766 0 0 0 0 0 109241272.2011846 -1598998.013291541 -1598998.013291541 -6231201.879677259 0 0 0 0 0 109142210.498993 -1426247.622365947 -1426247.622365947 -6043498.738720571 0 0 0 0 0 109040114.7195661 -1262429.984399106 -1262429.984399106 -5860282.103865971 0 0 0 0 0 108936340.599754 -1107564.81401453 -1107564.81401453 -5681256.145465798 0 0 0 0 0 108649765.0731093 -1074783.001406043 -1074783.001406043 -5471873.924401468 0 0 0 0 0 108625481.7025231 -1098436.199216031 -1098436.199216031 -5537065.877682007 0 0 0 0 0 108524928.8767416 -958059.1755941635 -958059.1755941635 -5370910.623861871 0 0 0 0 0 108426121.2010194 -823680.8886587078 -823680.8886587078 -5207646.287415706 0 0 0 0 0 108318911.045023 -690387.9709282367 -690387.9709282367 -5020527.337492658 0 0 0 0 0 108033977.38143 -604842.2015582511 -604842.2015582511 -4900218.495265169 0 0 0 0 0 108139763.9806645 -653225.3219298148 -653225.3219298148 -4985140.810927208 0 0 0 0 0 107907021.4699844 -557658.8201960823 -557658.8201960823 -4789236.82723322 0 0 0 0 0 107777970.6841071 -508358.5120919875 -508358.5120919875 -4684301.592520777 0 0 0 0 0 109102632.5897086 -15216956.09092205 -15216956.09092205 -15409538.67887012 0 0 0 0 0 -3093572.518241665 2880164.229942885 2880164.229942885 -82741084.7688023 0 0 0 0 0 -3926310.441003871 3259605.776383711 3259605.776383711 -75442822.26892765 0 0 0 0 0 -3843004.310928198 1163536.171173077 1163536.171173077 -70682512.57651313 0 0 0 0 0 -3796310.514607549 876319.0418059672 876319.0418059672 -60681420.57758729 0 0 0 0 0 -3764923.231420764 1291861.922404943 1291861.922404943 -58611282.67908524 0 0 0 0 0 -3365311.196621613 210116.1011858787 210116.1011858787 -54536944.54418458 0 0 0 0 0 1312742.411017898 -6747349.163750215 -6747349.163750215 -45589552.63151022 0 0 0 0 0 1045323.651377202 -5847408.073982012 -5847408.073982012 -41823712.3364211 0 0 0 0 0 3971355.931232964 -8571303.091858475 -8571303.091858475 -37877009.59045229 0 0 0 0 0 7581895.017487996 -11482365.73246859 -11482365.73246859 -34244519.15281471 0 0 0 0 0 11730661.74338258 -14433272.33390763 -14433272.33390763 -31009643.70767467 0 0 0 0 0 19933750.65184322 -19680983.63978646 -19680983.63978646 -24974569.39112588 0 0 0 0 0 18028778.29153738 -20403871.26808078 -20403871.26808078 -25708236.11561983 0 0 0 0 0 24979386.45375792 -22133468.35391933 -22133468.35391933 -23179593.12477431 0 0 0 0 0 30264278.06954755 -24357167.16387571 -24357167.16387571 -21716059.72277436 0 0 0 0 0 35709319.51210821 -26313227.19932593 -26313227.19932593 -20564444.63942106 0 0 0 0 0 41236177.27959068 -27975011.87143701 -27975011.87143701 -19689355.46417799 0 0 0 0 0 46761094.76937945 -29328799.8234336 -29328799.8234336 -19057474.88904808 0 0 0 0 0 52204080.41014556 -30368157.14818315 -30368157.14818315 -18628236.44767648 0 0 0 0 0 57514644.85237153 -31104496.09965333 -31104496.09965333 -18364680.77849623 0 0 0 0 0 62649007.94811153 -31552575.14875527 -31552575.14875527 -18228991.17360019 0 0 0 0 0 65029260.3417302 -32746722.64742557 -32746722.64742557 -18111365.16734065 0 0 0 0 0 68848027.82346624 -31566437.01567855 -31566437.01567855 -17695501.85431014 0 0 0 0 0 73260176.83589262 -31416191.5160656 -31416191.5160656 -17783335.91877982 0 0 0 0 0 77428558.37864411 -31071657.40821939 -31071657.40821939 -17894593.87770975 0 0 0 0 0 81337508.11628865 -30554912.82961025 -30554912.82961025 -18013510.43855447 0 0 0 0 0 85243693.55260418 -29476685.1418785 -29476685.1418785 -17725263.89482232 0 0 0 0 0 81927140.51780127 -30577236.63369028 -30577236.63369028 -18387650.87351667 0 0 0 0 0 88453195.3330823 -28690012.38599426 -28690012.38599426 -17836600.02172205 0 0 0 0 0 91419227.87437095 -27811529.7665384 -27811529.7665384 -17918994.3190098 0 0 0 0 0 94147554.39491481 -26859377.87500121 -26859377.87500121 -17966916.32103116 0 0 0 0 0 96644393.89455092 -25850519.89546392 -25850519.89546392 -17977751.4792591 0 0 0 0 0 98920201.6264444 -24799756.54427695 -24799756.54427695 -17949227.65401846 0 0 0 0 0 100985364.936102 -23721066.39252389 -23721066.39252389 -17881421.30059473 0 0 0 0 0 100148740.8334661 -23138364.0347305 -23138364.0347305 -18073214.77708862 0 0 0 0 0 102288767.7606255 -22373535.49680712 -22373535.49680712 -17434572.36938558 0 0 0 0 0 103913658.7426989 -21312120.75761006 -21312120.75761006 -17306419.27656717 0 0 0 0 0 105375542.9995804 -20253088.11939404 -20253088.11939404 -17144345.20426572 0 0 0 0 0 106680323.414037 -19206955.61780223 -19206955.61780223 -16951085.22847379 0 0 0 0 0 107825147.1327839 -18187325.95344467 -18187325.95344467 -16741122.46284218 0 0 0 0 0 108830202.2983078 -17190896.84032389 -17190896.84032389 -16499511.47899196 0 0 0 0 0 107724971.916804 -16643057.09792865 -16643057.09792865 -16385429.74469282 0 0 0 0 0 109006173.8607764 -16171290.58451453 -16171290.58451453 -15948906.52807181 0 0 0 0 0 109799309.0997452 -15245399.24751851 -15245399.24751851 -15674044.87009254 0 0 0 0 0 108078010.0787921 -14732719.93979985 -14732719.93979985 -15283399.67796308 0 0 0 0 0 108771663.2267694 -13885838.51294889 -13885838.51294889 -14980486.01730647 0 0 0 0 0 108757993.8207349 -13084617.15881954 -13084617.15881954 -14441867.41102903 0 0 0 0 0 109733366.9450242 -13519230.75965331 -13519230.75965331 -14604384.59113021 0 0 0 0 0 109301219.0944215 -12316169.12490718 -12316169.12490718 -14134850.14095465 0 0 0 0 0 109778221.7777174 -11575951.27027437 -11575951.27027437 -13818849.8214211 0 0 0 0 0 110193953.8239807 -10864587.68579837 -10864587.68579837 -13496077.81524317 0 0 0 0 0 110553230.2094593 -10182061.74575237 -10182061.74575237 -13167595.20846177 0 0 0 0 0 110291154.254907 -9625973.895675573 -9625973.895675573 -12685169.89814486 0 0 0 0 0 111156242.1320202 -9951558.418067297 -9951558.418067297 -12929751.99854015 0 0 0 0 0 110562429.0517792 -9014516.472645026 -9014516.472645026 -12366821.34989635 0 0 0 0 0 110791579.640985 -8429647.626441173 -8429647.626441173 -12046831.30427907 0 0 0 0 0 110981455.2479684 -7871697.196395775 -7871697.196395775 -11726590.17008092 0 0 0 0 0 111135436.3405269 -7339063.653234863 -7339063.653234863 -11407131.27591055 0 0 0 0 0 111257965.5611747 -6831138.172685277 -6831138.172685277 -11089234.1108095 0 0 0 0 0 111573667.7658001 -6715632.653041297 -6715632.653041297 -10983479.50812696 0 0 0 0 0 110947522.8416639 -6044917.415803781 -6044917.415803781 -10398493.01512191 0 0 0 0 0 111631548.9039323 -6246504.568380497 -6246504.568380497 -10687139.00911014 0 0 0 0 0 111003788.3085879 -5613199.559552185 -5613199.559552185 -10101069.4347274 0 0 0 0 0 111037961.2567262 -5202497.189395318 -5202497.189395318 -9807986.193848798 0 0 0 0 0 111053305.126418 -4811364.037703388 -4811364.037703388 -9517248.713587919 0 0 0 0 0 111050066.7906132 -4440502.630425993 -4440502.630425993 -9231616.652101524 0 0 0 0 0 110639368.4902961 -4256103.75570718 -4256103.75570718 -8929032.372380352 0 0 0 0 0 111198514.8678016 -4393662.077427658 -4393662.077427658 -9211412.742365012 0 0 0 0 0 110618249.990874 -3924573.129696112 -3924573.129696112 -8662615.404298332 0 0 0 0 0 110584088.8137224 -3609746.475581948 -3609746.475581948 -8400930.957733808 0 0 0 0 0 110538083.7170863 -3310949.933434966 -3310949.933434966 -8144375.333371841 0 0 0 0 0 110481514.8600231 -3027457.133979008 -3027457.133979008 -7892989.020358545 0 0 0 0 0 110415443.7833366 -2758555.132423767 -2758555.132423767 -7646921.946943376 0 0 0 0 0 110376109.9277269 -2504819.827659865 -2504819.827659865 -7447603.869357839 0 0 0 0 0 110340961.418114 -2503849.535961184 -2503849.535961184 -7405692.446826125 0 0 0 0 0 109958420.9017596 -2429863.686510754 -2429863.686510754 -7188425.540822042 0 0 0 0 0 109876720.0094512 -2203858.89723227 -2203858.89723227 -6964758.83384271 0 0 0 0 0 109790860.4245315 -1993088.758455876 -1993088.758455876 -6746331.31537383 0 0 0 0 0 109696957.7789512 -1797254.187888985 -1797254.187888985 -6540447.538882385 0 0 0 0 0 109595931.3088047 -1611967.083436866 -1611967.083436866 -6341601.971115421 0 0 0 0 0 109494627.1411971 -1428891.122408774 -1428891.122408774 -6141056.727328219 0 0 0 0 0 109480627.6077703 -1450373.364528166 -1450373.364528166 -6209065.76369979 0 0 0 0 0 109154697.6757044 -1406792.194198553 -1406792.194198553 -5981732.643923464 0 0 0 0 0 109059921.74959 -1239707.949048397 -1239707.949048397 -5793816.986204481 0 0 0 0 0 108962409.7400113 -1081725.437972026 -1081725.437972026 -5609681.993226706 0 0 0 0 0 108861606.7814603 -932251.2595658296 -932251.2595658296 -5431995.720621352 0 0 0 0 0 108830058.2458169 -960407.0792643377 -960407.0792643377 -5506466.182203941 0 0 0 0 0 108554614.6105745 -931572.9686465842 -931572.9686465842 -5300584.160417981 0 0 0 0 0 108457833.5243041 -795591.0126151721 -795591.0126151721 -5133323.641042796 0 0 0 0 0 108361934.869455 -666704.4472741912 -666704.4472741912 -4975531.327615845 0 0 0 0 0 108342196.2304672 -547085.9827531934 -547085.9827531934 -4803207.014694382 0 0 0 0 0 108134144.4766193 -439771.8770377195 -439771.8770377195 -4600978.903108671 0 0 0 0 0 108257763.2270568 -480805.9124764579 -480805.9124764579 -4695344.069446478 0 0 0 0 0 107995029.9121439 -392866.8082554659 -392866.8082554659 -4499551.049549368 0 0 0 0 0 108730857.8349905 -14748278.86123011 -14748278.86123011 -15531092.34852357 0 0 0 0 0 -1776880.063874042 -1255773.700622404 -1255773.700622404 -86497441.92053281 0 0 0 0 0 -3015462.339824486 124714.1399836617 124714.1399836617 -83374538.99843083 0 0 0 0 0 -2933079.530179034 1157244.197574957 1157244.197574957 -70462537.25987132 0 0 0 0 0 -2894397.383292501 798919.9131895513 798919.9131895513 -69061199.84416628 0 0 0 0 0 -1897319.530283759 -1189926.59385344 -1189926.59385344 -60984452.18317148 0 0 0 0 0 -416557.3175508926 -3225375.349227618 -3225375.349227618 -54064527.82557574 0 0 0 0 0 -1230585.576810341 -2137055.380003328 -2137055.380003328 -49370798.71649448 0 0 0 0 0 3843424.23598819 -9330383.293746416 -9330383.293746416 -40636965.84390996 0 0 0 0 0 6988929.074270458 -12155306.70863046 -12155306.70863046 -36197900.51134627 0 0 0 0 0 10673431.85920352 -15054419.22684297 -15054419.22684297 -32266498.06549868 0 0 0 0 0 14822246.89519155 -17962031.25861512 -17962031.25861512 -28896383.34717287 0 0 0 0 0 22638869.41868407 -22902882.253461 -22902882.253461 -23621394.46234531 0 0 0 0 0 16370547.62736619 -17344616.13810337 -17344616.13810337 -28185948.19067811 0 0 0 0 0 27529889.49401177 -25185894.60294017 -25185894.60294017 -21958984.69428297 0 0 0 0 0 32629860.30226713 -27207347.8070171 -27207347.8070171 -20683282.34053984 0 0 0 0 0 37859662.11672679 -28935856.97985195 -28935856.97985195 -19753604.90385555 0 0 0 0 0 43145338.49724931 -30351227.96522389 -30351227.96522389 -19111015.94715152 0 0 0 0 0 48419438.41023868 -31447688.97716177 -31447688.97716177 -18706584.47785304 0 0 0 0 0 53618310.14590605 -32227373.22484535 -32227373.22484535 -18489150.9144745 0 0 0 0 0 58695916.81291136 -32707839.86516183 -32707839.86516183 -18413610.67447251 0 0 0 0 0 63610699.28454721 -32908628.85333671 -32908628.85333671 -18439604.83543283 0 0 0 0 0 67568735.43433085 -31731353.49875019 -31731353.49875019 -18187111.09401706 0 0 0 0 0 69487040.51968803 -32596251.83700946 -32596251.83700946 -18247376.5251034 0 0 0 0 0 73730733.72462365 -32240898.38292785 -32240898.38292785 -18405045.54758892 0 0 0 0 0 77746771.33878253 -31704336.55858233 -31704336.55858233 -18563887.55316521 0 0 0 0 0 81519765.25879741 -31011420.87516658 -31011420.87516658 -18705254.47103002 0 0 0 0 0 85272751.33912554 -29756408.32791656 -29756408.32791656 -18515074.91341076 0 0 0 0 0 84984024.53326859 -29890723.57960926 -29890723.57960926 -18124362.71685514 0 0 0 0 0 88388662.81208377 -28837187.6584345 -28837187.6584345 -18602114.04155525 0 0 0 0 0 91274952.07407983 -27840001.68842718 -27840001.68842718 -18647157.26402839 0 0 0 0 0 93935740.39541277 -26782504.56775567 -26782504.56775567 -18647314.18491396 0 0 0 0 0 96376608.89255284 -25681732.8550439 -25681732.8550439 -18603521.56935547 0 0 0 0 0 98606843.61922339 -24551279.72823762 -24551279.72823762 -18514213.05293328 0 0 0 0 0 100635833.7432663 -23404369.25265477 -23404369.25265477 -18381698.95439616 0 0 0 0 0 102851710.2904757 -22626415.05565545 -22626415.05565545 -17774935.12073862 0 0 0 0 0 101922054.2665305 -22027548.57402828 -22027548.57402828 -17914740.18199461 0 0 0 0 0 103527530.0146626 -20919869.49319236 -20919869.49319236 -17719641.84828236 0 0 0 0 0 104977341.361633 -19824346.3345609 -19824346.3345609 -17490340.85016302 0 0 0 0 0 106276471.3662856 -18746927.68225543 -18746927.68225543 -17231189.79993646 0 0 0 0 0 107428760.602899 -17693602.73797208 -17693602.73797208 -16931336.88158867 0 0 0 0 0 108440543.4760786 -16672961.25156522 -16672961.25156522 -16616389.01281736 0 0 0 0 0 109725324.0461658 -16216155.77863393 -16216155.77863393 -16218930.91368597 0 0 0 0 0 108615016.4008472 -15684043.58954969 -15684043.58954969 -16087516.80417892 0 0 0 0 0 109410648.9169947 -14748754.06852331 -14748754.06852331 -15759476.604344 0 0 0 0 0 109794414.2633957 -14349730.36854259 -14349730.36854259 -15139146.54401432 0 0 0 0 0 110398741.9679097 -13510025.80314165 -13510025.80314165 -14852427.13165346 0 0 0 0 0 110266671.1956419 -12730043.6249437 -12730043.6249437 -14322343.60638141 0 0 0 0 0 109383465.1701846 -13066698.43475419 -13066698.43475419 -14667142.98075764 0 0 0 0 0 110730194.1493013 -11968854.91707125 -11968854.91707125 -14029226.54976844 0 0 0 0 0 111129064.3115395 -11236191.80069578 -11236191.80069578 -13726685.38166299 0 0 0 0 0 111469628.5683963 -10532655.75857568 -10532655.75857568 -13416402.90496063 0 0 0 0 0 111755962.9666965 -9858451.488849901 -9858451.488849901 -13100622.73419182 0 0 0 0 0 111407185.460803 -9320741.532926727 -9320741.532926727 -12625443.12888214 0 0 0 0 0 110860258.4358773 -9528437.581188966 -9528437.581188966 -12836297.43634627 0 0 0 0 0 111613320.4153211 -8716576.940650266 -8716576.940650266 -12317492.8579498 0 0 0 0 0 111779241.4772801 -8139440.541486053 -8139440.541486053 -12007676.08305623 0 0 0 0 0 111909660.1484992 -7589279.798882411 -7589279.798882411 -11696949.96078236 0 0 0 0 0 112007655.0201552 -7064448.240615206 -7064448.240615206 -11385504.61340796 0 0 0 0 0 112076236.0806661 -6564225.431493728 -6564225.431493728 -11074977.13933165 0 0 0 0 0 111350220.9738081 -6347495.357216028 -6347495.357216028 -10773555.10783813 0 0 0 0 0 111664648.8155283 -5800167.017439436 -5800167.017439436 -10393040.97491299 0 0 0 0 0 111415650.9894014 -5887541.548109225 -5887541.548109225 -10461319.2426925 0 0 0 0 0 111675759.6900128 -5375605.358159155 -5375605.358159155 -10101519.99679565 0 0 0 0 0 111668822.9953921 -4971387.527296311 -4971387.527296311 -9812103.125711273 0 0 0 0 0 111642985.1809856 -4588232.022561393 -4588232.022561393 -9527819.84475554 0 0 0 0 0 111601034.5880156 -4224654.589618152 -4224654.589618152 -9247352.591714941 0 0 0 0 0 111156813.1941313 -4051312.964355888 -4051312.964355888 -8944355.864057122 0 0 0 0 0 111030232.733657 -4088714.455477865 -4088714.455477865 -8951642.762771115 0 0 0 0 0 111102419.3552024 -3726264.919538014 -3726264.919538014 -8681475.612059291 0 0 0 0 0 111036660.5621451 -3417878.51755388 -3417878.51755388 -8423127.780632522 0 0 0 0 0 110960931.1041872 -3125355.195220959 -3125355.195220959 -8169375.888986088 0 0 0 0 0 110876269.0556005 -2847978.407919013 -2847978.407919013 -7920555.794700223 0 0 0 0 0 110783814.6116573 -2585058.988925391 -2585058.988925391 -7676727.033426084 0 0 0 0 0 110259962.8353485 -2263879.931089598 -2263879.931089598 -7168416.131376045 0 0 0 0 0 110683832.4841277 -2335756.504744694 -2335756.504744694 -7437924.862424851 0 0 0 0 0 110278210.8371222 -2273212.631579276 -2273212.631579276 -7224370.158344549 0 0 0 0 0 110174467.3702675 -2055702.655754477 -2055702.655754477 -7007663.307190361 0 0 0 0 0 110058264.5919075 -1852357.520768039 -1852357.520768039 -6795989.508392452 0 0 0 0 0 109947815.8316548 -1659537.10097479 -1659537.10097479 -6588160.494998205 0 0 0 0 0 109836346.2236699 -1473722.110111179 -1473722.110111179 -6380325.753267741 0 0 0 0 0 109722708.5058049 -1294823.054701618 -1294823.054701618 -6177711.712712242 0 0 0 0 0 109394222.2885566 -1253692.933099679 -1253692.933099679 -5944004.998309969 0 0 0 0 0 109372698.4567319 -1278512.417457381 -1278512.417457381 -6016756.500766068 0 0 0 0 0 109262737.8171275 -1116068.824886059 -1116068.824886059 -5829323.535958703 0 0 0 0 0 109149456.2115594 -962685.5611252295 -962685.5611252295 -5646864.059964597 0 0 0 0 0 109036795.4599021 -817632.1773467335 -817632.1773467335 -5468721.103815019 0 0 0 0 0 108758565.0350202 -790279.590829991 -790279.590829991 -5257758.679091991 0 0 0 0 0 108721695.9914465 -820853.513136028 -820853.513136028 -5335554.008309142 0 0 0 0 0 108613989.3856122 -688257.5699679761 -688257.5699679761 -5168904.760572019 0 0 0 0 0 108512610.4827132 -562680.7199152983 -562680.7199152983 -5007200.569846679 0 0 0 0 0 108369763.4938553 -463004.8706666416 -463004.8706666416 -4866443.302996401 0 0 0 0 0 108061011.0444662 -380536.6605786115 -380536.6605786115 -4699068.691799281 0 0 0 0 0 108202318.9141511 -421210.9356110652 -421210.9356110652 -4801950.60757896 0 0 0 0 0 107927111.6728683 -336385.3927462616 -336385.3927462616 -4591622.884547431 0 0 0 0 0 110493837.7001259 -14348626.43014316 -14348626.43014316 -15385512.74637885 0 0 0 0 0 -2514998.462913883 3037752.447204062 3037752.447204062 -101266532.3291673 0 0 0 0 0 806542.6113635589 2994755.737499953 2994755.737499953 -84243391.50788945 0 0 0 0 0 -3728481.309595942 4229745.642735456 4229745.642735456 -82302255.87063651 0 0 0 0 0 -2710503.974789981 2751556.217270126 2751556.217270126 -68626414.83765998 0 0 0 0 0 -3805443.848922444 4550116.606337739 4550116.606337739 -66070572.25045121 0 0 0 0 0 -2952965.791628001 2519560.291942253 2519560.291942253 -58438447.09827756 0 0 0 0 0 1565369.897271193 -5568431.42339992 -5568431.42339992 -47809599.23277756 0 0 0 0 0 1032815.550234434 -4817282.110204979 -4817282.110204979 -44363365.51735712 0 0 0 0 0 4289712.806402065 -7861831.063804964 -7861831.063804964 -39766776.38529748 0 0 0 0 0 8154524.824689445 -11050370.77011229 -11050370.77011229 -35590646.94712885 0 0 0 0 0 12628661.9065955 -14295785.54081997 -14295785.54081997 -31921243.03850689 0 0 0 0 0 21465132.59407274 -20121706.56845211 -20121706.56845211 -25793540.72764678 0 0 0 0 0 19402433.4245561 -20782337.82686706 -20782337.82686706 -26116157.32459183 0 0 0 0 0 26876262.35655719 -22678740.26906392 -22678740.26906392 -23822229.28275152 0 0 0 0 0 32500446.50781674 -24960523.90841936 -24960523.90841936 -22240685.74818981 0 0 0 0 0 38271875.57887387 -26936515.34451093 -26936515.34451093 -21011015.16875522 0 0 0 0 0 44075757.30073891 -28576490.99433913 -28576490.99433913 -20093810.32350351 0 0 0 0 0 49830630.56639257 -29869882.97993051 -29869882.97993051 -19442524.06075612 0 0 0 0 0 55455064.27795075 -30821986.5896097 -30821986.5896097 -19006377.44278774 0 0 0 0 0 60903495.54496105 -31450687.0916347 -31450687.0916347 -18740430.28717913 0 0 0 0 0 66130639.73426787 -31775122.07457234 -31775122.07457234 -18603101.44557736 0 0 0 0 0 68328280.16052295 -32853317.00886038 -32853317.00886038 -18534497.38642951 0 0 0 0 0 72254547.29472865 -31668053.40586095 -31668053.40586095 -18215765.16332877 0 0 0 0 0 76679229.06279476 -31386984.34750603 -31386984.34750603 -18284413.53763991 0 0 0 0 0 80817447.18538943 -30909034.38722719 -30909034.38722719 -18370872.43044442 0 0 0 0 0 84674043.6250791 -30268658.37025214 -30268658.37025214 -18459285.17748815 0 0 0 0 0 88369082.31714433 -29100913.05818986 -29100913.05818986 -18216454.70488907 0 0 0 0 0 85047064.41905935 -30188689.13612858 -30188689.13612858 -18824082.3166187 0 0 0 0 0 91491441.3845617 -28209912.46229801 -28209912.46229801 -18284433.4894652 0 0 0 0 0 94356236.90323985 -27236437.11423517 -27236437.11423517 -18318660.18308472 0 0 0 0 0 96972787.22511268 -26199920.32070191 -26199920.32070191 -18317529.88562471 0 0 0 0 0 99351772.1338388 -25115956.62037962 -25115956.62037962 -18276728.85424921 0 0 0 0 0 101502851.0707275 -24000125.23017021 -24000125.23017021 -18196344.38638596 0 0 0 0 0 103440930.1470552 -22866388.35756027 -22866388.35756027 -18076266.69928366 0 0 0 0 0 102474299.6205467 -22252044.0165512 -22252044.0165512 -18208707.79323884 0 0 0 0 0 104532374.5826336 -21525949.35883072 -21525949.35883072 -17631342.39438089 0 0 0 0 0 106038599.4043475 -20428208.46939859 -20428208.46939859 -17453111.17601296 0 0 0 0 0 107380203.1113996 -19342009.99237239 -19342009.99237239 -17242873.05789311 0 0 0 0 0 108568772.5783159 -18273476.68693049 -18273476.68693049 -17001971.70133664 0 0 0 0 0 109600511.9210464 -17239423.42664952 -17239423.42664952 -16748243.49238258 0 0 0 0 0 110492860.1907568 -16233865.35050945 -16233865.35050945 -16466649.78506429 0 0 0 0 0 109330672.6858555 -15692464.69258279 -15692464.69258279 -16300660.8278806 0 0 0 0 0 110524484.7454892 -15256720.62928809 -15256720.62928809 -15918964.23590294 0 0 0 0 0 111226019.558021 -14332205.33447163 -14332205.33447163 -15607875.71300664 0 0 0 0 0 109428819.5450641 -13873673.3607707 -13873673.3607707 -15208373.67810615 0 0 0 0 0 110041660.3243299 -13029500.14705457 -13029500.14705457 -14872334.50656234 0 0 0 0 0 109923756.5512849 -12275570.20038876 -12275570.20038876 -14341553.54923758 0 0 0 0 0 110927665.8953176 -12697883.16631238 -12697883.16631238 -14549744.23641028 0 0 0 0 0 110396420.3687507 -11513860.70541053 -11513860.70541053 -14006603.44170963 0 0 0 0 0 110805472.2799318 -10783055.06356066 -10783055.06356066 -13665208.11554719 0 0 0 0 0 111156320.5555396 -10082921.26448757 -10082921.26448757 -13319448.06090376 0 0 0 0 0 111454131.005961 -9412582.014130814 -9412582.014130814 -12970127.73881831 0 0 0 0 0 111121195.2048635 -8901931.052344011 -8901931.052344011 -12501573.99295087 0 0 0 0 0 111994111.7212379 -9212237.11028699 -9212237.11028699 -12778994.59878745 0 0 0 0 0 111339380.3476386 -8303396.305537849 -8303396.305537849 -12165035.91777009 0 0 0 0 0 111517651.8364032 -7733230.200200768 -7733230.200200768 -11829440.68882042 0 0 0 0 0 111658993.8040876 -7190418.862481326 -7190418.862481326 -11495350.93371392 0 0 0 0 0 111767047.5335852 -6673788.488793209 -6673788.488793209 -11163625.47944989 0 0 0 0 0 111846398.1572087 -6182444.614177211 -6182444.614177211 -10834637.31943983 0 0 0 0 0 112117623.6381281 -6088809.362183431 -6088809.362183431 -10766407.46954016 0 0 0 0 0 111458188.1761637 -5449698.497542283 -5449698.497542283 -10152260.0501878 0 0 0 0 0 112135614.3028171 -5636375.468835581 -5636375.468835581 -10459621.68025872 0 0 0 0 0 111478912.8507485 -5033860.11723787 -5033860.11723787 -9847428.590490226 0 0 0 0 0 111480255.4535694 -4638789.64837416 -4638789.64837416 -9546879.027824728 0 0 0 0 0 111464166.0772818 -4263870.981920756 -4263870.981920756 -9250657.923093544 0 0 0 0 0 111431272.2002411 -3909041.87595997 -3909041.87595997 -8960654.312816259 0 0 0 0 0 110996686.9150451 -3754498.604573928 -3754498.604573928 -8675951.471753821 0 0 0 0 0 111545729.3305852 -3879374.123608076 -3879374.123608076 -8970159.724126484 0 0 0 0 0 110950025.4787547 -3437677.605918575 -3437677.605918575 -8405749.760369433 0 0 0 0 0 110891761.9926083 -3137461.577782709 -3137461.577782709 -8141165.861698435 0 0 0 0 0 110823141.5463627 -2853015.384181492 -2853015.384181492 -7882375.395815238 0 0 0 0 0 110745375.8318218 -2583618.893066709 -2583618.893066709 -7629408.370721417 0 0 0 0 0 110659296.162661 -2328391.510865703 -2328391.510865703 -7382762.14380083 0 0 0 0 0 110577374.238496 -2099840.641238838 -2099840.641238838 -7203921.211830802 0 0 0 0 0 110565902.5776512 -2087385.501990447 -2087385.501990447 -7142080.911519622 0 0 0 0 0 110175917.8844818 -2035855.772709115 -2035855.772709115 -6936388.547344405 0 0 0 0 0 110066369.3688517 -1828642.85734954 -1828642.85734954 -6718753.108870273 0 0 0 0 0 109962777.9890708 -1634148.35147735 -1634148.35147735 -6505932.798485488 0 0 0 0 0 109852433.5182345 -1449767.203736081 -1449767.203736081 -6303917.584874308 0 0 0 0 0 109747820.304591 -1267107.92856852 -1267107.92856852 -6097673.702846326 0 0 0 0 0 109637198.2418549 -1093688.055162035 -1093688.055162035 -5896248.35910308 0 0 0 0 0 109606511.8552985 -1124201.503245934 -1124201.503245934 -5981262.486127993 0 0 0 0 0 109290806.7291269 -1087978.814622423 -1087978.814622423 -5751420.122848999 0 0 0 0 0 109183725.8750036 -931895.085194356 -931895.085194356 -5565534.11842718 0 0 0 0 0 109075931.0822923 -784258.58195552 -784258.58195552 -5382824.155888851 0 0 0 0 0 108963388.5200135 -645299.600096781 -645299.600096781 -5208785.829980823 0 0 0 0 0 108921884.7985649 -679134.0375226109 -679134.0375226109 -5293949.237325547 0 0 0 0 0 108654949.9150274 -655518.8150861147 -655518.8150861147 -5086982.169861883 0 0 0 0 0 108552798.5744527 -529528.187571881 -529528.187571881 -4921153.628578907 0 0 0 0 0 108460421.3896274 -413330.4311680159 -413330.4311680159 -4772612.747780297 0 0 0 0 0 108389871.0724691 -305706.8742805321 -305706.8742805321 -4592504.342399876 0 0 0 0 0 108279012.0598753 -259896.0817347172 -259896.0817347172 -4502983.864173809 0 0 0 0 0 108147620.1568941 -218819.8717371191 -218819.8717371191 -4403280.32327172 0 0 0 0 0 110115953.9484518 -13844262.40546658 -13844262.40546658 -15414417.47465409 0 0 0 0 0 -1947906.89533517 4927945.870341572 4927945.870341572 -97366131.95078541 0 0 0 0 0 -650108.1898755331 4663651.526315391 4663651.526315391 -81265584.69845602 0 0 0 0 0 -3388834.362404465 5627127.363261397 5627127.363261397 -80008329.81240079 0 0 0 0 0 -1088158.789337442 1054010.67628436 1054010.67628436 -64420111.29581507 0 0 0 0 0 -1885217.035810736 3167383.953402716 3167383.953402716 -68067471.12859467 0 0 0 0 0 -367878.1869933594 -1160418.043807391 -1160418.043807391 -55471621.24606624 0 0 0 0 0 -1292541.53829833 -165470.1257757315 -165470.1257757315 -52103685.38256305 0 0 0 0 0 4234367.242648521 -8482291.881101651 -8482291.881101651 -42100108.39246308 0 0 0 0 0 7651718.984744343 -11552380.80743854 -11552380.80743854 -36984483.83783482 0 0 0 0 0 11581635.09524516 -14755960.07730429 -14755960.07730429 -32568058.22618267 0 0 0 0 0 16022491.99483411 -17968627.44202756 -17968627.44202756 -28939055.15249186 0 0 0 0 0 24342228.77042539 -23402630.41959541 -23402630.41959541 -23876710.77881475 0 0 0 0 0 17695410.36352777 -17461623.65539028 -17461623.65539028 -28782889.6432192 0 0 0 0 0 29554637.71013064 -25758569.82106902 -25758569.82106902 -22129094.70994898 0 0 0 0 0 34957113.54662829 -27810046.87298657 -27810046.87298657 -20814397.83330506 0 0 0 0 0 40465950.20826373 -29528383.77406977 -29528383.77406977 -19881315.00610611 0 0 0 0 0 45998209.43154593 -30894028.844264 -30894028.844264 -19259650.50923097 0 0 0 0 0 51472962.16549614 -31904874.26399596 -31904874.26399596 -18880978.19425916 0 0 0 0 0 56833637.53167393 -32578304.33236075 -32578304.33236075 -18691269.22501767 0 0 0 0 0 62031958.21547667 -32936800.53299244 -32936800.53299244 -18641279.40834928 0 0 0 0 0 67028438.24024975 -33004135.5990709 -33004135.5990709 -18688157.24943401 0 0 0 0 0 71112701.49080522 -31825438.33082512 -31825438.33082512 -18558855.02578687 0 0 0 0 0 72821408.08497776 -32565488.1460605 -32565488.1460605 -18662746.27068127 0 0 0 0 0 77069430.12281683 -32075698.28694185 -32075698.28694185 -18801254.94694243 0 0 0 0 0 81057616.94612388 -31406001.04734057 -31406001.04734057 -18930910.30521717 0 0 0 0 0 84779387.83633405 -30590570.67270264 -30590570.67270264 -19042457.98125914 0 0 0 0 0 88328628.5817505 -29256492.58898045 -29256492.58898045 -18904236.78859729 0 0 0 0 0 88248810.69176044 -29484393.85696109 -29484393.85696109 -18531596.62249376 0 0 0 0 0 91361558.33089668 -28236367.32864802 -28236367.32864802 -18941266.59325086 0 0 0 0 0 94151870.01105763 -27149960.77498565 -27149960.77498565 -18934842.83472836 0 0 0 0 0 96706092.55953175 -26014301.40038159 -26014301.40038159 -18883385.64467414 0 0 0 0 0 99034025.14251521 -24844486.95247496 -24844486.95247496 -18785644.77147376 0 0 0 0 0 101145403.772099 -23656271.18008883 -23656271.18008883 -18642176.55656447 0 0 0 0 0 103052829.5517133 -22462025.08722624 -22462025.08722624 -18457245.52477335 0 0 0 0 0 105180526.9203587 -21726428.86188892 -21726428.86188892 -17918539.95101202 0 0 0 0 0 104133914.5088668 -21103086.21434868 -21103086.21434868 -17998427.27510846 0 0 0 0 0 105625814.2648574 -19965637.43189169 -19965637.43189169 -17752584.16155351 0 0 0 0 0 106958495.9050423 -18846701.29192365 -18846701.29192365 -17475111.78826636 0 0 0 0 0 108145133.023307 -17753079.51515378 -17753079.51515378 -17167968.71981124 0 0 0 0 0 109192878.5175634 -16687664.228082 -16687664.228082 -16825156.56381177 0 0 0 0 0 110096116.6710626 -15664443.46601798 -15664443.46601798 -16465341.59319692 0 0 0 0 0 111281478.1280026 -15253429.93000391 -15253429.93000391 -16137315.89613536 0 0 0 0 0 110124534.7031482 -14731746.7172944 -14731746.7172944 -15959875.29495978 0 0 0 0 0 110830796.8973112 -13797247.63135968 -13797247.63135968 -15596863.04002699 0 0 0 0 0 111098100.3385074 -13481924.40202684 -13481924.40202684 -15079137.8325481 0 0 0 0 0 111619186.5552162 -12647338.40504723 -12647338.40504723 -14760534.78415653 0 0 0 0 0 111385008.2599726 -11914501.68087296 -11914501.68087296 -14237371.83102608 0 0 0 0 0 110575708.7396383 -12216633.02932451 -12216633.02932451 -14529413.56459206 0 0 0 0 0 111775627.1226216 -11161329.74669793 -11161329.74669793 -13916457.72874229 0 0 0 0 0 112105164.7494772 -10439102.32293248 -10439102.32293248 -13588256.85645833 0 0 0 0 0 112380442.7380076 -9747584.178042481 -9747584.178042481 -13254214.17758471 0 0 0 0 0 112605397.1727234 -9085473.131009366 -9085473.131009366 -12915603.03220997 0 0 0 0 0 112188350.3244795 -8593592.958238048 -8593592.958238048 -12454271.36698557 0 0 0 0 0 111703631.6862543 -8771520.09003293 -8771520.09003293 -12618594.24158002 0 0 0 0 0 112340876.7140984 -8003714.708295525 -8003714.708295525 -12128749.56820096 0 0 0 0 0 112456471.6791728 -7442145.073379511 -7442145.073379511 -11802789.55035864 0 0 0 0 0 112539182.3456462 -6907973.725975961 -6907973.725975961 -11477069.77862868 0 0 0 0 0 112592183.4307672 -6399741.825024418 -6399741.825024418 -11152549.05974386 0 0 0 0 0 112618178.1045518 -5916726.299164934 -5916726.299164934 -10830670.01096738 0 0 0 0 0 111898691.3043865 -5715558.957047869 -5715558.957047869 -10509265.07915768 0 0 0 0 0 112132340.1043537 -5206197.841941838 -5206197.841941838 -10156088.88217787 0 0 0 0 0 111926031.6458681 -5272442.443278602 -5272442.443278602 -10188419.78028407 0 0 0 0 0 112109502.5471121 -4797652.03349881 -4797652.03349881 -9855927.638620472 0 0 0 0 0 112069735.7384013 -4410196.673878659 -4410196.673878659 -9559955.94636251 0 0 0 0 0 112013556.4824449 -4043219.959849456 -4043219.959849456 -9269312.611730818 0 0 0 0 0 111943779.03079 -3695762.77628466 -3695762.77628466 -8983087.929844605 0 0 0 0 0 111477871.94962 -3552151.460499669 -3552151.460499669 -8698322.983146174 0 0 0 0 0 111384019.9300391 -3572770.55163904 -3572770.55163904 -8676248.765151242 0 0 0 0 0 111398880.9745824 -3242117.552532541 -3242117.552532541 -8431319.420979585 0 0 0 0 0 111310151.0411207 -2948515.706612419 -2948515.706612419 -8169477.22040996 0 0 0 0 0 111212942.2733369 -2670582.210025668 -2670582.210025668 -7913032.085792564 0 0 0 0 0 111108048.7723929 -2407570.316615112 -2407570.316615112 -7662212.810457223 0 0 0 0 0 110996824.0941267 -2158884.376559561 -2158884.376559561 -7417186.828990513 0 0 0 0 0 110465643.4790045 -1867113.917444029 -1867113.917444029 -6900324.104373378 0 0 0 0 0 110876725.572955 -1925551.989000478 -1925551.989000478 -7180276.912686494 0 0 0 0 0 110468248.187385 -1887588.175747249 -1887588.175747249 -6987471.211160572 0 0 0 0 0 110342223.0475728 -1685851.956933231 -1685851.956933231 -6767319.524024572 0 0 0 0 0 110209862.863902 -1495321.097028166 -1495321.097028166 -6555766.320854382 0 0 0 0 0 110091685.763926 -1309179.427444024 -1309179.427444024 -6343332.525822381 0 0 0 0 0 109967926.3296497 -1131432.508618528 -1131432.508618528 -6137564.833693168 0 0 0 0 0 109841130.2236424 -963445.9743899404 -963445.9743899404 -5936581.322563523 0 0 0 0 0 109524242.3982871 -929916.0331772602 -929916.0331772602 -5700420.012448817 0 0 0 0 0 109486232.7521231 -964078.7409334154 -964078.7409334154 -5790832.92593227 0 0 0 0 0 109366301.4334689 -812249.2828799979 -812249.2828799979 -5603841.015303524 0 0 0 0 0 109241889.8790042 -670155.4576177814 -670155.4576177814 -5423936.335144615 0 0 0 0 0 109121471.7859731 -534235.8167263756 -534235.8167263756 -5245987.270798176 0 0 0 0 0 108851601.5839296 -511760.2439037883 -511760.2439037883 -5036013.447715594 0 0 0 0 0 108805559.2773431 -547272.4865715384 -547272.4865715384 -5123362.893969276 0 0 0 0 0 108689038.0403152 -424486.2899102663 -424486.2899102663 -4958030.825326228 0 0 0 0 0 108578487.405963 -318444.3309438268 -318444.3309438268 -4807849.238782031 0 0 0 0 0 108402633.2879146 -242014.6791739838 -242014.6791739838 -4687326.945177224 0 0 0 0 0 108217240.1352234 -198523.6615601478 -198523.6615601478 -4603071.690036996 0 0 0 0 0 108071245.8271492 -161633.2741968832 -161633.2741968832 -4495837.262249568 0 0 0 0 0 111826914.3035378 -13437580.48409482 -13437580.48409482 -15284637.1516268 0 0 0 0 0 -2738630.973151276 7316447.880861146 7316447.880861146 -96227425.92305492 0 0 0 0 0 -1309806.171683751 7035019.472075552 7035019.472075552 -78808772.73996873 0 0 0 0 0 -3046806.426282289 6135834.515583224 6135834.515583224 -65484593.62310605 0 0 0 0 0 -2940645.383731914 6939404.447843868 6939404.447843868 -78478465.52578855 0 0 0 0 0 -2395518.509748559 4747520.825444609 4747520.825444609 -61535843.75786657 0 0 0 0 0 1686171.932476633 -4060249.181247927 -4060249.181247927 -48799711.77526349 0 0 0 0 0 1328486.101840539 -3421765.007878525 -3421765.007878525 -46214090.92786804 0 0 0 0 0 4579222.300364651 -6766231.564808711 -6766231.564808711 -40971613.12400178 0 0 0 0 0 8650083.342908839 -10351823.25911525 -10351823.25911525 -36272085.48225123 0 0 0 0 0 13651262.71762446 -14000153.64349666 -14000153.64349666 -32207167.13746918 0 0 0 0 0 23194103.96013232 -20426823.03678371 -20426823.03678371 -26173732.63684879 0 0 0 0 0 20961849.22941898 -20998510.83713257 -20998510.83713257 -25970330.54061404 0 0 0 0 0 28988633.99012555 -23110872.01685064 -23110872.01685064 -24065888.47216593 0 0 0 0 0 34967883.98352563 -25466146.83878366 -25466146.83878366 -22402688.93988283 0 0 0 0 0 41074435.44020887 -27464937.29145273 -27464937.29145273 -21136310.1132069 0 0 0 0 0 47168421.97318737 -29079622.75563452 -29079622.75563452 -20213057.4339222 0 0 0 0 0 53136561.28596704 -30304637.8514146 -30304637.8514146 -19571355.20092688 0 0 0 0 0 58928360.44009167 -31161992.85686821 -31161992.85686821 -19153654.31342774 0 0 0 0 0 64495376.2199825 -31675675.57024344 -31675675.57024344 -18906818.02856309 0 0 0 0 0 69796972.77896382 -31870845.74263579 -31870845.74263579 -18784564.72075655 0 0 0 0 0 71791746.89809452 -32810359.855036 -32810359.855036 -18791822.08421423 0 0 0 0 0 75818333.69148433 -31627323.10913594 -31627323.10913594 -18578919.77054187 0 0 0 0 0 80223784.65999824 -31211360.34630604 -31211360.34630604 -18632652.0572241 0 0 0 0 0 84310081.71006367 -30606585.48708615 -30606585.48708615 -18702001.31679232 0 0 0 0 0 88089225.70796053 -29839298.18293961 -29839298.18293961 -18764438.54868823 0 0 0 0 0 91543483.71846148 -28586199.2794239 -28586199.2794239 -18585518.52586862 0 0 0 0 0 88239326.03221789 -29651437.13756732 -29651437.13756732 -19122961.96313401 0 0 0 0 0 94560244.63189335 -27595933.20860561 -27595933.20860561 -18611090.09469843 0 0 0 0 0 97305360.30084209 -26533720.72526253 -26533720.72526253 -18600117.51343586 0 0 0 0 0 99796950.29750185 -25418457.20585452 -25418457.20585452 -18549617.51933791 0 0 0 0 0 102042211.3709167 -24266448.32079593 -24266448.32079593 -18459230.79703248 0 0 0 0 0 104055296.8495999 -23093618.85329404 -23093618.85329404 -18328793.61054611 0 0 0 0 0 105857408.0587934 -21913128.18934692 -21913128.18934692 -18158780.47926618 0 0 0 0 0 104769748.5746255 -21271360.25215949 -21271360.25215949 -18233485.05728737 0 0 0 0 0 106734921.2890171 -20589136.80638164 -20589136.80638164 -17725375.9040979 0 0 0 0 0 108113241.1313413 -19462842.40437802 -19462842.40437802 -17499167.80284055 0 0 0 0 0 109329712.6223812 -18355125.33644253 -18355125.33644253 -17241918.21172448 0 0 0 0 0 110393294.8422979 -17271976.58498217 -17271976.58498217 -16957204.80408384 0 0 0 0 0 111310657.8644294 -16226351.85352283 -16226351.85352283 -16659848.80868461 0 0 0 0 0 112088879.8227639 -15223874.43801695 -15223874.43801695 -16349597.66870216 0 0 0 0 0 110877343.9411714 -14691294.34883272 -14691294.34883272 -16133446.44472573 0 0 0 0 0 111985544.4611916 -14299090.96859284 -14299090.96859284 -15809075.06849266 0 0 0 0 0 112587450.8184087 -13375095.83882741 -13375095.83882741 -15463270.9884633 0 0 0 0 0 110728123.5685839 -12974242.61210449 -12974242.61210449 -15058989.46589635 0 0 0 0 0 111259418.6377423 -12137689.67622631 -12137689.67622631 -14694188.8797312 0 0 0 0 0 111041629.0554415 -11434092.44403486 -11434092.44403486 -14176004.48540597 0 0 0 0 0 112068041.1345712 -11842197.21254861 -11842197.21254861 -14427747.15889045 0 0 0 0 0 111442545.6903357 -10683775.34349201 -10683775.34349201 -13816435.13126872 0 0 0 0 0 111783548.1900741 -9966035.395698547 -9966035.395698547 -13452455.7727286 0 0 0 0 0 112069667.7858301 -9279337.249363469 -9279337.249363469 -13085982.70554489 0 0 0 0 0 112306694.385426 -8624171.632034525 -8624171.632034525 -12717450.66848668 0 0 0 0 0 111908416.2297742 -8160659.871766736 -8160659.871766736 -12266919.48561012 0 0 0 0 0 112784663.1931353 -8453589.073460598 -8453589.073460598 -12574830.52840533 0 0 0 0 0 112073293.7912274 -7578775.016149425 -7578775.016149425 -11915522.98937857 0 0 0 0 0 112200712.9671885 -7025927.616255671 -7025927.616255671 -11566408.03469257 0 0 0 0 0 112294250.7590857 -6500937.240474422 -6500937.240474422 -11220955.6548061 0 0 0 0 0 112358126.4797642 -6002097.414462711 -6002097.414462711 -10878906.86582126 0 0 0 0 0 112394999.4381436 -5528825.639736924 -5528825.639736924 -10540989.79325887 0 0 0 0 0 112619924.1190034 -5458208.698713248 -5458208.698713248 -10511732.7852606 0 0 0 0 0 111931996.5562957 -4851840.991317417 -4851840.991317417 -9872588.942802049 0 0 0 0 0 112600224.2354864 -5023311.980707531 -5023311.980707531 -10196142.97720493 0 0 0 0 0 111919211.0359614 -4452780.228549864 -4452780.228549864 -9561155.959332818 0 0 0 0 0 111888349.2936287 -4074707.148316865 -4074707.148316865 -9255150.813103627 0 0 0 0 0 111841193.6016103 -3717407.069129439 -3717407.069129439 -8955495.047877235 0 0 0 0 0 111779833.9087353 -3379409.680193319 -3379409.680193319 -8662461.462088132 0 0 0 0 0 111324281.7859591 -3254307.052848573 -3254307.052848573 -8397529.592309469 0 0 0 0 0 111861484.2980905 -3366701.530783624 -3366701.530783624 -8701853.550788777 0 0 0 0 0 111253018.0495815 -2953039.108817629 -2953039.108817629 -8124951.431066272 0 0 0 0 0 111171727.8679899 -2668100.049732421 -2668100.049732421 -7858654.431106144 0 0 0 0 0 111081508.3605622 -2398652.371596899 -2398652.371596899 -7598833.039446847 0 0 0 0 0 110983527.4953683 -2144017.89801883 -2144017.89801883 -7345154.992082225 0 0 0 0 0 110879055.6842236 -1903666.803407376 -1903666.803407376 -7098047.820946348 0 0 0 0 0 110735802.6155367 -1711601.813132904 -1711601.813132904 -6955085.287106338 0 0 0 0 0 110771588.1088013 -1676333.593234709 -1676333.593234709 -6858298.99203026 0 0 0 0 0 110351042.0475272 -1661098.505595365 -1661098.505595365 -6683046.183188661 0 0 0 0 0 110230768.3733568 -1465846.635899664 -1465846.635899664 -6464100.038368697 0 0 0 0 0 110119853.9060689 -1278193.375465848 -1278193.375465848 -6253408.878998947 0 0 0 0 0 110001388.7745195 -1097915.397754123 -1097915.397754123 -6043963.911099248 0 0 0 0 0 109883021.5986964 -926303.5885563877 -926303.5885563877 -5838255.292191106 0 0 0 0 0 109762208.2646043 -764099.2704097586 -764099.2704097586 -5637925.440448134 0 0 0 0 0 109712164.6431769 -805492.6341999023 -805492.6341999023 -5742728.725283124 0 0 0 0 0 109408604.5617962 -776205.5414110885 -776205.5414110885 -5510862.8502639 0 0 0 0 0 109290236.1071136 -631226.6181115537 -631226.6181115537 -5326723.933674077 0 0 0 0 0 109172916.7523982 -494037.222096083 -494037.222096083 -5147486.249615698 0 0 0 0 0 109050766.1543277 -364475.3090172264 -364475.3090172264 -4976761.582190705 0 0 0 0 0 108999456.4036254 -403734.4723395629 -403734.4723395629 -5072350.179040855 0 0 0 0 0 108740670.4568429 -386089.9021319556 -386089.9021319556 -4865042.282666652 0 0 0 0 0 108638056.0605422 -272650.7759000574 -272650.7759000574 -4695043.629377945 0 0 0 0 0 108517668.9338352 -173330.3653534389 -173330.3653534389 -4549785.236029783 0 0 0 0 0 108441974.4772194 -70368.35210381854 -70368.35210381854 -4391538.794965253 0 0 0 0 0 108303280.1525802 -33303.20141056512 -33303.20141056512 -4290403.140335343 0 0 0 0 0 111445623.6245486 -12899461.37847413 -12899461.37847413 -15220868.00862229 0 0 0 0 0 -3023832.52468745 10197718.44296851 10197718.44296851 -92584239.18645822 0 0 0 0 0 -2654905.296159603 7422733.192812479 7422733.192812479 -72924582.94012836 0 0 0 0 0 -1850294.309712496 9631541.756024284 9631541.756024284 -76899737.76623309 0 0 0 0 0 152875.4245633192 1023372.99883869 1023372.99883869 -55787399.72631668 0 0 0 0 0 -2173009.431958952 5373438.625200187 5373438.625200187 -60680570.07095668 0 0 0 0 0 -982342.5229964142 1697634.585891082 1697634.585891082 -52920233.80355022 0 0 0 0 0 4778425.467877705 -7141474.837910759 -7141474.837910759 -42625614.86808769 0 0 0 0 0 8365961.474496657 -10589347.21255843 -10589347.21255843 -36882823.53476644 0 0 0 0 0 12518316.93195865 -14296604.92317227 -14296604.92317227 -32128689.33154659 0 0 0 0 0 17373463.5211773 -17811648.34207385 -17811648.34207385 -28287034.05273484 0 0 0 0 0 26254026.79219482 -23766529.41011938 -23766529.41011938 -23640110.51925893 0 0 0 0 0 19160360.38627354 -17448595.10163202 -17448595.10163202 -28815823.99988829 0 0 0 0 0 31800212.32947791 -26215381.45852053 -26215381.45852053 -21864290.69517192 0 0 0 0 0 37528538.14033075 -28308740.87435311 -28308740.87435311 -20567118.79499772 0 0 0 0 0 43316245.44968665 -30015705.49615796 -30015705.49615796 -19687487.38571254 0 0 0 0 0 49085519.9990203 -31321247.4108722 -31321247.4108722 -19121652.64388333 0 0 0 0 0 54750767.655255 -32240412.18461661 -32240412.18461661 -18803206.92598961 0 0 0 0 0 60257779.39735596 -32800332.85458836 -32800332.85458836 -18668694.71252294 0 0 0 0 0 65556552.41479606 -33029377.3837385 -33029377.3837385 -18666601.94225696 0 0 0 0 0 70619424.31158677 -32957728.75336197 -32957728.75336197 -18747839.65031736 0 0 0 0 0 74816483.5599823 -31783386.28741203 -31783386.28741203 -18749959.43410688 0 0 0 0 0 76299993.52300228 -32381728.91740313 -32381728.91740313 -18915250.95659886 0 0 0 0 0 80525093.99495767 -31750100.95818605 -31750100.95818605 -19041430.34311022 0 0 0 0 0 84463838.98416306 -30955312.06171932 -30955312.06171932 -19154419.07115674 0 0 0 0 0 88114545.31198558 -30019317.44145574 -30019317.44145574 -19235896.65341411 0 0 0 0 0 91433683.27682066 -28613861.8710467 -28613861.8710467 -19160863.84638317 0 0 0 0 0 91565298.75070311 -28939437.32507435 -28939437.32507435 -18807495.83124737 0 0 0 0 0 94365987.03208755 -27499813.26040792 -27499813.26040792 -19151286.94492617 0 0 0 0 0 97042309.51830283 -26331694.23416656 -26331694.23416656 -19095956.15289391 0 0 0 0 0 99476673.67548077 -25123428.38125901 -25123428.38125901 -18992261.31825223 0 0 0 0 0 101677017.4946249 -23893431.53259882 -23893431.53259882 -18843550.84098013 0 0 0 0 0 103657162.6991736 -22657310.84966382 -22657310.84966382 -18650177.90661809 0 0 0 0 0 105434097.7231152 -21424703.69742034 -21424703.69742034 -18416299.36046647 0 0 0 0 0 107463939.9015505 -20735634.4057764 -20735634.4057764 -17952277.91390136 0 0 0 0 0 106307794.8136416 -20091472.02556306 -20091472.02556306 -17972989.98894148 0 0 0 0 0 107676507.5160293 -18931550.69126942 -18931550.69126942 -17678952.37776868 0 0 0 0 0 108887901.924864 -17797339.28195048 -17797339.28195048 -17356806.97445855 0 0 0 0 0 109954730.5122258 -16697733.18659553 -16697733.18659553 -17003431.16799682 0 0 0 0 0 110887707.3875208 -15642018.27187604 -15642018.27187604 -16633509.55278486 0 0 0 0 0 111681860.4333001 -14622858.29262211 -14622858.29262211 -16240067.85647313 0 0 0 0 0 112777890.7531706 -14237823.67429382 -14237823.67429382 -15972227.44920737 0 0 0 0 0 111578943.5820778 -13731219.34229915 -13731219.34229915 -15748026.25726008 0 0 0 0 0 112189465.4713462 -12806311.3127088 -12806311.3127088 -15353073.9288993 0 0 0 0 0 112342431.8226001 -12577537.44740647 -12577537.44740647 -14947146.53823804 0 0 0 0 0 112779861.6221829 -11751075.88102393 -11751075.88102393 -14598147.65600604 0 0 0 0 0 112448611.5016291 -11068976.04132072 -11068976.04132072 -14087953.57414307 0 0 0 0 0 111715275.5908468 -11335489.85517464 -11335489.85517464 -14323713.02133515 0 0 0 0 0 112766820.2800542 -10328043.87262503 -10328043.87262503 -13741489.02101224 0 0 0 0 0 113027629.056726 -9619540.702817943 -9619540.702817943 -13389907.85546319 0 0 0 0 0 113238152.1499218 -8941989.688885005 -8941989.688885005 -13034047.72866894 0 0 0 0 0 113401246.2684014 -8296730.620243569 -8296730.620243569 -12676813.70808201 0 0 0 0 0 112922207.6030496 -7851432.935373607 -7851432.935373607 -12232824.36801548 0 0 0 0 0 112498277.6811847 -8000643.411898706 -8000643.411898706 -12349918.80693481 0 0 0 0 0 113022244.2725563 -7279212.262217429 -7279212.262217429 -11892012.37860808 0 0 0 0 0 113087762.7177371 -6735858.004688645 -6735858.004688645 -11552437.9754325 0 0 0 0 0 113123464.5943278 -6219455.723364532 -6219455.723364532 -11213969.44220545 0 0 0 0 0 113132731.0375572 -5729731.999962675 -5729731.999962675 -10878640.98924305 0 0 0 0 0 113117424.8374597 -5265469.264374477 -5265469.264374477 -10547178.26502428 0 0 0 0 0 112407457.8151271 -5080419.238517744 -5080419.238517744 -10208022.92251625 0 0 0 0 0 112562314.4978486 -4610455.304002613 -4610455.304002613 -9884584.720891377 0 0 0 0 0 112397905.7423864 -4655690.734764745 -4655690.734764745 -9880955.067735011 0 0 0 0 0 112506364.3353174 -4219295.901282177 -4219295.901282177 -9578024.74678812 0 0 0 0 0 112434967.4743891 -3849732.91086382 -3849732.91086382 -9277155.663073713 0 0 0 0 0 112349791.3602472 -3500445.473783769 -3500445.473783769 -8981617.910274003 0 0 0 0 0 112253413.9374334 -3169710.276650555 -3169710.276650555 -8691198.010002051 0 0 0 0 0 111768560.9486527 -3055346.386692377 -3055346.386692377 -8426468.365156051 0 0 0 0 0 111706422.3026659 -3059567.9771916 -3059567.9771916 -8375329.01167103 0 0 0 0 0 111666046.3992148 -2760950.443425176 -2760950.443425176 -8156654.956304092 0 0 0 0 0 111555480.9755798 -2482841.527470061 -2482841.527470061 -7892688.992146324 0 0 0 0 0 111437902.2081668 -2220071.328213248 -2220071.328213248 -7634736.713931841 0 0 0 0 0 111313847.8657408 -1971860.396588395 -1971860.396588395 -7382959.377408997 0 0 0 0 0 111184614.4811742 -1737873.948538341 -1737873.948538341 -7137570.728966962 0 0 0 0 0 110667534.944125 -1464739.584473017 -1464739.584473017 -6605117.969759494 0 0 0 0 0 111050642.5463636 -1517243.790976913 -1517243.790976913 -6899643.285822988 0 0 0 0 0 110615145.8548643 -1518021.159351782 -1518021.159351782 -6739094.865723928 0 0 0 0 0 110482074.5644784 -1323708.724772521 -1323708.724772521 -6513206.979787215 0 0 0 0 0 110348921.184305 -1137272.848253312 -1137272.848253312 -6296686.451322043 0 0 0 0 0 110215600.9172645 -961292.6572870968 -961292.6572870968 -6085676.278733099 0 0 0 0 0 110079960.8764573 -794394.8501101091 -794394.8501101091 -5880778.580979929 0 0 0 0 0 109942864.2036062 -639008.4896455572 -639008.4896455572 -5683963.470559835 0 0 0 0 0 109636044.9925299 -613428.6364790428 -613428.6364790428 -5445887.110675451 0 0 0 0 0 109581626.7143167 -656739.5353698119 -656739.5353698119 -5553448.557971724 0 0 0 0 0 109450275.7123393 -516254.4598266933 -516254.4598266933 -5368577.799479996 0 0 0 0 0 109318365.6891062 -383944.3063849321 -383944.3063849321 -5190896.611730633 0 0 0 0 0 109190897.2285804 -256825.5586600496 -256825.5586600496 -5013608.97051459 0 0 0 0 0 108932433.1080624 -238261.2576690153 -238261.2576690153 -4809851.989251891 0 0 0 0 0 108876304.6749803 -277960.0918275397 -277960.0918275397 -4902479.812136675 0 0 0 0 0 108750278.7750994 -173954.4989942052 -173954.4989942052 -4752709.278959422 0 0 0 0 0 108665479.0200524 -57703.54078375599 -57703.54078375599 -4578082.843206478 0 0 0 0 0 108365454.907617 -21166.98034923362 -21166.98034923362 -4475083.468433503 0 0 0 0 0 108217128.5732504 17585.58443784793 17585.58443784793 -4373011.012390785 0 0 0 0 0 113097072.4164789 -12488495.18100356 -12488495.18100356 -15106496.30174037 0 0 0 0 0 -2580444.448277612 11395961.87426679 11395961.87426679 -70951610.10045192 0 0 0 0 0 -3412613.719211005 12553372.12601096 12553372.12601096 -87534939.46350244 0 0 0 0 0 -2785511.288321429 7148041.692716018 7148041.692716018 -58724975.26787905 0 0 0 0 0 -2026199.651266755 7552854.281464584 7552854.281464584 -68403797.44942322 0 0 0 0 0 2001050.163923657 -1973162.782521177 -1973162.782521177 -48773202.5984656 0 0 0 0 0 1492988.346850479 -1625983.912645436 -1625983.912645436 -46998394.00742774 0 0 0 0 0 4463824.225633625 -5354420.027393314 -5354420.027393314 -41336473.67258569 0 0 0 0 0 9264909.008243851 -9529869.604441704 -9529869.604441704 -36151380.41589247 0 0 0 0 0 14780413.43651613 -13585971.15315197 -13585971.15315197 -31782598.18562305 0 0 0 0 0 25105367.05240399 -20637133.81566181 -20637133.81566181 -26042662.80812399 0 0 0 0 0 22695366.23552845 -21090245.7064089 -21090245.7064089 -25184070.72660032 0 0 0 0 0 31310337.05082883 -23467271.64730298 -23467271.64730298 -23850811.4147229 0 0 0 0 0 37666417.66055434 -25906308.34504008 -25906308.34504008 -22163069.78796101 0 0 0 0 0 44132808.12144271 -27926680.00594116 -27926680.00594116 -20908835.83381429 0 0 0 0 0 50494915.18865838 -29497895.63311312 -29497895.63311312 -20024518.0509256 0 0 0 0 0 56671757.19684447 -30646262.80434945 -30646262.80434945 -19428281.14197567 0 0 0 0 0 62613204.50365406 -31398984.03326874 -31398984.03326874 -19058416.05972116 0 0 0 0 0 68275031.07527086 -31784297.13008578 -31784297.13008578 -18852820.88842475 0 0 0 0 0 73636465.60319136 -31842251.20004954 -31842251.20004954 -18765883.445036 0 0 0 0 0 75411042.15555997 -32616288.48180491 -32616288.48180491 -18870300.21200289 0 0 0 0 0 79519390.68938863 -31450225.5225886 -31450225.5225886 -18776638.00116618 0 0 0 0 0 83866100.15613234 -30894212.98517492 -30894212.98517492 -18829695.04659224 0 0 0 0 0 87878232.53567551 -30156330.21981397 -30156330.21981397 -18882504.34215682 0 0 0 0 0 91560521.04723758 -29269625.52307742 -29269625.52307742 -18925579.38279761 0 0 0 0 0 94749930.78658104 -27936929.5076937 -27936929.5076937 -18825129.55593923 0 0 0 0 0 91481385.90353644 -28970892.47064012 -28970892.47064012 -19282138.56889233 0 0 0 0 0 97637270.44699046 -26851859.52181484 -26851859.52181484 -18809295.56666453 0 0 0 0 0 100246924.0828995 -25707730.78625173 -25707730.78625173 -18753748.49348389 0 0 0 0 0 102590795.7192142 -24519884.27389472 -24519884.27389472 -18657535.68119511 0 0 0 0 0 104693109.3151992 -23307889.25054331 -23307889.25054331 -18520221.24193734 0 0 0 0 0 106565910.6855269 -22087178.30143378 -22087178.30143378 -18341676.50465543 0 0 0 0 0 108226779.8266858 -20869128.76730226 -20869128.76730226 -18123925.2153082 0 0 0 0 0 107022602.2078999 -20201456.05027245 -20201456.05027245 -18141844.04626947 0 0 0 0 0 108882289.9487161 -19568856.23434618 -19568856.23434618 -17711850.84843911 0 0 0 0 0 110126304.3150648 -18421109.02791859 -18421109.02791859 -17439478.43801894 0 0 0 0 0 111215857.5388451 -17299417.32137348 -17299417.32137348 -17138139.18338219 0 0 0 0 0 112143541.1727452 -16216592.96573186 -16216592.96573186 -16819973.55143204 0 0 0 0 0 112939224.2331304 -15173873.38612739 -15173873.38612739 -16478914.84146598 0 0 0 0 0 113616693.8428461 -14169701.52807606 -14169701.52807606 -16122734.40232544 0 0 0 0 0 112368409.8997046 -13643652.42908752 -13643652.42908752 -15860818.84380161 0 0 0 0 0 113377915.2771204 -13294752.27965141 -13294752.27965141 -15611649.28932029 0 0 0 0 0 113881421.592625 -12382363.1209581 -12382363.1209581 -15236444.05166502 0 0 0 0 0 111971962.4437663 -12038990.69794459 -12038990.69794459 -14835330.49144839 0 0 0 0 0 112420291.8853681 -11215518.35818311 -11215518.35818311 -14444797.90809396 0 0 0 0 0 112106286.4343394 -10565996.78820596 -10565996.78820596 -13945953.76109956 0 0 0 0 0 113148288.9873282 -10958051.93092871 -10958051.93092871 -14238322.3063356 0 0 0 0 0 112436036.2554546 -9830137.83855423 -9830137.83855423 -13564406.3807719 0 0 0 0 0 112710557.3444238 -9127077.644608852 -9127077.644608852 -13179448.4074714 0 0 0 0 0 112932322.3337673 -8458413.092307353 -8458413.092307353 -12794975.42656624 0 0 0 0 0 113108834.8604442 -7822409.892880239 -7822409.892880239 -12410783.1107414 0 0 0 0 0 112647933.0001006 -7407902.619204818 -7407902.619204818 -11983337.70142514 0 0 0 0 0 113522408.0468138 -7682742.774547992 -7682742.774547992 -12318912.30764295 0 0 0 0 0 112760365.8970612 -6845094.690978377 -6845094.690978377 -11619654.49935875 0 0 0 0 0 112838984.7585829 -6311128.059815873 -6311128.059815873 -11259484.04880648 0 0 0 0 0 112886481.8428391 -5805380.508571839 -5805380.508571839 -10903787.96195635 0 0 0 0 0 112906585.6644434 -5326293.213333812 -5326293.213333812 -10553746.32313703 0 0 0 0 0 112901948.3095704 -4873304.763919056 -4873304.763919056 -10209524.22975791 0 0 0 0 0 113080732.8992958 -4825871.787042517 -4825871.787042517 -10219977.9238349 0 0 0 0 0 112368881.7867444 -4253249.081172109 -4253249.081172109 -9559804.283895554 0 0 0 0 0 113025186.063117 -4409538.450282197 -4409538.450282197 -9897204.73137996 0 0 0 0 0 112323554.7762156 -3872249.456470366 -3872249.456470366 -9243179.646864789 0 0 0 0 0 112260780.1436998 -3513206.677959298 -3513206.677959298 -8934571.600528555 0 0 0 0 0 112184306.7578977 -3174092.497906105 -3174092.497906105 -8633061.973379735 0 0 0 0 0 112095342.4658709 -2853832.77416375 -2853832.77416375 -8338235.360444786 0 0 0 0 0 111621783.5101276 -2757400.358172575 -2757400.358172575 -8094825.945218309 0 0 0 0 0 112145854.3377161 -2857443.922886384 -2857443.922886384 -8407053.543984115 0 0 0 0 0 111527083.5945593 -2472307.926200027 -2472307.926200027 -7821035.429258066 0 0 0 0 0 111423854.7111225 -2203240.7583539 -2203240.7583539 -7554293.875700407 0 0 0 0 0 111312926.261309 -1949384.702869101 -1949384.702869101 -7294837.807649594 0 0 0 0 0 111196076.5031562 -1709819.254425415 -1709819.254425415 -7041347.320120597 0 0 0 0 0 111073137.8990593 -1484226.688331403 -1484226.688331403 -6795906.207176582 0 0 0 0 0 110880815.7785895 -1327391.819109148 -1327391.819109148 -6693236.528650139 0 0 0 0 0 110946657.5925533 -1273297.018015826 -1273297.018015826 -6554913.33654908 0 0 0 0 0 110512895.2381039 -1288198.335978104 -1288198.335978104 -6413180.563069956 0 0 0 0 0 110383433.8246433 -1101498.341889135 -1101498.341889135 -6194579.747012926 0 0 0 0 0 110260170.6925429 -921319.2253932251 -921319.2253932251 -5979281.940225496 0 0 0 0 0 110131055.0114762 -751372.8959384337 -751372.8959384337 -5769618.610464001 0 0 0 0 0 110000405.4382558 -592566.8317123321 -592566.8317123321 -5566053.548646263 0 0 0 0 0 109864646.2039338 -444525.6295731623 -444525.6295731623 -5371207.112208528 0 0 0 0 0 109802035.643624 -493164.5534843331 -493164.5534843331 -5490874.692654324 0 0 0 0 0 109509985.591287 -470643.5728213523 -470643.5728213523 -5258466.641695395 0 0 0 0 0 109382630.1437289 -336206.2658193253 -336206.2658193253 -5076733.293029435 0 0 0 0 0 109255233.4477192 -209748.860073534 -209748.860073534 -4901250.257532355 0 0 0 0 0 109126152.1038965 -89464.05156122935 -89464.05156122935 -4730472.334129834 0 0 0 0 0 109061044.8514213 -137495.8661543449 -137495.8661543449 -4845360.664845198 0 0 0 0 0 108817568.9845394 -125724.9756480298 -125724.9756480298 -4638244.810904303 0 0 0 0 0 108693494.4227127 -34747.12715087002 -34747.12715087002 -4495914.117799979 0 0 0 0 0 108516679.8600813 15203.0741075116 15203.0741075116 -4482344.653648704 0 0 0 0 0 108639676.4922264 134246.3772411843 134246.3772411843 -4274246.432600125 0 0 0 0 0 108470755.5309859 151727.9896310047 151727.9896310047 -4164319.37618167 0 0 0 0 0 112713824.0119176 -11920527.93378898 -11920527.93378898 -14949464.59295103 0 0 0 0 0 -3703587.882446073 14310377.65972867 14310377.65972867 -81383674.39579527 0 0 0 0 0 -409578.3046532843 5314794.62108341 5314794.62108341 -59485100.56908027 0 0 0 0 0 -3010466.203055427 12785797.70022973 12785797.70022973 -66012406.54461412 0 0 0 0 0 -2075235.663549288 5173250.800336856 5173250.800336856 -53349370.02042566 0 0 0 0 0 5207746.840268111 -5344804.885185082 -5344804.885185082 -42058123.24333204 0 0 0 0 0 8918066.527225923 -9587803.375080116 -9587803.375080116 -36000095.47842278 0 0 0 0 0 13562523.26832365 -13669620.60764948 -13669620.60764948 -30787820.14756688 0 0 0 0 0 18842887.99485093 -17538568.95459642 -17538568.95459642 -26849506.7730809 0 0 0 0 0 28360014.70377187 -24037679.47364864 -24037679.47364864 -22858619.3856163 0 0 0 0 0 20727305.43223665 -17349891.02206052 -17349891.02206052 -28197023.73471478 0 0 0 0 0 34258463.98726436 -26595304.59840758 -26595304.59840758 -21126964.2969483 0 0 0 0 0 40319009.34867069 -28740271.41208236 -28740271.41208236 -19929950.64718967 0 0 0 0 0 46409173.03929728 -30417182.25738966 -30417182.25738966 -19152004.53917121 0 0 0 0 0 52404960.05616727 -31648004.04642358 -31648004.04642358 -18685055.69236978 0 0 0 0 0 58246240.53994222 -32467909.73246707 -32467909.73246707 -18463256.89550197 0 0 0 0 0 63880619.58599637 -32904651.25853899 -32904651.25853899 -18414562.85195021 0 0 0 0 0 69263097.29708447 -32992991.79228098 -32992991.79228098 -18484468.03419117 0 0 0 0 0 74372120.78192548 -32772304.70032848 -32772304.70032848 -18616021.98894009 0 0 0 0 0 78666879.86738119 -31613142.16839701 -31613142.16839701 -18762120.86718085 0 0 0 0 0 79908529.75291198 -32044169.50545166 -32044169.50545166 -18998370.26946308 0 0 0 0 0 84083773.1767244 -31280377.54009352 -31280377.54009352 -19122916.8891394 0 0 0 0 0 87948840.62857483 -30356220.85293502 -30356220.85293502 -19222153.00001941 0 0 0 0 0 91502461.05468248 -29301088.647895 -29301088.647895 -19281326.52990833 0 0 0 0 0 94569418.55708095 -27832720.55086208 -27832720.55086208 -19278158.14953747 0 0 0 0 0 94919385.30825379 -28259845.38900841 -28259845.38900841 -18940626.06866533 0 0 0 0 0 97379968.61335725 -26633010.93328467 -26633010.93328467 -19224548.15521851 0 0 0 0 0 99927264.00894538 -25390194.20803539 -25390194.20803539 -19119478.47099978 0 0 0 0 0 102221498.2953865 -24124384.93972763 -24124384.93972763 -18970566.49686582 0 0 0 0 0 104281859.0771094 -22843608.84935017 -22843608.84935017 -18777633.01831415 0 0 0 0 0 106126492.2400199 -21562565.94954652 -21562565.94954652 -18535794.5876318 0 0 0 0 0 107769768.3731766 -20294306.53003785 -20294306.53003785 -18251802.37268195 0 0 0 0 0 109683157.799201 -19659811.79411533 -19659811.79411533 -17872578.09827473 0 0 0 0 0 108429572.2753001 -18999129.97990367 -18999129.97990367 -17835040.36606672 0 0 0 0 0 109669321.3551265 -17825933.35350488 -17825933.35350488 -17497392.60223122 0 0 0 0 0 110759498.7046516 -16685670.79686813 -16685670.79686813 -17133166.56386339 0 0 0 0 0 111706828.0658982 -15586628.13128309 -15586628.13128309 -16737625.74282694 0 0 0 0 0 112511569.7013373 -14533452.12813717 -14533452.12813717 -16338927.69644912 0 0 0 0 0 113195705.88837 -13527513.17906392 -13527513.17906392 -15924936.2221027 0 0 0 0 0 114200306.7069521 -13194268.57978687 -13194268.57978687 -15728972.27935651 0 0 0 0 0 112967366.0355054 -12693944.41627812 -12693944.41627812 -15450963.17448341 0 0 0 0 0 113482465.2860937 -11782819.39249151 -11782819.39249151 -15028913.67658693 0 0 0 0 0 113523281.1215852 -11639642.4716356 -11639642.4716356 -14740500.15801181 0 0 0 0 0 113877242.108927 -10827402.77126355 -10827402.77126355 -14364819.18251243 0 0 0 0 0 113453559.9337688 -10198733.35710062 -10198733.35710062 -13873349.0325203 0 0 0 0 0 112797481.4866616 -10428358.56749945 -10428358.56749945 -14050435.18278619 0 0 0 0 0 113700973.6897817 -9472325.959611299 -9472325.959611299 -13503108.31947575 0 0 0 0 0 113893909.0018297 -8780348.837139819 -8780348.837139819 -13131201.91972351 0 0 0 0 0 114039371.8907605 -8121770.751148575 -8121770.751148575 -12757115.07344582 0 0 0 0 0 114141612.4253644 -7496601.678912219 -7496601.678912219 -12384405.46378246 0 0 0 0 0 113605080.5407834 -7100030.956257931 -7100030.956257931 -11962637.3960143 0 0 0 0 0 113242250.990695 -7219426.41476096 -7219426.41476096 -12030478.09556705 0 0 0 0 0 113653873.3238876 -6546838.034150907 -6546838.034150907 -11608100.83494672 0 0 0 0 0 113671562.9554572 -6022697.362656374 -6022697.362656374 -11256382.18510046 0 0 0 0 0 113661771.9926685 -5526576.503688334 -5526576.503688334 -10908220.53117157 0 0 0 0 0 113628397.9620719 -5057685.717234072 -5057685.717234072 -10564499.28423139 0 0 0 0 0 113573499.0821128 -4613769.525670934 -4613769.525670934 -10225279.63078287 0 0 0 0 0 112875903.8354018 -4444719.594313052 -4444719.594313052 -9871169.674726255 0 0 0 0 0 112954060.7259347 -4015178.215655706 -4015178.215655706 -9579398.957775006 0 0 0 0 0 112830425.0129705 -4039676.963136698 -4039676.963136698 -9539734.222888475 0 0 0 0 0 112865428.3925328 -3643751.004989126 -3643751.004989126 -9269273.646278918 0 0 0 0 0 112764021.8684253 -3292925.353558281 -3292925.353558281 -8964432.737815935 0 0 0 0 0 112651302.589589 -2961734.124278959 -2961734.124278959 -8665780.311278589 0 0 0 0 0 112528907.7741154 -2648978.213260707 -2648978.213260707 -8373209.892023899 0 0 0 0 0 112029189.4756512 -2562722.067099439 -2562722.067099439 -8129581.359033571 0 0 0 0 0 111996688.8208691 -2551305.936952861 -2551305.936952861 -8050126.827075345 0 0 0 0 0 111904168.0128641 -2284622.685345542 -2284622.685345542 -7858291.657493628 0 0 0 0 0 111772737.0882142 -2022521.732492134 -2022521.732492134 -7593675.281270967 0 0 0 0 0 111636144.8582489 -1775294.729643405 -1775294.729643405 -7335153.848668539 0 0 0 0 0 111493582.7795473 -1542464.234960017 -1542464.234960017 -7083822.255664007 0 0 0 0 0 111347518.2327319 -1323500.492083684 -1323500.492083684 -6839159.460263359 0 0 0 0 0 110823185.9734021 -1083031.567199339 -1083031.567199339 -6308656.440520739 0 0 0 0 0 111194832.1817286 -1119326.718927246 -1119326.718927246 -6603865.137384401 0 0 0 0 0 110751458.0321968 -1142430.293834542 -1142430.293834542 -6460366.389536866 0 0 0 0 0 110608920.0320282 -958162.113508049 -958162.113508049 -6238171.831586213 0 0 0 0 0 110465576.6088856 -783433.8217706266 -783433.8217706266 -6023903.958714895 0 0 0 0 0 110319769.5836538 -619081.9493159743 -619081.9493159743 -5814657.165667914 0 0 0 0 0 110170889.8443169 -466628.8152982073 -466628.8152982073 -5614291.503151066 0 0 0 0 0 110022774.6302839 -324239.6047185627 -324239.6047185627 -5419725.76658213 0 0 0 0 0 109729221.0313178 -304235.68925376 -304235.68925376 -5181152.183621649 0 0 0 0 0 109661550.0924049 -355106.4093325108 -355106.4093325108 -5303440.749837363 0 0 0 0 0 109521776.529726 -224619.5215174526 -224619.5215174526 -5120885.092391249 0 0 0 0 0 109382067.0949786 -102000.9599622207 -102000.9599622207 -4944675.367078639 0 0 0 0 0 109243837.5555287 13455.46758404458 13455.46758404458 -4771961.824513024 0 0 0 0 0 109000161.8804673 23725.84625565021 23725.84625565021 -4564629.405243948 0 0 0 0 0 108905557.0731648 -37030.20060967472 -37030.20060967472 -4696055.033847605 0 0 0 0 0 108718253.4637436 33194.14888052992 33194.14888052992 -4572033.81869231 0 0 0 0 0 108810429.7560477 170554.2679383914 170554.2679383914 -4319711.852679722 0 0 0 0 0 108493060.8608747 176020.3055774428 176020.3055774428 -4315497.301480518 0 0 0 0 0 108356865.0313088 204368.4312023978 204368.4312023978 -4248033.62783693 0 0 0 0 0 114297835.0777414 -11508084.46667054 -11508084.46667054 -14850977.54521277 0 0 0 0 0 -3361029.011833461 13118192.67181084 13118192.67181084 -58718389.90534154 0 0 0 0 0 -4061184.961106841 14950035.72745315 14950035.72745315 -74122422.63095258 0 0 0 0 0 1751034.530483287 1463309.017041926 1463309.017041926 -46758040.54445669 0 0 0 0 0 486260.3011850261 967635.1098537408 967635.1098537408 -47421319.83472671 0 0 0 0 0 4646482.697285869 -3909046.80228464 -3909046.80228464 -40611464.42324611 0 0 0 0 0 9986546.784550536 -8676119.888699207 -8676119.888699207 -35040022.13608125 0 0 0 0 0 15927794.22621081 -13127039.19813806 -13127039.19813806 -30511901.50784834 0 0 0 0 0 27199527.4134087 -20812539.62635038 -20812539.62635038 -25329681.06357974 0 0 0 0 0 24564684.31593088 -21122530.83212496 -21122530.83212496 -23671675.83539475 0 0 0 0 0 33822967.44291192 -23801956.86412876 -23801956.86412876 -23129077.25326272 0 0 0 0 0 40649355.86150928 -26325144.26399912 -26325144.26399912 -21487894.7664357 0 0 0 0 0 47468794.11115798 -28343129.0580891 -28343129.0580891 -20305906.40402289 0 0 0 0 0 54067668.931192 -29858512.82640826 -29858512.82640826 -19503129.88135778 0 0 0 0 0 60433201.15002985 -30914064.12715021 -30914064.12715021 -18997086.11183783 0 0 0 0 0 66503336.75649834 -31544957.26431224 -31544957.26431224 -18711103.6035943 0 0 0 0 0 72240436.01929548 -31790683.90637778 -31790683.90637778 -18576047.25584086 0 0 0 0 0 77621146.16847728 -31695069.85788748 -31695069.85788748 -18545633.75781096 0 0 0 0 0 79165643.01164062 -32280537.45879534 -32280537.45879534 -18762153.86230966 0 0 0 0 0 83313348.66161907 -31130986.89907071 -31130986.89907071 -18805366.93659763 0 0 0 0 0 87592006.73798908 -30437916.87817688 -30437916.87817688 -18860432.38004577 0 0 0 0 0 91504221.26773956 -29570820.64107502 -29570820.64107502 -18907981.23035914 0 0 0 0 0 95063122.59460475 -28560826.07575421 -28560826.07575421 -18932923.47267006 0 0 0 0 0 97963966.83571045 -27155199.57312798 -27155199.57312798 -18925426.99833844 0 0 0 0 0 94756337.02074076 -28147997.03748766 -28147997.03748766 -19292121.38685873 0 0 0 0 0 100704410.4047009 -25982869.88992324 -25982869.88992324 -18871249.75383052 0 0 0 0 0 103154326.6037009 -24764501.59417522 -24764501.59417522 -18777865.00801179 0 0 0 0 0 105342118.862698 -23517861.60853376 -23517861.60853376 -18637351.88078083 0 0 0 0 0 107301189.1993884 -22256765.02688569 -22256765.02688569 -18451690.3766391 0 0 0 0 0 109020338.3653002 -20990618.60692714 -20990618.60692714 -18227200.46672032 0 0 0 0 0 110521071.4053147 -19736727.74144397 -19736727.74144397 -17969850.64071892 0 0 0 0 0 109216479.2382104 -19051824.47926296 -19051824.47926296 -17931614.78900869 0 0 0 0 0 110961313.7227777 -18472013.82951689 -18472013.82951689 -17587147.25789583 0 0 0 0 0 112068659.6475953 -17311950.56654191 -17311950.56654191 -17271979.19695172 0 0 0 0 0 113024258.9457643 -16184879.59477548 -16184879.59477548 -16931482.38829156 0 0 0 0 0 113817717.2080098 -15107185.3731001 -15107185.3731001 -16582033.32060647 0 0 0 0 0 114488729.7470751 -14068064.04549081 -14068064.04549081 -16205323.74823982 0 0 0 0 0 115063037.8884965 -13074940.03680884 -13074940.03680884 -15809184.84632 0 0 0 0 0 113782676.0801593 -12559044.78231485 -12559044.78231485 -15509076.00588134 0 0 0 0 0 114696105.8795134 -12257376.33636544 -12257376.33636544 -15333392.62051529 0 0 0 0 0 115100935.9019074 -11359014.70915819 -11359014.70915819 -14929299.44291944 0 0 0 0 0 113154218.9751626 -11074448.19006267 -11074448.19006267 -14537662.43424889 0 0 0 0 0 113519857.0062472 -10268064.82255545 -10268064.82255545 -14125577.97721333 0 0 0 0 0 113113868.670984 -9675145.650719346 -9675145.650719346 -13651697.80693962 0 0 0 0 0 114165721.1636354 -10050017.20722955 -10050017.20722955 -13980973.71121419 0 0 0 0 0 113373996.7531625 -8956244.044705171 -8956244.044705171 -13249093.80596365 0 0 0 0 0 113581609.2857416 -8273113.140262408 -8273113.140262408 -12847860.59474746 0 0 0 0 0 113740823.0297147 -7625490.169760561 -7625490.169760561 -12448221.16493164 0 0 0 0 0 113857218.9520938 -7011808.565837262 -7011808.565837262 -12052598.89686925 0 0 0 0 0 113338873.6855072 -6646580.880217024 -6646580.880217024 -11651527.85110512 0 0 0 0 0 114206785.8952526 -6902723.197060856 -6902723.197060856 -12011416.20929343 0 0 0 0 0 113400428.1327149 -6104203.86214705 -6104203.86214705 -11276958.34088132 0 0 0 0 0 113430685.1349209 -5591741.66257022 -5591741.66257022 -10908847.37019808 0 0 0 0 0 113433436.1418594 -5107249.95380499 -5107249.95380499 -10544902.38420885 0 0 0 0 0 113409871.2710351 -4650774.820972008 -4650774.820972008 -10190850.50205596 0 0 0 0 0 113366321.3204059 -4218676.435034823 -4218676.435034823 -9841495.759656595 0 0 0 0 0 113499637.3257284 -4194313.215945554 -4194313.215945554 -9891951.935289426 0 0 0 0 0 112767418.1774389 -3657051.026295599 -3657051.026295599 -9214547.735061262 0 0 0 0 0 113409408.0401268 -3798220.84370577 -3798220.84370577 -9564416.564561853 0 0 0 0 0 112689995.5040678 -3296045.835305037 -3296045.835305037 -8896480.946460176 0 0 0 0 0 112597817.8759553 -2956062.878136697 -2956062.878136697 -8586029.873527111 0 0 0 0 0 112493543.632871 -2635745.564766452 -2635745.564766452 -8283991.301549414 0 0 0 0 0 112378970.4464497 -2333710.510559054 -2333710.510559054 -7988722.624045594 0 0 0 0 0 111888147.3498796 -2266201.007737482 -2266201.007737482 -7769531.839122348 0 0 0 0 0 112397506.7834329 -2354161.323512297 -2354161.323512297 -8087754.139778234 0 0 0 0 0 111771918.5305288 -1997363.567853522 -1997363.567853522 -7495365.961654739 0 0 0 0 0 111647623.5886991 -1744797.63074143 -1744797.63074143 -7229549.548544778 0 0 0 0 0 111517232.7291723 -1506774.454577432 -1506774.454577432 -6971274.741323081 0 0 0 0 0 111382631.9700169 -1282587.943730937 -1282587.943730937 -6718771.522633273 0 0 0 0 0 111243446.0042217 -1072486.119316035 -1072486.119316035 -6475188.962606734 0 0 0 0 0 111009342.5807889 -944040.0423745083 -944040.0423745083 -6405251.19254264 0 0 0 0 0 111101748.777465 -874960.6782603076 -874960.6782603076 -6238401.027850734 0 0 0 0 0 110657019.9961975 -914497.5815099442 -914497.5815099442 -6121255.034212226 0 0 0 0 0 110520948.6200186 -736318.5962408618 -736318.5962408618 -5901690.771123164 0 0 0 0 0 110382301.5359671 -569083.7263048931 -569083.7263048931 -5688921.639047339 0 0 0 0 0 110241910.6255995 -412473.0207689049 -412473.0207689049 -5481702.763471984 0 0 0 0 0 110099747.4634875 -266607.6113497082 -266607.6113497082 -5282784.696644994 0 0 0 0 0 109951585.7721332 -131359.3738844253 -131359.3738844253 -5092876.519879735 0 0 0 0 0 109874143.4392193 -188238.4266626307 -188238.4266626307 -5227923.91501476 0 0 0 0 0 109593233.1336759 -172525.4567939993 -172525.4567939993 -4996533.776673318 0 0 0 0 0 109457809.6171173 -47882.7434454187 -47882.7434454187 -4817148.879559305 0 0 0 0 0 109323318.4756584 69286.17169955297 69286.17169955297 -4642099.735935124 0 0 0 0 0 109187976.749931 179340.8811574764 179340.8811574764 -4472572.482066862 0 0 0 0 0 109105533.8454387 121620.3384719888 121620.3384719888 -4606439.925073027 0 0 0 0 0 108885815.0474723 132852.1184073098 132852.1184073098 -4389577.950438813 0 0 0 0 0 108666392.8119016 211157.1782262043 211157.1782262043 -4306238.934552383 0 0 0 0 0 108593954.7012728 335962.099116627 335962.099116627 -4036124.795947733 0 0 0 0 0 108776281.4045244 326048.4172809552 326048.4172809552 -4103024.985309595 0 0 0 0 0 113915133.8467792 -10912864.70986711 -10912864.70986711 -14599666.96832873 0 0 0 0 0 -4362079.455867286 14603525.81947608 14603525.81947608 -64989022.06047747 0 0 0 0 0 -1854622.843233377 7789057.235411182 7789057.235411182 -54534758.39575324 0 0 0 0 0 5094888.614361145 -3643743.890044468 -3643743.890044468 -40084949.88819911 0 0 0 0 0 9647127.858288862 -8401716.321878992 -8401716.321878992 -33612040.66141661 0 0 0 0 0 14661036.54867101 -12966806.05822008 -12966806.05822008 -28519055.02283413 0 0 0 0 0 20374934.70596407 -17284697.24715578 -17284697.24715578 -24579153.86590094 0 0 0 0 0 30647541.88013585 -24268029.22844253 -24268029.22844253 -21487286.06076594 0 0 0 0 0 22411180.64135772 -17241051.53026043 -17241051.53026043 -26856136.42130387 0 0 0 0 0 36910591.7436383 -26974293.32921102 -26974293.32921102 -19939887.20961692 0 0 0 0 0 43357469.22820947 -29114565.02391975 -29114565.02391975 -18892337.77106108 0 0 0 0 0 49724965.60330382 -30746755.95569334 -30746755.95569334 -18262002.09676487 0 0 0 0 0 55940006.42319964 -31902004.19143631 -31902004.19143631 -17952271.35144005 0 0 0 0 0 61947602.35684719 -32603732.94314981 -32603732.94314981 -17868235.78890672 0 0 0 0 0 67687989.05016682 -32900290.27487587 -32900290.27487587 -17936448.48456132 0 0 0 0 0 73135168.40635252 -32835322.22541027 -32835322.22541027 -18094952.18915143 0 0 0 0 0 78263575.90277767 -32458839.07827717 -32458839.07827717 -18289938.1273046 0 0 0 0 0 82619387.60569395 -31313745.44562785 -31313745.44562785 -18592236.91696965 0 0 0 0 0 83612195.97974105 -31566148.42321828 -31566148.42321828 -18916003.988632 0 0 0 0 0 87717642.27089198 -30663649.26224941 -30663649.26224941 -19042422.54423267 0 0 0 0 0 91484540.12533605 -29612724.28918827 -29612724.28918827 -19130486.61914716 0 0 0 0 0 94924540.90561402 -28446477.9040724 -28446477.9040724 -19168747.94597421 0 0 0 0 0 97714251.80099279 -26919342.40431604 -26919342.40431604 -19251595.86827313 0 0 0 0 0 98279342.89856669 -27444658.20464464 -27444658.20464464 -18927096.36156609 0 0 0 0 0 100387455.8890207 -25643996.60150973 -25643996.60150973 -19154781.48993861 0 0 0 0 0 102782881.1774683 -24338865.43318355 -24338865.43318355 -19008774.79944483 0 0 0 0 0 104921926.6046452 -23017423.73177072 -23017423.73177072 -18818208.1012362 0 0 0 0 0 106837412.7312664 -21686758.59588187 -21686758.59588187 -18583046.87356917 0 0 0 0 0 108545076.4967506 -20374578.32931131 -20374578.32931131 -18292245.90526275 0 0 0 0 0 110038427.295286 -19086585.05524532 -19086585.05524532 -17962553.01925309 0 0 0 0 0 111822514.8775077 -18510560.49852291 -18510560.49852291 -17677630.19647939 0 0 0 0 0 110484769.7193215 -17836998.30208334 -17836998.30208334 -17584842.29645138 0 0 0 0 0 111594928.9951019 -16656804.64892337 -16656804.64892337 -17206442.56408715 0 0 0 0 0 112556183.3844493 -15518299.72038077 -15518299.72038077 -16803675.30994385 0 0 0 0 0 113381620.2077731 -14424775.49258852 -14424775.49258852 -16372903.31138446 0 0 0 0 0 114055437.0685919 -13393957.32778127 -13393957.32778127 -15951349.07040222 0 0 0 0 0 114630783.626782 -12402445.02945122 -12402445.02945122 -15518542.71537437 0 0 0 0 0 115543257.4170641 -12110691.95263772 -12110691.95263772 -15390399.05484269 0 0 0 0 0 114284359.8769999 -11624695.34272504 -11624695.34272504 -15070401.89086113 0 0 0 0 0 114704410.0436423 -10731626.30304551 -10731626.30304551 -14624678.36076345 0 0 0 0 0 114635413.9299856 -10675869.90516879 -10675869.90516879 -14459623.63827816 0 0 0 0 0 114907771.5565745 -9879077.526896853 -9879077.526896853 -14058123.56758235 0 0 0 0 0 114396319.6218073 -9306799.066597903 -9306799.066597903 -13592583.11653692 0 0 0 0 0 113821362.674193 -9497253.809104694 -9497253.809104694 -13708320.80162741 0 0 0 0 0 114572115.7641698 -8599824.983380489 -8599824.983380489 -13203584.09716368 0 0 0 0 0 114699598.9698375 -7927930.396746621 -7927930.396746621 -12813197.8035775 0 0 0 0 0 114782628.5931361 -7291511.760912653 -7291511.760912653 -12424080.97589545 0 0 0 0 0 114827506.4464591 -6688232.923858486 -6688232.923858486 -12036875.92738414 0 0 0 0 0 114236887.6886379 -6340746.506369919 -6340746.506369919 -11642526.82493256 0 0 0 0 0 113935029.0927522 -6430143.743706366 -6430143.743706366 -11659797.45449086 0 0 0 0 0 114235189.9175305 -5809554.043699813 -5809554.043699813 -11277656.19405689 0 0 0 0 0 114206655.8981013 -5307156.477300616 -5307156.477300616 -10916253.53837526 0 0 0 0 0 114151812.1894358 -4834009.923700091 -4834009.923700091 -10561965.58653687 0 0 0 0 0 114078197.9496303 -4386453.116566386 -4386453.116566386 -10210413.26198496 0 0 0 0 0 113985434.5780462 -3964182.191972902 -3964182.191972902 -9866315.22194205 0 0 0 0 0 113303407.6136567 -3811232.647151426 -3811232.647151426 -9499683.313118001 0 0 0 0 0 113304673.4023663 -3424616.843567062 -3424616.843567062 -9243398.962664898 0 0 0 0 0 113223633.6334877 -3427087.928357574 -3427087.928357574 -9165483.974336101 0 0 0 0 0 113186426.3744951 -3072562.777305366 -3072562.777305366 -8929696.355560703 0 0 0 0 0 113056788.0077385 -2741313.561637748 -2741313.561637748 -8622985.212214777 0 0 0 0 0 112918393.6951351 -2428853.764964691 -2428853.764964691 -8322699.275697342 0 0 0 0 0 112771271.9768839 -2134780.548632879 -2134780.548632879 -8029965.401962005 0 0 0 0 0 112259070.113819 -2076160.535124117 -2076160.535124117 -7808858.216933735 0 0 0 0 0 112255582.3858011 -2049380.72113004 -2049380.72113004 -7701737.222828204 0 0 0 0 0 112113041.1827428 -1815069.143904002 -1815069.143904002 -7537835.243035613 0 0 0 0 0 111962150.6481011 -1569508.011840821 -1569508.011840821 -7273359.52272599 0 0 0 0 0 111807890.1315657 -1337853.365189504 -1337853.365189504 -7015227.451250666 0 0 0 0 0 111647987.7468484 -1120215.141033059 -1120215.141033059 -6765389.940481975 0 0 0 0 0 111487205.7604155 -916425.5803077499 -916425.5803077499 -6522602.976189746 0 0 0 0 0 110968531.852039 -697937.5357520782 -697937.5357520782 -5996626.478304068 0 0 0 0 0 111322766.8721277 -725429.3214640847 -725429.3214640847 -6287441.81398925 0 0 0 0 0 110870109.9813951 -770328.0541613625 -770328.0541613625 -6168486.588600389 0 0 0 0 0 110717401.6812359 -598175.7044360271 -598175.7044360271 -5948399.208474106 0 0 0 0 0 110561842.7377292 -436514.630180861 -436514.630180861 -5736066.941853033 0 0 0 0 0 110402996.7294357 -286292.3461565375 -286292.3461565375 -5531991.020587978 0 0 0 0 0 110243441.1529889 -147178.0641118525 -147178.0641118525 -5336163.737323381 0 0 0 0 0 110087424.0042948 -14330.84122512765 -14330.84122512765 -5141492.761986719 0 0 0 0 0 109806521.8217735 -1877.880576474089 -1877.880576474089 -4905959.984860867 0 0 0 0 0 109725433.1438359 -59772.19391737394 -59772.19391737394 -5042317.965674922 0 0 0 0 0 109577889.6234516 60994.24096920741 60994.24096920741 -4862548.951832942 0 0 0 0 0 109430645.6035893 174310.7218358048 174310.7218358048 -4687874.549300409 0 0 0 0 0 109285412.3822161 279989.7979541759 279989.7979541759 -4517735.214989989 0 0 0 0 0 109052647.1677838 283629.5507523092 283629.5507523092 -4308486.359557566 0 0 0 0 0 108949755.1798312 214312.4710602801 214312.4710602801 -4462860.450951058 0 0 0 0 0 108842851.5435508 341451.4055408677 341451.4055408677 -4235110.974319561 0 0 0 0 0 108490053.239577 388397.5171564837 388397.5171564837 -4120812.763956822 0 0 0 0 0 108627436.9584279 374481.7307747332 374481.7307747332 -4173277.358623486 0 0 0 0 0 115424357.5224459 -10502135.27114702 -10502135.27114702 -14519064.69217253 0 0 0 0 0 -2882151.147236571 11003689.21439785 11003689.21439785 -49711009.51654889 0 0 0 0 0 1239383.412246831 3445285.291828588 3445285.291828588 -42195313.99905784 0 0 0 0 0 932827.9610825238 2175932.11407894 2175932.11407894 -45039755.59282833 0 0 0 0 0 4683620.819846073 -2544832.13108897 -2544832.13108897 -37947881.36954409 0 0 0 0 0 10375575.49781705 -7793629.544980221 -7793629.544980221 -33062289.51626412 0 0 0 0 0 16748698.71021222 -12700485.93135819 -12700485.93135819 -28347107.73832408 0 0 0 0 0 29380380.32365428 -21024598.46284879 -21024598.46284879 -23994249.29868623 0 0 0 0 0 26554120.66908165 -21121175.12364167 -21121175.12364167 -21306044.97946566 0 0 0 0 0 36678018.30364861 -24192417.25594722 -24192417.25594722 -21885432.02939229 0 0 0 0 0 43900401.96957354 -26742510.16472034 -26742510.16472034 -20364901.54099918 0 0 0 0 0 51020054.40343881 -28737570.34158693 -28737570.34158693 -19316525.93651874 0 0 0 0 0 57873423.17645738 -30183504.46294973 -30183504.46294973 -18658839.1216481 0 0 0 0 0 64410783.98271666 -31121219.69122904 -31121219.69122904 -18287120.42231422 0 0 0 0 0 70598730.29998951 -31610664.58049404 -31610664.58049404 -18116746.47462794 0 0 0 0 0 76378504.1965287 -31694967.32947803 -31694967.32947803 -18080680.26413076 0 0 0 0 0 81741490.99694331 -31441248.29732434 -31441248.29732434 -18133369.13875872 0 0 0 0 0 83019021.1951943 -31810536.53104489 -31810536.53104489 -18486415.44601323 0 0 0 0 0 87202356.73365436 -30681434.04075566 -30681434.04075566 -18657216.16049413 0 0 0 0 0 91378145.582684 -29846322.22574243 -29846322.22574243 -18723596.96524934 0 0 0 0 0 95164025.94794175 -28848131.38597655 -28848131.38597655 -18771177.86367045 0 0 0 0 0 98571984.02516113 -27723836.53867996 -27723836.53867996 -18787677.11661703 0 0 0 0 0 101169752.9606569 -26247181.50938716 -26247181.50938716 -18882017.69754197 0 0 0 0 0 98041449.61442646 -27193755.97276343 -27193755.97276343 -19152017.61730818 0 0 0 0 0 103737639.1035783 -25000222.87938016 -25000222.87938016 -18798418.05683518 0 0 0 0 0 106009647.654555 -23718215.53159776 -23718215.53159776 -18665616.04897345 0 0 0 0 0 108037122.6471442 -22418154.09166748 -22418154.09166748 -18483271.63973561 0 0 0 0 0 109839780.1456955 -21101676.80289074 -21101676.80289074 -18250098.87231166 0 0 0 0 0 111394385.4899544 -19803062.78768902 -19803062.78768902 -17989731.81278678 0 0 0 0 0 112728395.3527136 -18533782.80738895 -18533782.80738895 -17697784.84687046 0 0 0 0 0 111333271.3672311 -17835630.27555948 -17835630.27555948 -17605170.26581699 0 0 0 0 0 112956801.6155291 -17308411.62481824 -17308411.62481824 -17349381.51963605 0 0 0 0 0 113926850.6618558 -16143631.23980207 -16143631.23980207 -16996793.54747684 0 0 0 0 0 114743254.8757954 -15018420.11170485 -15018420.11170485 -16619766.58044719 0 0 0 0 0 115407645.3876428 -13952429.41611212 -13952429.41611212 -16244248.13153579 0 0 0 0 0 115961930.7493808 -12934507.68470457 -12934507.68470457 -15835516.75469837 0 0 0 0 0 116424317.5551827 -11946471.20937306 -11946471.20937306 -15402964.00831057 0 0 0 0 0 115120560.9372456 -11444259.00121718 -11444259.00121718 -15067306.13140353 0 0 0 0 0 115934450.5597624 -11190254.35144557 -11190254.35144557 -14968368.44147873 0 0 0 0 0 116243039.3323481 -10310542.30576387 -10310542.30576387 -14540123.50728935 0 0 0 0 0 114269907.0126277 -10085141.08505062 -10085141.08505062 -14167363.5680729 0 0 0 0 0 114554646.4907727 -9298162.099865951 -9298162.099865951 -13734252.95294354 0 0 0 0 0 114064000.0980388 -8764233.314206919 -8764233.314206919 -13290489.82358018 0 0 0 0 0 115118377.317911 -9120204.438977355 -9120204.438977355 -13653881.69615304 0 0 0 0 0 114252599.0462364 -8068449.964544824 -8068449.964544824 -12872885.74847753 0 0 0 0 0 114392420.4053852 -7410426.848975591 -7410426.848975591 -12459681.27710841 0 0 0 0 0 114490365.8879591 -6786175.008342325 -6786175.008342325 -12048446.76288325 0 0 0 0 0 114548774.5817495 -6195993.109723995 -6195993.109723995 -11642864.04000744 0 0 0 0 0 113979118.3381801 -5879759.875449399 -5879759.875449399 -11271231.60057154 0 0 0 0 0 114836936.484441 -6117712.381541628 -6117712.381541628 -11653208.48903876 0 0 0 0 0 113990252.3700137 -5361246.768242907 -5361246.768242907 -10890222.059071 0 0 0 0 0 113974103.5317402 -4871999.719885137 -4871999.719885137 -10515809.40709611 0 0 0 0 0 113933372.1660321 -4410825.013385749 -4410825.013385749 -10147482.54606796 0 0 0 0 0 113868951.2499655 -3977121.027393334 -3977121.027393334 -9789869.595198974 0 0 0 0 0 113787356.142074 -3567826.043113383 -3567826.043113383 -9438316.234362582 0 0 0 0 0 113876269.3063827 -3566281.505365243 -3566281.505365243 -9528920.451046631 0 0 0 0 0 113127923.9808454 -3065290.293983692 -3065290.293983692 -8838820.173706217 0 0 0 0 0 113752744.9522615 -3191644.298264408 -3191644.298264408 -9198723.294582071 0 0 0 0 0 113019409.8905627 -2725171.306923569 -2725171.306923569 -8520763.171514098 0 0 0 0 0 112899096.1521608 -2405237.186712638 -2405237.186712638 -8210962.902962807 0 0 0 0 0 112768499.3734583 -2104382.142588733 -2104382.142588733 -7909631.260523583 0 0 0 0 0 112629821.776845 -1821273.991858822 -1821273.991858822 -7615603.087218186 0 0 0 0 0 112124052.0913672 -1781990.028899011 -1781990.028899011 -7422123.140659771 0 0 0 0 0 112617197.7548711 -1858373.018863991 -1858373.018863991 -7744840.576356712 0 0 0 0 0 111986393.3222545 -1530742.310438461 -1530742.310438461 -7149965.941226166 0 0 0 0 0 111842715.5320853 -1294738.641866991 -1294738.641866991 -6886080.280554646 0 0 0 0 0 111694569.8335464 -1072155.611487245 -1072155.611487245 -6629944.512558956 0 0 0 0 0 111543381.3957474 -863875.6196047554 -863875.6196047554 -6380486.85140451 0 0 0 0 0 111385307.8291069 -670236.850804421 -670236.850804421 -6142377.42780922 0 0 0 0 0 111122931.7283954 -566949.1956855975 -566949.1956855975 -6096047.853107579 0 0 0 0 0 111226913.8475468 -488599.9299745032 -488599.9299745032 -5907520.547552847 0 0 0 0 0 110784448.4488906 -543821.0703715514 -543821.0703715514 -5810625.776115943 0 0 0 0 0 110635286.770663 -379358.0281925286 -379358.0281925286 -5594379.212783895 0 0 0 0 0 110484732.6576081 -225505.0738759242 -225505.0738759242 -5385112.062231323 0 0 0 0 0 110333889.4625904 -81820.39537525961 -81820.39537525961 -5182447.072948607 0 0 0 0 0 110178321.0703239 50428.98408423396 50428.98408423396 -4989484.489446862 0 0 0 0 0 110022534.2366488 175952.5878545247 175952.5878545247 -4802501.432951994 0 0 0 0 0 109930842.8605758 111346.248347446 111346.248347446 -4953170.17101104 0 0 0 0 0 109663525.7511718 120866.153514047 120866.153514047 -4723688.566794724 0 0 0 0 0 109519694.7939214 235738.5046147641 235738.5046147641 -4546720.110902947 0 0 0 0 0 109376623.9123283 342720.1015070832 342720.1015070832 -4373887.463899193 0 0 0 0 0 109233946.4778818 443157.0805564037 443157.0805564037 -4209533.842369691 0 0 0 0 0 109145440.1852239 381726.3364324354 381726.3364324354 -4351285.122518181 0 0 0 0 0 108904344.5246841 377831.9041315908 377831.9041315908 -4159092.296193394 0 0 0 0 0 108815707.7789686 486623.1451860725 486623.1451860725 -3970539.1364521 0 0 0 0 0 108735016.6356932 526064.1769032314 526064.1769032314 -3892372.529922895 0 0 0 0 0 115045246.0733891 -9882963.690992687 -9882963.690992687 -14173262.96380235 0 0 0 0 0 -4862566.35610883 14902520.55696861 14902520.55696861 -58514115.85137167 0 0 0 0 0 465287.1592391018 6528806.759336097 6528806.759336097 -47499788.96728669 0 0 0 0 0 5621081.571971867 -2091461.731089951 -2091461.731089951 -37267965.98884344 0 0 0 0 0 9887105.341553781 -7166157.560627485 -7166157.560627485 -30173649.40145066 0 0 0 0 0 15884696.06325293 -12338195.25030603 -12338195.25030603 -25207966.58421346 0 0 0 0 0 22107927.43990691 -17064142.82756105 -17064142.82756105 -21606541.65780223 0 0 0 0 0 33053389.7334434 -24632502.13746842 -24632502.13746842 -19657205.77647961 0 0 0 0 0 24181677.33798979 -17130503.72898559 -17130503.72898559 -24775667.93858898 0 0 0 0 0 39843231.91180534 -27330167.50969234 -27330167.50969234 -18238878.11544884 0 0 0 0 0 46658620.90302479 -29460417.53501204 -29460417.53501204 -17410868.33575181 0 0 0 0 0 53270714.75996316 -31055913.76400995 -31055913.76400995 -17033015.31637958 0 0 0 0 0 59696449.94700399 -32099295.96716261 -32099295.96716261 -16935640.62531433 0 0 0 0 0 65850357.37612843 -32661970.56935282 -32661970.56935282 -17033574.60419902 0 0 0 0 0 71681196.15058574 -32797556.12111139 -32797556.12111139 -17242809.68494013 0 0 0 0 0 77161885.90245992 -32563427.31352953 -32563427.31352953 -17509883.51424168 0 0 0 0 0 82256900.04690169 -32017142.83874656 -32017142.83874656 -17781690.76165533 0 0 0 0 0 86667754.33737734 -30889624.66039148 -30889624.66039148 -18227165.43029298 0 0 0 0 0 87398367.74884082 -30944929.99383026 -30944929.99383026 -18660151.25277864 0 0 0 0 0 91407248.76972911 -29907250.85136946 -29907250.85136946 -18795162.81625095 0 0 0 0 0 95054229.80718295 -28733187.87567539 -28733187.87567539 -18877723.0589689 0 0 0 0 0 98349851.55982402 -27460132.35160063 -27460132.35160063 -18900532.54643872 0 0 0 0 0 100854153.8449282 -25882768.75143866 -25882768.75143866 -19076252.51238271 0 0 0 0 0 101624465.6756126 -26505657.49645383 -26505657.49645383 -18762731.68165572 0 0 0 0 0 103363274.5195732 -24535616.07523307 -24535616.07523307 -18939643.39797597 0 0 0 0 0 105584599.4426475 -23178979.55887179 -23178979.55887179 -18760741.8454278 0 0 0 0 0 107562401.5901375 -21814223.00289163 -21814223.00289163 -18529096.32184109 0 0 0 0 0 109324866.835358 -20460050.52402275 -20460050.52402275 -18258103.70904216 0 0 0 0 0 110882141.2376935 -19119534.86009124 -19119534.86009124 -17922533.86114451 0 0 0 0 0 112215006.1971538 -17822145.27532265 -17822145.27532265 -17554479.29997708 0 0 0 0 0 113871374.4756791 -17298552.06443386 -17298552.06443386 -17366394.51260971 0 0 0 0 0 112455102.1901934 -16621686.44832066 -16621686.44832066 -17223054.21354323 0 0 0 0 0 113430009.4760426 -15442311.50114206 -15442311.50114206 -16808844.43265042 0 0 0 0 0 114257942.2669262 -14318725.46516738 -14318725.46516738 -16371485.31163941 0 0 0 0 0 114950083.4829606 -13244502.6786628 -13244502.6786628 -15926281.06972672 0 0 0 0 0 115518700.9401266 -12220334.14813191 -12220334.14813191 -15474045.10501078 0 0 0 0 0 115988761.1529779 -11241958.99357275 -11241958.99357275 -15013954.52522109 0 0 0 0 0 116798930.6690749 -11001832.48729046 -11001832.48729046 -14965110.44841231 0 0 0 0 0 115523669.5435055 -10530191.40531048 -10530191.40531048 -14606672.15067757 0 0 0 0 0 115848477.0434113 -9660981.103419926 -9660981.103419926 -14141163.50731906 0 0 0 0 0 115677245.2794026 -9687293.879010543 -9687293.879010543 -14102341.72567761 0 0 0 0 0 115867765.9432444 -8912672.370337963 -8912672.370337963 -13680980.4202347 0 0 0 0 0 115273629.5674913 -8399333.530906655 -8399333.530906655 -13247856.87281146 0 0 0 0 0 114779879.9150307 -8550470.899851635 -8550470.899851635 -13299355.77978759 0 0 0 0 0 115379250.1069248 -7716539.881531443 -7716539.881531443 -12843061.54512585 0 0 0 0 0 115441677.8038995 -7069119.889314346 -7069119.889314346 -12437607.64393131 0 0 0 0 0 115464584.5532198 -6456875.223717859 -6456875.223717859 -12036539.85115185 0 0 0 0 0 115453910.2290651 -5877783.771696491 -5877783.771696491 -11638100.31003502 0 0 0 0 0 114814399.0510537 -5579612.851644265 -5579612.851644265 -11275384.70526126 0 0 0 0 0 114573336.5167834 -5638132.683054362 -5638132.683054362 -11240391.18547319 0 0 0 0 0 114764767.1359742 -5071940.776005736 -5071940.776005736 -10901590.65498982 0 0 0 0 0 114691138.3587681 -4593375.263600863 -4593375.263600863 -10533716.97887717 0 0 0 0 0 114594846.444727 -4143429.49377063 -4143429.49377063 -10174135.57466342 0 0 0 0 0 114482163.9721633 -3719175.556488038 -3719175.556488038 -9818514.10697744 0 0 0 0 0 114353196.6476338 -3319826.159136304 -3319826.159136304 -9471428.642051619 0 0 0 0 0 113689129.8310993 -3182661.129209447 -3182661.129209447 -9095049.677342065 0 0 0 0 0 113616534.381103 -2839301.1329607 -2839301.1329607 -8876148.08166516 0 0 0 0 0 113576102.7033447 -2820643.470930992 -2820643.470930992 -8760331.479089169 0 0 0 0 0 113469708.8328113 -2507892.286372202 -2507892.286372202 -8561114.554135259 0 0 0 0 0 113313869.1058788 -2196498.017983924 -2196498.017983924 -8253927.169493195 0 0 0 0 0 113150688.9975706 -1903690.963706576 -1903690.963706576 -7954036.97496572 0 0 0 0 0 112980044.9860255 -1629349.304045828 -1629349.304045828 -7663346.760859064 0 0 0 0 0 112457301.7046295 -1598421.311886221 -1598421.311886221 -7466818.319042297 0 0 0 0 0 112482942.9752089 -1556094.314617115 -1556094.314617115 -7331289.199290509 0 0 0 0 0 112292185.581252 -1354053.504002479 -1354053.504002479 -7196651.111144246 0 0 0 0 0 112125378.1723382 -1123983.07635937 -1123983.07635937 -6932937.384628521 0 0 0 0 0 111956380.9837276 -908413.9255752771 -908413.9255752771 -6677127.850023294 0 0 0 0 0 111777841.0719894 -709831.1198747678 -709831.1198747678 -6431955.89077059 0 0 0 0 0 111603597.6974439 -522083.8661053006 -522083.8661053006 -6191196.940702149 0 0 0 0 0 111080157.2296105 -327763.2628655946 -327763.2628655946 -5679846.602954395 0 0 0 0 0 111422435.88835 -347857.3725839892 -347857.3725839892 -5959220.073577307 0 0 0 0 0 110969534.3985923 -405102.5175109694 -405102.5175109694 -5859291.015663296 0 0 0 0 0 110804657.2005549 -246863.5106431272 -246863.5106431272 -5643679.430223404 0 0 0 0 0 110638256.6104018 -98247.38643273809 -98247.38643273809 -5435457.035445543 0 0 0 0 0 110469127.9180308 38246.85314235046 38246.85314235046 -5236892.986468491 0 0 0 0 0 110300944.2263062 166294.2747063586 166294.2747063586 -5042685.367217985 0 0 0 0 0 110136154.5466632 287685.0482797833 287685.0482797833 -4852429.172749401 0 0 0 0 0 109869558.8272071 295078.0776651811 295078.0776651811 -4619509.658786328 0 0 0 0 0 109774905.378748 229440.1717161692 229440.1717161692 -4770957.945511841 0 0 0 0 0 109619860.7192808 340330.8405493294 340330.8405493294 -4593918.379828138 0 0 0 0 0 109465679.4935349 444452.7439753642 444452.7439753642 -4421785.713660006 0 0 0 0 0 109320333.7310463 541266.5726793238 541266.5726793238 -4255584.645293871 0 0 0 0 0 109082923.8431858 541319.2535668126 541319.2535668126 -4053198.910085547 0 0 0 0 0 108986961.9018149 475945.8878961365 475945.8878961365 -4201014.823122646 0 0 0 0 0 108822983.4174002 560366.505887844 560366.505887844 -4029539.970730296 0 0 0 0 0 108619900.6398959 579305.3582574603 579305.3582574603 -3979225.534130219 0 0 0 0 0 116474350.2820183 -9476913.639975566 -9476913.639975566 -14109352.33059711 0 0 0 0 0 -3179004.762708181 11474586.65885093 11474586.65885093 -43716210.21810468 0 0 0 0 0 -52833.04227741501 4400091.432341837 4400091.432341837 -38998561.39981765 0 0 0 0 0 5825709.376425265 -1895177.524379696 -1895177.524379696 -35306107.92549368 0 0 0 0 0 11715735.4839555 -7611010.38075537 -7611010.38075537 -29048814.74447727 0 0 0 0 0 17268963.67377537 -12451576.6494476 -12451576.6494476 -24522269.83775824 0 0 0 0 0 32217947.96464519 -21406435.69719281 -21406435.69719281 -22049308.40903869 0 0 0 0 0 28166480.62343469 -21360386.11879527 -21360386.11879527 -18577348.56320445 0 0 0 0 0 39886201.39378463 -24685230.79184335 -24685230.79184335 -20026119.39685283 0 0 0 0 0 47363838.53801507 -27218175.22529538 -27218175.22529538 -18753245.83006059 0 0 0 0 0 54843161.00158335 -29170086.70996039 -29170086.70996039 -17941383.09641191 0 0 0 0 0 61910527.12503293 -30493907.36250945 -30493907.36250945 -17499127.06992186 0 0 0 0 0 68618595.32723477 -31284159.53214922 -31284159.53214922 -17303119.62367487 0 0 0 0 0 74889755.06979962 -31604470.82042679 -31604470.82042679 -17285627.71138402 0 0 0 0 0 80669218.06781189 -31509195.11522338 -31509195.11522338 -17372845.70210137 0 0 0 0 0 85978541.60570681 -31072703.64355169 -31072703.64355169 -17520522.79375776 0 0 0 0 0 86956686.44319536 -31210893.62837337 -31210893.62837337 -18030798.46000668 0 0 0 0 0 91149795.81610495 -30102194.25711083 -30102194.25711083 -18333766.46730221 0 0 0 0 0 95192669.15206534 -29124907.91927193 -29124907.91927193 -18422073.44178579 0 0 0 0 0 98821089.34787653 -27997097.41303036 -27997097.41303036 -18476861.05843863 0 0 0 0 0 102062822.251926 -26762339.23889833 -26762339.23889833 -18487123.58270671 0 0 0 0 0 104334250.728434 -25223549.46980701 -25223549.46980701 -18694094.873033 0 0 0 0 0 101312652.6607501 -26116754.31631875 -26116754.31631875 -18857134.30662377 0 0 0 0 0 106713906.6514105 -23906240.82750902 -23906240.82750902 -18583171.07842196 0 0 0 0 0 108812370.02238 -22571367.1119978 -22571367.1119978 -18415370.77434912 0 0 0 0 0 110654822.3638499 -21227512.30172256 -21227512.30172256 -18197043.83386371 0 0 0 0 0 112280031.938006 -19875620.26250607 -19875620.26250607 -17922143.31682459 0 0 0 0 0 113666580.6115064 -18555439.84477103 -18555439.84477103 -17631503.39017019 0 0 0 0 0 114830704.2955985 -17279743.60453291 -17279743.60453291 -17305235.89647078 0 0 0 0 0 113356754.9895296 -16571106.18382113 -16571106.18382113 -17167843.4820958 0 0 0 0 0 114857696.1840159 -16096067.14778799 -16096067.14778799 -17001140.50979041 0 0 0 0 0 115685587.9379805 -14934918.86860201 -14934918.86860201 -16615883.60852912 0 0 0 0 0 116351468.49142 -13832293.89527971 -13832293.89527971 -16218582.23198727 0 0 0 0 0 116900196.2847973 -12776354.1564527 -12776354.1564527 -15802017.48525558 0 0 0 0 0 117343056.6260116 -11763578.24776282 -11763578.24776282 -15363566.26948261 0 0 0 0 0 117695437.9416377 -10793472.94307905 -10793472.94307905 -14910015.78497715 0 0 0 0 0 116376551.1439894 -10306352.48584508 -10306352.48584508 -14540575.01176994 0 0 0 0 0 117086941.0057028 -10100879.72948183 -10100879.72948183 -14520303.16909695 0 0 0 0 0 117299933.407725 -9246380.740272623 -9246380.740272623 -14072798.86049247 0 0 0 0 0 115313848.2849162 -9078622.671238912 -9078622.671238912 -13723467.54043247 0 0 0 0 0 115517529.4878323 -8317790.264505121 -8317790.264505121 -13275091.96754385 0 0 0 0 0 114948655.362941 -7843108.628796815 -7843108.628796815 -12867149.80775998 0 0 0 0 0 116000751.3596959 -8178841.62320423 -8178841.62320423 -13260556.53957992 0 0 0 0 0 115067563.1659296 -7174324.825872062 -7174324.825872062 -12439057.36153931 0 0 0 0 0 115143449.4714633 -6541486.494006013 -6541486.494006013 -12014996.91466432 0 0 0 0 0 115180357.6888543 -5943862.424009725 -5943862.424009725 -11596309.16217236 0 0 0 0 0 115182627.537947 -5379763.678453612 -5379763.678453612 -11182576.64849073 0 0 0 0 0 114564832.3167672 -5113824.801459331 -5113824.801459331 -10846742.84920125 0 0 0 0 0 115408576.0793629 -5333142.351545616 -5333142.351545616 -11247178.17073012 0 0 0 0 0 114528330.9198715 -4620204.3598913 -4620204.3598913 -10460897.71376689 0 0 0 0 0 114467349.172147 -4155651.562281041 -4155651.562281041 -10083042.92609466 0 0 0 0 0 114385167.8647874 -3719096.789389414 -3719096.789389414 -9712748.365056081 0 0 0 0 0 114282163.9231218 -3309336.237312734 -3309336.237312734 -9353609.662117984 0 0 0 0 0 114164701.0683376 -2923557.613221637 -2923557.613221637 -9001712.588568162 0 0 0 0 0 114210385.7300703 -2944450.25611463 -2944450.25611463 -9132218.956786681 0 0 0 0 0 113449883.4733405 -2480635.071375718 -2480635.071375718 -8434238.191111036 0 0 0 0 0 114055612.5660209 -2591951.215429464 -2591951.215429464 -8801035.678364795 0 0 0 0 0 113312501.8429295 -2161579.475705437 -2161579.475705437 -8117435.204093916 0 0 0 0 0 113165637.2362382 -1862130.362009695 -1862130.362009695 -7809557.150817722 0 0 0 0 0 113010678.0478836 -1581100.954688241 -1581100.954688241 -7510202.396859166 0 0 0 0 0 112848781.1986218 -1317899.041700152 -1317899.041700152 -7220007.984545611 0 0 0 0 0 112330347.9276383 -1306603.562644943 -1306603.562644943 -7054590.952728223 0 0 0 0 0 112804927.770932 -1371349.332009154 -1371349.332009154 -7379345.180307976 0 0 0 0 0 112172673.5510027 -1073087.725830875 -1073087.725830875 -6786189.25186224 0 0 0 0 0 112010117.8255922 -854564.356275752 -854564.356275752 -6525841.473346988 0 0 0 0 0 111841559.5733166 -650722.0844759759 -650722.0844759759 -6274941.355626452 0 0 0 0 0 111672506.1131321 -461452.9485145911 -461452.9485145911 -6034298.289334673 0 0 0 0 0 111497165.3747905 -284373.2946591899 -284373.2946591899 -5800968.256415299 0 0 0 0 0 111211473.1647155 -204348.6308100854 -204348.6308100854 -5769156.99856135 0 0 0 0 0 111323874.1229782 -117443.5767898628 -117443.5767898628 -5569085.841980214 0 0 0 0 0 110890228.8102737 -181900.0645532651 -181900.0645532651 -5485232.506443282 0 0 0 0 0 110729566.5362845 -31223.42058054349 -31223.42058054349 -5274892.016983276 0 0 0 0 0 110567380.3022299 108974.937057452 108974.937057452 -5070658.734469939 0 0 0 0 0 110403420.9759306 238484.5852228742 238484.5852228742 -4875223.853458892 0 0 0 0 0 110240453.5616894 360151.093937676 360151.093937676 -4685693.239522642 0 0 0 0 0 110076376.5400421 474329.7916636745 474329.7916636745 -4502849.294511466 0 0 0 0 0 109972030.6311691 402435.9742800242 402435.9742800242 -4667970.791750894 0 0 0 0 0 109717400.363576 406956.6852671623 406956.6852671623 -4441826.202506446 0 0 0 0 0 109565858.318502 511811.4138225751 511811.4138225751 -4269747.810116566 0 0 0 0 0 109416889.762447 607834.884551322 607834.884551322 -4101142.100646291 0 0 0 0 0 109260829.7618458 696069.2853483432 696069.2853483432 -3946549.492855182 0 0 0 0 0 109180700.6075607 636956.4105757603 636956.4105757603 -4086755.888926191 0 0 0 0 0 108958871.5597151 636241.7765650543 636241.7765650543 -3884294.373995228 0 0 0 0 0 108867587.7686945 727624.3210108535 727624.3210108535 -3722004.791368212 0 0 0 0 0 116100193.2861016 -8837999.787489556 -8837999.787489556 -13672162.47042751 0 0 0 0 0 -4389564.622161185 13540692.58195716 13540692.58195716 -48388031.66204383 0 0 0 0 0 2151530.989774798 3830991.060213074 3830991.060213074 -39943255.97950227 0 0 0 0 0 10746801.25442456 -6571752.519698369 -6571752.519698369 -24799777.01990965 0 0 0 0 0 2453642.73172076 724614.0627522963 724614.0627522963 -30552001.11200744 0 0 0 0 0 16915228.74791289 -11796539.21541899 -11796539.21541899 -21601470.02453884 0 0 0 0 0 22656314.55165642 -15350044.17831001 -15350044.17831001 -21316968.9111324 0 0 0 0 0 35879323.87972642 -24956745.98193373 -24956745.98193373 -16904673.39580718 0 0 0 0 0 28254384.69878213 -18937118.80220243 -18937118.80220243 -21269000.19943205 0 0 0 0 0 43032031.40200825 -27716252.9922819 -27716252.9922819 -16020948.3957881 0 0 0 0 0 50131863.09658982 -29891487.22239264 -29891487.22239264 -15603989.65669367 0 0 0 0 0 57034690.91497634 -31364207.70687408 -31364207.70687408 -15506936.69899102 0 0 0 0 0 63661655.63982046 -32262416.48919032 -32262416.48919032 -15675735.52345478 0 0 0 0 0 69951942.39545573 -32653308.42567848 -32653308.42567848 -15977241.35163515 0 0 0 0 0 75844111.85759813 -32599437.51399367 -32599437.51399367 -16346495.9226895 0 0 0 0 0 81321705.82108384 -32183192.83128908 -32183192.83128908 -16739060.2354674 0 0 0 0 0 86364216.79706401 -31456424.25088145 -31456424.25088145 -17097929.08880338 0 0 0 0 0 90793263.79133752 -30348808.02794439 -30348808.02794439 -17686112.5221157 0 0 0 0 0 91242055.95716773 -30194299.73691785 -30194299.73691785 -18233503.15025366 0 0 0 0 0 95124530.47581165 -29022830.40029868 -29022830.40029868 -18381827.90347733 0 0 0 0 0 98621840.46475029 -27732032.21611413 -27732032.21611413 -18465419.47358558 0 0 0 0 0 101757462.6155971 -26355214.18530199 -26355214.18530199 -18473543.1141456 0 0 0 0 0 103953952.0295774 -24731990.41585822 -24731990.41585822 -18749094.2636007 0 0 0 0 0 104924146.9299902 -25450067.4182576 -25450067.4182576 -18449493.45612568 0 0 0 0 0 106283329.8257686 -23328604.45778577 -23328604.45778577 -18588060.67014824 0 0 0 0 0 108336693.0381972 -21918607.10577875 -21918607.10577875 -18367540.50045009 0 0 0 0 0 110139435.7571533 -20527563.55032038 -20527563.55032038 -18109128.09816285 0 0 0 0 0 111727987.6344449 -19156250.55994048 -19156250.55994048 -17802175.91375377 0 0 0 0 0 113124167.3694846 -17798828.21265482 -17798828.21265482 -17426394.20496797 0 0 0 0 0 114295321.6750832 -16495743.81739121 -16495743.81739121 -17027264.51274011 0 0 0 0 0 115819118.3807859 -16042376.68146484 -16042376.68146484 -16936033.58950578 0 0 0 0 0 114333934.7316408 -15358962.20690965 -15358962.20690965 -16748722.2176078 0 0 0 0 0 115172136.6559593 -14194949.3469905 -14194949.3469905 -16306910.09663207 0 0 0 0 0 115864929.7842595 -13076053.94589737 -13076053.94589737 -15842305.77705883 0 0 0 0 0 116430619.9553901 -12022519.77803874 -12022519.77803874 -15378949.95298493 0 0 0 0 0 116891771.9858112 -11018417.90887086 -11018417.90887086 -14906220.56996555 0 0 0 0 0 117262602.2422188 -10059359.9747603 -10059359.9747603 -14419095.62008403 0 0 0 0 0 117963690.9903761 -9869243.148862673 -9869243.148862673 -14450777.69629249 0 0 0 0 0 116683525.0475753 -9416801.545282412 -9416801.545282412 -14059889.82591978 0 0 0 0 0 116913994.8879829 -8576307.081551369 -8576307.081551369 -13578597.52433629 0 0 0 0 0 116640862.3823515 -8687283.929484583 -8687283.929484583 -13674647.15020751 0 0 0 0 0 116749889.4796315 -7939192.990088513 -7939192.990088513 -13237649.14246682 0 0 0 0 0 116081948.6547171 -7484653.429366724 -7484653.429366724 -12840671.36277871 0 0 0 0 0 115666807.1757508 -7597562.824154529 -7597562.824154529 -12827902.31578457 0 0 0 0 0 116120070.5406346 -6827556.686792202 -6827556.686792202 -12421823.24148781 0 0 0 0 0 116119183.6384796 -6207195.94680625 -6207195.94680625 -12006258.22030548 0 0 0 0 0 116084513.2642624 -5621426.95437741 -5621426.95437741 -11595225.46297577 0 0 0 0 0 116018290.1646294 -5069807.599249729 -5069807.599249729 -11190255.97425731 0 0 0 0 0 115336599.9210283 -4820288.911869984 -4820288.911869984 -10861631.90219767 0 0 0 0 0 115154476.6708151 -4849195.816536278 -4849195.816536278 -10775833.09765425 0 0 0 0 0 115240952.569729 -4337850.069532285 -4337850.069532285 -10482358.77671811 0 0 0 0 0 115124642.9391208 -3884262.986654962 -3884262.986654962 -10110282.36045474 0 0 0 0 0 114989033.9217092 -3458982.474316153 -3458982.474316153 -9747685.484400112 0 0 0 0 0 114839606.3939652 -3058766.707391564 -3058766.707391564 -9390253.609283073 0 0 0 0 0 114676492.2521155 -2683304.33843885 -2683304.33843885 -9042553.888720943 0 0 0 0 0 114032656.6785991 -2561764.745407904 -2561764.745407904 -8659243.371437278 0 0 0 0 0 113890403.3862827 -2261314.565245847 -2261314.565245847 -8478451.076960251 0 0 0 0 0 113888262.5142712 -2222552.709495938 -2222552.709495938 -8326103.173028546 0 0 0 0 0 113716805.1456062 -1951159.65981508 -1951159.65981508 -8164104.838294007 0 0 0 0 0 113536286.9458268 -1660243.788483625 -1660243.788483625 -7858100.457853679 0 0 0 0 0 113349663.1896664 -1387693.71231387 -1387693.71231387 -7560589.089984777 0 0 0 0 0 113158210.4239828 -1132489.539075966 -1132489.539075966 -7272010.865934243 0 0 0 0 0 112625272.8585998 -1129463.270218289 -1129463.270218289 -7103888.556781122 0 0 0 0 0 112680967.0664025 -1071111.391025833 -1071111.391025833 -6938601.164663045 0 0 0 0 0 112441074.6220874 -903088.727054524 -903088.727054524 -6836692.839700235 0 0 0 0 0 112255819.5307921 -692802.682052735 -692802.682052735 -6579189.752906847 0 0 0 0 0 112064942.6897212 -498832.9440682514 -498832.9440682514 -6330935.994976019 0 0 0 0 0 111874570.3211105 -316683.8157944314 -316683.8157944314 -6089852.306968361 0 0 0 0 0 111685831.2065203 -146181.0430675334 -146181.0430675334 -5854322.184019052 0 0 0 0 0 111163220.43105 27339.12623613721 27339.12623613721 -5356254.847511873 0 0 0 0 0 111494440.3939846 13614.38237052407 13614.38237052407 -5627515.033940509 0 0 0 0 0 111047684.6162074 -51206.64531146578 -51206.64531146578 -5534999.055026245 0 0 0 0 0 110872255.3670835 94978.19636095935 94978.19636095935 -5327054.427268785 0 0 0 0 0 110693495.2439092 228412.2510053777 228412.2510053777 -5125330.366597874 0 0 0 0 0 110516877.382249 353520.3990181536 353520.3990181536 -4929405.888161717 0 0 0 0 0 110340465.1742364 470084.7257721291 470084.7257721291 -4739417.984807743 0 0 0 0 0 110168508.3885014 580702.4420357972 580702.4420357972 -4553024.976330544 0 0 0 0 0 109915730.7009657 582805.3037604428 582805.3037604428 -4324879.22730288 0 0 0 0 0 109808796.9163908 510146.3939211758 510146.3939211758 -4490115.128855553 0 0 0 0 0 109647895.7041564 611071.2377675972 611071.2377675972 -4317640.235239994 0 0 0 0 0 109488189.6274065 703992.3026036904 703992.3026036904 -4154270.745264001 0 0 0 0 0 109320004.4442342 782481.2768115713 782481.2768115713 -3997639.410804335 0 0 0 0 0 109091003.9735485 774362.6084041068 774362.6084041068 -3826372.786063174 0 0 0 0 0 109059857.6856928 750397.1593915186 750397.1593915186 -3906243.665388713 0 0 0 0 0 108755550.600557 771577.7137956775 771577.7137956775 -3791370.230817111 0 0 0 0 0 117439840.4441094 -8440907.723362669 -8440907.723362669 -13626801.64048406 0 0 0 0 0 -2969418.237057078 9975836.05896722 9975836.05896722 -34745010.61697976 0 0 0 0 0 4033176.28577838 -758918.7541406754 -758918.7541406754 -29509094.12775593 0 0 0 0 0 5423823.887356719 140486.988341824 140486.988341824 -31357939.78258657 0 0 0 0 0 12170706.37863044 -7304304.163758873 -7304304.163758873 -26023113.09194855 0 0 0 0 0 22569988.30701162 -16900315.98113775 -16900315.98113775 -17827003.85656692 0 0 0 0 0 16078518.93084708 -11202420.82843492 -11202420.82843492 -18152573.95945078 0 0 0 0 0 35172541.02051756 -22173912.40851533 -22173912.40851533 -18840477.99765917 0 0 0 0 0 31587917.6210643 -22450232.6830269 -22450232.6830269 -14934320.22786817 0 0 0 0 0 43084080.30412402 -25281266.1920858 -25281266.1920858 -17640028.70512864 0 0 0 0 0 51174791.6107608 -27828232.35041274 -27828232.35041274 -16743203.49672303 0 0 0 0 0 58897405.28200491 -29625616.33093666 -29625616.33093666 -16260950.52603108 0 0 0 0 0 66192510.42744814 -30790022.80676762 -30790022.80676762 -16059397.56444477 0 0 0 0 0 73054377.39199868 -31406992.30284701 -31406992.30284701 -16074502.15031778 0 0 0 0 0 79353892.14987111 -31524325.74189959 -31524325.74189959 -16237379.76317719 0 0 0 0 0 85111553.92248149 -31234208.80905463 -31234208.80905463 -16464771.69703508 0 0 0 0 0 90315157.24890566 -30600900.34130537 -30600900.34130537 -16718099.12449675 0 0 0 0 0 90955488.58167557 -30478701.93517924 -30478701.93517924 -17403970.17034807 0 0 0 0 0 95135854.18161833 -29405492.93120006 -29405492.93120006 -17837822.26608636 0 0 0 0 0 99013569.43710861 -28285037.04363741 -28285037.04363741 -17954758.39347188 0 0 0 0 0 102465599.6562282 -27035541.80398503 -27035541.80398503 -18017335.7556849 0 0 0 0 0 105507933.8864626 -25691913.72615426 -25691913.72615426 -18028774.88837842 0 0 0 0 0 107432629.363622 -24094581.86579883 -24094581.86579883 -18363532.71320898 0 0 0 0 0 104541494.2423268 -24931465.64232133 -24931465.64232133 -18408592.56180587 0 0 0 0 0 109633471.0233004 -22715913.92852917 -22715913.92852917 -18217617.50713027 0 0 0 0 0 111537693.7973734 -21333127.41616457 -21333127.41616457 -18027853.16486735 0 0 0 0 0 113190676.9591822 -19949317.65051093 -19949317.65051093 -17775405.16196286 0 0 0 0 0 114623893.3244332 -18579506.10819893 -18579506.10819893 -17467777.70791155 0 0 0 0 0 115830225.1423336 -17252058.20356269 -17252058.20356269 -17145503.40010483 0 0 0 0 0 116832388.6794317 -15971947.76051597 -15971947.76051597 -16789094.22157913 0 0 0 0 0 115284773.7233491 -15242403.82849113 -15242403.82849113 -16607673.53998394 0 0 0 0 0 116648682.1252509 -14850330.81213694 -14850330.81213694 -16541641.00474085 0 0 0 0 0 117330509.3426427 -13702716.01650832 -13702716.01650832 -16128190.1604932 0 0 0 0 0 117868007.5933611 -12607626.57356695 -12607626.57356695 -15707709.15276679 0 0 0 0 0 118292734.377921 -11562061.18325973 -11562061.18325973 -15260621.34111018 0 0 0 0 0 118627944.1435605 -10564328.17095862 -10564328.17095862 -14795805.20846622 0 0 0 0 0 118872074.3008794 -9618497.091382956 -9618497.091382956 -14326170.22452558 0 0 0 0 0 117547860.3759464 -9150158.844875082 -9150158.844875082 -13926516.08199948 0 0 0 0 0 118152013.3857682 -8996019.247474309 -8996019.247474309 -13989705.34379458 0 0 0 0 0 118269444.7067365 -8172934.034095616 -8172934.034095616 -13528380.16164602 0 0 0 0 0 116282526.5275023 -8063521.134539673 -8063521.134539673 -13211196.70410613 0 0 0 0 0 116408881.0905963 -7330660.174465079 -7330660.174465079 -12749772.45785488 0 0 0 0 0 115765128.1361967 -6917309.333895527 -6917309.333895527 -12384809.85879625 0 0 0 0 0 116808017.0491455 -7232325.892449293 -7232325.892449293 -12803066.01702897 0 0 0 0 0 115817799.6100739 -6276283.216445625 -6276283.216445625 -11947099.81947457 0 0 0 0 0 115830950.1074133 -5672202.591514553 -5672202.591514553 -11516997.42668093 0 0 0 0 0 115810011.6107065 -5102876.423920579 -5102876.423920579 -11092672.97680302 0 0 0 0 0 115757601.0396572 -4567700.417123473 -4567700.417123473 -10675459.53159618 0 0 0 0 0 115096901.2165322 -4351422.654335269 -4351422.654335269 -10378523.04153632 0 0 0 0 0 115922669.648687 -4551820.377211619 -4551820.377211619 -10793207.89710482 0 0 0 0 0 115014640.2449906 -3884148.262136171 -3884148.262136171 -9990444.949845629 0 0 0 0 0 114911135.9656263 -3445650.680562158 -3445650.680562158 -9611622.004813146 0 0 0 0 0 114789336.0410146 -3034655.213403979 -3034655.213403979 -9242116.523975043 0 0 0 0 0 114650132.6671987 -2649552.075494815 -2649552.075494815 -8883159.455973215 0 0 0 0 0 114498139.7223942 -2288661.054933361 -2288661.054933361 -8533560.81039184 0 0 0 0 0 114502097.3311163 -2331419.295992425 -2331419.295992425 -8703457.835672783 0 0 0 0 0 113733187.2427371 -1904799.039148195 -1904799.039148195 -8002406.901842781 0 0 0 0 0 114318027.7885193 -2001816.120468786 -2001816.120468786 -8373316.679572238 0 0 0 0 0 113568842.9374755 -1607330.848412425 -1607330.848412425 -7688567.573898538 0 0 0 0 0 113396998.7170149 -1328818.311661755 -1328818.311661755 -7384008.648952107 0 0 0 0 0 113218750.6730953 -1068224.797489029 -1068224.797489029 -7088884.178801849 0 0 0 0 0 113035407.7171241 -824769.1438443733 -824769.1438443733 -6803102.386297993 0 0 0 0 0 112508507.8427026 -840095.2576997635 -840095.2576997635 -6666165.000182862 0 0 0 0 0 112963051.1862985 -893752.0426260141 -893752.0426260141 -6991683.959027887 0 0 0 0 0 112334117.3133289 -624901.972266561 -624901.972266561 -6401070.953407548 0 0 0 0 0 112155070.3630082 -424113.5552532558 -424113.5552532558 -6145441.204378684 0 0 0 0 0 111967503.8722658 -241719.230752411 -241719.230752411 -5904429.493342066 0 0 0 0 0 111780527.8937031 -71007.31683315782 -71007.31683315782 -5672265.403941609 0 0 0 0 0 111589504.3250843 88384.82329593698 88384.82329593698 -5445364.322445721 0 0 0 0 0 111294823.5377237 158216.3337385506 158216.3337385506 -5423048.525987951 0 0 0 0 0 111397420.2574288 237107.6261829161 237107.6261829161 -5225656.907108142 0 0 0 0 0 110977019.9823924 170136.88982675 170136.88982675 -5149263.016391763 0 0 0 0 0 110803138.9804354 306195.5639097569 306195.5639097569 -4944561.187992816 0 0 0 0 0 110629656.2666187 432381.6565131135 432381.6565131135 -4747842.672266271 0 0 0 0 0 110455997.8906146 549938.9358847104 549938.9358847104 -4556851.338278187 0 0 0 0 0 110284422.8117931 659773.8778037673 659773.8778037673 -4372667.178059133 0 0 0 0 0 110114113.6791855 763540.2600144892 763540.2600144892 -4193418.650141454 0 0 0 0 0 109997141.4118834 684054.9177910517 684054.9177910517 -4374212.789708889 0 0 0 0 0 109756021.135491 683894.1365307752 683894.1365307752 -4153073.655611943 0 0 0 0 0 109598749.1945075 777056.3082950029 777056.3082950029 -3990017.412531374 0 0 0 0 0 109447579.8497858 867647.9769976492 867647.9769976492 -3818645.26109882 0 0 0 0 0 109278632.2732065 923039.9849165953 923039.9849165953 -3705488.608700284 0 0 0 0 0 109211487.2990965 868863.4129871821 868863.4129871821 -3832011.474284723 0 0 0 0 0 108927310.9001502 852750.9508111116 852750.9508111116 -3690172.895134574 0 0 0 0 0 109018015.9235892 926153.648789371 926153.648789371 -3557292.368738052 0 0 0 0 0 117075980.6464812 -7784842.15936921 -7784842.15936921 -13099157.14228847 0 0 0 0 0 -2527186.377154161 11217765.18686216 11217765.18686216 -38755305.80663506 0 0 0 0 0 10124348.23722764 -5575101.052813089 -5575101.052813089 -20167660.93365106 0 0 0 0 0 -2181710.777970058 7634398.989292448 7634398.989292448 -27505498.43086442 0 0 0 0 0 27758719.7787963 -18490651.54236966 -18490651.54236966 -16689749.68176507 0 0 0 0 0 17711824.47828897 -10563695.87046208 -10563695.87046208 -19544449.99475433 0 0 0 0 0 38828035.98382115 -25564928.27391059 -25564928.27391059 -13961652.61439246 0 0 0 0 0 27793460.53758581 -18388331.46357976 -18388331.46357976 -17402627.88893148 0 0 0 0 0 46324485.55450901 -28381423.63865834 -28381423.63865834 -13573249.1476079 0 0 0 0 0 53884895.10763393 -30392753.78769844 -30392753.78769844 -13481325.03650137 0 0 0 0 0 61029915.29436087 -31683260.45316531 -31683260.45316531 -13721527.49555828 0 0 0 0 0 67850830.47328502 -32396274.24803036 -32396274.24803036 -14178421.79228783 0 0 0 0 0 74250846.22963369 -32580104.46211246 -32580104.46211246 -14708952.4669365 0 0 0 0 0 80162489.91869453 -32312746.43138224 -32312746.43138224 -15273471.42295907 0 0 0 0 0 85601485.85101599 -31685912.97034679 -31685912.97034679 -15800227.87720865 0 0 0 0 0 90537015.6332821 -30758240.4600456 -30758240.4600456 -16260256.96213855 0 0 0 0 0 94992694.28115268 -29710125.14467281 -29710125.14467281 -16962859.53368273 0 0 0 0 0 95111207.21549384 -29318179.89704717 -29318179.89704717 -17648868.54653943 0 0 0 0 0 98834616.92997122 -28009685.39084574 -28009685.39084574 -17814578.73376989 0 0 0 0 0 102162982.716154 -26607289.14360702 -26607289.14360702 -17899584.54307063 0 0 0 0 0 105115149.8602519 -25141787.12461302 -25141787.12461302 -17899810.77352218 0 0 0 0 0 106986331.1213073 -23478199.36501044 -23478199.36501044 -18282128.52563761 0 0 0 0 0 108158800.759019 -24296991.23641647 -24296991.23641647 -17986603.59693509 0 0 0 0 0 109141304.8465382 -22019704.09743967 -22019704.09743967 -18091896.77935597 0 0 0 0 0 111020482.3838366 -20576381.06260021 -20576381.06260021 -17842371.96236746 0 0 0 0 0 112651381.8783436 -19155658.13696638 -19155658.13696638 -17547875.20840394 0 0 0 0 0 114056127.8811661 -17758896.38789103 -17758896.38789103 -17197289.07635385 0 0 0 0 0 115261271.4219738 -16413271.79375456 -16413271.79375456 -16811999.60362527 0 0 0 0 0 116277571.3246948 -15116199.78896195 -15116199.78896195 -16384088.59204812 0 0 0 0 0 117653624.8966398 -14739674.99388182 -14739674.99388182 -16401757.92463578 0 0 0 0 0 116111182.5274293 -14046638.0494487 -14046638.0494487 -16168916.12855489 0 0 0 0 0 116803694.7514554 -12900925.79295399 -12900925.79295399 -15708603.15048945 0 0 0 0 0 117378230.087774 -11805549.50283797 -11805549.50283797 -15218375.45728366 0 0 0 0 0 117825438.1586025 -10773970.148021 -10773970.148021 -14733970.86845519 0 0 0 0 0 118177476.7899611 -9793021.412761167 -9793021.412761167 -14239904.74487085 0 0 0 0 0 118442542.1056451 -8862341.43429723 -8862341.43429723 -13736138.58593791 0 0 0 0 0 119034326.4817365 -8725941.647891652 -8725941.647891652 -13853296.79685338 0 0 0 0 0 117756753.4038441 -8291967.494856835 -8291967.494856835 -13432635.4947526 0 0 0 0 0 117892133.9128205 -7487104.88901108 -7487104.88901108 -12944006.43939138 0 0 0 0 0 117523828.6667946 -7679049.537148642 -7679049.537148642 -13174955.15649116 0 0 0 0 0 117555561.5455927 -6960585.370998294 -6960585.370998294 -12727081.00983381 0 0 0 0 0 116820499.4529712 -6565650.45547429 -6565650.45547429 -12371323.72559425 0 0 0 0 0 116483307.3911235 -6640328.382250758 -6640328.382250758 -12293735.87563674 0 0 0 0 0 116792682.5246172 -5937932.157508099 -5937932.157508099 -11943550.47002937 0 0 0 0 0 116732230.6925264 -5346181.180049921 -5346181.180049921 -11519814.45658734 0 0 0 0 0 116641708.8719186 -4789513.041393325 -4789513.041393325 -11102951.72796899 0 0 0 0 0 116522731.3820745 -4266996.830809272 -4266996.830809272 -10693642.67705008 0 0 0 0 0 115803674.1701209 -4065895.400532741 -4065895.400532741 -10403395.12465986 0 0 0 0 0 115679032.6127051 -4065626.175095319 -4065626.175095319 -10266902.74420428 0 0 0 0 0 115664361.6601512 -3610132.666284783 -3610132.666284783 -10021281.49135406 0 0 0 0 0 115507616.3033781 -3182857.085019879 -3182857.085019879 -9647599.029341519 0 0 0 0 0 115335369.9387462 -2782943.688512438 -2782943.688512438 -9283821.453644859 0 0 0 0 0 115150932.7417906 -2408159.308103056 -2408159.308103056 -8927532.407628618 0 0 0 0 0 114955698.2038707 -2057485.800987424 -2057485.800987424 -8581249.257855967 0 0 0 0 0 114334275.8671169 -1950956.708255508 -1950956.708255508 -8194024.148536575 0 0 0 0 0 114125821.2494116 -1693456.184812474 -1693456.184812474 -8052485.346856346 0 0 0 0 0 114160393.2387781 -1635181.904833304 -1635181.904833304 -7864433.982206698 0 0 0 0 0 113927394.4963214 -1404887.778029906 -1404887.778029906 -7740452.098620122 0 0 0 0 0 113723631.4060247 -1135021.077685753 -1135021.077685753 -7437530.68261585 0 0 0 0 0 113515603.706709 -882902.8535258205 -882902.8535258205 -7143756.098568133 0 0 0 0 0 113304331.071221 -647576.8159205513 -647576.8159205513 -6859150.407763992 0 0 0 0 0 112765076.4198174 -670315.0315766709 -670315.0315766709 -6719861.52807559 0 0 0 0 0 112847670.8614411 -597310.9179043884 -597310.9179043884 -6526826.876965776 0 0 0 0 0 112561865.9315987 -462372.3556038406 -462372.3556038406 -6457592.521948403 0 0 0 0 0 112361083.3772949 -273109.5222436721 -273109.5222436721 -6209686.689404037 0 0 0 0 0 112153969.1079929 -98169.25285601719 -98169.25285601719 -5965865.688347289 0 0 0 0 0 111948250.1150018 65049.30895383186 65049.30895383186 -5732736.87970627 0 0 0 0 0 111748549.8958476 220811.4329427191 220811.4329427191 -5502055.865905889 0 0 0 0 0 111224254.0943602 375552.3909850506 375552.3909850506 -5013400.549310623 0 0 0 0 0 111545695.8747831 366095.806241879 366095.806241879 -5281974.521560779 0 0 0 0 0 111108866.732414 294411.6398212723 294411.6398212723 -5203967.802190729 0 0 0 0 0 110920651.7886834 424747.5159935275 424747.5159935275 -5000587.302415027 0 0 0 0 0 110732807.5412631 545827.8866803882 545827.8866803882 -4803254.160683528 0 0 0 0 0 110546691.5999241 658756.4115228693 658756.4115228693 -4611710.909857175 0 0 0 0 0 110364588.170858 765125.8871534799 765125.8871534799 -4425427.122250467 0 0 0 0 0 110184713.5950179 864068.9069779745 864068.9069779745 -4244865.760313656 0 0 0 0 0 109945844.6094684 860794.4357241497 860794.4357241497 -4020834.967024579 0 0 0 0 0 109825240.2375912 780187.1327935172 780187.1327935172 -4202002.087985967 0 0 0 0 0 109652203.2091804 865013.7198558633 865013.7198558633 -4039144.089252359 0 0 0 0 0 109441686.1004536 936257.3498046586 936257.3498046586 -3881553.620575107 0 0 0 0 0 109260680.8215008 984605.4229770135 984605.4229770135 -3777296.243178234 0 0 0 0 0 109105629.2123793 975746.3623142296 975746.3623142296 -3629782.40570276 0 0 0 0 0 109115527.4599115 982029.7204469352 982029.7204469352 -3636903.599073269 0 0 0 0 0 108879104.1319286 974705.7072936269 974705.7072936269 -3615501.290647176 0 0 0 0 0 118322856.1024086 -7398870.78836929 -7398870.78836929 -13069755.29825805 0 0 0 0 0 6669787.945780448 -1680422.718332124 -1680422.718332124 -24814602.38880124 0 0 0 0 0 -1190717.497327418 7762615.767628958 7762615.767628958 -28574596.81355571 0 0 0 0 0 19614741.87122059 -13925113.56470369 -13925113.56470369 -13427467.68954228 0 0 0 0 0 10647004.72601096 -6659479.114802147 -6659479.114802147 -14147602.17110778 0 0 0 0 0 37367841.50840566 -22421439.77272338 -22421439.77272338 -16452565.89513998 0 0 0 0 0 33528341.03307121 -22595493.80723503 -22595493.80723503 -11026293.34264943 0 0 0 0 0 46772639.19531697 -25996183.41946787 -25996183.41946787 -15074688.37493841 0 0 0 0 0 55308868.14764909 -28488811.60517615 -28488811.60517615 -14419569.41373193 0 0 0 0 0 63315442.77811999 -30164498.45096559 -30164498.45096559 -14226442.98537746 0 0 0 0 0 70784215.59620717 -31125452.60071657 -31125452.60071657 -14321406.36931969 0 0 0 0 0 77701523.47606035 -31499600.55803505 -31499600.55803505 -14612777.56773298 0 0 0 0 0 84022005.22458519 -31393541.90528083 -31393541.90528083 -14982366.25144904 0 0 0 0 0 89677017.52920118 -30867342.54703414 -30867342.54703414 -15376365.94745661 0 0 0 0 0 94735877.18476515 -30029599.85081992 -30029599.85081992 -15761347.73347722 0 0 0 0 0 94994922.26743384 -29617825.19456854 -29617825.19456854 -16640662.38478412 0 0 0 0 0 99154176.47233331 -28601275.49688515 -28601275.49688515 -17167703.83587711 0 0 0 0 0 102838289.9472726 -27339298.24274568 -27339298.24274568 -17316711.68346766 0 0 0 0 0 106073743.3933901 -25965842.91821214 -25965842.91821214 -17400410.04058196 0 0 0 0 0 108894276.9497087 -24523518.38350819 -24523518.38350819 -17413456.88554431 0 0 0 0 0 110469923.7771491 -22871066.82311381 -22871066.82311381 -17877047.51457632 0 0 0 0 0 107697848.4425319 -23634114.36032628 -23634114.36032628 -17817668.7167895 0 0 0 0 0 112463953.8910055 -21432221.64476381 -21432221.64476381 -17710880.4096334 0 0 0 0 0 114175649.1111204 -20002864.66478192 -20002864.66478192 -17489488.72873601 0 0 0 0 0 115640189.5463071 -18589817.63864628 -18589817.63864628 -17209565.40881647 0 0 0 0 0 116866011.3508056 -17219602.78565335 -17219602.78565335 -16895504.38768701 0 0 0 0 0 117885310.5798095 -15882374.50293234 -15882374.50293234 -16539155.52884228 0 0 0 0 0 118716556.3550229 -14605549.90663964 -14605549.90663964 -16156280.91651991 0 0 0 0 0 117116910.5660972 -13880658.79020466 -13880658.79020466 -15939120.84988222 0 0 0 0 0 118323672.5570123 -13553960.08284592 -13553960.08284592 -15980816.73270127 0 0 0 0 0 118867166.6935812 -12416070.67379859 -12416070.67379859 -15534422.78604908 0 0 0 0 0 119279290.4924699 -11342143.92956822 -11342143.92956822 -15089193.31846097 0 0 0 0 0 119589559.0404596 -10319129.16989143 -10319129.16989143 -14619031.08591558 0 0 0 0 0 119811916.3259703 -9350389.119430115 -9350389.119430115 -14139123.07308429 0 0 0 0 0 119946840.2694531 -8438600.110394152 -8438600.110394152 -13658446.65737441 0 0 0 0 0 118625133.9483624 -7987878.43390704 -7987878.43390704 -13232325.04065532 0 0 0 0 0 119122672.1288625 -7886803.965419082 -7886803.965419082 -13381776.46299296 0 0 0 0 0 119148447.4576347 -7098059.538181176 -7098059.538181176 -12909416.10511329 0 0 0 0 0 117174989.4519452 -7042570.843476489 -7042570.843476489 -12629897.18307168 0 0 0 0 0 117225511.3401153 -6341568.264983039 -6341568.264983039 -12160458.170583 0 0 0 0 0 116512412.8599389 -5990801.76943918 -5990801.76943918 -11843759.61994752 0 0 0 0 0 117541084.1079545 -6284503.059040739 -6284503.059040739 -12282748.47969509 0 0 0 0 0 116500772.458836 -5380541.96193461 -5380541.96193461 -11401130.9487591 0 0 0 0 0 116453796.5540964 -4807515.375095516 -4807515.375095516 -10967635.93771486 0 0 0 0 0 116376902.4916487 -4268601.34089552 -4268601.34089552 -10541185.71203965 0 0 0 0 0 116273605.142422 -3763189.959327416 -3763189.959327416 -10123206.16241778 0 0 0 0 0 115574615.692659 -3595915.232286905 -3595915.232286905 -9868743.542615114 0 0 0 0 0 116378980.9873279 -3777693.978320752 -3777693.978320752 -10293917.41676722 0 0 0 0 0 115448807.9295806 -3156350.975839185 -3156350.975839185 -9481164.691780604 0 0 0 0 0 115304813.7517253 -2744979.249945421 -2744979.249945421 -9103962.725733217 0 0 0 0 0 115145267.8187222 -2360696.311084357 -2360696.311084357 -8737508.691862073 0 0 0 0 0 114971934.1751622 -2001354.550952011 -2001354.550952011 -8381476.868241114 0 0 0 0 0 114787687.9602766 -1665881.210661224 -1665881.210661224 -8035997.950502056 0 0 0 0 0 114751781.6490511 -1729769.905151022 -1729769.905151022 -8244443.457837423 0 0 0 0 0 113978040.4749008 -1340212.427841794 -1340212.427841794 -7545006.178704724 0 0 0 0 0 114540367.901067 -1423597.141626565 -1423597.141626565 -7917385.964064618 0 0 0 0 0 113788593.4778057 -1064685.184316125 -1064685.184316125 -7235693.557765719 0 0 0 0 0 113593364.2906871 -807518.5143965511 -807518.5143965511 -6936246.041094822 0 0 0 0 0 113393443.982051 -567740.5807953564 -567740.5807953564 -6646683.656754805 0 0 0 0 0 113190111.05263 -344297.6482107514 -344297.6482107514 -6366742.23202628 0 0 0 0 0 112656921.7705298 -384672.5439607304 -384672.5439607304 -6260154.107794506 0 0 0 0 0 113090874.3335845 -428098.0831778688 -428098.0831778688 -6583545.755850158 0 0 0 0 0 112467710.3940471 -188041.8929994487 -188041.8929994487 -5998483.737918785 0 0 0 0 0 112263162.8381034 -12642.49256213739 -12642.49256213739 -5755150.426430433 0 0 0 0 0 112064201.7116311 153293.8523925727 153293.8523925727 -5523368.776137433 0 0 0 0 0 111861887.2509975 305530.7802471698 305530.7802471698 -5298486.251578355 0 0 0 0 0 111662534.4469579 451766.4725613081 451766.4725613081 -5076873.435812781 0 0 0 0 0 111344441.0653162 501813.8960500909 501813.8960500909 -5072348.930418727 0 0 0 0 0 111466984.7856015 590160.9806921177 590160.9806921177 -4861734.698264259 0 0 0 0 0 111039031.0435696 508064.0251767879 508064.0251767879 -4806749.605855684 0 0 0 0 0 110854544.0601271 630702.8723940096 630702.8723940096 -4607389.456328439 0 0 0 0 0 110671721.6433136 744720.5872285698 744720.5872285698 -4415818.646229438 0 0 0 0 0 110490723.7491151 850866.2660111641 850866.2660111641 -4230065.790390852 0 0 0 0 0 110312191.8774023 950158.4364843419 950158.4364843419 -4049912.737211005 0 0 0 0 0 110135535.8505704 1042590.465099959 1042590.465099959 -3876353.052773433 0 0 0 0 0 110008062.4457822 956557.9476225551 956557.9476225551 -4071073.96425797 0 0 0 0 0 109779218.6789837 949503.7497064443 949503.7497064443 -3849640.981469422 0 0 0 0 0 109610491.3868001 1041300.171351543 1041300.171351543 -3683307.309302757 0 0 0 0 0 109492120.8186625 1112729.712112971 1112729.712112971 -3573864.182707836 0 0 0 0 0 109302688.4100718 1122584.76799647 1122584.76799647 -3496230.361820247 0 0 0 0 0 109066003.0037483 1090243.443032791 1090243.443032791 -3384027.272503895 0 0 0 0 0 117967218.2536306 -6731923.75823328 -6731923.75823328 -12459829.90601223 0 0 0 0 0 591917.9102169214 2846499.656420291 2846499.656420291 -16908255.62984703 0 0 0 0 0 22081748.95115501 -13873246.20041675 -13873246.20041675 -13915131.78500295 0 0 0 0 0 10861512.94850133 -5630320.26530284 -5630320.26530284 -15800631.34162639 0 0 0 0 0 41862040.2505108 -26288822.18342572 -26288822.18342572 -10520962.49408856 0 0 0 0 0 31547094.2565877 -19246068.87818809 -19246068.87818809 -13670115.82778294 0 0 0 0 0 50062119.66707901 -28987613.53630406 -28987613.53630406 -10590060.54305609 0 0 0 0 0 57861385.34659502 -30867557.67959898 -30867557.67959898 -11053167.52724804 0 0 0 0 0 65268040.95600916 -32014998.98893994 -32014998.98893994 -11729093.61403797 0 0 0 0 0 72261174.94749746 -32518513.13299206 -32518513.13299206 -12501041.0949693 0 0 0 0 0 78716537.36749008 -32442910.83896745 -32442910.83896745 -13297793.60441888 0 0 0 0 0 84637623.48685949 -31932989.80204111 -31932989.80204111 -14047871.01984882 0 0 0 0 0 89990039.2618311 -31084419.29280552 -31084419.29280552 -14710720.75925954 0 0 0 0 0 94801762.60861772 -29967493.41987319 -29967493.41987319 -15269052.4272812 0 0 0 0 0 99220148.55706683 -28936403.5896761 -28936403.5896761 -16093720.45867192 0 0 0 0 0 98982305.8471747 -28301969.65001845 -28301969.65001845 -16921565.36729531 0 0 0 0 0 102530875.6533445 -26873443.95762414 -26873443.95762414 -17105438.6087454 0 0 0 0 0 105661277.4290555 -25363360.1198885 -25363360.1198885 -17190765.14230566 0 0 0 0 0 108402090.8832394 -23810174.79625403 -23810174.79625403 -17185667.09141317 0 0 0 0 0 109955675.7232807 -22124069.60080981 -22124069.60080981 -17668438.23529748 0 0 0 0 0 111330302.5203061 -23044716.90546192 -23044716.90546192 -17364818.0172377 0 0 0 0 0 111917273.445022 -20626135.47202385 -20626135.47202385 -17454564.31926693 0 0 0 0 0 113612450.9649246 -19150591.87234283 -19150591.87234283 -17177611.9802988 0 0 0 0 0 115061959.0415302 -17710767.1186114 -17710767.1186114 -16849391.15776925 0 0 0 0 0 116286070.7738313 -16317165.58214364 -16317165.58214364 -16478211.10925746 0 0 0 0 0 117318108.5985499 -14973630.08861794 -14973630.08861794 -16058940.05650843 0 0 0 0 0 118165992.1751999 -13691851.70811693 -13691851.70811693 -15613919.84556638 0 0 0 0 0 119384915.5985994 -13379300.88616521 -13379300.88616521 -15737236.3356297 0 0 0 0 0 117803668.2596421 -12697874.77174036 -12697874.77174036 -15469459.30509171 0 0 0 0 0 118357681.5585802 -11571932.82400152 -11571932.82400152 -14986617.74646681 0 0 0 0 0 118795223.4419489 -10509640.12579571 -10509640.12579571 -14492081.96747656 0 0 0 0 0 119125112.3118808 -9506572.682392079 -9506572.682392079 -13990925.43939017 0 0 0 0 0 119361583.7161433 -8558365.506084163 -8558365.506084163 -13484897.77761112 0 0 0 0 0 119518682.053345 -7665936.148305773 -7665936.148305773 -12974165.80962539 0 0 0 0 0 120003245.8117532 -7582561.214948295 -7582561.214948295 -13177012.29329417 0 0 0 0 0 118735310.2134908 -7168548.433760583 -7168548.433760583 -12733484.86707705 0 0 0 0 0 118781690.8320911 -6401034.248445638 -6401034.248445638 -12240667.1493724 0 0 0 0 0 118326692.2960094 -6668113.765134242 -6668113.765134242 -12606324.42086247 0 0 0 0 0 118282834.4833489 -5983804.165390118 -5983804.165390118 -12152211.62511937 0 0 0 0 0 117486838.1153399 -5648913.187594824 -5648913.187594824 -11843258.93376941 0 0 0 0 0 117227546.5491376 -5684935.401131984 -5684935.401131984 -11700151.59919713 0 0 0 0 0 117396631.3934516 -5052438.676088811 -5052438.676088811 -11409516.97899504 0 0 0 0 0 117278460.0456546 -4491799.562272359 -4491799.562272359 -10981387.94541432 0 0 0 0 0 117135400.9710734 -3965736.949828209 -3965736.949828209 -10561525.47509731 0 0 0 0 0 116967402.3809535 -3473791.099060699 -3473791.099060699 -10151188.02092192 0 0 0 0 0 116215246.8524032 -3320154.673687476 -3320154.673687476 -9902779.767060682 0 0 0 0 0 116146663.3315241 -3291090.800235575 -3291090.800235575 -9715918.324606128 0 0 0 0 0 116034832.4899959 -2892279.256626828 -2892279.256626828 -9520454.987511609 0 0 0 0 0 115840036.5357268 -2492485.047656267 -2492485.047656267 -9147900.154410806 0 0 0 0 0 115633237.2712963 -2118940.440904497 -2118940.440904497 -8785389.874562781 0 0 0 0 0 115416244.5457616 -1770175.955059494 -1770175.955059494 -8432434.829513244 0 0 0 0 0 115191223.9332926 -1444836.959255311 -1444836.959255311 -8089635.789905111 0 0 0 0 0 114594096.3892649 -1352789.047389689 -1352789.047389689 -7701501.543641647 0 0 0 0 0 114323210.0963933 -1137839.520114401 -1137839.520114401 -7600010.728377461 0 0 0 0 0 114392717.4950588 -1060860.165051776 -1060860.165051776 -7377356.18746884 0 0 0 0 0 114101627.9623465 -871307.3566939986 -871307.3566939986 -7292180.118073122 0 0 0 0 0 113876341.5713439 -622808.7155692637 -622808.7155692637 -6994014.283450847 0 0 0 0 0 113648650.6068031 -391296.9001597172 -391296.9001597172 -6705309.103914309 0 0 0 0 0 113419371.8815967 -175917.1391263231 -175917.1391263231 -6426189.866987484 0 0 0 0 0 112875885.733614 -223643.4880267531 -223643.4880267531 -6317138.164772424 0 0 0 0 0 112983990.5140797 -136320.1746099895 -136320.1746099895 -6096316.893172335 0 0 0 0 0 112650520.3566155 -38298.30100332107 -38298.30100332107 -6066152.767420607 0 0 0 0 0 112434518.9209806 132899.0571929291 132899.0571929291 -5824173.519299595 0 0 0 0 0 112218155.6651591 288735.3161363307 288735.3161363307 -5592067.433588577 0 0 0 0 0 112002283.1072311 438720.6399476975 438720.6399476975 -5358243.465045189 0 0 0 0 0 111790650.5740673 580548.0585376221 580548.0585376221 -5134748.808004485 0 0 0 0 0 111277737.4494053 717979.6823536236 717979.6823536236 -4652882.801929574 0 0 0 0 0 111580114.6697546 713483.7448414685 713483.7448414685 -4918856.835743114 0 0 0 0 0 111146109.0999609 626390.9296872948 626390.9296872948 -4864308.612537045 0 0 0 0 0 110948242.4111197 743364.3103817631 743364.3103817631 -4664922.058802291 0 0 0 0 0 110753102.0297964 852534.5378924698 852534.5378924698 -4471849.302601175 0 0 0 0 0 110560540.0260018 954753.6527767954 954753.6527767954 -4284379.008979884 0 0 0 0 0 110371227.2203943 1049529.305783836 1049529.305783836 -4103338.47283167 0 0 0 0 0 110185105.2008224 1136894.63648517 1136894.63648517 -3928623.641056973 0 0 0 0 0 109959994.2056541 1130441.867804788 1130441.867804788 -3712726.341249529 0 0 0 0 0 109826665.1706667 1043947.830838443 1043947.830838443 -3902876.465410366 0 0 0 0 0 109679499.7954025 1134886.522665575 1134886.522665575 -3724928.517005838 0 0 0 0 0 109295301.5926019 1130966.100133574 1130966.100133574 -3575650.080275162 0 0 0 0 0 109174579.5204759 1138539.508046901 1138539.508046901 -3499747.984029544 0 0 0 0 0 108987036.6618896 1147131.108665977 1147131.108665977 -3461981.277041648 0 0 0 0 0 119119958.615606 -6357500.094978382 -6357500.094978382 -12440547.93679374 0 0 0 0 0 223603.1368958435 4140076.211836636 4140076.211836636 -19380937.34938622 0 0 0 0 0 13653025.90174818 -10191990.57771288 -10191990.57771288 -7156399.171407022 0 0 0 0 0 24924875.82817514 -18046407.79874662 -18046407.79874662 -6555261.349814611 0 0 0 0 0 2753231.069308994 -648596.1713084258 -648596.1713084258 -8511866.215564776 0 0 0 0 0 41784661.62569956 -24009930.7742315 -24009930.7742315 -12197162.91255565 0 0 0 0 0 35846510.93109534 -23478594.39030604 -23478594.39030604 -6483896.221003984 0 0 0 0 0 51026602.74611954 -27136622.10369512 -27136622.10369512 -11627561.59566041 0 0 0 0 0 59833483.9497692 -29368393.56141591 -29368393.56141591 -11605718.79714302 0 0 0 0 0 68065595.17489435 -30778975.23132978 -30778975.23132978 -11889900.40128809 0 0 0 0 0 75694137.07501543 -31482747.99470711 -31482747.99470711 -12366618.27304889 0 0 0 0 0 82650972.09035844 -31593758.29567103 -31593758.29567103 -12938487.93670223 0 0 0 0 0 88848282.75221163 -31190483.72645975 -31190483.72645975 -13551919.1103 0 0 0 0 0 94339219.06996028 -30399341.92872881 -30399341.92872881 -14131175.8991147 0 0 0 0 0 99219405.34360883 -29335700.23455045 -29335700.23455045 -14640338.20292171 0 0 0 0 0 99088825.0127881 -28639621.03264613 -28639621.03264613 -15703305.96285689 0 0 0 0 0 103168295.2517469 -27664856.85282492 -27664856.85282492 -16355751.55135802 0 0 0 0 0 106625422.5248432 -26264381.88656335 -26264381.88656335 -16540515.35536047 0 0 0 0 0 109620959.2149643 -24777936.44905441 -24777936.44905441 -16643728.99535134 0 0 0 0 0 112200806.9851893 -23237606.91032835 -23237606.91032835 -16656826.45082538 0 0 0 0 0 113416111.0958447 -21551782.38903396 -21551782.38903396 -17245166.28125141 0 0 0 0 0 110789500.5957769 -22238616.17816363 -22238616.17816363 -17082994.62404754 0 0 0 0 0 115196786.3791146 -20063395.29937957 -20063395.29937957 -17059200.32424256 0 0 0 0 0 116701690.1884457 -18598410.13147764 -18598410.13147764 -16815810.60662483 0 0 0 0 0 117959897.0221002 -17172858.20460812 -17172858.20460812 -16521370.3759699 0 0 0 0 0 119001941.9028617 -15788421.36471514 -15788421.36471514 -16175247.1257792 0 0 0 0 0 119835214.5783855 -14459030.14859837 -14459030.14859837 -15803476.13919912 0 0 0 0 0 120494786.5665771 -13193744.31023493 -13193744.31023493 -15396737.20389687 0 0 0 0 0 118849262.5503176 -12472940.43045017 -12472940.43045017 -15148457.939961 0 0 0 0 0 119907707.5817356 -12212155.98930793 -12212155.98930793 -15296516.06662792 0 0 0 0 0 120304514.0719582 -11106664.97927726 -11106664.97927726 -14839370.14331206 0 0 0 0 0 120587591.9719545 -10057532.49102525 -10057532.49102525 -14370035.82250265 0 0 0 0 0 120774981.4238056 -9069602.888845449 -9069602.888845449 -13888449.98160228 0 0 0 0 0 120882598.5396054 -8136814.412902935 -8136814.412902935 -13399758.74467376 0 0 0 0 0 120910752.5775087 -7261944.784504316 -7261944.784504316 -12910193.79482679 0 0 0 0 0 119602905.616187 -6830189.541011034 -6830189.541011034 -12465314.91999185 0 0 0 0 0 119996821.9650201 -6779538.997639926 -6779538.997639926 -12696780.14244461 0 0 0 0 0 119936307.4947634 -6027686.047696037 -6027686.047696037 -12218470.70544815 0 0 0 0 0 117988276.916359 -6022632.992830645 -6022632.992830645 -11982230.63475742 0 0 0 0 0 117963351.2105366 -5358400.843956863 -5358400.843956863 -11512052.43098282 0 0 0 0 0 117189240.8375665 -5068697.862401269 -5068697.862401269 -11247140.38337433 0 0 0 0 0 118198528.0592156 -5341372.985337843 -5341372.985337843 -11701872.91333093 0 0 0 0 0 117116544.8679008 -4491232.12322343 -4491232.12322343 -10803182.6696771 0 0 0 0 0 117012105.2717184 -3950742.044561716 -3950742.044561716 -10369580.57697377 0 0 0 0 0 116880901.411248 -3444729.770740508 -3444729.770740508 -9944804.824154453 0 0 0 0 0 116727547.7515082 -2971939.589474333 -2971939.589474333 -9530124.000580402 0 0 0 0 0 115997709.858328 -2850861.643536638 -2850861.643536638 -9319789.616661107 0 0 0 0 0 116778344.3233969 -3014983.447234774 -3014983.447234774 -9751417.186382694 0 0 0 0 0 115830761.2608642 -2440128.179651659 -2440128.179651659 -8935192.385002911 0 0 0 0 0 115648586.0676806 -2057060.482118124 -2057060.482118124 -8562455.955440149 0 0 0 0 0 115453775.0442531 -1699907.48724281 -1699907.48724281 -8201087.929982808 0 0 0 0 0 115248076.4874784 -1367188.366724288 -1367188.366724288 -7850624.690319691 0 0 0 0 0 115033868.0267301 -1057574.385025815 -1057574.385025815 -7511154.329292388 0 0 0 0 0 114960074.7565933 -1141863.222285676 -1141863.222285676 -7757202.088639111 0 0 0 0 0 114185057.2021973 -788899.1504007679 -788899.1504007679 -7063624.816390223 0 0 0 0 0 114723630.2418742 -859455.9973168483 -859455.9973168483 -7434970.457800161 0 0 0 0 0 113972148.4831495 -535695.8670346843 -535695.8670346843 -6760687.459750651 0 0 0 0 0 113755173.1449596 -300174.0328245543 -300174.0328245543 -6468095.363726099 0 0 0 0 0 113535205.429564 -81308.88861427351 -81308.88861427351 -6185606.105804886 0 0 0 0 0 113313126.1371393 121833.8313086094 121833.8313086094 -5913011.452262921 0 0 0 0 0 112776446.0815151 56778.12317891033 56778.12317891033 -5834727.283087291 0 0 0 0 0 113189284.8842026 24300.72714360444 24300.72714360444 -6156241.994307732 0 0 0 0 0 112574512.893166 234945.5262354132 234945.5262354132 -5582475.846076946 0 0 0 0 0 112358066.3585335 392322.1098907966 392322.1098907966 -5346657.508603526 0 0 0 0 0 112134078.0520936 534300.9599132983 534300.9599132983 -5129830.252587138 0 0 0 0 0 111927781.731448 677778.2397358706 677778.2397358706 -4907116.924172835 0 0 0 0 0 111719757.9012018 811580.0508422996 811580.0508422996 -4690385.6389037 0 0 0 0 0 111370860.7609904 835203.9505693211 835203.9505693211 -4712874.501209499 0 0 0 0 0 111514507.7257726 935249.9376219928 935249.9376219928 -4481520.285326004 0 0 0 0 0 111082704.5545028 836056.1504249023 836056.1504249023 -4452999.322421725 0 0 0 0 0 110889564.4071689 945838.8707322238 945838.8707322238 -4259909.653400076 0 0 0 0 0 110697245.8130932 1047245.283984001 1047245.283984001 -4074347.510527136 0 0 0 0 0 110509895.3055983 1142575.111700665 1142575.111700665 -3893609.387208322 0 0 0 0 0 110324236.4214708 1230151.283890186 1230151.283890186 -3718583.187627673 0 0 0 0 0 110141844.0502965 1310619.566529551 1310619.566529551 -3549692.589497127 0 0 0 0 0 110005750.7499836 1217833.057575562 1217833.057575562 -3761202.818958926 0 0 0 0 0 109785121.3131474 1210497.144338794 1210497.144338794 -3547179.729534453 0 0 0 0 0 109544889.8145251 1274157.870233172 1274157.870233172 -3400675.069615988 0 0 0 0 0 109447438.7174961 1287977.595927776 1287977.595927776 -3260604.703744341 0 0 0 0 0 109587802.0511025 1293790.623087372 1293790.623087372 -3417772.324533639 0 0 0 0 0 109266141.5434677 1305307.732372335 1305307.732372335 -3182305.510063816 0 0 0 0 0 118774701.8760964 -5682716.453637887 -5682716.453637887 -11753616.83043731 0 0 0 0 0 15478575.70435103 -9703983.737190485 -9703983.737190485 -7781933.355693316 0 0 0 0 0 26215302.67884464 -16907303.25715536 -16907303.25715536 -7896748.942690293 0 0 0 0 0 3504380.436861746 -184569.3049637549 -184569.3049637549 -9380869.786364406 0 0 0 0 0 45448712.68529183 -27351134.12540716 -27351134.12540716 -6760121.103328544 0 0 0 0 0 36326936.64467227 -21872405.56176927 -21872405.56176927 -7864001.612644366 0 0 0 0 0 54030967.21123332 -29899976.44145791 -29899976.44145791 -7464384.186854978 0 0 0 0 0 62164164.38888922 -31541578.85162021 -31541578.85162021 -8478165.154243315 0 0 0 0 0 69801298.76838237 -32408125.26114655 -32408125.26114655 -9619595.419436401 0 0 0 0 0 76888098.62382726 -32575649.21376254 -32575649.21376254 -10734385.86109887 0 0 0 0 0 83392369.56388669 -32231839.07623789 -32231839.07623789 -11772491.81245299 0 0 0 0 0 89259192.47280742 -31481434.87007289 -31481434.87007289 -12696149.2451884 0 0 0 0 0 94483943.38082726 -30390987.90842416 -30390987.90842416 -13472466.44208756 0 0 0 0 0 99116587.41558304 -29033716.22967674 -29033716.22967674 -14123750.42266825 0 0 0 0 0 103465338.626148 -28055397.98792551 -28055397.98792551 -15061721.29273124 0 0 0 0 0 102882697.5504942 -27181219.55666676 -27181219.55666676 -16028544.9457076 0 0 0 0 0 106219071.576222 -25624358.88875315 -25624358.88875315 -16231290.67218849 0 0 0 0 0 109124881.1750594 -24012433.78382967 -24012433.78382967 -16319181.27700187 0 0 0 0 0 111639063.936406 -22382053.01466159 -22382053.01466159 -16306528.15168687 0 0 0 0 0 112841842.6969318 -20683633.31571615 -20683633.31571615 -16915586.53962354 0 0 0 0 0 114398455.4097767 -21689712.76527833 -21689712.76527833 -16604150.4614983 0 0 0 0 0 114604691.1561544 -19151674.56667238 -19151674.56667238 -16674116.1095518 0 0 0 0 0 116102743.3489417 -17660637.24606064 -17660637.24606064 -16371878.32558283 0 0 0 0 0 117355365.4395946 -16216163.25936382 -16216163.25936382 -16020690.89595029 0 0 0 0 0 118404361.0357479 -14826764.33090872 -14826764.33090872 -15630986.74747347 0 0 0 0 0 119265891.0293102 -13489901.80911899 -13489901.80911899 -15180820.83422416 0 0 0 0 0 119941675.0531108 -12233550.03585429 -12233550.03585429 -14725166.42230161 0 0 0 0 0 121002324.5725158 -11990196.40138987 -11990196.40138987 -14961600.45262936 0 0 0 0 0 119390707.3037078 -11316720.80429974 -11316720.80429974 -14660833.15366818 0 0 0 0 0 119801744.9582806 -10226455.83848969 -10226455.83848969 -14171088.67374719 0 0 0 0 0 120108600.71251 -9198365.985253502 -9198365.985253502 -13666666.79627398 0 0 0 0 0 120318366.9360649 -8232899.277420052 -8232899.277420052 -13159496.42668517 0 0 0 0 0 120440915.9478113 -7324738.748062993 -7324738.748062993 -12647397.78622796 0 0 0 0 0 120492841.2127953 -6474958.634759731 -6474958.634759731 -12135909.93836569 0 0 0 0 0 120870019.012789 -6443460.768222732 -6443460.768222732 -12423328.08703844 0 0 0 0 0 119620244.1905369 -6050567.859181012 -6050567.859181012 -11964080.51050745 0 0 0 0 0 119581357.1170356 -5323327.296691829 -5323327.296691829 -11471072.68538775 0 0 0 0 0 119044703.7636446 -5663696.990246441 -5663696.990246441 -11974467.2596318 0 0 0 0 0 118929744.6857909 -5014768.52973373 -5014768.52973373 -11515615.02606655 0 0 0 0 0 118080057.2390234 -4739288.67737262 -4739288.67737262 -11258340.94159249 0 0 0 0 0 117897063.6185765 -4736785.942864805 -4736785.942864805 -11050404.03834239 0 0 0 0 0 117930838.9729295 -4175667.423038147 -4175667.423038147 -10822461.69094615 0 0 0 0 0 117757729.35115 -3648333.123876882 -3648333.123876882 -10394012.2282794 0 0 0 0 0 117563390.5979219 -3155677.186236232 -3155677.186236232 -9975382.000677142 0 0 0 0 0 117348943.7882107 -2695782.712481384 -2695782.712481384 -9566856.153160635 0 0 0 0 0 116572067.2564125 -2586779.074382981 -2586779.074382981 -9361486.75722377 0 0 0 0 0 116555021.4521732 -2530991.170789088 -2530991.170789088 -9127206.566053186 0 0 0 0 0 116352690.4396863 -2187603.811627254 -2187603.811627254 -8982022.179461233 0 0 0 0 0 116122611.0161795 -1816004.055067227 -1816004.055067227 -8613014.457529236 0 0 0 0 0 115883524.9403999 -1469860.235361362 -1469860.235361362 -8254741.224999568 0 0 0 0 0 115636398.312978 -1147321.289289182 -1147321.289289182 -7907105.361426142 0 0 0 0 0 115383763.5493539 -848025.9331175513 -848025.9331175513 -7570446.186873932 0 0 0 0 0 114812129.3655748 -769870.6547988615 -769870.6547988615 -7184264.323723128 0 0 0 0 0 114483136.8334281 -596618.666594044 -596618.666594044 -7122956.318312329 0 0 0 0 0 114585546.3717044 -501833.6271508423 -501833.6271508423 -6867038.967590003 0 0 0 0 0 114240035.5022825 -352422.3090024248 -352422.3090024248 -6821099.668863674 0 0 0 0 0 113995078.9793617 -125470.8952131801 -125470.8952131801 -6529347.702322615 0 0 0 0 0 113749275.3964971 85156.24216776318 85156.24216776318 -6247501.106828203 0 0 0 0 0 113503435.3939884 280679.0745913329 280679.0745913329 -5975106.337385547 0 0 0 0 0 112958684.5307562 210407.7620622766 210407.7620622766 -5895487.720701141 0 0 0 0 0 113090227.0609851 310637.2705621587 310637.2705621587 -5650188.9820653 0 0 0 0 0 112722480.688638 377533.6391381827 377533.6391381827 -5654274.529042872 0 0 0 0 0 112484242.4297043 524069.5977525227 524069.5977525227 -5426600.981150364 0 0 0 0 0 112263406.5062957 668396.7599348412 668396.7599348412 -5193320.462952311 0 0 0 0 0 112037926.5570623 804648.0320638068 804648.0320638068 -4968134.715368976 0 0 0 0 0 111815157.8414943 932169.2372946301 932169.2372946301 -4749857.933610009 0 0 0 0 0 111310522.4552412 1048161.744198927 1048161.744198927 -4281932.960871597 0 0 0 0 0 111595260.4321859 1049599.775986155 1049599.775986155 -4541758.097834008 0 0 0 0 0 111163449.2501672 947342.0710734227 947342.0710734227 -4511482.717833576 0 0 0 0 0 110957836.5610323 1051442.836511391 1051442.836511391 -4318282.624716613 0 0 0 0 0 110756736.0984682 1149474.641220788 1149474.641220788 -4129754.95043186 0 0 0 0 0 110557944.7300804 1240148.720234043 1240148.720234043 -3948528.478092108 0 0 0 0 0 110362489.1495364 1323770.390260422 1323770.390260422 -3773093.558854454 0 0 0 0 0 110173727.6413493 1400956.044278224 1400956.044278224 -3603488.008866273 0 0 0 0 0 109958596.6734824 1389846.600987928 1389846.600987928 -3404816.090020698 0 0 0 0 0 109812432.1247502 1298358.173194942 1298358.173194942 -3600384.035030447 0 0 0 0 0 109673803.8660319 1387925.010010478 1387925.010010478 -3411585.813277713 0 0 0 0 0 109323054.6286743 1339293.752481411 1339293.752481411 -3332246.547787413 0 0 0 0 0 109386711.5996685 1382424.497946045 1382424.497946045 -3230597.167537467 0 0 0 0 0 109101084.6881833 1353756.641386631 1353756.641386631 -3257000.481932457 0 0 0 0 0 119827907.4247245 -5325314.05560081 -5325314.05560081 -11746211.17657083 0 0 0 0 0 5959904.464055 -5253856.950260684 -5253856.950260684 -364479.8771471654 0 0 0 0 0 17474039.65751578 -13982349.74495412 -13982349.74495412 -834519.2429231487 0 0 0 0 0 28887129.96857005 -20650748.42927992 -20650748.42927992 -1423742.382035712 0 0 0 0 0 45958842.50387565 -25558727.75976864 -25558727.75976864 -7828777.073859815 0 0 0 0 0 39956714.27781145 -25499302.35229595 -25499302.35229595 -1648005.049132864 0 0 0 0 0 55616888.2788394 -28465251.76114133 -28465251.76114133 -8060839.611737407 0 0 0 0 0 64764679.00098983 -30391748.89325409 -30391748.89325409 -8634366.605847837 0 0 0 0 0 73298932.29902542 -31511451.20157314 -31511451.20157314 -9383740.849718589 0 0 0 0 0 80918734.53032812 -31840425.06920224 -31840425.06920224 -10260765.09460576 0 0 0 0 0 87757166.80879629 -31594058.94583666 -31594058.94583666 -11163552.93680637 0 0 0 0 0 93791726.81626537 -30873561.03074472 -30873561.03074472 -11987747.10351121 0 0 0 0 0 99113516.68700273 -29823336.03114355 -29823336.03114355 -12743574.35197386 0 0 0 0 0 103734108.5431031 -28550030.45729985 -28550030.45729985 -13379865.99715346 0 0 0 0 0 103185435.6541557 -27547463.61518078 -27547463.61518078 -14637239.29890532 0 0 0 0 0 107176528.1005818 -26620796.57545765 -26620796.57545765 -15383443.34065871 0 0 0 0 0 110376451.6616224 -25081774.77958981 -25081774.77958981 -15606505.28033556 0 0 0 0 0 113103124.8310434 -23482656.82019 -23482656.82019 -15728334.66860178 0 0 0 0 0 115416531.3672314 -21864364.806516 -21864364.806516 -15755492.75766416 0 0 0 0 0 116256456.9116697 -20140205.37648392 -20140205.37648392 -16468813.6880031 0 0 0 0 0 113797891.9923311 -20759758.65706095 -20759758.65706095 -16199833.47899498 0 0 0 0 0 117811408.2330156 -18618421.96760192 -18618421.96760192 -16269002.58513776 0 0 0 0 0 119094977.822136 -17135039.31362919 -17135039.31362919 -16008771.76446425 0 0 0 0 0 120157759.6006385 -15700139.87875132 -15700139.87875132 -15692996.9450096 0 0 0 0 0 121019016.7981253 -14313244.2723923 -14313244.2723923 -15322497.56396506 0 0 0 0 0 121662923.1010208 -13005329.77354916 -13005329.77354916 -14941765.86691544 0 0 0 0 0 122144953.1091741 -11759807.39081743 -11759807.39081743 -14520424.97734573 0 0 0 0 0 120467726.9441915 -11043317.23106207 -11043317.23106207 -14247187.43154909 0 0 0 0 0 121367992.1326335 -10854205.96567292 -10854205.96567292 -14511249.37418899 0 0 0 0 0 121624552.313362 -9781343.889209025 -9781343.889209025 -14039233.65231127 0 0 0 0 0 121778241.3291316 -8769004.885548066 -8769004.885548066 -13559405.45312323 0 0 0 0 0 121846412.9722323 -7817855.76438275 -7817855.76438275 -13069817.47307482 0 0 0 0 0 121842543.522052 -6926424.089159056 -6926424.089159056 -12577171.99022022 0 0 0 0 0 121768960.5216721 -6091419.868404298 -6091419.868404298 -12083492.74423382 0 0 0 0 0 120481939.7821334 -5681412.658034205 -5681412.658034205 -11626791.5321434 0 0 0 0 0 120773946.5277956 -5680501.358718405 -5680501.358718405 -11939991.37937582 0 0 0 0 0 120630873.0116708 -4969147.470818944 -4969147.470818944 -11460963.53367676 0 0 0 0 0 118719094.0343991 -5011667.138851641 -5011667.138851641 -11274795.3736133 0 0 0 0 0 118621847.370223 -4385926.064362573 -4385926.064362573 -10807296.78047103 0 0 0 0 0 117795321.7507592 -4155657.300098434 -4155657.300098434 -10597808.48632035 0 0 0 0 0 118780021.6987603 -4407613.98238082 -4407613.98238082 -11063093.28984549 0 0 0 0 0 117663711.1559575 -3613255.756533413 -3613255.756533413 -10156076.29920962 0 0 0 0 0 117505167.0365587 -3107281.858769786 -3107281.858769786 -9725460.119043531 0 0 0 0 0 117323417.6225729 -2635254.618438701 -2635254.618438701 -9305956.070404237 0 0 0 0 0 117123438.0544184 -2195547.729223623 -2195547.729223623 -8897811.613016773 0 0 0 0 0 116365814.2503193 -2120082.195704759 -2120082.195704759 -8734859.974609572 0 0 0 0 0 117119573.858952 -2266642.988630205 -2266642.988630205 -9168778.437499752 0 0 0 0 0 116160579.0599144 -1738784.312110189 -1738784.312110189 -8355326.047527981 0 0 0 0 0 115942650.0329769 -1384776.491778784 -1384776.491778784 -7989457.825486932 0 0 0 0 0 115715051.2654753 -1055319.062388574 -1055319.062388574 -7636161.38220575 0 0 0 0 0 115479310.3658212 -749593.654280582 -749593.654280582 -7293120.832402814 0 0 0 0 0 115236927.513845 -466560.9196024099 -466560.9196024099 -6962709.302721568 0 0 0 0 0 115128022.3823386 -570042.6661980586 -570042.6661980586 -7244048.509583393 0 0 0 0 0 114354730.6432292 -252902.856938342 -252902.856938342 -6560228.03645552 0 0 0 0 0 114868466.3063992 -311730.8303365512 -311730.8303365512 -6927945.69027863 0 0 0 0 0 114120072.7061113 -22308.57409779657 -22308.57409779657 -6265557.015289189 0 0 0 0 0 113883139.5370329 191413.879801445 191413.879801445 -5981343.246053342 0 0 0 0 0 113644861.0491859 389451.6051743942 389451.6051743942 -5707526.958686356 0 0 0 0 0 113406127.6287242 572598.0844357309 572598.0844357309 -5443240.963082557 0 0 0 0 0 112867621.3877526 484365.714479634 484365.714479634 -5396809.987632428 0 0 0 0 0 113258852.5537453 461807.6216863376 461807.6216863376 -5712242.392978092 0 0 0 0 0 112648921.6772559 641336.8283748253 641336.8283748253 -5154697.806632326 0 0 0 0 0 112419884.9107265 779006.276510943 779006.276510943 -4933941.257082802 0 0 0 0 0 112189313.5455824 911669.7175235049 911669.7175235049 -4717864.791539224 0 0 0 0 0 111969017.8794454 1039224.338025198 1039224.338025198 -4502379.556382856 0 0 0 0 0 111752438.778016 1157926.883460625 1157926.883460625 -4292824.994269264 0 0 0 0 0 111377698.4083373 1156784.429311239 1156784.429311239 -4342182.150169722 0 0 0 0 0 111536951.1279437 1266026.541201263 1266026.541201263 -4093640.14776581 0 0 0 0 0 111106791.6088388 1152782.926342731 1152782.926342731 -4089064.395935647 0 0 0 0 0 110905182.4705738 1249392.045224574 1249392.045224574 -3903842.244589708 0 0 0 0 0 110707107.977391 1339925.486584367 1339925.486584367 -3724065.211311606 0 0 0 0 0 110512041.1109836 1423139.965139457 1423139.965139457 -3550678.394529346 0 0 0 0 0 110320566.9288733 1498918.795113446 1498918.795113446 -3383594.974177421 0 0 0 0 0 110135278.4152106 1571914.822203331 1571914.822203331 -3212219.162802116 0 0 0 0 0 109979555.6653368 1461906.157017944 1461906.157017944 -3448780.943671353 0 0 0 0 0 109774380.7806042 1457331.530277153 1457331.530277153 -3246658.033003554 0 0 0 0 0 109582360.3319615 1519013.566977703 1519013.566977703 -3122641.046566479 0 0 0 0 0 109363672.4104125 1507761.144928907 1507761.144928907 -3009859.686500261 0 0 0 0 0 109591133.405464 1520946.471296996 1520946.471296996 -3156127.411189373 0 0 0 0 0 119495127.662965 -4645668.974980445 -4645668.974980445 -10986352.92921832 0 0 0 0 0 7264453.304423129 -5536902.792771762 -5536902.792771762 91595.09860543843 0 0 0 0 0 20629086.98562782 -14467876.94820207 -14467876.94820207 12774.77695188047 0 0 0 0 0 30801697.8183441 -20153025.21677181 -20153025.21677181 -1821210.164249321 0 0 0 0 0 49442285.22819909 -28789953.98253439 -28789953.98253439 -2773240.106938647 0 0 0 0 0 40011362.50924469 -23904278.45841883 -23904278.45841883 -2771419.224531301 0 0 0 0 0 58398665.29389923 -31048530.80050585 -31048530.80050585 -4249231.656157447 0 0 0 0 0 66832431.76812205 -32319562.039759 -32319562.039759 -5874624.137332096 0 0 0 0 0 74668679.41195585 -32789044.96004062 -32789044.96004062 -7422624.119466444 0 0 0 0 0 81830687.54629119 -32633152.67616537 -32633152.67616537 -8853728.213399673 0 0 0 0 0 88271139.58374229 -31968367.12044498 -31968367.12044498 -10130206.02492791 0 0 0 0 0 94038273.28431584 -30967150.95948144 -30967150.95948144 -11207834.27214194 0 0 0 0 0 99058864.68145375 -29520953.61623079 -29520953.61623079 -12073431.21281645 0 0 0 0 0 103453234.9083773 -28009463.2232677 -28009463.2232677 -12882048.72126627 0 0 0 0 0 107708013.9420297 -27063014.11047796 -27063014.11047796 -13893021.41921599 0 0 0 0 0 106756840.0197565 -25939595.97330679 -25939595.97330679 -14998376.92753916 0 0 0 0 0 109854298.3576009 -24260566.60907308 -24260566.60907308 -15212774.05413592 0 0 0 0 0 112513526.2104087 -22562229.87754031 -22562229.87754031 -15306223.17027107 0 0 0 0 0 114780229.5300715 -20868148.55136553 -20868148.55136553 -15289462.71820322 0 0 0 0 0 115633749.3971666 -19165120.99396842 -19165120.99396842 -16012032.07323973 0 0 0 0 0 117361096.9245105 -20249402.34261982 -20249402.34261982 -15695012.38919475 0 0 0 0 0 117179615.9286298 -17613189.66277464 -17613189.66277464 -15754160.81529284 0 0 0 0 0 118459863.582579 -16123248.34848366 -16123248.34848366 -15438084.58500811 0 0 0 0 0 119517287.60304 -14686050.57899712 -14686050.57899712 -15069953.26504974 0 0 0 0 0 120383425.8661966 -13302021.87916638 -13302021.87916638 -14659628.65626927 0 0 0 0 0 121076405.6611461 -11986339.83725789 -11986339.83725789 -14197026.10127463 0 0 0 0 0 121586700.2007549 -10757260.96819065 -10757260.96819065 -13726846.97203873 0 0 0 0 0 122490943.4288574 -10587572.25150101 -10587572.25150101 -14075845.14064474 0 0 0 0 0 120859654.7042647 -9920155.185044978 -9920155.185044978 -13748140.38542046 0 0 0 0 0 121125166.9413109 -8875516.477117773 -8875516.477117773 -13262757.105767 0 0 0 0 0 121305212.6857552 -7888675.351647274 -7888675.351647274 -12753631.18738731 0 0 0 0 0 121397654.5419632 -6965429.390897607 -6965429.390897607 -12244684.27165696 0 0 0 0 0 121412129.005565 -6101791.643970082 -6101791.643970082 -11733494.19504827 0 0 0 0 0 121364947.0935732 -5295561.181684796 -5295561.181684796 -11224113.91455402 0 0 0 0 0 121634846.3126009 -5316445.497779302 -5316445.497779302 -11597337.70417201 0 0 0 0 0 120410532.2100287 -4944966.137107846 -4944966.137107846 -11128417.89947809 0 0 0 0 0 120289660.958426 -4260980.345213538 -4260980.345213538 -10640403.0823647 0 0 0 0 0 119677987.9695389 -4670143.458944323 -4670143.458944323 -11280344.23512633 0 0 0 0 0 119496169.9111549 -4058246.138065943 -4058246.138065943 -10820551.87144473 0 0 0 0 0 118600459.4672169 -3840780.806812276 -3840780.806812276 -10619492.49306354 0 0 0 0 0 118491059.4546646 -3801255.891487475 -3801255.891487475 -10347692.25305765 0 0 0 0 0 118395672.4755176 -3312278.473873156 -3312278.473873156 -10185124.8512531 0 0 0 0 0 118170321.0116344 -2819976.528038739 -2819976.528038739 -9760089.954006564 0 0 0 0 0 117929356.2844978 -2360846.453686015 -2360846.453686015 -9345274.842941159 0 0 0 0 0 117672230.8320014 -1934061.495528204 -1934061.495528204 -8942072.081905073 0 0 0 0 0 116874752.896321 -1868775.548164977 -1868775.548164977 -8782944.122141222 0 0 0 0 0 116906763.0203492 -1787063.951185859 -1787063.951185859 -8501370.282940742 0 0 0 0 0 116618886.5793409 -1499335.20686855 -1499335.20686855 -8408627.094486697 0 0 0 0 0 116356069.9072091 -1156228.139986051 -1156228.139986051 -8045645.604137187 0 0 0 0 0 116088789.5908529 -838198.1005940582 -838198.1005940582 -7694248.029543976 0 0 0 0 0 115813295.1417478 -542788.365814421 -542788.365814421 -7354362.795795933 0 0 0 0 0 115534091.247554 -271258.7587275103 -271258.7587275103 -7026966.580646921 0 0 0 0 0 114988335.7544847 -204725.5207665744 -204725.5207665744 -6644644.216101161 0 0 0 0 0 114606312.2578425 -72070.20549664817 -72070.20549664817 -6622889.271225176 0 0 0 0 0 114738507.720877 39157.51370088238 39157.51370088238 -6335632.967670686 0 0 0 0 0 114343574.5250757 149904.0475140311 149904.0475140311 -6329064.113468939 0 0 0 0 0 114080764.0116641 355338.4527230412 355338.4527230412 -6045422.340483733 0 0 0 0 0 113819016.8810127 545434.5819700228 545434.5819700228 -5771717.189723729 0 0 0 0 0 113558810.8350084 721462.493177751 721462.493177751 -5507603.305720968 0 0 0 0 0 113013674.3853763 628333.4738023952 628333.4738023952 -5461190.765962747 0 0 0 0 0 113168070.0191783 741297.3173472875 741297.3173472875 -5191652.621380511 0 0 0 0 0 112762948.8767514 772139.1173278233 772139.1173278233 -5232817.423163718 0 0 0 0 0 112517905.1500093 905672.3696318057 905672.3696318057 -5007722.42955068 0 0 0 0 0 112283749.7931834 1034353.920595033 1034353.920595033 -4782015.048204385 0 0 0 0 0 112050643.5703665 1157083.46324159 1157083.46324159 -4562952.057500522 0 0 0 0 0 111817908.0544079 1269420.460165773 1269420.460165773 -4354363.220421267 0 0 0 0 0 111322540.3596805 1364678.985611113 1364678.985611113 -3902600.711991505 0 0 0 0 0 111590272.9428371 1371518.398028434 1371518.398028434 -4155424.20128065 0 0 0 0 0 111162522.908309 1256071.589548017 1256071.589548017 -4148079.863907581 0 0 0 0 0 110951345.6718709 1348724.470741972 1348724.470741972 -3960860.405578361 0 0 0 0 0 110743506.3861185 1434367.96664213 1434367.96664213 -3779815.377612443 0 0 0 0 0 110538523.6577312 1513253.843001073 1513253.843001073 -3605612.980096282 0 0 0 0 0 110335593.9798659 1584310.193433626 1584310.193433626 -3438061.082646331 0 0 0 0 0 110108256.7441489 1638050.130103186 1638050.130103186 -3275782.32550159 0 0 0 0 0 109927614.7178145 1621433.512449272 1621433.512449272 -3118792.371502817 0 0 0 0 0 109781714.1957973 1532602.15543336 1532602.15543336 -3299306.764260552 0 0 0 0 0 109606888.6936438 1580544.509719979 1580544.509719979 -3150999.704956719 0 0 0 0 0 109201385.5296952 1539290.456377702 1539290.456377702 -3065453.391703393 0 0 0 0 0 109361232.5926869 1570571.311460188 1570571.311460188 -3053864.950175892 0 0 0 0 0 120447396.7932387 -4306844.654702798 -4306844.654702798 -10989024.53220384 0 0 0 0 0 10496842.36394761 -10972675.91873368 -10972675.91873368 8472540.883705338 0 0 0 0 0 20883660.43103739 -17819868.53571539 -17819868.53571539 3967520.256010902 0 0 0 0 0 34201208.10621053 -23753334.34755126 -23753334.34755126 4723547.019736603 0 0 0 0 0 50441046.22855217 -27440570.79509664 -27440570.79509664 -3413452.465918396 0 0 0 0 0 44040647.52568132 -27688375.33875643 -27688375.33875643 3387861.240173748 0 0 0 0 0 60696785.81258908 -30031173.7454273 -30031173.7454273 -4383810.3408803 0 0 0 0 0 70253094.87083443 -31579068.63781817 -31579068.63781817 -5545144.179598223 0 0 0 0 0 78813031.43313912 -32208119.89007294 -32208119.89007294 -6827405.634321566 0 0 0 0 0 86371930.94430588 -32146727.33457649 -32146727.33457649 -8095226.570171466 0 0 0 0 0 93029188.63461332 -31521357.67145054 -31521357.67145054 -9270617.185700396 0 0 0 0 0 98884432.78018126 -30436923.10501843 -30436923.10501843 -10268088.62618244 0 0 0 0 0 103960572.1871647 -29211705.63063282 -29211705.63063282 -11225799.13971811 0 0 0 0 0 108275125.1106932 -27627828.72769402 -27627828.72769402 -11974107.5371402 0 0 0 0 0 107293239.646982 -26327975.90020479 -26327975.90020479 -13423079.70543196 0 0 0 0 0 111136612.6637512 -25465958.15566289 -25465958.15566289 -14273537.45267557 0 0 0 0 0 114027802.2080645 -23794720.70290241 -23794720.70290241 -14531104.44045168 0 0 0 0 0 116472411.2565148 -22099075.06040056 -22099075.06040056 -14674542.15338878 0 0 0 0 0 118511044.1723781 -20407469.0274731 -20407469.0274731 -14710544.82597736 0 0 0 0 0 118971535.9309421 -18662026.53924468 -18662026.53924468 -15554356.27990342 0 0 0 0 0 116698633.799226 -19201666.47437001 -19201666.47437001 -15174172.11014748 0 0 0 0 0 120287877.4949825 -17120653.58245167 -17120653.58245167 -15347452.24673979 0 0 0 0 0 121346196.9420478 -15631581.50540186 -15631581.50540186 -15070607.15164783 0 0 0 0 0 122203346.9596515 -14200309.8532148 -14200309.8532148 -14737344.12464993 0 0 0 0 0 122874520.3124456 -12824759.16947996 -12824759.16947996 -14353686.18651216 0 0 0 0 0 123344717.5606792 -11535020.2707104 -11535020.2707104 -13959381.49012326 0 0 0 0 0 123653665.6344217 -10321592.25299059 -10321592.25299059 -13533774.54011656 0 0 0 0 0 121955762.8367966 -9604505.821191862 -9604505.821191862 -13244263.1646312 0 0 0 0 0 122698347.3413413 -9490496.34907224 -9490496.34907224 -13626062.90408056 0 0 0 0 0 122817758.760533 -8454588.375210792 -8454588.375210792 -13143202.79741833 0 0 0 0 0 122846439.3757388 -7484129.848903386 -7484129.848903386 -12658935.54410885 0 0 0 0 0 122800912.8125927 -6575218.042421676 -6575218.042421676 -12167270.50035409 0 0 0 0 0 122692384.0315237 -5727290.228167194 -5727290.228167194 -11674168.80520162 0 0 0 0 0 122520972.2478139 -4939366.509213896 -4939366.509213896 -11185230.63082947 0 0 0 0 0 121260489.7329761 -4549270.490282313 -4549270.490282313 -10722186.32388241 0 0 0 0 0 121453679.9515981 -4596889.382311954 -4596889.382311954 -11115855.4124983 0 0 0 0 0 121232766.7551378 -3928566.099088366 -3928566.099088366 -10640751.22004035 0 0 0 0 0 119367395.7910463 -4014419.397899675 -4014419.397899675 -10511018.28371995 0 0 0 0 0 119202762.4290175 -3428276.292827144 -3428276.292827144 -10048404.24631951 0 0 0 0 0 118329260.998686 -3257179.343364767 -3257179.343364767 -9899576.919497902 0 0 0 0 0 119284495.9727349 -3488560.71922706 -3488560.71922706 -10370542.82361874 0 0 0 0 0 118142039.5908444 -2751052.516445821 -2751052.516445821 -9463340.007666238 0 0 0 0 0 117932376.1013095 -2280931.138581472 -2280931.138581472 -9039771.109578747 0 0 0 0 0 117703031.0418406 -1844384.274411296 -1844384.274411296 -8628577.578079708 0 0 0 0 0 117459282.8374531 -1438867.757774055 -1438867.757774055 -8230631.809857725 0 0 0 0 0 116678566.1340707 -1407297.827065522 -1407297.827065522 -8116906.434543576 0 0 0 0 0 117403220.7584209 -1537124.952818033 -1537124.952818033 -8549384.756050302 0 0 0 0 0 116438866.9739597 -1055324.427293458 -1055324.427293458 -7745189.336229839 0 0 0 0 0 116187046.3593576 -731654.8273118939 -731654.8273118939 -7388863.65454865 0 0 0 0 0 115927336.0183758 -431570.2453716256 -431570.2453716256 -7047997.960920222 0 0 0 0 0 115663846.8070391 -153428.9932420427 -153428.9932420427 -6713656.918884709 0 0 0 0 0 115395143.3707783 102839.173675565 102839.173675565 -6393008.41267655 0 0 0 0 0 115253992.4347512 -18117.6817937745 -18117.6817937745 -6706927.943263282 0 0 0 0 0 114487568.7939356 265541.6059322246 265541.6059322246 -6037581.653578082 0 0 0 0 0 114973548.2972149 218265.4432268213 218265.4432268213 -6398366.239662766 0 0 0 0 0 114233123.429116 473674.4492433697 473674.4492433697 -5752639.999165074 0 0 0 0 0 113978152.9883807 665848.3458849535 665848.3458849535 -5478261.797452285 0 0 0 0 0 113723084.9732621 842989.924288384 842989.924288384 -5215483.790199085 0 0 0 0 0 113469836.829155 1005789.098206514 1005789.098206514 -4961959.514056533 0 0 0 0 0 112932320.7355712 894753.3944873734 894753.3944873734 -4948146.014951355 0 0 0 0 0 113298288.0783276 880038.0851458064 880038.0851458064 -5257254.350628639 0 0 0 0 0 112692823.4905214 1028691.688892767 1028691.688892767 -4724177.645288865 0 0 0 0 0 112457852.5370526 1155112.386291136 1155112.386291136 -4506346.941664592 0 0 0 0 0 112218324.8001711 1273247.966564075 1273247.966564075 -4295346.993698132 0 0 0 0 0 111988464.1150377 1386247.986227159 1386247.986227159 -4086987.440999208 0 0 0 0 0 111763829.4716756 1489624.808217483 1489624.808217483 -3887560.479551606 0 0 0 0 0 111365856.5905049 1465525.352738699 1465525.352738699 -3962609.187829511 0 0 0 0 0 111538275.8168663 1582438.268453989 1582438.268453989 -3698074.971052057 0 0 0 0 0 111111190.5202851 1456336.675409714 1456336.675409714 -3717924.975855621 0 0 0 0 0 110903759.2657895 1541440.3739274 1541440.3739274 -3539299.477245539 0 0 0 0 0 110699275.6911415 1619839.857816799 1619839.857816799 -3367427.387842609 0 0 0 0 0 110498057.0943311 1691206.678578434 1691206.678578434 -3200538.254110294 0 0 0 0 0 110294689.9992868 1761573.692955671 1761573.692955671 -3036944.1060389 0 0 0 0 0 110141318.738718 1811498.989787346 1811498.989787346 -2928037.936931393 0 0 0 0 0 109972859.3972336 1693245.156845751 1693245.156845751 -3151992.361531108 0 0 0 0 0 109767648.3216752 1686232.01631882 1686232.01631882 -2930887.489813701 0 0 0 0 0 109650966.1139225 1730390.367253393 1730390.367253393 -2809120.706962104 0 0 0 0 0 109486469.2977482 1709244.061301729 1709244.061301729 -2796022.290427601 0 0 0 0 0 120128004.3400022 -3625849.380789315 -3625849.380789315 -10162297.47248191 0 0 0 0 0 11219649.3448912 -11464310.37284914 -11464310.37284914 9075480.913249206 0 0 0 0 0 28805657.32926575 -21561442.01954617 -21561442.01954617 9897852.970769159 0 0 0 0 0 30120351.82378861 -21117143.32327006 -21117143.32327006 2489237.072968797 0 0 0 0 0 53810425.66669583 -30564409.82045465 -30564409.82045465 1188683.864589607 0 0 0 0 0 43532032.69172187 -26032850.18062436 -26032850.18062436 2230243.482394418 0 0 0 0 0 63168208.82285682 -32343702.30264813 -32343702.30264813 -1090592.755835323 0 0 0 0 0 72001951.38196249 -33168385.55887055 -33168385.55887055 -3199138.539562057 0 0 0 0 0 79904341.98224793 -33172174.25617809 -33172174.25617809 -5169174.660732877 0 0 0 0 0 86979906.22686316 -32605585.60941558 -32605585.60941558 -6922092.365261577 0 0 0 0 0 93355106.80323581 -31687709.35552926 -31687709.35552926 -8380753.038044684 0 0 0 0 0 98881676.58471271 -30214462.89706805 -30214462.89706805 -9576819.377970738 0 0 0 0 0 103656810.5651902 -28581735.72608144 -28581735.72608144 -10650706.19933201 0 0 0 0 0 107825354.9432876 -26863493.78184156 -26863493.78184156 -11504120.21279201 0 0 0 0 0 111932900.5432688 -25953820.40735026 -25953820.40735026 -12588171.02869659 0 0 0 0 0 110594353.6115313 -24567096.55897962 -24567096.55897962 -13814241.61452286 0 0 0 0 0 113401911.1308736 -22801823.57867295 -22801823.57867295 -14061777.46416903 0 0 0 0 0 115791807.5673784 -21028079.12027024 -21028079.12027024 -14160997.94246253 0 0 0 0 0 117800420.18305 -19279733.83540933 -19279733.83540933 -14139396.13435261 0 0 0 0 0 118301711.2042324 -17584371.54267281 -17584371.54267281 -14973377.88703395 0 0 0 0 0 120185201.285981 -18743351.22236696 -18743351.22236696 -14651655.54411032 0 0 0 0 0 119620538.6203346 -16024909.89147949 -16024909.89147949 -14709173.72139182 0 0 0 0 0 120697549.2632381 -14528684.37638077 -14528684.37638077 -14371606.42697201 0 0 0 0 0 121546802.8070067 -13105041.35293021 -13105041.35293021 -13994769.38137334 0 0 0 0 0 122206431.9080872 -11758159.60969056 -11758159.60969056 -13582757.7337166 0 0 0 0 0 122725600.2349031 -10477928.02974922 -10477928.02974922 -13118365.10171506 0 0 0 0 0 123087016.7420367 -9281781.815160805 -9281781.815160805 -12634607.90094694 0 0 0 0 0 123837387.3460383 -9183042.017495912 -9183042.017495912 -13087913.66375941 0 0 0 0 0 122200370.757789 -8525271.457166528 -8525271.457166528 -12744964.99961243 0 0 0 0 0 122326777.7402921 -7527909.467487477 -7527909.467487477 -12263425.03472883 0 0 0 0 0 122383469.4458756 -6586982.766070018 -6586982.766070018 -11758789.40887075 0 0 0 0 0 122361001.3585784 -5711766.976090591 -5711766.976090591 -11254233.19818435 0 0 0 0 0 122270899.3268005 -4896927.482529077 -4896927.482529077 -10749913.91416391 0 0 0 0 0 122128371.9116128 -4139864.348474512 -4139864.348474512 -10250260.77960411 0 0 0 0 0 122297293.6575997 -4209489.464927507 -4209489.464927507 -10703460.44706615 0 0 0 0 0 121104603.8162854 -3858979.08395523 -3858979.08395523 -10232108.52322331 0 0 0 0 0 120906494.1003 -3220295.931282404 -3220295.931282404 -9753471.667979589 0 0 0 0 0 120228698.5676237 -3691812.020923743 -3691812.020923743 -10526574.35256111 0 0 0 0 0 119982857.5652669 -3119967.00239499 -3119967.00239499 -10071484.67124268 0 0 0 0 0 119048115.6538164 -2958897.424099894 -2958897.424099894 -9930463.997503955 0 0 0 0 0 119009669.7606755 -2883286.189487654 -2883286.189487654 -9596081.043888345 0 0 0 0 0 118791343.056599 -2466878.486222973 -2466878.486222973 -9501168.55680389 0 0 0 0 0 118517838.3867755 -2010242.944710627 -2010242.944710627 -9082568.413165368 0 0 0 0 0 118231735.9367006 -1587230.6476447 -1587230.6476447 -8675903.8615329 0 0 0 0 0 117935791.3049933 -1194073.539604119 -1194073.539604119 -8281102.981964954 0 0 0 0 0 117125064.2738941 -1169023.964859556 -1169023.964859556 -8169477.361609821 0 0 0 0 0 117202772.1572194 -1063151.927597957 -1063151.927597957 -7844385.527594176 0 0 0 0 0 116838241.760993 -830268.9545838452 -830268.9545838452 -7803977.562511934 0 0 0 0 0 116542517.6762108 -519006.7139506159 -519006.7139506159 -7450030.556476868 0 0 0 0 0 116249259.715165 -230413.5332721473 -230413.5332721473 -7107933.767810047 0 0 0 0 0 115944719.1755949 36711.46606651811 36711.46606651811 -6778296.005328763 0 0 0 0 0 115642892.7696138 285756.1135578387 285756.1135578387 -6456153.989819493 0 0 0 0 0 115126700.1344176 342638.3236155871 342638.3236155871 -6083135.27213788 0 0 0 0 0 114693132.4876375 434875.5653647155 434875.5653647155 -6103439.397001384 0 0 0 0 0 114857501.7226476 563943.5014859926 563943.5014859926 -5782024.543646194 0 0 0 0 0 114413491.7080362 634080.2793847976 634080.2793847976 -5818478.513779818 0 0 0 0 0 114134852.6969849 818335.8849857086 818335.8849857086 -5544331.274971551 0 0 0 0 0 113860050.2106434 987816.5646260808 987816.5646260808 -5281150.10957856 0 0 0 0 0 113579500.1161102 1137432.575281567 1137432.575281567 -5033037.416710174 0 0 0 0 0 113036221.6039203 1021528.727410992 1021528.727410992 -5020341.25620202 0 0 0 0 0 113215152.8696318 1150227.83555975 1150227.83555975 -4723962.661609938 0 0 0 0 0 112781425.3581173 1152357.696976321 1152357.696976321 -4795362.834653577 0 0 0 0 0 112526835.1446567 1271740.642743196 1271740.642743196 -4577094.167512497 0 0 0 0 0 112284368.7369716 1387852.90432692 1387852.90432692 -4357489.986316849 0 0 0 0 0 112042149.0392119 1495317.28972144 1495317.28972144 -4148434.046675317 0 0 0 0 0 111803128.3844914 1592022.005389773 1592022.005389773 -3950410.782787699 0 0 0 0 0 111315835.851964 1667867.898886759 1667867.898886759 -3515699.438330177 0 0 0 0 0 111566729.1254943 1679547.66581731 1679547.66581731 -3759795.048001918 0 0 0 0 0 111144486.1344541 1552500.438135296 1552500.438135296 -3775915.001832668 0 0 0 0 0 110927545.81454 1632883.446794262 1632883.446794262 -3595932.645622456 0 0 0 0 0 110714708.6046378 1706790.802656575 1706790.802656575 -3422919.718945971 0 0 0 0 0 110505406.2635374 1775318.170870085 1775318.170870085 -3255983.636678884 0 0 0 0 0 110319844.7038081 1842555.55896637 1842555.55896637 -3088891.712263992 0 0 0 0 0 109939350.5010163 1830826.814350461 1830826.814350461 -2931919.706739788 0 0 0 0 0 109842977.4228974 1808766.203302623 1808766.203302623 -2834578.545554971 0 0 0 0 0 109749594.7533473 1744651.009810677 1744651.009810677 -2985094.234584074 0 0 0 0 0 109512288.5129503 1768743.267226755 1768743.267226755 -2871132.495331064 0 0 0 0 0 109303487.4724867 1738637.593802338 1738637.593802338 -2834247.675838987 0 0 0 0 0 120978200.4804934 -3308947.202931651 -3308947.202931651 -10174435.68351592 0 0 0 0 0 16618699.45685455 -17725090.84791628 -17725090.84791628 17446936.3205328 0 0 0 0 0 19659057.8148276 -18024472.35052215 -18024472.35052215 8170304.141418869 0 0 0 0 0 37990020.13784441 -26606401.34555224 -26606401.34555224 11741138.86710001 0 0 0 0 0 55578794.41719639 -29603774.53607024 -29603774.53607024 966251.8904528635 0 0 0 0 0 48180037.89181896 -30078638.56207137 -30078638.56207137 8459178.661644785 0 0 0 0 0 66605027.86656009 -31823960.29974121 -31823960.29974121 -624922.8597409854 0 0 0 0 0 76185069.10278906 -32799658.41359503 -32799658.41359503 -2435574.60912801 0 0 0 0 0 84639633.216708 -32916558.78673738 -32916558.78673738 -4206772.599390997 0 0 0 0 0 92024693.02299155 -32393727.41281146 -32393727.41281146 -5858910.134793879 0 0 0 0 0 98467685.17108467 -31288424.09568612 -31288424.09568612 -7236014.512782344 0 0 0 0 0 104105915.9798348 -30044695.76410752 -30044695.76410752 -8471429.434193045 0 0 0 0 0 108786129.1268143 -28420163.22475386 -28420163.22475386 -9612380.670429323 0 0 0 0 0 112767126.299805 -26552659.56128386 -26552659.56128386 -10453901.2371681 0 0 0 0 0 111388714.3852063 -24949914.00804661 -24949914.00804661 -12052794.35726554 0 0 0 0 0 114987199.7644652 -24202728.87875395 -24202728.87875395 -13037338.85397322 0 0 0 0 0 117570132.5826014 -22415386.91638751 -22415386.91638751 -13329639.9430149 0 0 0 0 0 119713854.5273349 -20634917.61844867 -20634917.61844867 -13490666.98873309 0 0 0 0 0 121453421.6369223 -18881297.68491813 -18881297.68491813 -13536551.04867745 0 0 0 0 0 121534270.5900158 -17130888.87994816 -17130888.87994816 -14510101.64050268 0 0 0 0 0 119465520.4898188 -17583491.36850166 -17583491.36850166 -14016389.32283664 0 0 0 0 0 122622234.7798399 -15571977.17521946 -15571977.17521946 -14286883.39067068 0 0 0 0 0 123449123.7060581 -14083927.07310415 -14083927.07310415 -14008877.91748142 0 0 0 0 0 124081735.5066874 -12669526.7235531 -12669526.7235531 -13676856.83964769 0 0 0 0 0 124560253.4794618 -11324713.54988463 -11324713.54988463 -13285353.47957895 0 0 0 0 0 124860303.1707278 -10057239.16320398 -10057239.16320398 -12874005.50605584 0 0 0 0 0 125006428.041346 -8882197.628676044 -8882197.628676044 -12447760.46277792 0 0 0 0 0 123304068.4042394 -8171767.457574284 -8171767.457574284 -12149660.57102635 0 0 0 0 0 123896230.1128534 -8129241.660695314 -8129241.660695314 -12641798.13734984 0 0 0 0 0 123882969.1941474 -7134971.121396627 -7134971.121396627 -12157875.52105264 0 0 0 0 0 123789807.1965371 -6211954.473017709 -6211954.473017709 -11676304.04055184 0 0 0 0 0 123634173.6383382 -5351537.037819987 -5351537.037819987 -11188865.11352025 0 0 0 0 0 123425554.4627829 -4551468.098763737 -4551468.098763737 -10701558.75818179 0 0 0 0 0 123164951.3462896 -3810374.29905595 -3810374.29905595 -10220221.13328483 0 0 0 0 0 121938280.323031 -3441084.895332632 -3441084.895332632 -9757545.419227524 0 0 0 0 0 122036205.8335931 -3535351.041243154 -3535351.041243154 -10229037.97570958 0 0 0 0 0 121742385.9004957 -2912255.844739002 -2912255.844739002 -9762905.492840495 0 0 0 0 0 119931368.3649556 -3037311.237806829 -3037311.237806829 -9695382.948040709 0 0 0 0 0 119703920.2858696 -2492449.896512023 -2492449.896512023 -9241702.30651583 0 0 0 0 0 118791122.7049843 -2377804.627898607 -2377804.627898607 -9156162.319405591 0 0 0 0 0 119713039.8169345 -2589559.285445214 -2589559.285445214 -9627594.849951658 0 0 0 0 0 118551398.4724279 -1909507.960314897 -1909507.960314897 -8729121.819302287 0 0 0 0 0 118294484.8223643 -1476005.156017281 -1476005.156017281 -8315008.586888058 0 0 0 0 0 118022058.2336723 -1075357.386117783 -1075357.386117783 -7916134.34353297 0 0 0 0 0 117736988.3618743 -705399.7361008762 -705399.7361008762 -7530586.963393955 0 0 0 0 0 116935885.0241694 -717174.4093795529 -717174.4093795529 -7471635.766558445 0 0 0 0 0 117628925.0382077 -831192.0675741592 -831192.0675741592 -7899142.942424887 0 0 0 0 0 116659417.1548104 -398447.877277347 -398447.877277347 -7113774.812515206 0 0 0 0 0 116377964.8332949 -105690.4956004899 -105690.4956004899 -6769583.371669377 0 0 0 0 0 116087299.948419 164610.6680660239 164610.6680660239 -6443805.209366635 0 0 0 0 0 115801053.1581109 418740.9690917835 418740.9690917835 -6116875.172396972 0 0 0 0 0 115515249.728973 654581.0517368698 654581.0517368698 -5801505.721542169 0 0 0 0 0 115343494.8041951 517054.8568498541 517054.8568498541 -6146183.107413625 0 0 0 0 0 114584676.5957763 765096.1232866902 765096.1232866902 -5496938.702729103 0 0 0 0 0 115042125.5762973 728328.8401482932 728328.8401482932 -5848783.329097752 0 0 0 0 0 114312358.2298623 950731.8760570014 950731.8760570014 -5224312.320562253 0 0 0 0 0 114041359.6776783 1121009.211564631 1121009.211564631 -4962823.627736514 0 0 0 0 0 113769850.1722953 1275927.555224515 1275927.555224515 -4711437.484591257 0 0 0 0 0 113500242.8547615 1413662.087824879 1413662.087824879 -4474574.193794128 0 0 0 0 0 112964000.2884822 1281677.484564215 1281677.484564215 -4497775.50457728 0 0 0 0 0 113305236.1465507 1274529.65167162 1274529.65167162 -4793290.723697162 0 0 0 0 0 112713726.4219738 1402410.428341419 1402410.428341419 -4279076.267283597 0 0 0 0 0 112468145.8168048 1513735.005168074 1513735.005168074 -4069256.053959543 0 0 0 0 0 112224567.9960358 1620159.899737669 1620159.899737669 -3862764.056466829 0 0 0 0 0 111986737.6928255 1717084.678607451 1717084.678607451 -3664733.753720279 0 0 0 0 0 111751722.7428464 1804707.067432053 1804707.067432053 -3476727.68738127 0 0 0 0 0 111335653.0374705 1760550.366354193 1760550.366354193 -3574759.751391648 0 0 0 0 0 111520089.2492199 1884551.12955278 1884551.12955278 -3295717.907878845 0 0 0 0 0 111098595.2021267 1747284.990630386 1747284.990630386 -3338786.100856222 0 0 0 0 0 110885101.9362518 1820120.515049113 1820120.515049113 -3169131.760794237 0 0 0 0 0 110674883.1779027 1886827.838072977 1886827.838072977 -3008225.443437886 0 0 0 0 0 110469829.338378 1945807.838217672 1945807.838217672 -2853627.334866825 0 0 0 0 0 110194532.2417516 1994604.526952801 1994604.526952801 -2714776.766197945 0 0 0 0 0 110197418.0873987 1997768.677402747 1997768.677402747 -2764520.489065321 0 0 0 0 0 110077580.1174391 1951555.977350672 1951555.977350672 -2747255.329673124 0 0 0 0 0 109755508.0886763 1915688.826118634 1915688.826118634 -2606462.675869606 0 0 0 0 0 109587613.089614 1910523.02313896 1910523.02313896 -2551382.317681354 0 0 0 0 0 120673914.3282371 -2629979.932024976 -2629979.932024976 -9286486.982253818 0 0 0 0 0 18466737.64728462 -17584037.99351826 -17584037.99351826 17812107.15134897 0 0 0 0 0 31175146.45692279 -24518542.28411478 -24518542.28411478 19297322.43624517 0 0 0 0 0 32455630.65189731 -23919007.34751755 -23919007.34751755 9664487.042931361 0 0 0 0 0 58687065.96633811 -32469987.03093773 -32469987.03093773 5042646.775244568 0 0 0 0 0 48760840.85323121 -29162404.39915072 -29162404.39915072 7951582.385770727 0 0 0 0 0 68592981.70614634 -33694888.40150466 -33694888.40150466 2070979.25850701 0 0 0 0 0 77479532.0667026 -33969514.99153773 -33969514.99153773 -571408.8171203972 0 0 0 0 0 85364762.37745324 -33503651.63341229 -33503651.63341229 -2939001.547564873 0 0 0 0 0 92415062.01122864 -32622042.24630428 -32622042.24630428 -4888708.879503542 0 0 0 0 0 98490997.607282 -31110570.10764432 -31110570.10764432 -6552359.778329693 0 0 0 0 0 103744083.9085776 -29404431.80404568 -29404431.80404568 -7992025.443872072 0 0 0 0 0 108273345.9761648 -27556706.85434651 -27556706.85434651 -9124749.871813307 0 0 0 0 0 112128090.8492165 -25588607.41609454 -25588607.41609454 -9990255.237937959 0 0 0 0 0 116034754.1953564 -24751084.37956499 -24751084.37956499 -11197016.37711501 0 0 0 0 0 114321291.7515582 -23125202.23647468 -23125202.23647468 -12530670.00886431 0 0 0 0 0 116835148.1228101 -21261352.98592194 -21261352.98592194 -12788333.75618008 0 0 0 0 0 118943639.4590451 -19417388.43146002 -19417388.43146002 -12886908.19135682 0 0 0 0 0 120674713.8102005 -17631201.63647697 -17631201.63647697 -12863300.97575675 0 0 0 0 0 120823744.3485266 -15948815.06757198 -15948815.06757198 -13808937.25605724 0 0 0 0 0 122847137.3745597 -17181444.07639156 -17181444.07639156 -13480212.71985133 0 0 0 0 0 121918101.5717993 -14392631.51419877 -14392631.51419877 -13535821.47251137 0 0 0 0 0 122797256.8876999 -12901522.92669814 -12901522.92669814 -13177291.39001704 0 0 0 0 0 123424200.1325049 -11521105.17490738 -11521105.17490738 -12808508.55535098 0 0 0 0 0 123890702.4491451 -10205717.28305948 -10205717.28305948 -12393898.96060502 0 0 0 0 0 124233888.8621383 -8964699.160538517 -8964699.160538517 -11929354.81226308 0 0 0 0 0 124437427.232305 -7814163.425896772 -7814163.425896772 -11452283.28854661 0 0 0 0 0 125036697.4820064 -7788863.691768104 -7788863.691768104 -12005133.0477442 0 0 0 0 0 123408163.5137817 -7143783.608668794 -7143783.608668794 -11658045.13664033 0 0 0 0 0 123407457.0528369 -6190281.544762827 -6190281.544762827 -11176759.06779401 0 0 0 0 0 123339750.2752438 -5304689.858030842 -5304689.858030842 -10687661.03257629 0 0 0 0 0 123208908.9420727 -4481270.893237974 -4481270.893237974 -10193944.28115361 0 0 0 0 0 123020827.313103 -3717046.998465431 -3717046.998465431 -9701576.162463883 0 0 0 0 0 122786037.6104945 -3012094.793759502 -3012094.793759502 -9216524.175943039 0 0 0 0 0 122858036.9485387 -3128849.441233289 -3128849.441233289 -9748152.309881182 0 0 0 0 0 121702824.0557767 -2798737.292366837 -2798737.292366837 -9280486.533557408 0 0 0 0 0 121432075.0974759 -2207400.006139281 -2207400.006139281 -8816105.398553995 0 0 0 0 0 120695094.1937173 -2735794.719150851 -2735794.719150851 -9719019.96891793 0 0 0 0 0 120390150.2577438 -2205234.640919204 -2205234.640919204 -9272781.601045279 0 0 0 0 0 119423749.7417603 -2098165.325125562 -2098165.325125562 -9194865.043452518 0 0 0 0 0 119452935.0056572 -1988037.848969802 -1988037.848969802 -8800084.218063107 0 0 0 0 0 119118750.3106859 -1643648.051081663 -1643648.051081663 -8774083.405880226 0 0 0 0 0 118800822.5732552 -1223605.67525924 -1223605.67525924 -8365445.658530123 0 0 0 0 0 118476334.6908098 -835959.0828134022 -835959.0828134022 -7969838.609180042 0 0 0 0 0 118143782.2021126 -478321.5733180011 -478321.5733180011 -7587240.917705364 0 0 0 0 0 117316371.3277127 -497105.1642473415 -497105.1642473415 -7531032.631731897 0 0 0 0 0 117444718.8532489 -364668.3731778916 -364668.3731778916 -7157472.581169771 0 0 0 0 0 116995634.6660257 -192079.3667777019 -192079.3667777019 -7178301.537682045 0 0 0 0 0 116670736.3485109 88767.37321303089 88767.37321303089 -6836591.042534745 0 0 0 0 0 116361359.0613088 351342.8211314022 351342.8211314022 -6503515.171741155 0 0 0 0 0 116035911.2773681 596992.2009019605 596992.2009019605 -6176402.52855224 0 0 0 0 0 115709900.5918417 822332.5751177913 822332.5751177913 -5865632.30994301 0 0 0 0 0 115224797.1542111 869189.4779925725 869189.4779925725 -5501311.280269155 0 0 0 0 0 114746394.8433674 922464.8617792059 922464.8617792059 -5565126.975762021 0 0 0 0 0 114939255.1641739 1066888.931266363 1066888.931266363 -5215181.799044185 0 0 0 0 0 114454839.79554 1099878.179531862 1099878.179531862 -5291501.560820329 0 0 0 0 0 114160117.3314339 1259557.286789917 1259557.286789917 -5030884.031495362 0 0 0 0 0 113866835.1049863 1403094.961354494 1403094.961354494 -4782022.577339256 0 0 0 0 0 113572078.3516581 1532770.498463681 1532770.498463681 -4546098.19812064 0 0 0 0 0 113037335.9287877 1400239.014296382 1400239.014296382 -4567179.272750686 0 0 0 0 0 113233943.238771 1538767.029934381 1538767.029934381 -4250269.34675752 0 0 0 0 0 112775138.0167724 1516302.038112347 1516302.038112347 -4348013.288174693 0 0 0 0 0 112516861.2359524 1625126.767513985 1625126.767513985 -4134304.367639684 0 0 0 0 0 112262763.1623979 1725298.13148516 1725298.13148516 -3925395.666875729 0 0 0 0 0 112012350.9962573 1816405.958607596 1816405.958607596 -3727477.410390803 0 0 0 0 0 111766228.0356754 1897845.554113466 1897845.554113466 -3538842.961855048 0 0 0 0 0 111291867.2283536 1957541.790945543 1957541.790945543 -3121041.99374384 0 0 0 0 0 111524789.4266459 1972707.781165485 1972707.781165485 -3356073.859325981 0 0 0 0 0 111108942.2885859 1835212.095449768 1835212.095449768 -3396090.045302234 0 0 0 0 0 110886293.6417845 1902765.005697601 1902765.005697601 -3225057.297045547 0 0 0 0 0 110667536.006055 1963130.509157977 1963130.509157977 -3061876.342451357 0 0 0 0 0 110444207.7467379 2013859.113262707 2013859.113262707 -2909606.490558502 0 0 0 0 0 110209082.9172845 2061001.991033021 2061001.991033021 -2758679.678865549 0 0 0 0 0 109969042.9054573 2026871.732215919 2026871.732215919 -2696590.80531431 0 0 0 0 0 109777208.9469633 1982242.426169073 1982242.426169073 -2658881.934259457 0 0 0 0 0 109603018.6827083 1948097.879921759 1948097.879921759 -2663083.86255244 0 0 0 0 0 109399531.3686934 1935078.485003033 1935078.485003033 -2588375.475265932 0 0 0 0 0 121421601.0220582 -2337079.440111904 -2337079.440111904 -9306794.752902064 0 0 0 0 0 18414968.5922621 -20343251.48276429 -20343251.48276429 19665595.10346584 0 0 0 0 0 40826478.09115617 -29472408.90090511 -29472408.90090511 18275795.40318084 0 0 0 0 0 61942996.88537423 -32265574.98961283 -32265574.98961283 5661588.122566925 0 0 0 0 0 52885761.05780564 -32837009.89986288 -32837009.89986288 13119669.07023497 0 0 0 0 0 72984641.24646109 -33678854.18330672 -33678854.18330672 3114624.693975062 0 0 0 0 0 82486828.52131507 -34028042.27880543 -34028042.27880543 668544.3853265506 0 0 0 0 0 90743096.31030078 -33572800.06427081 -33572800.06427081 -1605285.571777364 0 0 0 0 0 97882984.65486138 -32468724.3156986 -32468724.3156986 -3519806.454182739 0 0 0 0 0 104124739.0831358 -31166310.29882748 -31166310.29882748 -5173923.29497282 0 0 0 0 0 109260437.0508723 -29419950.06880438 -29419950.06880438 -6683268.507943017 0 0 0 0 0 113566886.9312242 -27470903.84554608 -27470903.84554608 -7911963.036326478 0 0 0 0 0 117126814.9395311 -25469925.85062754 -25469925.85062754 -8877892.260868894 0 0 0 0 0 115326304.9899524 -23555426.46135033 -23555426.46135033 -10630640.2289612 0 0 0 0 0 118723647.8447586 -22843768.53251733 -22843768.53251733 -11690534.6809677 0 0 0 0 0 120974381.9459273 -20953899.44231878 -20953899.44231878 -12008272.48006497 0 0 0 0 0 122786674.7118252 -19096743.87887203 -19096743.87887203 -12185596.0050182 0 0 0 0 0 124223975.665364 -17298883.56734247 -17298883.56734247 -12240275.3978232 0 0 0 0 0 123940669.9864761 -15547461.04044974 -15547461.04044974 -13335969.98377838 0 0 0 0 0 122073325.8481182 -15916414.24638975 -15916414.24638975 -12736449.95716041 0 0 0 0 0 124798516.7332817 -13975606.08726599 -13975606.08726599 -13096262.59822226 0 0 0 0 0 125387374.9821357 -12519206.3557678 -12519206.3557678 -12832073.2574798 0 0 0 0 0 125800263.1104504 -11138986.27976094 -11138986.27976094 -12495032.21083906 0 0 0 0 0 126087572.0112197 -9813244.500043349 -9813244.500043349 -12104736.25393371 0 0 0 0 0 126213843.0969895 -8588718.393526969 -8588718.393526969 -11694850.45918064 0 0 0 0 0 126199134.4943886 -7456141.965062362 -7456141.965062362 -11274467.95817341 0 0 0 0 0 124506681.4224144 -6756795.951177297 -6756795.951177297 -10975235.96298791 0 0 0 0 0 124961405.8455423 -6777724.898955683 -6777724.898955683 -11560031.58971612 0 0 0 0 0 124820910.2394885 -5834674.17177783 -5834674.17177783 -11091429.81774837 0 0 0 0 0 124611957.6936036 -4961122.815363242 -4961122.815363242 -10615978.41754725 0 0 0 0 0 124351589.7291681 -4152202.305916684 -4152202.305916684 -10137766.19844869 0 0 0 0 0 124048192.9860882 -3403705.14064894 -3403705.14064894 -9663488.707243655 0 0 0 0 0 123703331.1682088 -2712427.579623371 -2712427.579623371 -9193055.402261775 0 0 0 0 0 122516396.696281 -2362702.970307679 -2362702.970307679 -8738872.871179935 0 0 0 0 0 122522251.4571274 -2502297.721607546 -2502297.721607546 -9285868.146113954 0 0 0 0 0 122161061.8611167 -1926057.143802196 -1926057.143802196 -8832869.405614125 0 0 0 0 0 120412584.4397498 -2085203.579691788 -2085203.579691788 -8832202.488776896 0 0 0 0 0 120126724.7868037 -1582741.820910392 -1582741.820910392 -8391406.992286144 0 0 0 0 0 119181452.2674095 -1522169.853906281 -1522169.853906281 -8371737.880822645 0 0 0 0 0 120066688.7828474 -1715063.398820288 -1715063.398820288 -8838762.163717071 0 0 0 0 0 118893253.7817528 -1092320.325766788 -1092320.325766788 -7957401.818575323 0 0 0 0 0 118592140.34981 -697179.4779737595 -697179.4779737595 -7556426.008272849 0 0 0 0 0 118278054.6805819 -334240.128602881 -334240.128602881 -7174642.527718112 0 0 0 0 0 117954672.9477813 -110.6707350255359 -110.6707350255359 -6805443.55787582 0 0 0 0 0 117145245.6523285 -49678.23505163102 -49678.23505163102 -6799026.347497354 0 0 0 0 0 117801822.4637126 -149942.2956008889 -149942.2956008889 -7217777.186345563 0 0 0 0 0 116835991.4864011 235884.0977186874 235884.0977186874 -6457169.513311566 0 0 0 0 0 116526753.2353763 496350.3200036967 496350.3200036967 -6130362.483760009 0 0 0 0 0 116199927.32464 736483.4764734602 736483.4764734602 -5819086.607723091 0 0 0 0 0 115899553.721836 972303.9589863691 972303.9589863691 -5492783.73878644 0 0 0 0 0 115596629.8360226 1183913.245703924 1183913.245703924 -5190997.768427369 0 0 0 0 0 115395133.7958761 1031557.609872855 1031557.609872855 -5565287.336480824 0 0 0 0 0 114648102.1191185 1243750.74762234 1243750.74762234 -4942978.635855338 0 0 0 0 0 115078197.2770727 1217334.216829797 1217334.216829797 -5285166.561455643 0 0 0 0 0 114355425.2987326 1403741.989097878 1403741.989097878 -4687658.998726692 0 0 0 0 0 114068258.082219 1549969.246263053 1549969.246263053 -4440675.163643806 0 0 0 0 0 113781131.6055982 1682313.488113973 1682313.488113973 -4205112.154293291 0 0 0 0 0 113504017.3663899 1800464.074392095 1800464.074392095 -3980429.614664409 0 0 0 0 0 112972055.5861124 1653738.474931559 1653738.474931559 -4033456.823644745 0 0 0 0 0 113295235.4060098 1654162.040234127 1654162.040234127 -4318914.62847791 0 0 0 0 0 112711423.6443817 1759360.695043433 1759360.695043433 -3824020.521699882 0 0 0 0 0 112458906.2881687 1859084.327510837 1859084.327510837 -3619940.118622279 0 0 0 0 0 112209695.5010463 1950195.784162347 1950195.784162347 -3424001.460338708 0 0 0 0 0 111964650.3929789 2032156.733603475 2032156.733603475 -3237623.927594964 0 0 0 0 0 111721393.1490004 2104966.49742761 2104966.49742761 -3059399.719110204 0 0 0 0 0 111288650.8463084 2041783.577660905 2041783.577660905 -3179138.454516373 0 0 0 0 0 111483226.3184046 2171756.835446134 2171756.835446134 -2887269.674890704 0 0 0 0 0 111068821.0721533 2024350.042757511 2024350.042757511 -2952464.871107054 0 0 0 0 0 110849795.6805562 2084294.131220725 2084294.131220725 -2790624.551202509 0 0 0 0 0 110634227.9761107 2137908.400909707 2137908.400909707 -2635588.136710751 0 0 0 0 0 110415160.4756882 2195222.745123656 2195222.745123656 -2489196.332594831 0 0 0 0 0 110299691.2980531 2206510.820069066 2206510.820069066 -2437218.154160799 0 0 0 0 0 110102815.7414673 2182112.861640452 2182112.861640452 -2402568.406254192 0 0 0 0 0 109921257.6701969 2136260.626506078 2136260.626506078 -2369668.089216047 0 0 0 0 0 109719076.695767 2118252.758366144 2118252.758366144 -2293827.719151224 0 0 0 0 0 121133389.7988858 -1663168.715742118 -1663168.715742118 -8364517.937797735 0 0 0 0 0 25775306.40431922 -24214265.44658001 -24214265.44658001 25670869.67840537 0 0 0 0 0 40604426.77792352 -29423508.33632517 -29423508.33632517 18192694.81114191 0 0 0 0 0 64425864.26235685 -34558333.13324448 -34558333.13324448 8810946.206259575 0 0 0 0 0 56545956.36725241 -33595260.05673972 -33595260.05673972 14517076.04759443 0 0 0 0 0 74498182.24070784 -35092700.60336812 -35092700.60336812 5133348.417950271 0 0 0 0 0 83353859.93149588 -34790961.40290959 -34790961.40290959 1987696.139990075 0 0 0 0 0 91189882.06797993 -33876384.49877066 -33876384.49877066 -628733.2252725814 0 0 0 0 0 97911262.59940237 -32318383.36325854 -32318383.36325854 -2903080.337687274 0 0 0 0 0 103706052.1262059 -30493398.14812861 -30493398.14812861 -4816008.506604252 0 0 0 0 0 108646819.4186928 -28486166.65018783 -28486166.65018783 -6345319.198672768 0 0 0 0 0 112827292.7827182 -26369554.26013056 -26369554.26013056 -7540984.151511588 0 0 0 0 0 116274123.2953632 -24191385.41822924 -24191385.41822924 -8457704.701441191 0 0 0 0 0 119999386.6643403 -23455221.41972118 -23455221.41972118 -9670843.036809953 0 0 0 0 0 117944103.9803713 -21590451.33231369 -21590451.33231369 -11116478.86816011 0 0 0 0 0 120146229.9498009 -19630005.26242683 -19630005.26242683 -11382017.50712094 0 0 0 0 0 121937613.0672168 -17747744.97217677 -17747744.97217677 -11495047.20074178 0 0 0 0 0 123386710.3838033 -15940372.73254969 -15940372.73254969 -11467625.49209188 0 0 0 0 0 123185498.4150988 -14281505.46157905 -14281505.46157905 -12524083.21521797 0 0 0 0 0 125333822.1101008 -15572431.51953312 -15572431.51953312 -12187947.5244575 0 0 0 0 0 124044854.2910767 -12732303.34030102 -12732303.34030102 -12240980.23185633 0 0 0 0 0 124692970.4911485 -11277231.14675494 -11277231.14675494 -11904237.40615603 0 0 0 0 0 125138220.6633361 -9931473.977307748 -9931473.977307748 -11531769.07451409 0 0 0 0 0 125422868.206737 -8657447.628821608 -8657447.628821608 -11101615.2679405 0 0 0 0 0 125596102.9613793 -7462979.850490849 -7462979.850490849 -10646427.52781023 0 0 0 0 0 125637592.1034825 -6370004.042047712 -6370004.042047712 -10187232.36464275 0 0 0 0 0 126089068.7147319 -6409636.223701432 -6409636.223701432 -10835767.25352879 0 0 0 0 0 124480044.0336165 -5781972.829493156 -5781972.829493156 -10493133.69363027 0 0 0 0 0 124353491.6666581 -4883598.171549114 -4883598.171549114 -10021852.50909108 0 0 0 0 0 124171246.6422524 -4051235.488701764 -4051235.488701764 -9548718.682070451 0 0 0 0 0 123939172.4689438 -3281878.074903106 -3281878.074903106 -9071521.571788603 0 0 0 0 0 123656886.1196425 -2572238.11530813 -2572238.11530813 -8598497.879457625 0 0 0 0 0 123338823.1667465 -1918956.180615423 -1918956.180615423 -8130496.565555608 0 0 0 0 0 123318420.3966234 -2081829.743398509 -2081829.743398509 -8737832.77983694 0 0 0 0 0 122205372.6933599 -1770840.107412362 -1770840.107412362 -8279882.231549295 0 0 0 0 0 121867170.1375977 -1228041.331158127 -1228041.331158127 -7834188.985772827 0 0 0 0 0 121079063.0174504 -1806999.486063881 -1806999.486063881 -8862281.488106243 0 0 0 0 0 120719655.1843068 -1318785.743177067 -1318785.743177067 -8428991.935462805 0 0 0 0 0 119728540.4187819 -1262955.880273198 -1262955.880273198 -8416958.096035296 0 0 0 0 0 119821820.0515126 -1119924.659970533 -1119924.659970533 -7964249.739749451 0 0 0 0 0 119379729.4478308 -846509.3953028696 -846509.3953028696 -8007997.681068106 0 0 0 0 0 119020247.645014 -464439.4930614071 -464439.4930614071 -7613473.313670488 0 0 0 0 0 118663499.0783617 -113968.3369544669 -113968.3369544669 -7234458.808435125 0 0 0 0 0 118294811.1916284 206389.3922830556 206389.3922830556 -6865530.71040845 0 0 0 0 0 117458473.1518972 148798.2074711881 148798.2074711881 -6866602.622545592 0 0 0 0 0 117630935.2818891 307373.8778627338 307373.8778627338 -6446888.79953133 0 0 0 0 0 117108169.9931762 422887.7269367882 422887.7269367882 -6526230.854968158 0 0 0 0 0 116756690.1445429 671985.2717816882 671985.2717816882 -6203185.021837779 0 0 0 0 0 116432603.7100407 915632.0296054172 915632.0296054172 -5871393.716246502 0 0 0 0 0 116090451.543423 1140885.436331728 1140885.436331728 -5552368.546749621 0 0 0 0 0 115750011.4845829 1343299.437829206 1343299.437829206 -5254736.586332959 0 0 0 0 0 115290486.2821926 1375514.100025491 1375514.100025491 -4901949.601244672 0 0 0 0 0 114761959.089401 1384990.517402811 1384990.517402811 -5014390.393679869 0 0 0 0 0 114982601.6852086 1545213.321664935 1545213.321664935 -4633399.007898082 0 0 0 0 0 114455749.6503359 1536437.895054821 1536437.895054821 -4758725.708657678 0 0 0 0 0 114151719.4426939 1674742.365072555 1674742.365072555 -4511119.778258508 0 0 0 0 0 113848710.9969239 1799315.82392464 1799315.82392464 -4275095.592078423 0 0 0 0 0 113547871.7535401 1912700.496063978 1912700.496063978 -4050877.338343743 0 0 0 0 0 113020514.1106753 1764634.89693708 1764634.89693708 -4100875.49420675 0 0 0 0 0 113225956.375987 1908078.460412997 1908078.460412997 -3766775.57001664 0 0 0 0 0 112747955.47835 1866302.25744163 1866302.25744163 -3888864.237326542 0 0 0 0 0 112481906.1162395 1960252.678257284 1960252.678257284 -3683331.807320923 0 0 0 0 0 112221076.5862414 2044983.108258838 2044983.108258838 -3487308.240506729 0 0 0 0 0 111963264.8415312 2120321.040378362 2120321.040378362 -3300228.317006121 0 0 0 0 0 111711714.2135454 2189458.509334821 2189458.509334821 -3119979.8422415 0 0 0 0 0 111250392.05587 2232918.947779211 2232918.947779211 -2720973.636340502 0 0 0 0 0 111466056.1464157 2252343.122629657 2252343.122629657 -2946193.549169906 0 0 0 0 0 111056824.7009525 2104116.895668392 2104116.895668392 -3009556.213783307 0 0 0 0 0 110829214.3695869 2159725.311561157 2159725.311561157 -2846824.790443735 0 0 0 0 0 110606230.0889458 2208946.166695113 2208946.166695113 -2690573.189839451 0 0 0 0 0 110402842.4107166 2258537.782700012 2258537.782700012 -2537634.905851434 0 0 0 0 0 110052334.9181811 2227579.939587614 2227579.939587614 -2375493.352224204 0 0 0 0 0 109889546.0524751 2185183.402291057 2185183.402291057 -2399600.64963976 0 0 0 0 0 109672291.3834742 2156961.143251082 2156961.143251082 -2395167.30065911 0 0 0 0 0 109489048.7539065 2144013.089591542 2144013.089591542 -2328263.400086844 0 0 0 0 0 121779397.0048168 -1396461.53625302 -1396461.53625302 -8391175.608397948 0 0 0 0 0 27713881.47998594 -28662883.60622654 -28662883.60622654 28426120.58052534 0 0 0 0 0 45082466.03618861 -33492407.03537032 -33492407.03537032 22575312.40811554 0 0 0 0 0 69124626.15600395 -35226714.52401427 -35226714.52401427 10383325.88525346 0 0 0 0 0 58897732.59527447 -35985330.02279457 -35985330.02279457 16844628.85168561 0 0 0 0 0 79836518.9803798 -35639209.20664077 -35639209.20664077 6782849.391376053 0 0 0 0 0 89107752.37168622 -35226710.40375608 -35226710.40375608 3676392.851239484 0 0 0 0 0 97141557.6842286 -34108243.79313286 -34108243.79313286 1050076.238559667 0 0 0 0 0 104068182.7975298 -32676313.66478454 -32676313.66478454 -1188609.927126732 0 0 0 0 0 109711940.6094787 -30763704.36102666 -30763704.36102666 -3200615.418552683 0 0 0 0 0 114395612.9236917 -28652602.05057561 -28652602.05057561 -4854596.544348057 0 0 0 0 0 118244249.6596015 -26458956.22173336 -26458956.22173336 -6186092.476764163 0 0 0 0 0 121353476.1339751 -24232049.58572085 -24232049.58572085 -7235568.392968159 0 0 0 0 0 119137566.5505983 -22052819.54030526 -22052819.54030526 -9122310.748268599 0 0 0 0 0 122323624.3858092 -21396408.87121932 -21396408.87121932 -10214577.30644622 0 0 0 0 0 124207409.2690076 -19424780.20982128 -19424780.20982128 -10571019.32005577 0 0 0 0 0 125677534.3305112 -17498514.64180045 -17498514.64180045 -10769628.01040688 0 0 0 0 0 126808287.5191195 -15656924.28456867 -15656924.28456867 -10826223.56006565 0 0 0 0 0 126165823.8213548 -13930121.01061052 -13930121.01061052 -12043547.94089953 0 0 0 0 0 124526748.6582567 -14212854.88078352 -14212854.88078352 -11330709.10049947 0 0 0 0 0 126755215.0288159 -12391010.30376932 -12391010.30376932 -11826045.57791641 0 0 0 0 0 127132697.3966598 -10939606.10904032 -10939606.10904032 -11557567.55467454 0 0 0 0 0 127353657.5909801 -9577888.486576818 -9577888.486576818 -11213247.22635594 0 0 0 0 0 127446209.3782065 -8308884.783999083 -8308884.783999083 -10825802.87518824 0 0 0 0 0 127398156.5453388 -7132151.727088802 -7132151.727088802 -10430830.82945705 0 0 0 0 0 127236997.2814943 -6054427.025590071 -6054427.025590071 -10018163.92598001 0 0 0 0 0 125566394.8919449 -5367334.740046573 -5367334.740046573 -9722207.235481197 0 0 0 0 0 125883883.5698822 -5453401.509626642 -5453401.509626642 -10399745.46776843 0 0 0 0 0 125626364.6928984 -4565803.537055266 -4565803.537055266 -9947104.333745133 0 0 0 0 0 125308161.831156 -3745416.528209907 -3745416.528209907 -9486216.791145802 0 0 0 0 0 124946219.0594821 -2989680.816209706 -2989680.816209706 -9024755.679270849 0 0 0 0 0 124557957.8108451 -2292488.002387284 -2292488.002387284 -8566413.013171073 0 0 0 0 0 124133295.0606372 -1654446.587039076 -1654446.587039076 -8115252.805069128 0 0 0 0 0 122992259.1519738 -1323153.843330921 -1323153.843330921 -7675369.862033654 0 0 0 0 0 122913700.9785474 -1504293.429283806 -1504293.429283806 -8291502.222363487 0 0 0 0 0 122490713.7268597 -975594.7736093458 -975594.7736093458 -7856285.194883053 0 0 0 0 0 120811941.3435001 -1163204.814168247 -1163204.814168247 -7926577.377647734 0 0 0 0 0 120471892.3190493 -704172.2531207012 -704172.2531207012 -7502886.978622713 0 0 0 0 0 119501373.1279641 -694471.3991614019 -694471.3991614019 -7550950.751458962 0 0 0 0 0 120346960.723744 -869755.6871150444 -869755.6871150444 -8008586.247620125 0 0 0 0 0 119168584.8393779 -304235.7073328964 -304235.7073328964 -7152937.577648157 0 0 0 0 0 118829492.9207775 51562.90516619594 51562.90516619594 -6770858.68745588 0 0 0 0 0 118470926.2053995 374532.3269883632 374532.3269883632 -6410418.453565553 0 0 0 0 0 118114652.6252005 673774.6833569907 673774.6833569907 -6058178.001171294 0 0 0 0 0 117293754.2547902 584529.9009479465 584529.9009479465 -6106966.537495536 0 0 0 0 0 117917362.5542412 498437.3442908736 498437.3442908736 -6514070.637556658 0 0 0 0 0 116960078.7247419 838821.7161408589 838821.7161408589 -5780126.903677353 0 0 0 0 0 116628268.0091531 1073185.399002022 1073185.399002022 -5472409.366253989 0 0 0 0 0 116281896.253945 1293755.47688584 1293755.47688584 -5156847.958452872 0 0 0 0 0 115962966.8509447 1505071.049653604 1505071.049653604 -4849951.136950683 0 0 0 0 0 115639947.9292026 1690600.395136024 1690600.395136024 -4563119.405878015 0 0 0 0 0 115410654.5506659 1520849.320513415 1520849.320513415 -4972931.639605704 0 0 0 0 0 114681770.4177723 1699447.603552946 1699447.603552946 -4378776.85706209 0 0 0 0 0 115083091.0976282 1683330.77968465 1683330.77968465 -4703272.891058119 0 0 0 0 0 114370927.7440005 1832913.224520487 1832913.224520487 -4141666.924168444 0 0 0 0 0 114066197.4153167 1956037.093681136 1956037.093681136 -3910711.812022257 0 0 0 0 0 113766229.8348227 2066315.488211368 2066315.488211368 -3688810.085976015 0 0 0 0 0 113483464.2638702 2170363.351414296 2170363.351414296 -3475273.799552594 0 0 0 0 0 112954689.9414904 2009070.010337061 2009070.010337061 -3559021.276225791 0 0 0 0 0 113259480.224135 2015569.164723085 2015569.164723085 -3834066.968830998 0 0 0 0 0 112691193.9322595 2103235.524340929 2103235.524340929 -3356622.282084741 0 0 0 0 0 112430716.9159427 2187279.930922903 2187279.930922903 -3163098.976143394 0 0 0 0 0 112173395.9088191 2262300.354689828 2262300.354689828 -2979568.700088036 0 0 0 0 0 111920387.2869997 2329597.422743323 2329597.422743323 -2804162.899104461 0 0 0 0 0 111672680.5026882 2390531.356910216 2390531.356910216 -2635313.815610204 0 0 0 0 0 111225523.9846435 2308925.465243964 2308925.465243964 -2778567.864750532 0 0 0 0 0 111430132.2584956 2445177.107636169 2445177.107636169 -2473066.571484392 0 0 0 0 0 111022058.0954084 2287582.128698256 2287582.128698256 -2561122.912761331 0 0 0 0 0 110797901.1511409 2336030.247243797 2336030.247243797 -2406591.189378284 0 0 0 0 0 110577808.0925235 2379151.699897048 2379151.699897048 -2257640.516406181 0 0 0 0 0 110324306.5004956 2419931.454910967 2419931.454910967 -2126486.298696344 0 0 0 0 0 110196847.3195511 2355692.305926146 2355692.305926146 -2136830.602278433 0 0 0 0 0 110236528.3547632 2362404.149586285 2362404.149586285 -2276650.636576552 0 0 0 0 0 109989051.8202535 2346112.678916231 2346112.678916231 -2093485.519374398 0 0 0 0 0 109778070.0787945 2318634.154059908 2318634.154059908 -2047724.44613259 0 0 0 0 0 121507549.2353756 -730811.7943205591 -730811.7943205591 -7401929.118235768 0 0 0 0 0 33225985.8652755 -31375764.15628343 -31375764.15628343 32025013.40821845 0 0 0 0 0 49498362.05140847 -35288142.72511036 -35288142.72511036 24909555.40656135 0 0 0 0 0 70702092.11411928 -36839100.1666365 -36839100.1666365 12038836.84439403 0 0 0 0 0 64404279.85861987 -37395092.97973906 -37395092.97973906 19128968.14796054 0 0 0 0 0 80778259.46502323 -36562630.50836968 -36562630.50836968 7871680.408828918 0 0 0 0 0 89515975.66979948 -35560140.65396704 -35560140.65396704 4362936.864785679 0 0 0 0 0 97098540.49072136 -33963673.93340147 -33963673.93340147 1409303.815346928 0 0 0 0 0 103547883.351017 -31936145.76196891 -31936145.76196891 -1066872.943650086 0 0 0 0 0 108966430.4272806 -29724321.05947942 -29724321.05947942 -3090478.964230588 0 0 0 0 0 113503827.182719 -27401871.16516317 -27401871.16516317 -4693602.669008888 0 0 0 0 0 117251139.8602914 -25044938.82354918 -25044938.82354918 -5930852.929259643 0 0 0 0 0 120322733.7287454 -22709625.29796805 -22709625.29796805 -6854380.56071303 0 0 0 0 0 123832104.7736152 -22016505.47839505 -22016505.47839505 -8048764.277921312 0 0 0 0 0 121436640.0875513 -19941307.81331281 -19941307.81331281 -9584539.55237676 0 0 0 0 0 123282617.8240378 -17962232.77086984 -17962232.77086984 -9883517.025052566 0 0 0 0 0 124793057.5835478 -16032226.70470734 -16032226.70470734 -9967281.205424724 0 0 0 0 0 125956666.0011831 -14195925.96492665 -14195925.96492665 -9926812.657951824 0 0 0 0 0 125385723.9141303 -12589839.53360802 -12589839.53360802 -11115889.23459695 0 0 0 0 0 127634280.7256405 -13926019.91937031 -13926019.91937031 -10779359.41014419 0 0 0 0 0 125995851.4256713 -11079136.46340911 -11079136.46340911 -10847804.24407932 0 0 0 0 0 126435663.2591659 -9666702.702555129 -9666702.702555129 -10503944.39191915 0 0 0 0 0 126705692.1726609 -8341002.930623202 -8341002.930623202 -10128187.54403677 0 0 0 0 0 126824847.8480527 -7104818.219330013 -7104818.219330013 -9701529.332709735 0 0 0 0 0 126804827.3599782 -5984202.802348272 -5984202.802348272 -9279445.387346918 0 0 0 0 0 126689252.1683348 -4955831.361768855 -4955831.361768855 -8844579.301095791 0 0 0 0 0 126984664.2700916 -5067560.31655142 -5067560.31655142 -9595810.466841774 0 0 0 0 0 125410178.5458627 -4452952.284037634 -4452952.284037634 -9262659.685818477 0 0 0 0 0 125168095.5023109 -3609843.526436734 -3609843.526436734 -8806436.476877796 0 0 0 0 0 124881029.4012664 -2833074.300775486 -2833074.300775486 -8350642.761738501 0 0 0 0 0 124554485.8604662 -2119935.23360178 -2119935.23360178 -7895789.746915225 0 0 0 0 0 124184397.2683816 -1466527.244818323 -1466527.244818323 -7444259.041327338 0 0 0 0 0 123788386.5178007 -868376.1902917495 -868376.1902917495 -7001063.971605165 0 0 0 0 0 123679723.2182146 -1073915.718535753 -1073915.718535753 -7679033.072531739 0 0 0 0 0 122613507.2265073 -781328.406606757 -781328.406606757 -7237344.545400699 0 0 0 0 0 122213507.9051132 -287494.6943200928 -287494.6943200928 -6814136.938717132 0 0 0 0 0 121381986.4331878 -910607.2946518847 -910607.2946518847 -7961887.812966762 0 0 0 0 0 120972968.379684 -465380.1369081901 -465380.1369081901 -7545248.863233292 0 0 0 0 0 119964068.5155154 -457490.5937531111 -457490.5937531111 -7601380.920076873 0 0 0 0 0 120117551.5506754 -283450.9182897755 -283450.9182897755 -7093807.015789066 0 0 0 0 0 119576087.1906473 -79781.94879022344 -79781.94879022344 -7208275.338418126 0 0 0 0 0 119176889.7460591 259792.7847566211 259792.7847566211 -6836204.040563131 0 0 0 0 0 118785246.7445118 570943.2377078 570943.2377078 -6473388.860660117 0 0 0 0 0 118388316.202418 858246.7402771383 858246.7402771383 -6121421.693322516 0 0 0 0 0 117545291.7130516 766388.5901509313 766388.5901509313 -6175440.355479413 0 0 0 0 0 117760717.5241028 947774.7721694957 947774.7721694957 -5716999.926851914 0 0 0 0 0 117174404.3213646 1011582.647285759 1011582.647285759 -5852813.770299083 0 0 0 0 0 116810007.8517147 1237049.699959358 1237049.699959358 -5539012.811760603 0 0 0 0 0 116456026.0033008 1461580.26782906 1461580.26782906 -5207888.605599031 0 0 0 0 0 116099098.7139923 1658214.128084992 1658214.128084992 -4916134.125834269 0 0 0 0 0 115743394.3604792 1830589.332172269 1830589.332172269 -4633038.541030451 0 0 0 0 0 115316545.4150086 1853578.09092628 1853578.09092628 -4296091.192702645 0 0 0 0 0 114759983.4525303 1826000.367446974 1826000.367446974 -4455444.807202989 0 0 0 0 0 114994791.1876427 1996141.789232572 1996141.789232572 -4045414.769458877 0 0 0 0 0 114433373.7752433 1951694.564303381 1951694.564303381 -4213296.744255765 0 0 0 0 0 114114560.662464 2067832.002277586 2067832.002277586 -3980642.106025044 0 0 0 0 0 113804827.0845523 2175995.918049354 2175995.918049354 -3756956.579829588 0 0 0 0 0 113498546.4168865 2272646.475122798 2272646.475122798 -3542843.632735186 0 0 0 0 0 112976670.72192 2111593.436732506 2111593.436732506 -3623436.710729777 0 0 0 0 0 113201201.8420474 2265738.958501681 2265738.958501681 -3270318.67571716 0 0 0 0 0 112698305.3769259 2199550.15082449 2199550.15082449 -3420365.104183072 0 0 0 0 0 112425999.2080186 2277838.0191207 2277838.0191207 -3226868.005029889 0 0 0 0 0 112158391.2934136 2346843.621933061 2346843.621933061 -3042124.567487955 0 0 0 0 0 111896300.8914078 2409212.676805727 2409212.676805727 -2865045.752742269 0 0 0 0 0 111640695.1375216 2465591.693000096 2465591.693000096 -2694325.053262875 0 0 0 0 0 111192496.1186298 2493945.705911044 2493945.705911044 -2317562.342733036 0 0 0 0 0 111391104.3203408 2515959.615364787 2515959.615364787 -2530595.408095428 0 0 0 0 0 110990075.6941578 2359662.584097037 2359662.584097037 -2617764.558492871 0 0 0 0 0 110760094.3414557 2405383.149542132 2405383.149542132 -2462767.15669868 0 0 0 0 0 110538493.2770459 2448274.815667774 2448274.815667774 -2310904.800669097 0 0 0 0 0 110344002.4119378 2496812.912035821 2496812.912035821 -2154720.130833458 0 0 0 0 0 109929719.2501853 2366229.744286542 2366229.744286542 -2196767.348973583 0 0 0 0 0 110161420.4078873 2498283.727843853 2498283.727843853 -1951828.719071996 0 0 0 0 0 109756121.8596958 2358626.014255261 2358626.014255261 -2110825.095336239 0 0 0 0 0 109565456.5052702 2338999.869417168 2338999.869417168 -2074801.116167816 0 0 0 0 0 122053488.0023973 -492270.6438309425 -492270.6438309425 -7433241.626157108 0 0 0 0 0 35618277.75836363 -35113646.66596463 -35113646.66596463 33860657.75900065 0 0 0 0 0 52383426.77056906 -38269478.74410766 -38269478.74410766 26844174.36334394 0 0 0 0 0 76686806.57286882 -37965585.63316493 -37965585.63316493 14235111.82788323 0 0 0 0 0 66142111.07834908 -39323511.12630972 -39323511.12630972 20386305.83435913 0 0 0 0 0 87205847.60199261 -37525111.77973466 -37525111.77973466 10064477.51074333 0 0 0 0 0 96166276.30818865 -36338421.73551992 -36338421.73551992 6503989.776666972 0 0 0 0 0 103809440.9875036 -34609465.32321144 -34609465.32321144 3497476.827804317 0 0 0 0 0 110180316.9731972 -32548313.08644578 -32548313.08644578 932041.2865444029 0 0 0 0 0 115277969.2458932 -30191297.89036221 -30191297.89036221 -1264004.39188453 0 0 0 0 0 119431614.9854232 -27746194.4474226 -27746194.4474226 -3042662.735625942 0 0 0 0 0 122773239.4154998 -25282127.05599761 -25282127.05599761 -4450449.10630414 0 0 0 0 0 125419875.9381862 -22851853.4633953 -22851853.4633953 -5540300.039302877 0 0 0 0 0 122816713.6605321 -20440615.60781884 -20440615.60781884 -7512796.661126153 0 0 0 0 0 125733634.9277658 -19890933.33524133 -19890933.33524133 -8660878.39622554 0 0 0 0 0 127249937.7127514 -17802329.86837445 -17802329.86837445 -9023788.991620574 0 0 0 0 0 128407308.3928869 -15836265.35479212 -15836265.35479212 -9213286.475542614 0 0 0 0 0 129213047.5692165 -13993417.10178641 -13993417.10178641 -9287069.79272287 0 0 0 0 0 128186844.3049228 -12305393.25352107 -12305393.25352107 -10651724.28661926 0 0 0 0 0 126811362.1937677 -12486428.83406783 -12486428.83406783 -9802934.655497339 0 0 0 0 0 128542786.743241 -10777242.05201559 -10777242.05201559 -10432985.99186131 0 0 0 0 0 128715136.5593446 -9354534.255084071 -9354534.255084071 -10156068.41730384 0 0 0 0 0 128760345.1171023 -8027309.11530281 -8027309.11530281 -9813729.290234266 0 0 0 0 0 128647400.6850751 -6822915.808281198 -6822915.808281198 -9456508.30057754 0 0 0 0 0 128427582.2515419 -5708762.314949459 -5708762.314949459 -9078111.896557733 0 0 0 0 0 128121662.2762046 -4687873.768826653 -4687873.768826653 -8683212.288350498 0 0 0 0 0 126485400.4444448 -4014358.600514962 -4014358.600514962 -8402822.365425153 0 0 0 0 0 126662584.8972405 -4162320.73002353 -4162320.73002353 -9170590.556932783 0 0 0 0 0 126291962.8357789 -3335446.838136264 -3335446.838136264 -8736292.159467183 0 0 0 0 0 125874164.5048289 -2568138.810930652 -2568138.810930652 -8295771.58297137 0 0 0 0 0 125427312.1085032 -1865323.817392661 -1865323.817392661 -7855346.314476908 0 0 0 0 0 124958471.2866355 -1223793.679915298 -1223793.679915298 -7418207.317260374 0 0 0 0 0 124461995.1338557 -639201.883360594 -639201.883360594 -6991150.283833577 0 0 0 0 0 123371383.8932273 -325461.633101559 -325461.633101559 -6570901.067454504 0 0 0 0 0 123212530.8029552 -546247.8921963249 -546247.8921963249 -7253534.329608335 0 0 0 0 0 122733946.7145266 -65753.19030266958 -65753.19030266958 -6839973.74399437 0 0 0 0 0 121131033.6477639 -276168.9355450441 -276168.9355450441 -6984017.357953668 0 0 0 0 0 120741311.0541109 138924.2520949688 138924.2520949688 -6581268.544815558 0 0 0 0 0 119752916.5385013 100868.5784053992 100868.5784053992 -6699558.71874829 0 0 0 0 0 120555707.9091341 -57901.5408597784 -57901.5408597784 -7142198.358141203 0 0 0 0 0 119379527.639329 449672.5409484986 449672.5409484986 -6322181.451748569 0 0 0 0 0 119002070.7161012 765771.3701852354 765771.3701852354 -5966228.487273888 0 0 0 0 0 118607342.0963261 1050382.002965172 1050382.002965172 -5625766.913940025 0 0 0 0 0 118217653.7814965 1313663.906512552 1313663.906512552 -5292598.94153263 0 0 0 0 0 117401980.6315958 1194813.778519475 1194813.778519475 -5392792.789968326 0 0 0 0 0 117988343.5880337 1121624.59926223 1121624.59926223 -5783424.641692234 0 0 0 0 0 117042962.054356 1419508.740118775 1419508.740118775 -5081226.858045647 0 0 0 0 0 116687411.5698031 1633774.959026312 1633774.959026312 -4781256.954778376 0 0 0 0 0 116348438.6269033 1843858.667641775 1843858.667641775 -4466035.057211367 0 0 0 0 0 115995786.2878443 2015830.530997257 2015830.530997257 -4189898.572919174 0 0 0 0 0 115649677.0437336 2169135.432628619 2169135.432628619 -3928097.470675321 0 0 0 0 0 115394648.8216104 1984886.658587598 1984886.658587598 -4367423.499442056 0 0 0 0 0 114667252.827955 2120371.449312727 2120371.449312727 -3816035.599310023 0 0 0 0 0 115051967.5904284 2117339.155396723 2117339.155396723 -4121174.805786817 0 0 0 0 0 114350920.3300437 2236430.648685558 2236430.648685558 -3591133.78054041 0 0 0 0 0 114039078.3248893 2340660.610859164 2340660.610859164 -3371955.68613868 0 0 0 0 0 113735580.1963689 2437041.087017775 2437041.087017775 -3161743.131583643 0 0 0 0 0 113442456.7942847 2525989.632240878 2525989.632240878 -2958972.728479244 0 0 0 0 0 112922523.2181208 2352545.010501381 2352545.010501381 -3071352.363941178 0 0 0 0 0 113202487.5729604 2361564.272884222 2361564.272884222 -3335133.868405258 0 0 0 0 0 112649403.9673663 2429376.612578633 2429376.612578633 -2881875.605368145 0 0 0 0 0 112381445.3421672 2497630.035927177 2497630.035927177 -2702504.613124304 0 0 0 0 0 112117363.124029 2557959.003740615 2557959.003740615 -2530672.250754723 0 0 0 0 0 111859091.6571276 2611791.785703753 2611791.785703753 -2365637.531074662 0 0 0 0 0 111606794.1101577 2659858.861709116 2659858.861709116 -2207580.594069764 0 0 0 0 0 111147266.3732687 2560565.94439573 2560565.94439573 -2373674.919303993 0 0 0 0 0 111360161.8946318 2702163.637202931 2702163.637202931 -2056544.284789775 0 0 0 0 0 110959770.8074862 2537327.994993771 2537327.994993771 -2168651.281932921 0 0 0 0 0 110732093.0498215 2576013.611923494 2576013.611923494 -2026495.758718517 0 0 0 0 0 110505736.9220253 2611777.108481557 2611777.108481557 -1888307.263082682 0 0 0 0 0 110286727.428743 2638813.453812757 2638813.453812757 -1747183.983018754 0 0 0 0 0 110054290.6623076 2543339.908548659 2543339.908548659 -1816068.981999337 0 0 0 0 0 110125851.1745693 2531922.417044866 2531922.417044866 -1974407.067892964 0 0 0 0 0 109860434.721449 2515858.873410918 2515858.873410918 -1788390.354915895 0 0 0 0 0 121798220.0236242 162425.3545232549 162425.3545232549 -6404475.561805236 0 0 0 0 0 42552935.72944868 -38382322.52669609 -38382322.52669609 38125231.30171238 0 0 0 0 0 58860164.68961638 -40690358.40868894 -40690358.40868894 30012975.7936594 0 0 0 0 0 77639000.31074226 -39049573.68061057 -39049573.68061057 14895681.8805507 0 0 0 0 0 73160413.3453971 -41320566.10278089 -41320566.10278089 23424782.10255236 0 0 0 0 0 87543594.93579525 -37891307.98856778 -37891307.98856778 10331582.98078313 0 0 0 0 0 96000988.34752667 -36119542.09290791 -36119542.09290791 6489270.45406137 0 0 0 0 0 103198866.5008813 -33891435.24069189 -33891435.24069189 3291844.504760941 0 0 0 0 0 109246982.6254692 -31373545.28184077 -31373545.28184077 690638.8349600784 0 0 0 0 0 114205441.1607056 -28788089.50206687 -28788089.50206687 -1393529.501094536 0 0 0 0 0 118270849.788577 -26176003.3032654 -26176003.3032654 -3026226.449800199 0 0 0 0 0 121564197.0467611 -23605670.54018725 -23605670.54018725 -4275204.59074592 0 0 0 0 0 124207132.0509623 -21117218.23779813 -21117218.23779813 -5196223.806396539 0 0 0 0 0 127461971.0503525 -20505992.53086335 -20505992.53086335 -6366951.364904616 0 0 0 0 0 124763271.8449363 -18250287.6355548 -18250287.6355548 -7967582.042397819 0 0 0 0 0 126254183.7632344 -16220547.68423677 -16220547.68423677 -8259157.434085492 0 0 0 0 0 127450779.714893 -14265091.46967551 -14265091.46967551 -8336660.168696037 0 0 0 0 0 128314630.3076381 -12436245.13688452 -12436245.13688452 -8303075.760794063 0 0 0 0 0 127410375.7872234 -10892281.71125157 -10892281.71125157 -9600115.83508564 0 0 0 0 0 129739391.0598797 -12266929.10059014 -12266929.10059014 -9254380.384876531 0 0 0 0 0 127793440.5357771 -9421316.322200136 -9421316.322200136 -9337048.29917933 0 0 0 0 0 128025326.1478654 -8034135.885550826 -8034135.885550826 -8999901.695360553 0 0 0 0 0 128085013.3706224 -6769442.557666358 -6769442.557666358 -8638502.189696658 0 0 0 0 0 128020208.8671232 -5609310.463389021 -5609310.463389021 -8251214.269562934 0 0 0 0 0 127844509.5400988 -4550198.964788798 -4550198.964788798 -7850146.432923055 0 0 0 0 0 127585810.3044483 -3584283.616865796 -3584283.616865796 -7438295.572899576 0 0 0 0 0 127738765.356886 -3760961.847376434 -3760961.847376434 -8282709.398700356 0 0 0 0 0 126205903.3694759 -3154239.267974246 -3154239.267974246 -7964641.429580913 0 0 0 0 0 125854208.6051452 -2374435.305560974 -2374435.305560974 -7535806.907957253 0 0 0 0 0 125468123.2612547 -1659984.932731502 -1659984.932731502 -7102996.690159224 0 0 0 0 0 125052101.6240142 -1005292.492017941 -1005292.492017941 -6673394.444342125 0 0 0 0 0 124604276.8117969 -407687.4567983592 -407687.4567983592 -6248285.652836316 0 0 0 0 0 124136832.3575716 134976.4983747161 134976.4983747161 -5833264.260997881 0 0 0 0 0 123945054.1229012 -110788.7700998856 -110788.7700998856 -6578317.842211895 0 0 0 0 0 122929888.4248736 164937.5366077585 164937.5366077585 -6159031.112704104 0 0 0 0 0 122473349.7830473 609649.826299004 609649.826299004 -5761383.668618796 0 0 0 0 0 121606076.5739314 -51152.80270246678 -51152.80270246678 -7023094.327098225 0 0 0 0 0 121152206.797368 350675.1787036519 350675.1787036519 -6626808.703413951 0 0 0 0 0 120131044.6393383 312971.607017852 312971.607017852 -6754569.703674991 0 0 0 0 0 120342270.3033641 517097.2244129359 517097.2244129359 -6193592.988468289 0 0 0 0 0 119701783.3412097 646335.4904727692 646335.4904727692 -6385440.042581741 0 0 0 0 0 119272223.9016882 947238.1545161722 947238.1545161722 -6034887.449151556 0 0 0 0 0 118846933.4962436 1224101.802388033 1224101.802388033 -5691777.299543689 0 0 0 0 0 118430170.8183554 1483392.485084522 1483392.485084522 -5354140.16683488 0 0 0 0 0 117591746.7192853 1359335.032447172 1359335.032447172 -5462863.272439611 0 0 0 0 0 117839142.4953578 1556781.332820442 1556781.332820442 -4966708.330841141 0 0 0 0 0 117205610.7750641 1580547.300973747 1580547.300973747 -5150017.451009032 0 0 0 0 0 116836039.7445017 1794361.2461728 1794361.2461728 -4832090.405261862 0 0 0 0 0 116444120.1970007 1979367.014702822 1979367.014702822 -4533301.084642098 0 0 0 0 0 116071973.3639319 2144198.752389789 2144198.752389789 -4258442.320887064 0 0 0 0 0 115701238.4722655 2289593.665271707 2289593.665271707 -3998517.297331531 0 0 0 0 0 115310424.9861039 2302452.921656863 2302452.921656863 -3678752.645707746 0 0 0 0 0 114712766.4444207 2232412.526783481 2232412.526783481 -3889858.003158465 0 0 0 0 0 114975005.2806105 2420304.565048541 2420304.565048541 -3460109.357878427 0 0 0 0 0 114378613.6960578 2340981.982052349 2340981.982052349 -3660478.126241216 0 0 0 0 0 114051412.8566748 2441713.041885877 2441713.041885877 -3439749.233964453 0 0 0 0 0 113735395.1545614 2533464.433905004 2533464.433905004 -3227334.682061205 0 0 0 0 0 113425145.6618532 2615656.247610109 2615656.247610109 -3024047.34596172 0 0 0 0 0 112911971.4866361 2442543.552850856 2442543.552850856 -3135011.81902099 0 0 0 0 0 113150614.2679777 2605218.382030965 2605218.382030965 -2764148.291684013 0 0 0 0 0 112628008.9774326 2513927.17836851 2513927.17836851 -2945432.53454947 0 0 0 0 0 112349552.3672377 2575980.179914114 2575980.179914114 -2764665.133759788 0 0 0 0 0 112077347.2269284 2631693.10544394 2631693.10544394 -2591094.335212197 0 0 0 0 0 111812042.098284 2681492.078691238 2681492.078691238 -2424473.475055596 0 0 0 0 0 111553193.2462921 2725161.374059434 2725161.374059434 -2264910.208524947 0 0 0 0 0 111119046.7626992 2739164.26526142 2739164.26526142 -1912270.638828907 0 0 0 0 0 111300777.8144853 2763227.358556071 2763227.358556071 -2112303.939206402 0 0 0 0 0 110909231.6358632 2600003.028190164 2600003.028190164 -2223332.944559387 0 0 0 0 0 110677049.4562959 2634594.640896766 2634594.640896766 -2079468.577455356 0 0 0 0 0 110455751.1318718 2667457.282207713 2667457.282207713 -1938139.925974442 0 0 0 0 0 110266885.1408055 2704910.111270048 2704910.111270048 -1784930.150710478 0 0 0 0 0 109851509.1463018 2554252.814999009 2554252.814999009 -1857691.012034282 0 0 0 0 0 110067115.1267616 2683649.322256747 2683649.322256747 -1599903.935668004 0 0 0 0 0 109632484.056712 2532564.196154223 2532564.196154223 -1814595.076154695 0 0 0 0 0 122246235.3614584 371280.0309839127 371280.0309839127 -6438648.732131247 0 0 0 0 0 44388748.04229867 -41573721.72703843 -41573721.72703843 38439222.91300436 0 0 0 0 0 60543825.12952013 -42924392.23635037 -42924392.23635037 30325507.79886731 0 0 0 0 0 85142870.03527655 -40776896.87336224 -40776896.87336224 17864417.36375455 0 0 0 0 0 73876667.11342125 -42451970.70232213 -42451970.70232213 23079781.34688417 0 0 0 0 0 95113874.4614879 -39293843.65434364 -39293843.65434364 13086489.92415328 0 0 0 0 0 103625170.4367821 -37275460.93612627 -37275460.93612627 9106130.789951034 0 0 0 0 0 110647906.905256 -34894311.85566566 -34894311.85566566 5763472.309546879 0 0 0 0 0 116247990.2681515 -32197326.85761364 -32197326.85761364 2925179.595225386 0 0 0 0 0 120749192.2025557 -29431003.55885979 -29431003.55885979 609642.2101837324 0 0 0 0 0 124322753.7897143 -26671879.63909449 -26671879.63909449 -1244870.397825248 0 0 0 0 0 127118192.8785312 -23967722.04947568 -23967722.04947568 -2700966.742033127 0 0 0 0 0 129253809.7395281 -21370833.27531371 -21370833.27531371 -3817777.310958891 0 0 0 0 0 126275967.6978306 -18740698.99281154 -18740698.99281154 -5851599.452950363 0 0 0 0 0 128956114.8352199 -18292175.15281415 -18292175.15281415 -6996134.454091625 0 0 0 0 0 130092071.3660923 -16137436.5105078 -16137436.5105078 -7371535.840259088 0 0 0 0 0 130900328.0226088 -14150453.85682294 -14150453.85682294 -7570567.47006971 0 0 0 0 0 131385193.9420947 -12316051.69954471 -12316051.69954471 -7659663.860992413 0 0 0 0 0 130031422.8647927 -10668005.27999626 -10668005.27999626 -9137385.521410376 0 0 0 0 0 128882160.4716951 -10754408.67972183 -10754408.67972183 -8191026.598507048 0 0 0 0 0 130162365.0461809 -9164253.482568966 -9164253.482568966 -8917501.414478904 0 0 0 0 0 130121680.523421 -7793218.603220585 -7793218.603220585 -8658079.107651008 0 0 0 0 0 129949303.8925485 -6530697.360690848 -6530697.360690848 -8347770.683057649 0 0 0 0 0 129664498.5359181 -5377928.863958872 -5377928.863958872 -8014517.463989657 0 0 0 0 0 129292873.0768643 -4324927.708110409 -4324927.708110409 -7657138.054824474 0 0 0 0 0 128852778.3164955 -3365295.431757709 -3365295.431757709 -7284199.619620783 0 0 0 0 0 127257066.7230823 -2704038.834431487 -2704038.834431487 -7024888.514634633 0 0 0 0 0 127301471.026228 -2914252.686348114 -2914252.686348114 -7879253.41836408 0 0 0 0 0 126829473.2920302 -2140323.979080964 -2140323.979080964 -7468977.071838273 0 0 0 0 0 126323083.718496 -1432610.795681115 -1432610.795681115 -7052723.766329716 0 0 0 0 0 125797260.5965201 -789194.1451044383 -789194.1451044383 -6637145.313832916 0 0 0 0 0 125253966.3585652 -203657.5958359278 -203657.5958359278 -6226717.849877117 0 0 0 0 0 124693880.0126823 327501.5358764877 327501.5358764877 -5826303.021368632 0 0 0 0 0 123656632.0100379 624990.1792751217 624990.1792751217 -5433100.507859808 0 0 0 0 0 123421557.6609985 366791.0719838021 366791.0719838021 -6178350.880608368 0 0 0 0 0 122893104.8296154 799767.3188649139 799767.3188649139 -5788868.163997002 0 0 0 0 0 121371747.6996844 571465.3428629958 571465.3428629958 -6010002.761486083 0 0 0 0 0 120937187.0217344 942493.0111149184 942493.0111149184 -5630594.438879106 0 0 0 0 0 119938284.866143 859298.8580755548 859298.8580755548 -5820185.507752991 0 0 0 0 0 120693417.5508728 715386.2462942257 715386.2462942257 -6245478.829887223 0 0 0 0 0 119527950.3134363 1166408.297657985 1166408.297657985 -5468489.044693898 0 0 0 0 0 119113204.4323915 1443718.294666658 1443718.294666658 -5137430.42769476 0 0 0 0 0 118694326.7038685 1696422.072027628 1696422.072027628 -4816168.974595896 0 0 0 0 0 118281834.435226 1929992.658556589 1929992.658556589 -4500059.209155844 0 0 0 0 0 117460101.5191342 1775858.660021735 1775858.660021735 -4662496.26978653 0 0 0 0 0 118009137.9813875 1715247.173456838 1715247.173456838 -5035639.490654696 0 0 0 0 0 117083347.846048 1982997.650856294 1982997.650856294 -4363498.693536618 0 0 0 0 0 116706390.8907856 2174604.980245363 2174604.980245363 -4063777.880074754 0 0 0 0 0 116347957.8787863 2344788.215905382 2344788.215905382 -3781791.733752006 0 0 0 0 0 115980206.2083516 2489503.775404333 2489503.775404333 -3526368.427255493 0 0 0 0 0 115623924.2744227 2618945.311036767 2618945.311036767 -3284822.817392002 0 0 0 0 0 115333144.8636791 2415400.818245321 2415400.818245321 -3755780.313790731 0 0 0 0 0 114635495.1320086 2523147.509262892 2523147.509262892 -3242269.240152691 0 0 0 0 0 114982626.1166953 2518833.568029683 2518833.568029683 -3534067.270178664 0 0 0 0 0 114306057.2198694 2619251.481942783 2619251.481942783 -3028318.694153388 0 0 0 0 0 113991923.46512 2710229.291619939 2710229.291619939 -2821387.423184518 0 0 0 0 0 113680875.0286124 2790970.822335382 2790970.822335382 -2622830.932151523 0 0 0 0 0 113375797.2367811 2861742.405201566 2861742.405201566 -2433944.242846787 0 0 0 0 0 112864989.6794432 2674743.304843809 2674743.304843809 -2579232.475088255 0 0 0 0 0 113122196.8669007 2688924.610607632 2688924.610607632 -2827818.1682356 0 0 0 0 0 112585669.2746319 2735715.915044819 2735715.915044819 -2404674.621278597 0 0 0 0 0 112310734.5247818 2788847.807227913 2788847.807227913 -2237636.239964281 0 0 0 0 0 112042120.0685385 2835766.400916723 2835766.400916723 -2077241.12586043 0 0 0 0 0 111780263.5084409 2876963.228191066 2876963.228191066 -1923822.551196824 0 0 0 0 0 111524488.7789927 2912397.555175804 2912397.555175804 -1777693.988626206 0 0 0 0 0 111054727.9921486 2796247.730046842 2796247.730046842 -1966444.387517229 0 0 0 0 0 111274751.4343133 2942622.64940711 2942622.64940711 -1638526.42752715 0 0 0 0 0 110883581.4261343 2771261.733442149 2771261.733442149 -1774497.818894235 0 0 0 0 0 110653647.9437537 2798874.713559696 2798874.713559696 -1643602.921766833 0 0 0 0 0 110434851.3757747 2820418.429831111 2820418.429831111 -1520657.148110221 0 0 0 0 0 110195204.31132 2832865.112379676 2832865.112379676 -1419798.095655311 0 0 0 0 0 109927536.0207095 2720147.310843665 2720147.310843665 -1496338.532049491 0 0 0 0 0 110097708.0384895 2761973.575113916 2761973.575113916 -1609634.103269742 0 0 0 0 0 122008677.1149163 1012856.970425319 1012856.970425319 -5378216.272605118 0 0 0 0 0 52823352.96990789 -45444415.74621698 -45444415.74621698 43212339.3410051 0 0 0 0 0 69023106.13640942 -45989292.84722307 -45989292.84722307 34406997.7529586 0 0 0 0 0 85139116.75495869 -41009459.20667829 -41009459.20667829 17171453.7914289 0 0 0 0 0 82867285.36001113 -45140236.42294345 -45140236.42294345 27087076.64130694 0 0 0 0 0 94747496.00415914 -39022481.861306 -39022481.861306 12369294.82315783 0 0 0 0 0 102821169.1807052 -36423908.70434337 -36423908.70434337 8321534.922890203 0 0 0 0 0 109493802.8724621 -33548939.92799268 -33548939.92799268 5024156.634413994 0 0 0 0 0 114944282.2022936 -30611751.18985089 -30611751.18985089 2367689.252479852 0 0 0 0 0 119365801.9266284 -27672744.55399027 -27672744.55399027 270745.0436930038 0 0 0 0 0 122911359.49347 -24799568.37203307 -24799568.37203307 -1354366.074180322 0 0 0 0 0 125714215.5875093 -22043546.00535827 -22043546.00535827 -2582958.873658258 0 0 0 0 0 127888821.1282037 -19433784.70683561 -19433784.70683561 -3481681.092085409 0 0 0 0 0 130820830.2432993 -18916902.59537358 -18916902.59537358 -4659318.848879606 0 0 0 0 0 127861417.396576 -16521555.70854491 -16521555.70854491 -6286255.35221271 0 0 0 0 0 129036669.0920056 -14430072.12593044 -14430072.12593044 -6531852.174220509 0 0 0 0 0 129882654.7510295 -12477690.07641516 -12477690.07641516 -6625260.850593226 0 0 0 0 0 130428510.9225051 -10688979.78681002 -10688979.78681002 -6612017.699059457 0 0 0 0 0 129229129.8426733 -9206818.284674479 -9206818.284674479 -8002635.552327478 0 0 0 0 0 131617765.8082884 -10613587.36493407 -10613587.36493407 -7643118.774200394 0 0 0 0 0 129395448.3954879 -7766424.817361042 -7766424.817361042 -7738222.236554637 0 0 0 0 0 129410937.3563744 -6449084.276642134 -6449084.276642134 -7429561.338582784 0 0 0 0 0 129280895.7727467 -5248455.546671866 -5248455.546671866 -7094345.884066382 0 0 0 0 0 129045746.798542 -4156285.745168366 -4156285.745168366 -6736685.23968166 0 0 0 0 0 128722257.7928478 -3164062.685776172 -3164062.685776172 -6363650.164556731 0 0 0 0 0 128329180.7201086 -2265557.65765163 -2265557.65765163 -5982514.534061827 0 0 0 0 0 128359764.6180129 -2494645.621722377 -2494645.621722377 -6906808.217075216 0 0 0 0 0 126863324.8565264 -1908326.338223598 -1908326.338223598 -6612716.516029203 0 0 0 0 0 126409977.1643131 -1193249.605537846 -1193249.605537846 -6214963.146110874 0 0 0 0 0 125935706.365616 -537622.2421159019 -537622.2421159019 -5811979.962891622 0 0 0 0 0 125437366.1502628 57875.91871117927 57875.91871117927 -5413214.253564415 0 0 0 0 0 124917538.4901373 597802.5505143101 597802.5505143101 -5020704.442281072 0 0 0 0 0 124386180.5967873 1085352.838687986 1085352.838687986 -4637709.135247416 0 0 0 0 0 124120436.4743415 803036.7402198189 803036.7402198189 -5442692.875818815 0 0 0 0 0 123158039.4979726 1064547.498294 1064547.498294 -5049856.726707609 0 0 0 0 0 122651778.3918222 1460805.914491692 1460805.914491692 -4681925.68611335 0 0 0 0 0 121754337.6377561 767717.0082460553 767717.0082460553 -6051649.945654321 0 0 0 0 0 121260947.4259795 1126744.349072024 1126744.349072024 -5678334.190176778 0 0 0 0 0 120229082.0225623 1044363.386498465 1044363.386498465 -5881271.999696065 0 0 0 0 0 120498544.8870068 1278534.767112785 1278534.767112785 -5266664.501536473 0 0 0 0 0 119769419.9138882 1340305.805529063 1340305.805529063 -5535359.609597164 0 0 0 0 0 119314640.8760792 1605075.690527756 1605075.690527756 -5207079.85613123 0 0 0 0 0 118866973.463618 1851280.789888518 1851280.789888518 -4880089.432024742 0 0 0 0 0 118423447.484629 2075291.308060155 2075291.308060155 -4565014.722812582 0 0 0 0 0 117601596.474949 1927524.070897472 1927524.070897472 -4726550.369374423 0 0 0 0 0 117877727.8478588 2139677.862996448 2139677.862996448 -4200158.940158948 0 0 0 0 0 117196704.3538388 2123206.00164316 2123206.00164316 -4423408.916713561 0 0 0 0 0 116802374.862768 2307111.01016927 2307111.01016927 -4120643.176604759 0 0 0 0 0 116395144.8708659 2463143.789542046 2463143.789542046 -3850056.641434996 0 0 0 0 0 116008502.6085656 2600076.733815839 2600076.733815839 -3594692.669756367 0 0 0 0 0 115624763.1415334 2718871.33668128 2718871.33668128 -3355114.870582143 0 0 0 0 0 115281602.251971 2730481.534687197 2730481.534687197 -3059522.591837052 0 0 0 0 0 114636472.4158196 2619144.815569756 2619144.815569756 -3311788.977076449 0 0 0 0 0 114917476.850029 2816445.269955365 2816445.269955365 -2862237.612331839 0 0 0 0 0 114298996.1477464 2714247.754440284 2714247.754440284 -3094602.683897686 0 0 0 0 0 113967654.5850469 2798418.14842463 2798418.14842463 -2887133.885700042 0 0 0 0 0 113644275.0097603 2872791.218446126 2872791.218446126 -2687180.793281646 0 0 0 0 0 113329402.1356491 2938247.018165456 2938247.018165456 -2497005.778018224 0 0 0 0 0 112826377.0761748 2752893.572718369 2752893.572718369 -2642398.937121759 0 0 0 0 0 113077713.5669875 2923459.733544749 2923459.733544749 -2254413.61431593 0 0 0 0 0 112537146.1682546 2807745.008179957 2807745.008179957 -2466339.560020231 0 0 0 0 0 112254589.9171329 2856333.137457683 2856333.137457683 -2297526.16765582 0 0 0 0 0 111979592.095876 2899263.338678662 2899263.338678662 -2135441.812326418 0 0 0 0 0 111711445.7564159 2936177.321564841 2936177.321564841 -1980611.578785398 0 0 0 0 0 111450274.9828857 2967497.073433159 2967497.073433159 -1832947.219049284 0 0 0 0 0 111031150.566654 2968111.042348236 2968111.042348236 -1506402.893108632 0 0 0 0 0 111195926.3301349 2993738.249821594 2993738.249821594 -1692111.29350324 0 0 0 0 0 110815130.4686697 2824707.310655635 2824707.310655635 -1827176.62921661 0 0 0 0 0 110583652.7327856 2849216.374529037 2849216.374529037 -1694708.564993812 0 0 0 0 0 110360875.3870481 2866856.080392684 2866856.080392684 -1571903.859475857 0 0 0 0 0 110131139.1575522 2867546.616826192 2867546.616826192 -1460810.498222418 0 0 0 0 0 109704474.9052064 2725068.143607494 2725068.143607494 -1498974.882967237 0 0 0 0 0 109897639.413278 2832706.466390159 2832706.466390159 -1356218.256587966 0 0 0 0 0 122361203.9318493 1190293.460619895 1190293.460619895 -5414316.216286307 0 0 0 0 0 54305335.9660193 -48016151.55610225 -48016151.55610225 42136193.40336983 0 0 0 0 0 69670407.16191344 -47334020.44228527 -47334020.44228527 33020833.31392587 0 0 0 0 0 94019537.04400845 -43200306.16071977 -43200306.16071977 20776914.18994727 0 0 0 0 0 82658085.11825226 -45429847.09325141 -45429847.09325141 25373004.28808396 0 0 0 0 0 103460728.7149174 -40754299.37916943 -40754299.37916943 15595323.82460063 0 0 0 0 0 111289305.8315771 -37923233.16325641 -37923233.16325641 11361022.77824661 0 0 0 0 0 117408296.2625462 -34814787.15522385 -34814787.15522385 7775625.494524186 0 0 0 0 0 122252305.7218775 -31619147.44388421 -31619147.44388421 4799629.921207924 0 0 0 0 0 126072173.567146 -28471512.3999243 -28471512.3999243 2416891.029835861 0 0 0 0 0 129016411.3622829 -25423699.15545703 -25423699.15545703 527832.275758829 0 0 0 0 0 131226431.1929459 -22517830.154219 -22517830.154219 -943432.0748323807 0 0 0 0 0 132829533.4362376 -19785866.80571958 -19785866.80571958 -2061681.257658952 0 0 0 0 0 129532091.3168871 -16991546.24276117 -16991546.24276117 -4110882.717209626 0 0 0 0 0 131938960.6207183 -16600611.43865186 -16600611.43865186 -5259656.768116734 0 0 0 0 0 132696853.0874742 -14446601.088543 -14446601.088543 -5635156.52405417 0 0 0 0 0 133131500.8271368 -12466359.17249934 -12466359.17249934 -5860539.888932356 0 0 0 0 0 133306292.4753439 -10640903.45692544 -10640903.45692544 -5959891.322340173 0 0 0 0 0 131669825.1584885 -9034490.332951171 -9034490.332951171 -7527724.381309955 0 0 0 0 0 130734599.9217072 -9043695.619030979 -9043695.619030979 -6505724.202074138 0 0 0 0 0 131563423.284644 -7588896.155230962 -7588896.155230962 -7331128.583751982 0 0 0 0 0 131313107.1527992 -6273111.668959294 -6273111.668959294 -7094661.250584965 0 0 0 0 0 130953636.6834124 -5073002.271033543 -5073002.271033543 -6813909.221319943 0 0 0 0 0 130508430.2907811 -3981548.685744308 -3981548.685744308 -6505936.403890029 0 0 0 0 0 129995727.2081043 -2992223.527497582 -2992223.527497582 -6176066.375269361 0 0 0 0 0 129431348.4240985 -2098675.249020815 -2098675.249020815 -5834192.641754303 0 0 0 0 0 127876760.6745738 -1457512.594491872 -1457512.594491872 -5600486.00508383 0 0 0 0 0 127814934.7324566 -1712147.534234747 -1712147.534234747 -6532089.100603447 0 0 0 0 0 127251481.6765255 -998322.88781976 -998322.88781976 -6150410.68664074 0 0 0 0 0 126656286.7331858 -354870.0340399743 -354870.0340399743 -5764152.204448343 0 0 0 0 0 126053913.1836704 231372.5003025789 231372.5003025789 -5379817.035376328 0 0 0 0 0 125448605.7642419 762193.8317477679 762193.8317477679 -5000583.105021791 0 0 0 0 0 124827575.3941085 1236803.6840883 1236803.6840883 -4632692.18007627 0 0 0 0 0 123846746.1609478 1521738.694457274 1521738.694457274 -4270069.291924409 0 0 0 0 0 123546106.2116684 1231643.106892174 1231643.106892174 -5069184.283446398 0 0 0 0 0 122972680.2480565 1616168.931994116 1616168.931994116 -4710630.504890815 0 0 0 0 0 121536816.4182823 1376410.026970088 1376410.026970088 -5010901.008571163 0 0 0 0 0 121061945.3722005 1704331.235137437 1704331.235137437 -4658993.171015238 0 0 0 0 0 120061285.5824541 1581713.244120997 1581713.244120997 -4919180.760953375 0 0 0 0 0 120768073.65051 1451278.974641799 1451278.974641799 -5319768.615863972 0 0 0 0 0 119618115.0609736 1850536.507162416 1850536.507162416 -4594317.794793838 0 0 0 0 0 119167312.5258737 2087827.325263438 2087827.325263438 -4290041.012471246 0 0 0 0 0 118728618.1394933 2310331.550415364 2310331.550415364 -3986275.808533252 0 0 0 0 0 118295984.9515659 2511606.558514583 2511606.558514583 -3695242.695162605 0 0 0 0 0 117473991.5371471 2333385.762812203 2333385.762812203 -3912569.684546523 0 0 0 0 0 117984653.7521332 2276698.815814021 2276698.815814021 -4266788.255981714 0 0 0 0 0 117077574.3508545 2511867.250899552 2511867.250899552 -3625326.929581514 0 0 0 0 0 116682447.9164721 2673299.877502813 2673299.877502813 -3348713.717129846 0 0 0 0 0 116309444.3269776 2814917.96681087 2814917.96681087 -3090087.893379095 0 0 0 0 0 115930090.875612 2934501.082164816 2934501.082164816 -2851995.581963276 0 0 0 0 0 115563660.8054651 3039398.678970921 3039398.678970921 -2629755.102285887 0 0 0 0 0 115241745.2232594 2816919.387721187 2816919.387721187 -3138155.837800711 0 0 0 0 0 114573393.851122 2904302.868565205 2904302.868565205 -2656597.409031433 0 0 0 0 0 114888310.1834667 2907228.624715369 2907228.624715369 -2933767.455293698 0 0 0 0 0 114241365.2677426 2987007.474985423 2987007.474985423 -2454048.01772577 0 0 0 0 0 113915757.8841805 3058686.210097787 3058686.210097787 -2262096.455777599 0 0 0 0 0 113597283.2192978 3121035.241613986 3121035.241613986 -2079632.980560664 0 0 0 0 0 113286007.6771875 3174241.437273697 3174241.437273697 -1906720.677395781 0 0 0 0 0 112786677.5842177 2976706.131032558 2976706.131032558 -2085477.979911005 0 0 0 0 0 113021415.4708249 2994360.836160155 2994360.836160155 -2316783.404970275 0 0 0 0 0 112500546.9971029 3022193.319235609 3022193.319235609 -1924259.798241231 0 0 0 0 0 112221545.2475711 3061732.292835003 3061732.292835003 -1769335.55793329 0 0 0 0 0 111949881.8305321 3095875.280846705 3095875.280846705 -1621308.999409744 0 0 0 0 0 111685004.0189624 3124367.648321982 3124367.648321982 -1480489.820060077 0 0 0 0 0 111426613.3696761 3147628.433774682 3147628.433774682 -1346629.321315214 0 0 0 0 0 110947769.3371952 3014989.927525116 3014989.927525116 -1558192.150009834 0 0 0 0 0 111174704.012289 3166166.082328316 3166166.082328316 -1219243.606071786 0 0 0 0 0 110793895.9205429 2988866.500410574 2988866.500410574 -1381684.75141287 0 0 0 0 0 110565660.4618004 3003362.785282158 3003362.785282158 -1265573.626388882 0 0 0 0 0 110348594.2363436 3014525.378485977 3014525.378485977 -1158661.695839881 0 0 0 0 0 110131955.6934945 2994912.66499385 2994912.66499385 -1162954.784740964 0 0 0 0 0 109981939.6389915 2904980.222646757 2904980.222646757 -1225250.009469059 0 0 0 0 0 122140937.7466756 1816159.149377567 1816159.149377567 -4329717.190830111 0 0 0 0 0 64225144.41429236 -52331043.67426224 -52331043.67426224 47338727.40817145 0 0 0 0 0 80045529.59127328 -51038865.93532579 -51038865.93532579 37958773.41365743 0 0 0 0 0 93392116.15653868 -42853358.64997042 -42853358.64997042 19137230.34476586 0 0 0 0 0 92947792.17585804 -48508895.0218131 -48508895.0218131 29922914.42458634 0 0 0 0 0 102394497.1526522 -39779437.80902255 -39779437.80902255 14040443.84150218 0 0 0 0 0 109826575.2064877 -36387662.39942767 -36387662.39942767 9913702.534969611 0 0 0 0 0 115774056.9776358 -32973939.90603804 -32973939.90603804 6597479.819916994 0 0 0 0 0 120571462.8981111 -29617154.85424606 -29617154.85424606 3957512.063033216 0 0 0 0 0 124387631.6427145 -26366462.45336354 -26366462.45336354 1897223.984735975 0 0 0 0 0 127369822.3578552 -23271849.8565986 -23271849.8565986 321715.225554588 0 0 0 0 0 129645001.7454451 -20367241.22666928 -20367241.22666928 -858797.3864106545 0 0 0 0 0 131331884.7713517 -17669132.24475831 -17669132.24475831 -1717631.670133369 0 0 0 0 0 133934940.2025036 -17242419.27130895 -17242419.27130895 -2888120.802135624 0 0 0 0 0 130730242.8321772 -14723323.22084084 -14723323.22084084 -4524105.326619914 0 0 0 0 0 131546264.0847889 -12628089.77517437 -12628089.77517437 -4763534.064446288 0 0 0 0 0 132050951.1158231 -10709112.05927456 -10709112.05927456 -4867935.708263904 0 0 0 0 0 132303668.1779545 -8958369.736415617 -8958369.736415617 -4859859.652530535 0 0 0 0 0 130840951.229063 -7536844.785316097 -7536844.785316097 -6324512.725142483 0 0 0 0 0 133272750.3674317 -8969213.772556847 -8969213.772556847 -5951713.933604407 0 0 0 0 0 130783409.4745015 -6160775.060359251 -6160775.060359251 -6085639.965880777 0 0 0 0 0 130593148.2370324 -4913824.178900948 -4913824.178900948 -5807123.815138961 0 0 0 0 0 130290690.2618163 -3782342.654410353 -3782342.654410353 -5499122.902809117 0 0 0 0 0 129901063.668381 -2759045.31280288 -2759045.31280288 -5170901.255350948 0 0 0 0 0 129442289.1720494 -1838007.354978941 -1838007.354978941 -4829241.033279356 0 0 0 0 0 128928495.8514872 -1008711.16512308 -1008711.16512308 -4486636.914989857 0 0 0 0 0 128830007.8268692 -1293543.420629167 -1293543.420629167 -5484791.248762743 0 0 0 0 0 127382973.5547691 -727803.3232300981 -727803.3232300981 -5224913.007604259 0 0 0 0 0 126838692.2053462 -69674.0276970063 -69674.0276970063 -4856562.960495014 0 0 0 0 0 126286503.6502277 527448.9070525594 527448.9070525594 -4488435.537843527 0 0 0 0 0 125714286.1973545 1062318.959019561 1062318.959019561 -4125864.499061182 0 0 0 0 0 125128138.9930683 1545252.352637029 1545252.352637029 -3768779.198270908 0 0 0 0 0 124540690.5947188 1977462.22860549 1977462.22860549 -3421171.419962779 0 0 0 0 0 124208692.9039169 1664356.877327424 1664356.877327424 -4277652.381784082 0 0 0 0 0 123300572.5186942 1912515.458071094 1912515.458071094 -3918651.643267465 0 0 0 0 0 122748821.5344403 2259520.718697755 2259520.718697755 -3585045.941892643 0 0 0 0 0 121830056.8999967 1542204.065222253 1542204.065222253 -5053310.688402705 0 0 0 0 0 121301850.3239511 1858706.092920359 1858706.092920359 -4706478.019137259 0 0 0 0 0 120273415.1017328 1740701.410358751 1740701.410358751 -4981623.390341581 0 0 0 0 0 120587524.6444728 1998718.346070027 1998718.346070027 -4322120.88130818 0 0 0 0 0 119781324.1191308 1995056.588717243 1995056.588717243 -4663250.108997189 0 0 0 0 0 119308100.3612259 2229358.923575615 2229358.923575615 -4354111.086131607 0 0 0 0 0 118837381.0183744 2442167.577524011 2442167.577524011 -4050035.858056365 0 0 0 0 0 118374070.4042414 2633497.278813766 2633497.278813766 -3759396.554789982 0 0 0 0 0 117567508.8102324 2463443.473478635 2463443.473478635 -3971779.477042009 0 0 0 0 0 117871962.0180014 2691758.64336713 2691758.64336713 -3417638.935647122 0 0 0 0 0 117146222.3550527 2633293.104466595 2633293.104466595 -3684596.829159406 0 0 0 0 0 116729768.9862529 2784955.992581273 2784955.992581273 -3406904.251322712 0 0 0 0 0 116314851.4804215 2916398.699705307 2916398.699705307 -3157056.248207683 0 0 0 0 0 115918073.8145729 3030925.1629942 3030925.1629942 -2920151.498368268 0 0 0 0 0 115528070.4161178 3127322.102383242 3127322.102383242 -2699982.945705349 0 0 0 0 0 115208496.5714622 3126935.779671132 3126935.779671132 -2434985.849651976 0 0 0 0 0 114540774.5493879 2991553.46706803 2991553.46706803 -2723620.983939496 0 0 0 0 0 114839685.2838634 3198276.8052922 3198276.8052922 -2247751.053589858 0 0 0 0 0 114195757.4460643 3066449.935147257 3066449.935147257 -2518948.128961404 0 0 0 0 0 113858966.2733945 3132125.664567041 3132125.664567041 -2325577.041524932 0 0 0 0 0 113530449.6171872 3188910.758201011 3188910.758201011 -2141841.296620665 0 0 0 0 0 113210939.2231397 3237276.082162912 3237276.082162912 -1967914.790725648 0 0 0 0 0 112720807.1261682 3041673.014317021 3041673.014317021 -2146322.265120062 0 0 0 0 0 112983337.7534398 3219617.401665869 3219617.401665869 -1744125.122377336 0 0 0 0 0 112427808.9721957 3082843.489712256 3082843.489712256 -1983365.284680568 0 0 0 0 0 112142968.6738541 3118639.933430644 3118639.933430644 -1826798.571687524 0 0 0 0 0 111865714.3376766 3148592.234662165 3148592.234662165 -1677268.45464545 0 0 0 0 0 111595746.6948426 3173074.026597082 3173074.026597082 -1534973.921827307 0 0 0 0 0 111333241.4489333 3192641.634901888 3192641.634901888 -1399558.851673508 0 0 0 0 0 110929051.3947204 3180173.322256948 3180173.322256948 -1097069.537573509 0 0 0 0 0 111077989.7648014 3207773.384958348 3207773.384958348 -1270675.882501359 0 0 0 0 0 110703953.8612778 3030634.20622641 3030634.20622641 -1431737.373341877 0 0 0 0 0 110458319.7278194 3036928.168278111 3036928.168278111 -1314482.845766037 0 0 0 0 0 110209672.9243327 3032785.164609747 3032785.164609747 -1199425.325867388 0 0 0 0 0 109995591.2728151 2991302.175757352 2991302.175757352 -1147887.279399204 0 0 0 0 0 109764936.6583966 2925807.243105046 2925807.243105046 -1182171.375735695 0 0 0 0 0 122402299.0714838 1960916.947028064 1960916.947028064 -4365481.261945672 0 0 0 0 0 64884060.83303074 -53998157.09149082 -53998157.09149082 44717366.17436334 0 0 0 0 0 79799007.33835857 -51560270.52065227 -51560270.52065227 35109202.57021882 0 0 0 0 0 103603023.3347456 -45439905.65873034 -45439905.65873034 23305582.56282376 0 0 0 0 0 91900742.32060228 -48010358.86973857 -48010358.86973857 26950584.95643622 0 0 0 0 0 112184071.5588612 -41885689.9481673 -41885689.9481673 17787260.58846019 0 0 0 0 0 118825841.5576126 -38165873.78906584 -38165873.78906584 13274331.20067769 0 0 0 0 0 124012801.8043514 -34421311.62503468 -34421311.62503468 9550598.178898782 0 0 0 0 0 128078538.6011805 -30781469.74402571 -30781469.74402571 6543272.260104628 0 0 0 0 0 131170280.5161673 -27293362.23056269 -27293362.23056269 4148434.995363538 0 0 0 0 0 133441495.7494467 -24002789.26388552 -24002789.26388552 2269303.959068601 0 0 0 0 0 135045724.905179 -20937244.21327995 -20937244.21327995 819307.0606621255 0 0 0 0 0 136109026.7924717 -18109093.22373006 -18109093.22373006 -276777.3126553465 0 0 0 0 0 132532040.856569 -15184600.13907357 -15184600.13907357 -2317871.594442225 0 0 0 0 0 134633983.4796968 -14893907.91418077 -14893907.91418077 -3475144.747759017 0 0 0 0 0 134994332.6627367 -12742691.18229484 -12742691.18229484 -3864717.217428935 0 0 0 0 0 135087827.3060909 -10775336.7984659 -10775336.7984659 -4100594.976363719 0 0 0 0 0 134966312.6855041 -8983552.089550063 -8983552.089550063 -4207274.141283416 0 0 0 0 0 133075027.9065804 -7442770.96556281 -7442770.96556281 -5853309.017358577 0 0 0 0 0 132350889.5804815 -7364732.648511847 -7364732.648511847 -4762355.134841964 0 0 0 0 0 132741176.1878089 -6056941.991712535 -6056941.991712535 -5688356.07063482 0 0 0 0 0 132299587.9647065 -4800633.321153933 -4800633.321153933 -5476254.807799618 0 0 0 0 0 131773540.4756702 -3665244.30202393 -3665244.30202393 -5224150.832108759 0 0 0 0 0 131182086.7936332 -2640915.26655239 -2640915.26655239 -4944810.367591789 0 0 0 0 0 130538674.7529639 -1720425.414304407 -1720425.414304407 -4647142.626457389 0 0 0 0 0 129863244.8383374 -896675.3996714869 -896675.3996714869 -4341503.04440242 0 0 0 0 0 128369767.2339993 -266291.7112213245 -266291.7112213245 -4142208.4536441 0 0 0 0 0 128192030.805351 -576370.6846682343 -576370.6846682343 -5143553.936189774 0 0 0 0 0 127539159.4689618 74058.47131501866 74058.47131501866 -4790857.905970503 0 0 0 0 0 126873563.0155089 664589.8895675511 664589.8895675511 -4441990.314124419 0 0 0 0 0 126205897.5601618 1192276.864464705 1192276.864464705 -4093518.925238304 0 0 0 0 0 125542468.0018012 1666514.182302688 1666514.182302688 -3749299.3686471 0 0 0 0 0 124873196.8874584 2091516.7654055 2091516.7654055 -3414699.940661086 0 0 0 0 0 123950917.777175 2363476.232305694 2363476.232305694 -3087755.945763828 0 0 0 0 0 123588871.3786578 2042539.847440999 2042539.847440999 -3938045.432666673 0 0 0 0 0 122977063.7051561 2379764.65169399 2379764.65169399 -3612122.819777388 0 0 0 0 0 121629122.3443324 2134933.317482424 2134933.317482424 -3992016.465671013 0 0 0 0 0 121118839.069394 2420116.550709466 2420116.550709466 -3668859.561158213 0 0 0 0 0 120116661.8485448 2260735.944711475 2260735.944711475 -4001166.953404135 0 0 0 0 0 120776311.5516093 2141793.61348634 2141793.61348634 -4374862.876090826 0 0 0 0 0 119644386.7407692 2489868.342189791 2489868.342189791 -3709216.758383018 0 0 0 0 0 119171569.8923071 2697295.260277254 2697295.260277254 -3425123.193413084 0 0 0 0 0 118711704.9165145 2886576.68485272 2886576.68485272 -3146014.68296576 0 0 0 0 0 118259139.7570798 3055406.658474625 3055406.658474625 -2880187.329919085 0 0 0 0 0 117439797.5723652 2852706.94166407 2852706.94166407 -3148490.544836806 0 0 0 0 0 117918886.719291 2804706.860352826 2804706.860352826 -3482283.785833533 0 0 0 0 0 117026830.4251933 3002920.94878654 3002920.94878654 -2883683.710357967 0 0 0 0 0 116623027.0913159 3138035.728940614 3138035.728940614 -2629246.31563392 0 0 0 0 0 116234649.2617738 3254325.187334789 3254325.187334789 -2398028.980179712 0 0 0 0 0 115846133.8609146 3351659.798720762 3351659.798720762 -2184730.91360317 0 0 0 0 0 115464069.4436706 3430526.566654009 3430526.566654009 -1986555.843700163 0 0 0 0 0 115132725.6508411 3197477.015791889 3197477.015791889 -2508713.515420232 0 0 0 0 0 114487173.3082627 3267195.396860858 3267195.396860858 -2058023.944414634 0 0 0 0 0 114774664.707347 3269074.566992319 3269074.566992319 -2313141.923082302 0 0 0 0 0 114146416.3557129 3329172.306396395 3329172.306396395 -1874642.158855721 0 0 0 0 0 113814390.7977348 3382541.720482782 3382541.720482782 -1700261.648523019 0 0 0 0 0 113491490.704618 3427836.102028851 3427836.102028851 -1535140.032725931 0 0 0 0 0 113177073.1306186 3465070.216372725 3465070.216372725 -1379470.698727931 0 0 0 0 0 112686536.5339041 3257547.570988969 3257547.570988969 -1589457.194115886 0 0 0 0 0 112899899.1180019 3277101.682474173 3277101.682474173 -1803820.800657315 0 0 0 0 0 112397065.0253434 3289508.813163714 3289508.813163714 -1441064.933339442 0 0 0 0 0 112115628.3844697 3316300.141513678 3316300.141513678 -1299356.498952503 0 0 0 0 0 111841320.7678282 3337567.959636004 3337567.959636004 -1164754.81609662 0 0 0 0 0 111574240.3718433 3353802.876692438 3353802.876692438 -1037138.936372498 0 0 0 0 0 111314197.1428818 3365541.561680045 3365541.561680045 -916360.5613795222 0 0 0 0 0 110829781.8427034 3219436.601630177 3219436.601630177 -1147513.994432003 0 0 0 0 0 111060780.3959041 3373392.944993797 3373392.944993797 -802359.6668146485 0 0 0 0 0 110690259.993613 3189715.077773301 3189715.077773301 -977747.5637745988 0 0 0 0 0 110454444.4736096 3196748.379975026 3196748.379975026 -866166.35195684 0 0 0 0 0 110258630.6595933 3176978.795559554 3176978.795559554 -865283.9951225983 0 0 0 0 0 110027405.5326588 3098459.952870126 3098459.952870126 -857653.6217921877 0 0 0 0 0 122198552.5539484 2569099.888898196 2569099.888898196 -3265784.252366644 0 0 0 0 0 76584494.62078199 -58767222.66251539 -58767222.66251539 50442268.0044108 0 0 0 0 0 91739735.90908958 -55611657.22220499 -55611657.22220499 40587578.02181111 0 0 0 0 0 102024777.4288593 -44173408.56445055 -44173408.56445055 20398870.82148967 0 0 0 0 0 103623251.455529 -51580721.77495967 -51580721.77495967 32220923.21165207 0 0 0 0 0 110262122.9610859 -40039286.40319166 -40039286.40319166 15368105.54666188 0 0 0 0 0 116763753.2729834 -36004047.95566708 -36004047.95566708 11283362.32153825 0 0 0 0 0 121949069.8137978 -32117764.19671165 -32117764.19671165 8017275.549436713 0 0 0 0 0 126050799.4890744 -28387513.93062252 -28387513.93062252 5464377.72255704 0 0 0 0 0 129216686.5841214 -24867866.88880423 -24867866.88880423 3498598.804192713 0 0 0 0 0 131592172.3926291 -21597332.71187432 -21597332.71187432 2009443.818489181 0 0 0 0 0 133314673.7804753 -18588193.59596894 -18588193.59596894 898838.8647116607 0 0 0 0 0 134504303.1238725 -15841726.10888889 -15841726.10888889 93395.63427682387 0 0 0 0 0 136736252.9591561 -15520198.87625764 -15520198.87625764 -1085059.793855919 0 0 0 0 0 133327391.7215722 -12911218.88132772 -12911218.88132772 -2711641.860138418 0 0 0 0 0 133788039.362106 -10838355.96726909 -10838355.96726909 -2943622.68358701 0 0 0 0 0 133975725.5236993 -8959846.355684083 -8959846.355684083 -3046428.762165243 0 0 0 0 0 133948288.6733483 -7261717.477366604 -7261717.477366604 -3044608.189291409 0 0 0 0 0 132226256.0841273 -5919402.442676859 -5919402.442676859 -4597580.776838659 0 0 0 0 0 134674102.9847709 -7359560.991105311 -7359560.991105311 -4210647.251030208 0 0 0 0 0 131962089.61062 -4612866.195511295 -4612866.195511295 -4383705.435720867 0 0 0 0 0 131587130.4786532 -3435512.084121237 -3435512.084121237 -4133669.501784392 0 0 0 0 0 131122648.5386531 -2376634.59410086 -2376634.59410086 -3857290.146575544 0 0 0 0 0 130590661.1595474 -1426987.414447366 -1426987.414447366 -3563175.653736637 0 0 0 0 0 130009037.0803168 -576757.8393053045 -576757.8393053045 -3259621.326204446 0 0 0 0 0 129381052.5171658 179025.550142143 179025.550142143 -2956355.095039486 0 0 0 0 0 129157006.9365035 -160217.9259171268 -160217.9259171268 -4030555.854390707 0 0 0 0 0 127774313.9773934 398172.9547117127 398172.9547117127 -3808154.488367797 0 0 0 0 0 127152761.4698312 993451.7156587312 993451.7156587312 -3470139.598103873 0 0 0 0 0 126522381.0582324 1526229.453412589 1526229.453412589 -3141161.989033587 0 0 0 0 0 125887127.8324831 2003811.528855055 2003811.528855055 -2815305.944977593 0 0 0 0 0 125243476.2035355 2430751.444498979 2430751.444498979 -2495511.048606828 0 0 0 0 0 124609398.7088075 2813368.865344809 2813368.865344809 -2185859.052112287 0 0 0 0 0 124208356.4655268 2465952.007186238 2465952.007186238 -3095071.761293821 0 0 0 0 0 123359348.4232514 2703107.942840871 2703107.942840871 -2774730.945709228 0 0 0 0 0 122769658.5341741 3003557.883058213 3003557.883058213 -2476691.504186821 0 0 0 0 0 121837245.3930171 2269577.79943982 2269577.79943982 -4033642.411687041 0 0 0 0 0 121280083.1476441 2545410.63435308 2545410.63435308 -3715338.449602823 0 0 0 0 0 120252972.8121673 2392125.646347282 2392125.646347282 -4063571.963389799 0 0 0 0 0 120614566.1505729 2675224.032033447 2675224.032033447 -3361441.176018403 0 0 0 0 0 119744657.9885668 2612819.84337253 2612819.84337253 -3774479.622170447 0 0 0 0 0 119248814.3211497 2812543.547607569 2812543.547607569 -3486281.364166024 0 0 0 0 0 118759476.0938217 2993329.150530008 2993329.150530008 -3207137.891545854 0 0 0 0 0 118280291.757417 3153739.163490257 3153739.163490257 -2941776.752154257 0 0 0 0 0 117484966.2877602 2963214.443738407 2963214.443738407 -3207108.15222282 0 0 0 0 0 117817287.741357 3206030.5001732 3206030.5001732 -2627448.919687392 0 0 0 0 0 117059414.1684749 3108048.985027537 3108048.985027537 -2940622.510322999 0 0 0 0 0 116630683.6109744 3232893.859388188 3232893.859388188 -2686974.303563083 0 0 0 0 0 116210642.9954174 3336203.544487157 3336203.544487157 -2459354.347361639 0 0 0 0 0 115796278.0896777 3420943.096119031 3420943.096119031 -2246197.893288724 0 0 0 0 0 115386260.4168328 3489864.093947566 3489864.093947566 -2049297.957154449 0 0 0 0 0 115094680.4081743 3488434.760593614 3488434.760593614 -1813110.92798023 0 0 0 0 0 114419200.2873398 3335794.29262871 3335794.29262871 -2120825.621638214 0 0 0 0 0 114728069.6465714 3547937.768203025 3547937.768203025 -1634188.564608096 0 0 0 0 0 114069060.8596449 3392824.10714564 3392824.10714564 -1936389.209082284 0 0 0 0 0 113728477.9689585 3441270.967855601 3441270.967855601 -1760709.833518827 0 0 0 0 0 113396381.8983016 3481253.580624258 3481253.580624258 -1594481.623157616 0 0 0 0 0 113073412.3865491 3513380.54542348 3513380.54542348 -1437560.783580962 0 0 0 0 0 112596829.9826283 3310600.334318288 3310600.334318288 -1647387.518257165 0 0 0 0 0 112868661.1845002 3494479.97016739 3494479.97016739 -1232420.871831597 0 0 0 0 0 112302086.6041674 3338968.000433895 3338968.000433895 -1497384.572147497 0 0 0 0 0 112015481.3698637 3361720.889623377 3361720.889623377 -1354173.920893025 0 0 0 0 0 111736766.1577412 3379215.962206811 3379215.962206811 -1218059.458979394 0 0 0 0 0 111465927.6541133 3391840.255985538 3391840.255985538 -1088893.302492733 0 0 0 0 0 111202925.9259127 3400007.892956315 3400007.892956315 -966418.3607457833 0 0 0 0 0 110814644.7655723 3378008.424967182 3378008.424967182 -694685.0415204688 0 0 0 0 0 110947507.7749875 3404287.729483844 3404287.729483844 -850451.5053091795 0 0 0 0 0 110591025.9200036 3229412.1932915 3229412.1932915 -1028506.277395278 0 0 0 0 0 110379301.4996015 3239966.242984641 3239966.242984641 -912789.2891673319 0 0 0 0 0 110029428.7952011 3169623.88817533 3169623.88817533 -799133.8052277247 0 0 0 0 0 109817238.7541267 3110624.712586596 3110624.712586596 -852335.9165621108 0 0 0 0 0 122373522.2298965 2680150.540436476 2680150.540436476 -3299314.685833949 0 0 0 0 0 76520110.52415432 -59682722.4325854 -59682722.4325854 46394783.32978877 0 0 0 0 0 90559419.95805244 -55229306.55606955 -55229306.55606955 36528396.15753002 0 0 0 0 0 113622146.4538705 -47103555.81576339 -47103555.81576339 25151576.29862117 0 0 0 0 0 101758621.9255494 -50383429.90219792 -50383429.90219792 27884126.06357108 0 0 0 0 0 120670360.586804 -42484314.10817896 -42484314.10817896 19520953.28263613 0 0 0 0 0 126120929.4248462 -37974332.15054 -37974332.15054 14859173.23593146 0 0 0 0 0 130436804.0287099 -33709100.99152507 -33709100.99152507 11127731.84217678 0 0 0 0 0 133659625.2187066 -29664503.08116684 -29664503.08116684 8151126.224976884 0 0 0 0 0 135968994.6852471 -25891112.54339141 -25891112.54339141 5808092.654917239 0 0 0 0 0 137540172.2338765 -22413551.41098749 -22413551.41098749 3985951.038907721 0 0 0 0 0 138532141.7314284 -19238957.56469356 -19238957.56469356 2588219.964003405 0 0 0 0 0 139058787.7432325 -16358849.81871001 -16358849.81871001 1533584.843988122 0 0 0 0 0 135258669.7882053 -13347604.27527702 -13347604.27527702 -471487.6985375515 0 0 0 0 0 137012151.5958906 -13164394.46649576 -13164394.46649576 -1660037.696143681 0 0 0 0 0 137005628.2324607 -11027911.95388782 -11027911.95388782 -2047901.523286267 0 0 0 0 0 136778067.1435334 -9096852.519648546 -9096852.519648546 -2284848.129537601 0 0 0 0 0 136376122.2934483 -7356389.289900515 -7356389.289900515 -2399834.150695346 0 0 0 0 0 134245929.641611 -5893388.336090492 -5893388.336090492 -4132552.778309549 0 0 0 0 0 133745304.6687574 -5731509.670520561 -5731509.670520561 -2963079.076770172 0 0 0 0 0 133710655.7468861 -4572384.555258894 -4572384.555258894 -3993339.835973139 0 0 0 0 0 133093580.2621546 -3384862.730442666 -3384862.730442666 -3808114.690174905 0 0 0 0 0 132414315.2080662 -2319259.609643942 -2319259.609643942 -3587074.924208875 0 0 0 0 0 131688925.9297971 -1366102.091129939 -1366102.091129939 -3341295.047310561 0 0 0 0 0 130928115.3506657 -517364.9376619143 -517364.9376619143 -3081365.81527491 0 0 0 0 0 130154118.2922304 239021.8885177847 239021.8885177847 -2813128.648274341 0 0 0 0 0 128726005.6286226 856099.9208065604 856099.9208065604 -2655065.862504859 0 0 0 0 0 128442780.8120988 500500.9942823314 500500.9942823314 -3721383.985440441 0 0 0 0 0 127713051.5959276 1093602.093210032 1093602.093210032 -3405675.196291368 0 0 0 0 0 126984170.1249211 1620115.093121356 1620115.093121356 -3094903.627450913 0 0 0 0 0 126262720.1054227 2092219.996507325 2092219.996507325 -2782856.748871855 0 0 0 0 0 125553450.6327364 2514408.443232497 2514408.443232497 -2474305.61838047 0 0 0 0 0 124841998.0631986 2884987.962071416 2884987.962071416 -2177263.518926985 0 0 0 0 0 123974487.9210938 3146217.382509159 3146217.382509159 -1896018.167492985 0 0 0 0 0 123554162.1859174 2797060.941768653 2797060.941768653 -2791818.454479287 0 0 0 0 0 122911121.6939434 3088848.974162245 3088848.974162245 -2500729.424327228 0 0 0 0 0 121652156.767459 2844482.234499856 2844482.234499856 -2960650.264327685 0 0 0 0 0 121111382.0734643 3088102.097205929 3088102.097205929 -2670847.393885307 0 0 0 0 0 120118900.0279544 2898673.760917776 2898673.760917776 -3074892.361531726 0 0 0 0 0 120732954.5468628 2791165.536830721 2791165.536830721 -3411827.083996268 0 0 0 0 0 119617956.4559911 3091239.294222152 3091239.294222152 -2811272.067304306 0 0 0 0 0 119124474.41814 3265152.66994121 3265152.66994121 -2550842.804104703 0 0 0 0 0 118646256.1559398 3422459.660000763 3422459.660000763 -2298525.013441538 0 0 0 0 0 118177993.5609374 3560879.583347256 3560879.583347256 -2058995.119788707 0 0 0 0 0 117375268.7599585 3339996.42741654 3339996.42741654 -2383190.903986665 0 0 0 0 0 117811845.8237908 3295548.336774565 3295548.336774565 -2689006.138011776 0 0 0 0 0 116940277.5434456 3459717.457764185 3459717.457764185 -2146615.09179313 0 0 0 0 0 116523726.2840194 3564310.924005045 3564310.924005045 -1923807.190536795 0 0 0 0 0 116116305.6882016 3650431.308930444 3650431.308930444 -1719621.766802245 0 0 0 0 0 115717719.3110697 3724000.18396706 3724000.18396706 -1525559.620858446 0 0 0 0 0 115337844.2480757 3779570.018278104 3779570.018278104 -1349999.558664916 0 0 0 0 0 115010931.581892 3552611.901672079 3552611.901672079 -1879254.540939818 0 0 0 0 0 114371908.3704682 3600591.394560418 3600591.394560418 -1460658.122773202 0 0 0 0 0 114636949.6501199 3605671.785895468 3605671.785895468 -1695499.888914449 0 0 0 0 0 114026712.2783313 3645050.838067681 3645050.838067681 -1295309.826208199 0 0 0 0 0 113690546.894795 3681516.287404169 3681516.287404169 -1138593.779086083 0 0 0 0 0 113364134.5853433 3710517.932838261 3710517.932838261 -990786.2004192889 0 0 0 0 0 113046143.2291305 3732524.514433024 3732524.514433024 -851615.5921953282 0 0 0 0 0 112568270.7538313 3518307.910203053 3518307.910203053 -1091917.007791612 0 0 0 0 0 112760458.2028135 3539351.903091862 3539351.903091862 -1289064.838794029 0 0 0 0 0 112276850.3776491 3537455.331097121 3537455.331097121 -957486.3464983739 0 0 0 0 0 111993275.400141 3551394.481111442 3551394.481111442 -829863.0509493608 0 0 0 0 0 111717384.9910412 3560431.886412734 3560431.886412734 -709070.3831323871 0 0 0 0 0 111449152.6454307 3564998.416743143 3564998.416743143 -595069.5447527849 0 0 0 0 0 111188280.5683241 3565607.709664749 3565607.709664749 -487810.5080499775 0 0 0 0 0 110698682.707597 3405239.242107667 3405239.242107667 -740880.5914564922 0 0 0 0 0 110934490.9539432 3562810.905688132 3562810.905688132 -387550.7507139689 0 0 0 0 0 110577689.527727 3374889.143969233 3374889.143969233 -586505.0891556989 0 0 0 0 0 110283704.1412916 3362614.03778949 3362614.03778949 -514942.8669981229 0 0 0 0 0 110105366.1421918 3291498.954145657 3291498.954145657 -557107.8107344748 0 0 0 0 0 110265529.5094689 3354722.64557066 3354722.64557066 -583364.7836383722 0 0 0 0 0 122185725.656458 3268986.454293628 3268986.454293628 -2192151.44103552 0 0 0 0 0 89956383.31816153 -64699305.56305936 -64699305.56305936 52501612.58498699 0 0 0 0 0 104578997.5030699 -59536265.52196246 -59536265.52196246 42425656.45319521 0 0 0 0 0 111036421.4244205 -44712403.29688234 -44712403.29688234 21408682.76877486 0 0 0 0 0 115941616.2828984 -54597211.99593198 -54597211.99593198 34321219.10655738 0 0 0 0 0 118001483.9470453 -39865399.05766683 -39865399.05766683 16344898.51351123 0 0 0 0 0 123574035.9036265 -35307183.28179656 -35307183.28179656 12388529.22639871 0 0 0 0 0 127974745.4870363 -30962066.76812789 -30962066.76812789 9298200.655309347 0 0 0 0 0 131324814.474005 -26905570.04857295 -26905570.04857295 6920289.643912225 0 0 0 0 0 133786806.6259871 -23179499.11236796 -23179499.11236796 5093879.823084855 0 0 0 0 0 135526374.6884974 -19791305.96999162 -19791305.96999162 3718729.865292028 0 0 0 0 0 136683305.6658727 -16726953.59723823 -16726953.59723823 2691684.841852502 0 0 0 0 0 137372503.4372526 -13969418.89090376 -13969418.89090376 1945448.742921773 0 0 0 0 0 139219086.0042059 -13760127.22061217 -13760127.22061217 755018.9906860464 0 0 0 0 0 135656382.4561272 -11093364.96964736 -11093364.96964736 -845287.8830521491 0 0 0 0 0 135767590.8402239 -9063320.878125761 -9063320.878125761 -1069200.270363395 0 0 0 0 0 135649235.9065726 -7243173.583625401 -7243173.583625401 -1172801.939414762 0 0 0 0 0 135353630.8385502 -5612114.920628993 -5612114.920628993 -1182771.172388682 0 0 0 0 0 133399482.9129995 -4356941.839596659 -4356941.839596659 -2822225.410021002 0 0 0 0 0 135839134.7223096 -5795439.261653084 -5795439.261653084 -2419158.049363638 0 0 0 0 0 132940819.7929288 -3125162.507077255 -3125162.507077255 -2637299.703528326 0 0 0 0 0 132394150.071325 -2023815.437869326 -2023815.437869326 -2420591.646038534 0 0 0 0 0 131781019.8659068 -1040634.838920736 -1040634.838920736 -2180381.410074023 0 0 0 0 0 131118530.7519338 -165801.1832271616 -165801.1832271616 -1926346.725544623 0 0 0 0 0 130422975.4027239 610160.961932063 610160.961932063 -1666806.50262308 0 0 0 0 0 129693692.3617631 1297436.219042425 1297436.219042425 -1407055.645866256 0 0 0 0 0 129361986.7970984 909837.2815470885 909837.2815470885 -2541856.763231631 0 0 0 0 0 128041197.6896068 1453896.627786465 1453896.627786465 -2355976.545321307 0 0 0 0 0 127351829.581835 1989083.069113979 1989083.069113979 -2064410.081096762 0 0 0 0 0 126653557.3862079 2460157.458948773 2460157.458948773 -1780866.309649879 0 0 0 0 0 125959698.7014973 2880063.66811227 2880063.66811227 -1498862.844800504 0 0 0 0 0 125263236.3454186 3251073.824526337 3251073.824526337 -1223531.169231678 0 0 0 0 0 124579351.8832887 3575059.2432565 3575059.2432565 -963653.6106070565 0 0 0 0 0 124140651.4659262 3208630.64542203 3208630.64542203 -1898631.66394177 0 0 0 0 0 123342521.3271062 3436574.943969718 3436574.943969718 -1622688.294702024 0 0 0 0 0 122718295.4305486 3690692.630877096 3690692.630877096 -1363172.252555216 0 0 0 0 0 121779095.2854148 2946539.405215553 2946539.405215553 -2999629.554793073 0 0 0 0 0 121196909.5905683 3181539.093460115 3181539.093460115 -2714108.591071373 0 0 0 0 0 120183046.5367556 3000009.978540353 3000009.978540353 -3134228.260628256 0 0 0 0 0 120576584.8684764 3301851.026389331 3301851.026389331 -2398524.356946469 0 0 0 0 0 119653872.6652997 3184463.265522003 3184463.265522003 -2869922.904171399 0 0 0 0 0 119141174.872939 3354306.056188864 3354306.056188864 -2607393.801493941 0 0 0 0 0 118637316.4630204 3504265.518480223 3504265.518480223 -2356196.999979013 0 0 0 0 0 118145561.3060944 3635054.340653107 3635054.340653107 -2117033.542241854 0 0 0 0 0 117362198.0985914 3424359.159562768 3424359.159562768 -2440444.918151457 0 0 0 0 0 117721930.9754998 3682094.19543876 3682094.19543876 -1832009.454630432 0 0 0 0 0 116922122.7345731 3538053.684115026 3538053.684115026 -2201741.51953027 0 0 0 0 0 116485193.5353125 3633625.775708953 3633625.775708953 -1979657.955306124 0 0 0 0 0 116062442.4482078 3712569.517097568 3712569.517097568 -1775407.366434722 0 0 0 0 0 115646931.7190559 3779711.188939244 3779711.188939244 -1581769.861071553 0 0 0 0 0 115231694.0451836 3831461.543335796 3831461.543335796 -1412289.734349821 0 0 0 0 0 114957246.5824227 3826568.020124631 3826568.020124631 -1185419.019867509 0 0 0 0 0 114274329.7760552 3653560.103981864 3653560.103981864 -1519980.718312492 0 0 0 0 0 114592128.8249632 3871556.876930343 3871556.876930343 -1020864.887225771 0 0 0 0 0 113920962.7965683 3693629.267214393 3693629.267214393 -1353607.373673446 0 0 0 0 0 113577780.7414595 3725759.694764344 3725759.694764344 -1195705.486286094 0 0 0 0 0 113244182.3651003 3750442.768624981 3750442.768624981 -1046726.454630201 0 0 0 0 0 112919622.7398661 3768322.49604153 3768322.49604153 -906340.3924268858 0 0 0 0 0 112456303.1645726 3559914.449621637 3559914.449621637 -1146959.850379215 0 0 0 0 0 112735618.4453504 3748418.217748849 3748418.217748849 -719974.0792249232 0 0 0 0 0 112160608.9185193 3575180.633794848 3575180.633794848 -1010912.351160484 0 0 0 0 0 111873062.5765285 3585406.765084491 3585406.765084491 -881715.6541001475 0 0 0 0 0 111593848.2298287 3590983.806261626 3590983.806261626 -759367.9284788843 0 0 0 0 0 111322826.6611068 3592162.852009162 3592162.852009162 -643741.4289156358 0 0 0 0 0 111059759.8345084 3589249.53428413 3589249.53428413 -534604.7840710627 0 0 0 0 0 110688681.5266291 3557501.069756877 3557501.069756877 -292509.4464487519 0 0 0 0 0 110804557.8949334 3582720.100277727 3582720.100277727 -432135.769480387 0 0 0 0 0 110455821.8412512 3405697.225860109 3405697.225860109 -636770.5112980999 0 0 0 0 0 110262641.235672 3410889.947330319 3410889.947330319 -547861.1255715764 0 0 0 0 0 109852827.3899144 3296521.030287718 3296521.030287718 -537502.3224513798 0 0 0 0 0 110042983.4458012 3357154.752795161 3357154.752795161 -487655.1991361643 0 0 0 0 0 122279718.3267392 3345932.865143064 3345932.865143064 -2221892.346547621 0 0 0 0 0 89082265.67389916 -64804949.57220215 -64804949.57220215 47328071.49365155 0 0 0 0 0 102154632.0798822 -58079715.06232533 -58079715.06232533 36705066.91130334 0 0 0 0 0 123377547.3371486 -48313501.00299552 -48313501.00299552 26989500.52880872 0 0 0 0 0 112449079.0420488 -50654814.3261305 -50654814.3261305 27955925.97504282 0 0 0 0 0 128722923.6694231 -42437994.15930586 -42437994.15930586 20655989.88782937 0 0 0 0 0 133269912.2047338 -37373164.37728536 -37373164.37728536 16110156.96535963 0 0 0 0 0 136600979.6853306 -32627402.20985486 -32627402.20985486 12491927.06322156 0 0 0 0 0 138888685.3805523 -28249630.19672342 -28249630.19672342 9641863.787966004 0 0 0 0 0 140389112.4221405 -24269332.25932673 -24269332.25932673 7412854.278173935 0 0 0 0 0 141257653.786742 -20673124.16353431 -20673124.16353431 5688234.431692918 0 0 0 0 0 141652697.8465708 -17446092.66487218 -17446092.66487218 4368314.082925545 0 0 0 0 0 141655848.3778067 -14557777.84170592 -14557777.84170592 3369073.865499187 0 0 0 0 0 137686994.9231248 -11496623.01495668 -11496623.01495668 1418588.106703248 0 0 0 0 0 139086684.0894661 -11422111.33003988 -11422111.33003988 197062.8037627822 0 0 0 0 0 138728444.1366916 -9325115.543214118 -9325115.543214118 -184804.1558552646 0 0 0 0 0 138198506.0484259 -7448774.401564831 -7448774.401564831 -423467.0808961695 0 0 0 0 0 137534847.2548606 -5776642.091019064 -5776642.091019064 -549470.2353130273 0 0 0 0 0 135197475.9817185 -4397898.786836199 -4397898.786836199 -2364607.03789691 0 0 0 0 0 134913257.0034181 -4156805.340699038 -4156805.340699038 -1123196.232340887 0 0 0 0 0 134476912.8905405 -3149396.224545106 -3149396.224545106 -2253639.502603911 0 0 0 0 0 133700594.6491129 -2035531.014947005 -2035531.014947005 -2099930.113879002 0 0 0 0 0 132882100.747537 -1044294.829377144 -1044294.829377144 -1914267.599621434 0 0 0 0 0 132036840.3658665 -164505.5213353921 -164505.5213353921 -1707321.763528105 0 0 0 0 0 131171587.3310155 611418.8546371786 611418.8546371786 -1489273.641454575 0 0 0 0 0 130308901.9157953 1299581.028813647 1299581.028813647 -1261865.914399851 0 0 0 0 0 128951003.0277111 1903607.082801636 1903607.082801636 -1147434.277063169 0 0 0 0 0 128572715.4247171 1509819.219396441 1509819.219396441 -2267623.47674132 0 0 0 0 0 127775812.6935124 2036534.783270184 2036534.783270184 -1997699.093455641 0 0 0 0 0 126989530.8978588 2504421.738297448 2504421.738297448 -1730769.372349167 0 0 0 0 0 126220062.2147323 2920094.122790589 2920094.122790589 -1462565.033956531 0 0 0 0 0 125464695.336591 3285978.295400395 3285978.295400395 -1198357.077825209 0 0 0 0 0 124718465.3885759 3604316.307473804 3604316.307473804 -950079.092798535 0 0 0 0 0 123905786.0871408 3856711.410285873 3856711.410285873 -717323.8511935259 0 0 0 0 0 123453937.3156856 3491443.542992028 3491443.542992028 -1633497.189970249 0 0 0 0 0 122783928.3827741 3739081.171724369 3739081.171724369 -1380275.996896872 0 0 0 0 0 121610555.1649763 3501858.760817596 3501858.760817596 -1921319.379756152 0 0 0 0 0 121044063.0996288 3704941.2874879 3704941.2874879 -1669943.192190344 0 0 0 0 0 120055716.8821712 3486112.664545695 3486112.664545695 -2147712.581552492 0 0 0 0 0 120623717.374501 3384492.469707934 3384492.469707934 -2445956.286388583 0 0 0 0 0 119536374.7198821 3645899.621724918 3645899.621724918 -1907691.357888478 0 0 0 0 0 119029756.5760716 3790952.039141578 3790952.039141578 -1672311.161155226 0 0 0 0 0 118536094.1583298 3917453.26575429 3917453.26575429 -1447572.10089901 0 0 0 0 0 118054614.9451493 4026806.86678271 4026806.86678271 -1235750.741666667 0 0 0 0 0 117271242.82575 3789269.418940345 3789269.418940345 -1615299.245730418 0 0 0 0 0 117665229.8079741 3748402.205467284 3748402.205467284 -1890075.624918196 0 0 0 0 0 116826804.565182 3879246.23769976 3879246.23769976 -1409813.890755349 0 0 0 0 0 116397566.2706913 3953825.593190972 3953825.593190972 -1217435.162628823 0 0 0 0 0 115975573.1074322 4014338.673856793 4014338.673856793 -1035142.104775571 0 0 0 0 0 115567478.3999637 4065060.037791161 4065060.037791161 -861575.4171479417 0 0 0 0 0 115191571.09703 4110410.669349206 4110410.669349206 -705200.6381626946 0 0 0 0 0 114851370.3859974 3875818.997845221 3875818.997845221 -1244204.207282804 0 0 0 0 0 114233838.3558609 3907573.19916869 3907573.19916869 -864800.6732787505 0 0 0 0 0 114474249.430524 3914597.083429872 3914597.083429872 -1078291.790512055 0 0 0 0 0 113885298.2784441 3935442.150200684 3935442.150200684 -717760.9567196574 0 0 0 0 0 113546331.6910998 3955919.133518015 3955919.133518015 -579397.9735420508 0 0 0 0 0 113216748.302665 3969818.394516925 3969818.394516925 -449013.2101088624 0 0 0 0 0 112896822.5264505 3977730.273829265 3977730.273829265 -326086.1090328039 0 0 0 0 0 112433795.0692243 3759256.479453766 3759256.479453766 -594696.4261825242 0 0 0 0 0 112605490.5162583 3780627.295741898 3780627.295741898 -773036.0689225253 0 0 0 0 0 112140547.9786513 3765380.586227268 3765380.586227268 -475216.7742222546 0 0 0 0 0 111855762.102762 3766992.969829898 3766992.969829898 -362177.7499367169 0 0 0 0 0 111579231.143976 3764385.374877737 3764385.374877737 -255336.0734967897 0 0 0 0 0 111310575.4365783 3757781.92343041 3757781.92343041 -154652.3762003237 0 0 0 0 0 111049867.174473 3747641.296437786 3747641.296437786 -59774.29021987286 0 0 0 0 0 110550135.3852548 3572972.587941121 3572972.587941121 -336511.7851183739 0 0 0 0 0 110794439.2849263 3735467.366440864 3735467.366440864 27759.57132652476 0 0 0 0 0 110465168.3886723 3548887.745002642 3548887.745002642 -207599.5245870797 0 0 0 0 0 110310119.6222035 3521382.573851397 3521382.573851397 -164217.196151179 0 0 0 0 0 110107571.2022145 3475596.49652025 3475596.49652025 -234291.7459688611 0 0 0 0 0 122105905.2500175 3912996.290921097 3912996.290921097 -1116974.118440384 0 0 0 0 0 103973261.6944008 -70170364.33521296 -70170364.33521296 53425775.35287402 0 0 0 0 0 117239197.6049965 -63005488.91710287 -63005488.91710287 42973526.68605192 0 0 0 0 0 119511037.5888121 -44824602.41865627 -44824602.41865627 21427088.78206404 0 0 0 0 0 125087565.9671696 -54315511.38822406 -54315511.38822406 33756450.0222856 0 0 0 0 0 125556033.9834114 -39330684.37813225 -39330684.37813225 16909006.59861463 0 0 0 0 0 130265087.2761744 -34191395.38876084 -34191395.38876084 13315433.51391288 0 0 0 0 0 133788108.0163117 -29452226.73188081 -29452226.73188081 10519923.92073803 0 0 0 0 0 136311201.1789885 -25177132.90357465 -25177132.90357465 8375128.316341481 0 0 0 0 0 138040752.9526946 -21323803.15692588 -21323803.15692588 6713846.051838408 0 0 0 0 0 139129343.7383218 -17878239.07461387 -17878239.07461387 5461423.737987089 0 0 0 0 0 139712174.9181727 -14805083.72146752 -14805083.72146752 4518079.322176916 0 0 0 0 0 139911545.6112322 -12074530.3898958 -12074530.3898958 3831775.326249068 0 0 0 0 0 141365684.6368974 -11979574.00928045 -11979574.00928045 2625785.360207653 0 0 0 0 0 137700314.1430981 -9288499.410679873 -9288499.410679873 1065628.89368219 0 0 0 0 0 137476431.9657556 -7322553.91775311 -7322553.91775311 849289.3861464753 0 0 0 0 0 137067449.3236453 -5574816.288127582 -5574816.288127582 739457.244557168 0 0 0 0 0 136516525.2782029 -4024910.442004526 -4024910.442004526 710664.7556393996 0 0 0 0 0 134360142.0593591 -2860929.104335403 -2860929.104335403 -1011117.569330178 0 0 0 0 0 136770908.5329339 -4289359.087130561 -4289359.087130561 -589059.9310379464 0 0 0 0 0 133721094.4412186 -1709655.951779873 -1709655.951779873 -860214.6628759814 0 0 0 0 0 133017020.2277156 -688316.1913895558 -688316.1913895558 -681291.5686107778 0 0 0 0 0 132268086.4222354 216346.6420923898 216346.6420923898 -483065.1268170865 0 0 0 0 0 131486690.0251012 1014685.157123789 1014685.157123789 -274104.9000559396 0 0 0 0 0 130688399.376246 1717433.656972151 1717433.656972151 -61695.43505121653 0 0 0 0 0 129870464.9554661 2334138.681789367 2334138.681789367 151554.1987562311 0 0 0 0 0 129441452.3353611 1906850.862234274 1906850.862234274 -1032488.140592149 0 0 0 0 0 128194506.7457685 2440059.745042982 2440059.745042982 -895065.5278762954 0 0 0 0 0 127435900.8529245 2909118.750538677 2909118.750538677 -654537.6592892121 0 0 0 0 0 126683126.8863824 3320947.038669952 3320947.038669952 -413839.1809720406 0 0 0 0 0 125938782.6993437 3683901.338342464 3683901.338342464 -179119.8943046471 0 0 0 0 0 125201646.9906091 3999526.311401717 3999526.311401717 44567.72344189692 0 0 0 0 0 124478912.8765894 4270701.552854795 4270701.552854795 256652.8922548002 0 0 0 0 0 123989398.2946028 3880192.123294157 3880192.123294157 -713295.0858936358 0 0 0 0 0 123243041.468289 4100983.952124614 4100983.952124614 -484317.1247264979 0 0 0 0 0 122592722.9057741 4312122.302243368 4312122.302243368 -262927.0642982678 0 0 0 0 0 121661057.0161185 3571473.054612054 3571473.054612054 -1956723.195684018 0 0 0 0 0 121060018.673189 3765515.081174467 3765515.081174467 -1709053.846769951 0 0 0 0 0 120061143.4935914 3559847.927613081 3559847.927613081 -2200033.896787477 0 0 0 0 0 120485905.1811295 3878162.120836892 3878162.120836892 -1434926.157529875 0 0 0 0 0 119517078.4622141 3715705.914687902 3715705.914687902 -1960292.668359846 0 0 0 0 0 118989657.8689236 3853990.909969678 3853990.909969678 -1724736.59431233 0 0 0 0 0 118473886.5216586 3974144.513814517 3974144.513814517 -1500922.602486435 0 0 0 0 0 117971714.3290489 4076473.530788481 4076473.530788481 -1289301.212380295 0 0 0 0 0 117201541.2962068 3846451.68756828 3846451.68756828 -1670406.125741581 0 0 0 0 0 117586661.9311948 4120003.562212298 4120003.562212298 -1035526.813828815 0 0 0 0 0 116747694.7380666 3930496.937639432 3930496.937639432 -1463938.345611825 0 0 0 0 0 116305351.3595929 4001229.184656749 4001229.184656749 -1272117.021146324 0 0 0 0 0 115882493.7631895 4062800.922310246 4062800.922310246 -1089526.519136919 0 0 0 0 0 115463742.6097743 4110595.698974372 4110595.698974372 -917803.3266497978 0 0 0 0 0 115057755.5798378 4145375.045197441 4145375.045197441 -761045.8817163964 0 0 0 0 0 114808661.3189442 4144274.209749797 4144274.209749797 -551972.4731769626 0 0 0 0 0 114108254.1965717 3945623.142133718 3945623.142133718 -920678.8731018387 0 0 0 0 0 114436220.4190949 4170130.044138684 4170130.044138684 -407326.1815122931 0 0 0 0 0 113752923.9357895 3969049.338449984 3969049.338449984 -772271.1242302574 0 0 0 0 0 113408249.0445709 3985440.426883642 3985440.426883642 -632487.3463005315 0 0 0 0 0 113073550.7666845 3995502.116491499 3995502.116491499 -500701.9489276931 0 0 0 0 0 112748827.7087683 4000070.576879852 4000070.576879852 -376615.5835893443 0 0 0 0 0 112300566.8033067 3787925.830959007 3787925.830959007 -646044.7782513531 0 0 0 0 0 112585175.9280213 3980233.432066306 3980233.432066306 -210645.1446539457 0 0 0 0 0 112004487.6675 3790877.924564672 3790877.924564672 -525069.9722054981 0 0 0 0 0 111717142.9589787 3789530.325048896 3789530.325048896 -410631.3879639266 0 0 0 0 0 111438361.8954586 3784084.817104153 3784084.817104153 -302389.4517796811 0 0 0 0 0 111168053.2446522 3774781.761175933 3774781.761175933 -200257.7283739746 0 0 0 0 0 110905938.2926343 3761969.227311713 3761969.227311713 -103867.1185598954 0 0 0 0 0 110550355.4322305 3721175.205348913 3721175.205348913 106654.2261682951 0 0 0 0 0 110654838.77698 3746916.146662493 3746916.146662493 -13384.17300860358 0 0 0 0 0 110305176.0154679 3561197.947651464 3561197.947651464 -249797.3274547067 0 0 0 0 0 110093320.789566 3527522.533969171 3527522.533969171 -187343.0112203672 0 0 0 0 0 109885076.9640699 3460687.025843036 3460687.025843036 -192760.3298719937 0 0 0 0 0 122129178.3347922 3954196.384042692 3954196.384042692 -1139417.53953059 0 0 0 0 0 101883608.6747289 -69073514.17357968 -69073514.17357968 47279206.63290793 0 0 0 0 0 116450759.161949 -62627526.07317804 -62627526.07317804 38759867.92916393 0 0 0 0 0 131568282.2710196 -47444568.62988682 -47444568.62988682 26089076.00165079 0 0 0 0 0 122408343.1445502 -49523516.96755163 -49523516.96755163 27021615.69643825 0 0 0 0 0 126104103.5914669 -55701326.09399578 -55701326.09399578 32739339.57516485 0 0 0 0 0 136656143.1298608 -41756142.09896668 -41756142.09896668 21210073.0862051 0 0 0 0 0 140112819.8732041 -36238336.12074295 -36238336.12074295 17060130.44827897 0 0 0 0 0 142323855.7873829 -31139994.02234878 -31139994.02234878 13707313.17752518 0 0 0 0 0 143670756.5986726 -26551024.11780605 -26551024.11780605 11067170.69505295 0 0 0 0 0 144380176.1712917 -22459089.86898308 -22459089.86898308 9000777.090292741 0 0 0 0 0 144562843.0041794 -18822390.60410668 -18822390.60410668 7401859.579364724 0 0 0 0 0 144370692.0172642 -15586714.41404543 -15586714.41404543 6162765.047429792 0 0 0 0 0 143876783.9101971 -12725544.59488228 -12725544.59488228 5222059.697315002 0 0 0 0 0 139799746.5441281 -9655975.067417443 -9655975.067417443 3343188.486314179 0 0 0 0 0 140849293.78005 -9686508.060042435 -9686508.060042435 2088514.307967101 0 0 0 0 0 140162601.4172025 -7652488.730542669 -7652488.730542669 1715445.897200746 0 0 0 0 0 139349678.7194118 -5850761.321808979 -5850761.321808979 1472600.087200452 0 0 0 0 0 138444249.1277793 -4258810.326247228 -4258810.326247228 1330442.575183596 0 0 0 0 0 135933657.1977246 -2968940.412652601 -2968940.412652601 -561586.5887920262 0 0 0 0 0 135854999.8532626 -2653921.28778252 -2653921.28778252 743355.0207224612 0 0 0 0 0 135045620.8625194 -1798634.100946696 -1798634.100946696 -482921.6015234859 0 0 0 0 0 134126680.2589903 -762672.0616526566 -762672.0616526566 -364996.0974869056 0 0 0 0 0 133184098.3696325 150992.97880548 150992.97880548 -219523.9229772634 0 0 0 0 0 132232260.8256291 955723.9788020926 955723.9788020926 -55789.17425051129 0 0 0 0 0 131280701.3790675 1662134.354281202 1662134.354281202 117509.2974108069 0 0 0 0 0 130338745.1324884 2280925.772814849 2280925.772814849 299630.8594509622 0 0 0 0 0 129053540.7656352 2875180.968578729 2875180.968578729 361599.7082438396 0 0 0 0 0 128584200.7330402 2439512.313680823 2439512.313680823 -802860.1709562733 0 0 0 0 0 127733699.7856727 2906283.955319814 2906283.955319814 -582394.0513585628 0 0 0 0 0 126900349.7809372 3317495.095722633 3317495.095722633 -359507.2217079712 0 0 0 0 0 126088080.5274691 3676062.287878192 3676062.287878192 -138008.4471557876 0 0 0 0 0 125291988.3017072 3986910.420171532 3986910.420171532 74705.81525193479 0 0 0 0 0 124518016.0801208 4256720.173471511 4256720.173471511 275504.8302168981 0 0 0 0 0 123773367.620223 4504553.510316701 4504553.510316701 458352.4108941898 0 0 0 0 0 123279114.3831962 4119055.883224684 4119055.883224684 -487974.2231202834 0 0 0 0 0 122587747.7369454 4325132.931747633 4325132.931747633 -272946.6815199052 0 0 0 0 0 121508058.2085258 4104713.796388497 4104713.796388497 -885373.0783250047 0 0 0 0 0 120914734.9777842 4265344.173576038 4265344.173576038 -673254.8455810825 0 0 0 0 0 119940851.2767418 4027354.123875775 4027354.123875775 -1214406.65116959 0 0 0 0 0 120468487.2576675 3932038.348839904 3932038.348839904 -1477136.370031598 0 0 0 0 0 119409809.7124011 4159192.083701338 4159192.083701338 -998676.0031308036 0 0 0 0 0 118889542.1723955 4273331.394452675 4273331.394452675 -792580.8965802124 0 0 0 0 0 118384848.4850436 4371456.066990267 4371456.066990267 -594619.4914462105 0 0 0 0 0 117891954.6501183 4451704.663971044 4451704.663971044 -414430.3931119101 0 0 0 0 0 117126212.7576124 4198131.73181156 4198131.73181156 -845002.9215246987 0 0 0 0 0 117484864.1852789 4163274.574742689 4163274.574742689 -1089292.783575712 0 0 0 0 0 116678317.8249959 4262654.283672727 4262654.283672727 -666834.2242846031 0 0 0 0 0 116245676.7653314 4316634.313494458 4316634.313494458 -500908.2674070185 0 0 0 0 0 115819576.2169439 4359344.143768249 4359344.143768249 -340492.3570920469 0 0 0 0 0 115412624.9936541 4390890.625083945 4390890.625083945 -193474.5773704102 0 0 0 0 0 115017514.9061373 4415043.299711446 4415043.299711446 -54149.11665915864 0 0 0 0 0 114668053.5317957 4174515.642885913 4174515.642885913 -606136.7196248847 0 0 0 0 0 114074492.2990895 4188643.709296491 4188643.709296491 -271174.5607416626 0 0 0 0 0 114289402.9558193 4196226.917353138 4196226.917353138 -460158.5768962601 0 0 0 0 0 113723543.1288959 4200239.585342661 4200239.585342661 -143435.9695070908 0 0 0 0 0 113382665.9918469 4205649.086055259 4205649.086055259 -23087.00600945941 0 0 0 0 0 113051890.8574963 4205503.868056189 4205503.868056189 90122.34192491802 0 0 0 0 0 112731584.8392442 4200400.535722959 4200400.535722959 195861.6528791169 0 0 0 0 0 112282521.493829 3978395.105229085 3978395.105229085 -100736.6539489537 0 0 0 0 0 112434933.9470541 3999598.242358211 3999598.242358211 -259656.3695522676 0 0 0 0 0 111989096.6271785 3972723.090095225 3972723.090095225 3500.981913443637 0 0 0 0 0 111704284.629283 3963072.012784672 3963072.012784672 101938.8114893662 0 0 0 0 0 111427921.1052606 3949690.695734019 3949690.695734019 194510.5513987185 0 0 0 0 0 111159581.693337 3932869.772701359 3932869.772701359 282345.1059550956 0 0 0 0 0 110900134.5227732 3913196.526708957 3913196.526708957 365418.5747644733 0 0 0 0 0 110409082.6865719 3730563.896725149 3730563.896725149 66219.92978178761 0 0 0 0 0 110648315.1577346 3890243.891732213 3890243.891732213 444322.8112914736 0 0 0 0 0 110359719.7539819 3702809.719454948 3702809.719454948 170727.4044956091 0 0 0 0 0 110179909.0519845 3651467.615109414 3651467.615109414 121523.2153636405 0 0 0 0 0 121957794.3788806 4493243.904806352 4493243.904806352 -53874.15859958278 0 0 0 0 0 118796620.5500131 -74514761.3022808 -74514761.3022808 53436611.63202244 0 0 0 0 0 130213429.0342506 -66742947.96323577 -66742947.96323577 43240444.91952386 0 0 0 0 0 128129811.3041629 -43962031.50906162 -43962031.50906162 21941739.07341197 0 0 0 0 0 135707761.0596492 -52542227.83870416 -52542227.83870416 31400806.61401498 0 0 0 0 0 126871859.4507967 -56261380.46234946 -56261380.46234946 32764618.13803155 0 0 0 0 0 133084840.4753845 -38084924.17326988 -38084924.17326988 17544231.05829113 0 0 0 0 0 136740386.5080779 -32557373.95402853 -32557373.95402853 14280554.70132218 0 0 0 0 0 139251741.8740524 -27611120.03466649 -27611120.03466649 11762252.87369764 0 0 0 0 0 140919382.0856397 -23242029.97548471 -23242029.97548471 9858553.241630603 0 0 0 0 0 141918234.488833 -19319362.52847587 -19319362.52847587 8364243.347799754 0 0 0 0 0 142345530.1560051 -15879371.13862903 -15879371.13862903 7222327.696395352 0 0 0 0 0 142372347.6114142 -12849656.47149667 -12849656.47149667 6371449.822926566 0 0 0 0 0 142102784.9814923 -10184850.16567792 -10184850.16567792 5745751.341849775 0 0 0 0 0 143165634.8200945 -10203357.51853133 -10203357.51853133 4519722.742635316 0 0 0 0 0 139445492.1274274 -7519119.293911074 -7519119.293911074 3009181.259709429 0 0 0 0 0 138905645.5523881 -5633639.605235769 -5633639.605235769 2795180.750629483 0 0 0 0 0 138224363.7974393 -3973606.435969898 -3973606.435969898 2673210.17354528 0 0 0 0 0 137437923.849017 -2514714.581843705 -2514714.581843705 2621328.672916658 0 0 0 0 0 135111169.7684001 -1443446.15361799 -1443446.15361799 821800.2675759224 0 0 0 0 0 137473743.3838677 -2854519.351557637 -2854519.351557637 1266674.435832882 0 0 0 0 0 134307543.1683008 -376958.5176478196 -376958.5176478196 933615.7102733718 0 0 0 0 0 133460355.4393779 561196.3715222622 561196.3715222622 1069545.320461827 0 0 0 0 0 132588584.4237898 1385408.194208198 1385408.194208198 1220774.657310164 0 0 0 0 0 131701626.6891086 2106621.65821604 2106621.65821604 1380549.22017534 0 0 0 0 0 130810019.0976347 2735507.425718761 2735507.425718761 1542612.661032029 0 0 0 0 0 129915214.2003159 3281272.213104824 3281272.213104824 1705363.403951237 0 0 0 0 0 129406217.8153075 2822008.791146999 2822008.791146999 481921.606390118 0 0 0 0 0 128227739.7020963 3342873.81777981 3342873.81777981 560387.0406802126 0 0 0 0 0 127411002.9326902 3748709.482058078 3748709.482058078 756158.7071188109 0 0 0 0 0 126613435.5025769 4105498.07010631 4105498.07010631 949686.8156773861 0 0 0 0 0 125828556.9717625 4413448.965924713 4413448.965924713 1137636.049964378 0 0 0 0 0 125059690.6196922 4676852.735178754 4676852.735178754 1314164.234352271 0 0 0 0 0 124310747.5623155 4902654.841772649 4902654.841772649 1481923.337390421 0 0 0 0 0 123766181.3326468 4488090.868016501 4488090.868016501 467830.4760403516 0 0 0 0 0 123084113.9744502 4705025.830568767 4705025.830568767 649646.5755643105 0 0 0 0 0 122412332.4257611 4875601.683665645 4875601.683665645 830792.2988454301 0 0 0 0 0 121486751.1094451 4137685.558775397 4137685.558775397 -913634.7347771365 0 0 0 0 0 120867422.3553971 4294453.667828818 4294453.667828818 -704884.541935558 0 0 0 0 0 119892992.4525782 4075329.697520049 4075329.697520049 -1259273.018719916 0 0 0 0 0 120339728.6103621 4404764.169902064 4404764.169902064 -473293.0972533943 0 0 0 0 0 119337201.6644748 4201641.645382465 4201641.645382465 -1044976.890406658 0 0 0 0 0 118797976.8535459 4310192.163810867 4310192.163810867 -839417.7573544699 0 0 0 0 0 118271311.3618795 4402755.31018087 4402755.31018087 -643014.7958629451 0 0 0 0 0 117764223.7430644 4477736.002683722 4477736.002683722 -462670.8935828439 0 0 0 0 0 117012420.1535679 4236446.679811488 4236446.679811488 -898258.2322000759 0 0 0 0 0 117412956.7789266 4518459.324052329 4518459.324052329 -241127.7673110758 0 0 0 0 0 116553598.6973694 4296829.888841728 4296829.888841728 -719871.0317535071 0 0 0 0 0 116108326.7523591 4344784.350426014 4344784.350426014 -552872.3223439817 0 0 0 0 0 115677979.9076859 4384065.976296863 4384065.976296863 -391142.1405232569 0 0 0 0 0 115259866.5668761 4412258.838597185 4412258.838597185 -244513.5450198105 0 0 0 0 0 114855423.0330162 4432010.097572641 4432010.097572641 -104428.5215811436 0 0 0 0 0 114632157.8241876 4431274.927530537 4431274.927530537 77940.06582047523 0 0 0 0 0 113922215.0372031 4210753.432539726 4210753.432539726 -322593.3680674203 0 0 0 0 0 114257777.9319032 4440274.38423829 4440274.38423829 201743.1145318199 0 0 0 0 0 113566417.508506 4218634.403498561 4218634.403498561 -193471.8176103384 0 0 0 0 0 113221749.1793879 4220739.250498456 4220739.250498456 -71781.15916708579 0 0 0 0 0 112887955.1557156 4217685.114360373 4217685.114360373 42659.45781026002 0 0 0 0 0 112564171.7731939 4209393.865052012 4209393.865052012 149941.7555283518 0 0 0 0 0 112130695.0075418 3995037.420799798 3995037.420799798 -148351.6687294238 0 0 0 0 0 112419792.7168942 4190446.56166776 4190446.56166776 294979.7542933269 0 0 0 0 0 111835224.8774178 3986443.880376522 3986443.880376522 -42605.51856806778 0 0 0 0 0 111548916.7265123 3974205.936401065 3974205.936401065 57253.26743930353 0 0 0 0 0 111271700.3878545 3958604.663374724 3958604.663374724 151171.9146003434 0 0 0 0 0 111003673.8233977 3940388.294221654 3940388.294221654 240012.835629223 0 0 0 0 0 110746076.1618062 3920144.782303592 3920144.782303592 324044.89750729 0 0 0 0 0 110388856.2809101 3857497.55202648 3857497.55202648 493718.5096562963 0 0 0 0 0 110508207.2798803 3903699.101519788 3903699.101519788 402561.2103364497 0 0 0 0 0 110154765.114586 3699818.104245487 3699818.104245487 145827.4254293473 0 0 0 0 0 109907715.0179915 3632893.454924366 3632893.454924366 161149.4886910067 0 0 0 0 0 121915246.2560504 4501230.77784338 4501230.77784338 -69474.42242975623 0 0 0 0 0 116274381.6395071 -73046851.71699345 -73046851.71699345 46337627.33028374 0 0 0 0 0 127557368.9058949 -65058341.06685501 -65058341.06685501 37919536.03342746 0 0 0 0 0 140599131.3794899 -47049160.00972281 -47049160.00972281 26981810.46820379 0 0 0 0 0 132377988.8645844 -49336139.68147001 -49336139.68147001 26606544.93427715 0 0 0 0 0 138219159.4657567 -58652615.36628884 -58652615.36628884 35850912.23398607 0 0 0 0 0 144349879.680703 -40618960.64918203 -40618960.64918203 21957586.39922771 0 0 0 0 0 146391524.4147837 -34636536.86683959 -34636536.86683959 18000553.59219165 0 0 0 0 0 147489090.0073086 -29321196.63947461 -29321196.63947461 14893376.75710932 0 0 0 0 0 147950434.4899295 -24626011.36559608 -24626011.36559608 12472045.7545296 0 0 0 0 0 147886499.2572926 -20514443.76542334 -20514443.76542334 10606088.34992843 0 0 0 0 0 147407990.6554819 -16872351.88785502 -16872351.88785502 9108388.179655563 0 0 0 0 0 146662181.4202781 -13682065.83386586 -13682065.83386586 7962861.486437054 0 0 0 0 0 145713165.7146295 -10890510.09884382 -10890510.09884382 7088376.348275238 0 0 0 0 0 141587482.8999903 -7848266.968596115 -7848266.968596115 5292050.079627743 0 0 0 0 0 142292896.1528976 -7982692.357014801 -7982692.357014801 4004887.060952883 0 0 0 0 0 141303596.1142851 -6030665.905047697 -6030665.905047697 3638226.722082352 0 0 0 0 0 140233225.433832 -4317646.206973244 -4317646.206973244 3387241.249694154 0 0 0 0 0 139110529.6193271 -2816029.29477114 -2816029.29477114 3225934.890344038 0 0 0 0 0 136460630.3050092 -1617951.011998635 -1617951.011998635 1263026.209957864 0 0 0 0 0 136575092.940195 -1234887.332956597 -1234887.332956597 2622543.896876987 0 0 0 0 0 135422618.864701 -531277.7248391034 -531277.7248391034 1305131.76261688 0 0 0 0 0 134375562.6300629 422882.3060225774 422882.3060225774 1382406.169460353 0 0 0 0 0 133326680.9706441 1258865.395782965 1258865.395782965 1483226.140497768 0 0 0 0 0 132283013.9629633 1988369.885501702 1988369.885501702 1599896.016973164 0 0 0 0 0 131256463.7216827 2623725.419959615 2623725.419959615 1725319.822951326 0 0 0 0 0 130248553.5554176 3174822.173376297 3174822.173376297 1857505.443617457 0 0 0 0 0 129030500.9871483 3754577.753850828 3754577.753850828 1861736.606631984 0 0 0 0 0 128489459.0268653 3290451.950001866 3290451.950001866 658710.7890412482 0 0 0 0 0 127596346.3995642 3700703.412932151 3700703.412932151 833171.5352583124 0 0 0 0 0 126724645.0845927 4055637.355755029 4055637.355755029 1010234.462982945 0 0 0 0 0 125878350.1731138 4362727.289334394 4362727.289334394 1184007.574970561 0 0 0 0 0 125056683.1672342 4625327.359211572 4625327.359211572 1348459.205314123 0 0 0 0 0 124261392.594017 4849189.505486165 4849189.505486165 1506453.911276913 0 0 0 0 0 123581486.3713936 5093561.258971015 5093561.258971015 1639833.925511211 0 0 0 0 0 123037118.1266881 4685689.178465717 4685689.178465717 651562.712967754 0 0 0 0 0 122330877.7998191 4853523.213852756 4853523.213852756 826340.7425962636 0 0 0 0 0 121343540.41715 4647681.159826497 4647681.159826497 139197.8746473923 0 0 0 0 0 120738163.6107387 4775859.436682785 4775859.436682785 317625.1304633986 0 0 0 0 0 119780699.752428 4523366.704732053 4523366.704732053 -278655.3036875994 0 0 0 0 0 120264683.6885778 4428374.988303902 4428374.988303902 -507496.9921502597 0 0 0 0 0 119236966.7591151 4625609.273961692 4625609.273961692 -93443.41071584131 0 0 0 0 0 118707656.9449838 4712833.902503575 4712833.902503575 87785.05734670148 0 0 0 0 0 118195534.9015931 4783041.146995022 4783041.146995022 251000.4192393689 0 0 0 0 0 117693720.6649333 4836822.03520248 4836822.03520248 401655.539993864 0 0 0 0 0 116947962.2344435 4572884.141005186 4572884.141005186 -78860.37109452687 0 0 0 0 0 117271477.9919634 4540111.415495138 4540111.415495138 -289661.6291866236 0 0 0 0 0 116496672.6950275 4615277.53268294 4615277.53268294 73151.36008226768 0 0 0 0 0 116057796.6482967 4647347.384260361 4647347.384260361 216134.3665403721 0 0 0 0 0 115633240.058661 4670409.326659052 4670409.326659052 349879.1194454773 0 0 0 0 0 115221091.5444685 4684115.406336488 4684115.406336488 474831.592574794 0 0 0 0 0 114821482.6031878 4690005.046135575 4690005.046135575 592042.9237886063 0 0 0 0 0 114463972.7608206 4444337.029057391 4444337.029057391 28861.84128402857 0 0 0 0 0 113894790.9596152 4442773.591637549 4442773.591637549 317584.7594361266 0 0 0 0 0 114085024.8138325 4449750.776283788 4449750.776283788 154026.8632246448 0 0 0 0 0 113542695.5781537 4439395.830783209 4439395.830783209 425988.0187705825 0 0 0 0 0 113201380.344202 4430872.597243124 4430872.597243124 527917.860696713 0 0 0 0 0 112870511.1826628 4417546.199412681 4417546.199412681 623284.9127845262 0 0 0 0 0 112550307.1455597 4399795.304073253 4399795.304073253 711484.1701645709 0 0 0 0 0 112117248.7428557 4176973.165685402 4176973.165685402 388976.9130735416 0 0 0 0 0 112251157.4891819 4196899.296957215 4196899.296957215 250404.7240835215 0 0 0 0 0 111824155.1086601 4159961.428462601 4159961.428462601 477773.0935220151 0 0 0 0 0 111540218.4958705 4139724.899729784 4139724.899729784 560843.1072455817 0 0 0 0 0 111264903.4445348 4116530.646509746 4116530.646509746 638585.856084543 0 0 0 0 0 110998575.0314709 4090827.64388122 4090827.64388122 711922.0002318632 0 0 0 0 0 110742351.1813584 4063216.872345754 4063216.872345754 772853.6335910572 0 0 0 0 0 110351041.5342999 3905817.500492132 3905817.500492132 458302.99921098 0 0 0 0 0 110526994.3574078 4023138.290066057 4023138.290066057 795028.6488023911 0 0 0 0 0 110210041.3354746 3834308.841708454 3834308.841708454 494052.4118216879 0 0 0 0 0 121760121.6922069 5019238.260933307 5019238.260933307 1001578.067108581 0 0 0 0 0 133995927.0723344 -78373331.83375007 -78373331.83375007 52329754.68312965 0 0 0 0 0 143240902.567851 -69287232.76282917 -69287232.76282917 43151717.30643304 0 0 0 0 0 136410394.6386478 -42877541.1049979 -42877541.1049979 21834996.39827695 0 0 0 0 0 145231734.8536122 -52367814.24170436 -52367814.24170436 31183078.14700092 0 0 0 0 0 136141692.0280917 -57309984.17155813 -57309984.17155813 33247729.29906039 0 0 0 0 0 140273346.8159018 -36315103.44701729 -36315103.44701729 18142655.90825656 0 0 0 0 0 142735730.6327186 -30570257.05270325 -30570257.05270325 15246246.61584991 0 0 0 0 0 144267332.4100288 -25538144.14126543 -25538144.14126543 13054598.22832888 0 0 0 0 0 145100504.686812 -21096596.53523771 -21096596.53523771 11338574.64953803 0 0 0 0 0 145312792.3119046 -17217877.68031609 -17217877.68031609 10009164.83231862 0 0 0 0 0 145133535.3542805 -13837423.05428167 -13837423.05428167 9001734.94152014 0 0 0 0 0 144647540.3865034 -10891755.03288463 -10891755.03288463 8246136.71091755 0 0 0 0 0 143934923.8294969 -8327176.025409424 -8327176.025409424 7678396.71316295 0 0 0 0 0 144619939.7532594 -8454764.546587497 -8454764.546587497 6429165.581272431 0 0 0 0 0 140889007.9423017 -5802661.141193076 -5802661.141193076 4971800.371012172 0 0 0 0 0 140054950.5614657 -4014581.415380653 -4014581.415380653 4754212.765056407 0 0 0 0 0 139123425.9670607 -2453860.503511513 -2453860.503511513 4614556.294190901 0 0 0 0 0 138123150.828785 -1094035.790585636 -1094035.790585636 4534719.628313976 0 0 0 0 0 135658513.2901365 -114509.8562482412 -114509.8562482412 2662874.811055608 0 0 0 0 0 137956065.1923756 -1502345.008594807 -1502345.008594807 3134406.41840396 0 0 0 0 0 134707103.9911765 864237.4459513588 864237.4459513588 2731315.427911465 0 0 0 0 0 133734096.2558212 1718044.30242089 1718044.30242089 2819493.613348523 0 0 0 0 0 132753621.7303643 2461343.295570192 2461343.295570192 2920164.362078025 0 0 0 0 0 131775182.4422435 3105484.099129189 3105484.099129189 3027504.511164503 0 0 0 0 0 130802190.2452943 3660428.168928178 3660428.168928178 3135105.664322386 0 0 0 0 0 129844112.8548873 4139054.79655168 4139054.79655168 3242289.023211347 0 0 0 0 0 129261384.4122341 3650624.623467138 3650624.623467138 1988614.340201036 0 0 0 0 0 128153193.240815 4160467.851382685 4160467.851382685 2010856.698458671 0 0 0 0 0 127293021.0723671 4511737.826636171 4511737.826636171 2157612.969859644 0 0 0 0 0 126453952.8181079 4812971.552640113 4812971.552640113 2302671.269759678 0 0 0 0 0 125636602.9114787 5069662.746331098 5069662.746331098 2439557.971800326 0 0 0 0 0 124841308.6178669 5286048.534820583 5286048.534820583 2568615.343162195 0 0 0 0 0 124069425.7434905 5467395.561423483 5467395.561423483 2689927.440951592 0 0 0 0 0 123491993.6289 5038488.210115408 5038488.210115408 1655861.06400309 0 0 0 0 0 122872090.2562302 5253579.547135637 5253579.547135637 1787899.921238483 0 0 0 0 0 122183878.5231984 5386225.380131936 5386225.380131936 1925786.363567494 0 0 0 0 0 121259712.9726266 4648783.199222948 4648783.199222948 118651.4436326887 0 0 0 0 0 120627253.9031782 4772720.530452078 4772720.530452078 293739.5246715321 0 0 0 0 0 119679764.0426375 4544024.637181099 4544024.637181099 -316832.2454718052 0 0 0 0 0 120147354.8339087 4882731.165653979 4882731.165653979 488739.2767695872 0 0 0 0 0 119115495.4111695 4640956.157119385 4640956.157119385 -132932.4119125302 0 0 0 0 0 118567430.5901433 4724081.898606806 4724081.898606806 46338.69435962787 0 0 0 0 0 118035864.7172727 4788515.354866809 4788515.354866809 209539.770428363 0 0 0 0 0 117524870.3200343 4838812.09967645 4838812.09967645 359818.8047724121 0 0 0 0 0 116794789.9462546 4589771.056366271 4589771.056366271 -126967.1404419361 0 0 0 0 0 117210636.9627166 4880432.288632388 4880432.288632388 548395.3251341163 0 0 0 0 0 116333408.970921 4627954.635129445 4627954.635129445 25496.92640009543 0 0 0 0 0 115886760.7223014 4656237.432887059 4656237.432887059 169198.962899255 0 0 0 0 0 115454160.0336625 4674862.82443173 4674862.82443173 304025.593337946 0 0 0 0 0 115036024.973957 4685439.362749847 4685439.362749847 429711.3288566595 0 0 0 0 0 114631878.3747758 4688518.57973609 4688518.57973609 547734.623887089 0 0 0 0 0 114434486.790857 4689262.527060779 4689262.527060779 701961.1074679643 0 0 0 0 0 113718147.6014418 4448935.908496112 4448935.908496112 271234.586873292 0 0 0 0 0 114059541.3889531 4682425.391396662 4682425.391396662 804518.791923169 0 0 0 0 0 113363163.6271519 4442564.387645304 4442564.387645304 380968.2707377069 0 0 0 0 0 113019526.6456489 4431352.386572129 4431352.386572129 484135.5175509798 0 0 0 0 0 112687437.4477086 4415746.465044556 4415746.465044556 580857.8525399384 0 0 0 0 0 112365763.0876198 4395654.296198491 4395654.296198491 670396.0941665357 0 0 0 0 0 111947816.716203 4180854.798512146 4180854.798512146 345886.6322658217 0 0 0 0 0 112239564.904052 4378537.962770021 4378537.962770021 794267.7276241297 0 0 0 0 0 111654037.5045826 4161654.377731645 4161654.377731645 435953.5398408989 0 0 0 0 0 111369678.949174 4139239.929737949 4139239.929737949 520482.9180334288 0 0 0 0 0 111094685.8606437 4114154.694871389 4114154.694871389 599614.66722812 0 0 0 0 0 110829437.4868236 4087281.815107605 4087281.815107605 674124.8844470297 0 0 0 0 0 110585523.0257189 4059467.317845724 4059467.317845724 739312.8737850949 0 0 0 0 0 110179573.4528758 3946500.198746553 3946500.198746553 789688.3980520258 0 0 0 0 0 110342770.0871515 4029057.14893204 4029057.14893204 774986.8565216049 0 0 0 0 0 109932072.3830709 3802289.488678401 3802289.488678401 561991.8267334836 0 0 0 0 0 121648526.291214 4994759.819026652 4994759.819026652 991223.0689132717 0 0 0 0 0 130561592.1602416 -76200370.223684 -76200370.223684 44945744.03807385 0 0 0 0 0 137735795.7648226 -64830195.43874675 -64830195.43874675 38479167.01256061 0 0 0 0 0 149787103.426339 -46027833.07781872 -46027833.07781872 27083010.29338275 0 0 0 0 0 140999208.044635 -49073768.29521435 -49073768.29521435 26060427.07059711 0 0 0 0 0 145620643.2057789 -61224680.53640155 -61224680.53640155 35165682.80651519 0 0 0 0 0 151299728.3851801 -38897504.07436599 -38897504.07436599 22532879.46628176 0 0 0 0 0 151986909.3474922 -32647301.87693191 -32647301.87693191 18864930.7018398 0 0 0 0 0 152104079.7462976 -27227418.59666199 -27227418.59666199 16063527.01310444 0 0 0 0 0 151662337.9054328 -22530421.42568383 -22530421.42568383 13883703.51118328 0 0 0 0 0 150841054.3636456 -18437175.36964856 -18437175.36964856 12164885.97356185 0 0 0 0 0 149774321.744675 -14859474.73408181 -14859474.73408181 10806342.78990622 0 0 0 0 0 148531506.8684204 -11766054.69273447 -11766054.69273447 9768486.563454811 0 0 0 0 0 147168580.1222572 -9084051.478882072 -9084051.478882072 8965355.940676713 0 0 0 0 0 143044318.1950149 -6096658.886024594 -6096658.886024594 7254130.40927587 0 0 0 0 0 143421874.3002942 -6329556.643194528 -6329556.643194528 5935372.022284076 0 0 0 0 0 142156554.8552689 -4477114.488380547 -4477114.488380547 5570964.204731139 0 0 0 0 0 140856639.2123035 -2863896.347199712 -2863896.347199712 5307499.342313639 0 0 0 0 0 139541757.9902401 -1461483.545016369 -1461483.545016369 5123382.157726557 0 0 0 0 0 136786959.8744784 -354976.6116562876 -354976.6116562876 3096022.624946732 0 0 0 0 0 137078851.0886946 89258.02854181408 89258.02854181408 4499686.373408594 0 0 0 0 0 135618789.4556878 645828.1206942124 645828.1206942124 3097511.216242408 0 0 0 0 0 134463230.7319447 1517551.549120169 1517551.549120169 3129720.489318918 0 0 0 0 0 133322368.9019157 2274035.57148523 2274035.57148523 3183146.404261024 0 0 0 0 0 132199981.3970622 2928263.294748509 2928263.294748509 3249667.502367139 0 0 0 0 0 131108643.6455189 3492495.566180459 3492495.566180459 3322901.084472933 0 0 0 0 0 130048554.5273378 3977935.553905894 3977935.553905894 3401161.271271722 0 0 0 0 0 128903664.0776669 4548393.256916943 4548393.256916943 3344454.99468366 0 0 0 0 0 128300492.6574751 4060612.186592635 4060612.186592635 2114834.612249228 0 0 0 0 0 127369274.9419885 4413738.437032092 4413738.437032092 2243211.01259612 0 0 0 0 0 126468038.2640831 4717576.73681753 4717576.73681753 2370905.629710338 0 0 0 0 0 125598594.36458 4975257.571502933 4975257.571502933 2494588.545605253 0 0 0 0 0 124758354.9621947 5192437.996145607 5192437.996145607 2612333.559614512 0 0 0 0 0 123945934.4295066 5373550.819770109 5373550.819770109 2724114.056998354 0 0 0 0 0 123321296.5844807 5617161.275512285 5617161.275512285 2803231.120595878 0 0 0 0 0 122748619.7273063 5196770.901079908 5196770.901079908 1796984.314270494 0 0 0 0 0 122030829.7844596 5327229.894339563 5327229.894339563 1929281.122926793 0 0 0 0 0 121129177.6024078 5138685.107405813 5138685.107405813 1158952.985652521 0 0 0 0 0 120512390.1595732 5235417.112279749 5235417.112279749 1305316.779305261 0 0 0 0 0 119578933.379465 4973409.074782581 4973409.074782581 651638.2393647332 0 0 0 0 0 120016715.4753874 4878281.356260051 4878281.356260051 460531.1104285716 0 0 0 0 0 119024876.9019326 5048625.698439313 5048625.698439313 812261.8350728955 0 0 0 0 0 118489397.0646835 5108699.14271557 5108699.14271557 957267.7190710452 0 0 0 0 0 117969811.1578744 5151549.200226462 5151549.200226462 1086160.482413132 0 0 0 0 0 117463279.9073265 5181909.084565559 5181909.084565559 1211669.834332607 0 0 0 0 0 116740434.509593 4911285.715856133 4911285.715856133 681611.5411640042 0 0 0 0 0 117028900.1218247 4878543.920584616 4878543.920584616 506196.8886540173 0 0 0 0 0 116284657.7898079 4932453.189587221 4932453.189587221 807292.9512336237 0 0 0 0 0 115843984.9056346 4944318.281272565 4944318.281272565 924709.0455030684 0 0 0 0 0 115416807.5112295 4948118.137887094 4948118.137887094 1033801.988002563 0 0 0 0 0 115003578.3972027 4944426.487221633 4944426.487221633 1135224.630042271 0 0 0 0 0 114603834.9823316 4934072.736498775 4934072.736498775 1229706.102517782 0 0 0 0 0 114241068.799492 4684912.085163522 4684912.085163522 658704.9957087346 0 0 0 0 0 113696445.9672797 4670127.132824899 4670127.132824899 899983.0863442931 0 0 0 0 0 113863304.9336456 4675391.367479898 4675391.367479898 762426.9676502165 0 0 0 0 0 113344628.4532755 4652952.271553507 4652952.271553507 989241.2088998943 0 0 0 0 0 113004379.1412975 4631544.229110916 4631544.229110916 1072395.760898022 0 0 0 0 0 112674885.9256546 4606050.924567588 4606050.924567588 1148937.765960143 0 0 0 0 0 112355864.7658602 4576929.014814469 4576929.014814469 1219929.496531512 0 0 0 0 0 111938366.528762 4354124.42964111 4354124.42964111 872583.243550834 0 0 0 0 0 112054629.5403629 4372063.916862836 4372063.916862836 754676.3561845839 0 0 0 0 0 111646825.964932 4326797.738072317 4326797.738072317 945756.1942375376 0 0 0 0 0 111364539.2708254 4296708.22692564 4296708.22692564 1013478.475673818 0 0 0 0 0 111091449.9374404 4264413.098389789 4264413.098389789 1075225.535561342 0 0 0 0 0 110831910.6988115 4228134.773610303 4228134.773610303 1131776.017166338 0 0 0 0 0 110585015.6010781 4192215.932124687 4192215.932124687 1163530.219811154 0 0 0 0 0 110207738.750837 4000823.455412245 4000823.455412245 829575.6022316783 0 0 0 0 0 110378813.1308596 4110565.874479531 4110565.874479531 979604.824833528 0 0 0 0 0 121515711.943856 5494278.595684657 5494278.595684657 2055197.44692588 0 0 0 0 0 149703100.0912591 -81009113.67683986 -81009113.67683986 50915955.58796612 0 0 0 0 0 144521736.3080351 -64985292.84257226 -64985292.84257226 38560676.87290444 0 0 0 0 0 144787812.4083169 -40918833.88197043 -40918833.88197043 21800557.69247651 0 0 0 0 0 155689375.3576963 -52283252.41985372 -52283252.41985372 31640509.06104326 0 0 0 0 0 153144278.4175304 -62199784.51904818 -62199784.51904818 35512382.16670021 0 0 0 0 0 146898323.2690702 -34145557.05796493 -34145557.05796493 18663454.22471951 0 0 0 0 0 148183248.9739395 -28305521.39419921 -28305521.39419921 16208104.18982514 0 0 0 0 0 148719207.4035322 -23245431.09823803 -23245431.09823803 14307995.46099729 0 0 0 0 0 148722011.9823587 -18852717.93342933 -18852717.93342933 12840483.41208253 0 0 0 0 0 148260751.0463818 -15055933.23381574 -15055933.23381574 11690492.28412804 0 0 0 0 0 147495423.2617987 -11790118.53328623 -11790118.53328623 10812153.07650181 0 0 0 0 0 146531598.6446685 -8962396.059782602 -8962396.059782602 10138945.98706802 0 0 0 0 0 145409539.5036979 -6520962.290130236 -6520962.290130236 9617444.774451273 0 0 0 0 0 145724631.0914165 -6760460.621209363 -6760460.621209363 8346051.248755093 0 0 0 0 0 142029325.6569048 -4159261.39627008 -4159261.39627008 6939391.02720823 0 0 0 0 0 140928246.8352132 -2481213.223771916 -2481213.223771916 6711646.352102807 0 0 0 0 0 139770865.1079328 -1029121.129295074 -1029121.129295074 6549489.327143594 0 0 0 0 0 138580584.356582 226052.4391695038 226052.4391695038 6436830.900308311 0 0 0 0 0 136008957.6017993 1116689.581546105 1116689.581546105 4496594.304047369 0 0 0 0 0 138227028.9201716 -243740.2331677142 -243740.2331677142 5000174.549236789 0 0 0 0 0 134927005.4882224 2005662.515082821 2005662.515082821 4515956.569173215 0 0 0 0 0 133842510.2515377 2774001.067460309 2774001.067460309 4552523.195662068 0 0 0 0 0 132767750.5821575 3436651.778580256 3436651.778580256 4599163.994384992 0 0 0 0 0 131713041.2753822 4006202.011881481 4006202.011881481 4648886.919677266 0 0 0 0 0 130675108.7893272 4491164.341617044 4491164.341617044 4700274.824747613 0 0 0 0 0 129660418.5315932 4903884.78535304 4903884.78535304 4750980.392122642 0 0 0 0 0 129015796.8278719 4391833.702730566 4391833.702730566 3479582.009356048 0 0 0 0 0 127982395.4552224 4897042.694718276 4897042.694718276 3441588.100831083 0 0 0 0 0 127083677.6184069 5192035.073871848 5192035.073871848 3539389.880401344 0 0 0 0 0 126214872.2638593 5441822.109424129 5441822.109424129 3633635.426549868 0 0 0 0 0 125369734.078338 5649120.371436076 5649120.371436076 3718368.548414619 0 0 0 0 0 124553067.8891489 5821476.447757384 5821476.447757384 3799233.582923939 0 0 0 0 0 123764977.4325738 5962225.332783442 5962225.332783442 3874867.519217328 0 0 0 0 0 123162916.8080662 5523267.032068458 5523267.032068458 2829118.700082572 0 0 0 0 0 122597012.1869072 5738614.025407624 5738614.025407624 2907801.608026954 0 0 0 0 0 121896271.1691138 5835190.908191024 5835190.908191024 3003863.321749103 0 0 0 0 0 120985878.1711198 5110043.00689304 5110043.00689304 1144584.836079586 0 0 0 0 0 120347290.7597531 5204061.585690936 5204061.585690936 1287152.497041353 0 0 0 0 0 119426012.302671 4964810.936777145 4964810.936777145 620917.2618637406 0 0 0 0 0 119914980.3204165 5314433.536273507 5314433.536273507 1443925.123277365 0 0 0 0 0 118855642.3353445 5037574.709750527 5037574.709750527 777976.1302692117 0 0 0 0 0 118304031.7666411 5092472.242911667 5092472.242911667 924200.1482023947 0 0 0 0 0 117769638.6330386 5131203.127312 5131203.127312 1053285.020238031 0 0 0 0 0 117257442.6941016 5160493.297767817 5160493.297767817 1175958.700827576 0 0 0 0 0 116551339.2494003 4906071.9382836 4906071.9382836 640018.4589625318 0 0 0 0 0 116977343.8243084 5202677.513010248 5202677.513010248 1327054.200155338 0 0 0 0 0 116088832.2429444 4923803.779272061 4923803.779272061 766387.1663968115 0 0 0 0 0 115641629.8032843 4932722.553959073 4932722.553959073 884143.6109381256 0 0 0 0 0 115209722.5557739 4933563.05064753 4933563.05064753 994237.919772712 0 0 0 0 0 114792728.8705411 4927373.763198477 4927373.763198477 1096498.298215804 0 0 0 0 0 114390304.7963977 4914875.769426273 4914875.769426273 1191693.329382431 0 0 0 0 0 114217256.3914742 4918010.196421793 4918010.196421793 1317530.179369633 0 0 0 0 0 113498040.2110364 4660538.09210773 4660538.09210773 859169.9521075946 0 0 0 0 0 113843173.7784226 4896764.245842854 4896764.245842854 1398944.102325108 0 0 0 0 0 113145074.4969974 4641168.927984071 4641168.927984071 949538.6616532966 0 0 0 0 0 112803701.6484092 4617647.433266639 4617647.433266639 1033974.953648604 0 0 0 0 0 112474104.3065403 4590141.824439246 4590141.824439246 1112022.572201014 0 0 0 0 0 112155367.191148 4559347.772149622 4559347.772149622 1184263.935017274 0 0 0 0 0 111753462.9736826 4345774.376893197 4345774.376893197 834051.8744176524 0 0 0 0 0 112046703.4981904 4544869.593238548 4544869.593238548 1286652.814483583 0 0 0 0 0 111461917.9359652 4316610.807125175 4316610.807125175 908515.1434296025 0 0 0 0 0 111179818.2374711 4284503.564729768 4284503.564729768 977675.1491791888 0 0 0 0 0 110906010.9157554 4249137.934950051 4249137.934950051 1041344.141558721 0 0 0 0 0 110631408.751376 4209393.432495823 4209393.432495823 1099144.951712134 0 0 0 0 0 110386456.4465578 4171586.517533197 4171586.517533197 1156178.585310256 0 0 0 0 0 109954312.9387243 3972360.853025708 3972360.853025708 996791.9195147251 0 0 0 0 0 110190433.2641107 4084471.023910985 4084471.023910985 1156191.806038204 0 0 0 0 0 121338764.8369623 5433663.872056225 5433663.872056225 2054077.976174314 0 0 0 0 0 144316267.0721577 -77571585.18626657 -77571585.18626657 42407193.4928081 0 0 0 0 0 158443130.0915087 -69263789.19718133 -69263789.19718133 41149262.66277449 0 0 0 0 0 157200539.5486045 -43793212.40643441 -43793212.40643441 26715254.51598701 0 0 0 0 0 149787874.6330814 -46263598.87014658 -46263598.87014658 25263238.00034893 0 0 0 0 0 148025226.6982561 -54897144.73246446 -54897144.73246446 29104381.10957887 0 0 0 0 0 157357093.271927 -36557715.57896145 -36557715.57896145 22792229.87944255 0 0 0 0 0 156911542.0266838 -30308578.20449853 -30308578.20449853 19650886.58234313 0 0 0 0 0 156012136.230616 -24918297.87426088 -24918297.87426088 17183770.49375196 0 0 0 0 0 154774146.5200515 -20274952.82433781 -20274952.82433781 15254724.66801878 0 0 0 0 0 153283986.6002163 -16284961.28747959 -16284961.28747959 13734749.92985968 0 0 0 0 0 151672563.965493 -12837305.25043235 -12837305.25043235 12522182.5238649 0 0 0 0 0 149978928.242592 -9875378.740430966 -9875378.740430966 11583062.64995979 0 0 0 0 0 148243640.4367932 -7326868.79327559 -7326868.79327559 10842418.94930088 0 0 0 0 0 144175507.999238 -4416469.173854144 -4416469.173854144 9212055.383699389 0 0 0 0 0 144236465.5345419 -4747027.715318568 -4747027.715318568 7866754.243816604 0 0 0 0 0 142729960.8359376 -3006353.689635444 -3006353.689635444 7499232.536707743 0 0 0 0 0 141230606.8104838 -1502606.701662977 -1502606.701662977 7219947.598319468 0 0 0 0 0 139752026.6651136 -204941.7979465928 -204941.7979465928 7009068.046092249 0 0 0 0 0 136923598.562904 811307.1496047783 811307.1496047783 4922719.352696479 0 0 0 0 0 137376370.7150076 1309387.719236185 1309387.719236185 6360392.774865964 0 0 0 0 0 135643684.9889543 1723712.808933197 1723712.808933197 4878734.509932226 0 0 0 0 0 134392233.406218 2510814.580361303 2510814.580361303 4862417.418158983 0 0 0 0 0 133175419.993153 3189786.504395051 3189786.504395051 4863760.15842028 0 0 0 0 0 131990019.1241698 3770633.183803467 3770633.183803467 4876478.931399222 0 0 0 0 0 130847057.3942589 4267346.090409481 4267346.090409481 4894699.312366051 0 0 0 0 0 129745298.3684175 4689417.971730034 4689417.971730034 4917825.964671122 0 0 0 0 0 128676481.084053 5253446.367693991 5253446.367693991 4800798.772372319 0 0 0 0 0 128019964.8938497 4745650.702838731 4745650.702838731 3555660.826064964 0 0 0 0 0 127061617.3361848 5047121.519449426 5047121.519449426 3632616.118613665 0 0 0 0 0 126137024.2596018 5300555.08823077 5300555.08823077 3711314.617084884 0 0 0 0 0 125255266.1833448 5512798.189063176 5512798.189063176 3783793.324776082 0 0 0 0 0 124400075.3245764 5687165.533920267 5687165.533920267 3853772.88912483 0 0 0 0 0 123576104.8134965 5829179.079348891 5829179.079348891 3919537.840114317 0 0 0 0 0 123004439.9914936 6074146.842317772 6074146.842317772 3943926.972596683 0 0 0 0 0 122409928.0625213 5644804.897442723 5644804.897442723 2926726.821677697 0 0 0 0 0 121685630.7362994 5741511.445265888 5741511.445265888 3017079.877668951 0 0 0 0 0 120869887.4200579 5579388.561503908 5579388.561503908 2173242.975276402 0 0 0 0 0 120244341.1117093 5645823.455917793 5645823.455917793 2283609.282538548 0 0 0 0 0 119336271.4290617 5377787.415816949 5377787.415816949 1580522.056913198 0 0 0 0 0 119730770.370221 5279742.893516307 5279742.893516307 1423434.52252165 0 0 0 0 0 118776900.9488969 5426366.286165686 5426366.286165686 1703584.434927558 0 0 0 0 0 118234601.678259 5457872.634035674 5457872.634035674 1813473.577021667 0 0 0 0 0 117710535.6000077 5476606.334741152 5476606.334741152 1913114.114074269 0 0 0 0 0 117203782.1365046 5486642.207345002 5486642.207345002 2009133.128358695 0 0 0 0 0 116503633.701142 5211895.706711863 5211895.706711863 1432525.172724646 0 0 0 0 0 116760141.2617766 5177723.878695277 5177723.878695277 1292733.190451879 0 0 0 0 0 116047028.2674591 5213365.704228939 5213365.704228939 1531443.875208741 0 0 0 0 0 115605278.1034263 5206750.76099163 5206750.76099163 1622961.701903247 0 0 0 0 0 115178387.9822311 5193223.713420325 5193223.713420325 1707453.310750017 0 0 0 0 0 114766037.2652091 5173434.817361683 5173434.817361683 1785170.241705183 0 0 0 0 0 114367553.3648983 5148148.041104382 5148148.041104382 1856961.264185094 0 0 0 0 0 114001554.618419 4896679.248207535 4896679.248207535 1280503.621898986 0 0 0 0 0 113481222.7066457 4870906.774576131 4870906.774576131 1474268.408034093 0 0 0 0 0 113626185.7335635 4873484.386419331 4873484.386419331 1362963.749857196 0 0 0 0 0 113131123.7666859 4841168.54557568 4841168.54557568 1544159.495006192 0 0 0 0 0 112793064.3180389 4807789.753193842 4807789.753193842 1607985.57064315 0 0 0 0 0 112465646.7398829 4771007.336162996 4771007.336162996 1666354.045129623 0 0 0 0 0 112148827.4877347 4731558.003653293 4731558.003653293 1720326.46706461 0 0 0 0 0 111747650.1381605 4510510.930156549 4510510.930156549 1349066.04298223 0 0 0 0 0 111847089.4630557 4525954.983859632 4525954.983859632 1251791.385706804 0 0 0 0 0 111458334.8329468 4473550.323175216 4473550.323175216 1407183.690437661 0 0 0 0 0 111178434.55803 4434121.258899666 4434121.258899666 1461663.3161647 0 0 0 0 0 110905839.4759624 4393424.499728403 4393424.499728403 1513867.731919523 0 0 0 0 0 110647762.4969699 4353747.057976088 4353747.057976088 1554211.761373925 0 0 0 0 0 110417545.9464314 4268403.389825595 4268403.389825595 1340169.924240726 0 0 0 0 0 110211233.3245959 4157931.828907951 4157931.828907951 1231624.208058892 0 0 0 0 0 121219407.5412399 5909901.415807352 5909901.415807352 3091373.319088923 0 0 0 0 0 165279049.1152175 -82696651.25354254 -82696651.25354254 48318634.34363285 0 0 0 0 0 152192033.9721663 -65830291.11143565 -65830291.11143565 34907108.84027512 0 0 0 0 0 152010500.0023606 -38310303.42917451 -38310303.42917451 21875880.5353584 0 0 0 0 0 164683496.6154917 -49885687.55578806 -49885687.55578806 31269493.74945596 0 0 0 0 0 165045444.453853 -59113485.70526824 -59113485.70526824 36000301.51182564 0 0 0 0 0 152812869.7735262 -31576914.37509807 -31576914.37509807 19226250.16994527 0 0 0 0 0 152983608.9934012 -25770703.61707108 -25770703.61707108 17191541.27873186 0 0 0 0 0 152584972.6814934 -20797494.27536082 -20797494.27536082 15607500.66845636 0 0 0 0 0 151793970.6788154 -16537867.07884522 -16537867.07884522 14375010.46853685 0 0 0 0 0 150707864.403656 -12884151.91087005 -12884151.91087005 13400694.88177219 0 0 0 0 0 149420658.8143469 -9761594.827458182 -9761594.827458182 12635205.80111987 0 0 0 0 0 148010665.3844572 -7086294.099285454 -7086294.099285454 12034233.54807074 0 0 0 0 0 146522050.0398227 -4792545.740477201 -4792545.740477201 11548909.59421835 0 0 0 0 0 146491168.3226472 -5135318.577196283 -5135318.577196283 10254807.62624814 0 0 0 0 0 142871722.2116662 -2605342.459929758 -2605342.459929758 8897054.923065254 0 0 0 0 0 141533273.470756 -1047560.091285036 -1047560.091285036 8652867.475972204 0 0 0 0 0 140176534.1454366 289177.7933035934 289177.7933035934 8461857.716338547 0 0 0 0 0 138819268.6878877 1435806.633480428 1435806.633480428 8309890.943183905 0 0 0 0 0 136172713.192212 2241419.326466339 2241419.326466339 6308771.417161538 0 0 0 0 0 138299975.043515 912479.3061398044 912479.3061398044 6850374.811919984 0 0 0 0 0 134977310.418125 3041399.16027836 3041399.16027836 6276339.997732962 0 0 0 0 0 133800743.3674718 3726677.484146169 3726677.484146169 6256674.020227253 0 0 0 0 0 132646503.0297992 4310759.390294697 4310759.390294697 6245528.458454175 0 0 0 0 0 131526304.7614759 4806760.499035772 4806760.499035772 6238450.039983938 0 0 0 0 0 130435996.0323921 5225458.443968395 5225458.443968395 6230970.506906033 0 0 0 0 0 129376437.2892447 5575627.364047958 5575627.364047958 6230452.251829308 0 0 0 0 0 128680492.9788673 5047009.933195896 5047009.933195896 4944370.796127453 0 0 0 0 0 127718804.4108349 5545291.215758369 5545291.215758369 4848198.323296072 0 0 0 0 0 126794113.7052583 5790482.369125342 5790482.369125342 4895360.019817443 0 0 0 0 0 125903831.5707552 5990888.71065245 5990888.71065245 4933616.779371682 0 0 0 0 0 125037109.3364419 6153475.549057222 6153475.549057222 4967624.367561826 0 0 0 0 0 124205046.5069092 6285121.433267285 6285121.433267285 5002602.821818255 0 0 0 0 0 123405268.9270468 6388181.154520947 6388181.154520947 5032410.037097692 0 0 0 0 0 122784499.6664329 5942517.262970235 5942517.262970235 3980289.452974118 0 0 0 0 0 122270212.6487991 6160451.229477948 6160451.229477948 4004939.808036721 0 0 0 0 0 121562322.0850662 6224142.626665775 6224142.626665775 4058138.222313474 0 0 0 0 0 120671254.3818923 5517706.854269345 5517706.854269345 2167662.047726659 0 0 0 0 0 120028266.4629387 5582630.938501823 5582630.938501823 2274894.144138438 0 0 0 0 0 119136822.7251413 5341514.757384423 5341514.757384423 1554992.437904553 0 0 0 0 0 119639615.0423482 5696817.850270443 5696817.850270443 2393251.089523038 0 0 0 0 0 118563318.2169941 5386443.800241473 5386443.800241473 1679735.713666124 0 0 0 0 0 118010159.3903895 5416080.600524001 5416080.600524001 1788492.643977434 0 0 0 0 0 117477037.1152932 5433166.224338099 5433166.224338099 1886843.255409497 0 0 0 0 0 116964354.0436193 5440761.144494042 5440761.144494042 1982681.190883996 0 0 0 0 0 116283070.8491944 5184994.761570458 5184994.761570458 1398083.436818217 0 0 0 0 0 116716296.954032 5485694.693373248 5485694.693373248 2092678.845612452 0 0 0 0 0 115821428.1474109 5183807.426384588 5183807.426384588 1497593.072929316 0 0 0 0 0 115376137.02498 5175162.992053495 5175162.992053495 1589725.231633649 0 0 0 0 0 114946448.8905587 5159728.505524242 5159728.505524242 1674822.121135778 0 0 0 0 0 114532148.0543509 5138260.730283638 5138260.730283638 1753246.729718339 0 0 0 0 0 114132685.5426976 5111535.561136057 5111535.561136057 1825701.568188992 0 0 0 0 0 113982590.9649548 5118003.111306485 5118003.111306485 1922841.27694059 0 0 0 0 0 113263766.2423665 4845922.627124861 4845922.627124861 1439276.499145103 0 0 0 0 0 113610640.6499811 5083629.532138777 5083629.532138777 1983211.782058809 0 0 0 0 0 112913801.9078115 4814591.052071195 4814591.052071195 1510295.688379266 0 0 0 0 0 112575965.8478145 4779682.615374136 4779682.615374136 1575497.668412418 0 0 0 0 0 112249660.5171299 4741621.737050132 4741621.737050132 1635070.707733232 0 0 0 0 0 111934458.8831509 4701055.436964526 4701055.436964526 1689908.141816132 0 0 0 0 0 111549048.7307655 4490222.668664982 4490222.668664982 1315386.929599632 0 0 0 0 0 111842605.697661 4690082.994865426 4690082.994865426 1770601.850120305 0 0 0 0 0 111260675.3182061 4452279.732567766 4452279.732567766 1374429.984214873 0 0 0 0 0 110982545.9912507 4412455.943869774 4412455.943869774 1429609.674763248 0 0 0 0 0 110716290.1299025 4372969.160137777 4372969.160137777 1482456.204171282 0 0 0 0 0 110471072.9815762 4335156.813897848 4335156.813897848 1527644.535488077 0 0 0 0 0 110183455.9976127 4238036.137383359 4238036.137383359 1576021.465726475 0 0 0 0 0 109945658.5010239 4119628.450520319 4119628.450520319 1369241.866892993 0 0 0 0 0 120989277.1082568 5816116.861388794 5816116.861388794 3100071.812049962 0 0 0 0 0 158199919.8209486 -78351453.19071119 -78351453.19071119 39442584.14483885 0 0 0 0 0 170657890.9312278 -69902666.76873255 -69902666.76873255 39534489.71109056 0 0 0 0 0 163672927.7453957 -41075812.62161119 -41075812.62161119 26533603.6928215 0 0 0 0 0 158116964.1127361 -43160931.61926004 -43160931.61926004 24508300.70992851 0 0 0 0 0 157306619.1381526 -52728590.95104636 -52728590.95104636 28338801.85085708 0 0 0 0 0 162559135.0932895 -33860761.53715642 -33860761.53715642 23096957.03495971 0 0 0 0 0 161028552.8099379 -27690751.06396304 -27690751.06396304 20416258.6309934 0 0 0 0 0 159228069.3673255 -22428364.77061034 -22428364.77061034 18303822.47736974 0 0 0 0 0 157259506.8179339 -17938604.83876225 -17938604.83876225 16634438.57285029 0 0 0 0 0 155189373.0349186 -14109237.38289184 -14109237.38289184 15310567.43742592 0 0 0 0 0 153092986.3447004 -10832387.6523239 -10832387.6523239 14242409.75873595 0 0 0 0 0 151009437.6121773 -8033544.696358646 -8033544.696358646 13392550.89391316 0 0 0 0 0 148949434.0635899 -5643676.408266068 -5643676.408266068 12709055.61032867 0 0 0 0 0 144982573.7268567 -2831564.203361634 -2831564.203361634 11152463.06732678 0 0 0 0 0 144749633.5582694 -3251002.193845356 -3251002.193845356 9785222.551585421 0 0 0 0 0 143037248.2704302 -1632978.976617144 -1632978.976617144 9410195.198170759 0 0 0 0 0 141368033.4668685 -246468.3821762077 -246468.3821762077 9110311.002059 0 0 0 0 0 139748716.9268644 941716.5835093079 941716.5835093079 8867695.656162363 0 0 0 0 0 136880655.4444177 1872219.861731916 1872219.861731916 6729630.306269252 0 0 0 0 0 137476081.1701857 2417029.724026502 2417029.724026502 8187013.819776768 0 0 0 0 0 135506212.1852649 2696604.280908411 2696604.280908411 6637195.451654956 0 0 0 0 0 134180964.7457168 3403291.766530025 3403291.766530025 6567449.829521862 0 0 0 0 0 132900456.6517785 4004873.177266395 4004873.177266395 6514427.524520731 0 0 0 0 0 131666291.2895628 4515528.099321907 4515528.099321907 6471246.386985014 0 0 0 0 0 130483618.622137 4946772.906050852 4946772.906050852 6434758.401475785 0 0 0 0 0 129352445.8790196 5311562.273710109 5311562.273710109 6403133.02601186 0 0 0 0 0 128359602.5632429 5868339.810881891 5868339.810881891 6226060.058263594 0 0 0 0 0 127660921.7059995 5347697.102247316 5347697.102247316 4969148.934753106 0 0 0 0 0 126682710.0150835 5599452.479926059 5599452.479926059 4998428.52436421 0 0 0 0 0 125746231.765026 5806394.276128714 5806394.276128714 5023313.559908691 0 0 0 0 0 124850020.8712539 5973986.469667449 5973986.469667449 5045319.836909747 0 0 0 0 0 123986645.1087143 6110515.857557814 6110515.857557814 5067739.408671647 0 0 0 0 0 123158575.2011366 6217265.272927382 6217265.272927382 5087544.895217563 0 0 0 0 0 122637934.734591 6465965.298052145 6465965.298052145 5057658.643192464 0 0 0 0 0 122026828.3237095 6030679.407347815 6030679.407347815 4034612.001638985 0 0 0 0 0 121300487.6293207 6096220.102527904 6096220.102527904 4082335.27720736 0 0 0 0 0 120565934.6237912 5964890.602062294 5964890.602062294 3171719.597463006 0 0 0 0 0 119935646.6674657 6003398.205071056 6003398.205071056 3248206.290326236 0 0 0 0 0 119056374.9080455 5734078.153558886 5734078.153558886 2490904.456263532 0 0 0 0 0 119411507.0715855 5633664.966190803 5633664.966190803 2377761.53388789 0 0 0 0 0 118492637.9724997 5754769.056437983 5754769.056437983 2576507.111645162 0 0 0 0 0 117948569.1915334 5763045.05846091 5763045.05846091 2653464.648834941 0 0 0 0 0 117423445.5874717 5760583.980528655 5760583.980528655 2723720.154859649 0 0 0 0 0 116917145.6666156 5749427.837723391 5749427.837723391 2787771.350271953 0 0 0 0 0 116242902.457903 5475969.546126301 5475969.546126301 2171656.843094703 0 0 0 0 0 116468697.6302859 5437483.415465908 5437483.415465908 2067309.408510669 0 0 0 0 0 115786064.3537797 5458662.256740325 5458662.256740325 2242679.650464306 0 0 0 0 0 115345546.3553002 5435237.627850804 5435237.627850804 2308662.836458118 0 0 0 0 0 114920558.1828146 5406013.68845157 5406013.68845157 2368553.813857666 0 0 0 0 0 114510461.3611358 5371604.544986707 5371604.544986707 2422769.043449289 0 0 0 0 0 114114666.4958358 5332703.14950928 5332703.14950928 2471858.587417543 0 0 0 0 0 113747341.0681953 5080082.175089167 5080082.175089167 1892401.983282712 0 0 0 0 0 113251136.0861521 5045557.898163357 5045557.898163357 2038447.659743664 0 0 0 0 0 113375565.7244234 5044493.068743289 5044493.068743289 1953649.583600176 0 0 0 0 0 112904128.4769427 5004228.241749066 5004228.241749066 2088724.459760679 0 0 0 0 0 112568673.392566 4959869.713055844 4959869.713055844 2133503.797946627 0 0 0 0 0 112244514.3204083 4913095.319674839 4913095.319674839 2174090.324759997 0 0 0 0 0 111931124.6014729 4864373.989446516 4864373.989446516 2211236.236171531 0 0 0 0 0 111546313.4215598 4646581.632639189 4646581.632639189 1816645.958840263 0 0 0 0 0 111629931.0983106 4658543.367994674 4658543.367994674 1741178.691619664 0 0 0 0 0 111259842.1903104 4601160.593156414 4601160.593156414 1859201.381389651 0 0 0 0 0 110982731.5456634 4554899.828383464 4554899.828383464 1897690.103502591 0 0 0 0 0 110718100.0902596 4505316.123837957 4505316.123837957 1924827.316221198 0 0 0 0 0 110450080.2944521 4451410.934216502 4451410.934216502 1899755.055360515 0 0 0 0 0 110207807.6715004 4305931.925007333 4305931.925007333 1631486.184316752 0 0 0 0 0 110356004.1361338 4391516.179580058 4391516.179580058 1673549.217204357 0 0 0 0 0 120880367.6671212 6268426.993116938 6268426.993116938 4104873.028968244 0 0 0 0 0 180909576.6549167 -83012139.62332973 -83012139.62332973 45509078.84313732 0 0 0 0 0 168432101.0569699 -68293669.84993283 -68293669.84993283 35305994.56442371 0 0 0 0 0 158333649.5071669 -35358334.63490541 -35358334.63490541 21917484.33863452 0 0 0 0 0 171037052.9189512 -45976023.01335724 -45976023.01335724 29501622.9882846 0 0 0 0 0 172377700.4399319 -56242392.71362098 -56242392.71362098 34433860.28022248 0 0 0 0 0 157969750.6228862 -28695704.86517841 -28695704.86517841 19853799.95122091 0 0 0 0 0 157073368.2126797 -23049370.79011277 -23049370.79011277 18238045.41968 0 0 0 0 0 155817396.8196584 -18257544.80314596 -18257544.80314596 16964156.22316803 0 0 0 0 0 154315213.6665821 -14188580.97472881 -14188580.97472881 15948467.77354772 0 0 0 0 0 152650760.086237 -10728863.79485853 -10728863.79485853 15129248.58174801 0 0 0 0 0 150896052.558899 -7790149.017565307 -7790149.017565307 14464256.03429198 0 0 0 0 0 149095782.2316013 -5290482.855642713 -5290482.855642713 13917891.07378199 0 0 0 0 0 147280471.8660896 -3165011.79570003 -3165011.79570003 13454403.05669598 0 0 0 0 0 146935244.5435466 -3600998.735584924 -3600998.735584924 12144218.50417339 0 0 0 0 0 143426914.3557369 -1156690.701674751 -1156690.701674751 10831095.24819184 0 0 0 0 0 141880544.850851 272885.0349280962 272885.0349280962 10564347.11625994 0 0 0 0 0 140353349.9913511 1491924.795816257 1491924.795816257 10338280.67060025 0 0 0 0 0 138854804.8682319 2528950.158864829 2528950.158864829 10142135.63730441 0 0 0 0 0 136158738.34306 3255369.573587155 3255369.573587155 8084002.815892178 0 0 0 0 0 138183020.5565476 1958503.769559512 1958503.769559512 8667617.589293724 0 0 0 0 0 134870392.8556454 3967361.973529788 3967361.973529788 7997749.067350177 0 0 0 0 0 133614304.6473911 4570767.411539163 4570767.411539163 7919741.31473712 0 0 0 0 0 132397323.221349 5079242.059192819 5079242.059192819 7853243.718613415 0 0 0 0 0 131226616.3446181 5506636.623267767 5506636.623267767 7789626.127378645 0 0 0 0 0 130095714.3010679 5862162.828710475 5862162.828710475 7728705.872649585 0 0 0 0 0 129008770.4014851 6156894.526742026 6156894.526742026 7671448.50445817 0 0 0 0 0 128267247.4651495 5614555.50922873 5614555.50922873 6377118.773363 0 0 0 0 0 127377188.5607571 6110079.62230455 6110079.62230455 6222061.369494901 0 0 0 0 0 126431973.112483 6304844.397344498 6304844.397344498 6211966.268526088 0 0 0 0 0 125523896.500648 6461173.45115108 6461173.45115108 6195851.719822426 0 0 0 0 0 124645222.5743581 6583570.783134907 6583570.783134907 6184053.970861799 0 0 0 0 0 123804943.1685449 6678606.754338774 6678606.754338774 6172143.889863051 0 0 0 0 0 122997265.0429098 6747124.06189232 6747124.06189232 6157987.546288513 0 0 0 0 0 122363186.7178956 6297673.455707074 6297673.455707074 5105119.207520219 0 0 0 0 0 121898415.3570513 6519858.08278333 6519858.08278333 5074107.934325092 0 0 0 0 0 121187164.4761054 6553750.00272519 6553750.00272519 5085047.179007782 0 0 0 0 0 120321141.5640964 5872219.209092443 5872219.209092443 3176089.508260952 0 0 0 0 0 119682329.4675185 5912304.234860524 5912304.234860524 3245096.821697853 0 0 0 0 0 118815098.3508682 5668515.318775783 5668515.318775783 2477825.37279001 0 0 0 0 0 119328094.99023 6029879.468340965 6029879.468340965 3319243.290381145 0 0 0 0 0 118241042.1097734 5687815.36139851 5687815.36139851 2561855.85304781 0 0 0 0 0 117689263.9275588 5695062.073256142 5695062.073256142 2637625.210913795 0 0 0 0 0 117158587.194281 5692204.408343371 5692204.408343371 2706992.605906586 0 0 0 0 0 116648178.1821062 5680135.301113326 5680135.301113326 2770708.505750396 0 0 0 0 0 115992916.4723664 5426829.290880162 5426829.290880162 2145390.169920307 0 0 0 0 0 116429611.0110472 5729337.502654791 5729337.502654791 2843703.916590372 0 0 0 0 0 115534656.911193 5408587.153594793 5408587.153594793 2216782.235989766 0 0 0 0 0 115092550.1423753 5383995.382327615 5383995.382327615 2283019.18064628 0 0 0 0 0 114666673.3204894 5353817.29245428 5353817.29245428 2343382.003138977 0 0 0 0 0 114256396.5687804 5318604.784913092 5318604.784913092 2398108.180681326 0 0 0 0 0 113861165.9993885 5279032.146526149 5279032.146526149 2447763.259558221 0 0 0 0 0 113732637.1757698 5289824.833614768 5289824.833614768 2516040.392352163 0 0 0 0 0 113017065.855729 5005377.148091858 5005377.148091858 2009783.947467205 0 0 0 0 0 113363972.7805652 5243567.940038319 5243567.940038319 2555583.901374432 0 0 0 0 0 112670984.5977305 4963105.192474883 4963105.192474883 2061110.002686968 0 0 0 0 0 112337371.0002867 4917910.619240562 4917910.619240562 2107157.365607693 0 0 0 0 0 112015326.3609103 4870384.205912279 4870384.205912279 2148604.297371957 0 0 0 0 0 111704368.2409316 4821030.857998178 4821030.857998178 2186448.862301211 0 0 0 0 0 111335814.0019487 4614209.580276378 4614209.580276378 1788335.865730721 0 0 0 0 0 111628378.3290652 4814054.510109482 4814054.510109482 2244503.489345368 0 0 0 0 0 111051664.3200786 4568503.57483407 4568503.57483407 1831644.691304631 0 0 0 0 0 110781632.2185365 4522254.716649265 4522254.716649265 1871810.392545824 0 0 0 0 0 110529543.006383 4476287.532549338 4476287.532549338 1902101.586753448 0 0 0 0 0 110293932.2686125 4436011.150552282 4436011.150552282 1914213.473218131 0 0 0 0 0 109929217.0533153 4257541.574321301 4257541.574321301 1755785.522312877 0 0 0 0 0 110123894.4031919 4360820.511672027 4360820.511672027 1903590.772662048 0 0 0 0 0 120603544.73554 6142090.438771262 6142090.438771262 4124202.656132779 0 0 0 0 0 174243761.344674 -78877998.63205385 -78877998.63205385 35957889.69913206 0 0 0 0 0 169618268.822271 -58519861.45308246 -58519861.45308246 30108478.80738986 0 0 0 0 0 183981051.2261958 -70899180.67512463 -70899180.67512463 37800206.07629685 0 0 0 0 0 169141551.6281692 -37803609.4001243 -37803609.4001243 26144720.13225998 0 0 0 0 0 164813915.4160152 -48416221.42707498 -48416221.42707498 26799940.96930407 0 0 0 0 0 164965400.1998858 -39473045.93164767 -39473045.93164767 24218367.4614353 0 0 0 0 0 166835613.406571 -30805536.30661837 -30805536.30661837 23404564.83693377 0 0 0 0 0 164319958.6097852 -24862614.44772587 -24862614.44772587 21201905.40669164 0 0 0 0 0 161730383.9564521 -19828692.62897314 -19828692.62897314 19445490.04219982 0 0 0 0 0 159132429.9734898 -15564286.68062148 -15564286.68062148 18035786.92168352 0 0 0 0 0 156562477.5032347 -11948818.87492768 -11948818.87492768 16896091.54539533 0 0 0 0 0 154058792.0068944 -8878598.082724771 -8878598.082724771 15960577.44914637 0 0 0 0 0 151639120.7779771 -6271111.292470204 -6271111.292470204 15191875.00122561 0 0 0 0 0 149304940.982085 -4058427.68447676 -4058427.68447676 14550101.95420085 0 0 0 0 0 145474495.1432214 -1360958.251540516 -1360958.251540516 13063109.86753 0 0 0 0 0 144980574.332735 -1856937.699616442 -1856937.699616442 11678502.41325172 0 0 0 0 0 143096819.5628168 -370104.9942849476 -370104.9942849476 11291892.2671448 0 0 0 0 0 141287217.1104985 896731.9488988345 896731.9488988345 10966026.31233982 0 0 0 0 0 139553886.4786442 1974692.132160392 1974692.132160392 10686645.88309082 0 0 0 0 0 136675093.7957307 2825928.459943644 2825928.459943644 8499528.486736663 0 0 0 0 0 137395123.6842266 3408745.660781295 3408745.660781295 9969833.458475137 0 0 0 0 0 135224627.7762419 3563200.06039775 3563200.06039775 8357812.064082775 0 0 0 0 0 133837504.3906907 4188586.87486111 4188586.87486111 8235187.935859364 0 0 0 0 0 132511776.8847391 4718673.25229544 4718673.25229544 8124869.166257078 0 0 0 0 0 131244266.3882251 5163392.95559144 5163392.95559144 8027896.347022024 0 0 0 0 0 130035184.5796982 5534338.147555977 5534338.147555977 7936997.600645747 0 0 0 0 0 128882419.8618942 5842512.219652855 5842512.219652855 7854716.084896805 0 0 0 0 0 127964775.00134 6396701.218125018 6396701.218125018 7612984.418090391 0 0 0 0 0 127230307.9163503 5865475.29443972 5865475.29443972 6353154.533993891 0 0 0 0 0 126241578.4342973 6070395.973180348 6070395.973180348 6328649.43272044 0 0 0 0 0 125295615.3375588 6233131.150262469 6233131.150262469 6299820.031973823 0 0 0 0 0 124393116.9901511 6363581.391403709 6363581.391403709 6270831.218647652 0 0 0 0 0 123525663.6491324 6464334.967420366 6464334.967420366 6248846.622524054 0 0 0 0 0 122698853.2098875 6539180.470618746 6539180.470618746 6223690.96507358 0 0 0 0 0 122227185.0070532 6793176.832491159 6793176.832491159 6137404.380345621 0 0 0 0 0 121605493.9387623 6355143.636300261 6355143.636300261 5115857.230837563 0 0 0 0 0 120880597.1365097 6392632.162944968 6392632.162944968 5121106.717107899 0 0 0 0 0 120225164.4751743 6295243.28436454 6295243.28436454 4145902.870120635 0 0 0 0 0 119587840.9801305 6308581.341796055 6308581.341796055 4186408.447865834 0 0 0 0 0 118742139.0975103 6039320.956517427 6039320.956517427 3379007.979218175 0 0 0 0 0 119059544.3054155 5935732.176141952 5935732.176141952 3318791.713665862 0 0 0 0 0 118178085.0210099 6036803.993341897 6036803.993341897 3430409.195601414 0 0 0 0 0 117634274.4405429 6024012.608543443 6024012.608543443 3475458.002058583 0 0 0 0 0 117111205.1285201 6002046.797861204 6002046.797861204 3514809.317893827 0 0 0 0 0 116607462.6123301 5972505.509542258 5972505.509542258 3548495.109654143 0 0 0 0 0 115959291.9428278 5702653.157328175 5702653.157328175 2894254.41651516 0 0 0 0 0 116156872.944081 5659663.479416084 5659663.479416084 2825954.335256908 0 0 0 0 0 115504546.6986408 5668867.051879698 5668867.051879698 2938834.628733187 0 0 0 0 0 115067123.8395883 5630329.108029746 5630329.108029746 2979398.363363574 0 0 0 0 0 114645446.1764062 5586986.689289602 5586986.689289602 3014955.966147969 0 0 0 0 0 114238997.695292 5539431.604610171 5539431.604610171 3045926.606440629 0 0 0 0 0 113847140.5122763 5488285.922662357 5488285.922662357 3072612.302711026 0 0 0 0 0 113480338.9798808 5235654.495923906 5235654.495923906 2492535.147784912 0 0 0 0 0 113008020.4062079 5194365.762126684 5194365.762126684 2590798.862979744 0 0 0 0 0 113113335.2599072 5188980.279074775 5188980.279074775 2532776.495336204 0 0 0 0 0 112664935.7955381 5142665.255862045 5142665.255862045 2621416.282650841 0 0 0 0 0 112333421.2486937 5088587.539828571 5088587.539828571 2648027.294074372 0 0 0 0 0 112013101.7043151 5032771.366785266 5032771.366785266 2671241.744856293 0 0 0 0 0 111703881.7835365 4975572.567496389 4975572.567496389 2691613.129970809 0 0 0 0 0 111335669.1192351 4762255.349083466 4762255.349083466 2273548.103146535 0 0 0 0 0 111403978.6452929 4769919.112803207 4769919.112803207 2220829.992188842 0 0 0 0 0 111053246.6900258 4708586.450340084 4708586.450340084 2298460.086219172 0 0 0 0 0 110786088.1399623 4652482.560518725 4652482.560518725 2318875.968724851 0 0 0 0 0 110518887.0141893 4596691.179704409 4596691.179704409 2301709.371518144 0 0 0 0 0 110349686.1263784 4515303.079056722 4515303.079056722 2185241.950822385 0 0 0 0 0 110173133.895446 4434411.360050403 4434411.360050403 2040816.841002384 0 0 0 0 0 120504859.4398649 6570430.033191708 6570430.033191708 5091682.728170124 0 0 0 0 0 198071555.6987751 -82500652.14744636 -82500652.14744636 42318846.77391499 0 0 0 0 0 182857420.1235858 -62108037.71815705 -62108037.71815705 35752082.62004482 0 0 0 0 0 175677726.0260611 -65713870.91567358 -65713870.91567358 29940520.63149578 0 0 0 0 0 163830880.8365656 -31957929.59098123 -31957929.59098123 22204293.23142692 0 0 0 0 0 179768931.2860735 -51728737.03845502 -51728737.03845502 32625778.17097467 0 0 0 0 0 176735792.3379753 -42109091.20653421 -42109091.20653421 28806858.17355166 0 0 0 0 0 162284866.6585834 -25577077.66063887 -25577077.66063887 20644240.66294561 0 0 0 0 0 160439616.8224779 -20202880.4581905 -20202880.4581905 19396147.88975302 0 0 0 0 0 158400388.561488 -15678357.76425835 -15678357.76425835 18385990.36275886 0 0 0 0 0 156265669.9260252 -11860896.35400666 -11860896.35400666 17557517.42968271 0 0 0 0 0 154092609.104048 -8635596.135770641 -8635596.135770641 16866264.49456349 0 0 0 0 0 151924618.1435841 -5910464.275206805 -5910464.275206805 16280265.9046679 0 0 0 0 0 149788031.6127604 -3606623.613268609 -3606623.613268609 15772066.40158232 0 0 0 0 0 147699274.6029003 -1660568.738149474 -1660568.738149474 15325034.35892174 0 0 0 0 0 147075705.3211046 -2177145.122288837 -2177145.122288837 14001398.02208308 0 0 0 0 0 143707205.1055805 171501.0253952914 171501.0253952914 12726225.66430807 0 0 0 0 0 141984483.5951619 1470801.050958761 1470801.050958761 12430376.68528109 0 0 0 0 0 140313390.9596281 2570034.295069595 2570034.295069595 12165462.28006783 0 0 0 0 0 138699917.4881656 3498079.313189351 3498079.313189351 11924145.19247626 0 0 0 0 0 135980365.8903969 4152350.432529544 4152350.432529544 9815674.862736858 0 0 0 0 0 137897858.956189 2890385.709388635 2890385.709388635 10442518.57361011 0 0 0 0 0 134617803.2288465 4780164.647562265 4780164.647562265 9673637.329925846 0 0 0 0 0 133301971.6387752 5305879.253245447 5305879.253245447 9540690.700151099 0 0 0 0 0 132038910.8651109 5744951.922928522 5744951.922928522 9416004.392734772 0 0 0 0 0 130828372.662297 6107519.616384233 6107519.616384233 9295163.570728788 0 0 0 0 0 129668105.0190835 6404619.134350293 6404619.134350293 9178446.143896561 0 0 0 0 0 128558174.6838285 6645284.096888854 6645284.096888854 9064049.60155816 0 0 0 0 0 127783452.8396592 6095118.596742782 6095118.596742782 7774590.545585719 0 0 0 0 0 126963684.4362332 6587727.159176611 6587727.159176611 7551013.167960289 0 0 0 0 0 126005569.4286645 6739064.815868942 6739064.815868942 7484925.294339433 0 0 0 0 0 125085524.5678189 6854926.699232963 6854926.699232963 7420199.618306696 0 0 0 0 0 124200720.8884139 6941615.845781732 6941615.845781732 7362788.257749274 0 0 0 0 0 123357025.661622 7002555.385488275 7002555.385488275 7304007.190674447 0 0 0 0 0 122547682.3323219 7040197.807902384 7040197.807902384 7244138.801660482 0 0 0 0 0 121905412.6926697 6589853.803389139 6589853.803389139 6197524.438490572 0 0 0 0 0 121486493.5792281 6817941.296015146 6817941.296015146 6110471.746365 0 0 0 0 0 120776092.449779 6825192.79711737 6825192.79711737 6079972.329213468 0 0 0 0 0 119934452.8108736 6169978.07320365 6169978.07320365 4159937.606549283 0 0 0 0 0 119297217.2932431 6186027.437577424 6186027.437577424 4198345.853922996 0 0 0 0 0 118464113.5237106 5945422.724580235 5945422.724580235 3375777.746984381 0 0 0 0 0 118981475.3038548 6308130.566586453 6308130.566586453 4218752.903242401 0 0 0 0 0 117893224.4427459 5943509.548276523 5943509.548276523 3425556.666673694 0 0 0 0 0 117345242.6291359 5931336.290391557 5931336.290391557 3469283.633877943 0 0 0 0 0 116818977.2952325 5910074.362284631 5910074.362284631 3507410.781331349 0 0 0 0 0 116313215.3706846 5880755.413537618 5880755.413537618 3540467.973234691 0 0 0 0 0 115684058.7076278 5632334.640146209 5632334.640146209 2877387.277404699 0 0 0 0 0 116122346.0076019 5935833.298851805 5935833.298851805 3577304.414703475 0 0 0 0 0 115230678.9095806 5598748.877272533 5598748.877272533 2920953.139343743 0 0 0 0 0 114793420.968549 5560028.803088884 5560028.803088884 2961719.170876683 0 0 0 0 0 114372620.9749064 5516598.33414335 5516598.33414335 2997594.064038352 0 0 0 0 0 113967592.2880786 5469098.482845845 5469098.482845845 3028852.189534008 0 0 0 0 0 113577750.5975291 5418074.634495676 5418074.634495676 3055923.591564855 0 0 0 0 0 113469322.923982 5434042.444616951 5434042.444616951 3095348.136685125 0 0 0 0 0 112759726.2537977 5139488.774055328 5139488.774055328 2568721.403846988 0 0 0 0 0 113105045.0474759 5377154.929541998 5377154.929541998 3114214.383272646 0 0 0 0 0 112418582.1609158 5087380.972586436 5087380.972586436 2600453.40698644 0 0 0 0 0 112089707.372027 5033122.481040702 5033122.481040702 2627769.025552443 0 0 0 0 0 111772510.6860227 4977136.586152367 4977136.586152367 2651677.308593233 0 0 0 0 0 111466318.1924685 4919796.91394652 4919796.91394652 2672680.369614348 0 0 0 0 0 111113609.4851483 4717046.371773681 4717046.371773681 2251172.29141245 0 0 0 0 0 111405160.2354153 4916958.175437778 4916958.175437778 2708795.193910701 0 0 0 0 0 110830676.3619529 4661786.993348839 4661786.993348839 2277038.805571988 0 0 0 0 0 110560268.9287576 4606231.028226681 4606231.028226681 2302370.202277712 0 0 0 0 0 110312862.887896 4559786.496042772 4559786.496042772 2322061.885107398 0 0 0 0 0 110111480.7435635 4481532.141404465 4481532.141404465 2265978.324457196 0 0 0 0 0 109910858.2897389 4387933.464428629 4387933.464428629 2175195.337088891 0 0 0 0 0 120186499.47438 6412652.879941162 6412652.879941162 5122351.231536163 0 0 0 0 0 185872846.5183042 -75243339.241979 -75243339.241979 31520217.42591874 0 0 0 0 0 176813319.5574626 -53638190.38056692 -53638190.38056692 28455956.88640165 0 0 0 0 0 196234047.8071828 -69495445.19043754 -69495445.19043754 37029564.11540808 0 0 0 0 0 173511891.8630998 -34222820.35081046 -34222820.35081046 26045460.59326047 0 0 0 0 0 172813499.8953135 -43925512.57336947 -43925512.57336947 26036247.88842995 0 0 0 0 0 170700282.4116912 -35507346.47838993 -35507346.47838993 24133181.35203776 0 0 0 0 0 170139322.8925732 -27543936.19079085 -27543936.19079085 23854126.94172807 0 0 0 0 0 166791034.7137293 -21922213.08531239 -21922213.08531239 22082874.91159195 0 0 0 0 0 163538283.7298475 -17195967.14610204 -17195967.14610204 20645920.14323109 0 0 0 0 0 160409473.1680688 -13213645.06678152 -13213645.06678152 19467690.69147104 0 0 0 0 0 157419866.9941988 -9853563.734223826 -9853563.734223826 18489781.41015392 0 0 0 0 0 154580237.6581131 -7015218.455731236 -7015218.455731236 17665559.34424736 0 0 0 0 0 151883737.5165062 -4617516.981809827 -4617516.981809827 16963295.25841427 0 0 0 0 0 149338148.4752217 -2590977.927851189 -2590977.927851189 16351077.70543525 0 0 0 0 0 145676686.857241 -17077.30471709642 -17077.30471709642 14927509.14933514 0 0 0 0 0 144949287.1905859 -580752.4428367731 -580752.4428367731 13534575.43723662 0 0 0 0 0 142927013.4051119 772924.1812941122 772924.1812941122 13129928.714879 0 0 0 0 0 141007548.4934579 1919154.402429014 1919154.402429014 12773719.33127926 0 0 0 0 0 139187357.6179272 2887960.995683318 2887960.995683318 12455204.70990548 0 0 0 0 0 136319009.9538206 3665964.149065351 3665964.149065351 10227157.5681904 0 0 0 0 0 137148419.5994625 4279205.186705559 4279205.186705559 11701023.89073336 0 0 0 0 0 134814969.7326674 4320462.052493446 4320462.052493446 10033675.85937978 0 0 0 0 0 133384578.3810127 4870158.12079106 4870158.12079106 9856684.811273916 0 0 0 0 0 132025370.0685219 5330495.293376018 5330495.293376018 9694429.761420444 0 0 0 0 0 130733977.5131004 5712443.700102403 5712443.700102403 9540995.653431887 0 0 0 0 0 129507900.0245882 6027245.967830141 6027245.967830141 9396412.07375128 0 0 0 0 0 128343685.9753554 6283822.900701054 6283822.900701054 9258204.816052264 0 0 0 0 0 127498172.7518828 6834610.500497063 6834610.500497063 8947635.413316084 0 0 0 0 0 126739673.8451404 6299842.752407744 6299842.752407744 7696421.064594097 0 0 0 0 0 125743238.753766 6460232.45324746 6460232.45324746 7616218.088999348 0 0 0 0 0 124792701.5825187 6585440.137196495 6585440.137196495 7535277.001489225 0 0 0 0 0 123891298.6797552 6682151.578166648 6682151.578166648 7460760.800309652 0 0 0 0 0 123027983.4615341 6751563.699505559 6751563.699505559 7391588.503582538 0 0 0 0 0 122204085.8835067 6796752.05970236 6796752.05970236 7322869.944270031 0 0 0 0 0 121778113.814858 7057607.655707902 7057607.655707902 7179283.845485684 0 0 0 0 0 121151050.6530094 6619770.910945961 6619770.910945961 6164704.863565441 0 0 0 0 0 120430807.9188467 6632072.318189902 6632072.318189902 6128475.114679411 0 0 0 0 0 119849286.3497669 6573051.69845779 6573051.69845779 5096184.938116639 0 0 0 0 0 119216356.5262756 6562379.583872668 6562379.583872668 5097240.621906427 0 0 0 0 0 118398629.0937542 6296483.535942511 6296483.535942511 4243979.380631385 0 0 0 0 0 118680781.0007775 6187718.232349716 6187718.232349716 4225947.58835337 0 0 0 0 0 117836912.8199918 6273988.181766116 6273988.181766116 4262475.023245641 0 0 0 0 0 117296433.4352896 6242269.558259529 6242269.558259529 4275562.062541128 0 0 0 0 0 116777038.760627 6202843.617124044 6202843.617124044 4284204.327557816 0 0 0 0 0 116277191.4403474 6156961.935918909 6156961.935918909 4288848.918362297 0 0 0 0 0 115656203.8601667 5893180.512236482 5893180.512236482 3599168.515507784 0 0 0 0 0 115827379.1561141 5844861.884603566 5844861.884603566 3568561.196111164 0 0 0 0 0 115205588.7444176 5845071.533129796 5845071.533129796 3618080.252933003 0 0 0 0 0 114772429.7491067 5792888.284661262 5792888.284661262 3633424.918972381 0 0 0 0 0 114355385.597874 5736919.263027712 5736919.263027712 3644976.193610837 0 0 0 0 0 113953833.6521888 5677685.004707854 5677685.004707854 3652949.915165279 0 0 0 0 0 113567090.1528598 5615696.726226877 5615696.726226877 3657627.202504596 0 0 0 0 0 113202467.9445996 5364086.853997624 5364086.853997624 3079078.049995019 0 0 0 0 0 112753704.0106312 5318003.165469276 5318003.165469276 3129566.201960728 0 0 0 0 0 112841116.0840421 5307513.565759443 5307513.565759443 3098499.720329262 0 0 0 0 0 112415039.3175636 5256982.741360013 5256982.741360013 3141282.249201305 0 0 0 0 0 112088241.4574757 5194421.0613365 5194421.0613365 3150038.843417431 0 0 0 0 0 111772749.1973582 5130625.784401498 5130625.784401498 3156457.501743982 0 0 0 0 0 111468149.9562099 5065943.225575977 5065943.225575977 3160639.905855684 0 0 0 0 0 111116369.6298563 4856966.166536693 4856966.166536693 2722710.44235537 0 0 0 0 0 111170191.3442294 4861032.077797523 4861032.077797523 2690569.261206691 0 0 0 0 0 110835694.5893116 4794633.264128694 4794633.264128694 2735372.27649009 0 0 0 0 0 110586209.5100973 4748000.144504345 4748000.144504345 2749055.2167443 0 0 0 0 0 110353704.6603106 4657285.734337864 4657285.734337864 2606702.672162226 0 0 0 0 0 110164543.3958087 4565689.935880191 4565689.935880191 2473201.075877952 0 0 0 0 0 120095449.5891756 6817536.124762702 6817536.124762702 6046227.964674457 0 0 0 0 0 210510480.3283458 -79330829.00539242 -79330829.00539242 38007853.50889082 0 0 0 0 0 190946717.079751 -57409054.61913569 -57409054.61913569 34550071.53006124 0 0 0 0 0 186108431.0631306 -60270557.7466879 -60270557.7466879 28579564.41038154 0 0 0 0 0 168356967.9884787 -28336869.43080752 -28336869.43080752 22718647.03535283 0 0 0 0 0 185772745.7304649 -47024424.65958421 -47024424.65958421 31266884.22425086 0 0 0 0 0 181230491.0759673 -37928966.65576785 -37928966.65576785 28273620.20397578 0 0 0 0 0 165748212.7452416 -22342600.67653165 -22342600.67653165 21587019.37858966 0 0 0 0 0 163045120.9827344 -17332239.79860608 -17332239.79860608 20653336.77654671 0 0 0 0 0 160333233.4063134 -13131765.02605404 -13131765.02605404 19867182.75988064 0 0 0 0 0 157658655.8202974 -9605361.292673966 -9605361.292673966 19191036.48306054 0 0 0 0 0 155051800.149496 -6641971.793802134 -6641971.793802134 18598529.04796753 0 0 0 0 0 152533216.9669783 -4149424.368952334 -4149424.368952334 18068758.79869596 0 0 0 0 0 150116852.4223382 -2053381.216456812 -2053381.216456812 17586501.7054978 0 0 0 0 0 147805524.9380299 -291862.2919754857 -291862.2919754857 17142926.12001317 0 0 0 0 0 146937500.6159889 -878271.3287796151 -878271.3287796151 15815558.45713961 0 0 0 0 0 143730207.6775827 1369548.126616479 1369548.126616479 14568403.8838829 0 0 0 0 0 141863299.4309736 2537212.070823941 2537212.070823941 14238189.40312281 0 0 0 0 0 140077955.5083531 3518798.451423564 3518798.451423564 13931318.59585624 0 0 0 0 0 138373852.5532885 4340937.468574725 4340937.468574725 13641388.55177547 0 0 0 0 0 135660135.1685381 4934145.825612839 4934145.825612839 11492048.55016417 0 0 0 0 0 137463808.6285531 3705019.365990404 3705019.365990404 12166589.45847589 0 0 0 0 0 134236850.2275355 5480220.511176852 5480220.511176852 11293708.38397388 0 0 0 0 0 132875806.1213612 5932961.793262662 5932961.793262662 11104184.33392112 0 0 0 0 0 131577447.6022466 6305287.28757451 6305287.28757451 10921083.09737906 0 0 0 0 0 130339328.8823678 6608150.614884228 6608150.614884228 10743425.34065352 0 0 0 0 0 129159881.8165459 6851282.464143866 6851282.464143866 10569757.52945105 0 0 0 0 0 128037510.264745 7041282.376498206 7041282.376498206 10397519.76000609 0 0 0 0 0 127241559.1245532 6490274.917508805 6490274.917508805 9123686.41333124 0 0 0 0 0 126487344.3785857 6982812.049251492 6982812.049251492 8829424.094148345 0 0 0 0 0 125520316.1341648 7094434.971885736 7094434.971885736 8713232.813550832 0 0 0 0 0 124596932.1280006 7174757.768338044 7174757.768338044 8602479.163492182 0 0 0 0 0 123711232.5939369 7228107.516231628 7228107.516231628 8497651.406826053 0 0 0 0 0 122867152.7544518 7258647.369752257 7258647.369752257 8392164.750451386 0 0 0 0 0 122061100.1332925 7268701.733749815 7268701.733749815 8288157.292188511 0 0 0 0 0 121415822.2302128 6820481.057722747 6820481.057722747 7252451.65350925 0 0 0 0 0 121040006.6359203 7056395.520213682 7056395.520213682 7110492.12321547 0 0 0 0 0 120333902.8533001 7039954.353926085 7039954.353926085 7038931.78732408 0 0 0 0 0 119524183.4495881 6418458.107070093 6418458.107070093 5120841.467737924 0 0 0 0 0 118890072.2131258 6411394.633333961 6411394.633333961 5118767.515923209 0 0 0 0 0 118089481.3526591 6176916.540322557 6176916.540322557 4250478.738495952 0 0 0 0 0 118610928.8920739 6540859.519465897 6540859.519465897 5093916.914676995 0 0 0 0 0 117523575.4330177 6155682.819848276 6155682.819848276 4267849.331955618 0 0 0 0 0 116981394.3341053 6125545.593774329 6125545.593774329 4279422.448228989 0 0 0 0 0 116461075.985118 6087744.078280016 6087744.078280016 4286822.889470121 0 0 0 0 0 115961765.0910015 6043466.889142903 6043466.889142903 4290460.166241388 0 0 0 0 0 115360006.6528626 5802502.676759448 5802502.676759448 3591515.290120095 0 0 0 0 0 115796980.9707205 6105257.702042663 6105257.702042663 4289582.213528773 0 0 0 0 0 114912256.1743687 5755366.403549207 5755366.403549207 3608913.515342958 0 0 0 0 0 114481118.4653805 5704000.394934778 5704000.394934778 3624148.582909747 0 0 0 0 0 114066511.8309096 5648873.26421895 5648873.26421895 3635717.017633465 0 0 0 0 0 113667846.8008335 5590515.515915846 5590515.515915846 3643784.483831828 0 0 0 0 0 113284385.9004864 5529452.549720604 5529452.549720604 3648607.173656656 0 0 0 0 0 113194569.5131522 5551398.109452112 5551398.109452112 3659117.683485393 0 0 0 0 0 112493156.7273429 5248763.99780581 5248763.99780581 3114430.249504534 0 0 0 0 0 112835701.1876342 5485140.978966297 5485140.978966297 3657619.218853975 0 0 0 0 0 112157642.1174261 5188029.710363522 5188029.710363522 3126850.982536154 0 0 0 0 0 111834395.3999647 5125849.827653831 5125849.827653831 3136209.775297407 0 0 0 0 0 111522944.1576125 5062657.503642277 5062657.503642277 3142885.430107613 0 0 0 0 0 111222579.9295633 4998783.330983 4998783.330983 3147468.038514927 0 0 0 0 0 110882809.6448289 4800404.336315414 4800404.336315414 2705254.830608069 0 0 0 0 0 111173766.7333689 5000359.337384575 5000359.337384575 3163775.543755756 0 0 0 0 0 110595606.7959069 4736166.035000221 4736166.035000221 2715721.08573691 0 0 0 0 0 110324338.270574 4679483.663437644 4679483.663437644 2754467.625138198 0 0 0 0 0 110101216.1024652 4603716.562915375 4603716.562915375 2711123.133937433 0 0 0 0 0 109884655.522826 4512964.808451534 4512964.808451534 2606704.820056187 0 0 0 0 0 119743150.7374558 6629182.54084758 6629182.54084758 6089467.582094247 0 0 0 0 0 201831765.5950319 -74576819.36121051 -74576819.36121051 29121602.74917854 0 0 0 0 0 182696658.322453 -49122653.678896 -49122653.678896 26450869.82224707 0 0 0 0 0 199054617.734172 -62350823.06549737 -62350823.06549737 32922196.55319137 0 0 0 0 0 176787291.4077555 -30420081.42619321 -30420081.42619321 26141318.60571929 0 0 0 0 0 178851065.8378245 -39377163.19611562 -39377163.19611562 25236242.29834639 0 0 0 0 0 175404234.4631461 -31285591.78635009 -31285591.78635009 24288721.76932442 0 0 0 0 0 172511474.8742555 -24177595.64246925 -24177595.64246925 24450557.2113244 0 0 0 0 0 168474868.0305029 -18965513.39664067 -18965513.39664067 23061131.49633238 0 0 0 0 0 164679929.5823915 -14601089.44792804 -14601089.44792804 21904781.10078248 0 0 0 0 0 161123155.3705115 -10938839.74933767 -10938839.74933767 20925613.2259004 0 0 0 0 0 157795280.4932992 -7861309.731225757 -7861309.731225757 20083218.48786225 0 0 0 0 0 154687732.6965621 -5271351.391627921 -5271351.391627921 19346758.66546019 0 0 0 0 0 151783270.8702812 -3092525.207240812 -3092525.207240812 18693143.19081013 0 0 0 0 0 149074908.3269365 -1258583.587358183 -1258583.587358183 18104894.4251634 0 0 0 0 0 145605493.6103196 1187595.594429027 1187595.594429027 16730893.63317675 0 0 0 0 0 144678479.1019179 568425.0394469734 568425.0394469734 15339175.98826935 0 0 0 0 0 142551655.7978922 1788146.116689706 1788146.116689706 14911255.64280748 0 0 0 0 0 140549303.4840046 2814977.080465637 2814977.080465637 14521652.167206 0 0 0 0 0 138666868.0628937 3677907.229330292 3677907.229330292 14161498.76422116 0 0 0 0 0 135832732.6260121 4391857.449436736 4391857.449436736 11901697.8872314 0 0 0 0 0 136750769.8248553 5027221.146569898 5027221.146569898 13365475.10812314 0 0 0 0 0 134289788.7497208 4966530.067105518 4966530.067105518 11655339.71368409 0 0 0 0 0 132830627.065961 5444956.406944609 5444956.406944609 11424832.51109392 0 0 0 0 0 131451094.717625 5840425.988937936 5840425.988937936 11206625.45921395 0 0 0 0 0 130146964.2309182 6164818.846657009 6164818.846657009 10998493.07315537 0 0 0 0 0 128914676.9164546 6427944.345989472 6427944.345989472 10798542.32295009 0 0 0 0 0 127748597.3704871 6637741.058507971 6637741.058507971 10606237.8696083 0 0 0 0 0 126970843.8424246 7188129.619248676 7188129.619248676 10224500.07965092 0 0 0 0 0 126192638.0214643 6650352.264047375 6650352.264047375 8989655.286472153 0 0 0 0 0 125195634.5924591 6774070.4889311 6774070.4889311 8856673.003830435 0 0 0 0 0 124248649.659208 6866149.972113642 6866149.972113642 8728099.168600654 0 0 0 0 0 123351476.135991 6931189.151312475 6931189.151312475 8607866.188499818 0 0 0 0 0 122494720.1771686 6971818.559622747 6971818.559622747 8493671.38872385 0 0 0 0 0 121679182.6278854 6991437.379579036 6991437.379579036 8379026.933661298 0 0 0 0 0 121296671.4018007 7261284.136645813 7261284.136645813 8180127.166063825 0 0 0 0 0 120668614.1687639 6826345.839418714 6826345.839418714 7177189.247582856 0 0 0 0 0 119956788.4596612 6816747.981848073 6816747.981848073 7100343.864340738 0 0 0 0 0 119442664.746993 6797089.064022546 6797089.064022546 6012494.131425885 0 0 0 0 0 118814234.4956701 6765579.091883364 6765579.091883364 5977225.936421067 0 0 0 0 0 118030591.5730936 6508730.956905549 6508730.956905549 5084722.213126957 0 0 0 0 0 118279071.104336 6392255.419213246 6392255.419213246 5113395.493044079 0 0 0 0 0 117473071.3885198 6467466.517225366 6467466.517225366 5069752.69780694 0 0 0 0 0 116937709.0508597 6418839.536080147 6418839.536080147 5051483.965359589 0 0 0 0 0 116423682.6070316 6364002.662292421 6364002.662292421 5030319.034946829 0 0 0 0 0 115930150.6996548 6303842.91069 6303842.91069 5006181.737242267 0 0 0 0 0 115335761.6837084 6048488.735808958 6048488.735808958 4284474.022000298 0 0 0 0 0 115482698.9986921 5993531.800941428 5993531.800941428 4290310.120269409 0 0 0 0 0 114891065.042646 5987746.291707885 5987746.291707885 4277927.949051006 0 0 0 0 0 114463692.5029624 5923682.283948347 5923682.283948347 4268724.52453956 0 0 0 0 0 114052569.6721029 5856650.77609993 5856650.77609993 4256739.115658973 0 0 0 0 0 113657050.0065292 5787207.910522435 5787207.910522435 4242228.773422079 0 0 0 0 0 113276459.6762268 5715769.480773957 5715769.480773957 4225328.938504261 0 0 0 0 0 112915501.4937935 5466103.065560149 5466103.065560149 3650433.052240169 0 0 0 0 0 112489804.1384503 5417300.068958411 5417300.068958411 3653532.395802549 0 0 0 0 0 112560525.9812844 5400832.271763255 5400832.271763255 3649296.85678144 0 0 0 0 0 112156422.371817 5348157.294547394 5348157.294547394 3647041.134910686 0 0 0 0 0 111834969.4116598 5278084.094578118 5278084.094578118 3638406.247833857 0 0 0 0 0 111524947.2521703 5207542.149496835 5207542.149496835 3627670.084462037 0 0 0 0 0 111225513.9048314 5136997.436957314 5136997.436957314 3615023.322919552 0 0 0 0 0 110887628.0504841 4934612.773588993 4934612.773588993 3167171.104636229 0 0 0 0 0 110932346.2639361 4934858.173977275 4934858.173977275 3150451.621595177 0 0 0 0 0 110599032.0083292 4872234.63914381 4872234.63914381 3184624.911359516 0 0 0 0 0 110374280.2134568 4798878.927928283 4798878.927928283 3032136.377687864 0 0 0 0 0 110141723.9367282 4696434.466806166 4696434.466806166 2903022.46506245 0 0 0 0 0 119658964.5310652 7010700.919178779 7010700.919178779 6966731.453066351 0 0 0 0 0 226400383.8000104 -77168329.57774627 -77168329.57774627 33646054.06406227 0 0 0 0 0 209577850.777266 -63477217.15555797 -63477217.15555797 31211917.16150073 0 0 0 0 0 195321731.3669496 -51001126.91807298 -51001126.91807298 30732182.65440061 0 0 0 0 0 193778787.005584 -52749590.48736355 -52749590.48736355 26134499.39993792 0 0 0 0 0 171854401.1102865 -24625404.88463815 -24625404.88463815 23429684.23372487 0 0 0 0 0 190142018.276499 -41565420.72341232 -41565420.72341232 29418214.42826176 0 0 0 0 0 184342236.9491824 -33344964.91836473 -33344964.91836473 27818354.03203632 0 0 0 0 0 168328794.0180764 -19106666.70954191 -19106666.70954191 22673054.00802187 0 0 0 0 0 164913938.554584 -14511073.98387457 -14511073.98387457 21999312.30693782 0 0 0 0 0 161637347.5186625 -10674524.4393176 -10674524.4393176 21390955.21240349 0 0 0 0 0 158514417.7711748 -7466406.247616807 -7466406.247616807 20831690.40516943 0 0 0 0 0 155552140.0251943 -4780266.639728406 -4780266.639728406 20309678.87609306 0 0 0 0 0 152750207.6254437 -2531184.761471552 -2531184.761471552 19816736.20217273 0 0 0 0 0 150110231.6013298 -647756.9877498779 -647756.9877498779 19345884.86733244 0 0 0 0 0 147624155.5568294 927919.7901829437 927919.7901829437 18894554.53359915 0 0 0 0 0 146548994.7432574 284519.0604513778 284519.0604513778 17570045.64643759 0 0 0 0 0 143517101.0448372 2428196.176503684 2428196.176503684 16341881.97848773 0 0 0 0 0 141537032.5081306 3466993.638628597 3466993.638628597 15974564.72944637 0 0 0 0 0 139664962.8085123 4334579.162008995 4334579.162008995 15620848.17022498 0 0 0 0 0 137892853.7116587 5055494.565036565 5055494.565036565 15280485.15188599 0 0 0 0 0 135206918.3284037 5596894.946464465 5596894.946464465 13100903.22309886 0 0 0 0 0 136896609.2485892 4400537.72462367 4400537.72462367 13825852.31507557 0 0 0 0 0 133740002.9825365 6066901.715121339 6066901.715121339 12846102.4481626 0 0 0 0 0 132347239.0619764 6451217.648836248 6451217.648836248 12599111.20651184 0 0 0 0 0 131025420.3249659 6762285.303769035 6762285.303769035 12358589.68914839 0 0 0 0 0 129772227.8710269 7010480.471929375 7010480.471929375 12124956.80095394 0 0 0 0 0 128582095.28843 7203114.598265907 7203114.598265907 11894216.46050493 0 0 0 0 0 127458206.4610792 7350946.007226869 7350946.007226869 11663849.96530364 0 0 0 0 0 126645834.4477675 6799824.734085504 6799824.734085504 10415314.31277994 0 0 0 0 0 125953892.822956 7296942.074354867 7296942.074354867 10056096.66378252 0 0 0 0 0 124985353.7217812 7373301.92318406 7373301.92318406 9892481.113778478 0 0 0 0 0 124064079.744068 7421746.267340805 7421746.267340805 9734217.634172842 0 0 0 0 0 123182797.1957636 7446138.335708627 7446138.335708627 9582041.509123102 0 0 0 0 0 122344254.5196806 7449949.58398577 7449949.58398577 9432003.947010264 0 0 0 0 0 121545268.1987336 7436090.481168432 7436090.481168432 9285619.110708412 0 0 0 0 0 120900646.7254206 6992199.504992892 6992199.504992892 8266227.71180219 0 0 0 0 0 120564952.882189 7237526.118683556 7237526.118683556 8069534.070827501 0 0 0 0 0 119866070.8205255 7200458.566008179 7200458.566008179 7958513.655268398 0 0 0 0 0 119087198.9424439 6613553.416947687 6613553.416947687 6049472.290624284 0 0 0 0 0 118460402.3997305 6587269.616113193 6587269.616113193 6010599.483109822 0 0 0 0 0 117694153.8037383 6362846.941048359 6362846.941048359 5102484.161419135 0 0 0 0 0 118214021.989763 6724675.359749988 6724675.359749988 5939314.635913492 0 0 0 0 0 117135697.8829428 6324628.770135888 6324628.770135888 5086050.396888245 0 0 0 0 0 116600981.0062531 6278974.419010381 6278974.419010381 5065824.358227227 0 0 0 0 0 116088252.6164435 6226874.343528531 6226874.343528531 5043006.644228997 0 0 0 0 0 115596829.3904407 6169378.241779181 6169378.241779181 5017770.292198831 0 0 0 0 0 115022447.1456721 5938273.776618286 5938273.776618286 4285941.855934468 0 0 0 0 0 115456235.6439216 6239014.740576492 6239014.740576492 4979222.665605221 0 0 0 0 0 114581721.3874679 5879266.255118035 5879266.255118035 4277743.473808252 0 0 0 0 0 114157754.7104118 5816914.185830283 5816914.185830283 4268049.626193056 0 0 0 0 0 113750517.4862968 5751609.012789073 5751609.012789073 4255808.053242707 0 0 0 0 0 113359137.5936662 5683859.998255728 5683859.998255728 4241144.263052518 0 0 0 0 0 112982956.7813113 5614094.424140338 5614094.424140338 4224228.842103469 0 0 0 0 0 112910148.3846382 5642694.491057955 5642694.491057955 4206127.766829751 0 0 0 0 0 112218858.7004585 5333995.996266025 5333995.996266025 3645497.369851954 0 0 0 0 0 112557524.3736504 5568333.633631356 5568333.633631356 4184985.340316441 0 0 0 0 0 111889779.8386973 5265953.488462146 5265953.488462146 3639255.198630451 0 0 0 0 0 111572959.4958987 5196987.881380115 5196987.881380115 3630835.098620897 0 0 0 0 0 111268104.5366497 5127437.547998806 5127437.547998806 3620632.625747147 0 0 0 0 0 110974658.7158629 5057953.184188608 5057953.184188608 3608537.9738495 0 0 0 0 0 110654507.1987594 4872592.291139711 4872592.291139711 3153521.523562483 0 0 0 0 0 110936040.937593 5067039.581797684 5067039.581797684 3600956.936029618 0 0 0 0 0 110413705.7008689 4820163.515356474 4820163.515356474 3156388.421815605 0 0 0 0 0 110063915.6498284 4723154.059387977 4723154.059387977 3221111.46503399 0 0 0 0 0 109847858.4728835 4621698.319309779 4621698.319309779 3039911.828937962 0 0 0 0 0 119278318.3490304 6793972.748173141 6793972.748173141 7022412.689213449 0 0 0 0 0 213546296.767435 -71175089.07121599 -71175089.07121599 24763915.79928549 0 0 0 0 0 202372093.1290879 -60125940.85912924 -60125940.85912924 26024844.9500663 0 0 0 0 0 188587257.215443 -42859376.09975533 -42859376.09975533 26034530.81127127 0 0 0 0 0 209535743.4320534 -55429812.73386397 -55429812.73386397 31589804.44272932 0 0 0 0 0 178952927.2549816 -26506733.68441938 -26506733.68441938 26405144.04498518 0 0 0 0 0 183718346.6164276 -34125021.09397566 -34125021.09397566 25455645.69043458 0 0 0 0 0 178884522.7678278 -26915434.51475674 -26915434.51475674 24892215.23163423 0 0 0 0 0 173988231.4060592 -20815020.69468658 -20815020.69468658 25186280.5126116 0 0 0 0 0 169415362.5948511 -16069134.55254803 -16069134.55254803 24133787.29247593 0 0 0 0 0 165201077.7233397 -12103905.34365599 -12103905.34365599 23214105.42003122 0 0 0 0 0 161316035.0161652 -8785426.843541712 -8785426.843541712 22398308.35780285 0 0 0 0 0 157733874.9769641 -6004023.59152187 -6004023.59152187 21663203.01675103 0 0 0 0 0 154427800.3301015 -3671591.820243279 -3671591.820243279 20993064.39594102 0 0 0 0 0 151372882.579264 -1714979.56059096 -1714979.56059096 20373829.17008687 0 0 0 0 0 148549133.7092294 -73953.30492039448 -73953.30492039448 19796374.6372321 0 0 0 0 0 145288419.5929775 2244462.713227795 2244462.713227795 18456944.03106642 0 0 0 0 0 144193943.3028967 1581832.687148645 1581832.687148645 17078930.89400511 0 0 0 0 0 141993109.5418424 2670822.137822767 2670822.137822767 16621959.84853923 0 0 0 0 0 139935591.8257533 3583091.727666596 3583091.727666596 16195730.26628879 0 0 0 0 0 138013306.0110378 4344384.421378474 4344384.421378474 15791842.28659797 0 0 0 0 0 135231335.6331526 5002947.136040229 5002947.136040229 13509964.24480986 0 0 0 0 0 136217704.7823884 5651586.607591598 5651586.607591598 14950793.38134742 0 0 0 0 0 133664137.2169813 5502609.22034737 5502609.22034737 13211090.08003412 0 0 0 0 0 132189609.4726869 5914274.72025324 5914274.72025324 12925958.50431556 0 0 0 0 0 130801481.8089713 6250371.52220718 6250371.52220718 12652638.51338757 0 0 0 0 0 129492249.4056799 6521435.378619207 6521435.378619207 12390490.87883579 0 0 0 0 0 128260464.0022455 6736889.611285198 6736889.611285198 12137408.54203122 0 0 0 0 0 127100171.902481 6903720.59666606 6903720.59666606 11888186.99368944 0 0 0 0 0 126387358.335844 7458331.233384318 7458331.233384318 11440229.28547753 0 0 0 0 0 125599751.4947365 6923657.55936984 6923657.55936984 10227880.40373729 0 0 0 0 0 124608471.0083084 7014159.830298007 7014159.830298007 10047592.42260574 0 0 0 0 0 123669698.815266 7076119.376970761 7076119.376970761 9873813.067957003 0 0 0 0 0 122782422.3923994 7113836.143554137 7113836.143554137 9706223.2204732 0 0 0 0 0 121937041.1909821 7129964.734778554 7129964.734778554 9545886.95199641 0 0 0 0 0 121130525.1887466 7126657.626706566 7126657.626706566 9389185.858465096 0 0 0 0 0 120788306.5762184 7406648.702686401 7406648.702686401 9135659.740048962 0 0 0 0 0 120163784.8215582 6977184.502478672 6977184.502478672 8150257.569389665 0 0 0 0 0 119463167.2633107 6948569.977594091 6948569.977594091 8033164.742779651 0 0 0 0 0 119012409.943947 6970730.351268626 6970730.351268626 6896526.970790913 0 0 0 0 0 118391532.5371849 6921207.07025961 6921207.07025961 6825623.785360218 0 0 0 0 0 117640274.018346 6675248.164259847 6675248.164259847 5896023.730050467 0 0 0 0 0 117858233.276346 6550786.63839773 6550786.63839773 5969003.647469541 0 0 0 0 0 117089679.3014864 6618270.990189184 6618270.990189184 5849456.504993357 0 0 0 0 0 116561259.0977985 6555150.672618217 6555150.672618217 5800953.696741704 0 0 0 0 0 116054568.7712082 6486931.775970537 6486931.775970537 5750641.267541848 0 0 0 0 0 115568726.4608316 6414387.632347926 6414387.632347926 5698406.109603225 0 0 0 0 0 115001524.8087186 6170050.935524549 6170050.935524549 4948243.6117943 0 0 0 0 0 115126004.8063211 6107300.408876571 6107300.408876571 4989849.207621272 0 0 0 0 0 114563861.1771681 6098287.51913808 6098287.51913808 4916997.183649722 0 0 0 0 0 114143348.9518695 6023828.561101992 6023828.561101992 4883609.494393203 0 0 0 0 0 113739242.5236915 5947302.188528811 5947302.188528811 4848750.661223589 0 0 0 0 0 113350706.4225067 5869040.24282415 5869040.24282415 4812296.189307559 0 0 0 0 0 112977124.3421753 5789470.611120838 5789470.611120838 4774386.395640789 0 0 0 0 0 112621282.0259923 5542699.959671083 5542699.959671083 4205126.036067293 0 0 0 0 0 112217764.8094064 5492977.664001523 5492977.664001523 4162175.043340938 0 0 0 0 0 112273424.7117272 5470013.931796948 5470013.931796948 4183963.080123511 0 0 0 0 0 111890529.1762709 5416914.568543087 5416914.568543087 4137786.179394678 0 0 0 0 0 111575243.5776146 5340383.962403946 5340383.962403946 4111803.834771488 0 0 0 0 0 111271394.780121 5263882.480639351 5263882.480639351 4083746.244369309 0 0 0 0 0 110978156.3945443 5188140.525112917 5188140.525112917 4053311.253166893 0 0 0 0 0 110667045.0425266 4993711.997712154 4993711.997712154 3606561.203980112 0 0 0 0 0 110691551.6270393 4989395.881298829 4989395.881298829 3595057.873992233 0 0 0 0 0 110329597.9384712 4923089.270442645 4923089.270442645 3632239.361341407 0 0 0 0 0 110108544.3976755 4802493.435256296 4802493.435256296 3321667.662115936 0 0 0 0 0 110252243.5548423 4880289.281051303 4880289.281051303 3425587.009749146 0 0 0 0 0 119199499.6477842 7152640.737759999 7152640.737759999 7848505.195838735 0 0 0 0 0 240124601.9260648 -72461044.36449583 -72461044.36449583 29751227.4816912 0 0 0 0 0 222227680.8427689 -62051446.79006401 -62051446.79006401 29565668.09935725 0 0 0 0 0 200636273.6635776 -45518423.54693493 -45518423.54693493 30685475.9263758 0 0 0 0 0 199770086.5792598 -46918524.56493592 -46918524.56493592 25608515.36335363 0 0 0 0 0 174338134.2409199 -20924144.59795465 -20924144.59795465 24382505.14880888 0 0 0 0 0 192868842.2717832 -36310274.78588135 -36310274.78588135 29126239.17069527 0 0 0 0 0 186169111.1576321 -28842368.00753429 -28842368.00753429 27941042.66186649 0 0 0 0 0 170068101.4415459 -15947972.67241039 -15947972.67241039 23893675.67775447 0 0 0 0 0 166075207.0637576 -11807507.22498083 -11807507.22498083 23412877.78157546 0 0 0 0 0 162345752.3953445 -8358143.251087296 -8358143.251087296 22935374.13256697 0 0 0 0 0 158867261.3706916 -5480960.623665725 -5480960.623665725 22458620.91288404 0 0 0 0 0 155626602.9428736 -3079937.170339454 -3079937.170339454 21982869.1601348 0 0 0 0 0 152608682.0878351 -1075642.298247423 -1075642.298247423 21508022.46990021 0 0 0 0 0 149800110.3488504 596615.8692738987 596615.8692738987 21034942.08579643 0 0 0 0 0 147186139.0654461 1990099.802786408 1990099.802786408 20562797.29060235 0 0 0 0 0 145936672.4083692 1301827.4249742 1301827.4249742 19254019.51174709 0 0 0 0 0 143090785.1508196 3342817.900398169 3342817.900398169 18031677.93792171 0 0 0 0 0 141027359.2272649 4257372.83017866 4257372.83017866 17620071.10624588 0 0 0 0 0 139090848.5789743 5015272.164555438 5015272.164555438 17218467.00585663 0 0 0 0 0 137272486.8138049 5640500.201262156 5640500.201262156 16826316.80596364 0 0 0 0 0 134634934.570912 6141565.059180631 6141565.059180631 14631439.3470936 0 0 0 0 0 136215083.6500643 4977367.320601637 4977367.320601637 15408136.77542007 0 0 0 0 0 133140596.2089195 6540882.592486925 6540882.592486925 14319913.04599432 0 0 0 0 0 131729275.7085789 6862770.102799648 6862770.102799648 14016347.83429573 0 0 0 0 0 130395893.9719086 7118810.632002795 7118810.632002795 13723304.80316594 0 0 0 0 0 129137938.2874506 7317482.455540705 7317482.455540705 13433081.21987382 0 0 0 0 0 127950840.8489162 7467785.949407144 7467785.949407144 13146333.5150274 0 0 0 0 0 126825885.5617475 7576373.951133882 7576373.951133882 12864502.955344 0 0 0 0 0 126004559.6570202 7030077.819921445 7030077.819921445 11642886.13523917 0 0 0 0 0 125371883.6519938 7532522.853243243 7532522.853243243 11225131.29926934 0 0 0 0 0 124408168.9745045 7577695.635864081 7577695.635864081 11014648.92802907 0 0 0 0 0 123494141.5751376 7598189.006909451 7598189.006909451 10809361.05645254 0 0 0 0 0 122621072.090749 7596841.408124829 7596841.408124829 10613485.96394816 0 0 0 0 0 121791023.6031761 7578235.176087212 7578235.176087212 10420809.04621228 0 0 0 0 0 121003114.6034271 7543870.379264607 7543870.379264607 10232237.25664316 0 0 0 0 0 120364423.6519132 7107295.956741761 7107295.956741761 9235883.116809627 0 0 0 0 0 120065804.9020577 7363157.795652986 7363157.795652986 8984587.943340171 0 0 0 0 0 119377260.0468249 7308756.497409558 7308756.497409558 8836137.374509422 0 0 0 0 0 118632235.6410249 6760289.86337225 6760289.86337225 6944825.951888537 0 0 0 0 0 118015252.8503385 6717178.911249144 6717178.911249144 6869975.421223265 0 0 0 0 0 117282219.7692644 6505314.348865983 6505314.348865983 5924845.804538261 0 0 0 0 0 117798918.5164436 6863948.231616883 6863948.231616883 6752776.806540277 0 0 0 0 0 116732397.0625899 6452301.00314068 6452301.00314068 5876514.329128611 0 0 0 0 0 116206700.7805022 6393070.159751934 6393070.159751934 5825832.525162279 0 0 0 0 0 115703254.1976198 6328734.462179076 6328734.462179076 5773706.854862193 0 0 0 0 0 115221147.6736179 6259910.675407817 6259910.675407817 5720196.007751839 0 0 0 0 0 114674174.1156127 6040988.418935833 6040988.418935833 4958768.710247729 0 0 0 0 0 115102542.9185978 6338208.337332018 6338208.337332018 5644473.793337407 0 0 0 0 0 114241349.9457866 5971750.899863236 5971750.899863236 4925879.284913098 0 0 0 0 0 113825758.1488744 5899923.104228739 5899923.104228739 4891809.501277844 0 0 0 0 0 113426602.8337552 5825891.61774219 5825891.61774219 4856393.380154384 0 0 0 0 0 113043385.0636413 5750131.414432245 5750131.414432245 4819514.935496625 0 0 0 0 0 112675258.3881072 5673009.398290883 5673009.398290883 4781309.413514727 0 0 0 0 0 112617821.8411472 5708915.414699717 5708915.414699717 4735228.072496335 0 0 0 0 0 111938696.5706088 5396352.719369242 5396352.719369242 4161120.118171697 0 0 0 0 0 112272028.0422968 5627679.809328813 5627679.809328813 4695059.716353463 0 0 0 0 0 111616528.8823839 5321947.144506288 5321947.144506288 4136781.476890305 0 0 0 0 0 111306533.0067106 5246986.820274528 5246986.820274528 4111031.984906394 0 0 0 0 0 111008609.6468812 5171534.930310316 5171534.930310316 4083644.983913412 0 0 0 0 0 110722005.2871271 5096312.927969567 5096312.927969567 4054380.012975113 0 0 0 0 0 110415424.9875284 4924332.771635563 4924332.771635563 3577645.156303432 0 0 0 0 0 110698030.1386267 5113180.607829183 5113180.607829183 4032350.913201323 0 0 0 0 0 110198551.1946161 4887415.405609331 4887415.405609331 3602061.047965354 0 0 0 0 0 109805645.59924 4729555.732197538 4729555.732197538 3490615.050099969 0 0 0 0 0 109984149.417307 4819807.998964244 4819807.998964244 3656868.168959783 0 0 0 0 0 118795677.5611995 6908437.35518306 6908437.35518306 7917204.471139246 0 0 0 0 0 228155996.2662412 -66838664.13394437 -66838664.13394437 21051540.37033121 0 0 0 0 0 214942689.9673041 -58588099.08267072 -58588099.08267072 23856144.6165003 0 0 0 0 0 193261153.4469198 -37062255.93200998 -37062255.93200998 25755296.70686506 0 0 0 0 0 210967331.4095725 -48616889.83901123 -48616889.83901123 29450094.87849175 0 0 0 0 0 180118684.5551071 -22679350.5576942 -22679350.5576942 26958324.52930071 0 0 0 0 0 186836748.550011 -29206962.15081331 -29206962.15081331 25789429.2408844 0 0 0 0 0 181104369.2619607 -22731832.43666188 -22731832.43666188 25681971.9020219 0 0 0 0 0 174644864.2465424 -17564429.24174417 -17564429.24174417 26085490.72516131 0 0 0 0 0 169677823.9721051 -13307735.75210202 -13307735.75210202 25293200.50456378 0 0 0 0 0 165159526.7943951 -9757402.689783808 -9757402.689783808 24558643.83910474 0 0 0 0 0 161042237.1118525 -6791360.28552404 -6791360.28552404 23868994.93611147 0 0 0 0 0 157282524.0035717 -4310776.111717904 -4310776.111717904 23214887.14254728 0 0 0 0 0 153842647.1165679 -2234871.348912674 -2234871.348912674 22590414.49379834 0 0 0 0 0 150689286.6333843 -497511.2621589664 -497511.2621589664 21990345.71346281 0 0 0 0 0 147793057.3550585 955517.2430911142 955517.2430911142 21412744.80700156 0 0 0 0 0 144750746.5906805 3149616.286987549 3149616.286987549 20090692.02524991 0 0 0 0 0 143515845.1229234 2454003.454848209 2454003.454848209 18738334.78019452 0 0 0 0 0 141268972.9026142 3417542.442426242 3417542.442426242 18248093.61015434 0 0 0 0 0 139181161.8146083 4219614.7593909 4219614.7593909 17780272.07568555 0 0 0 0 0 137239775.2201792 4885476.969367189 4885476.969367189 17331220.33912183 0 0 0 0 0 134533038.6969581 5501089.77641934 5501089.77641934 15040964.68893694 0 0 0 0 0 135564772.4485321 6152890.931352934 6152890.931352934 16443591.93624051 0 0 0 0 0 132955974.5366603 5931117.692946296 5931117.692946296 14689539.91577866 0 0 0 0 0 131475523.1390318 6280998.582814954 6280998.582814954 14351208.86696985 0 0 0 0 0 130086642.095766 6562883.463715725 6562883.463715725 14025364.98950077 0 0 0 0 0 128783578.2076017 6786725.422142444 6786725.422142444 13711441.13215495 0 0 0 0 0 127562028.7785456 6959997.261284344 6959997.261284344 13402719.09541167 0 0 0 0 0 126411970.0592734 7090433.635663978 7090433.635663978 13102036.85625928 0 0 0 0 0 125759892.179625 7649757.841713239 7649757.841713239 12594642.49101381 0 0 0 0 0 124968708.5371933 7121566.290658058 7121566.290658058 11408112.67007969 0 0 0 0 0 123989308.4424668 7183035.552130033 7183035.552130033 11182209.30022848 0 0 0 0 0 123062852.8050228 7218548.735325698 7218548.735325698 10963139.4937648 0 0 0 0 0 122188041.8160288 7232168.054739386 7232168.054739386 10750151.28828385 0 0 0 0 0 121354875.1122095 7226437.541774065 7226437.541774065 10548350.49180642 0 0 0 0 0 120565284.9307737 7205217.74066982 7205217.74066982 10349248.24189202 0 0 0 0 0 120258794.4344156 7496199.55450846 7496199.55450846 10041699.03674753 0 0 0 0 0 119641692.9504343 7074659.393717989 7074659.393717989 9079193.119232306 0 0 0 0 0 118954113.6937801 7030067.237228305 7030067.237228305 8924081.63791463 0 0 0 0 0 118561542.0576389 7095538.334035955 7095538.334035955 7742207.532476555 0 0 0 0 0 117949320.387278 7030410.158021235 7030410.158021235 7637199.005288165 0 0 0 0 0 117232803.8670989 6799362.053014541 6799362.053014541 6677394.555418765 0 0 0 0 0 117422314.586329 6664999.660737382 6664999.660737382 6795135.894323364 0 0 0 0 0 116690357.2756551 6728515.587419112 6728515.587419112 6599817.824510551 0 0 0 0 0 116170672.7624486 6652926.452419341 6652926.452419341 6521840.044593108 0 0 0 0 0 115672638.7017667 6573152.324897766 6573152.324897766 6443146.549535407 0 0 0 0 0 115195691.2144167 6490088.660154802 6490088.660154802 6363796.957712206 0 0 0 0 0 114655494.915184 6258981.144757849 6258981.144757849 5588901.48019706 0 0 0 0 0 114759656.6626067 6187470.035672084 6187470.035672084 5665242.158633315 0 0 0 0 0 114226060.3984655 6177702.692842036 6177702.692842036 5533083.04475265 0 0 0 0 0 113813441.6586322 6094468.315439562 6094468.315439562 5476641.047012579 0 0 0 0 0 113417291.0912109 6009856.780810389 6009856.780810389 5419470.349704793 0 0 0 0 0 113036689.9034594 5924212.354241614 5924212.354241614 5361733.356207861 0 0 0 0 0 112670915.8324804 5837854.67773607 5837854.67773607 5303559.449721663 0 0 0 0 0 112321455.3274258 5594841.022413624 5594841.022413624 4741856.707903773 0 0 0 0 0 111939145.8464008 5545967.835873049 5545967.835873049 4654120.713173991 0 0 0 0 0 111981279.2376199 5515959.79623497 5515959.79623497 4701459.930199029 0 0 0 0 0 111618711.4297465 5463967.028766804 5463967.028766804 4612419.053767798 0 0 0 0 0 111310236.0139237 5381721.863366818 5381721.863366818 4569990.029775532 0 0 0 0 0 111013270.151072 5299772.455343802 5299772.455343802 4525683.41658257 0 0 0 0 0 110724719.7530281 5220988.774385325 5220988.774385325 4476471.864191052 0 0 0 0 0 110430654.5750652 5048846.973969281 5048846.973969281 4020948.061204478 0 0 0 0 0 110433769.0070883 5021475.239833736 5021475.239833736 4020186.03264007 0 0 0 0 0 110243751.8605439 4987487.424962626 4987487.424962626 3961326.193640031 0 0 0 0 0 110022113.8135016 4895676.250094942 4895676.250094942 3764316.510238214 0 0 0 0 0 118721227.8976306 7245096.073952748 7245096.073952748 8690323.022486048 0 0 0 0 0 251402448.8048699 -67515721.27796143 -67515721.27796143 24019748.76974285 0 0 0 0 0 235551898.5209888 -59538463.07702609 -59538463.07702609 27277326.1536038 0 0 0 0 0 216190956.3789497 -49077423.06570182 -49077423.06570182 25040573.58620267 0 0 0 0 0 202296677.1651481 -38878891.33031704 -38878891.33031704 29149684.2704852 0 0 0 0 0 204061373.6100819 -39314029.83038334 -39314029.83038334 25543215.3258073 0 0 0 0 0 175839424.8128303 -17385498.36943658 -17385498.36943658 25478206.69900592 0 0 0 0 0 194180054.0407938 -31033091.73260115 -31033091.73260115 28787040.36213613 0 0 0 0 0 186890494.4243342 -24458076.42039944 -24458076.42039944 28238983.12963533 0 0 0 0 0 171010346.5272917 -12957945.82768976 -12957945.82768976 25199744.57348403 0 0 0 0 0 166577091.8108864 -9281790.203676676 -9281790.203676676 24860973.761373 0 0 0 0 0 162505710.9773311 -6224690.563376757 -6224690.563376757 24474173.35682384 0 0 0 0 0 158763042.5266157 -3679853.899733901 -3679853.899733901 24050198.72688226 0 0 0 0 0 155318953.8414921 -1560766.120663458 -1560766.120663458 23597756.13093497 0 0 0 0 0 152145612.5730073 203630.2540737677 203630.2540737677 23124143.54851534 0 0 0 0 0 149218955.4050209 1671191.49515633 1671191.49515633 22635885.14261984 0 0 0 0 0 146517169.9498986 2890640.639835277 2890640.639835277 22135236.40257328 0 0 0 0 0 145127348.8819436 2169813.992876085 2169813.992876085 20852449.16567134 0 0 0 0 0 142475566.1912352 4112115.89095191 4112115.89095191 19627032.17791159 0 0 0 0 0 140357676.9411174 4908650.457865568 4908650.457865568 19170204.66675891 0 0 0 0 0 138382987.5050136 5564834.792972265 5564834.792972265 18719585.24635656 0 0 0 0 0 136538797.7046247 6101762.959633672 6101762.959633672 18276102.91113383 0 0 0 0 0 133959366.4442061 6569174.83824784 6569174.83824784 16069277.79112309 0 0 0 0 0 135431750.8795293 5435294.921786378 5435294.921786378 16898604.35583749 0 0 0 0 0 132450702.7467321 6904445.580770466 6904445.580770466 15704491.21008871 0 0 0 0 0 131033207.3439501 7171077.969908626 7171077.969908626 15353033.55322622 0 0 0 0 0 129700745.4355579 7378037.655004728 7378037.655004728 15005695.80757405 0 0 0 0 0 128447887.9110962 7533473.037401387 7533473.037401387 14661103.12754953 0 0 0 0 0 127265262.6138146 7645538.754247553 7645538.754247553 14324340.57328124 0 0 0 0 0 126149570.5975641 7720479.592965958 7720479.592965958 13994558.62646983 0 0 0 0 0 125330399.3384945 7184523.523353155 7184523.523353155 12808216.07054623 0 0 0 0 0 124752301.9786943 7693715.00063864 7693715.00063864 12331733.13428777 0 0 0 0 0 123798065.9018548 7711801.150314138 7711801.150314138 12075278.07276244 0 0 0 0 0 122894942.6858823 7707951.353928829 7707951.353928829 11825489.85686647 0 0 0 0 0 122034072.5437283 7685794.79033686 7685794.79033686 11586657.79195363 0 0 0 0 0 121217507.5074328 7647390.794764474 7647390.794764474 11353194.65352746 0 0 0 0 0 120442023.9951624 7595917.141792466 7595917.141792466 11125714.87688313 0 0 0 0 0 119813244.9882973 7169179.676297684 7169179.676297684 10156285.9979341 0 0 0 0 0 119547944.472124 7436481.564526657 7436481.564526657 9853359.142063264 0 0 0 0 0 118871855.7985236 7367604.945402521 7367604.945402521 9668808.277163504 0 0 0 0 0 118160562.5880361 6858895.221175842 6858895.221175842 7803402.149853836 0 0 0 0 0 117555094.723307 6801681.158577325 6801681.158577325 7694060.976149675 0 0 0 0 0 116856332.3413656 6605572.60994478 6605572.60994478 6717797.82487332 0 0 0 0 0 117366231.7863502 6958829.527956615 6958829.527956615 7532474.283792206 0 0 0 0 0 116317393.2247199 6540131.877228191 6540131.877228191 6637866.864749268 0 0 0 0 0 115801674.4272685 6469655.587941433 6469655.587941433 6557530.573712842 0 0 0 0 0 115308847.3389848 6394883.618005313 6394883.618005313 6476867.12796318 0 0 0 0 0 114837479.390787 6316680.627592712 6316680.627592712 6395885.651567499 0 0 0 0 0 114317322.6259578 6111846.548710359 6111846.548710359 5608352.789909835 0 0 0 0 0 114738649.3974414 6404434.360788263 6404434.360788263 6284034.853475912 0 0 0 0 0 113893370.4359722 6033959.185053364 6033959.185053364 5551466.401637846 0 0 0 0 0 113486906.2670541 5954171.550541967 5954171.550541967 5493718.652234738 0 0 0 0 0 113096820.6133441 5872899.525223692 5872899.525223692 5435764.461848146 0 0 0 0 0 112722453.7828091 5790492.443472592 5790492.443472592 5377357.631606846 0 0 0 0 0 112362992.4806226 5707282.194890704 5707282.194890704 5318537.897749454 0 0 0 0 0 112319234.856546 5751098.080318131 5751098.080318131 5245170.307788138 0 0 0 0 0 111654121.4652708 5436626.942868248 5436626.942868248 4660202.795189415 0 0 0 0 0 111980963.6393391 5664156.937267304 5664156.937267304 5186572.583184758 0 0 0 0 0 111339256.2014284 5356972.573307864 5356972.573307864 4618304.861716616 0 0 0 0 0 111036013.96462 5276904.249033736 5276904.249033736 4575730.714635749 0 0 0 0 0 110744892.5853805 5195971.576596078 5195971.576596078 4532118.052456439 0 0 0 0 0 110464805.9647489 5114865.566480729 5114865.566480729 4486356.224131913 0 0 0 0 0 110175381.9128568 4955351.476481659 4955351.476481659 4006224.737527689 0 0 0 0 0 110452705.2370075 5143823.447444642 5143823.447444642 4430007.922643365 0 0 0 0 0 109949432.9945699 4891118.616837865 4891118.616837865 4034857.179856974 0 0 0 0 0 109750929.8422227 4807228.500995046 4807228.500995046 3933496.716281625 0 0 0 0 0 118300135.9220201 6975736.355051629 6975736.355051629 8771921.491119726 0 0 0 0 0 243393071.0582281 -63586373.26375292 -63586373.26375292 17258738.75759589 0 0 0 0 0 223149101.7221141 -51853943.54628274 -51853943.54628274 20896567.48032625 0 0 0 0 0 223598297.6839861 -50579450.90388887 -50579450.90388887 27841052.55655909 0 0 0 0 0 195910504.6573517 -31230754.65001492 -31230754.65001492 26140474.58310695 0 0 0 0 0 212864257.9373184 -41291027.24310169 -41291027.24310169 29001585.83739403 0 0 0 0 0 180388318.7929779 -19013966.32510432 -19013966.32510432 27672713.55484147 0 0 0 0 0 188714516.6583769 -24389813.22082353 -24389813.22082353 26518793.89140487 0 0 0 0 0 182275244.4268124 -18736834.51133944 -18736834.51133944 26693476.73329014 0 0 0 0 0 174566196.3606293 -14494722.87660196 -14494722.87660196 27093673.97935215 0 0 0 0 0 169335581.6013976 -10735121.32946491 -10735121.32946491 26507272.70537112 0 0 0 0 0 164621180.075904 -7601292.17478462 -7601292.17478462 25914257.51999573 0 0 0 0 0 160357229.6203231 -4985803.204308983 -4985803.204308983 25317558.96762726 0 0 0 0 0 156490252.2824481 -2800360.583719983 -2800360.583719983 24719028.09930564 0 0 0 0 0 152974427.6814441 -973900.8932509138 -973900.8932509138 24121473.83237609 0 0 0 0 0 149768871.5375004 552254.3126168841 552254.3126168841 23527602.08254907 0 0 0 0 0 146840917.6529166 1826576.260467473 1826576.260467473 22938717.68202819 0 0 0 0 0 144016188.9416613 3901628.501561997 3901628.501561997 21629337.50147747 0 0 0 0 0 142672526.9508756 3183387.583917584 3183387.583917584 20306815.39922734 0 0 0 0 0 140405558.6230725 4027182.059515898 4027182.059515898 19780253.73923167 0 0 0 0 0 138308494.637623 4727129.067857829 4727129.067857829 19270756.69628865 0 0 0 0 0 136365965.5573388 5304819.112022657 5304819.112022657 18776173.43071158 0 0 0 0 0 133746624.9171745 5886533.637293695 5886533.637293695 16481560.94623472 0 0 0 0 0 134815648.6589805 6537619.147686451 6537619.147686451 17840041.93601549 0 0 0 0 0 132172986.5681123 6253669.763069023 6253669.763069023 16078790.70037684 0 0 0 0 0 130700122.4667251 6548482.92550849 6548482.92550849 15689320.02104367 0 0 0 0 0 129321048.2796366 6782619.969878521 6782619.969878521 15317397.78680416 0 0 0 0 0 128031990.8469642 6964336.457083216 6964336.457083216 14952214.43397245 0 0 0 0 0 126826495.2284936 7101652.790687864 7101652.790687864 14594026.34600419 0 0 0 0 0 125695169.1014412 7200439.044840959 7200439.044840959 14243474.53176815 0 0 0 0 0 125095946.1189967 7765359.892253988 7765359.892253988 13679076.45404488 0 0 0 0 0 124308823.6078109 7247642.487439226 7247642.487439226 12528566.28783781 0 0 0 0 0 123344800.1615392 7283804.168321316 7283804.168321316 12257202.88657589 0 0 0 0 0 122434774.763636 7296939.67042986 7296939.67042986 11993499.70050687 0 0 0 0 0 121577917.4384891 7290718.329434001 7290718.329434001 11736802.94399227 0 0 0 0 0 120760871.7794969 7267765.807990644 7267765.807990644 11493649.89344812 0 0 0 0 0 119985418.5812755 7229916.965534506 7229916.965534506 11257057.43291607 0 0 0 0 0 119712014.4034567 7532918.053266615 7532918.053266615 10896953.29167603 0 0 0 0 0 119106250.7424999 7121465.687463434 7121465.687463434 9961472.741924262 0 0 0 0 0 118433833.166786 7063821.307612792 7063821.307612792 9770237.610237362 0 0 0 0 0 118094411.620997 7173916.334461502 7173916.334461502 8550337.706469662 0 0 0 0 0 117494006.695413 7095933.941580575 7095933.941580575 8412515.718631176 0 0 0 0 0 116810404.4055358 6881627.082739011 6881627.082739011 7425417.994958038 0 0 0 0 0 116974714.685121 6737012.228203378 6737012.228203378 7584975.690082697 0 0 0 0 0 116277995.724291 6799695.74991829 6799695.74991829 7318833.675982613 0 0 0 0 0 115768301.0674516 6713503.923149228 6713503.923149228 7212025.189405139 0 0 0 0 0 115280577.5414812 6624218.125891804 6624218.125891804 7105845.379796913 0 0 0 0 0 114813816.0847751 6532620.952583647 6532620.952583647 7000645.018441699 0 0 0 0 0 114300327.3998168 6316640.309095892 6316640.309095892 6204572.076846327 0 0 0 0 0 114386229.507847 6235617.327172222 6235617.327172222 6314685.797869368 0 0 0 0 0 113879878.4079874 6227338.487513723 6227338.487513723 6125139.801191651 0 0 0 0 0 113476253.0247279 6136881.703677378 6136881.703677378 6046272.506113813 0 0 0 0 0 113088816.9942431 6045605.060876823 6045605.060876823 5967644.046117717 0 0 0 0 0 112716832.7009695 5953880.676433547 5953880.676433547 5889441.800830957 0 0 0 0 0 112359481.6961745 5862011.584124521 5862011.584124521 5811827.425141028 0 0 0 0 0 112017652.1572382 5623598.640865633 5623598.640865633 5259528.298790486 0 0 0 0 0 111655529.993564 5577288.499679309 5577288.499679309 5128106.184075106 0 0 0 0 0 111685804.3942172 5539713.242783804 5539713.242783804 5200437.556172401 0 0 0 0 0 111342371.5762091 5490501.096679497 5490501.096679497 5070058.088129499 0 0 0 0 0 111041166.5979042 5403490.338487795 5403490.338487795 5013832.156702085 0 0 0 0 0 110751391.1901435 5317448.427804419 5317448.427804419 4959593.731948144 0 0 0 0 0 110470553.7420409 5230963.121842514 5230963.121842514 4893194.73183381 0 0 0 0 0 110217032.4616788 5080645.680279985 5080645.680279985 4419078.541951948 0 0 0 0 0 110184990.0253116 5035532.814504633 5035532.814504633 4431300.262687773 0 0 0 0 0 109997535.287236 4978240.364746793 4978240.364746793 4235750.041836823 0 0 0 0 0 118228728.1095486 7290971.671755061 7290971.671755061 9488333.743906964 0 0 0 0 0 267951024.3329803 -62059265.55421788 -62059265.55421788 19755865.38261335 0 0 0 0 0 242565205.269614 -51989751.74801007 -51989751.74801007 18565206.19300317 0 0 0 0 0 236367804.9588258 -52668913.48711948 -52668913.48711948 24938137.37014143 0 0 0 0 0 216119848.9130787 -41462303.54112457 -41462303.54112457 23903174.07452908 0 0 0 0 0 202993816.5713727 -32972609.71517528 -32972609.71517528 29016964.02415966 0 0 0 0 0 205928220.9039272 -33013194.69568196 -33013194.69568196 25664425.89090376 0 0 0 0 0 176474561.0437451 -14061440.59082016 -14061440.59082016 26696698.09680394 0 0 0 0 0 194304751.3800921 -26047222.12723352 -26047222.12723352 28981810.83301207 0 0 0 0 0 186648161.5026424 -20329092.9729508 -20329092.9729508 28821216.09319851 0 0 0 0 0 171234673.2198073 -10188606.68854794 -10188606.68854794 26560638.58170906 0 0 0 0 0 166486600.6874247 -6974810.107480187 -6974810.107480187 26313646.90228007 0 0 0 0 0 162174931.857015 -4304173.384626546 -4304173.384626546 25981962.94021254 0 0 0 0 0 158251793.8390894 -2083173.858604553 -2083173.858604553 25582754.16339178 0 0 0 0 0 154672063.941868 -236381.261314521 -236381.261314521 25133728.53831941 0 0 0 0 0 151399003.2476931 1298534.24938591 1298534.24938591 24647426.04217893 0 0 0 0 0 148402110.4852483 2572836.238177314 2572836.238177314 24133690.50926803 0 0 0 0 0 145650046.3413828 3628581.01233236 3628581.01233236 23600362.91969681 0 0 0 0 0 144158596.788884 2888802.900468394 2888802.900468394 22354856.09858778 0 0 0 0 0 141700675.04098 4737309.359584651 4737309.359584651 21124114.20718782 0 0 0 0 0 139554394.3870066 5425250.868202667 5425250.868202667 20621569.62648398 0 0 0 0 0 137562198.0583641 5987832.134835407 5987832.134835407 20122356.18740654 0 0 0 0 0 135709766.7803316 6444558.858786356 6444558.858786356 19628794.0867263 0 0 0 0 0 133202066.2315639 6887768.861972093 6887768.861972093 17415975.23153587 0 0 0 0 0 134563325.1797341 5778996.260751421 5778996.260751421 18296157.30388507 0 0 0 0 0 131691908.9276463 7166016.704430376 7166016.704430376 17005242.63277387 0 0 0 0 0 130277877.2258261 7382403.759293561 7382403.759293561 16601817.82929995 0 0 0 0 0 128953671.7492505 7545300.982094712 7545300.982094712 16201459.90338347 0 0 0 0 0 127710916.1724062 7662974.710392957 7662974.710392957 15807664.07620199 0 0 0 0 0 126542539.7454032 7742167.491211385 7742167.491211385 15421135.63023957 0 0 0 0 0 125440068.5760979 7789040.492032266 7789040.492032266 15049832.27917397 0 0 0 0 0 124629987.7045253 7266764.470378633 7266764.470378633 13906438.35885848 0 0 0 0 0 124100831.0604007 7783283.721374316 7783283.721374316 13370765.7668009 0 0 0 0 0 123160832.6835434 7778524.115690536 7778524.115690536 13070318.73374758 0 0 0 0 0 122272988.2405258 7754454.34743306 7754454.34743306 12778141.15756613 0 0 0 0 0 121425186.6792009 7713544.51274587 7713544.51274587 12501173.87423881 0 0 0 0 0 120624617.008614 7660325.739779904 7660325.739779904 12228826.42745679 0 0 0 0 0 119867547.8676587 7594865.920796297 7594865.920796297 11963427.1996451 0 0 0 0 0 119252631.7518556 7180357.447237823 7180357.447237823 11025190.29891309 0 0 0 0 0 119015869.3343884 7460197.666955194 7460197.666955194 10673454.06144166 0 0 0 0 0 118354324.1826436 7379444.378297787 7379444.378297787 10454590.5148294 0 0 0 0 0 117678971.8241194 6913436.429039696 6913436.429039696 8623013.632344572 0 0 0 0 0 117086744.5457529 6844389.480010377 6844389.480010377 8480324.834850146 0 0 0 0 0 116420724.4347329 6666149.364885882 6666149.364885882 7476894.302241009 0 0 0 0 0 116922158.4351874 7012881.97993393 7012881.97993393 8275899.972455579 0 0 0 0 0 115892570.927946 6590234.620224588 6590234.620224588 7367920.596332201 0 0 0 0 0 115388995.3437405 6510265.5092541 6510265.5092541 7258828.760529603 0 0 0 0 0 114908046.5818066 6427167.223911035 6427167.223911035 7150376.889254243 0 0 0 0 0 114448029.6556367 6341326.84250068 6341326.84250068 7043063.018267519 0 0 0 0 0 113954105.2545239 6152361.587230231 6152361.587230231 6233453.839380908 0 0 0 0 0 114366640.3589678 6439180.690309799 6439180.690309799 6896475.024137473 0 0 0 0 0 113540120.3602399 6067303.077984842 6067303.077984842 6152729.334309489 0 0 0 0 0 113143381.9044975 5981035.977461283 5981035.977461283 6072463.745022427 0 0 0 0 0 112762983.3486217 5893867.205581785 5893867.205581785 5992725.004704498 0 0 0 0 0 112398075.5094917 5806134.910951384 5806134.910951384 5913482.684033127 0 0 0 0 0 112047854.4216909 5718110.028683051 5718110.028683051 5834826.553415485 0 0 0 0 0 112016031.7180367 5770221.002658535 5770221.002658535 5734675.186932963 0 0 0 0 0 111366747.8258009 5455943.627277173 5455943.627277173 5141494.915435221 0 0 0 0 0 111685885.5568822 5678839.942358656 5678839.942358656 5658324.545481889 0 0 0 0 0 111060181.8749704 5372559.975529335 5372559.975529335 5082761.365811513 0 0 0 0 0 110765664.9210573 5290157.087177088 5290157.087177088 5025004.257280005 0 0 0 0 0 110491232.2745441 5210520.596864861 5210520.596864861 4969973.724636548 0 0 0 0 0 110247373.9017161 5141076.506842392 5141076.506842392 4910563.234828027 0 0 0 0 0 109925310.6612612 4965566.153365752 4965566.153365752 4431132.094678542 0 0 0 0 0 110187580.4521636 5145832.376398463 5145832.376398463 4854372.85103669 0 0 0 0 0 109687659.5255029 4881585.567906319 4881585.567906319 4379790.874866203 0 0 0 0 0 117795156.9861244 6997656.846830399 6997656.846830399 9583107.424362816 0 0 0 0 0 251169241.1584894 -53365527.68538364 -53365527.68538364 11898784.95831794 0 0 0 0 0 251345383.4582091 -53021296.84698316 -53021296.84698316 21425465.16476071 0 0 0 0 0 227971465.4034241 -42143566.51541609 -42143566.51541609 21932046.75839957 0 0 0 0 0 224056522.822866 -42597030.22750384 -42597030.22750384 26585092.69449331 0 0 0 0 0 197148252.6458195 -25822451.86727186 -25822451.86727186 26763713.54341947 0 0 0 0 0 212571596.7419282 -34411200.82139017 -34411200.82139017 28202038.58565759 0 0 0 0 0 179870605.3540927 -15595057.07867258 -15595057.07867258 28550613.15968074 0 0 0 0 0 189384197.7554608 -19912462.0299035 -19912462.0299035 27461537.36715008 0 0 0 0 0 182484638.6411241 -15043131.21890027 -15043131.21890027 27847070.18514639 0 0 0 0 0 173846096.8958361 -11664450.3693935 -11664450.3693935 28187012.60488741 0 0 0 0 0 168469822.8150389 -8393429.611759342 -8393429.611759342 27750546.21850159 0 0 0 0 0 163651811.2979404 -5665737.903473392 -5665737.903473392 27257233.69710599 0 0 0 0 0 159319436.5903649 -3388110.349264173 -3388110.349264173 26722496.31308847 0 0 0 0 0 155407406.2814623 -1485484.464813982 -1485484.464813982 26156714.152356 0 0 0 0 0 151866307.4281633 103922.8497230011 103922.8497230011 25569748.64044922 0 0 0 0 0 148651394.1766279 1431023.013108621 1431023.013108621 24969348.13013006 0 0 0 0 0 145724775.9554714 2537672.679380041 2537672.679380041 24361963.65737947 0 0 0 0 0 143118516.0036402 4501003.88697757 4501003.88697757 23055612.34330244 0 0 0 0 0 141697471.0132357 3773077.977841858 3773077.977841858 21779408.48800309 0 0 0 0 0 139432975.3335942 4506700.791252577 4506700.791252577 21216111.39795126 0 0 0 0 0 137345447.1624897 5112568.74074793 5112568.74074793 20665000.96671749 0 0 0 0 0 135417751.6421498 5610279.191057694 5610279.191057694 20126035.28842438 0 0 0 0 0 132890102.6709851 6164767.533551595 6164767.533551595 17828652.71017216 0 0 0 0 0 133986224.8263934 6811481.39677648 6811481.39677648 19143614.2792569 0 0 0 0 0 131330703.528655 6475052.80729124 6475052.80729124 17377910.59725217 0 0 0 0 0 129875704.8593513 6722378.208285577 6722378.208285577 16945450.2562322 0 0 0 0 0 128515509.237349 6914467.820249608 6914467.820249608 16524470.129206 0 0 0 0 0 127247469.8832932 7059472.43637698 7059472.43637698 16110471.29413036 0 0 0 0 0 126062006.0981954 7165565.590924809 7165565.590924809 15706906.1650419 0 0 0 0 0 124953410.8418675 7237316.241564906 7237316.241564906 15309334.6789677 0 0 0 0 0 124403401.0007192 7809309.651003589 7809309.651003589 14690001.8916912 0 0 0 0 0 123626494.4474955 7305321.041748542 7305321.041748542 13581602.40036303 0 0 0 0 0 122681636.0193676 7320029.850686048 7320029.850686048 13266725.09594404 0 0 0 0 0 121791207.1952246 7314434.809109796 7314434.809109796 12960499.52833934 0 0 0 0 0 120953007.7061407 7292173.857599678 7292173.857599678 12664006.60425112 0 0 0 0 0 120154723.7719647 7254404.80169426 7254404.80169426 12382729.20751221 0 0 0 0 0 119400280.4790695 7205026.335996471 7205026.335996471 12107594.72593567 0 0 0 0 0 119153641.9930791 7520517.525362963 7520517.525362963 11700214.42682934 0 0 0 0 0 118561988.112087 7120985.587707545 7120985.587707545 10794769.32696396 0 0 0 0 0 117907067.9882751 7052862.257661588 7052862.257661588 10569431.08357547 0 0 0 0 0 117614783.9132044 7208039.612741383 7208039.612741383 9315606.322540848 0 0 0 0 0 117026615.9434294 7119597.788926413 7119597.788926413 9147554.800515139 0 0 0 0 0 116376985.2510288 6925370.314802445 6925370.314802445 8140557.378466395 0 0 0 0 0 116518506.6780967 6768845.720434349 6768845.720434349 8341060.257781957 0 0 0 0 0 115855600.4897235 6833453.532566139 6833453.532566139 8004054.793760455 0 0 0 0 0 115357545.0869405 6738863.557479749 6738863.557479749 7869605.884424197 0 0 0 0 0 114881128.2428519 6642076.202661519 6642076.202661519 7737628.695621775 0 0 0 0 0 114425360.8950987 6543677.691529877 6543677.691529877 7607852.872952927 0 0 0 0 0 113938217.0333753 6344333.941948289 6344333.941948289 6793462.792093446 0 0 0 0 0 114007827.1800909 6253378.431083697 6253378.431083697 6936872.064149699 0 0 0 0 0 113527427.2066526 6248559.168423553 6248559.168423553 6691687.351869381 0 0 0 0 0 113133499.5510364 6152263.320021697 6152263.320021697 6591246.800281132 0 0 0 0 0 112755597.8744265 6055741.103507005 6055741.103507005 6492108.590446511 0 0 0 0 0 112392872.0113681 5959268.055385284 5959268.055385284 6394268.528621111 0 0 0 0 0 112044564.0140997 5863076.993577292 5863076.993577292 6297814.936403756 0 0 0 0 0 111711569.4720909 5630054.516097724 5630054.516097724 5756878.720705234 0 0 0 0 0 111368423.5881421 5587969.745635467 5587969.745635467 5582397.41095039 0 0 0 0 0 111388218.2348987 5542155.593171078 5542155.593171078 5679737.488962871 0 0 0 0 0 111063010.222804 5497885.702760552 5497885.702760552 5506642.269961279 0 0 0 0 0 110770200.9106287 5407896.287137549 5407896.287137549 5431536.305364961 0 0 0 0 0 110494143.2238623 5319654.97111313 5319654.97111313 5341226.730614058 0 0 0 0 0 110246862.132988 5228357.606179656 5228357.606179656 5240741.424660949 0 0 0 0 0 109957611.8422499 5075676.98149539 5075676.98149539 4718370.453762289 0 0 0 0 0 110033212.5023019 5082829.201389218 5082829.201389218 4825392.919611558 0 0 0 0 0 117725799.9453651 7292725.424505703 7292725.424505703 10242263.51951403 0 0 0 0 0 273519965.8393748 -52672044.2101651 -52672044.2101651 17478340.8640764 0 0 0 0 0 243110475.265152 -42156055.37529455 -42156055.37529455 19060304.19545968 0 0 0 0 0 235459533.73504 -43405578.37779088 -43405578.37779088 24572936.87350582 0 0 0 0 0 217315898.1451569 -34056061.67311977 -34056061.67311977 24407579.06539651 0 0 0 0 0 202339836.1374962 -27282263.37994234 -27282263.37994234 28996255.17611379 0 0 0 0 0 206478466.8229092 -26796362.13913631 -26796362.13913631 26379128.15408698 0 0 0 0 0 176329224.2729146 -11019114.35257833 -11019114.35257833 27987702.85959275 0 0 0 0 0 193405785.9890008 -21392479.78078051 -21392479.78078051 29428325.88610447 0 0 0 0 0 185574062.9184968 -16520533.38499177 -16520533.38499177 29589196.84426405 0 0 0 0 0 170820887.7082736 -7685225.077354882 -7685225.077354882 27937698.62216511 0 0 0 0 0 165873455.2526703 -4917020.704135634 -4917020.704135634 27741352.45797573 0 0 0 0 0 161416601.983821 -2616147.937146271 -2616147.937146271 27431232.54866443 0 0 0 0 0 157386444.2845096 -703510.8716119522 -703510.8716119522 27034308.76528298 0 0 0 0 0 153732047.5547236 886174.2069961682 886174.2069961682 26572531.34153003 0 0 0 0 0 150410314.7682022 2206409.775843014 2206409.775843014 26062102.5401099 0 0 0 0 0 147383841.8626858 3300933.527469502 3300933.527469502 25516843.11770449 0 0 0 0 0 144617641.6001857 4206083.409561415 4206083.409561415 24946062.27353846 0 0 0 0 0 143054331.4997866 3459314.630573928 3459314.630573928 23751074.72324406 0 0 0 0 0 140784714.5178974 5219430.151110396 5219430.151110396 22508517.66784544 0 0 0 0 0 138631798.4174474 5807590.969153612 5807590.969153612 21959873.40974952 0 0 0 0 0 136640822.5582389 6285636.670579716 6285636.670579716 21413474.32329837 0 0 0 0 0 134797018.9540333 6670537.549590705 6670537.549590705 20872423.57655348 0 0 0 0 0 132378811.9514195 7102912.126941686 7102912.126941686 18672564.45719507 0 0 0 0 0 133633904.1789239 6015602.804839591 6015602.804839591 19598924.73642539 0 0 0 0 0 130877363.3875278 7329875.305060508 7329875.305060508 18211448.62144815 0 0 0 0 0 129473869.2832667 7501295.650907304 7501295.650907304 17756643.24639789 0 0 0 0 0 128163686.4992516 7625459.571034733 7625459.571034733 17307449.09843925 0 0 0 0 0 126938339.421577 7711170.445305876 7711170.445305876 16868283.40738483 0 0 0 0 0 125790067.3177649 7763338.126936301 7763338.126936301 16438172.56377149 0 0 0 0 0 124707625.5902848 7787703.101575006 7787703.101575006 16028221.50584873 0 0 0 0 0 123908218.6608566 7280221.22604514 7280221.22604514 14930621.8851269 0 0 0 0 0 123425436.0158135 7805472.766924531 7805472.766924531 14339404.5392025 0 0 0 0 0 122503801.406649 7781896.950961786 7781896.950961786 13997261.95556316 0 0 0 0 0 121633907.7684201 7741913.323435849 7741913.323435849 13666601.12434813 0 0 0 0 0 120806071.1766588 7687921.885767091 7687921.885767091 13351866.6940862 0 0 0 0 0 120023245.8343384 7621197.185786307 7621197.185786307 13044774.57722666 0 0 0 0 0 119283911.5694524 7545615.029725406 7545615.029725406 12747115.46918998 0 0 0 0 0 118685362.0570332 7144647.103521301 7144647.103521301 11842074.10368047 0 0 0 0 0 118473621.3042585 7437023.655045973 7437023.655045973 11442043.5236181 0 0 0 0 0 117828775.1287467 7347890.170982321 7347890.170982321 11191918.54161219 0 0 0 0 0 117188175.477603 6924823.479403502 6924823.479403502 9401198.158645686 0 0 0 0 0 116610347.6404451 6846626.630437476 6846626.630437476 9227294.896437131 0 0 0 0 0 115977441.0699825 6688690.384871029 6688690.384871029 8202966.50940446 0 0 0 0 0 116467538.6082283 7027090.51420146 7027090.51420146 8983917.815229693 0 0 0 0 0 115462598.2787185 6604434.726653833 6604434.726653833 8064719.643392651 0 0 0 0 0 114971389.9439843 6517070.779351343 6517070.779351343 7927877.480564058 0 0 0 0 0 114502788.1847441 6427180.350435668 6427180.350435668 7792997.788737842 0 0 0 0 0 114054541.430517 6335398.525840309 6335398.525840309 7660509.935866086 0 0 0 0 0 113586625.8769109 6163828.197880622 6163828.197880622 6832011.01700542 0 0 0 0 0 113989016.7366312 6443997.504459394 6443997.504459394 7480193.051221704 0 0 0 0 0 113183294.6286732 6073170.77089278 6073170.77089278 6728508.226903494 0 0 0 0 0 112797007.8995655 5981822.340659949 5981822.340659949 6626480.846189941 0 0 0 0 0 112426722.1617847 5890100.934514891 5890100.934514891 6525882.917346936 0 0 0 0 0 112071704.6340632 5798237.780083618 5798237.780083618 6426735.669047795 0 0 0 0 0 111731073.908378 5706558.335911108 5706558.335911108 6329119.164104166 0 0 0 0 0 111709822.451317 5767436.888950863 5767436.888950863 6203073.340497456 0 0 0 0 0 111077476.7078974 5454626.453151332 5454626.453151332 5603332.883389738 0 0 0 0 0 111388202.3197988 5672467.857070168 5672467.857070168 6109607.811824303 0 0 0 0 0 110778981.1622534 5367525.566341856 5367525.566341856 5527306.296200198 0 0 0 0 0 110489383.1811728 5280093.899975848 5280093.899975848 5451131.733627947 0 0 0 0 0 110227964.2385617 5201498.374525967 5201498.374525967 5390245.696646701 0 0 0 0 0 109987858.8095936 5127129.042303738 5127129.042303738 5295358.732355462 0 0 0 0 0 109635618.3859056 4946150.323011885 4946150.323011885 4893283.902270532 0 0 0 0 0 109869153.7323443 5093164.977661065 5093164.977661065 5238721.119503509 0 0 0 0 0 117284960.9566351 6977988.203360855 6977988.203360855 10349809.68270331 0 0 0 0 0 257394943.1789036 -46313167.48563009 -46313167.48563009 9767806.784041859 0 0 0 0 0 244220689.8554637 -41437106.35341347 -41437106.35341347 18819956.15768875 0 0 0 0 0 228858417.5867489 -34273487.48242453 -34273487.48242453 22332767.438233 0 0 0 0 0 222734032.2689289 -34986358.1226389 -34986358.1226389 26334872.13055473 0 0 0 0 0 197192022.293077 -20766735.16885593 -20766735.16885593 27736295.85816673 0 0 0 0 0 210921031.2332331 -27957262.66703059 -27957262.66703059 28229466.36816365 0 0 0 0 0 178679946.2292276 -12478501.03344895 -12478501.03344895 29540358.9846288 0 0 0 0 0 189046313.0540503 -15799165.86399961 -15799165.86399961 28608378.57565711 0 0 0 0 0 181866655.4918375 -11697083.80148286 -11697083.80148286 29103352.897748 0 0 0 0 0 172581898.3588268 -9115351.868243741 -9115351.868243741 29328950.07997598 0 0 0 0 0 167164263.2509554 -6310710.73030915 -6310710.73030915 28992607.295213 0 0 0 0 0 162326205.9116028 -3968265.192712395 -3968265.192712395 28563326.53893574 0 0 0 0 0 157986782.0456892 -2010171.467330015 -2010171.467330015 28063596.17699283 0 0 0 0 0 154083548.8760406 -372597.3656443125 -372597.3656443125 27509894.7491695 0 0 0 0 0 150562030.6883096 996505.9245753259 996505.9245753259 26919394.22553378 0 0 0 0 0 147374766.6086364 2139632.945068005 2139632.945068005 26303286.90946165 0 0 0 0 0 144479859.2457446 3092900.595390469 3092900.595390469 25672083.52065855 0 0 0 0 0 142082888.3835794 4952271.072510561 4952271.072510561 24362110.21069113 0 0 0 0 0 140611276.3258411 4224635.957645046 4224635.957645046 23142179.92643411 0 0 0 0 0 138369469.5464412 4857866.84476574 4857866.84476574 22541707.60218818 0 0 0 0 0 136308336.3867823 5379041.746654985 5379041.746654985 21949559.26676278 0 0 0 0 0 134409360.3011346 5805155.0541153 5805155.0541153 21367658.25101794 0 0 0 0 0 131983482.4078186 6342243.774817633 6342243.774817633 19085019.05527013 0 0 0 0 0 133087213.2531351 6976350.904824564 6976350.904824564 20343189.11490648 0 0 0 0 0 130444451.8298114 6602695.897029933 6602695.897029933 18591543.94551558 0 0 0 0 0 129012127.3264801 6807201.933844431 6807201.933844431 18112699.10896898 0 0 0 0 0 127681161.1178537 6963295.348843886 6963295.348843886 17641500.3469594 0 0 0 0 0 126438190.8192079 7077825.728678293 7077825.728678293 17183260.90213456 0 0 0 0 0 125277063.7813216 7156559.774349331 7156559.774349331 16735364.36209757 0 0 0 0 0 124192426.5014973 7205910.094536158 7205910.094536158 16298561.97611232 0 0 0 0 0 123690928.3789411 7786453.950253753 7786453.950253753 15625274.24839584 0 0 0 0 0 122928699.4648027 7298703.735290917 7298703.735290917 14563506.51976294 0 0 0 0 0 122006679.5785114 7296606.98555174 7296606.98555174 14208032.46499296 0 0 0 0 0 121139012.9672356 7276594.555288137 7276594.555288137 13862878.08849567 0 0 0 0 0 120322744.7129124 7241361.556557034 7241361.556557034 13527684.63566835 0 0 0 0 0 119545374.3272433 7193153.00401016 7193153.00401016 13210750.46479684 0 0 0 0 0 118811761.1795485 7133720.185298716 7133720.185298716 12903032.6813406 0 0 0 0 0 118587308.5216683 7461027.849250209 7461027.849250209 12446558.75420448 0 0 0 0 0 118014362.7546605 7076018.407766975 7076018.407766975 11577459.9282625 0 0 0 0 0 117376831.2545336 7000328.393264772 7000328.393264772 11319748.1622188 0 0 0 0 0 117126500.2424885 7200997.534931011 7200997.534931011 10040009.84458148 0 0 0 0 0 116553133.813691 7104521.049532874 7104521.049532874 9842664.613426805 0 0 0 0 0 115934833.8415573 6931002.630884296 6931002.630884296 8816934.667207889 0 0 0 0 0 116056932.2157888 6762903.829768117 6762903.829768117 9056830.336185919 0 0 0 0 0 115426247.7182376 6832051.217112212 6832051.217112212 8653975.860132366 0 0 0 0 0 114940528.5861916 6730821.869335379 6730821.869335379 8493937.462386316 0 0 0 0 0 114476603.004726 6628539.689702478 6628539.689702478 8337915.269536482 0 0 0 0 0 114032618.4863919 6524837.269963732 6524837.269963732 8184586.817836768 0 0 0 0 0 113571205.0400399 6343608.311026874 6343608.311026874 7354781.109347256 0 0 0 0 0 113626369.8944936 6242154.069266216 6242154.069266216 7530477.35766429 0 0 0 0 0 113170922.8949116 6242861.320687544 6242861.320687544 7231571.675407048 0 0 0 0 0 112787333.419049 6142181.642521237 6142181.642521237 7110731.90702007 0 0 0 0 0 112419468.6562788 6041688.812228697 6041688.812228697 6992076.756948218 0 0 0 0 0 112066480.2528523 5941671.356738236 5941671.356738236 6875620.197899633 0 0 0 0 0 111727703.0644638 5842403.173962432 5842403.173962432 6761346.469509304 0 0 0 0 0 111404011.8474975 5615180.237200571 5615180.237200571 6232885.080596315 0 0 0 0 0 111079212.7529353 5578235.435308766 5578235.435308766 6017394.582746153 0 0 0 0 0 111089626.5827237 5524271.088005799 5524271.088005799 6138363.313595717 0 0 0 0 0 110782052.1298533 5484691.389292783 5484691.389292783 5925792.790610913 0 0 0 0 0 110493949.6969306 5391242.109688276 5391242.109688276 5836306.022852804 0 0 0 0 0 110237441.3986602 5306728.522689808 5306728.522689808 5649233.209226673 0 0 0 0 0 110004486.8961751 5200631.996474849 5200631.996474849 5375758.592946337 0 0 0 0 0 109843334.1347697 5106219.677634983 5106219.677634983 5121206.738071776 0 0 0 0 0 117216535.5041046 7253545.952194133 7253545.952194133 10949257.39831041 0 0 0 0 0 283538431.0221864 -44437016.82210763 -44437016.82210763 15256036.5228324 0 0 0 0 0 262872223.0369646 -39424619.06145318 -39424619.06145318 19243760.39267018 0 0 0 0 0 241104548.2560608 -32983540.50328724 -32983540.50328724 19886491.99417549 0 0 0 0 0 232982453.2923902 -34415930.53299757 -34415930.53299757 23440006.69102379 0 0 0 0 0 216625047.9949764 -27096448.70406486 -27096448.70406486 25356822.7079052 0 0 0 0 0 200609644.6648017 -22054477.79718132 -22054477.79718132 29427304.37919986 0 0 0 0 0 205662009.6005075 -21130116.87517913 -21130116.87517913 27511066.35831206 0 0 0 0 0 175510110.1841175 -8298586.898397464 -8298586.898397464 29309476.42774466 0 0 0 0 0 191639651.5629401 -17161946.21267329 -17161946.21267329 30152934.60174327 0 0 0 0 0 183808190.1854219 -13096700.98937174 -13096700.98937174 30517258.56906445 0 0 0 0 0 169858575.089323 -5476151.446155366 -5476151.446155366 29294755.75067207 0 0 0 0 0 164811424.0402937 -3128496.75682865 -3128496.75682865 29111050.73639869 0 0 0 0 0 160289146.9281331 -1173968.054652822 -1173968.054652822 28798031.79726536 0 0 0 0 0 156219981.1150325 452624.9935535908 452624.9935535908 28384292.13320001 0 0 0 0 0 152546605.9697797 1805622.706041122 1805622.706041122 27896977.13162836 0 0 0 0 0 149220077.6208682 2928598.64754088 2928598.64754088 27354644.96418124 0 0 0 0 0 146199299.850763 3859042.462976282 3859042.462976282 26772662.69069745 0 0 0 0 0 143448290.2208053 4628067.695407174 4628067.695407174 26164669.75211309 0 0 0 0 0 141844645.9225765 3885694.889423109 3885694.889423109 25030990.15641619 0 0 0 0 0 139755957.7673239 5564303.321374652 5564303.321374652 23771981.52460539 0 0 0 0 0 137615584.9469439 6062926.801206187 6062926.801206187 23178586.04789243 0 0 0 0 0 135642725.0375485 6465889.563690566 6465889.563690566 22587256.5756192 0 0 0 0 0 133821494.6557705 6787255.480722067 6787255.480722067 22002591.19115107 0 0 0 0 0 131493560.6632346 7215584.017545715 7215584.017545715 19826748.46589864 0 0 0 0 0 132658408.0542255 6149558.487940794 6149558.487940794 20795793.16882908 0 0 0 0 0 130010598.7918043 7398064.748200263 7398064.748200263 19316916.05480418 0 0 0 0 0 128630840.4002886 7531845.756275539 7531845.756275539 18812214.46027889 0 0 0 0 0 127342351.2439814 7625511.085673329 7625511.085673329 18322700.95998534 0 0 0 0 0 126140175.3423479 7684406.778482229 7684406.778482229 17842423.21071383 0 0 0 0 0 125014570.3415127 7714529.674381562 7714529.674381562 17375849.71193679 0 0 0 0 0 123958407.3412969 7718984.19543926 7718984.19543926 16921493.96228097 0 0 0 0 0 123176787.7472413 7230670.522871734 7230670.522871734 15878686.48254295 0 0 0 0 0 122734608.4688412 7765668.535741633 7765668.535741633 15234464.7091751 0 0 0 0 0 121833236.6498857 7727213.672775043 7727213.672775043 14854293.84212851 0 0 0 0 0 120985039.3141034 7675010.922446674 7675010.922446674 14488031.58617837 0 0 0 0 0 120175899.2261062 7609425.528124265 7609425.528124265 14140928.40892698 0 0 0 0 0 119415156.1721014 7534262.546566993 7534262.546566993 13800613.70134998 0 0 0 0 0 118696597.4722458 7449946.45867081 7449946.45867081 13464900.20998797 0 0 0 0 0 118120582.611854 7066310.882862982 7066310.882862982 12604099.26531558 0 0 0 0 0 117926005.7072001 7371045.104519653 7371045.104519653 12159220.25519822 0 0 0 0 0 117299024.0454883 7275645.856263788 7275645.856263788 11879894.67454972 0 0 0 0 0 116694556.0224276 6897338.790942329 6897338.790942329 10136125.8437947 0 0 0 0 0 116131940.352024 6811605.194717125 6811605.194717125 9932531.905106029 0 0 0 0 0 115530003.4117608 6675396.428701546 6675396.428701546 8892712.12446906 0 0 0 0 0 116007444.4828386 7004886.216086147 7004886.216086147 9648669.651996883 0 0 0 0 0 115028850.860138 6584962.011639641 6584962.011639641 8726394.244138831 0 0 0 0 0 114551621.553766 6491898.803915342 6491898.803915342 8562568.147266854 0 0 0 0 0 114095090.7772978 6397041.510222323 6397041.510222323 8403443.520741113 0 0 0 0 0 113659974.7226341 6300828.285172933 6300828.285172933 8247305.646118538 0 0 0 0 0 113216797.8923519 6147944.346391395 6147944.346391395 7402770.368557984 0 0 0 0 0 113608033.6064882 6420668.743025815 6420668.743025815 8034504.185557837 0 0 0 0 0 112824886.0122503 6053144.170308625 6053144.170308625 7277531.152733588 0 0 0 0 0 112449329.4177649 5958078.268983337 5958078.268983337 7154842.062233031 0 0 0 0 0 112089609.7686882 5863008.426012449 5863008.426012449 7034461.353323013 0 0 0 0 0 111744850.3541007 5768251.952678252 5768251.952678252 6916416.882769321 0 0 0 0 0 111414242.4535635 5673949.991021452 5673949.991021452 6800537.025745475 0 0 0 0 0 111402203.3772449 5743959.133974339 5743959.133974339 6649540.130462943 0 0 0 0 0 110786932.8322886 5433798.443706158 5433798.443706158 6045359.994684611 0 0 0 0 0 111089327.8313077 5646429.726895497 5646429.726895497 6540530.920328179 0 0 0 0 0 110495245.3906656 5343142.261559987 5343142.261559987 5953230.148978566 0 0 0 0 0 110206756.0736889 5252174.483107012 5252174.483107012 5861988.846666495 0 0 0 0 0 109945099.1563557 5165652.207210013 5165652.207210013 5806245.418519659 0 0 0 0 0 109766715.3694134 5097471.041660142 5097471.041660142 5637493.895615024 0 0 0 0 0 109574363.5526575 5001972.026235372 5001972.026235372 5403443.464898922 0 0 0 0 0 116772117.4851507 6918655.864769266 6918655.864769266 11069372.80182934 0 0 0 0 0 262417397.2056313 -37341235.63635837 -37341235.63635837 6179519.737399629 0 0 0 0 0 246247925.2431351 -34018146.05898671 -34018146.05898671 12873979.24440031 0 0 0 0 0 247284206.1445208 -33838302.28772801 -33838302.28772801 21936401.21842787 0 0 0 0 0 227277068.7946654 -26320723.73970865 -26320723.73970865 24203442.25926133 0 0 0 0 0 219864561.2305381 -27786386.65656102 -27786386.65656102 26599891.27903988 0 0 0 0 0 196135091.4639221 -16206487.93680464 -16206487.93680464 28964024.64063746 0 0 0 0 0 208147944.9166087 -22143289.29613584 -22143289.29613584 28792880.1995683 0 0 0 0 0 176933278.6537048 -9707282.522186382 -9707282.522186382 30605695.59229571 0 0 0 0 0 187822022.6803015 -12133117.88051435 -12133117.88051435 29884357.13854004 0 0 0 0 0 180538735.5971906 -8748317.821106568 -8748317.821106568 30403020.76775133 0 0 0 0 0 170870238.9023753 -6875401.924460511 -6875401.924460511 30484001.99977624 0 0 0 0 0 165494753.4160698 -4505842.319099135 -4505842.319099135 30205015.51975338 0 0 0 0 0 160705862.2469119 -2520651.283773852 -2520651.283773852 29806224.95676759 0 0 0 0 0 156417585.9748556 -855957.8904547786 -855957.8904547786 29317543.08089504 0 0 0 0 0 152568115.6982433 538197.35770688 538197.35770688 28761454.11151787 0 0 0 0 0 149102885.1176808 1705463.379645529 1705463.379645529 28156653.50047939 0 0 0 0 0 145971823.3723288 2681856.789688399 2681856.789688399 27519051.20484373 0 0 0 0 0 143134670.0992525 3496376.190697382 3496376.190697382 26858853.34273554 0 0 0 0 0 140936335.8708986 5260895.04930179 5260895.04930179 25540880.98519379 0 0 0 0 0 139439138.7829513 4543513.433266612 4543513.433266612 24388725.05973259 0 0 0 0 0 137236848.9642675 5086934.140009179 5086934.140009179 23750510.90341957 0 0 0 0 0 135216217.2110974 5532927.669890744 5532927.669890744 23118547.171247 0 0 0 0 0 133357397.7663727 5895754.146734685 5895754.146734685 22496209.72486468 0 0 0 0 0 131036049.2661705 6425733.934644125 6425733.934644125 20242182.32691641 0 0 0 0 0 132134500.4051999 7040118.050628063 7040118.050628063 21428637.65054509 0 0 0 0 0 129531403.6158285 6643881.092438243 6643881.092438243 19703506.72904789 0 0 0 0 0 128129271.1775033 6811611.126627819 6811611.126627819 19181183.07002992 0 0 0 0 0 126827368.3311062 6936090.895797749 6936090.895797749 18667329.32103513 0 0 0 0 0 125614625.3709963 7024815.320344001 7024815.320344001 18167403.0261328 0 0 0 0 0 124484692.8170132 7081748.00990984 7081748.00990984 17678075.30616375 0 0 0 0 0 123427083.8948241 7113910.557749833 7113910.557749833 17209073.43250665 0 0 0 0 0 122964745.4045562 7702479.363512828 7702479.363512828 16483407.14789169 0 0 0 0 0 122222016.4677181 7233714.386936124 7233714.386936124 15474097.50060213 0 0 0 0 0 121326274.3717715 7218114.423091388 7218114.423091388 15079360.16899437 0 0 0 0 0 120481559.0298711 7186525.707386324 7186525.707386324 14697950.78470266 0 0 0 0 0 119689163.3296946 7142285.422002673 7142285.422002673 14328948.99309754 0 0 0 0 0 118936810.8069907 7085776.077705589 7085776.077705589 13977734.97260293 0 0 0 0 0 118226780.2850324 7021411.003381498 7021411.003381498 13640340.00323286 0 0 0 0 0 118018203.0379511 7359850.640755718 7359850.640755718 13137546.27502526 0 0 0 0 0 117467314.0932378 6991028.908818001 6991028.908818001 12306876.38372754 0 0 0 0 0 116847539.4665999 6909602.260824828 6909602.260824828 12020307.64672223 0 0 0 0 0 116632782.4783412 7154848.072090521 7154848.072090521 10718302.32023896 0 0 0 0 0 116073161.7880024 7052145.94615144 7052145.94615144 10494222.51097434 0 0 0 0 0 115487777.2732901 6902076.323042119 6902076.323042119 9456210.959189232 0 0 0 0 0 115593098.7943352 6721820.141314657 6721820.141314657 9736680.579497192 0 0 0 0 0 114992903.2073698 6797466.973646879 6797466.973646879 9266911.789342348 0 0 0 0 0 114520382.707399 6692038.488114691 6692038.488114691 9084753.334330572 0 0 0 0 0 114068919.9517017 6585079.300289657 6585079.300289657 8904683.306165004 0 0 0 0 0 113637644.0936875 6477925.341792905 6477925.341792905 8729362.602298148 0 0 0 0 0 113201550.0914334 6316202.250430517 6316202.250430517 7887490.887509919 0 0 0 0 0 113244264.4745107 6203903.380231108 6203903.380231108 8094735.610941546 0 0 0 0 0 112812318.6552179 6212004.045578856 6212004.045578856 7744267.62349686 0 0 0 0 0 112439378.650385 6108103.689249309 6108103.689249309 7603970.004038895 0 0 0 0 0 112081936.0242406 6004879.862159168 6004879.862159168 7466730.379425931 0 0 0 0 0 111739247.9806637 5902490.407757124 5902490.407757124 7332559.699650764 0 0 0 0 0 111410163.6516407 5801114.369344171 5801114.369344171 7201541.089638948 0 0 0 0 0 111096838.9357637 5580480.468308434 5580480.468308434 6687190.522364233 0 0 0 0 0 110788533.0952243 5549620.540129614 5549620.540129614 6434420.592456788 0 0 0 0 0 110791776.5491269 5487939.465077306 5487939.465077306 6576296.81380983 0 0 0 0 0 110497652.5128787 5454882.965128218 5454882.965128218 6331353.528468125 0 0 0 0 0 110203210.9220459 5362965.273106544 5362965.273106544 6210518.522896883 0 0 0 0 0 109943914.5561612 5240792.653680831 5240792.653680831 5868807.052856904 0 0 0 0 0 109758087.5077476 5139174.22907542 5139174.22907542 5608535.952690163 0 0 0 0 0 116703863.7371023 7176239.030958178 7176239.030958178 11610150.39971552 0 0 0 0 0 290611022.2805901 -35100697.86447732 -35100697.86447732 12187102.49808334 0 0 0 0 0 267848529.6260917 -32754474.09902002 -32754474.09902002 18311708.12079225 0 0 0 0 0 238007363.9748622 -25294635.44512231 -25294635.44512231 21637576.00970718 0 0 0 0 0 229540321.30278 -27253988.1886634 -27253988.1886634 25321158.0908557 0 0 0 0 0 214708581.9458807 -20777943.04221454 -20777943.04221454 26941149.57504486 0 0 0 0 0 197986722.2622019 -17397843.04903512 -17397843.04903512 30213957.15700857 0 0 0 0 0 203688923.4259417 -16121651.52160091 -16121651.52160091 28952963.40969845 0 0 0 0 0 174120493.7868434 -5929478.214167886 -5929478.214167886 30615789.82377103 0 0 0 0 0 189180744.168202 -13429538.79884098 -13429538.79884098 31086707.11152492 0 0 0 0 0 181491851.2529197 -10101526.35033778 -10101526.35033778 31548875.33556343 0 0 0 0 0 168435355.3191065 -3578996.220102869 -3578996.220102869 30596314.06775641 0 0 0 0 0 163378398.7298841 -1616596.964078721 -1616596.964078721 30396880.46163015 0 0 0 0 0 158861128.0735048 20358.98088000894 20358.98088000894 30057106.34409459 0 0 0 0 0 154806154.6021521 1387075.118002384 1387075.118002384 29615895.75315612 0 0 0 0 0 151160865.2866734 2524753.670696239 2524753.670696239 29093668.53966031 0 0 0 0 0 147867927.3022484 3470755.048641208 3470755.048641208 28514928.74093058 0 0 0 0 0 144885224.6102691 4254991.554635286 4254991.554635286 27895231.10924109 0 0 0 0 0 142175444.8732147 4902962.425709284 4902962.425709284 27248441.81200277 0 0 0 0 0 140555725.9335127 4174615.930077506 4174615.930077506 26186932.68460174 0 0 0 0 0 138636976.0255632 5778438.368983994 5778438.368983994 24908128.08557393 0 0 0 0 0 136526705.9482644 6198489.141844667 6198489.141844667 24272936.64703511 0 0 0 0 0 134586124.4920575 6535677.585116454 6535677.585116454 23640052.92468702 0 0 0 0 0 132799410.0230892 6803000.648937774 6803000.648937774 23013250.96385238 0 0 0 0 0 130566847.7250739 7234291.626379906 7234291.626379906 20865477.55968683 0 0 0 0 0 131645901.7636033 6188098.868529035 6188098.868529035 21884295.45669801 0 0 0 0 0 129108066.3071307 7378352.32018599 7378352.32018599 20312937.14611781 0 0 0 0 0 127755966.041858 7481582.894536305 7481582.894536305 19771580.90165319 0 0 0 0 0 126498227.0180494 7550080.885028401 7550080.885028401 19242050.84634338 0 0 0 0 0 125323926.8408721 7587122.749659552 7587122.749659552 18723867.25309211 0 0 0 0 0 124222944.1357012 7598722.346670741 7598722.346670741 18222604.12360989 0 0 0 0 0 123195159.4825393 7588912.000811164 7588912.000811164 17734142.80501407 0 0 0 0 0 122439218.0507132 7123140.935086903 7123140.935086903 16750999.31230243 0 0 0 0 0 122032727.6863034 7667813.939119042 7667813.939119042 16053750.7933166 0 0 0 0 0 121155062.7026491 7618982.605281125 7618982.605281125 15641293.58541087 0 0 0 0 0 120329656.768537 7557497.435882755 7557497.435882755 15241678.87020913 0 0 0 0 0 119546727.6095848 7485050.905939206 7485050.905939206 14861617.17032391 0 0 0 0 0 118805567.1623323 7402641.07282998 7402641.07282998 14487815.29686645 0 0 0 0 0 118109694.2379653 7314391.582212838 7314391.582212838 14123420.09470449 0 0 0 0 0 117556482.1921685 6947959.726994816 6947959.726994816 13306240.94167478 0 0 0 0 0 117375655.981752 7264882.730788635 7264882.730788635 12823130.69253137 0 0 0 0 0 116767414.8636254 7166318.255565966 7166318.255565966 12518842.04968087 0 0 0 0 0 116197516.1293808 6832048.480518408 6832048.480518408 10826905.90835379 0 0 0 0 0 115651491.1150597 6741478.224210084 6741478.224210084 10595841.70292744 0 0 0 0 0 115080559.7495621 6628683.672233713 6628683.672233713 9542229.094510499 0 0 0 0 0 115542343.7761366 6947040.129253661 6947040.129253661 10273529.40120581 0 0 0 0 0 114594153.7798158 6533519.235091874 6533519.235091874 9350646.308837222 0 0 0 0 0 114130021.372201 6436594.018163526 6436594.018163526 9162795.870357521 0 0 0 0 0 113688074.7449963 6338554.405532556 6338554.405532556 8980524.00984744 0 0 0 0 0 113266244.0719917 6239683.225603452 6239683.225603452 8801931.206369588 0 0 0 0 0 112846807.9977528 6106469.127719831 6106469.127719831 7945211.041892102 0 0 0 0 0 113225377.1843539 6370735.031816593 6370735.031816593 8557821.767753407 0 0 0 0 0 112466222.5949285 6008781.524759627 6008781.524759627 7799338.665398422 0 0 0 0 0 112101980.1806435 5911207.595170154 5911207.595170154 7656887.069282752 0 0 0 0 0 111753105.52123 5814004.056225585 5814004.056225585 7517690.766511662 0 0 0 0 0 111418783.797258 5717358.721503913 5717358.721503913 7381566.559454796 0 0 0 0 0 111098287.9361273 5621551.451826748 5621551.451826748 7248575.018682362 0 0 0 0 0 111094008.3492871 5701006.435970946 5701006.435970946 7073281.80809766 0 0 0 0 0 110498393.6452302 5396661.588195447 5396661.588195447 6468377.383533418 0 0 0 0 0 110790220.87747 5602378.266527697 5602378.266527697 6947773.751236231 0 0 0 0 0 110221701.329048 5308496.046927906 5308496.046927906 6364411.817028265 0 0 0 0 0 109970055.566562 5223757.241145329 5223757.241145329 6253450.205043403 0 0 0 0 0 109686363.5938009 5135692.517942095 5135692.517942095 6170948.707457054 0 0 0 0 0 109495098.0747387 5040460.720947105 5040460.720947105 5878331.367605126 0 0 0 0 0 116259255.6158598 6823365.070910912 6823365.070910912 11742379.00415995 0 0 0 0 0 268891770.9647478 -28602014.92325222 -28602014.92325222 3980472.402422425 0 0 0 0 0 250048832.0300437 -27836825.91816231 -27836825.91816231 12431573.44639441 0 0 0 0 0 237090662.1809343 -24770506.84367418 -24770506.84367418 21086643.48686751 0 0 0 0 0 223777988.4130599 -20057045.17670478 -20057045.17670478 25555250.37811907 0 0 0 0 0 215959404.029439 -21665277.64918906 -21665277.64918906 27841816.39988871 0 0 0 0 0 194149443.4974856 -12227781.18696763 -12227781.18696763 30330663.5365642 0 0 0 0 0 204516830.7878165 -17145153.37682284 -17145153.37682284 29844104.70154639 0 0 0 0 0 174745916.4242204 -7307174.464242598 -7307174.464242598 31699752.72818991 0 0 0 0 0 185866353.7785797 -8961664.960385729 -8961664.960385729 31204626.9223237 0 0 0 0 0 178629094.5061032 -6221688.746807455 -6221688.746807455 31685593.16674659 0 0 0 0 0 168800014.4327657 -4957887.734621374 -4957887.734621374 31615560.08501039 0 0 0 0 0 163543311.0630963 -2983249.461131943 -2983249.461131943 31355221.23804918 0 0 0 0 0 158855378.7945495 -1320449.30133442 -1320449.30133442 30963047.11612421 0 0 0 0 0 154665054.2479536 76768.77472381834 76768.77472381834 30465997.56608475 0 0 0 0 0 150906594.4816231 1251533.858381175 1251533.858381175 29896052.13526982 0 0 0 0 0 147527492.7058684 2238069.416383199 2238069.416383199 29270105.58104492 0 0 0 0 0 144478329.1754808 3065441.644645016 3065441.644645016 28605681.11479615 0 0 0 0 0 141717821.7151709 3757678.161703392 3757678.161703392 27916969.9272044 0 0 0 0 0 139706075.510435 5435791.654495052 5435791.654495052 26585569.63664725 0 0 0 0 0 138204198.9719215 4737338.241440636 4737338.241440636 25511570.57301933 0 0 0 0 0 136054721.1225297 5201468.970079701 5201468.970079701 24837132.84707368 0 0 0 0 0 134084675.0434021 5581766.229536328 5581766.229536328 24168473.12745886 0 0 0 0 0 132274116.06326 5890466.264634637 5890466.264634637 23508309.12372467 0 0 0 0 0 130061124.6858437 6420613.817736512 6420613.817736512 21289456.61056536 0 0 0 0 0 131142777.6691117 7010625.090437081 7010625.090437081 22399920.7625241 0 0 0 0 0 128593803.3234488 6601884.899006288 6601884.899006288 20710549.44995515 0 0 0 0 0 127229606.7669372 6737832.034846651 6737832.034846651 20143408.73158488 0 0 0 0 0 125960751.9469546 6837370.334250545 6837370.334250545 19595214.05751699 0 0 0 0 0 124783300.8533873 6905474.025320777 6905474.025320777 19058044.62147854 0 0 0 0 0 123686264.0146277 6947046.000202972 6947046.000202972 18536981.88121053 0 0 0 0 0 122661788.5737479 6964738.747000924 6964738.747000924 18030736.27485286 0 0 0 0 0 122230857.6961633 7560979.020253391 7560979.020253391 17260366.49096752 0 0 0 0 0 121512540.869952 7114100.05846899 7114100.05846899 16309767.89608473 0 0 0 0 0 120643210.5455171 7088393.323600274 7088393.323600274 15878784.83044232 0 0 0 0 0 119825323.1965193 7049239.324031427 7049239.324031427 15464486.86088373 0 0 0 0 0 119057030.4495619 6998195.20405784 6998195.20405784 15064162.44640702 0 0 0 0 0 118330829.9145064 6938583.732825141 6938583.732825141 14683971.31478038 0 0 0 0 0 117644936.8524504 6869993.104946589 6869993.104946589 14312187.32500451 0 0 0 0 0 117451283.340937 7220873.197560273 7220873.197560273 13772819.54251797 0 0 0 0 0 116921451.9623492 6867749.299281329 6867749.299281329 12981195.61966366 0 0 0 0 0 116318408.371632 6782482.369505805 6782482.369505805 12669449.25204529 0 0 0 0 0 116136259.965382 7072843.449977535 7072843.449977535 11352909.77873025 0 0 0 0 0 115593773.5717468 6966259.217743727 6966259.217743727 11102744.88088467 0 0 0 0 0 115038315.9046508 6840172.131184991 6840172.131184991 10056177.79446255 0 0 0 0 0 115129014.839177 6647263.386954604 6647263.386954604 10371634.25323593 0 0 0 0 0 114557866.0354945 6732574.217210276 6732574.217210276 9846062.479509749 0 0 0 0 0 114099019.3787905 6623568.435614986 6623568.435614986 9638919.017570646 0 0 0 0 0 113661117.9015332 6514311.685699861 6514311.685699861 9437161.590225406 0 0 0 0 0 113242708.2391839 6405140.409034973 6405140.409034973 9241545.101481389 0 0 0 0 0 112830725.4296933 6263787.057624028 6263787.057624028 8391382.177063417 0 0 0 0 0 112863102.1374365 6140466.688357862 6140466.688357862 8628350.421046136 0 0 0 0 0 112453002.1917956 6157268.919386574 6157268.919386574 8228846.825233235 0 0 0 0 0 112091206.2911837 6051495.21342902 6051495.21342902 8070410.638989744 0 0 0 0 0 111744555.4509813 5946638.964230592 5946638.964230592 7915870.70407064 0 0 0 0 0 111412216.8917784 5842950.083592637 5842950.083592637 7765101.743173581 0 0 0 0 0 111093415.4182055 5740537.24112381 5740537.24112381 7617956.137359045 0 0 0 0 0 110790893.9719433 5526769.812607331 5526769.812607331 7118681.2674049 0 0 0 0 0 110498319.0106195 5504891.414123755 5504891.414123755 6826759.912153472 0 0 0 0 0 110495515.7373869 5433297.050183628 5433297.050183628 6991800.086953533 0 0 0 0 0 110225645.1534861 5406899.858183349 5406899.858183349 6713734.184386506 0 0 0 0 0 109912235.2638815 5303073.364543277 5303073.364543277 6584380.854549105 0 0 0 0 0 109799305.2863595 5239904.440684807 5239904.440684807 6284002.651780119 0 0 0 0 0 109660495.5620121 5168928.460922458 5168928.460922458 6070075.168434339 0 0 0 0 0 116190316.4680964 7062962.568787137 7062962.568787137 12221320.7010482 0 0 0 0 0 296546694.9201047 -25297446.79168227 -25297446.79168227 10709447.53148082 0 0 0 0 0 273737263.377189 -25392002.83544169 -25392002.83544169 17305962.29245803 0 0 0 0 0 252892103.1711273 -22570503.3782608 -22570503.3782608 20741297.88959662 0 0 0 0 0 234308523.7186015 -17751584.29206057 -17751584.29206057 24647615.97295948 0 0 0 0 0 223797122.8575823 -20230250.01457788 -20230250.01457788 25668444.91091536 0 0 0 0 0 211526254.3479284 -15534273.92841918 -15534273.92841918 28470306.54695616 0 0 0 0 0 194710546.2516706 -13393719.1505932 -13393719.1505932 31252418.16463467 0 0 0 0 0 200743677.9101653 -11915404.23707311 -11915404.23707311 30417430.76345466 0 0 0 0 0 172265021.6056199 -3924819.289286952 -3924819.289286952 31861853.35179982 0 0 0 0 0 186201503.1436781 -10227763.42460201 -10227763.42460201 32140012.71917272 0 0 0 0 0 178758318.5914145 -7549983.050970233 -7549983.050970233 32617844.49158379 0 0 0 0 0 166640893.819673 -1997354.065211045 -1997354.065211045 31806154.14005182 0 0 0 0 0 161645515.1379421 -383931.7680103555 -383931.7680103555 31568040.199225 0 0 0 0 0 157185874.3728532 970444.5681135997 970444.5681135997 31192386.98676211 0 0 0 0 0 153197624.2015288 2104285.233279745 2104285.233279745 30712155.16437006 0 0 0 0 0 149617880.0288123 3052221.917965172 3052221.917965172 30152118.38582521 0 0 0 0 0 146391539.3981298 3841644.488662257 3841644.488662257 29533768.59701864 0 0 0 0 0 143472241.5003527 4497428.303273556 4497428.303273556 28876511.70247926 0 0 0 0 0 140824323.7953171 5040389.138896131 5040389.138896131 28192916.88679814 0 0 0 0 0 139210861.4940619 4335197.257392487 4335197.257392487 27214209.63672928 0 0 0 0 0 137450351.6321758 5870933.874317952 5870933.874317952 25914106.00482958 0 0 0 0 0 135384662.6550101 6223065.724838775 6223065.724838775 25240441.75257108 0 0 0 0 0 133488165.9781264 6504821.552709127 6504821.552709127 24569672.9822275 0 0 0 0 0 131742502.3744921 6726893.546953689 6726893.546953689 23906245.09768786 0 0 0 0 0 129610648.1455498 7167729.707336847 7167729.707336847 21797781.81226847 0 0 0 0 0 130607496.7351292 6138542.34015831 6138542.34015831 22859537.72384257 0 0 0 0 0 128189154.8507649 7281702.801697187 7281702.801697187 21207798.90372019 0 0 0 0 0 126868654.6997804 7359989.685534659 7359989.685534659 20633415.7322154 0 0 0 0 0 125643448.8380214 7406755.850155788 7406755.850155788 20065424.70698581 0 0 0 0 0 124498628.1695326 7427552.72184594 7427552.72184594 19515838.88509442 0 0 0 0 0 123430711.0642366 7425648.738695781 7425648.738695781 18980803.09138121 0 0 0 0 0 122431598.9902903 7405405.104733334 7405405.104733334 18462408.54115649 0 0 0 0 0 121703693.8575284 6963670.517133146 6963670.517133146 17542115.2061685 0 0 0 0 0 121326169.1066824 7517736.264164259 7517736.264164259 16799655.67491958 0 0 0 0 0 120474923.7122575 7461510.726341001 7461510.726341001 16355854.46471955 0 0 0 0 0 119674395.9011352 7394203.399318106 7394203.399318106 15927297.70148159 0 0 0 0 0 118915885.4966562 7317456.537924156 7317456.537924156 15515381.03032615 0 0 0 0 0 118201375.1786014 7233074.286754958 7233074.286754958 15112280.57641415 0 0 0 0 0 117528407.7286461 7142934.441288799 7142934.441288799 14722005.06203223 0 0 0 0 0 116998562.0530869 6794376.154970474 6794376.154970474 13948799.34280775 0 0 0 0 0 116827631.5393606 7123578.820464608 7123578.820464608 13437241.94002694 0 0 0 0 0 116238912.207932 7021856.827524039 7021856.827524039 13104285.75101576 0 0 0 0 0 115703700.4237289 6733055.101298924 6733055.101298924 11471963.43821473 0 0 0 0 0 115174365.6131744 6639445.804524813 6639445.804524813 11214948.7190097 0 0 0 0 0 114632328.9815789 6551073.760741428 6551073.760741428 10152883.41879343 0 0 0 0 0 115078508.8057197 6857980.258109733 6857980.258109733 10858009.79625434 0 0 0 0 0 114160343.1543374 6452787.021869516 6452787.021869516 9937218.357316045 0 0 0 0 0 113711226.2014079 6353831.168270271 6353831.168270271 9728624.29101144 0 0 0 0 0 113283212.6303166 6254019.247278832 6254019.247278832 9523845.225636795 0 0 0 0 0 112874831.6298474 6153855.047467644 6153855.047467644 9324082.025447197 0 0 0 0 0 112477866.0042159 6040976.409865798 6040976.409865798 8458025.059556922 0 0 0 0 0 112843095.2701223 6296267.25522673 6296267.25522673 9050432.651156461 0 0 0 0 0 112109197.917847 5941715.840943756 5941715.840943756 8292890.525187007 0 0 0 0 0 111756388.3884403 5842839.281583498 5842839.281583498 8131911.746373282 0 0 0 0 0 111418520.4610184 5744550.746274002 5744550.746274002 7974983.34507983 0 0 0 0 0 111094759.7202072 5647055.894622939 5647055.894622939 7822073.87753766 0 0 0 0 0 110784454.7063044 5550501.445429178 5550501.445429178 7672834.84434705 0 0 0 0 0 110787001.1168602 5639566.751369294 5639566.751369294 7473906.409283591 0 0 0 0 0 110210023.6827893 5341321.8710489 5341321.8710489 6867787.838370364 0 0 0 0 0 110492267.3371819 5540519.732905228 5540519.732905228 7332108.78025505 0 0 0 0 0 109942669.4456473 5252953.266016451 5252953.266016451 6751345.819463174 0 0 0 0 0 109734578.9353482 5192135.444515597 5192135.444515597 6646026.493833022 0 0 0 0 0 109568667.8129947 5133962.116106525 5133962.116106525 6578167.075616888 0 0 0 0 0 109409108.1369475 5059140.831875544 5059140.831875544 6352734.187049219 0 0 0 0 0 115751094.2154286 6694335.10822336 6694335.10822336 12365461.45666241 0 0 0 0 0 272117763.8910297 -18713066.51741261 -18713066.51741261 2175651.844296869 0 0 0 0 0 255436554.8678565 -20102642.1887427 -20102642.1887427 10570904.94327196 0 0 0 0 0 241865865.4763598 -20292656.7451769 -20292656.7451769 16965275.01348448 0 0 0 0 0 231011110.639488 -17997091.01865888 -17997091.01865888 23952460.12648983 0 0 0 0 0 219766984.7723236 -14022359.77253524 -14022359.77253524 27863832.55680674 0 0 0 0 0 211057506.6287287 -16196988.78352273 -16196988.78352273 28807778.13576154 0 0 0 0 0 191435180.5257238 -8871815.907494774 -8871815.907494774 31700304.90797548 0 0 0 0 0 200294215.005439 -12877471.81468921 -12877471.81468921 30958665.98901284 0 0 0 0 0 172226807.0859545 -5283574.257264279 -5283574.257264279 32774889.75955776 0 0 0 0 0 183338263.2799222 -6296433.330071288 -6296433.330071288 32491612.3559009 0 0 0 0 0 176263015.9196855 -4120202.964876682 -4120202.964876682 32895067.67506219 0 0 0 0 0 166467316.1138419 -3366213.531583289 -3366213.531583289 32688300.55109145 0 0 0 0 0 161363746.4077838 -1740805.449621073 -1740805.449621073 32419719.66498448 0 0 0 0 0 156830229.1266612 -367611.6543945186 -367611.6543945186 32008234.83097423 0 0 0 0 0 152777494.2195897 794485.4287752147 794485.4287752147 31491923.53349899 0 0 0 0 0 149141614.6517223 1775532.13439142 1775532.13439142 30899360.38882201 0 0 0 0 0 145871433.0707998 2603431.642631102 2603431.642631102 30249637.10274642 0 0 0 0 0 142923418.5403045 3300824.525356327 3300824.525356327 29557294.49807548 0 0 0 0 0 140255247.7218258 3886852.08930075 3886852.08930075 28839709.66841428 0 0 0 0 0 138415328.2043506 5487212.236029958 5487212.236029958 27493888.66736474 0 0 0 0 0 136927169.5478172 4814774.530830245 4814774.530830245 26505987.26136046 0 0 0 0 0 134841002.1911698 5210795.880196622 5210795.880196622 25798573.15027006 0 0 0 0 0 132930314.6689267 5535293.425757853 5535293.425757853 25096216.5362097 0 0 0 0 0 131175767.9735393 5798541.883487453 5798541.883487453 24402305.48318582 0 0 0 0 0 129069809.0173161 6334479.551316295 6334479.551316295 22227140.49786143 0 0 0 0 0 130130784.5799909 6897965.782457259 6897965.782457259 23257455.46196929 0 0 0 0 0 127648174.5088354 6485115.742899479 6485115.742899479 21609662.92105468 0 0 0 0 0 126326429.0373106 6596777.815184789 6596777.815184789 21007782.58891917 0 0 0 0 0 125093271.3706098 6676178.769968214 6676178.769968214 20429959.31487637 0 0 0 0 0 123951893.9263635 6727882.677753042 6727882.677753042 19860154.52773564 0 0 0 0 0 122890653.9868523 6756413.708179646 6756413.708179646 19306800.54321252 0 0 0 0 0 121900079.2175923 6765090.361575454 6765090.361575454 18770338.315471 0 0 0 0 0 121497181.8644087 7369307.911523893 7369307.911523893 17958369.47252708 0 0 0 0 0 120806386.5997532 6945378.447546401 6945378.447546401 17066806.51040994 0 0 0 0 0 119964416.5336394 6913299.227960505 6913299.227960505 16607027.59409131 0 0 0 0 0 119173161.3635818 6868701.61190999 6868701.61190999 16162753.18294972 0 0 0 0 0 118429455.5700297 6814941.971717618 6814941.971717618 15736144.93913061 0 0 0 0 0 117728673.2300761 6752253.983815108 6752253.983815108 15324158.5005915 0 0 0 0 0 117065948.2558218 6682140.243802292 6682140.243802292 14923893.54787188 0 0 0 0 0 116891208.6626204 7048377.519278838 7048377.519278838 14353111.78388415 0 0 0 0 0 116384141.4390114 6711670.884287369 6711670.884287369 13598268.9463186 0 0 0 0 0 115798716.1887067 6625092.836593279 6625092.836593279 13267978.25109955 0 0 0 0 0 115640619.5646283 6957357.81228248 6957357.81228248 11940074.34319527 0 0 0 0 0 115114282.673756 6848816.59765367 6848816.59765367 11667745.12803614 0 0 0 0 0 114589621.4947106 6748840.293478711 6748840.293478711 10619287.95227427 0 0 0 0 0 114667640.2000121 6542771.450013989 6542771.450013989 10967067.47238548 0 0 0 0 0 114123009.6815016 6638633.514779222 6638633.514779222 10384744.10551327 0 0 0 0 0 113678322.2022342 6528144.505526097 6528144.505526097 10156605.72855841 0 0 0 0 0 113254368.246363 6417972.055574514 6417972.055574514 9935100.253231479 0 0 0 0 0 112849697.0123179 6308203.96927122 6308203.96927122 9720201.45152222 0 0 0 0 0 112460709.3126606 6188008.835759535 6188008.835759535 8865270.656170787 0 0 0 0 0 112484617.3566234 6053436.071780263 6053436.071780263 9129944.56348221 0 0 0 0 0 112094715.3585957 6080465.605700822 6080465.605700822 8684994.742224127 0 0 0 0 0 111744316.3178131 5973910.783979883 5973910.783979883 8509661.183224771 0 0 0 0 0 111408622.5370321 5868532.606415616 5868532.606415616 8339203.376886544 0 0 0 0 0 111086869.6616078 5764414.362750195 5764414.362750195 8173027.902819328 0 0 0 0 0 110778219.7304328 5661850.235767023 5661850.235767023 8011171.348916835 0 0 0 0 0 110486508.9521651 5455043.280260998 5455043.280260998 7527274.601758543 0 0 0 0 0 110211754.4866231 5441744.586896931 5441744.586896931 7202667.443874754 0 0 0 0 0 110199932.2558561 5360561.935712602 5360561.935712602 7384664.781320293 0 0 0 0 0 109945559.0952885 5348012.585509256 5348012.585509256 7029650.024839436 0 0 0 0 0 109755808.2541696 5259080.444713986 5259080.444713986 6824128.225577413 0 0 0 0 0 109558325.9629202 5180703.527342593 5180703.527342593 6553065.23017845 0 0 0 0 0 115680310.6894738 6918602.098512148 6918602.098512148 12786123.57195973 0 0 0 0 0 297163783.8613957 -16323831.08063965 -16323831.08063965 7851499.304588987 0 0 0 0 0 276117372.9378504 -17941124.79434807 -17941124.79434807 15800734.01518863 0 0 0 0 0 259194106.126906 -17721241.70769441 -17721241.70769441 20651442.53944979 0 0 0 0 0 241677600.1020325 -15007724.54158605 -15007724.54158605 22627319.81962419 0 0 0 0 0 227669759.3971732 -11794355.77289542 -11794355.77289542 27055211.9068719 0 0 0 0 0 217514920.5009736 -14632406.42107584 -14632406.42107584 27709154.95492817 0 0 0 0 0 207543691.4923229 -11028544.36963867 -11028544.36963867 30240821.98324576 0 0 0 0 0 190978677.2987461 -10011834.26908185 -10011834.26908185 32360057.24574144 0 0 0 0 0 197160897.8818881 -8385597.694359834 -8385597.694359834 31917173.36123437 0 0 0 0 0 170041481.0106906 -2279416.079454742 -2279416.079454742 33009553.07426458 0 0 0 0 0 182845850.2652028 -7546652.163487932 -7546652.163487932 33215631.84991395 0 0 0 0 0 175731143.3705095 -5435129.382315219 -5435129.382315219 33659969.79130837 0 0 0 0 0 164554911.111898 -727479.633266118 -727479.633266118 32896779.63791628 0 0 0 0 0 159679077.9112289 584468.4925126488 584468.4925126488 32608838.26253852 0 0 0 0 0 155333095.0911024 1688784.473407526 1688784.473407526 32185500.64995403 0 0 0 0 0 151445877.246979 2619142.875867161 2619142.875867161 31663908.81160222 0 0 0 0 0 147961790.1467498 3399953.481036349 3399953.481036349 31063420.21650962 0 0 0 0 0 144825481.2504237 4053348.399217121 4053348.399217121 30405601.57013712 0 0 0 0 0 141990674.0908028 4599047.341626538 4599047.341626538 29712822.80579107 0 0 0 0 0 139421565.9355744 5052454.480278846 5052454.480278846 28995755.79380538 0 0 0 0 0 137832525.6683906 4377498.816869159 4377498.816869159 28107727.14039491 0 0 0 0 0 136217505.6878517 5852080.413287822 5852080.413287822 26787350.77467684 0 0 0 0 0 134206896.7466233 6147183.110626852 6147183.110626852 26079842.65204075 0 0 0 0 0 132362379.0568695 6382775.697857948 6382775.697857948 25376588.70914231 0 0 0 0 0 130666277.6111174 6567257.895778859 6567257.895778859 24682547.77667383 0 0 0 0 0 128640814.6258842 7024033.10687082 7024033.10687082 22618921.3356515 0 0 0 0 0 129561533.992669 6008896.8014752 6008896.8014752 23719819.06968829 0 0 0 0 0 127257800.4710884 7113800.93531967 7113800.93531967 21998858.34835547 0 0 0 0 0 125971027.9745773 7171286.781898711 7171286.781898711 21394376.41524672 0 0 0 0 0 124780500.7886827 7201845.077818315 7201845.077818315 20795988.97177578 0 0 0 0 0 123672384.0111506 7210200.216001831 7210200.216001831 20215358.41491672 0 0 0 0 0 122638580.7193227 7200090.794017685 7200090.794017685 19653116.47648888 0 0 0 0 0 121672475.1202637 7173392.571624997 7173392.571624997 19107925.04291171 0 0 0 0 0 120973965.2472596 6756449.8774025 6756449.8774025 18251601.55580588 0 0 0 0 0 120619767.521504 7320097.387666794 7320097.387666794 17471238.34948872 0 0 0 0 0 119796449.6925859 7259569.56198143 7259569.56198143 16999775.60503608 0 0 0 0 0 119021291.9858853 7189951.61437837 7189951.61437837 16544660.94342739 0 0 0 0 0 118291402.6978438 7112173.337959543 7112173.337959543 16105055.77589657 0 0 0 0 0 117601906.9878233 7027729.009267958 7027729.009267958 15678573.63620924 0 0 0 0 0 116952692.1088129 6938499.588044774 6938499.588044774 15273099.8560248 0 0 0 0 0 116440063.4449231 6604694.588457966 6604694.588457966 14535867.14490524 0 0 0 0 0 116283142.5658743 6948448.776631101 6948448.776631101 13995315.34166702 0 0 0 0 0 115712845.1037004 6847291.676752565 6847291.676752565 13643463.85700084 0 0 0 0 0 115211788.2073509 6602535.831933067 6602535.831933067 12070780.64421451 0 0 0 0 0 114700751.6879613 6507441.626908554 6507441.626908554 11789835.50457028 0 0 0 0 0 114186891.3388418 6444128.44699683 6444128.44699683 10724289.05104213 0 0 0 0 0 114615974.5278109 6738940.358488695 6738940.358488695 11401670.3822149 0 0 0 0 0 113730162.4391836 6345310.266148659 6345310.266148659 10488819.7287092 0 0 0 0 0 113296009.9330165 6245499.253410606 6245499.253410606 10256903.00510024 0 0 0 0 0 112882232.310265 6145326.938801164 6145326.938801164 10031203.94278849 0 0 0 0 0 112487270.9013114 6045045.638964006 6045045.638964006 9812248.56500615 0 0 0 0 0 112111736.5238211 5953315.939322048 5953315.939322048 8941112.865485156 0 0 0 0 0 112462742.2551734 6198952.686894231 6198952.686894231 9511488.321179029 0 0 0 0 0 111755126.9436842 5853598.54704659 5853598.54704659 8757705.42157086 0 0 0 0 0 111413855.657262 5754508.825467836 5754508.825467836 8579411.864791675 0 0 0 0 0 111087079.7126421 5656208.943063533 5656208.943063533 8406089.29533764 0 0 0 0 0 110774026.4796819 5558885.072970522 5558885.072970522 8237601.396547558 0 0 0 0 0 110474071.8671038 5462719.29288287 5462719.29288287 8073593.14653733 0 0 0 0 0 110481702.1847115 5560768.431929554 5560768.431929554 7853760.982643984 0 0 0 0 0 109915737.657811 5267150.461153751 5267150.461153751 7244271.166943477 0 0 0 0 0 110194818.5948722 5462160.738461715 5462160.738461715 7696409.279546229 0 0 0 0 0 109679948.8149495 5192076.822356491 5192076.822356491 7141850.03143096 0 0 0 0 0 109485125.8806946 5127423.797026692 5127423.797026692 7001029.24237808 0 0 0 0 0 109314652.8765622 5051516.33654442 5051516.33654442 6817804.803368019 0 0 0 0 0 115246849.4236117 6535408.695134913 6535408.695134913 12941562.01413857 0 0 0 0 0 276443513.8257056 -10822584.73397885 -10822584.73397885 -599235.8112207005 0 0 0 0 0 255234061.3915329 -12236827.17773345 -12236827.17773345 11916935.82165227 0 0 0 0 0 243556282.7040595 -13257384.81758378 -13257384.81758378 17742335.54421858 0 0 0 0 0 240859051.5410194 -15360974.98665594 -15360974.98665594 22530062.39607809 0 0 0 0 0 223710858.9237343 -12477233.68393151 -12477233.68393151 26451365.69389601 0 0 0 0 0 214224529.5313067 -9645955.199547624 -9645955.199547624 29618290.01592938 0 0 0 0 0 205799412.502161 -11836521.8860724 -11836521.8860724 30364798.07212866 0 0 0 0 0 188196002.1000779 -6091761.663087171 -6091761.663087171 33032637.92657711 0 0 0 0 0 195712259.4051011 -9389748.980510717 -9389748.980510717 32246273.71440046 0 0 0 0 0 169469096.6450227 -3627981.271783873 -3627981.271783873 33786395.90154729 0 0 0 0 0 180388525.9215052 -4121170.32414786 -4121170.32414786 33690321.57994008 0 0 0 0 0 173560038.145528 -2426480.11012852 -2426480.11012852 33995540.77864844 0 0 0 0 0 163940606.1270486 -2084182.897944131 -2084182.897944131 33670296.11355206 0 0 0 0 0 159044312.3075103 -768546.3436363704 -768546.3436363704 33369820.95745056 0 0 0 0 0 154687872.6273241 354591.4655938747 354591.4655938747 32931532.4011667 0 0 0 0 0 150800822.2868525 1309171.018668171 1309171.018668171 32385762.83717555 0 0 0 0 0 147308712.7288866 2122797.063345621 2122797.063345621 31765832.87854768 0 0 0 0 0 144167395.2135724 2814324.097284205 2814324.097284205 31088667.31755789 0 0 0 0 0 141334702.7336816 3400296.301788214 3400296.301788214 30368874.73116948 0 0 0 0 0 138769469.9636725 3895977.729937139 3895977.729937139 29624515.83945868 0 0 0 0 0 137086000.9102813 5426622.273988644 5426622.273988644 28264880.04113515 0 0 0 0 0 135626376.1401542 4786232.104402231 4786232.104402231 27369970.25929431 0 0 0 0 0 133611762.7376383 5124579.258658041 5124579.258658041 26632701.79360628 0 0 0 0 0 131767005.1934923 5402388.369486979 5402388.369486979 25900950.87714728 0 0 0 0 0 130073399.8666523 5627693.029129729 5627693.029129729 25178545.75951415 0 0 0 0 0 128071771.7690507 6174173.30375092 6174173.30375092 23055365.72132753 0 0 0 0 0 129104042.0078861 6707381.331531629 6707381.331531629 24000114.66929376 0 0 0 0 0 126693992.0021354 6299424.195191962 6299424.195191962 22406355.09778146 0 0 0 0 0 125415376.2314355 6391904.11688209 6391904.11688209 21776004.77707413 0 0 0 0 0 124227300.6271209 6456282.309577374 6456282.309577374 21165829.76102931 0 0 0 0 0 123127778.7048046 6497420.888468968 6497420.888468968 20568563.2744156 0 0 0 0 0 122103183.1886671 6517789.228910059 6517789.228910059 19988373.11839896 0 0 0 0 0 121147521.0131842 6520350.213181945 6520350.213181945 19426365.70380993 0 0 0 0 0 120768284.4540347 7132913.797808087 7132913.797808087 18578999.58253615 0 0 0 0 0 120107011.4067989 6733111.344496811 6733111.344496811 17748626.12373387 0 0 0 0 0 119293959.1639974 6697297.460156477 6697297.460156477 17262577.77867179 0 0 0 0 0 118530225.0952437 6651037.025555678 6651037.025555678 16793087.22811257 0 0 0 0 0 117812081.0270074 6595877.727972952 6595877.727972952 16340130.57834646 0 0 0 0 0 117136183.7530051 6533491.038278489 6533491.038278489 15903565.16699395 0 0 0 0 0 116497896.693082 6463016.310406791 6463016.310406791 15477074.55910579 0 0 0 0 0 116336862.0033637 6844532.873025703 6844532.873025703 14881991.20593571 0 0 0 0 0 115847278.5017907 6522777.516800858 6522777.516800858 14167144.18599581 0 0 0 0 0 115282121.241451 6436194.433673037 6436194.433673037 13811683.06272704 0 0 0 0 0 115148291.1519797 6811693.085987005 6811693.085987005 12483237.26459436 0 0 0 0 0 114640088.1952125 6703167.959043272 6703167.959043272 12187806.14426174 0 0 0 0 0 114141816.2890854 6628896.94815099 6628896.94815099 11140674.53215759 0 0 0 0 0 114209892.0402728 6409386.125471009 6409386.125471009 11517951.97283445 0 0 0 0 0 113690502.9490218 6518219.878300607 6518219.878300607 10884890.37643321 0 0 0 0 0 113261092.5627938 6408113.088503564 6408113.088503564 10637659.52812604 0 0 0 0 0 112851325.4955206 6298378.676869457 6298378.676869457 10398192.47095843 0 0 0 0 0 112460016.2471907 6189134.164210724 6189134.164210724 10165890.97071894 0 0 0 0 0 112092854.6319537 6090576.356737046 6090576.356737046 9308956.393821988 0 0 0 0 0 112110191.1579788 5944893.867531633 5944893.867531633 9599633.487273304 0 0 0 0 0 111738907.403754 5983191.599523822 5983191.599523822 9112360.165259182 0 0 0 0 0 111400050.7581025 5876978.277660674 5876978.277660674 8921611.146808354 0 0 0 0 0 111075441.9145269 5772074.349042743 5772074.349042743 8736168.307649409 0 0 0 0 0 110764377.7699841 5668664.56823791 5668664.56823791 8556120.051833283 0 0 0 0 0 110465905.7370165 5567049.183646302 5567049.183646302 8380559.696843703 0 0 0 0 0 110185906.5475635 5368066.539313957 5368066.539313957 7913858.251307159 0 0 0 0 0 109915212.4723368 5363205.716337537 5363205.716337537 7527821.561355565 0 0 0 0 0 109911846.2441779 5274242.598183167 5274242.598183167 7756234.447987393 0 0 0 0 0 109693092.175764 5278442.389469006 5278442.389469006 7316435.737094961 0 0 0 0 0 109489304.4339933 5178771.522762704 5178771.522762704 7032767.43845418 0 0 0 0 0 115174290.6694498 6742995.111297038 6742995.111297038 13299972.73950764 0 0 0 0 0 303569235.9258944 -7613450.456816915 -7613450.456816915 7603531.127580689 0 0 0 0 0 276547422.7907591 -6634471.580234353 -6634471.580234353 11590826.10139349 0 0 0 0 0 256767625.0540818 -12239387.09698698 -12239387.09698698 21405688.24646534 0 0 0 0 0 264512663.2540647 -11097512.79923528 -11097512.79923528 14895768.16456035 0 0 0 0 0 234533708.7087291 -8850262.014140733 -8850262.014140733 25617332.95698788 0 0 0 0 0 220814802.7845272 -8015970.049635971 -8015970.049635971 28454265.88529576 0 0 0 0 0 211587739.6935588 -10333322.08591593 -10333322.08591593 29446916.56684726 0 0 0 0 0 202891865.1461299 -7481241.66032628 -7481241.66032628 31842454.09273603 0 0 0 0 0 186914137.5459783 -7237237.848853281 -7237237.848853281 33496632.082188 0 0 0 0 0 193112383.8916804 -5556844.957915861 -5556844.957915861 33318862.40826289 0 0 0 0 0 167553368.1725225 -981768.9477954233 -981768.9477954233 34027535.97270622 0 0 0 0 0 179248267.1838349 -5365349.987189363 -5365349.987189363 34256032.030978 0 0 0 0 0 172508022.7842978 -3737099.637731733 -3737099.637731733 34630563.31531468 0 0 0 0 0 162246059.1067462 249838.0850223241 249838.0850223241 33845701.81878273 0 0 0 0 0 157540175.6508906 1296970.767440891 1296970.767440891 33499490.13631424 0 0 0 0 0 153344561.7729028 2188889.382836311 2188889.382836311 33029187.05157906 0 0 0 0 0 149594147.4971172 2943619.746300441 2943619.746300441 32462061.04712521 0 0 0 0 0 146229980.1623715 3581692.08665937 3581692.08665937 31820242.97775474 0 0 0 0 0 143201954.6874388 4120060.89309107 4120060.89309107 31127524.73810265 0 0 0 0 0 140467587.4765824 4573356.382748159 4573356.382748159 30403027.65286111 0 0 0 0 0 137989463.5874337 4951973.970141569 4951973.970141569 29657021.76102787 0 0 0 0 0 136439936.7807685 4313178.492780176 4313178.492780176 28866141.4903309 0 0 0 0 0 134956584.3231295 5732830.940725187 5732830.940725187 27528013.55128527 0 0 0 0 0 133009765.3112812 5980842.585986155 5980842.585986155 26791855.80494021 0 0 0 0 0 131224840.7833749 6178752.976004517 6178752.976004517 26062205.32980807 0 0 0 0 0 129584407.5832201 6333169.24850943 6333169.24850943 25342202.44337058 0 0 0 0 0 127660161.1025392 6811147.05185164 6811147.05185164 23339091.59955683 0 0 0 0 0 128515416.7401584 5808146.135585958 5808146.135585958 24469819.40243633 0 0 0 0 0 126322425.4189742 6882614.800922044 6882614.800922044 22691508.71029828 0 0 0 0 0 125078019.868388 6924593.789650795 6924593.789650795 22055725.45912323 0 0 0 0 0 123924819.7764916 6943247.814729239 6943247.814729239 21429687.72500388 0 0 0 0 0 122853124.8425886 6944409.266722105 6944409.266722105 20826270.79369403 0 0 0 0 0 121854088.3301763 6928689.471668434 6928689.471668434 20240615.65987451 0 0 0 0 0 120921476.7366601 6898754.166170373 6898754.166170373 19672621.09307912 0 0 0 0 0 120254464.1450499 6507649.363551102 6507649.363551102 18882222.68153785 0 0 0 0 0 119920818.2756849 7080882.136446182 7080882.136446182 18067550.10382043 0 0 0 0 0 119124820.6330419 7019232.774392409 7019232.774392409 17573449.36754763 0 0 0 0 0 118376581.5667705 6949222.484924005 6949222.484924005 17095671.58734165 0 0 0 0 0 117672491.5500397 6872475.727965489 6872475.727965489 16633769.51980275 0 0 0 0 0 117009778.4926689 6789985.254381704 6789985.254381704 16188703.3805847 0 0 0 0 0 116382375.0680049 6702708.853859951 6702708.853859951 15765548.1135943 0 0 0 0 0 115893485.2250048 6387022.013301142 6387022.013301142 15073119.85999549 0 0 0 0 0 115751094.5693452 6746563.235764505 6746563.235764505 14503693.16208575 0 0 0 0 0 115198569.1882598 6644328.40444618 6644328.40444618 14125975.96010921 0 0 0 0 0 114728180.8980664 6443041.13198721 6443041.13198721 12622208.79406115 0 0 0 0 0 114233055.561772 6348501.686699293 6348501.686699293 12321461.64100746 0 0 0 0 0 113745172.1348298 6311193.629088594 6311193.629088594 11257594.15444384 0 0 0 0 0 114156817.9922186 6593497.236803067 6593497.236803067 11902999.8193239 0 0 0 0 0 113305168.9385111 6212813.763712818 6212813.763712818 10999460.0008279 0 0 0 0 0 112885871.6355959 6113699.494465142 6113699.494465142 10747614.1105911 0 0 0 0 0 112486134.6070179 6014458.606355608 6014458.606355608 10503427.63117891 0 0 0 0 0 112105012.0022756 5915297.157790572 5915297.157790572 10266712.33857792 0 0 0 0 0 111749867.2880041 5845202.023938582 5845202.023938582 9393420.301340923 0 0 0 0 0 112086180.6453144 6080742.94995816 6080742.94995816 9940677.627527006 0 0 0 0 0 111405354.6247206 5746158.171596778 5746158.171596778 9193289.740735345 0 0 0 0 0 111075684.5674984 5647864.219657696 5647864.219657696 8999011.692179797 0 0 0 0 0 110760007.6366934 5550553.714195538 5550553.714195538 8810784.785983691 0 0 0 0 0 110457627.2699785 5454414.865697699 5454414.865697699 8627908.653296653 0 0 0 0 0 110169136.0906674 5359789.836030442 5359789.836030442 8450208.089729374 0 0 0 0 0 110180206.0783005 5466534.266952367 5466534.266952367 8212396.152783408 0 0 0 0 0 109642915.4122155 5188658.240160683 5188658.240160683 7604234.850961518 0 0 0 0 0 109901232.8852489 5368131.839281591 5368131.839281591 8038005.760549165 0 0 0 0 0 109413852.0851946 5107511.144467128 5107511.144467128 7479904.812853218 0 0 0 0 0 109219918.7840102 5038440.291260939 5038440.291260939 7297588.15943139 0 0 0 0 0 114753920.0411392 6349103.244736618 6349103.244736618 13465388.81112664 0 0 0 0 0 280046597.2961427 -485513.1781908374 -485513.1781908374 5317531.745363343 0 0 0 0 0 275634514.7735676 -6164407.482854489 -6164407.482854489 11282634.96158447 0 0 0 0 0 242001390.9852329 -9808886.100236678 -9808886.100236678 17917370.94907429 0 0 0 0 0 255502681.8506046 -5844297.803174688 -5844297.803174688 18583136.69009267 0 0 0 0 0 228434861.2309779 -8557650.614665706 -8557650.614665706 23843281.92042318 0 0 0 0 0 216337044.3680032 -7646051.62495222 -7646051.62495222 27223577.94196653 0 0 0 0 0 208181961.0676629 -6304581.027472532 -6304581.027472532 30999350.77027713 0 0 0 0 0 200358576.3709627 -8307381.765060347 -8307381.765060347 31793025.73336312 0 0 0 0 0 184576298.4325441 -3883897.77328262 -3883897.77328262 34240330.02101084 0 0 0 0 0 190887187.3256037 -6576133.562966194 -6576133.562966194 33478345.5024517 0 0 0 0 0 166558153.3423737 -2322227.256067631 -2322227.256067631 34699022.15561621 0 0 0 0 0 177141644.2948297 -2398691.541849236 -2398691.541849236 34766309.04634638 0 0 0 0 0 170621450.0440806 -1117815.622106687 -1117815.622106687 34947591.31309166 0 0 0 0 0 161300547.1446108 -1101315.993443218 -1101315.993443218 34534990.5011198 0 0 0 0 0 156634446.4595251 -47960.80497260756 -47960.80497260756 34192990.52872323 0 0 0 0 0 152486812.2404316 856476.6537553621 856476.6537553621 33715274.49563091 0 0 0 0 0 148775945.1738975 1636956.492180751 1636956.492180751 33139249.3417166 0 0 0 0 0 145442971.3175368 2308146.720608044 2308146.720608044 32489844.57898371 0 0 0 0 0 142445002.263473 2884445.57203151 2884445.57203151 31783154.07949013 0 0 0 0 0 139735211.5486524 3377899.455589307 3377899.455589307 31038293.72284892 0 0 0 0 0 137279800.3062367 3797971.507045818 3797971.507045818 30270432.46466104 0 0 0 0 0 135737084.0742395 5265962.069934655 5265962.069934655 28899081.45292474 0 0 0 0 0 134318665.1888606 4662530.592576925 4662530.592576925 28102430.69528989 0 0 0 0 0 132381243.4411295 4953230.667911926 4953230.667911926 27339931.24559492 0 0 0 0 0 130606808.7494768 5192786.838947249 5192786.838947249 26583665.86949832 0 0 0 0 0 128978474.5784743 5388108.303217258 5388108.303217258 25838542.22209301 0 0 0 0 0 127076940.6205638 5947398.577588454 5947398.577588454 23772757.46294545 0 0 0 0 0 128074396.0671377 6450872.489371378 6450872.489371378 24638757.90569427 0 0 0 0 0 125745766.405122 6053393.124121166 6053393.124121166 23100556.84651973 0 0 0 0 0 124515384.6964167 6132310.066977452 6132310.066977452 22446218.00911557 0 0 0 0 0 123374417.2743984 6187566.932743213 6187566.932743213 21811166.70557521 0 0 0 0 0 122314788.4757658 6221136.937384773 6221136.937384773 21188520.81269677 0 0 0 0 0 121328364.6139469 6236462.283956314 6236462.283956314 20584961.13911955 0 0 0 0 0 120408339.6128608 6236141.93050201 6236141.93050201 20000667.03203244 0 0 0 0 0 120048942.4604007 6856920.692169094 6856920.692169094 19122848.5461462 0 0 0 0 0 119418594.0728413 6482092.693602231 6482092.693602231 18355521.69421875 0 0 0 0 0 118634836.9206483 6445360.151413952 6445360.151413952 17846239.94064115 0 0 0 0 0 117899021.5181948 6399362.757899447 6399362.757899447 17354668.8264134 0 0 0 0 0 117207437.8699539 6345485.488263818 6345485.488263818 16880299.65898213 0 0 0 0 0 116556090.6269986 6284499.817528846 6284499.817528846 16421801.0236619 0 0 0 0 0 115943419.5924043 6217622.281861356 6217622.281861356 15978060.46735825 0 0 0 0 0 115787092.4020294 6609824.301147995 6609824.301147995 15355696.81924368 0 0 0 0 0 115321475.0740705 6305574.250358075 6305574.250358075 14682860.30391586 0 0 0 0 0 114779558.2207765 6224065.854168967 6224065.854168967 14310932.27657475 0 0 0 0 0 114661073.6314462 6638492.829106275 6638492.829106275 12978370.95603593 0 0 0 0 0 114170375.2042714 6531109.481991103 6531109.481991103 12664992.83861928 0 0 0 0 0 113699508.9936371 6483775.078170457 6483775.078170457 11620545.33810288 0 0 0 0 0 113760396.8439632 6251892.331223295 6251892.331223295 12027476.53028032 0 0 0 0 0 113263464.9407064 6374359.136576892 6374359.136576892 11347418.27888326 0 0 0 0 0 112848751.7506598 6265684.707634089 6265684.707634089 11083119.70161858 0 0 0 0 0 112453071.9252651 6157367.634024651 6157367.634024651 10826710.88440616 0 0 0 0 0 112075442.7826032 6049935.476019273 6049935.476019273 10578433.55054544 0 0 0 0 0 111728831.6145866 5973384.497630548 5973384.497630548 9722303.674203509 0 0 0 0 0 111741130.5869885 5816548.773859099 5816548.773859099 10037299.79888641 0 0 0 0 0 111387003.7353308 5867200.237177812 5867200.237177812 9510692.407819726 0 0 0 0 0 111059636.5922626 5762308.967015146 5762308.967015146 9305613.165994093 0 0 0 0 0 110746162.9432939 5658924.722022568 5658924.722022568 9106609.467524223 0 0 0 0 0 110446066.2495621 5556996.700485276 5556996.700485276 8913440.665375538 0 0 0 0 0 110157179.7595744 5458732.914250966 5458732.914250966 8722924.732696868 0 0 0 0 0 109890101.7044671 5269749.578853431 5269749.578853431 8280912.590049249 0 0 0 0 0 109626595.1325024 5266428.596714209 5266428.596714209 7866331.7678224 0 0 0 0 0 109658198.7395182 5193235.270535381 5193235.270535381 8121067.530617729 0 0 0 0 0 109403006.0154776 5173540.288985407 5173540.288985407 7518170.543498563 0 0 0 0 0 114678354.9053435 6544003.763808819 6544003.763808819 13768335.83826257 0 0 0 0 0 264155505.6264477 -802817.3004896845 -802817.3004896845 12824099.01486368 0 0 0 0 0 241834760.0682341 -5221951.807224819 -5221951.807224819 23907795.90558089 0 0 0 0 0 255456564.3273251 -5375968.492448075 -5375968.492448075 18447485.43105998 0 0 0 0 0 228742337.4825924 -5358004.734099455 -5358004.734099455 28516751.54006934 0 0 0 0 0 213712387.3478113 -4451516.589765787 -4451516.589765787 29950262.02467169 0 0 0 0 0 207189482.1210891 -7020829.440913106 -7020829.440913106 31105305.58502739 0 0 0 0 0 197959129.1929371 -4616552.702281328 -4616552.702281328 33362045.61398523 0 0 0 0 0 182702955.8537214 -5030453.419810437 -5030453.419810437 34564199.2577242 0 0 0 0 0 188751413.1544453 -3376104.048840039 -3376104.048840039 34540460.40492088 0 0 0 0 0 164874704.5420375 -6710.128183374978 -6710.128183374978 34891128.45971038 0 0 0 0 0 175488145.9174046 -3646191.225132824 -3646191.225132824 35198454.07662003 0 0 0 0 0 169186614.6180867 -2431309.56223719 -2431309.56223719 35493564.21151537 0 0 0 0 0 159795219.463101 951431.4696211497 951431.4696211497 34636834.43138839 0 0 0 0 0 155286450.1414337 1777747.324229806 1777747.324229806 34232845.76271893 0 0 0 0 0 151273842.530074 2487036.854350474 2487036.854350474 33712016.07866398 0 0 0 0 0 147678748.7615856 3094506.964872398 3094506.964872398 33101263.41872734 0 0 0 0 0 144454553.7106549 3613038.838464948 3613038.838464948 32419592.49753425 0 0 0 0 0 141550717.2655312 4057914.334135925 4057914.334135925 31698558.65289655 0 0 0 0 0 138926380.5299203 4434936.737936245 4434936.737936245 30948366.01272225 0 0 0 0 0 136547452.0021223 4751958.491412596 4751958.491412596 30178449.25437717 0 0 0 0 0 135050077.4577773 4154084.153722769 4154084.153722769 29489622.51093283 0 0 0 0 0 133684041.6183809 5524453.215366391 5524453.215366391 28137442.36193784 0 0 0 0 0 131807427.0449199 5734794.350206476 5734794.350206476 27378749.08349432 0 0 0 0 0 130087248.8076441 5902845.33827241 5902845.33827241 26627425.80182092 0 0 0 0 0 128507998.2965677 6034161.40043245 6034161.40043245 25890080.53020727 0 0 0 0 0 126679164.8934945 6536120.892174447 6536120.892174447 23956072.53463921 0 0 0 0 0 127481653.8818386 5542806.972507115 5542806.972507115 25104050.64295487 0 0 0 0 0 125387111.2985093 6591594.29220177 6591594.29220177 23278237.97446536 0 0 0 0 0 124186763.9149895 6623309.74072835 6623309.74072835 22616590.56066016 0 0 0 0 0 123075823.5820252 6637162.470423248 6637162.470423248 21973324.72067277 0 0 0 0 0 122043287.1916705 6634308.779643788 6634308.779643788 21349448.07615755 0 0 0 0 0 121081115.8063448 6616851.195900011 6616851.195900011 20744555.87359577 0 0 0 0 0 120182835.6137989 6586964.468785622 6586964.468785622 20158495.70018829 0 0 0 0 0 119548747.8395991 6222404.311920576 6222404.311920576 19435110.19655101 0 0 0 0 0 119231607.6668816 6804995.915087647 6804995.915087647 18591079.53039899 0 0 0 0 0 118464433.984712 6744420.807433642 6744420.807433642 18077112.49622414 0 0 0 0 0 117743552.9041209 6676552.710551613 6676552.710551613 17580389.09316415 0 0 0 0 0 117065674.1646598 6602518.661725476 6602518.661725476 17100189.57600332 0 0 0 0 0 116427446.6922099 6523551.909300869 6523551.909300869 16637221.23722222 0 0 0 0 0 115825202.8575423 6439397.961870291 6439397.961870291 16197891.6539753 0 0 0 0 0 115364588.2482077 6144326.058899123 6144326.058899123 15551782.22079427 0 0 0 0 0 115220985.6922252 6513535.730234263 6513535.730234263 14953176.95208773 0 0 0 0 0 114690183.9403632 6417451.146703032 6417451.146703032 14563942.22943827 0 0 0 0 0 114252023.4896292 6258846.452782261 6258846.452782261 13126825.60326215 0 0 0 0 0 113773117.7233167 6165799.607891247 6165799.607891247 12806718.9466888 0 0 0 0 0 113310286.3080588 6154757.504818701 6154757.504818701 11748787.47277602 0 0 0 0 0 113702707.1308229 6423172.420259272 6423172.420259272 12361629.35731217 0 0 0 0 0 112886783.72028 6057810.536827896 6057810.536827896 11471288.55853851 0 0 0 0 0 112482152.760884 5960631.061380854 5960631.061380854 11201847.59724489 0 0 0 0 0 112096938.7172159 5863473.408259479 5863473.408259479 10940826.90917067 0 0 0 0 0 111729486.5446801 5766619.023164717 5766619.023164717 10687938.90124881 0 0 0 0 0 111393425.9295868 5718406.747395705 5718406.747395705 9814981.119423855 0 0 0 0 0 111714725.6480205 5943494.283858791 5943494.283858791 10338038.48430877 0 0 0 0 0 111060869.5930986 5620982.516874446 5620982.516874446 9599477.17200806 0 0 0 0 0 110742770.1428954 5524410.735026899 5524410.735026899 9390642.789215485 0 0 0 0 0 110437985.2797185 5428808.257962228 5428808.257962228 9188292.388058558 0 0 0 0 0 110146218.7991209 5334655.740342664 5334655.740342664 8992409.239576492 0 0 0 0 0 109874017.6412206 5242887.644821056 5242887.644821056 8801583.173549823 0 0 0 0 0 109884311.5342719 5358642.088935221 5358642.088935221 8529969.395213928 0 0 0 0 0 109438191.5973789 5113052.226766487 5113052.226766487 7900288.450054654 0 0 0 0 0 109655881.5678486 5262137.148935254 5262137.148935254 8325423.541679067 0 0 0 0 0 109141738.9903149 5018998.797962 5018998.797962 7844765.614983722 0 0 0 0 0 114268911.0663809 6139189.034521774 6139189.034521774 13943692.30424771 0 0 0 0 0 237072074.3472589 -5151142.578617845 -5151142.578617845 22552861.22315508 0 0 0 0 0 246100579.7133362 202129.0150769023 202129.0150769023 19858814.40096528 0 0 0 0 0 217420610.2229302 -3348245.446806462 -3348245.446806462 26927077.41327692 0 0 0 0 0 215755510.2777899 -5582225.488048717 -5582225.488048717 30739683.93482363 0 0 0 0 0 202075407.0961949 -3184519.080409822 -3184519.080409822 32408521.09971638 0 0 0 0 0 195036383.0524414 -5616044.874180731 -5616044.874180731 33337240.92877103 0 0 0 0 0 180724273.6189467 -2173477.917101629 -2173477.917101629 35318566.71944419 0 0 0 0 0 185947306.3889135 -4349995.495633631 -4349995.495633631 34567352.75014751 0 0 0 0 0 163576615.2480946 -1345716.075332013 -1345716.075332013 35488946.59807383 0 0 0 0 0 173695410.8327143 -1098118.861208292 -1098118.861208292 35679093.96186487 0 0 0 0 0 167539584.0680874 -155023.1904466283 -155023.1904466283 35726752.42568869 0 0 0 0 0 158605627.8443964 -394968.5055172959 -394968.5055172959 35265373.5435801 0 0 0 0 0 154196884.9747366 434504.6338360469 434504.6338360469 34871560.28776975 0 0 0 0 0 150262170.7800726 1161336.747850192 1161336.747850192 34355143.41500904 0 0 0 0 0 146739946.5398646 1795422.717424184 1795422.717424184 33744903.89851806 0 0 0 0 0 143580392.7985181 2349163.231512847 2349163.231512847 33065645.27696237 0 0 0 0 0 140725795.8124689 2831932.231859246 2831932.231859246 32332278.00995996 0 0 0 0 0 138142512.2182941 3248338.642164001 3248338.642164001 31565801.03218273 0 0 0 0 0 135803665.3528903 3605540.98026294 3605540.98026294 30778350.91133478 0 0 0 0 0 134385569.6930837 5017675.34061923 5017675.34061923 29398971.60065003 0 0 0 0 0 133018666.2169105 4454941.195278089 4454941.195278089 28704419.70212191 0 0 0 0 0 131161173.0466209 4707161.127080503 4707161.127080503 27921604.57853577 0 0 0 0 0 129460537.2296584 4916282.384538339 4916282.384538339 27146430.57156289 0 0 0 0 0 127899650.7542888 5085999.043458316 5085999.043458316 26380658.23672071 0 0 0 0 0 126096120.6317049 5662968.626050828 5662968.626050828 24385806.95080309 0 0 0 0 0 127052335.0066177 6133791.291362528 6133791.291362528 25169122.8165914 0 0 0 0 0 124813310.5007083 5756473.530326852 5756473.530326852 23698148.32073333 0 0 0 0 0 123632860.9265819 5826764.831086326 5826764.831086326 23022613.95363888 0 0 0 0 0 122536923.9741365 5875034.729008827 5875034.729008827 22361398.46298187 0 0 0 0 0 121518639.9651711 5904782.93392475 5904782.93392475 21719150.39661672 0 0 0 0 0 120570636.2010829 5918407.503713671 5918407.503713671 21096836.00705943 0 0 0 0 0 119686422.6442589 5918087.286969515 5918087.286969515 20494354.92311158 0 0 0 0 0 119343043.9119781 6546498.776234862 6546498.776234862 19591104.9578031 0 0 0 0 0 118744331.0022528 6197049.461347356 6197049.461347356 18887890.64230363 0 0 0 0 0 117990114.99855 6161869.253924405 6161869.253924405 18359288.7094748 0 0 0 0 0 117282270.3661203 6118202.710623576 6118202.710623576 17848902.86664376 0 0 0 0 0 116616956.3447273 6067154.016179804 6067154.016179804 17356049.94491772 0 0 0 0 0 115990398.8655919 6009836.833819604 6009836.833819604 16880125.98818131 0 0 0 0 0 115400193.3455852 5947481.430026728 5947481.430026728 16422214.7141297 0 0 0 0 0 115246480.3471497 6351032.547798952 6351032.547798952 15771951.56201067 0 0 0 0 0 114810499.3634602 6068388.748966525 6068388.748966525 15151301.9686968 0 0 0 0 0 114288613.3460995 5988490.874552503 5988490.874552503 14754082.94543236 0 0 0 0 0 114181337.3258772 6441029.590305466 6441029.590305466 13430330.81142584 0 0 0 0 0 113708119.5543266 6336537.081019974 6336537.081019974 13097595.51896243 0 0 0 0 0 113262220.3949967 6315288.211003951 6315288.211003951 12060940.61153805 0 0 0 0 0 113317230.246 6071131.869143455 6071131.869143455 12496328.01187763 0 0 0 0 0 112842440.8686683 6208817.3570572 6208817.3570572 11772499.73374533 0 0 0 0 0 112442342.4736615 6102449.87227546 6102449.87227546 11491678.15590137 0 0 0 0 0 112060958.5133992 5996958.555052713 5996958.555052713 11220396.00202225 0 0 0 0 0 111696944.3017936 5892378.854356544 5892378.854356544 10957820.32111336 0 0 0 0 0 111369924.5624081 5838205.110290362 5838205.110290362 10105328.24368373 0 0 0 0 0 111378672.1828212 5670292.993964071 5670292.993964071 10443053.02609953 0 0 0 0 0 111040102.2469325 5734124.033462963 5734124.033462963 9880286.691502377 0 0 0 0 0 110724335.316057 5631440.471678481 5631440.471678481 9662675.240965806 0 0 0 0 0 110421528.9223542 5530130.717670949 5530130.717670949 9449723.038739124 0 0 0 0 0 110133534.5696455 5429988.049410185 5429988.049410185 9244652.360464899 0 0 0 0 0 109851994.2823835 5340563.199681331 5340563.199681331 9025690.639153067 0 0 0 0 0 109587763.063105 5159189.178129483 5159189.178129483 8622963.858348001 0 0 0 0 0 109355693.7492406 5119658.386093841 5119658.386093841 8310639.090136203 0 0 0 0 0 109409833.1521239 5098999.302879772 5098999.302879772 8490034.548574613 0 0 0 0 0 109239253.316722 5088491.764259749 5088491.764259749 7931782.022345992 0 0 0 0 0 114190035.3217187 6320759.01853284 6320759.01853284 14188544.36274559 0 0 0 0 0 228894636.3646389 357615.8964779506 357615.8964779506 25247329.11297236 0 0 0 0 0 224264786.9824352 -3658828.644254502 -3658828.644254502 28528473.76990016 0 0 0 0 0 208042056.1011008 -1663964.378147956 -1663964.378147956 30614237.64267538 0 0 0 0 0 203641123.5607296 -4426570.298275728 -4426570.298275728 33231981.87389623 0 0 0 0 0 193034082.2544551 -2670179.055644364 -2670179.055644364 34538534.0153854 0 0 0 0 0 178276049.4166205 -3299881.19614691 -3299881.19614691 35475323.87313098 0 0 0 0 0 184181129.4344898 -1785142.948659972 -1785142.948659972 35678122.24049204 0 0 0 0 0 162092991.4809604 676050.5068175422 676050.5068175422 35587534.36693353 0 0 0 0 0 171761538.5800506 -2379162.985337031 -2379162.985337031 36019367.17275155 0 0 0 0 0 165858901.7237273 -1468157.59100152 -1468157.59100152 36212913.26393288 0 0 0 0 0 157261754.6577104 1403215.649646352 1403215.649646352 35258336.73500056 0 0 0 0 0 152981401.7309637 2045607.140158847 2045607.140158847 34799248.19549423 0 0 0 0 0 149160368.7672773 2603192.484619644 2603192.484619644 34229427.46254944 0 0 0 0 0 145737325.23078 3087346.41911373 3087346.41911373 33573624.88855829 0 0 0 0 0 142665776.3113216 3514218.949122786 3514218.949122786 32865078.47637914 0 0 0 0 0 139893829.8601671 3883487.675111388 3883487.675111388 32122522.54596149 0 0 0 0 0 137385958.8107805 4197390.869530553 4197390.869530553 31351322.73445827 0 0 0 0 0 135113204.6332779 4465427.797267776 4465427.797267776 30561943.33669082 0 0 0 0 0 133678880.3726399 3912718.493594833 3912718.493594833 29979687.28669937 0 0 0 0 0 132414820.1128761 5238876.754636583 5238876.754636583 28619120.59281186 0 0 0 0 0 130612288.5913805 5419329.094319754 5419329.094319754 27843154.22522748 0 0 0 0 0 128961476.6019339 5564254.879041961 5564254.879041961 27077433.18662964 0 0 0 0 0 127444289.0204958 5678534.318560942 5678534.318560942 26329454.1599455 0 0 0 0 0 125704219.6365235 6204295.741032499 6204295.741032499 24464422.99959131 0 0 0 0 0 126460318.8595033 5221871.395360023 5221871.395360023 25630967.30536003 0 0 0 0 0 124460419.4963884 6249934.643456452 6249934.643456452 23762752.2961152 0 0 0 0 0 123310219.2909078 6278735.107871306 6278735.107871306 23085137.08112328 0 0 0 0 0 122242122.9298797 6290258.256778567 6290258.256778567 22426396.23879838 0 0 0 0 0 121249212.449899 6286899.22151065 6286899.22151065 21787085.26068565 0 0 0 0 0 120324135.917289 6270664.045265891 6270664.045265891 21167347.80855406 0 0 0 0 0 119460587.0142359 6243373.106671412 6243373.106671412 20567124.77828534 0 0 0 0 0 118860219.773995 5905743.619714003 5905743.619714003 19911472.2737856 0 0 0 0 0 118556003.2056266 6497021.488257036 6497021.488257036 19042824.56524468 0 0 0 0 0 117817798.1777182 6439748.014637368 6439748.014637368 18512743.41052783 0 0 0 0 0 117124506.6674962 6375833.425556051 6375833.425556051 18000574.6509496 0 0 0 0 0 116472215.9402805 6306414.506760619 6306414.506760619 17506039.91821478 0 0 0 0 0 115858093.4070476 6232637.215009445 6232637.215009445 17030436.76445537 0 0 0 0 0 115280955.7931115 6155481.307061921 6155481.307061921 16572119.27022081 0 0 0 0 0 114844577.7190656 5880045.319113635 5880045.319113635 15981734.07282336 0 0 0 0 0 114705914.5009737 6260413.391128799 6260413.391128799 15353306.58472966 0 0 0 0 0 114194182.1020186 6169431.34232079 6169431.34232079 14951728.12235244 0 0 0 0 0 113785343.6731832 6051714.004039831 6051714.004039831 13585986.9219743 0 0 0 0 0 113323378.4761446 5961374.559904159 5961374.559904159 13248989.10364045 0 0 0 0 0 112884850.0617655 5976753.029966322 5976753.029966322 12197832.95103982 0 0 0 0 0 113258404.9766088 6231090.004941844 6231090.004941844 12777932.41024832 0 0 0 0 0 112476260.8903049 5882559.478881377 5882559.478881377 11904335.32546048 0 0 0 0 0 112086700.9086425 5788486.336867593 5788486.336867593 11619586.05236885 0 0 0 0 0 111715603.2213357 5694509.308010326 5694509.308010326 11343025.32211356 0 0 0 0 0 111361881.7110187 5600907.340972275 5600907.340972275 11075421.4022932 0 0 0 0 0 111043447.5452739 5574678.977669944 5574678.977669944 10205930.95185864 0 0 0 0 0 111349371.8727723 5788944.434096863 5788944.434096863 10703785.66752745 0 0 0 0 0 110722690.6523695 5479782.418288186 5479782.418288186 9976278.984066598 0 0 0 0 0 110415553.7704003 5385431.586796749 5385431.586796749 9754128.282779278 0 0 0 0 0 110120824.3579054 5291444.779889179 5291444.779889179 9538785.651596488 0 0 0 0 0 109829622.9927226 5196706.332077657 5196706.332077657 9330611.910927331 0 0 0 0 0 109571832.161581 5113459.329685979 5113459.329685979 9151635.44135653 0 0 0 0 0 109580666.6704203 5232450.413690677 5232450.413690677 8782346.0058208 0 0 0 0 0 109357909.8926122 5119592.532428311 5119592.532428311 8311150.555053099 0 0 0 0 0 109045126.8620297 4985325.438004592 4985325.438004592 8339115.960981632 0 0 0 0 0 113794808.2115585 5907661.308419814 5907661.308419814 14372890.71648845 0 0 0 0 0 214885342.5097465 259702.3359638182 259702.3359638182 28821122.64838861 0 0 0 0 0 210897011.6669598 -2749315.402684689 -2749315.402684689 31558781.74491517 0 0 0 0 0 196521197.1152835 -1256026.611843725 -1256026.611843725 33107897.03530763 0 0 0 0 0 188929868.0277485 -3072740.511798402 -3072740.511798402 34338647.83169071 0 0 0 0 0 176664256.417659 -902174.4081184058 -902174.4081184058 36213450.69573632 0 0 0 0 0 181410570.7296433 -2770292.529527402 -2770292.529527402 35609896.20314906 0 0 0 0 0 160545126.1374179 -648402.1367690248 -648402.1367690248 36125760.88284077 0 0 0 0 0 170211396.8257085 -184296.5598210061 -184296.5598210061 36384378.5909135 0 0 0 0 0 164399708.7496854 483295.3720209209 483295.3720209209 36337638.63945159 0 0 0 0 0 155911740.9679357 62443.78818985557 62443.78818985557 35839351.99359144 0 0 0 0 0 151754280.014924 714803.0347303116 714803.0347303116 35395817.29896645 0 0 0 0 0 148041497.4040385 1290796.210137247 1290796.210137247 34840732.19919337 0 0 0 0 0 144731346.3604208 1805476.779597665 1805476.779597665 34197147.8110417 0 0 0 0 0 141737027.412778 2267809.072326009 2267809.072326009 33489024.14331033 0 0 0 0 0 139023694.8748839 2673218.513343002 2673218.513343002 32735339.85405339 0 0 0 0 0 136574217.6657027 3024509.106310114 3024509.106310114 31952706.91635901 0 0 0 0 0 134361992.6167443 3332529.099713153 3332529.099713153 31150589.7567063 0 0 0 0 0 133047268.4197903 4695909.219956003 4695909.219956003 29770376.40085006 0 0 0 0 0 131736254.2383722 4175355.048872225 4175355.048872225 29178615.87523516 0 0 0 0 0 129961931.6018657 4396692.10844002 4396692.10844002 28380973.95447093 0 0 0 0 0 128335565.8731974 4581840.82904977 4581840.82904977 27591077.86523943 0 0 0 0 0 126842089.4457153 4731417.053796521 4731417.053796521 26808940.45014033 0 0 0 0 0 125131426.9518258 5330264.873779454 5330264.873779454 24898704.3739884 0 0 0 0 0 126044660.6948622 5765575.714157117 5765575.714157117 25591233.90225714 0 0 0 0 0 123904448.1487502 5416243.728253745 5416243.728253745 24193385.65505891 0 0 0 0 0 122770986.7048942 5480324.60752298 5480324.60752298 23497513.09116405 0 0 0 0 0 121720096.2739811 5525680.320706892 5525680.320706892 22820279.39088298 0 0 0 0 0 120743083.3323714 5554694.340831457 5554694.340831457 22163082.54899063 0 0 0 0 0 119833321.1629913 5569321.895968032 5569321.895968032 21526253.85238561 0 0 0 0 0 118984691.3984965 5571458.946148954 5571458.946148954 20909736.15185312 0 0 0 0 0 118653145.1607148 6206627.983923547 6206627.983923547 19986364.12270279 0 0 0 0 0 118087090.81919 5883005.923740902 5883005.923740902 19347685.02524547 0 0 0 0 0 117362494.993814 5851311.293694003 5851311.293694003 18803147.43813211 0 0 0 0 0 116682437.303227 5811901.819603211 5811901.819603211 18277456.80847279 0 0 0 0 0 116043491.1135737 5765924.134492897 5765924.134492897 17770268.06079768 0 0 0 0 0 115442004.5811288 5714479.836495756 5714479.836495756 17280676.34155269 0 0 0 0 0 114875334.7477826 5658310.863274973 5658310.863274973 16808626.67880015 0 0 0 0 0 114727215.5995302 6073406.635057439 6073406.635057439 16132963.67137999 0 0 0 0 0 114312165.5939873 5807827.243978377 5807827.243978377 15556805.05155864 0 0 0 0 0 113809207.7861582 5733441.213380155 5733441.213380155 15145930.68955807 0 0 0 0 0 113711132.6220817 6221724.736941513 6221724.736941513 13834035.22652408 0 0 0 0 0 113254862.7238841 6120455.430335557 6120455.430335557 13488522.48083149 0 0 0 0 0 112833503.0511719 6126859.858848719 6126859.858848719 12463723.90480437 0 0 0 0 0 112885323.2903521 5870849.905219469 5870849.905219469 12921207.95427195 0 0 0 0 0 112428891.0863667 6023561.517109836 6023561.517109836 12158872.62876476 0 0 0 0 0 112043574.607417 5920966.917234751 5920966.917234751 11864327.98462126 0 0 0 0 0 111676392.253384 5819174.593398776 5819174.593398776 11579497.52896098 0 0 0 0 0 111326076.462974 5718516.692631615 5718516.692631615 11304167.26560198 0 0 0 0 0 111017130.8066857 5686710.920100645 5686710.920100645 10458220.67157094 0 0 0 0 0 111024015.1852871 5507987.979960117 5507987.979960117 10816547.29366723 0 0 0 0 0 110699296.1375848 5585657.359864885 5585657.359864885 10221955.04962824 0 0 0 0 0 110394923.2100013 5485634.389155699 5485634.389155699 9993973.286534619 0 0 0 0 0 110100242.3257098 5387840.486595127 5387840.486595127 9770320.18195834 0 0 0 0 0 109811707.2709701 5294003.473926252 5294003.473926252 9542013.525476255 0 0 0 0 0 109554665.8523321 5173500.383386791 5173500.383386791 9177102.477019008 0 0 0 0 0 109339437.2234589 5018898.87526627 5018898.87526627 8878114.992825873 0 0 0 0 0 109206561.3148121 5060393.101972701 5060393.101972701 8773784.05731965 0 0 0 0 0 109082831.1166213 5021472.728874337 5021472.728874337 8385537.280651408 0 0 0 0 0 113712854.2912999 6076996.304742278 6076996.304742278 14561691.19171901 0 0 0 0 0 204029191.9095316 371751.0418091987 371751.0418091987 31813711.7285576 0 0 0 0 0 195431417.8365101 -3194589.317812585 -3194589.317812585 34670569.21733167 0 0 0 0 0 200199718.3556161 -2534463.042999573 -2534463.042999573 34128568.48308318 0 0 0 0 0 187483347.7161228 -1345476.7288833 -1345476.7288833 35697966.49186601 0 0 0 0 0 174534267.2307352 -2200533.622543245 -2200533.622543245 36358647.66074073 0 0 0 0 0 179299791.9749261 -610761.4838460436 -610761.4838460436 36394198.22208986 0 0 0 0 0 159240178.6401146 1075957.117162688 1075957.117162688 36107641.25569009 0 0 0 0 0 168263101.7233898 -1517956.948593257 -1517956.948593257 36813845.03950167 0 0 0 0 0 162593641.0917865 -858871.9363141299 -858871.9363141299 36833263.87625442 0 0 0 0 0 154710927.2760451 1634614.728878007 1634614.728878007 35707891.39806422 0 0 0 0 0 150659960.971998 2123822.730605907 2123822.730605907 35199869.61366434 0 0 0 0 0 147039007.9277496 2551669.276125661 2551669.276125661 34568881.05865259 0 0 0 0 0 143806550.32353 2951572.776106186 2951572.776106186 33888523.88678323 0 0 0 0 0 140888171.265035 3307189.543957849 3307189.543957849 33164443.75519113 0 0 0 0 0 138248854.9642498 3610905.567565744 3610905.567565744 32402981.63110818 0 0 0 0 0 135864089.9874522 3872821.470843805 3872821.470843805 31610612.71056722 0 0 0 0 0 133705112.9699129 4112476.065750615 4112476.065750615 30820137.92348097 0 0 0 0 0 132330966.4033875 3603020.973017335 3603020.973017335 30340350.9845748 0 0 0 0 0 131160032.2714967 4886604.878149786 4886604.878149786 28976829.36665642 0 0 0 0 0 129435344.375019 5044489.289089437 5044489.289089437 28188812.84679768 0 0 0 0 0 127855559.4132387 5173462.724856693 5173462.724856693 27417310.06185284 0 0 0 0 0 126397559.4679614 5275923.378518756 5275923.378518756 26663458.13379529 0 0 0 0 0 124749366.8126797 5826373.287161857 5826373.287161857 24864001.15829048 0 0 0 0 0 125459717.5467336 4854455.725474047 4854455.725474047 26052046.30152858 0 0 0 0 0 123556615.6926286 5869903.823420059 5869903.823420059 24153085.43315253 0 0 0 0 0 122452669.1812941 5896973.029450504 5896973.029450504 23462670.50910132 0 0 0 0 0 121427858.2773933 5909248.379292049 5909248.379292049 22792584.20414048 0 0 0 0 0 120474787.1314871 5908247.771177769 5908247.771177769 22142278.26530777 0 0 0 0 0 119586770.9135168 5895745.395281936 5895745.395281936 21511848.60030562 0 0 0 0 0 118757836.0437273 5873303.126244888 5873303.126244888 20901437.64796212 0 0 0 0 0 118191678.8703873 5562692.36708781 5562692.36708781 20313270.65966811 0 0 0 0 0 117896930.5355266 6161671.187799157 6161671.187799157 19424831.73729958 0 0 0 0 0 117187708.9848319 6109670.840353643 6109670.840353643 18882158.71087832 0 0 0 0 0 116521642.8122557 6051702.602836997 6051702.602836997 18358236.68594798 0 0 0 0 0 115895071.5048765 5988812.088798796 5988812.088798796 17851187.51156861 0 0 0 0 0 115305709.7510952 5922133.101403087 5922133.101403087 17361876.72893804 0 0 0 0 0 114749940.1120625 5851493.508308726 5851493.508308726 16891672.32389671 0 0 0 0 0 114340177.1754774 5596281.942364967 5596281.942364967 16349799.2553798 0 0 0 0 0 114206025.5279634 5989277.841873108 5989277.841873108 15705036.75429644 0 0 0 0 0 113711847.4717992 5902986.148569644 5902986.148569644 15291637.84240726 0 0 0 0 0 113330208.1258674 5824302.385065116 5824302.385065116 13998768.1018681 0 0 0 0 0 112885540.9238996 5738548.932695764 5738548.932695764 13645605.08163444 0 0 0 0 0 112469266.2391536 5779722.039314859 5779722.039314859 12607299.21340684 0 0 0 0 0 112823204.7013411 6019839.618311474 6019839.618311474 13154176.50406488 0 0 0 0 0 112075523.5683275 5689538.352742032 5689538.352742032 12300515.2684933 0 0 0 0 0 111700361.8817177 5599368.879866255 5599368.879866255 12000465.69543899 0 0 0 0 0 111343602.9797082 5509428.195370126 5509428.195370126 11710120.70237538 0 0 0 0 0 111003147.0986302 5420046.668643511 5420046.668643511 11429436.74952021 0 0 0 0 0 110701057.5854596 5415865.915256423 5415865.915256423 10566244.11595559 0 0 0 0 0 110991407.9226958 5619022.162821431 5619022.162821431 11037978.16355522 0 0 0 0 0 110392168.2288211 5324438.483280749 5324438.483280749 10323879.84242252 0 0 0 0 0 110097354.0039612 5234493.551632623 5234493.551632623 10091379.17791485 0 0 0 0 0 109821146.6268145 5146475.358719447 5146475.358719447 9864622.205399778 0 0 0 0 0 109557270.925687 5058694.721104897 5058694.721104897 9628939.674042732 0 0 0 0 0 109326931.0278232 5031476.003126376 5031476.003126376 9473253.162289606 0 0 0 0 0 109278721.2013766 5086634.002908852 5086634.002908852 9159722.217563126 0 0 0 0 0 109093361.381142 4961110.435031913 4961110.435031913 8732579.846503772 0 0 0 0 0 108916498.5877226 4906828.21943521 4906828.21943521 8731608.673361933 0 0 0 0 0 113333852.6079593 5657818.497641771 5657818.497641771 14752810.66820296 0 0 0 0 0 189622767.011413 -898353.5492317779 -898353.5492317779 34818907.26605992 0 0 0 0 0 194112850.8470143 573471.2707686676 573471.2707686676 34083728.45165644 0 0 0 0 0 185364884.5641463 -2216972.76782238 -2216972.76782238 35435974.23034533 0 0 0 0 0 172564056.385092 -55362.25364407595 -55362.25364407595 36760515.10889084 0 0 0 0 0 177767917.1378352 -1951996.089865237 -1951996.089865237 36427135.98547828 0 0 0 0 0 157616473.9787899 -228391.3198558219 -228391.3198558219 36571990.49590775 0 0 0 0 0 166736937.7203997 397920.4671646282 397920.4671646282 36906929.79787035 0 0 0 0 0 161231663.5230719 739692.3382610624 739692.3382610624 36619531.84943468 0 0 0 0 0 153239490.7759945 314056.4121754065 314056.4121754065 36246195.45229562 0 0 0 0 0 149316426.6394044 811581.2357743614 811581.2357743614 35760830.09265163 0 0 0 0 0 145894163.6633641 1261802.820375084 1261802.820375084 35165211.59233467 0 0 0 0 0 142755863.3160697 1694487.225808687 1694487.225808687 34490082.21168202 0 0 0 0 0 139918508.2455949 2075652.624637242 2075652.624637242 33767983.67799284 0 0 0 0 0 137364154.0325345 2418703.150698515 2418703.150698515 32998623.00577128 0 0 0 0 0 135074291.9379189 2725092.21906196 2725092.21906196 32201060.44451628 0 0 0 0 0 132941529.8301218 2997378.469333568 2997378.469333568 31393224.05604118 0 0 0 0 0 131730406.2837987 4309693.428367967 4309693.428367967 30016305.22424224 0 0 0 0 0 130482870.7336254 3833938.788814858 3833938.788814858 29529169.80445855 0 0 0 0 0 128791868.0997432 4032250.074930747 4032250.074930747 28721898.0901218 0 0 0 0 0 127243043.5180264 4198168.332617492 4198168.332617492 27919229.89939721 0 0 0 0 0 125816033.9882559 4334731.601987559 4334731.601987559 27128362.84991216 0 0 0 0 0 124192229.3593425 4957296.518745995 4957296.518745995 25311678.70623549 0 0 0 0 0 125056958.5557322 5352218.611798781 5352218.611798781 25901960.82314893 0 0 0 0 0 123019239.9236383 5038204.101142109 5038204.101142109 24586709.24003934 0 0 0 0 0 121934257.44416 5100429.65863715 5100429.65863715 23879263.00090176 0 0 0 0 0 120927489.3389423 5145897.050570158 5145897.050570158 23190982.30352596 0 0 0 0 0 119991320.1303225 5176714.861206079 5176714.861206079 22523089.62573583 0 0 0 0 0 119119305.9821927 5194667.378934601 5194667.378934601 21875979.63899847 0 0 0 0 0 118305689.0490287 5201309.23312184 5201309.23312184 21249451.31507923 0 0 0 0 0 117982735.4439493 5842221.73682476 5842221.73682476 20310815.46245688 0 0 0 0 0 117449515.6064731 5544497.720263302 5544497.720263302 19736776.19110487 0 0 0 0 0 116753956.7919486 5518145.122840198 5518145.122840198 19180043.38802195 0 0 0 0 0 116101393.1029825 5484756.887377333 5484756.887377333 18642498.18413076 0 0 0 0 0 115488018.8960539 5445397.032058522 5445397.032058522 18123904.52520926 0 0 0 0 0 114910170.3986015 5400928.013650953 5400928.013650953 17622683.38508854 0 0 0 0 0 114367060.6248131 5351744.183359972 5351744.183359972 17137962.74616823 0 0 0 0 0 114219066.4227596 5777879.718679053 5777879.718679053 16449773.00472598 0 0 0 0 0 113826493.7652471 5529407.553207803 5529407.553207803 15913515.81608988 0 0 0 0 0 113342141.0429712 5460991.271746024 5460991.271746024 15492931.76848899 0 0 0 0 0 113251840.0331787 5982854.084051308 5982854.084051308 14196692.45656236 0 0 0 0 0 112813903.124494 5886988.714347229 5886988.714347229 13839688.77638819 0 0 0 0 0 112413522.0636002 5919901.925998498 5919901.925998498 12826057.593669 0 0 0 0 0 112463646.1882014 5651655.794349433 5651655.794349433 13306261.86594432 0 0 0 0 0 112024083.9582132 5821068.615355825 5821068.615355825 12507729.59470093 0 0 0 0 0 111653554.1158936 5722964.570204748 5722964.570204748 12200723.30232053 0 0 0 0 0 111300651.3128663 5626077.055544193 5626077.055544193 11904523.34812692 0 0 0 0 0 110963748.1336345 5530181.063220952 5530181.063220952 11618036.31291823 0 0 0 0 0 110671633.0189379 5520683.232913991 5520683.232913991 10781119.50285049 0 0 0 0 0 110677900.6020627 5331329.18049983 5331329.18049983 11158083.33626907 0 0 0 0 0 110365304.6266007 5423526.112954297 5423526.112954297 10533179.00315695 0 0 0 0 0 110073337.9214315 5327176.204058344 5327176.204058344 10290742.11775242 0 0 0 0 0 109795462.6805201 5231041.936918397 5231041.936918397 10057393.25387808 0 0 0 0 0 109506774.4104436 5132225.570628691 5132225.570628691 9845554.575971462 0 0 0 0 0 109355044.9704202 5039120.434547803 5039120.434547803 9485365.489617204 0 0 0 0 0 109220443.8948537 5010478.836277447 5010478.836277447 9112230.990714347 0 0 0 0 0 109077813.860237 5022718.192678727 5022718.192678727 8952913.976374278 0 0 0 0 0 113248308.9107254 5815874.026081 5815874.026081 14889320.32352625 0 0 0 0 0 190084982.6024207 -1818503.248481224 -1818503.248481224 35017098.48805451 0 0 0 0 0 181965938.7392563 -318579.1078094775 -318579.1078094775 36112577.62245864 0 0 0 0 0 171031263.6930484 -1550641.903349974 -1550641.903349974 36938137.52721272 0 0 0 0 0 175132093.8248846 167004.6028560381 167004.6028560381 36848399.65267018 0 0 0 0 0 156378933.3507683 1260582.442038077 1260582.442038077 36461972.82839477 0 0 0 0 0 164294877.5679196 -803095.3558334042 -803095.3558334042 37317917.10088104 0 0 0 0 0 159346076.0707539 -319560.4670570793 -319560.4670570793 37015766.34805723 0 0 0 0 0 152166309.5292595 1680200.666711716 1680200.666711716 36002846.61824495 0 0 0 0 0 148340229.4017222 2009609.061551261 2009609.061551261 35395397.51764672 0 0 0 0 0 144963276.1890826 2383881.473358239 2383881.473358239 34751429.33087685 0 0 0 0 0 141894775.5109877 2719252.512805822 2719252.512805822 34072659.86652059 0 0 0 0 0 139140848.7510117 2998665.574389312 2998665.574389312 33307860.1575361 0 0 0 0 0 136640503.4185926 3244265.128966119 3244265.128966119 32515378.78144656 0 0 0 0 0 134382173.1925534 3498391.537065149 3498391.537065149 31767825.9560227 0 0 0 0 0 132321668.522934 3693605.719433362 3693605.719433362 30950572.14561309 0 0 0 0 0 131022382.8120983 3232773.938393904 3232773.938393904 30577657.01248368 0 0 0 0 0 129930459.2624356 4478937.214872172 4478937.214872172 29214878.90767982 0 0 0 0 0 128284761.3884527 4620819.041193804 4620819.041193804 28421747.46736598 0 0 0 0 0 126776098.1318602 4738712.515973869 4738712.515973869 27647584.52125418 0 0 0 0 0 125377699.8654136 4832308.398182195 4832308.398182195 26882512.60816134 0 0 0 0 0 123819944.6274536 5412761.421623711 5412761.421623711 25167642.45251822 0 0 0 0 0 124495686.0594262 4453410.390196067 4453410.390196067 26373178.64462699 0 0 0 0 0 122676938.4579154 5456027.39969599 5456027.39969599 24449871.91643865 0 0 0 0 0 121618995.2779447 5484897.768098474 5484897.768098474 23752896.53674654 0 0 0 0 0 120636920.3438553 5500416.890613353 5500416.890613353 23075610.72814881 0 0 0 0 0 119723368.9879366 5504112.896570425 5504112.896570425 22418408.87119069 0 0 0 0 0 118872032.0475088 5497434.094446752 5497434.094446752 21781274.08918049 0 0 0 0 0 118077267.1125166 5481725.53334676 5481725.53334676 21164315.82268809 0 0 0 0 0 117545288.5741144 5198064.237867633 5198064.237867633 20643430.05859917 0 0 0 0 0 117256898.4279644 5803675.249819484 5803675.249819484 19739765.51622794 0 0 0 0 0 116576401.6120705 5758667.705574773 5758667.705574773 19187586.74368211 0 0 0 0 0 115937395.4881717 5708316.594048433 5708316.594048433 18654086.88656216 0 0 0 0 0 115335800.2370516 5653684.562695644 5653684.562695644 18139381.93757728 0 0 0 0 0 114770001.0652385 5594529.895563711 5594529.895563711 17641150.61865273 0 0 0 0 0 114238362.1942673 5533751.205782725 5533751.205782725 17171583.69278771 0 0 0 0 0 113849356.0945527 5294391.884550176 5294391.884550176 16665074.31692268 0 0 0 0 0 113716921.9570848 5699547.485670683 5699547.485670683 16009199.92950356 0 0 0 0 0 113242856.1156572 5619086.578038862 5619086.578038862 15584315.91241192 0 0 0 0 0 112888475.6228679 5580225.524777593 5580225.524777593 14367238.58747173 0 0 0 0 0 112463610.2720306 5499681.153573716 5499681.153573716 14000572.81872112 0 0 0 0 0 112064184.3960172 5565752.972874832 5565752.972874832 12978330.15213231 0 0 0 0 0 112398518.9753712 5791349.653659538 5791349.653659538 13490730.94112759 0 0 0 0 0 111685494.5056233 5480710.406605145 5480710.406605145 12657185.01014683 0 0 0 0 0 111324915.8892579 5395579.730057069 5395579.730057069 12344052.57779518 0 0 0 0 0 110981470.0017739 5310335.219262724 5310335.219262724 12042183.26365206 0 0 0 0 0 110653882.9361961 5225792.853866521 5225792.853866521 11750262.05190102 0 0 0 0 0 110366951.152731 5243163.061753506 5243163.061753506 10895481.37541239 0 0 0 0 0 110641869.6028779 5435213.61160743 5435213.61160743 11341105.73334893 0 0 0 0 0 110069924.2133226 5155530.97508806 5155530.97508806 10641633.70351315 0 0 0 0 0 109785165.6707114 5068313.50028501 5068313.50028501 10397114.6787259 0 0 0 0 0 109519429.4321752 4982816.670304593 4982816.670304593 10161940.69887171 0 0 0 0 0 109300412.8789245 4933150.881743542 4933150.881743542 9966374.429789459 0 0 0 0 0 109159658.4275052 4929594.424478937 4929594.424478937 9843969.553272521 0 0 0 0 0 108998681.35827 4892183.07076287 4892183.07076287 9530034.107020425 0 0 0 0 0 108794748.4926196 4809744.761616913 4809744.761616913 9148008.461871345 0 0 0 0 0 112888184.3526678 5391688.621065962 5391688.621065962 15087829.82846404 0 0 0 0 0 185751438.6466957 645680.9161171335 645680.9161171335 35468332.63615021 0 0 0 0 0 181997780.6268705 -1481190.692093803 -1481190.692093803 36076352.35008655 0 0 0 0 0 168870067.257219 430671.8729935254 430671.8729935254 37075601.18961626 0 0 0 0 0 174605933.1599544 -1229090.184710244 -1229090.184710244 36899648.92250448 0 0 0 0 0 154862878.5311964 -56820.91552784367 -56820.91552784367 36791477.0252713 0 0 0 0 0 163680310.0163863 274524.9556183251 274524.9556183251 37152105.15681656 0 0 0 0 0 157822454.147063 965882.1430928486 965882.1430928486 36898631.92017844 0 0 0 0 0 150552239.542187 387587.5055316222 387587.5055316222 36492182.98166509 0 0 0 0 0 147060108.9145716 761292.1679165878 761292.1679165878 35935901.68134369 0 0 0 0 0 143806936.7471873 1133228.209412932 1133228.209412932 35319861.80276079 0 0 0 0 0 140896288.2282493 1483364.097897599 1483364.097897599 34623906.3489903 0 0 0 0 0 138202243.960986 1815827.901416928 1815827.901416928 33926575.33149406 0 0 0 0 0 135834675.1075828 2102156.440753857 2102156.440753857 33139124.78756952 0 0 0 0 0 133571157.2807391 2365087.450765372 2365087.450765372 32307837.27781809 0 0 0 0 0 131576534.0072396 2601367.969150339 2601367.969150339 31513036.01591461 0 0 0 0 0 130447327.533924 3871585.750149889 3871585.750149889 30143425.36647417 0 0 0 0 0 129265714.4043245 3441049.042299134 3441049.042299134 29760048.55388862 0 0 0 0 0 127657491.2252536 3621775.815084322 3621775.815084322 28947507.64123242 0 0 0 0 0 126182189.9918608 3773833.505731036 3773833.505731036 28139840.64881691 0 0 0 0 0 124820269.6216346 3906568.851174549 3906568.851174549 27352301.89669176 0 0 0 0 0 123282711.3826644 4551010.177529357 4551010.177529357 25620996.02736779 0 0 0 0 0 124096665.2404946 4907875.991479867 4907875.991479867 26119459.93767963 0 0 0 0 0 122162806.5685594 4630505.073888465 4630505.073888465 24887483.75694002 0 0 0 0 0 121125299.2956 4693374.099788874 4693374.099788874 24171936.37859898 0 0 0 0 0 120161885.145651 4741391.879671683 4741391.879671683 23476960.92883549 0 0 0 0 0 119265704.2583762 4776285.228406256 4776285.228406256 22802636.09259845 0 0 0 0 0 118430766.9939785 4799545.751399413 4799545.751399413 22149197.58701513 0 0 0 0 0 117651341.7860024 4812548.248173271 4812548.248173271 21516569.41851357 0 0 0 0 0 117334096.7953127 5458089.155050315 5458089.155050315 20567461.88110166 0 0 0 0 0 116833537.0528821 5186093.825792156 5186093.825792156 20057623.26900456 0 0 0 0 0 116166412.2117634 5166627.989256773 5166627.989256773 19492054.3830805 0 0 0 0 0 115540193.8856874 5140676.485877784 5140676.485877784 18945837.53749998 0 0 0 0 0 114951538.2291749 5108573.728496613 5108573.728496613 18417441.90308113 0 0 0 0 0 114397185.3927347 5071873.5278219 5071873.5278219 17908637.57547382 0 0 0 0 0 113870367.6585955 5026895.386951498 5026895.386951498 17413668.26256539 0 0 0 0 0 113726765.3089641 5466159.477762704 5466159.477762704 16720642.35623913 0 0 0 0 0 113353973.8025133 5233796.369663524 5233796.369663524 16224159.32799413 0 0 0 0 0 112892860.5454222 5173454.647141859 5173454.647141859 15793617.41066767 0 0 0 0 0 112808209.0341236 5728042.065368104 5728042.065368104 14512699.69259295 0 0 0 0 0 112385700.7207403 5638423.319278432 5638423.319278432 14146033.51406477 0 0 0 0 0 112004761.7204367 5697061.752955332 5697061.752955332 13148477.27586064 0 0 0 0 0 112056354.5278793 5418310.105185087 5418310.105185087 13650157.6501773 0 0 0 0 0 111630207.8841792 5603689.562495313 5603689.562495313 12818250.75017465 0 0 0 0 0 111273782.9009147 5511190.109801692 5511190.109801692 12502336.03607594 0 0 0 0 0 110934777.8921594 5419716.109492419 5419716.109492419 12196516.33112285 0 0 0 0 0 110610807.2096124 5329113.810662787 5329113.810662787 11900391.9033524 0 0 0 0 0 110334236.2540898 5341095.798271436 5341095.798271436 11073960.0335768 0 0 0 0 0 110340506.078045 5141713.172107795 5141713.172107795 11467888.04456452 0 0 0 0 0 110039549.567735 5247555.052484529 5247555.052484529 10815010.56765939 0 0 0 0 0 109758909.0004601 5153779.407932937 5153779.407932937 10565225.24426605 0 0 0 0 0 109490244.9944804 5068320.184481787 5068320.184481787 10292423.94371442 0 0 0 0 0 109273328.8581261 4984913.901628046 4984913.901628046 9935312.523141371 0 0 0 0 0 109101632.9824466 4956100.297468435 4956100.297468435 9628122.462129237 0 0 0 0 0 108943554.6609903 4912498.642431113 4912498.642431113 9324759.42736573 0 0 0 0 0 112797773.5022911 5539560.288506375 5539560.288506375 15171725.37892804 0 0 0 0 0 178149093.6162687 696730.8903085262 696730.8903085262 36427478.14637798 0 0 0 0 0 168015449.4181098 -1070886.650912105 -1070886.650912105 37391937.97567694 0 0 0 0 0 171358930.2121049 847106.2446641964 847106.2446641964 36946021.82224393 0 0 0 0 0 153735934.771603 1340655.035190142 1340655.035190142 36717283.92643791 0 0 0 0 0 159604141.6226024 542112.772451901 542112.772451901 37330106.64603543 0 0 0 0 0 159043975.0819746 -380930.1666286923 -380930.1666286923 37207855.82206626 0 0 0 0 0 149659703.7188766 1432578.537372227 1432578.537372227 35993457.12325787 0 0 0 0 0 146081304.1340054 1820643.88455596 1820643.88455596 35483126.23560884 0 0 0 0 0 142938209.3534828 2113835.516981026 2113835.516981026 34770213.551264 0 0 0 0 0 140055195.0584324 2391322.805372288 2391322.805372288 34090301.95725345 0 0 0 0 0 137432749.2041588 2581109.874739497 2581109.874739497 33305883.32405496 0 0 0 0 0 135061227.1092722 2856927.196838422 2856927.196838422 32588246.83883387 0 0 0 0 0 132938370.3784475 3050918.04699237 3050918.04699237 31774115.87775648 0 0 0 0 0 130984576.7989457 3229304.051754742 3229304.051754742 30968642.34285643 0 0 0 0 0 129756414.2461251 2814457.720855038 2814457.720855038 30695223.88173037 0 0 0 0 0 128734414.4522862 4025222.251223075 4025222.251223075 29339338.72583443 0 0 0 0 0 127168244.2755216 4158332.082541957 4158332.082541957 28552044.82529024 0 0 0 0 0 125727525.9004221 4268888.035496243 4268888.035496243 27771369.86544168 0 0 0 0 0 124396660.1927405 4361512.866974403 4361512.866974403 27003161.03208127 0 0 0 0 0 122915839.7194902 4968658.98092659 4968658.98092659 25379299.16698642 0 0 0 0 0 123562272.4769052 4020774.268240489 4020774.268240489 26586992.49634857 0 0 0 0 0 121824246.7304558 5015225.391242049 5015225.391242049 24659288.63984612 0 0 0 0 0 120812301.2557011 5048432.966015197 5048432.966015197 23959679.86163255 0 0 0 0 0 119872368.8659356 5069516.232179278 5069516.232179278 23279378.20698144 0 0 0 0 0 118997696.8928625 5079838.199708496 5079838.199708496 22619012.24211621 0 0 0 0 0 118182380.1268668 5080846.825580506 5080846.825580506 21978928.15103252 0 0 0 0 0 117421037.2430345 5073470.293229134 5073470.293229134 21359164.51202981 0 0 0 0 0 116922652.4446705 4816327.797408974 4816327.797408974 20904540.02983706 0 0 0 0 0 116638090.7924781 5427492.851667767 5427492.851667767 19990177.52992402 0 0 0 0 0 115985489.3320643 5391048.053669449 5391048.053669449 19431975.16570905 0 0 0 0 0 115372723.7543172 5349464.982603419 5349464.982603419 18893037.11214828 0 0 0 0 0 114796023.1596285 5303308.768099094 5303308.768099094 18372104.36035926 0 0 0 0 0 114254356.4796894 5254560.436197381 5254560.436197381 17879120.9858394 0 0 0 0 0 113741730.6657573 5198911.516886665 5198911.516886665 17400037.26642814 0 0 0 0 0 113373114.1470973 4976120.657745808 4976120.657745808 16936997.64699058 0 0 0 0 0 113242745.7765174 5392627.439310056 5392627.439310056 16263638.11683867 0 0 0 0 0 112790093.3612559 5322175.771056736 5322175.771056736 15829623.19148653 0 0 0 0 0 112459686.8230556 5320773.533242747 5320773.533242747 14692213.60053802 0 0 0 0 0 112053056.9255775 5247538.683552564 5247538.683552564 14315194.05005657 0 0 0 0 0 111670854.9499841 5337910.731321138 5337910.731321138 13311607.5858446 0 0 0 0 0 111984451.3030714 5548577.411504949 5548577.411504949 13786257.66013682 0 0 0 0 0 111308100.8149619 5259129.518710684 5259129.518710684 12977518.39320671 0 0 0 0 0 110961943.0717435 5179488.296222213 5179488.296222213 12650708.3903338 0 0 0 0 0 110629633.788729 5099310.914316815 5099310.914316815 12339443.72267534 0 0 0 0 0 110313725.4445274 5019841.078403478 5019841.078403478 12038949.65187169 0 0 0 0 0 110040872.9622317 5057897.295181382 5057897.295181382 11194823.35928102 0 0 0 0 0 110301041.3296611 5239089.18453236 5239089.18453236 11614344.69880171 0 0 0 0 0 109754773.0764274 4974387.187277372 4974387.187277372 10931160.8611311 0 0 0 0 0 109478347.7363859 4890374.029523034 4890374.029523034 10674949.31916795 0 0 0 0 0 109243094.412055 4827222.201531376 4827222.201531376 10461008.69595166 0 0 0 0 0 109050806.2895608 4805052.941569369 4805052.941569369 10252697.00112211 0 0 0 0 0 108869144.8707864 4757394.912249424 4757394.912249424 9945416.378592465 0 0 0 0 0 108698796.1312677 4715098.781460377 4715098.781460377 9647387.846466279 0 0 0 0 0 112458044.7438369 5112789.103065214 5112789.103065214 15379165.12149032 0 0 0 0 0 164539480.3603771 921791.5929111029 921791.5929111029 37464907.23967671 0 0 0 0 0 151371732.1922782 150485.4724635475 150485.4724635475 37039357.2145246 0 0 0 0 0 162898895.5851361 -734312.0018671823 -734312.0018671823 37466474.45593131 0 0 0 0 0 155086539.0929399 560153.6477585908 560153.6477585908 37295408.09703268 0 0 0 0 0 148263172.8300658 513952.4257194955 513952.4257194955 36481954.50772634 0 0 0 0 0 145172133.6685675 619442.3940830701 619442.3940830701 35875358.5719723 0 0 0 0 0 141879901.0891855 870297.0989837711 870297.0989837711 35349959.1428313 0 0 0 0 0 138986278.3138353 1216038.510022189 1216038.510022189 34692913.51548652 0 0 0 0 0 136561278.7363108 1600863.379472316 1600863.379472316 33907034.12025739 0 0 0 0 0 134446938.1767851 1675462.420241131 1675462.420241131 33038048.86930604 0 0 0 0 0 132136376.9364183 1947056.560334585 1947056.560334585 32330291.09802346 0 0 0 0 0 130246854.1667332 2164277.827719554 2164277.827719554 31514846.75617137 0 0 0 0 0 129204514.5826395 3390059.224360568 3390059.224360568 30153611.89927947 0 0 0 0 0 128094056.4728837 3006863.828253912 3006863.828253912 29876452.6965557 0 0 0 0 0 126566137.7265526 3175320.335638055 3175320.335638055 29060341.12296668 0 0 0 0 0 125161445.8459579 3323219.948722803 3323219.948722803 28260409.73724973 0 0 0 0 0 123866826.1826162 3451249.560101558 3451249.560101558 27470641.07750285 0 0 0 0 0 122407897.3862804 4118174.565928975 4118174.565928975 25832684.9897328 0 0 0 0 0 123173779.750496 4438311.970530051 4438311.970530051 26240418.04405421 0 0 0 0 0 121338235.6456609 4199346.762458643 4199346.762458643 25096852.7600484 0 0 0 0 0 120346623.1390198 4265203.342053335 4265203.342053335 24379185.35334931 0 0 0 0 0 119425457.1164338 4317729.902063647 4317729.902063647 23682076.66664271 0 0 0 0 0 118568580.1506701 4358647.799257195 4358647.799257195 23005385.05811613 0 0 0 0 0 117769355.2527816 4389010.34479373 4389010.34479373 22349536.47129402 0 0 0 0 0 117022972.0846408 4409691.484719245 4409691.484719245 21714328.88589748 0 0 0 0 0 116708991.7463224 5058625.188202487 5058625.188202487 20759311.17663366 0 0 0 0 0 116240521.0095645 4812030.155983956 4812030.155983956 20313031.96503741 0 0 0 0 0 115600977.0746052 4800637.016385243 4800637.016385243 19741495.55476846 0 0 0 0 0 114999953.3343699 4782709.131946373 4782709.131946373 19188837.62568811 0 0 0 0 0 114435777.4112153 4759638.124039863 4759638.124039863 18656541.88964308 0 0 0 0 0 113900063.1832025 4726782.744273828 4726782.744273828 18134220.46685718 0 0 0 0 0 113390614.3375111 4688607.040340721 4688607.040340721 17639268.20689049 0 0 0 0 0 113248749.3274727 5137257.128905162 5137257.128905162 16930698.19218354 0 0 0 0 0 112901599.0709355 4926430.46657619 4926430.46657619 16491110.44746464 0 0 0 0 0 112459427.0133599 4875664.802917247 4875664.802917247 16052305.98583348 0 0 0 0 0 112376965.4074201 5459942.057008061 5459942.057008061 14785460.99560079 0 0 0 0 0 111971980.9524181 5377640.049649522 5377640.049649522 14405348.77206978 0 0 0 0 0 111606053.4165102 5459976.00558556 5459976.00558556 13431464.18757815 0 0 0 0 0 111663576.5851855 5173197.397753372 5173197.397753372 13951131.14038386 0 0 0 0 0 111247728.7538231 5373550.611869899 5373550.611869899 13091073.03305971 0 0 0 0 0 110905059.0889745 5287954.686282204 5287954.686282204 12768706.01585799 0 0 0 0 0 110578819.877302 5202167.032838536 5202167.032838536 12455282.50478869 0 0 0 0 0 110267462.8061249 5117048.063331617 5117048.063331617 12151758.17050365 0 0 0 0 0 110004969.4491557 5149586.33412771 5149586.33412771 11337850.20529377 0 0 0 0 0 110012122.8901751 4940924.015505543 4940924.015505543 11747102.7036039 0 0 0 0 0 109721725.0067715 5060524.790362374 5060524.790362374 11070661.66839517 0 0 0 0 0 109446200.4713511 4973967.377862915 4973967.377862915 10811118.94959075 0 0 0 0 0 109199041.5025395 4902465.648328911 4902465.648328911 10440712.57463605 0 0 0 0 0 108996447.1084388 4839120.703271706 4839120.703271706 10087631.81815122 0 0 0 0 0 108819362.6551362 4791686.240541979 4791686.240541979 9774191.445221212 0 0 0 0 0 112362699.4598467 5251574.224392623 5251574.224392623 15413293.60678647 0 0 0 0 0 154953874.730955 520657.6657673217 520657.6657673217 36860436.6958072 0 0 0 0 0 151116641.4822499 580743.6229608045 580743.6229608045 36303402.42631879 0 0 0 0 0 159193792.8749756 643892.7921215236 643892.7921215236 37450003.63045178 0 0 0 0 0 157879499.2578275 -560285.8043000961 -560285.8043000961 37546488.34784038 0 0 0 0 0 147222343.1294944 1319310.789305456 1319310.789305456 36133026.13043968 0 0 0 0 0 143901095.8709664 1534504.781186669 1534504.781186669 35535986.58189718 0 0 0 0 0 140911117.0794969 1769901.950158244 1769901.950158244 34696633.30327176 0 0 0 0 0 138446479.9563329 1780094.027016863 1780094.027016863 33848667.19913386 0 0 0 0 0 135724748.7388977 2253623.618825631 2253623.618825631 33455036.45913264 0 0 0 0 0 133598434.4624304 2387691.538638312 2387691.538638312 32515604.44002648 0 0 0 0 0 131536608.062996 2562356.390180567 2562356.390180567 31665042.60139846 0 0 0 0 0 129689498.3271275 2717793.108679269 2717793.108679269 30872760.96955239 0 0 0 0 0 128553834.9275337 2353990.473564387 2353990.473564387 30699558.92107789 0 0 0 0 0 127580852.8934116 3537048.136174768 3537048.136174768 29357136.28031773 0 0 0 0 0 126089809.6533405 3664488.192577265 3664488.192577265 28575433.94014751 0 0 0 0 0 124716361.3744064 3773856.803636376 3773856.803636376 27796954.1922199 0 0 0 0 0 123448515.8140365 3868662.188106559 3868662.188106559 27032429.58015675 0 0 0 0 0 122046368.0145861 4503009.137779162 4503009.137779162 25503731.32917501 0 0 0 0 0 122669071.7373811 3566552.148239993 3566552.148239993 26709085.84260212 0 0 0 0 0 121002955.4065578 4554417.205999347 4554417.205999347 24786286.49224431 0 0 0 0 0 120035363.5966965 4593588.849706499 4593588.849706499 24087904.15715458 0 0 0 0 0 119136538.050074 4621761.408819083 4621761.408819083 23407487.64971808 0 0 0 0 0 118299837.9474018 4640707.212235752 4640707.212235752 22748155.38288283 0 0 0 0 0 117519493.825178 4650792.039957438 4650792.039957438 22108797.1992971 0 0 0 0 0 116790551.4735051 4652874.257658469 4652874.257658469 21489386.93467326 0 0 0 0 0 116325094.7062959 4421738.583857102 4421738.583857102 21099759.7845141 0 0 0 0 0 116042135.8166206 5037312.891785705 5037312.891785705 20179041.07048712 0 0 0 0 0 115416684.2429821 5010357.427127274 5010357.427127274 19617961.36331283 0 0 0 0 0 114828670.5481513 4978203.840928075 4978203.840928075 19076390.82401998 0 0 0 0 0 114278159.2868442 4942150.233059273 4942150.233059273 18557785.62983645 0 0 0 0 0 113754274.4641667 4899773.999640288 4899773.999640288 18062279.59997034 0 0 0 0 0 113256739.4681049 4850679.13935163 4850679.13935163 17575225.24623562 0 0 0 0 0 112915963.8793023 4650203.276399926 4650203.276399926 17168345.00590985 0 0 0 0 0 112785138.6164621 5075785.329563869 5075785.329563869 16473888.89764873 0 0 0 0 0 112352214.0897783 5014573.122360838 5014573.122360838 16032837.75043588 0 0 0 0 0 112046225.6020292 5049162.750789274 5049162.750789274 14972336.55714118 0 0 0 0 0 111655705.7363026 4983786.114548623 4983786.114548623 14587368.12652192 0 0 0 0 0 111294283.0588163 5100481.105525956 5100481.105525956 13601530.48500392 0 0 0 0 0 111586302.8716748 5295033.692675875 5295033.692675875 14034854.92179896 0 0 0 0 0 110944333.5698209 5028149.806637432 5028149.806637432 13258321.31045707 0 0 0 0 0 110610674.5545767 4953332.993403281 4953332.993403281 12920777.5638357 0 0 0 0 0 110288361.9435289 4878259.058676748 4878259.058676748 12600591.27886102 0 0 0 0 0 109983716.4466888 4804172.538252112 4804172.538252112 12294239.71254548 0 0 0 0 0 109723304.6716507 4861839.443530287 4861839.443530287 11464961.20464968 0 0 0 0 0 109969209.2110122 5032339.87536955 5032339.87536955 11858108.05452721 0 0 0 0 0 109445412.0279641 4782230.397713318 4782230.397713318 11192390.25790848 0 0 0 0 0 109175889.6747753 4706246.921898896 4706246.921898896 10935213.98825946 0 0 0 0 0 108956560.8494702 4658157.652241077 4658157.652241077 10734164.83755851 0 0 0 0 0 108764741.9249652 4628049.759024074 4628049.759024074 10425985.73133943 0 0 0 0 0 108587757.8141863 4598456.131376813 4598456.131376813 10089389.81385709 0 0 0 0 0 112042959.70814 4822826.941178684 4822826.941178684 15625934.82701292 0 0 0 0 0 152720894.506873 -492794.7750478354 -492794.7750478354 37002822.62250879 0 0 0 0 0 148419652.7873572 947135.0663587004 947135.0663587004 36789566.04691306 0 0 0 0 0 155086014.5252016 609003.9328009852 609003.9328009852 37071040.80148389 0 0 0 0 0 146998561.6133147 103278.5404349703 103278.5404349703 36332021.73212509 0 0 0 0 0 143520030.8859785 258647.9184832574 258647.9184832574 35866486.49805959 0 0 0 0 0 140544140.2697905 352369.8165407904 352369.8165407904 35191947.15970339 0 0 0 0 0 136743525.1370182 1631348.705625604 1631348.705625604 34416973.46534875 0 0 0 0 0 136221218.6938676 1188962.086019084 1188962.086019084 33454603.43889036 0 0 0 0 0 132705802.3673411 1320883.145911064 1320883.145911064 33025939.08750854 0 0 0 0 0 130742820.8889389 1502964.115851511 1502964.115851511 32172954.62076367 0 0 0 0 0 128996685.2623407 1696180.897558283 1696180.897558283 31395541.68780855 0 0 0 0 0 128014211.6400303 2879993.355200641 2879993.355200641 30050518.82105109 0 0 0 0 0 126969299.8693044 2543529.310830378 2543529.310830378 29883164.31125491 0 0 0 0 0 125518994.6829654 2705098.161993575 2705098.161993575 29073757.65041894 0 0 0 0 0 124187271.3754422 2848352.036770484 2848352.036770484 28280322.1919259 0 0 0 0 0 122956203.9759157 2979049.754410731 2979049.754410731 27498434.65558477 0 0 0 0 0 121567701.9197026 3666408.5797688 3666408.5797688 25957160.4580688 0 0 0 0 0 122285509.9322468 3950310.483136593 3950310.483136593 26276939.48913546 0 0 0 0 0 120546700.3724192 3750711.957982576 3750711.957982576 25222193.3537185 0 0 0 0 0 119600271.23747 3821154.080851237 3821154.080851237 24505978.32045214 0 0 0 0 0 118720535.3297508 3880412.260338211 3880412.260338211 23810967.30445174 0 0 0 0 0 117900929.6937227 3928936.092160969 3928936.092160969 23135406.24385745 0 0 0 0 0 117136011.869132 3967472.597234068 3967472.597234068 22480566.20525913 0 0 0 0 0 116421708.4969125 3996866.798193163 3996866.798193163 21846216.39170829 0 0 0 0 0 116108763.0382768 4647919.966557587 4647919.966557587 20889708.17489015 0 0 0 0 0 115671581.6755546 4426096.494521118 4426096.494521118 20505414.57777429 0 0 0 0 0 115058381.8413553 4423553.052633213 4423553.052633213 19930831.88132684 0 0 0 0 0 114481229.8936733 4414790.888528153 4414790.888528153 19375473.06130761 0 0 0 0 0 113936619.8252506 4396388.118203594 4396388.118203594 18834841.7731156 0 0 0 0 0 113418971.718587 4371410.746277706 4371410.746277706 18312368.35253353 0 0 0 0 0 112932756.1071853 4344520.057126009 4344520.057126009 17820701.53442224 0 0 0 0 0 112787563.6735584 4800056.772366899 4800056.772366899 17096384.13924269 0 0 0 0 0 112466488.7130179 4609827.649354177 4609827.649354177 16708630.53482554 0 0 0 0 0 112044192.0919528 4568853.724016923 4568853.724016923 16263238.22136228 0 0 0 0 0 111958456.6818059 5179687.230080893 5179687.230080893 15016146.36641232 0 0 0 0 0 111569364.6239455 5106442.134596091 5106442.134596091 14625903.63682003 0 0 0 0 0 111222489.0142855 5214385.691863263 5214385.691863263 13674352.56292225 0 0 0 0 0 111282100.0813485 4918740.051253897 4918740.051253897 14214256.47760606 0 0 0 0 0 110877826.0969859 5134675.168997989 5134675.168997989 13329619.78411083 0 0 0 0 0 110548393.0147933 5055544.839292851 5055544.839292851 13001741.62592283 0 0 0 0 0 110233787.0690542 4975147.551498239 4975147.551498239 12684748.76567291 0 0 0 0 0 109933978.3427145 4895327.26471885 4895327.26471885 12372152.15045826 0 0 0 0 0 109684145.2229545 4948333.816624273 4948333.816624273 11576743.1337148 0 0 0 0 0 109694650.6506561 4731225.652502578 4731225.652502578 11996398.59741057 0 0 0 0 0 109408257.9123791 4867215.553635602 4867215.553635602 11306379.98572594 0 0 0 0 0 109137499.6291122 4792017.591548589 4792017.591548589 11023918.97237618 0 0 0 0 0 108891390.9502964 4700516.26196372 4700516.26196372 10546220.88721382 0 0 0 0 0 108694054.964626 4659705.330533855 4659705.330533855 10191808.52919524 0 0 0 0 0 111942823.1512147 4953640.823797563 4953640.823797563 15611012.71749416 0 0 0 0 0 150930253.3291403 719129.9717006686 719129.9717006686 36786461.08811486 0 0 0 0 0 149170502.8323073 -318601.7670813862 -318601.7670813862 36644394.3524145 0 0 0 0 0 145256100.2595147 1065902.289117328 1065902.289117328 36033930.25491142 0 0 0 0 0 141962120.2381727 1243108.437230371 1243108.437230371 35392346.73863214 0 0 0 0 0 138968234.0902037 1311368.408480379 1311368.408480379 34855274.35338484 0 0 0 0 0 138091060.4317408 558650.9649137114 558650.9649137114 34253409.5570766 0 0 0 0 0 134591879.4984035 1462982.896482739 1462982.896482739 33872529.82313234 0 0 0 0 0 132124939.1723707 1925494.062638685 1925494.062638685 32282690.53195284 0 0 0 0 0 134294415.4728301 1476005.899645659 1476005.899645659 32864774.04895098 0 0 0 0 0 130207919.4867978 2024527.62073016 2024527.62073016 31430491.08248147 0 0 0 0 0 128454922.116251 2191148.388010762 2191148.388010762 30703876.48693533 0 0 0 0 0 127414161.6323876 1870078.897337549 1870078.897337549 30591437.8722703 0 0 0 0 0 126472289.5366839 3025721.815988931 3025721.815988931 29277191.25530345 0 0 0 0 0 125054419.1412285 3149535.971290532 3149535.971290532 28503779.41632026 0 0 0 0 0 123750417.7953861 3261218.62188898 3261218.62188898 27731128.47031831 0 0 0 0 0 122546132.5490732 3363762.907369006 3363762.907369006 26976920.69088327 0 0 0 0 0 121210379.4569426 4020875.30982118 4020875.30982118 25547424.20396649 0 0 0 0 0 121815548.6664477 3097508.527519713 3097508.527519713 26741573.49632511 0 0 0 0 0 120214312.8409123 4078434.763489161 4078434.763489161 24835410.13109408 0 0 0 0 0 119290228.1412061 4125325.676617325 4125325.676617325 24140685.8933407 0 0 0 0 0 118431381.8158797 4162888.990448808 4162888.990448808 23465347.2592541 0 0 0 0 0 117631309.0979589 4191510.627254215 4191510.627254215 22810242.48599679 0 0 0 0 0 116884589.5720167 4211466.95500889 4211466.95500889 22174562.16611154 0 0 0 0 0 116187045.5126662 4223973.412794196 4223973.412794196 21558553.17449624 0 0 0 0 0 115753525.2942718 4018116.701653195 4018116.701653195 21232177.64721162 0 0 0 0 0 115470037.1659311 4636785.898712467 4636785.898712467 20309600.38363305 0 0 0 0 0 114870371.7897702 4620263.870144683 4620263.870144683 19748646.14460424 0 0 0 0 0 114307601.4762308 4597706.289384292 4597706.289384292 19211679.57924263 0 0 0 0 0 113776387.8997637 4570062.499083585 4570062.499083585 18693623.11858397 0 0 0 0 0 113269906.0286902 4534434.214934533 4534434.214934533 18190013.72764996 0 0 0 0 0 112794638.0336604 4495300.737252253 4495300.737252253 17695185.22477389 0 0 0 0 0 112479476.5928218 4316762.531493535 4316762.531493535 17346505.49968552 0 0 0 0 0 112346432.2235305 4749910.501515061 4749910.501515061 16636244.04127624 0 0 0 0 0 111931616.4150861 4700044.714167454 4700044.714167454 16194760.81762636 0 0 0 0 0 111647705.6665615 4768159.20235373 4768159.20235373 15214012.10461294 0 0 0 0 0 111273186.2531433 4711816.942241159 4711816.942241159 14819629.88993442 0 0 0 0 0 110930192.8381476 4854401.491819485 4854401.491819485 13852352.39487124 0 0 0 0 0 111201895.1585065 5033089.85050084 5033089.85050084 14244503.91478434 0 0 0 0 0 110595467.0251189 4788555.714276379 4788555.714276379 13495426.5197793 0 0 0 0 0 110270641.6361052 4719035.542625288 4719035.542625288 13153076.48933671 0 0 0 0 0 109958460.3981109 4648188.36170938 4648188.36170938 12827879.65569669 0 0 0 0 0 109666027.9492942 4579881.844021155 4579881.844021155 12519773.77879643 0 0 0 0 0 109417139.8669804 4658855.445958014 4658855.445958014 11707300.92138782 0 0 0 0 0 109647545.7247142 4817543.194840178 4817543.194840178 12072082.47216915 0 0 0 0 0 109156087.9341033 4588246.97680095 4588246.97680095 11429476.93340367 0 0 0 0 0 108906018.8061582 4512234.37971941 4512234.37971941 11139299.63147521 0 0 0 0 0 108653377.1156088 4500758.044990445 4500758.044990445 10924429.9280393 0 0 0 0 0 108482436.0462633 4469345.714968762 4469345.714968762 10539218.64492054 0 0 0 0 0 111644151.9161144 4525445.652657771 4525445.652657771 15830861.26869639 0 0 0 0 0 147054196.5958292 696897.2884520913 696897.2884520913 36415634.86863758 0 0 0 0 0 145513801.0173172 -238085.0021869006 -238085.0021869006 36155546.02339943 0 0 0 0 0 142278158.3727557 -211937.9560909494 -211937.9560909494 35658448.34002883 0 0 0 0 0 139378837.7475733 -166680.2827728412 -166680.2827728412 35057665.47631601 0 0 0 0 0 136374592.8584177 1185210.491610818 1185210.491610818 34313903.20822109 0 0 0 0 0 135575884.7402301 566428.8180298972 566428.8180298972 33586631.90248064 0 0 0 0 0 131100079.7190667 805556.7588122865 805556.7588122865 32665110.56039236 0 0 0 0 0 133213570.7544502 589203.951894864 589203.951894864 33313050.24736952 0 0 0 0 0 129374076.822224 1125633.360238611 1125633.360238611 31986930.50194358 0 0 0 0 0 127905814.869906 1268683.80692285 1268683.80692285 31100054.60065521 0 0 0 0 0 126879106.5523663 2358627.692022826 2358627.692022826 29838813.5915475 0 0 0 0 0 125883844.996842 2065468.764345872 2065468.764345872 29785712.41273026 0 0 0 0 0 124525271.3622135 2216459.978472516 2216459.978472516 28993585.82993632 0 0 0 0 0 123271652.351111 2359582.09530307 2359582.09530307 28209371.61315509 0 0 0 0 0 122092497.1552507 2495894.971875083 2495894.971875083 27439009.61225778 0 0 0 0 0 120762911.4831891 3200962.458378039 3200962.458378039 25996853.95906066 0 0 0 0 0 121436754.7433085 3451495.330431312 3451495.330431312 26235120.27879669 0 0 0 0 0 119790498.8825992 3289478.145119091 3289478.145119091 25267562.72796757 0 0 0 0 0 118888043.0775948 3366891.193530366 3366891.193530366 24557846.73136277 0 0 0 0 0 118047626.9060113 3434218.288405263 3434218.288405263 23867405.63688493 0 0 0 0 0 117263115.7243213 3491389.012331689 3491389.012331689 23196778.06758432 0 0 0 0 0 116531832.3631001 3538874.873915462 3538874.873915462 22546316.96566051 0 0 0 0 0 115848294.6266259 3577881.19352698 3577881.19352698 21915835.44029732 0 0 0 0 0 115534383.1845161 4229787.701361311 4229787.701361311 20962171.40152447 0 0 0 0 0 115127446.4699887 4031985.294893475 4031985.294893475 20638100.22106251 0 0 0 0 0 114540209.486534 4039411.195694667 4039411.195694667 20063696.71889513 0 0 0 0 0 113984281.3218249 4036829.35362071 4036829.35362071 19501235.04944012 0 0 0 0 0 113456708.13031 4024967.909087198 4024967.909087198 18962404.6490902 0 0 0 0 0 112961094.8852136 4011759.899789676 4011759.899789676 18446863.10493048 0 0 0 0 0 112499563.2373034 3996618.067933185 3996618.067933185 17954057.14888271 0 0 0 0 0 112346085.957268 4457591.80082722 4457591.80082722 17217886.3757429 0 0 0 0 0 112051114.5889085 4287912.64853334 4287912.64853334 16881040.84848602 0 0 0 0 0 111645881.5429356 4256430.572464676 4256430.572464676 16431147.08541976 0 0 0 0 0 111554823.5855928 4891127.395285937 4891127.395285937 15206838.8759824 0 0 0 0 0 111182453.3618608 4826978.585185036 4826978.585185036 14810751.31893346 0 0 0 0 0 110855702.2077844 4960934.53351975 4960934.53351975 13875945.42576282 0 0 0 0 0 110915492.3032702 4655266.490672492 4655266.490672492 14436547.12083758 0 0 0 0 0 110524060.8703365 4890218.38833255 4890218.38833255 13539842.13186118 0 0 0 0 0 110204403.1722223 4815143.759626002 4815143.759626002 13207834.92821242 0 0 0 0 0 109900077.1727056 4739027.668365373 4739027.668365373 12881204.79242316 0 0 0 0 0 109612258.7458022 4666106.465086941 4666106.465086941 12563560.54442345 0 0 0 0 0 109373129.8710446 4740509.478009707 4740509.478009707 11782343.53700838 0 0 0 0 0 109388039.8684379 4513510.981867351 4513510.981867351 12215424.43755117 0 0 0 0 0 109116554.74924 4663857.706421735 4663857.706421735 11505570.94484772 0 0 0 0 0 108862278.7188109 4578277.362892008 4578277.362892008 11335163.83458296 0 0 0 0 0 108709107.4706977 4491784.285258533 4491784.285258533 10923016.87730127 0 0 0 0 0 108558158.5145431 4509156.325458588 4509156.325458588 10603185.23580409 0 0 0 0 0 111538768.5449415 4648777.667187812 4648777.667187812 15770998.8271333 0 0 0 0 0 143602011.6213053 657473.9555099226 657473.9555099226 35885959.37732425 0 0 0 0 0 140662752.6859698 658435.6609405843 658435.6609405843 35310893.7296035 0 0 0 0 0 137965967.4289564 672575.8528772197 672575.8528772197 34693537.65473204 0 0 0 0 0 136748451.6938509 -72858.6017928331 -72858.6017928331 34295364.68134628 0 0 0 0 0 134418118.0220623 1131383.24565014 1131383.24565014 33564369.46214577 0 0 0 0 0 130687524.4801077 1198936.550826543 1198936.550826543 31752070.09905838 0 0 0 0 0 132486424.4468488 1217136.241585965 1217136.241585965 32725053.65506466 0 0 0 0 0 128969267.8309283 1450359.785723068 1450359.785723068 31043452.1178537 0 0 0 0 0 127227487.0221799 1755099.085550752 1755099.085550752 30645658.30010871 0 0 0 0 0 126399278.2404996 1352695.008977682 1352695.008977682 30406124.57201047 0 0 0 0 0 125410632.6156326 2495367.353343448 2495367.353343448 29111089.91849555 0 0 0 0 0 124071611.8731252 2621633.110358734 2621633.110358734 28341774.28012235 0 0 0 0 0 122833461.3187115 2743046.808993504 2743046.808993504 27589359.39367146 0 0 0 0 0 121685136.5712579 2853341.690312658 2853341.690312658 26846332.17906827 0 0 0 0 0 120410240.9245667 3527183.876594173 3527183.876594173 25514744.7035088 0 0 0 0 0 120995533.4794997 2620318.194543554 2620318.194543554 26693437.07673988 0 0 0 0 0 119460298.6069424 3592857.286919627 3592857.286919627 24811323.73418287 0 0 0 0 0 118578964.8932922 3649483.812297974 3649483.812297974 24124054.99730343 0 0 0 0 0 117758213.8268915 3697584.886460285 3697584.886460285 23457516.80007441 0 0 0 0 0 116992735.3494087 3736002.103195749 3736002.103195749 22809072.22501067 0 0 0 0 0 116278660.8754178 3766848.737741334 3766848.737741334 22180143.49985095 0 0 0 0 0 115611300.8915997 3790542.886801949 3790542.886801949 21570662.26064215 0 0 0 0 0 115208380.6547074 3608970.628507907 3608970.628507907 21305147.98229935 0 0 0 0 0 114922620.9107447 4229532.921728265 4229532.921728265 20384665.39312029 0 0 0 0 0 114349286.0617538 4223187.451532486 4223187.451532486 19826527.37606996 0 0 0 0 0 113805809.649193 4210819.296399773 4210819.296399773 19303007.2354996 0 0 0 0 0 113292192.9934105 4189156.288503579 4189156.288503579 18774330.64625782 0 0 0 0 0 112806810.5640516 4163608.648962188 4163608.648962188 18267133.67938785 0 0 0 0 0 112353316.325474 4138308.640830627 4138308.640830627 17774224.40175431 0 0 0 0 0 112065505.4783681 3980765.585111099 3980765.585111099 17476617.66034103 0 0 0 0 0 111925937.9960328 4419831.531320736 4419831.531320736 16759878.35377379 0 0 0 0 0 111528607.5449367 4380165.034774015 4380165.034774015 16318325.36144131 0 0 0 0 0 111264355.7005867 4479433.732030801 4479433.732030801 15413302.78376756 0 0 0 0 0 110904784.8410377 4432373.980013534 4432373.980013534 15014357.06199441 0 0 0 0 0 110577269.8649167 4599797.762727108 4599797.762727108 14068111.42701634 0 0 0 0 0 110830293.2859266 4763269.697740231 4763269.697740231 14426035.51594558 0 0 0 0 0 110253948.7043068 4538446.509538868 4538446.509538868 13699070.74902638 0 0 0 0 0 109940491.4492032 4474177.538951554 4474177.538951554 13355887.18174342 0 0 0 0 0 109643599.4521695 4410829.481859437 4410829.481859437 13027099.69837515 0 0 0 0 0 109359841.6178458 4349274.571817536 4349274.571817536 12713494.22164881 0 0 0 0 0 109120611.9655105 4446771.439606071 4446771.439606071 11918976.7121749 0 0 0 0 0 109336980.100129 4594898.032383472 4594898.032383472 12257971.30587251 0 0 0 0 0 108865087.3476251 4380269.863067172 4380269.863067172 11638610.52909076 0 0 0 0 0 108637621.2270036 4324760.390082203 4324760.390082203 11363602.39075775 0 0 0 0 0 108512475.4606705 4335428.40173127 4335428.40173127 11291263.26996437 0 0 0 0 0 108379309.2104563 4319227.723859519 4319227.723859519 10980966.4894145 0 0 0 0 0 111261640.7196114 4221708.045790037 4221708.045790037 15994569.00554607 0 0 0 0 0 135451491.3174043 639167.5765338731 639167.5765338731 34013957.03122277 0 0 0 0 0 134362106.4399986 -14785.4652792381 -14785.4652792381 33602283.86993962 0 0 0 0 0 129447341.1820126 649200.0638695924 649200.0638695924 32314268.2467889 0 0 0 0 0 132179311.2041488 1874.977353696283 1874.977353696283 32833119.91145208 0 0 0 0 0 127945210.5585348 969416.2201446143 969416.2201446143 31542698.12175059 0 0 0 0 0 127621302.3945749 821254.9264665868 821254.9264665868 30582894.77784147 0 0 0 0 0 125821221.3603936 1797652.749422077 1797652.749422077 29606900.89466937 0 0 0 0 0 124924263.5678951 1537383.343523589 1537383.343523589 29642590.52595311 0 0 0 0 0 123619893.5611482 1714948.836271562 1714948.836271562 28839720.52371404 0 0 0 0 0 122389869.7573203 1871979.36352829 1871979.36352829 28056241.44855152 0 0 0 0 0 121258470.4262938 2007575.365025606 2007575.365025606 27293042.88508379 0 0 0 0 0 119997772.8541276 2726236.394952183 2726236.394952183 25958487.43122841 0 0 0 0 0 120624180.1051799 2943290.773939947 2943290.773939947 26118284.74894459 0 0 0 0 0 119072916.8194669 2821552.904642737 2821552.904642737 25238791.15951981 0 0 0 0 0 118210805.3827059 2907610.385121402 2907610.385121402 24539025.3566286 0 0 0 0 0 117405373.3908062 2983643.318410215 2983643.318410215 23856769.20199482 0 0 0 0 0 116656669.9854354 3049638.631591211 3049638.631591211 23194199.33885232 0 0 0 0 0 115957444.7968224 3107031.757957418 3107031.757957418 22550783.20719428 0 0 0 0 0 115303026.3248026 3156217.695281313 3156217.695281313 21926799.52336637 0 0 0 0 0 114986484.2732503 3807558.084691104 3807558.084691104 20980120.783768 0 0 0 0 0 114608654.4059214 3632939.837793856 3632939.837793856 20714276.11492923 0 0 0 0 0 114044503.9687733 3649949.802756887 3649949.802756887 20142309.67613002 0 0 0 0 0 113507163.8013072 3651401.283067161 3651401.283067161 19572184.90238525 0 0 0 0 0 112998504.3482722 3649886.061608939 3649886.061608939 19048550.66248604 0 0 0 0 0 112530270.7466486 3650213.562285142 3650213.562285142 18536918.74250261 0 0 0 0 0 112088708.5704575 3648383.222697593 3648383.222697593 18043661.38807934 0 0 0 0 0 111927088.1363451 4113491.592444402 4113491.592444402 17301134.12468283 0 0 0 0 0 111654737.5331179 3961800.216294761 3961800.216294761 17009386.45468366 0 0 0 0 0 111265388.2010065 3939451.565406097 3939451.565406097 16557021.12322479 0 0 0 0 0 111166337.5768609 4595345.868203857 4595345.868203857 15360128.46680778 0 0 0 0 0 110811133.9105187 4541248.758490742 4541248.758490742 14961551.88513257 0 0 0 0 0 110500990.1700637 4700822.846034646 4700822.846034646 14061227.35629529 0 0 0 0 0 110563283.8694283 4384991.646388352 4384991.646388352 14625986.93021364 0 0 0 0 0 110182231.4624624 4635589.310680288 4635589.310680288 13717302.9431135 0 0 0 0 0 109873677.4349846 4565434.886325815 4565434.886325815 13376347.72124104 0 0 0 0 0 109579851.8212433 4497513.383185822 4497513.383185822 13047374.99518516 0 0 0 0 0 109301835.7003147 4431544.887734317 4431544.887734317 12726647.59154953 0 0 0 0 0 109071276.2338908 4523722.497457656 4523722.497457656 11958565.69122864 0 0 0 0 0 109089628.6671714 4288815.026535157 4288815.026535157 12405812.46327445 0 0 0 0 0 108823052.6914269 4455267.287201345 4455267.287201345 11653344.99488943 0 0 0 0 0 108635663.0818099 4391664.462451671 4391664.462451671 11383432.88908572 0 0 0 0 0 108423488.3454305 4327115.029853586 4327115.029853586 10991648.96870599 0 0 0 0 0 111151691.9290994 4338451.986496336 4338451.986496336 15892814.45041479 0 0 0 0 0 133339957.1628867 636560.8375983635 636560.8375983635 33217584.16074203 0 0 0 0 0 129103081.8855583 765048.6670835334 765048.6670835334 31191691.92341003 0 0 0 0 0 130332849.7516994 84886.85169298202 84886.85169298202 31897236.33970902 0 0 0 0 0 131076427.9450832 609512.8904977546 609512.8904977546 32576813.01541558 0 0 0 0 0 126580396.6979172 988213.1311433528 988213.1311433528 30883208.96117818 0 0 0 0 0 125256600.0906218 970728.9244719717 970728.9244719717 30247313.32105717 0 0 0 0 0 124412596.2757171 1943403.530301948 1943403.530301948 28838018.5933987 0 0 0 0 0 123147692.1809986 2093727.199796227 2093727.199796227 28120891.9056933 0 0 0 0 0 121959256.3086392 2228135.478203376 2228135.478203376 27383798.46337038 0 0 0 0 0 120863111.3109978 2334184.578961065 2334184.578961065 26623959.73896619 0 0 0 0 0 119648427.9336427 3027505.719199042 3027505.719199042 25410208.242961 0 0 0 0 0 120217281.5242723 2138281.717923506 2138281.717923506 26567089.1832721 0 0 0 0 0 118743520.0542865 3103771.18212998 3103771.18212998 24720625.32765323 0 0 0 0 0 117901784.9025958 3171658.792746407 3171658.792746407 24045705.14152515 0 0 0 0 0 117116257.1421292 3228463.588634624 3228463.588634624 23387408.74029365 0 0 0 0 0 116385108.7852691 3278226.423410645 3278226.423410645 22749033.09174207 0 0 0 0 0 115702404.4795721 3320681.756210933 3320681.756210933 22129731.95279178 0 0 0 0 0 115063674.8879883 3355998.167465702 3355998.167465702 21529396.72531278 0 0 0 0 0 114689945.2726598 3197739.638509866 3197739.638509866 21322546.09173122 0 0 0 0 0 114400770.6851471 3818504.00187936 3818504.00187936 20408094.95268311 0 0 0 0 0 113851740.3254782 3823175.141218645 3823175.141218645 19862337.92128934 0 0 0 0 0 113324745.76762 3818283.113064669 3818283.113064669 19345862.78546998 0 0 0 0 0 112830407.3461132 3802582.697481548 3802582.697481548 18800807.51366288 0 0 0 0 0 112370082.1369216 3793529.076344951 3793529.076344951 18300327.65057505 0 0 0 0 0 111937168.3715568 3782393.651610433 3782393.651610433 17814992.66471327 0 0 0 0 0 111670945.6141687 3642542.487215542 3642542.487215542 17562440.07069161 0 0 0 0 0 111524735.1642648 4086303.155079853 4086303.155079853 16844115.83221115 0 0 0 0 0 111143280.4111809 4056884.496393146 4056884.496393146 16404894.37690181 0 0 0 0 0 110897162.7570926 4185023.15910286 4185023.15910286 15575025.80148255 0 0 0 0 0 110551971.2212909 4146897.586573538 4146897.586573538 15171175.00213093 0 0 0 0 0 110236895.3662769 4334364.776308944 4334364.776308944 14247128.39801203 0 0 0 0 0 110476133.4589569 4486735.17980036 4486735.17980036 14577833.5226925 0 0 0 0 0 109924973.3148347 4279757.918537854 4279757.918537854 13878705.70754461 0 0 0 0 0 109624813.4443015 4224918.978467686 4224918.978467686 13533720.23741646 0 0 0 0 0 109340367.1671239 4168708.429126056 4168708.429126056 13198881.02607904 0 0 0 0 0 109065265.0711485 4114145.754531263 4114145.754531263 12877688.96628347 0 0 0 0 0 108825030.6357501 4224447.616144846 4224447.616144846 12100783.24154287 0 0 0 0 0 109034457.7891194 4366670.198740652 4366670.198740652 12416179.33696393 0 0 0 0 0 108590029.98353 4169882.816917307 4169882.816917307 11820339.62793795 0 0 0 0 0 108381758.2152427 4139214.297729946 4139214.297729946 11563721.38169084 0 0 0 0 0 108270709.9821255 4152525.191974876 4152525.191974876 11384903.73817384 0 0 0 0 0 110895900.442458 3913972.427753443 3913972.427753443 16120033.29880523 0 0 0 0 0 128347703.7091624 68308.65579815734 68308.65579815734 31586428.72095008 0 0 0 0 0 129298994.0755529 439457.1657252086 439457.1657252086 31844418.43735741 0 0 0 0 0 126802176.2637512 49678.04052000675 49678.04052000675 30687770.67439597 0 0 0 0 0 126255598.8751409 895052.5629123496 895052.5629123496 29840320.20897256 0 0 0 0 0 124808833.4572883 1284105.878577992 1284105.878577992 29266659.1432496 0 0 0 0 0 124077862.5779665 1080961.422578848 1080961.422578848 29379639.73195226 0 0 0 0 0 122793417.4581046 1225191.056913072 1225191.056913072 28578221.21650756 0 0 0 0 0 121598563.5033254 1351698.935776019 1351698.935776019 27802398.02443451 0 0 0 0 0 120503642.0297848 1507524.295877336 1507524.295877336 27098931.93450192 0 0 0 0 0 119275982.9763636 2248791.31893239 2248791.31893239 25848941.34084419 0 0 0 0 0 119853994.8225982 2433590.64541893 2433590.64541893 25936518.77101605 0 0 0 0 0 118392467.2047122 2354468.388734325 2354468.388734325 25141909.17384196 0 0 0 0 0 117562537.619814 2447392.778706742 2447392.778706742 24453929.70545869 0 0 0 0 0 116797622.4699754 2530882.201935391 2530882.201935391 23784049.98508288 0 0 0 0 0 116081863.2602322 2607497.315435128 2607497.315435128 23131398.38244288 0 0 0 0 0 115412995.6575342 2675382.345576987 2675382.345576987 22497721.67714843 0 0 0 0 0 114785945.675242 2735284.56514435 2735284.56514435 21883078.70751971 0 0 0 0 0 114465448.5685964 3384468.254335184 3384468.254335184 20947100.86218506 0 0 0 0 0 114115448.0550876 3232174.472002783 3232174.472002783 20737527.40751368 0 0 0 0 0 113573825.3842238 3256091.904806721 3256091.904806721 20164715.28414686 0 0 0 0 0 113056855.0931005 3265043.804929244 3265043.804929244 19597739.04621238 0 0 0 0 0 112569542.2010282 3279233.682012006 3279233.682012006 19094642.12898322 0 0 0 0 0 112121002.3541034 3291831.185684511 3291831.185684511 18581620.32808377 0 0 0 0 0 111696531.0940124 3299593.2568542 3299593.2568542 18086472.79251961 0 0 0 0 0 111528414.8826671 3768238.965469823 3768238.965469823 17345811.96554878 0 0 0 0 0 111276286.8762698 3633196.694713519 3633196.694713519 17096589.23020239 0 0 0 0 0 110902156.6405099 3619884.302290948 3619884.302290948 16643824.19445095 0 0 0 0 0 110794100.2317805 4294539.473832379 4294539.473832379 15479967.59672602 0 0 0 0 0 110455231.2657601 4249706.419662083 4249706.419662083 15081344.27589967 0 0 0 0 0 110157517.8493186 4431036.195795579 4431036.195795579 14212066.59326215 0 0 0 0 0 110223050.7080022 4106414.183698383 4106414.183698383 14778477.03723906 0 0 0 0 0 109848209.6229006 4371815.45745896 4371815.45745896 13860534.12863213 0 0 0 0 0 109553475.6042902 4310995.07700561 4310995.07700561 13517843.73201204 0 0 0 0 0 109271547.8939741 4251629.164426332 4251629.164426332 13185115.09718094 0 0 0 0 0 109003120.2009267 4192536.051149774 4192536.051149774 12864451.33041953 0 0 0 0 0 108772935.1365435 4297606.898501615 4297606.898501615 12113933.08432938 0 0 0 0 0 108798753.3106207 4056263.834669955 4056263.834669955 12559913.35383668 0 0 0 0 0 108541291.6123495 4244732.390740831 4244732.390740831 11792747.49155078 0 0 0 0 0 108329109.4007674 4167870.523481389 4167870.523481389 11402919.90956511 0 0 0 0 0 110781573.9598233 4024398.235760451 4024398.235760451 15978689.94048169 0 0 0 0 0 127706564.5310379 510873.2731481228 510873.2731481228 31064428.84760153 0 0 0 0 0 126240919.6058 518694.6597384476 518694.6597384476 30276809.74021406 0 0 0 0 0 125385074.2958133 289582.9037401917 289582.9037401917 30366268.29522694 0 0 0 0 0 124387582.8999898 539676.1867880467 539676.1867880467 29892161.82444685 0 0 0 0 0 123526872.1927439 1471622.444393197 1471622.444393197 28614575.59908465 0 0 0 0 0 122279541.6493424 1595927.057764755 1595927.057764755 27899194.56053046 0 0 0 0 0 121132891.4824518 1705650.497264084 1705650.497264084 27091194.05232663 0 0 0 0 0 120089756.8077836 1815262.318508641 1815262.318508641 26330074.41220229 0 0 0 0 0 118928992.3310306 2528822.240408914 2528822.240408914 25239624.91808087 0 0 0 0 0 119508212.8206016 1654583.044929092 1654583.044929092 26382321.29763616 0 0 0 0 0 118064149.7045271 2619939.748083688 2619939.748083688 24576823.17548604 0 0 0 0 0 117256234.4595265 2691067.044127922 2691067.044127922 23906032.24235363 0 0 0 0 0 116507635.6146706 2759979.809583788 2759979.809583788 23259181.80710124 0 0 0 0 0 115809127.4475103 2821827.777234798 2821827.777234798 22634262.17893024 0 0 0 0 0 115156085.4988598 2876415.527731742 2876415.527731742 22027129.54943975 0 0 0 0 0 114544404.6015372 2923746.553909332 2923746.553909332 21439476.13163546 0 0 0 0 0 114197412.0760072 2787209.11911795 2787209.11911795 21287939.25308646 0 0 0 0 0 113905534.7652009 3406171.404296581 3406171.404296581 20384436.21267831 0 0 0 0 0 113377722.7705949 3420653.1150606 3420653.1150606 19850633.28992317 0 0 0 0 0 112867097.5213151 3423406.801433258 3423406.801433258 19329948.30576015 0 0 0 0 0 112394040.1744055 3422568.060864021 3422568.060864021 18792124.55467708 0 0 0 0 0 111956228.8227816 3427081.904580068 3427081.904580068 18298211.46538994 0 0 0 0 0 111541230.6802306 3426425.768871134 3426425.768871134 17817641.94570602 0 0 0 0 0 111295599.5749393 3303345.164691984 3303345.164691984 17607666.517341 0 0 0 0 0 111142294.5468845 3751298.501331184 3751298.501331184 16892007.6387752 0 0 0 0 0 110776077.9273189 3731433.629022522 3731433.629022522 16454361.67453812 0 0 0 0 0 110546065.0561978 3886332.666944415 3886332.666944415 15699739.88706169 0 0 0 0 0 110213914.762733 3856199.47057362 3856199.47057362 15292770.27284473 0 0 0 0 0 109909283.3076139 4063233.272476753 4063233.272476753 14397167.95977588 0 0 0 0 0 110132800.9391523 4203300.912280662 4203300.912280662 14697094.08146741 0 0 0 0 0 109610555.3488594 4019181.829237434 4019181.829237434 14031759.75992756 0 0 0 0 0 109323024.0907704 3972129.922122149 3972129.922122149 13678910.65903309 0 0 0 0 0 109050344.5698509 3923067.117057877 3923067.117057877 13340388.37057784 0 0 0 0 0 108786425.5971597 3876181.142340124 3876181.142340124 13012942.01381695 0 0 0 0 0 108536382.3334857 3993532.680714816 3993532.680714816 12248701.27610344 0 0 0 0 0 108738840.5725663 4129910.035800867 4129910.035800867 12558412.04186436 0 0 0 0 0 108311186.6946899 3942620.975290312 3942620.975290312 11989560.97496392 0 0 0 0 0 108160706.3504717 3970590.661645573 3970590.661645573 11760445.84981047 0 0 0 0 0 110547312.3595523 3603779.935078386 3603779.935078386 16208393.1107286 0 0 0 0 0 125081331.3753879 383443.4192113132 383443.4192113132 29382043.41243687 0 0 0 0 0 123954889.555792 833526.7319892704 833526.7319892704 28999741.9522214 0 0 0 0 0 123222222.5217564 650690.0131355122 650690.0131355122 29011596.43587781 0 0 0 0 0 122000779.9086439 722952.504672964 722952.504672964 28236368.47693332 0 0 0 0 0 120889086.7427391 798466.9503181402 798466.9503181402 27541008.30487124 0 0 0 0 0 119773208.5838191 976036.6938860161 976036.6938860161 26900724.3211043 0 0 0 0 0 118605477.3009648 1780327.736289418 1780327.736289418 25680859.8191274 0 0 0 0 0 119137123.5582014 1929511.816250829 1929511.816250829 25709271.06205064 0 0 0 0 0 117731490.1541082 1894080.550463913 1894080.550463913 24974277.5884589 0 0 0 0 0 116952817.6227558 1987910.886957356 1987910.886957356 24308879.67515677 0 0 0 0 0 116223454.0890242 2081104.285241778 2081104.285241778 23651636.18871307 0 0 0 0 0 115538159.4865108 2168683.6831193 2168683.6831193 23012094.69785533 0 0 0 0 0 114898320.5542262 2246819.774960573 2246819.774960573 22391681.93798148 0 0 0 0 0 114293249.4436719 2316567.919182472 2316567.919182472 21790204.12699437 0 0 0 0 0 113971191.2395859 2962247.502574354 2962247.502574354 20866926.62305468 0 0 0 0 0 113647986.1349199 2831127.085395379 2831127.085395379 20710554.37876002 0 0 0 0 0 113127218.3205888 2865460.054100653 2865460.054100653 20143724.12626605 0 0 0 0 0 112638588.6643923 2888478.866431879 2888478.866431879 19590498.37587454 0 0 0 0 0 112166694.870022 2913001.577485064 2913001.577485064 19086517.38100502 0 0 0 0 0 111731975.5973788 2933763.552848325 2933763.552848325 18577778.93509608 0 0 0 0 0 111324614.4205258 2951533.703624922 2951533.703624922 18089621.3607153 0 0 0 0 0 111149120.2408396 3422755.402045505 3422755.402045505 17353472.21479582 0 0 0 0 0 110915992.2182111 3303377.094850637 3303377.094850637 17144239.14270561 0 0 0 0 0 110556290.1242617 3299824.4268815 3299824.4268815 16695164.34614686 0 0 0 0 0 110438878.8574079 3989969.165277612 3989969.165277612 15566567.69271951 0 0 0 0 0 110113003.6247194 3953920.348233504 3953920.348233504 15167684.83300065 0 0 0 0 0 109824595.1884698 4155535.322811035 4155535.322811035 14325988.76715682 0 0 0 0 0 109897402.8327342 3824072.069854166 3824072.069854166 14898926.36169881 0 0 0 0 0 109530297.9331006 4105962.677199133 4105962.677199133 13971038.04211488 0 0 0 0 0 109247964.4679357 4054300.388154342 4054300.388154342 13635041.09729833 0 0 0 0 0 108976938.7451886 4001785.988068948 4001785.988068948 13293728.99113255 0 0 0 0 0 108715369.7974251 3951605.69015059 3951605.69015059 12962726.3474893 0 0 0 0 0 108482510.4996784 4066271.084483366 4066271.084483366 12275722.80220817 0 0 0 0 0 108525999.9467961 3828318.982142885 3828318.982142885 12694714.66607166 0 0 0 0 0 108237754.1867381 3990391.064037772 3990391.064037772 11785476.53271088 0 0 0 0 0 110428824.0688751 3708629.84400487 3708629.84400487 16030508.70616556 0 0 0 0 0 124428141.1710371 448902.0293707148 448902.0293707148 29709818.40098104 0 0 0 0 0 123836362.6636362 83776.41357073822 83776.41357073822 29226337.94978814 0 0 0 0 0 122717163.0551322 1003692.970457615 1003692.970457615 28383555.62704071 0 0 0 0 0 121480510.1876169 1090674.173385859 1090674.173385859 27694110.14281126 0 0 0 0 0 120367115.2230458 1177352.942931702 1177352.942931702 26769453.00081631 0 0 0 0 0 119390923.16853 1211402.288237118 1211402.288237118 25941083.13476341 0 0 0 0 0 118248014.9367147 2050909.219673901 2050909.219673901 25030872.13515129 0 0 0 0 0 118831225.9344403 1191852.646608456 1191852.646608456 26181160.51796421 0 0 0 0 0 117413834.3729793 2132822.531423835 2132822.531423835 24374352.68186823 0 0 0 0 0 116646601.3022617 2215822.820996038 2215822.820996038 23713498.97761967 0 0 0 0 0 115932661.2152105 2296378.485934627 2296378.485934627 23077749.79903787 0 0 0 0 0 115264363.7705733 2370890.08544778 2370890.08544778 22470576.0986931 0 0 0 0 0 114639587.9973671 2438544.018055999 2438544.018055999 21881649.3265667 0 0 0 0 0 114051557.6087642 2491655.541109708 2491655.541109708 21300134.18060758 0 0 0 0 0 113734748.3281088 2378249.785643919 2378249.785643919 21205917.34155849 0 0 0 0 0 113435463.5075705 2995742.917659275 2995742.917659275 20313948.88767045 0 0 0 0 0 112928030.5691087 3021118.181010982 3021118.181010982 19786865.29465779 0 0 0 0 0 112441727.9954327 3039224.197732395 3039224.197732395 19276291.60217245 0 0 0 0 0 111985333.7831825 3050519.634455012 3050519.634455012 18754752.56174402 0 0 0 0 0 111563971.4599508 3062084.538704647 3062084.538704647 18257803.4784559 0 0 0 0 0 111165479.1071068 3072320.227581079 3072320.227581079 17784439.68248089 0 0 0 0 0 110939091.40228 2965188.123238285 2965188.123238285 17615302.08753556 0 0 0 0 0 110777873.349601 3415994.54958898 3415994.54958898 16904470.20852927 0 0 0 0 0 110426262.3547451 3405905.077823623 3405905.077823623 16470297.26416521 0 0 0 0 0 110210628.3197903 3584808.239502972 3584808.239502972 15787901.0402392 0 0 0 0 0 109890906.2301281 3563823.173510411 3563823.173510411 15382268.77201599 0 0 0 0 0 109595886.6908438 3790912.821869982 3790912.821869982 14519434.12091725 0 0 0 0 0 109802035.8270687 3917045.168821971 3917045.168821971 14783875.71579195 0 0 0 0 0 109309288.3698786 3755672.504552962 3755672.504552962 14151321.79551234 0 0 0 0 0 109035536.2053854 3716015.030078971 3716015.030078971 13792306.66656978 0 0 0 0 0 108786371.7880615 3677557.784244858 3677557.784244858 13455885.33366439 0 0 0 0 0 108526215.4425934 3652507.945854351 3652507.945854351 13131325.45669219 0 0 0 0 0 108291528.2585371 3754140.122556249 3754140.122556249 12338363.99288257 0 0 0 0 0 108474889.5244692 3885335.273595868 3885335.273595868 12691738.45554838 0 0 0 0 0 108070390.5773828 3783072.013715242 3783072.013715242 12173814.10716966 0 0 0 0 0 110215172.1245702 3292874.459103313 3292874.459103313 16261770.03397356 0 0 0 0 0 123197118.1092422 431512.3969609754 431512.3969609754 28840146.59888988 0 0 0 0 0 122568224.7802597 106771.0967844604 106771.0967844604 28570340.31559683 0 0 0 0 0 121381345.1755679 130882.9069142156 130882.9069142156 27835601.02018297 0 0 0 0 0 120281560.6751121 162107.8831816123 162107.8831816123 27188559.80329234 0 0 0 0 0 118907464.0872561 791520.4063017227 791520.4063017227 26613897.8841503 0 0 0 0 0 117940738.4139645 1325363.274223414 1325363.274223414 25405371.36432955 0 0 0 0 0 118450529.4827629 1457383.269762256 1457383.269762256 25411177.11150442 0 0 0 0 0 117111944.4857865 1447594.053542055 1447594.053542055 24742721.12414121 0 0 0 0 0 116389141.9818837 1538001.043581025 1538001.043581025 24097633.77662724 0 0 0 0 0 115680239.7002414 1646191.251908134 1646191.251908134 23458316.9037152 0 0 0 0 0 115027436.763416 1740115.673646373 1740115.673646373 22833640.10564755 0 0 0 0 0 114399070.0861621 1822751.398095137 1822751.398095137 22236701.5862328 0 0 0 0 0 113839164.5473451 1901397.112971154 1901397.112971154 21658146.88700288 0 0 0 0 0 113504485.9689976 2546372.700646503 2546372.700646503 20744343.94904059 0 0 0 0 0 113202019.6950079 2434072.782104471 2434072.782104471 20638010.24040937 0 0 0 0 0 112703878.3496286 2481175.976251249 2481175.976251249 20087998.51837765 0 0 0 0 0 112231917.545328 2515544.879344353 2515544.879344353 19544378.49435083 0 0 0 0 0 111784309.9908909 2546720.79070451 2546720.79070451 19029941.62055925 0 0 0 0 0 111364287.6541155 2578767.536115543 2578767.536115543 18536627.21817969 0 0 0 0 0 110972556.7243172 2606461.109470326 2606461.109470326 18055738.56796375 0 0 0 0 0 110788781.1306569 3079209.2763858 3079209.2763858 17326901.26554142 0 0 0 0 0 110573790.706065 2974842.397918513 2974842.397918513 17156148.00825035 0 0 0 0 0 110227804.8032472 2980661.403248348 2980661.403248348 16711759.69436542 0 0 0 0 0 110099042.0707125 3683704.217356585 3683704.217356585 15620533.55135248 0 0 0 0 0 109785607.0126407 3657192.631686713 3657192.631686713 15223515.31012199 0 0 0 0 0 109506373.6191701 3878311.904356431 3878311.904356431 14412090.45716383 0 0 0 0 0 109586821.4395193 3540706.813335547 3540706.813335547 14988297.11040064 0 0 0 0 0 109226277.7440242 3837320.899606743 3837320.899606743 14055292.15235666 0 0 0 0 0 108957208.0020759 3791292.240647279 3791292.240647279 13706980.92874482 0 0 0 0 0 108695936.4701884 3756998.565262047 3756998.565262047 13337426.78262126 0 0 0 0 0 108451888.4194563 3710238.622948576 3710238.622948576 13001161.57528742 0 0 0 0 0 108231984.5220329 3800483.801333211 3800483.801333211 12574329.47486504 0 0 0 0 0 108273171.9351066 3596399.449547157 3596399.449547157 12767772.84402542 0 0 0 0 0 108055277.4778991 3712908.821527625 3712908.821527625 12074529.98596171 0 0 0 0 0 110092529.5346472 3392944.829002065 3392944.829002065 16049962.57844075 0 0 0 0 0 121974778.5792443 469121.6907432722 469121.6907432722 28128717.25596532 0 0 0 0 0 120812934.5833823 492028.8159616867 492028.8159616867 27426682.01785396 0 0 0 0 0 119703055.3967867 520261.1347340331 520261.1347340331 26808551.29336682 0 0 0 0 0 119278965.6164571 198577.2193681315 198577.2193681315 26165347.66142713 0 0 0 0 0 118612226.0815958 887730.792806375 887730.792806375 25689175.41882535 0 0 0 0 0 117602549.1589804 1567099.273918928 1567099.273918928 24713655.53125326 0 0 0 0 0 118095849.4951564 747173.3173912764 747173.3173912764 25662577.07051175 0 0 0 0 0 116809331.9641091 1660559.874175865 1660559.874175865 24140244.07373916 0 0 0 0 0 116078412.6744247 1755732.139686376 1755732.139686376 23469009.34666973 0 0 0 0 0 115390500.9152756 1846858.025337487 1846858.025337487 22855083.77262061 0 0 0 0 0 114752927.6682158 1939447.980102972 1939447.980102972 22283074.67616385 0 0 0 0 0 114146580.4257896 1993397.730426594 1993397.730426594 21681662.58341876 0 0 0 0 0 113590254.6948996 2073188.692225685 2073188.692225685 21125645.89852163 0 0 0 0 0 113292029.5612733 1977866.128574993 1977866.128574993 21079660.20917566 0 0 0 0 0 112986800.0996045 2590874.67998254 2590874.67998254 20204494.69041743 0 0 0 0 0 112504957.3334127 2627481.686043114 2627481.686043114 19686776.80454488 0 0 0 0 0 112040389.6230904 2655290.482209909 2655290.482209909 19173237.49168461 0 0 0 0 0 111600926.7352337 2680336.650309393 2680336.650309393 18672067.34955006 0 0 0 0 0 111192880.5648335 2701075.588513596 2701075.588513596 18182956.67745652 0 0 0 0 0 110809760.1821108 2722209.615188382 2722209.615188382 17718322.8053527 0 0 0 0 0 110600957.2282859 2629928.651516945 2629928.651516945 17587689.79412808 0 0 0 0 0 110431960.5520289 3082307.039051806 3082307.039051806 16883711.29955886 0 0 0 0 0 110093895.3720054 3082070.987448524 3082070.987448524 16454697.36551994 0 0 0 0 0 109891350.7415198 3283167.314830367 3283167.314830367 15843269.79582001 0 0 0 0 0 109583730.0151707 3271174.637642214 3271174.637642214 15439024.8001813 0 0 0 0 0 109296164.9414446 3515838.001360488 3515838.001360488 14608341.8830214 0 0 0 0 0 109487264.1119006 3629315.91079362 3629315.91079362 14840125.38925144 0 0 0 0 0 109018383.2353077 3487519.618967563 3487519.618967563 14240555.14755407 0 0 0 0 0 108747353.0417335 3456383.328593553 3456383.328593553 13887750.20358264 0 0 0 0 0 108499142.2006781 3432301.179058854 3432301.179058854 13564618.70174649 0 0 0 0 0 108314329.6774452 3457068.294521641 3457068.294521641 13235664.1298909 0 0 0 0 0 108065635.2928113 3533224.329819967 3533224.329819967 12501228.47838424 0 0 0 0 0 108232029.0094904 3639828.212432153 3639828.212432153 12920492.11609194 0 0 0 0 0 107966483.0996499 3571063.804495833 3571063.804495833 12510080.00729084 0 0 0 0 0 109899556.3310008 2983045.148645724 2983045.148645724 16282215.3093512 0 0 0 0 0 118865276.5388909 424627.3507037931 424627.3507037931 26147452.40854504 0 0 0 0 0 118364682.9147639 138258.3862901003 138258.3862901003 25827476.4809399 0 0 0 0 0 117242095.2927563 894973.0158643691 894973.0158643691 25091658.07653604 0 0 0 0 0 117780320.8104016 994577.1708486025 994577.1708486025 25035751.39836807 0 0 0 0 0 116602205.050519 1038316.957658685 1038316.957658685 24482055.59287221 0 0 0 0 0 115899498.2500565 1127456.82176695 1127456.82176695 23825311.92254054 0 0 0 0 0 115216466.2619421 1194740.910808395 1194740.910808395 23214477.3389452 0 0 0 0 0 114530514.0430441 1268165.712599248 1268165.712599248 22620799.23272894 0 0 0 0 0 113969993.9832564 1388649.916697311 1388649.916697311 22089672.16926537 0 0 0 0 0 113393157.2322477 1503262.509775868 1503262.509775868 21471897.36878137 0 0 0 0 0 113060263.7553891 2136535.087541131 2136535.087541131 20580257.41548958 0 0 0 0 0 112781883.2363998 2043905.476848344 2043905.476848344 20524250.9068647 0 0 0 0 0 112303855.7381292 2096456.84415988 2096456.84415988 19974152.07268114 0 0 0 0 0 111848221.8136549 2143375.918146017 2143375.918146017 19450095.59207374 0 0 0 0 0 111417696.8504905 2185279.535414864 2185279.535414864 18945482.60435858 0 0 0 0 0 111017633.8622456 2228060.885586627 2228060.885586627 18462457.71680108 0 0 0 0 0 110638708.3002684 2266114.691496618 2266114.691496618 17987628.17102997 0 0 0 0 0 110447241.7676026 2738933.070019445 2738933.070019445 17268252.10610041 0 0 0 0 0 110249440.9918468 2648998.978063379 2648998.978063379 17134759.61022204 0 0 0 0 0 109916337.9663516 2664069.148421255 2664069.148421255 16696026.241064 0 0 0 0 0 109775545.0467748 3377643.341821885 3377643.341821885 15643061.91577868 0 0 0 0 0 109474089.2782789 3360624.914470205 3360624.914470205 15249464.31538541 0 0 0 0 0 109203237.035563 3599232.791947064 3599232.791947064 14472506.23898321 0 0 0 0 0 109291595.6654591 3257294.550358088 3257294.550358088 15047440.47468609 0 0 0 0 0 108931251.9076146 3567450.975507089 3567450.975507089 14117482.49397884 0 0 0 0 0 108662189.2900368 3536798.002432064 3536798.002432064 13776417.08748312 0 0 0 0 0 108397594.6407933 3472076.113233594 3472076.113233594 13255291.11769268 0 0 0 0 0 108185369.0509217 3471269.071473438 3471269.071473438 12807896.10670787 0 0 0 0 0 108023333.8203598 3587009.954552983 3587009.954552983 12524029.46178024 0 0 0 0 0 109772962.1378813 3078839.859346373 3078839.859346373 16039071.0827752 0 0 0 0 0 117995174.9304106 426526.7010051758 426526.7010051758 25429315.31355793 0 0 0 0 0 116972454.7539611 991754.8597120345 991754.8597120345 24239440.86988838 0 0 0 0 0 117472660.9131082 168403.0595187112 168403.0595187112 25194275.44244314 0 0 0 0 0 116252552.6109458 1270138.166673747 1270138.166673747 23906389.14786433 0 0 0 0 0 115558403.3157459 1351150.445463541 1351150.445463541 23316622.75290238 0 0 0 0 0 114884275.6290075 1426930.939518816 1426930.939518816 22728257.04296923 0 0 0 0 0 114264958.8392765 1432621.699798429 1432621.699798429 21972065.96109288 0 0 0 0 0 113687636.1142572 1567356.389886031 1567356.389886031 21434925.69682657 0 0 0 0 0 113146597.6742189 1661674.138063875 1661674.138063875 20897277.14984974 0 0 0 0 0 112872091.9370541 1587620.993690124 1587620.993690124 20906451.78282221 0 0 0 0 0 112565912.2489723 2190690.796066013 2190690.796066013 20054136.17692925 0 0 0 0 0 112098524.0231386 2238698.23322074 2238698.23322074 19548117.1728831 0 0 0 0 0 111653944.4952257 2278431.43232491 2278431.43232491 19049624.10603317 0 0 0 0 0 111233917.1466743 2310445.774429831 2310445.774429831 18546711.81961561 0 0 0 0 0 110842066.2791402 2345937.192520781 2345937.192520781 18075984.13218683 0 0 0 0 0 110472954.5357548 2376806.267298467 2376806.267298467 17620722.6315226 0 0 0 0 0 110281071.7270552 2298958.828970317 2298958.828970317 17527583.43043724 0 0 0 0 0 110104106.9460511 2751888.619758299 2751888.619758299 16832218.67203651 0 0 0 0 0 109778811.3042425 2761281.157437265 2761281.157437265 16409472.89388549 0 0 0 0 0 109587891.1656056 2982511.043493667 2982511.043493667 15866968.82167185 0 0 0 0 0 109291623.4932088 2979186.884424588 2979186.884424588 15465175.38546641 0 0 0 0 0 109012867.2466429 3242109.739962819 3242109.739962819 14668304.32055366 0 0 0 0 0 109187097.3022422 3341560.136881016 3341560.136881016 14863798.58134383 0 0 0 0 0 108750783.5693356 3227412.106756883 3227412.106756883 14305155.80620234 0 0 0 0 0 108490365.1026718 3186191.990919351 3186191.990919351 13897704.80175046 0 0 0 0 0 108223882.8592921 3269395.05354364 3269395.05354364 13618725.72505344 0 0 0 0 0 108036567.3909953 3313867.755876959 3313867.755876959 13194233.09840583 0 0 0 0 0 107859279.3996237 3331604.218347187 3331604.218347187 12799686.36497328 0 0 0 0 0 109600407.4214563 2675629.378091611 2675629.378091611 16271523.34311002 0 0 0 0 0 116566897.0535662 885511.0398974607 885511.0398974607 24636692.59746782 0 0 0 0 0 117085449.4971048 447694.576766148 447694.576766148 24829068.61502722 0 0 0 0 0 116220393.088166 660908.3498941737 660908.3498941737 24049938.55971937 0 0 0 0 0 115515073.9697301 658367.5143423808 658367.5143423808 23552853.54865598 0 0 0 0 0 114844260.4579579 654154.4554143221 654154.4554143221 22854063.32823238 0 0 0 0 0 114021338.3683621 993544.0691305485 993544.0691305485 22462997.60526678 0 0 0 0 0 113492074.5682795 1044705.531118137 1044705.531118137 21756294.06848253 0 0 0 0 0 112980205.7338302 1118209.869326856 1118209.869326856 21209684.63789346 0 0 0 0 0 112642207.2336698 1735848.681320349 1735848.681320349 20380199.08659364 0 0 0 0 0 112384889.0623411 1660556.093432992 1660556.093432992 20368344.76336814 0 0 0 0 0 111931365.688287 1722211.494367913 1722211.494367913 19832119.91347339 0 0 0 0 0 111492600.896124 1777132.980907143 1777132.980907143 19310881.55238387 0 0 0 0 0 111073221.8369473 1834417.466017303 1834417.466017303 18831753.5794401 0 0 0 0 0 110688385.9846185 1883968.236848683 1883968.236848683 18352896.18116181 0 0 0 0 0 110324093.408512 1931557.846172435 1931557.846172435 17887468.09130754 0 0 0 0 0 110124247.2946193 2403512.4745357 2403512.4745357 17179905.79315635 0 0 0 0 0 109942375.8532517 2327188.402068087 2327188.402068087 17081859.30500298 0 0 0 0 0 109621821.6469346 2351318.571941183 2351318.571941183 16650070.28488372 0 0 0 0 0 109468218.4125788 3073076.114053132 3073076.114053132 15637031.10402034 0 0 0 0 0 109177665.878728 3065012.021384435 3065012.021384435 15244768.42321711 0 0 0 0 0 108914010.251953 3322150.795197934 3322150.795197934 14494449.18573079 0 0 0 0 0 109009566.1978716 2974705.747848009 2974705.747848009 15077482.48815969 0 0 0 0 0 108663291.0902447 3298907.954244008 3298907.954244008 14158416.71371733 0 0 0 0 0 108403958.7114345 3249215.654742808 3249215.654742808 13928747.96489309 0 0 0 0 0 108075812.9187987 3264200.580631821 3264200.580631821 13122295.91955588 0 0 0 0 0 108254428.1355269 3167677.576972474 3167677.576972474 13508328.87726638 0 0 0 0 0 107910859.9320029 3325514.656033477 3325514.656033477 12772848.80120344 0 0 0 0 0 109470107.0153074 2767679.848142351 2767679.848142351 16000008.62583319 0 0 0 0 0 116672223.4679389 180418.8253340513 180418.8253340513 24396554.83325321 0 0 0 0 0 115863675.2204044 860161.4677521163 860161.4677521163 23806078.20030028 0 0 0 0 0 115174339.401434 876369.6941165229 876369.6941165229 23248272.46102156 0 0 0 0 0 114498558.6250731 847457.8416873936 847457.8416873936 22673853.49333869 0 0 0 0 0 114229550.3914961 674026.4910193237 674026.4910193237 22105497.50195621 0 0 0 0 0 113773189.62223 1092277.004858668 1092277.004858668 21714680.73052995 0 0 0 0 0 113252284.8523568 1196171.557894281 1196171.557894281 21214697.37574738 0 0 0 0 0 112740147.1518746 1269266.820340514 1269266.820340514 20636977.12009801 0 0 0 0 0 112477171.0895367 1210737.951385455 1210737.951385455 20694032.70155862 0 0 0 0 0 112169168.7157213 1798825.152680281 1798825.152680281 19871480.44619911 0 0 0 0 0 111723332.8236132 1858569.053600615 1858569.053600615 19373990.20498482 0 0 0 0 0 111291914.2347687 1911343.77725101 1911343.77725101 18891096.69966929 0 0 0 0 0 110886736.4942179 1953488.034533151 1953488.034533151 18406786.59229891 0 0 0 0 0 110510113.1353354 1996534.829949359 1996534.829949359 17937129.80006839 0 0 0 0 0 110155361.6377348 2038363.796414295 2038363.796414295 17494851.34658547 0 0 0 0 0 109978270.8003526 1973717.899300884 1973717.899300884 17436824.8828658 0 0 0 0 0 109793901.5827188 2425877.580407847 2425877.580407847 16751893.00540288 0 0 0 0 0 109480972.5898131 2444817.822265229 2444817.822265229 16336849.66863837 0 0 0 0 0 109299971.7163669 2683965.599810823 2683965.599810823 15860572.96764923 0 0 0 0 0 109013942.5583339 2690040.268935826 2690040.268935826 15463554.92054661 0 0 0 0 0 108742154.7184974 2968557.650628056 2968557.650628056 14698685.3483844 0 0 0 0 0 108900795.778866 3055574.800164938 3055574.800164938 14863377.0348145 0 0 0 0 0 108485484.1109018 2953920.03014456 2953920.03014456 14330591.1523641 0 0 0 0 0 108254314.5698757 2935964.601919185 2935964.601919185 13986253.56177545 0 0 0 0 0 107941090.5893525 3045798.515084294 3045798.515084294 13513530.53338639 0 0 0 0 0 108108938.852254 3003111.510436783 3003111.510436783 13835106.70323213 0 0 0 0 0 107781995.8279281 3092503.78108983 3092503.78108983 13149631.39014448 0 0 0 0 0 109317469.2617589 2371697.072769248 2371697.072769248 16231399.14078945 0 0 0 0 0 116297436.6989402 398818.4850622532 398818.4850622532 24221655.11740496 0 0 0 0 0 115914169.8568678 156311.1280321355 156311.1280321355 23828081.45371844 0 0 0 0 0 115197028.7572549 141805.8284546131 141805.8284546131 23229929.07542418 0 0 0 0 0 114524712.818679 134776.6068844887 134776.6068844887 22714492.29679012 0 0 0 0 0 113958847.339719 761173.4798110707 761173.4798110707 22210124.22719925 0 0 0 0 0 113639539.9814222 583227.5305229473 583227.5305229473 21922853.97257612 0 0 0 0 0 113109529.0693675 626657.8020208789 626657.8020208789 21442112.61620585 0 0 0 0 0 112564147.2280613 716653.5120458789 716653.5120458789 20973457.12794097 0 0 0 0 0 112252062.290576 1347454.128421077 1347454.128421077 20151820.47165001 0 0 0 0 0 112013870.0189539 1290858.4569272 1290858.4569272 20178111.58976397 0 0 0 0 0 111580881.8706264 1361298.433165428 1361298.433165428 19657145.58128499 0 0 0 0 0 111142580.6560438 1428847.701136504 1428847.701136504 19151622.05868163 0 0 0 0 0 110746170.8841076 1486452.472267836 1486452.472267836 18676121.93366115 0 0 0 0 0 110383581.7038481 1545294.931262139 1545294.931262139 18213093.83508363 0 0 0 0 0 110024914.9764738 1605399.161859261 1605399.161859261 17757333.80294219 0 0 0 0 0 109818999.2671149 2073878.093632758 2073878.093632758 17064053.19999143 0 0 0 0 0 109652531.9881692 2010609.709640336 2010609.709640336 16999894.71661802 0 0 0 0 0 109344008.5879678 2043559.827416742 2043559.827416742 16575952.23174488 0 0 0 0 0 109176204.026573 2771431.111195221 2771431.111195221 15602649.03781516 0 0 0 0 0 108895746.4945493 2772830.031783552 2772830.031783552 15215730.7573568 0 0 0 0 0 108643035.7243662 3041409.449836792 3041409.449836792 14497732.31517267 0 0 0 0 0 108742014.0705858 2694574.287057767 2694574.287057767 15079519.41918729 0 0 0 0 0 108399525.8804097 3021784.943159396 3021784.943159396 14155986.11848383 0 0 0 0 0 108184235.1082018 2995777.21534046 2995777.21534046 13801590.68119301 0 0 0 0 0 107809057.809718 3050169.700765304 3050169.700765304 13071776.84233814 0 0 0 0 0 107992689.750502 3006185.636877649 3006185.636877649 13442617.21083055 0 0 0 0 0 109183485.4616748 2460807.066897187 2460807.066897187 15934547.6522075 0 0 0 0 0 115546618.7818399 368201.1884467823 368201.1884467823 23596843.10301722 0 0 0 0 0 114865132.8221408 342762.2242487575 342762.2242487575 23005300.04066906 0 0 0 0 0 114197809.4806228 336613.6041527398 336613.6041527398 22451492.13727592 0 0 0 0 0 113904911.0667756 153555.7101515559 153555.7101515559 22116044.40958605 0 0 0 0 0 113398275.6022735 747581.7577644747 747581.7577644747 21535813.31384949 0 0 0 0 0 112843533.7165657 808858.7901277163 808858.7901277163 20985994.03872748 0 0 0 0 0 112334735.8783162 815255.1035320301 815255.1035320301 20294847.56722685 0 0 0 0 0 112104335.7001354 856812.6347970519 856812.6347970519 20480237.95267331 0 0 0 0 0 111798843.6113523 1422415.103255356 1422415.103255356 19668096.95207043 0 0 0 0 0 111369005.0745921 1498085.650726311 1498085.650726311 19178967.8461747 0 0 0 0 0 110949585.2868598 1548550.497724903 1548550.497724903 18697260.68343804 0 0 0 0 0 110560698.9305368 1598463.964185193 1598463.964185193 18226775.3200063 0 0 0 0 0 110199294.4499381 1657127.032061428 1657127.032061428 17768374.68688124 0 0 0 0 0 109855072.8362848 1707120.529532523 1707120.529532523 17343080.55094112 0 0 0 0 0 109692719.5269369 1655114.836669258 1655114.836669258 17318036.22224633 0 0 0 0 0 109501208.0289947 2105538.745629074 2105538.745629074 16645105.78252106 0 0 0 0 0 109199946.5768554 2134299.542000239 2134299.542000239 16239500.07392806 0 0 0 0 0 109027398.4717578 2389108.017126011 2389108.017126011 15826384.21471703 0 0 0 0 0 108750632.0587682 2403954.769182404 2403954.769182404 15434770.51105743 0 0 0 0 0 108480366.979476 2695806.329694418 2695806.329694418 14703031.49773423 0 0 0 0 0 108629367.4902719 2771682.896343309 2771682.896343309 14835732.61602336 0 0 0 0 0 108231931.8681207 2692218.8270562 2692218.8270562 14337778.90398197 0 0 0 0 0 108033316.6041374 2715447.099202514 2715447.099202514 14036705.30941493 0 0 0 0 0 107704207.9162159 2837617.924709916 2837617.924709916 13454960.50328074 0 0 0 0 0 107849364.6132676 2769439.771452897 2769439.771452897 13765876.77582479 0 0 0 0 0 109049325.5841005 2072725.212972384 2072725.212972384 16164488.48006466 0 0 0 0 0 113638500.8654538 316914.914476211 316914.914476211 21879947.20754218 0 0 0 0 0 113345168.7231156 146958.9366096826 146958.9366096826 21657720.66987287 0 0 0 0 0 112781294.0660584 157603.8043687687 157603.8043687687 21069101.58965118 0 0 0 0 0 112126079.509344 498967.3070361228 498967.3070361228 20704401.40755129 0 0 0 0 0 111877890.2899059 955712.3175716158 955712.3175716158 19816105.10883491 0 0 0 0 0 111671349.9216408 962749.8267726491 962749.8267726491 19932106.8389181 0 0 0 0 0 111221986.8131275 1007889.922291738 1007889.922291738 19421165.36031857 0 0 0 0 0 110832137.3097232 1070440.177945151 1070440.177945151 18963824.12429404 0 0 0 0 0 110442749.9224669 1156923.165585255 1156923.165585255 18497879.1603853 0 0 0 0 0 110092745.9891069 1219710.03394479 1219710.03394479 18039476.543071 0 0 0 0 0 109739288.7261674 1289667.300873615 1289667.300873615 17598562.52730329 0 0 0 0 0 109531453.0118722 1750995.270416629 1750995.270416629 16922426.30680092 0 0 0 0 0 109380568.9284718 1700507.897044811 1700507.897044811 16890903.6459327 0 0 0 0 0 109080707.7912966 1741986.145346377 1741986.145346377 16475152.56552818 0 0 0 0 0 108899867.1086649 2473721.427580278 2473721.427580278 15542943.85966112 0 0 0 0 0 108628681.7689436 2484725.245110055 2484725.245110055 15163797.97176102 0 0 0 0 0 108375232.903432 2768341.350634102 2768341.350634102 14477115.84521306 0 0 0 0 0 108485352.4710121 2416545.296807173 2416545.296807173 15056236.82270059 0 0 0 0 0 108130971.2736643 2764616.193761051 2764616.193761051 14122308.9238501 0 0 0 0 0 107929656.0795696 2755263.326642589 2755263.326642589 13713016.72532629 0 0 0 0 0 107724573.250786 2778510.1289793 2778510.1289793 13350196.04199016 0 0 0 0 0 108912495.3221143 2158791.900533393 2158791.900533393 15844604.59108699 0 0 0 0 0 113068028.592172 331054.2307270428 331054.2307270428 21331926.34420437 0 0 0 0 0 112504341.0278846 324645.3589116543 324645.3589116543 20836224.39877497 0 0 0 0 0 111885534.1985132 538470.44932396 538470.44932396 19914554.63600614 0 0 0 0 0 112259721.3951399 164694.7197180499 164694.7197180499 20381153.97834156 0 0 0 0 0 111685880.8677955 658069.2357218671 658069.2357218671 20149462.32711106 0 0 0 0 0 111448439.0836405 1110426.562498708 1110426.562498708 19538629.14392702 0 0 0 0 0 111029811.2135752 1123136.799050471 1123136.799050471 18962513.99765707 0 0 0 0 0 110626048.284929 1189471.65242612 1189471.65242612 18450132.95680952 0 0 0 0 0 110256311.8330613 1267895.868945273 1267895.868945273 18048737.37628599 0 0 0 0 0 109904941.8293358 1328538.308482488 1328538.308482488 17569203.78066639 0 0 0 0 0 109571958.3239482 1383601.022026712 1383601.022026712 17169802.03384826 0 0 0 0 0 109428295.0494768 1344248.981940409 1344248.981940409 17173596.98494291 0 0 0 0 0 109226227.5996851 1793263.460441236 1793263.460441236 16515656.27467889 0 0 0 0 0 108934177.5318086 1830002.376901409 1830002.376901409 16118897.70196892 0 0 0 0 0 108769371.0198779 2098314.523993704 2098314.523993704 15765854.02150938 0 0 0 0 0 108502159.1012993 2121261.989849957 2121261.989849957 15380176.50281069 0 0 0 0 0 108230934.3909647 2423969.089150629 2423969.089150629 14682858.95875105 0 0 0 0 0 108369427.4467873 2491996.536906507 2491996.536906507 14794949.7218211 0 0 0 0 0 107996676.8262742 2432273.579921814 2432273.579921814 14328280.29317998 0 0 0 0 0 107788037.3339729 2469589.122018776 2469589.122018776 14025477.65382621 0 0 0 0 0 107628764.5990409 2570328.853256256 2570328.853256256 13721843.58542504 0 0 0 0 0 108795473.8953722 1779108.502724086 1779108.502724086 16072500.64770427 0 0 0 0 0 111796861.7712815 129341.3123041001 129341.3123041001 20167124.29212738 0 0 0 0 0 112037543.0131328 252672.198781465 252672.198781465 20342853.5087142 0 0 0 0 0 111487460.7805201 598225.5413288046 598225.5413288046 19523619.55880509 0 0 0 0 0 110914002.4578061 713518.1924513363 713518.1924513363 19254289.97328018 0 0 0 0 0 110539644.4544044 793997.7752975993 793997.7752975993 18729708.00428744 0 0 0 0 0 110153497.1881135 835364.9677244796 835364.9677244796 18247231.12506604 0 0 0 0 0 109812007.3207447 878713.9537693863 878713.9537693863 17852780.57524322 0 0 0 0 0 109502671.6811898 962012.3035405396 962012.3035405396 17439169.06055476 0 0 0 0 0 109263814.3150131 1439583.232234345 1439583.232234345 16762070.17489424 0 0 0 0 0 109122410.0703814 1398380.917666343 1398380.917666343 16756500.04309027 0 0 0 0 0 108831572.2613997 1447423.794794088 1447423.794794088 16351461.99424298 0 0 0 0 0 108638779.8771845 2180356.723866558 2180356.723866558 15460334.95809512 0 0 0 0 0 108376426.2591149 2200428.964119299 2200428.964119299 15086431.23787193 0 0 0 0 0 108121845.8394333 2496676.805132653 2496676.805132653 14441527.81093704 0 0 0 0 0 108240878.084737 2142516.299023272 2142516.299023272 15009621.80025082 0 0 0 0 0 107885256.0652781 2505323.639438681 2505323.639438681 14069965.396897 0 0 0 0 0 107652136.1618659 2487923.298433115 2487923.298433115 13576834.87035311 0 0 0 0 0 108656425.0046108 1862339.1885966 1862339.1885966 15733403.24588638 0 0 0 0 0 111558589.626269 279606.1481180213 279606.1481180213 19833547.62172341 0 0 0 0 0 111249467.9346809 649768.1815352171 649768.1815352171 19586298.67317845 0 0 0 0 0 110703878.7357032 847499.5316924066 847499.5316924066 18767885.75218277 0 0 0 0 0 111050980.0788513 553384.1427645815 553384.1427645815 19024713.42108862 0 0 0 0 0 110345911.370838 915744.3494238987 915744.3494238987 18323304.56250194 0 0 0 0 0 109974188.807624 955148.7536943519 955148.7536943519 17919956.1243292 0 0 0 0 0 109625778.5700431 970129.2486055919 970129.2486055919 17333241.91673618 0 0 0 0 0 109314145.5777211 1068111.857026472 1068111.857026472 16958336.82657145 0 0 0 0 0 109178121.7363772 1044316.754229541 1044316.754229541 17009290.41435976 0 0 0 0 0 108966142.1924703 1488629.380295496 1488629.380295496 16364951.61380628 0 0 0 0 0 108683090.9422128 1533090.781962727 1533090.781962727 15978592.80160157 0 0 0 0 0 108525511.0578351 1812263.480768625 1812263.480768625 15681767.99985138 0 0 0 0 0 108269493.0525937 1844323.965757649 1844323.965757649 15302725.44849898 0 0 0 0 0 108000410.3522035 2154668.162266584 2154668.162266584 14639076.6594746 0 0 0 0 0 108124485.1739908 2213722.912027128 2213722.912027128 14731829.17580876 0 0 0 0 0 107766335.7178997 2151839.557356331 2151839.557356331 14257853.91980753 0 0 0 0 0 107561769.9447795 2303952.064959079 2303952.064959079 13967542.63028112 0 0 0 0 0 108553553.0504924 1491454.299086977 1491454.299086977 15958026.1302333 0 0 0 0 0 111318554.0373841 129030.8926753037 129030.8926753037 19533604.70909192 0 0 0 0 0 110693542.351284 459951.4746931385 459951.4746931385 18857977.13747663 0 0 0 0 0 110916735.656185 592434.5383632374 592434.5383632374 19129073.60725883 0 0 0 0 0 110312991.5803435 470199.3699795522 470199.3699795522 18460346.57877268 0 0 0 0 0 109936634.2180511 470966.4098267889 470966.4098267889 17950508.28540923 0 0 0 0 0 109526278.8848862 621193.4212873093 621193.4212873093 17704845.48372645 0 0 0 0 0 109251349.1824318 684198.1385777997 684198.1385777997 17229142.68470707 0 0 0 0 0 109010973.0051442 1136598.201831883 1136598.201831883 16577671.85825154 0 0 0 0 0 108882468.3025213 1108037.778027259 1108037.778027259 16597605.42042259 0 0 0 0 0 108588765.493702 1164580.776417227 1164580.776417227 16203406.72603135 0 0 0 0 0 108391776.8294346 1891787.754820774 1891787.754820774 15353709.58684744 0 0 0 0 0 108137198.9333246 1920858.234312034 1920858.234312034 14971255.40987687 0 0 0 0 0 107893710.0925733 2227285.890977056 2227285.890977056 14416718.40145076 0 0 0 0 0 108010761.6545485 1879453.760541731 1879453.760541731 14939667.32423863 0 0 0 0 0 107680578.3794423 2214036.164102625 2214036.164102625 14147422.68684513 0 0 0 0 0 107540247.5745915 2136047.07598186 2136047.07598186 13772547.08653774 0 0 0 0 0 108413817.0806599 1570678.019956654 1570678.019956654 15602536.08047442 0 0 0 0 0 111086312.8692157 252660.8087799734 252660.8087799734 19377697.56885616 0 0 0 0 0 110505676.6612408 574610.0968572767 574610.0968572767 18631830.0289826 0 0 0 0 0 110892653.7028483 127708.5621983986 127708.5621983986 19084540.04132396 0 0 0 0 0 110125374.7603142 588771.2615530347 588771.2615530347 18200359.87360368 0 0 0 0 0 109808619.3764466 532501.4214411532 532501.4214411532 17974675.01408608 0 0 0 0 0 109338931.8637241 672109.3929722918 672109.3929722918 17107269.08730477 0 0 0 0 0 109610341.6715559 463182.4652072363 463182.4652072363 17356917.52894629 0 0 0 0 0 109070671.3018427 774341.4468201448 774341.4468201448 16728447.99024881 0 0 0 0 0 108945287.3512017 770885.4361406275 770885.4361406275 16811198.55993482 0 0 0 0 0 108722058.8345485 1201138.717823684 1201138.717823684 16200222.74168537 0 0 0 0 0 108443362.3904171 1241971.663467599 1241971.663467599 15816928.8184593 0 0 0 0 0 108296438.2940354 1530845.046797871 1530845.046797871 15575842.33575727 0 0 0 0 0 108035290.3511928 1589296.92365003 1589296.92365003 15219617.51826463 0 0 0 0 0 107791896.5580143 1884417.101280896 1884417.101280896 14566619.27846668 0 0 0 0 0 107902323.9461913 1942691.160850621 1942691.160850621 14672274.59948634 0 0 0 0 0 107580714.1065604 1897775.565442118 1897775.565442118 14275238.24677861 0 0 0 0 0 107491298.9326968 2021962.711983424 2021962.711983424 14149491.23024854 0 0 0 0 0 108332333.3063854 1213008.444401364 1213008.444401364 15825510.13144152 0 0 0 0 0 110504081.2197917 116396.6503468001 116396.6503468001 18665059.11548905 0 0 0 0 0 110702892.1681288 237963.7701665515 237963.7701665515 18900080.78318775 0 0 0 0 0 110125110.7271958 120847.7268874349 120847.7268874349 18244660.90789636 0 0 0 0 0 109747915.0647863 112895.1555712032 112895.1555712032 17756822.17997419 0 0 0 0 0 109284305.2067945 365841.203421508 365841.203421508 17444697.48202598 0 0 0 0 0 109520691.4436712 230650.6193807897 230650.6193807897 17722435.46934503 0 0 0 0 0 108997879.240922 439944.8358061217 439944.8358061217 17004100.31482797 0 0 0 0 0 108779507.3320311 867618.3764037498 867618.3764037498 16406576.62373139 0 0 0 0 0 108644150.3516561 827110.9030679325 827110.9030679325 16395766.24942893 0 0 0 0 0 108374832.7114921 894296.1073821441 894296.1073821441 16036464.07036481 0 0 0 0 0 108153403.8184512 1613341.503898339 1613341.503898339 15216659.08008257 0 0 0 0 0 107902722.721678 1628965.412054386 1628965.412054386 14800610.78232586 0 0 0 0 0 107693660.1368029 1954528.067321848 1954528.067321848 14357107.76042822 0 0 0 0 0 107799158.7903324 1620571.66505781 1620571.66505781 14821903.735131 0 0 0 0 0 107467165.4107307 1950451.840892788 1950451.840892788 13948411.62066509 0 0 0 0 0 108189195.9101148 1292041.99236075 1292041.99236075 15454468.66174572 0 0 0 0 0 110307841.9878831 233574.6154408143 233574.6154408143 18455121.46665661 0 0 0 0 0 109945976.0057922 234750.3406922968 234750.3406922968 18017876.01309229 0 0 0 0 0 109627477.2252164 205550.8531139774 205550.8531139774 17565761.80584369 0 0 0 0 0 109343428.0830133 209056.955350159 209056.955350159 17133743.95858586 0 0 0 0 0 109105067.3943247 438806.8174759634 438806.8174759634 16909236.67636437 0 0 0 0 0 108841401.4397762 522490.7522587529 522490.7522587529 16585707.47691442 0 0 0 0 0 108704374.9082897 470253.3920555693 470253.3920555693 16549970.89413543 0 0 0 0 0 108489408.1265887 907414.4481580041 907414.4481580041 15977633.77102318 0 0 0 0 0 108231216.6807553 970116.8007227032 970116.8007227032 15652469.57206917 0 0 0 0 0 108084509.2802779 1250979.769287066 1250979.769287066 15423230.51332438 0 0 0 0 0 107824565.3692005 1482799.324302041 1482799.324302041 15069710.81670587 0 0 0 0 0 107587631.0953138 1620680.720671718 1620680.720671718 14491865.00789466 0 0 0 0 0 107695373.4326984 1690237.395672838 1690237.395672838 14672244.20612969 0 0 0 0 0 107429916.9239462 1714092.800250048 1714092.800250048 14307051.04450687 0 0 0 0 0 108141112.1095569 957865.2055744984 957865.2055744984 15689162.91636955 0 0 0 0 0 109251664.7985564 208601.6635050451 208601.6635050451 17271938.38052809 0 0 0 0 0 109088595.3058233 107628.577851481 107628.577851481 17037812.32800962 0 0 0 0 0 108778098.1378084 112623.2972332389 112623.2972332389 16675472.27208933 0 0 0 0 0 108542558.6094287 559827.3054313873 559827.3054313873 16125944.8265602 0 0 0 0 0 108415926.2020229 554410.2943483314 554410.2943483314 16221073.90860753 0 0 0 0 0 108191749.3833862 660952.5925836717 660952.5925836717 15899450.81056287 0 0 0 0 0 107957919.0744481 1331373.403932619 1331373.403932619 15169038.7758266 0 0 0 0 0 107837631.6803704 1256173.295393824 1256173.295393824 14909591.80319681 0 0 0 0 0 107658008.4050838 1419260.757431822 1419260.757431822 14560297.58271766 0 0 0 0 0 107476104.3210302 1679501.738096941 1679501.738096941 14190767.28991466 0 0 0 0 0 108004939.9590255 1028626.32035888 1028626.32035888 15321574.18081516 0 0 0 0 0 108947897.6161066 198437.1174766825 198437.1174766825 16800373.36547592 0 0 0 0 0 108620274.0031362 215247.2534363485 215247.2534363485 16418902.26525265 0 0 0 0 0 108483553.309923 136677.0286241186 136677.0286241186 16300935.941984 0 0 0 0 0 108257413.423871 594377.015566587 594377.015566587 15712199.63361424 0 0 0 0 0 108037585.3792699 748631.0582375667 748631.0582375667 15510016.45053045 0 0 0 0 0 107927264.5859252 1011906.168016715 1011906.168016715 15360059.39264835 0 0 0 0 0 107767798.6889661 1187177.058041489 1187177.058041489 15137271.99589416 0 0 0 0 0 107589226.4971966 1322191.815346343 1322191.815346343 14839630.36695657 0 0 0 0 0 107390431.1083373 1411463.833522676 1411463.833522676 14480705.86341163 0 0 0 0 0 107952758.8909776 715068.2512957137 715068.2512957137 15519564.62407045 0 0 0 0 0 108336475.6236466 232504.9338609208 232504.9338609208 16062253.28921738 0 0 0 0 0 108169037.1291713 510609.2135761212 510609.2135761212 15944268.55518206 0 0 0 0 0 108025210.3848548 425291.6236614978 425291.6236614978 15601855.39142308 0 0 0 0 0 107774692.6657682 1073268.018082051 1073268.018082051 14899489.16081395 0 0 0 0 0 107605457.5648906 1167014.287772409 1167014.287772409 14600758.72827935 0 0 0 0 0 107429622.2384548 1314806.123139193 1314806.123139193 14301741.94064217 0 0 0 0 0 107807445.9835476 796752.6791040699 796752.6791040699 15149605.34635025 0 0 0 0 0 108194133.3360964 140285.6698729959 140285.6698729959 15801196.29422627 0 0 0 0 0 107905068.7700402 498003.3820244488 498003.3820244488 15454431.9012303 0 0 0 0 0 107732790.4760707 803952.9533610016 803952.9533610016 15240427.81443823 0 0 0 0 0 107546854.9502761 972680.2822440637 972680.2822440637 14959624.38659014 0 0 0 0 0 107359360.7750262 1108042.753525436 1108042.753525436 14623649.13063578 0 0 0 0 0 107779927.1751734 420386.2843655915 420386.2843655915 15292705.30835518 0 0 0 0 0 108077955.4266627 208240.3965020329 208240.3965020329 15707710.20499211 0 0 0 0 0 107938342.3662675 117393.5038784635 117393.5038784635 15478352.01750437 0 0 0 0 0 107567205.1773645 829344.4041553424 829344.4041553424 14694975.38745476 0 0 0 0 0 107377264.2763589 973464.2576629777 973464.2576629777 14393395.43519394 0 0 0 0 0 107668266.6893578 489427.0073883658 489427.0073883658 15160628.48598555 0 0 0 0 0 107804574.4814505 194275.6095119963 194275.6095119963 15355123.87233871 0 0 0 0 0 107514094.6704161 666002.0179077432 666002.0179077432 15037661.08278488 0 0 0 0 0 107322900.6201849 794797.1270454209 794797.1270454209 14688345.36505573 0 0 0 0 0 107535817.029402 423530.5556804209 423530.5556804209 14788731.03762307 0 0 0 0 0 107667836.157765 103684.5983729609 103684.5983729609 15114166.30859096 0 0 0 0 0 107332126.1111159 647419.5629824849 647419.5629824849 14434632.05133654 0 0 0 0 0 107471699.3481854 394664.460830432 394664.460830432 14967159.5474555 0 0 0 0 0 107549396.9857053 173778.6259119132 173778.6259119132 15024719.97256328 0 0 0 0 0 107300074.4462129 475632.5169298855 475632.5169298855 14737056.43253425 0 0 0 0 0 107437457.938713 102244.0345437665 102244.0345437665 14822524.37606355 0 0 0 0 0 107332340.956185 360010.705865691 360010.705865691 14519283.67579757 0 0 0 0 0 107359026.7065718 155793.9288452647 155793.9288452647 14676467.36541349 0 0 0 0 0 107278328.6526646 147535.0166952648 147535.0166952648 14727163.81035774 0 0 0 0 0 </DataArray>
        <DataArray type="Float64" Name="von_mises_stress" format="ascii" NumberOfComponents="3">72524139.15075183 0 0 72515952.19362332 0 0 72169821.01257499 0 0 72751612.93496144 0 0 71906547.82832369 0 0 72157183.65028177 0 0 72512119.21767427 0 0 71624699.3676057 0 0 71928916.88983074 0 0 72889702.05762458 0 0 71241672.14387977 0 0 71560712.761737 0 0 72005662.09850107 0 0 72622682.69252011 0 0 72076648.82440479 0 0 70934444.8100664 0 0 71312893.98753859 0 0 71500573.36707962 0 0 73061933.30226456 0 0 72797107.95350242 0 0 72453224.66320884 0 0 70558736.14666466 0 0 70873284.30443999 0 0 71357200.90625811 0 0 71750622.28301756 0 0 72308973.99608669 0 0 73281786.39557479 0 0 73038749.83442792 0 0 71733179.02448712 0 0 70131418.64017822 0 0 70949319.6105241 0 0 70818497.95182723 0 0 71154600.22753781 0 0 72738405.25652023 0 0 72519302.67767303 0 0 73542780.19310731 0 0 73393014.42501196 0 0 72121563.62970003 0 0 69859104.43128453 0 0 70349355.89914441 0 0 70223233.84181581 0 0 71083499.93799479 0 0 71417248.33299688 0 0 72106650.84087545 0 0 72925430.84110975 0 0 72715098.00127707 0 0 73875605.28122751 0 0 71536308.53434733 0 0 69749289.2914059 0 0 69416299.85953596 0 0 70556532.20728095 0 0 70429419.84966663 0 0 70811217.88830356 0 0 72380732.81341496 0 0 73191214.44421586 0 0 73733577.31055997 0 0 73029077.10992613 0 0 71838852.56950605 0 0 69186163.9309763 0 0 69847348.81824632 0 0 69682879.53802785 0 0 70792570.12087409 0 0 71203278.96298712 0 0 71990740.85035749 0 0 72417287.01840606 0 0 74267911.51688391 0 0 73646672.99831432 0 0 74148924.29862157 0 0 74671851.92433619 0 0 71275310.44785218 0 0 68767748.43631469 0 0 68981801.22190681 0 0 70086123.22619438 0 0 70085867.52792029 0 0 70545280.67781763 0 0 72372513.82393847 0 0 72945473.10751572 0 0 73469281.44051814 0 0 72864419.46038565 0 0 74697526.80737348 0 0 75220028.19716179 0 0 75200121.6598167 0 0 71660691.5103139 0 0 68434340.65777262 0 0 68945321.79296893 0 0 69402333.39109358 0 0 69360784.69875811 0 0 70491426.18584657 0 0 70956205.20321389 0 0 71758993.54266036 0 0 72314767.56367633 0 0 73661464.52054253 0 0 73390497.22228572 0 0 74129355.74650893 0 0 74611601.30125321 0 0 75801281.37244956 0 0 75784209.04643176 0 0 76423110.86319634 0 0 71046613.56782523 0 0 67939254.8902676 0 0 68229573.26874399 0 0 68606650.22122721 0 0 69749873.62251265 0 0 69808761.18915379 0 0 70315621.24690162 0 0 72191583.58915927 0 0 72743523.44883271 0 0 73863567.52289641 0 0 72898513.39130695 0 0 74576298.61948982 0 0 75140871.99818851 0 0 75084089.43375762 0 0 76402281.58876225 0 0 77053608.03599355 0 0 77084951.37251642 0 0 71472811.74899662 0 0 67670831.99211879 0 0 68125408.81389765 0 0 68585242.91367926 0 0 69023009.70924996 0 0 69043154.3850729 0 0 70221638.67016788 0 0 70747607.66580553 0 0 71605480.26557148 0 0 72209680.25720567 0 0 73500256.07132475 0 0 73364793.97750157 0 0 74341600.28677273 0 0 74412701.52945025 0 0 75671266.25074428 0 0 75621390.726409 0 0 76349357.21292619 0 0 77724176.37323223 0 0 70877534.21179415 0 0 67187187.62712003 0 0 67503406.99478768 0 0 67814504.80439399 0 0 68249967.90115291 0 0 69457298.71472318 0 0 69569971.47592062 0 0 70131179.4704311 0 0 72059123.46142805 0 0 72677866.57522076 0 0 73911696.87153807 0 0 72845447.72601081 0 0 74863560.76230741 0 0 74859015.59256285 0 0 76318173.11380814 0 0 77046808.56867287 0 0 77764340.1921785 0 0 77137597.59557512 0 0 71344193.2216583 0 0 66891430.32721984 0 0 67281813.63761604 0 0 67776646.80228657 0 0 68237777.95505218 0 0 68689400.72480778 0 0 68763181.53650486 0 0 69994752.15051605 0 0 70600892.71882294 0 0 71496899.50660144 0 0 72171730.86151759 0 0 73471711.771816 0 0 73336275.32147984 0 0 74127366.43845554 0 0 75027261.47255778 0 0 75708852.30991116 0 0 76497173.28132023 0 0 78446550.88977033 0 0 77826157.03125232 0 0 78502748.36500037 0 0 79281136.14103799 0 0 70749511.50932294 0 0 66501741.24612362 0 0 66807019.97994681 0 0 67051032.07714063 0 0 67421609.59464508 0 0 67941968.90284164 0 0 69206610.87752616 0 0 69358227.68970235 0 0 69977280.08456247 0 0 71964549.58142273 0 0 72617048.8802373 0 0 74088799.76482049 0 0 72851173.98798697 0 0 74709459.94423722 0 0 75454194.32891859 0 0 76366262.90003426 0 0 77164717.14487556 0 0 77843636.13332391 0 0 77351783.6598109 0 0 79171989.13262507 0 0 79941707.64873973 0 0 79997598.95107339 0 0 71249005.81760108 0 0 66052487.16536995 0 0 66396361.61935744 0 0 67003246.82569627 0 0 67414058.45653181 0 0 67896679.0319394 0 0 68404543.68907128 0 0 68557807.59307955 0 0 69825428.04497817 0 0 70494850.721379 0 0 71429524.15745874 0 0 72152098.04458198 0 0 73540389.57426649 0 0 73304393.53722584 0 0 74303030.0194775 0 0 75111384.74878672 0 0 75917058.3502721 0 0 76764187.73983257 0 0 78311388.17257236 0 0 77837095.12614696 0 0 79088786.92705904 0 0 79239551.05157423 0 0 80711516.98704386 0 0 80776935.16551591 0 0 82563594.0046615 0 0 81685900.81425491 0 0 70685334.70653224 0 0 65783256.87386218 0 0 66444040.02831487 0 0 66128718.45090603 0 0 66569689.10512635 0 0 67100704.44603606 0 0 67718292.38824286 0 0 69013938.71520202 0 0 69210499.47818732 0 0 69894873.79369555 0 0 71926353.50429463 0 0 72626356.15999016 0 0 74062577.89189665 0 0 72889292.36681063 0 0 74872069.21232001 0 0 75639599.87522003 0 0 76515223.46166863 0 0 77383639.70701073 0 0 78516102.11987032 0 0 77684626.20006642 0 0 79901441.2867952 0 0 79962437.70820452 0 0 81529125.11532418 0 0 82380969.53868902 0 0 83217433.01633579 0 0 83333634.81879406 0 0 71185163.11570536 0 0 65228772.32530081 0 0 65651669.28065632 0 0 66599259.72941155 0 0 67055157.8469416 0 0 67612853.5728852 0 0 68199756.14139341 0 0 68384201.15091026 0 0 69694638.1010626 0 0 70442897.39219664 0 0 71421504.27692877 0 0 72194961.99673022 0 0 73656125.03608538 0 0 73386401.12608346 0 0 74482061.91577825 0 0 75331976.07189624 0 0 76204876.74123275 0 0 77090710.35703324 0 0 78519076.23497961 0 0 78143617.47838834 0 0 79357612.84408477 0 0 80392293.80034804 0 0 81174337.77994362 0 0 82098107.9366274 0 0 83013571.32133219 0 0 83873150.73385647 0 0 70665710.71567817 0 0 64821056.79747884 0 0 65396588.52510674 0 0 65761766.92844879 0 0 66231300.79887371 0 0 66831949.00199322 0 0 67533606.30860431 0 0 68889613.42583713 0 0 69115058.61448455 0 0 69870816.05564664 0 0 71923612.88858414 0 0 72695191.1399962 0 0 74197413.65622799 0 0 72983705.34437987 0 0 75030358.1646197 0 0 75863511.05618876 0 0 76758035.24193172 0 0 77664615.19317342 0 0 79074468.60525854 0 0 78009868.29791239 0 0 79947411.59701738 0 0 80789220.74803162 0 0 81812989.94655687 0 0 82686814.33398168 0 0 83384751.9212006 0 0 84038905.85185435 0 0 84407996.92713045 0 0 71184955.49855255 0 0 64343708.78798798 0 0 64952923.68526968 0 0 65609793.7003476 0 0 66201372.57146773 0 0 66759517.86993875 0 0 67384285.71589747 0 0 68049599.19604424 0 0 68272733.11215849 0 0 69629096.18697211 0 0 70442607.75791989 0 0 71464273.52614361 0 0 72286652.93361124 0 0 73818404.68180744 0 0 73516556.33195361 0 0 74699498.20905605 0 0 75599351.72994985 0 0 76522227.53003949 0 0 77457417.02279986 0 0 78897231.40658079 0 0 78540700.80436577 0 0 79836271.20448463 0 0 80745277.5770756 0 0 81638835.19376945 0 0 82574291.3922787 0 0 83524850.60389167 0 0 84471941.8995339 0 0 84950217.21968669 0 0 85186795.45300356 0 0 70717050.70896426 0 0 63950694.80228783 0 0 64501546.48223217 0 0 64819679.58755644 0 0 65326740.8866253 0 0 65934627.88332551 0 0 66627998.16310927 0 0 67400713.22075658 0 0 68815411.62940603 0 0 69088351.78015275 0 0 69913315.98877604 0 0 71986682.23997216 0 0 72823009.62415707 0 0 74384247.3794369 0 0 73128954.0668259 0 0 75266333.99662623 0 0 76163539.32543756 0 0 77083136.36447604 0 0 78024207.77965122 0 0 79432698.46945229 0 0 78400156.98960491 0 0 80384803.60721146 0 0 81260809.06175049 0 0 82236242.15349504 0 0 83132811.86556207 0 0 83930038.36474746 0 0 84572687.60775639 0 0 85744347.94522206 0 0 85958150.60808952 0 0 71251486.28045103 0 0 63407760.48797582 0 0 63884976.81669331 0 0 64769139.92630775 0 0 65326246.47896416 0 0 65872043.0060688 0 0 66514318.56912647 0 0 67222146.38538197 0 0 67979490.9855452 0 0 68229043.10280421 0 0 69624820.69773386 0 0 70507292.12358907 0 0 71561958.05521734 0 0 72452925.92158452 0 0 74036979.31701674 0 0 73713039.60393433 0 0 74971934.28420377 0 0 75923648.21540369 0 0 76891974.86832994 0 0 77870470.12830853 0 0 79345543.22151063 0 0 78946483.11220087 0 0 80299431.93214996 0 0 81240820.34040208 0 0 82177460.25940268 0 0 83115234.00373217 0 0 84049174.83574127 0 0 85280087.93883371 0 0 85991962.0030039 0 0 86696730.5760076 0 0 85356934.96661098 0 0 86851337.07394913 0 0 87765835.52042295 0 0 70812963.65848175 0 0 62800944.79441984 0 0 64091931.74493829 0 0 63822626.51705006 0 0 64401295.12639606 0 0 65014354.43833009 0 0 65713800.02063017 0 0 66494906.76773929 0 0 67350645.4506992 0 0 68812455.88820572 0 0 69113460.53586318 0 0 70029291.06721061 0 0 72098652.65363283 0 0 73007768.03422879 0 0 74628004.03407298 0 0 73359804.45512398 0 0 75560931.58562861 0 0 76509521.79453641 0 0 77474236.47279568 0 0 78444385.03073508 0 0 79887234.94799492 0 0 78849780.03840752 0 0 80838645.0871336 0 0 81750669.09625529 0 0 82705623.48509043 0 0 83621946.09714483 0 0 84607695.74079007 0 0 84915633.65429905 0 0 86175516.16142891 0 0 85871390.91307695 0 0 87512083.51637363 0 0 88331287.15402664 0 0 88592180.49055012 0 0 71378947.80688761 0 0 62457913.01155609 0 0 63078588.7923358 0 0 63070525.0166976 0 0 64376793.10598152 0 0 64966991.01984413 0 0 65610399.33953591 0 0 66336848.71598537 0 0 67128935.15073642 0 0 67976503.44809119 0 0 68264679.39835633 0 0 69698881.70466836 0 0 70642852.67020404 0 0 71738551.31582531 0 0 72688624.84693906 0 0 74319424.57941252 0 0 73967302.34910348 0 0 75304766.31683087 0 0 76306607.99803808 0 0 77319249.01635209 0 0 78337012.31329329 0 0 79833519.26560679 0 0 79414903.94852827 0 0 80816266.84933503 0 0 81785967.58348291 0 0 82752717.24790135 0 0 83705961.76707637 0 0 84642940.1335517 0 0 85463031.34744884 0 0 86733768.01419601 0 0 86168640.15084095 0 0 87507332.91652186 0 0 88372377.5203348 0 0 89190835.97647069 0 0 89480880.97682472 0 0 90247304.78459528 0 0 70996876.37499779 0 0 61843857.92838685 0 0 62053022.63560666 0 0 63484751.24402313 0 0 63487453.53163178 0 0 64069562.18174945 0 0 64768621.29454986 0 0 65561574.40080968 0 0 66433158.99722492 0 0 67367601.94614461 0 0 68888422.74004877 0 0 69203767.20789091 0 0 70200372.1983093 0 0 72307573.33740506 0 0 73273972.21021758 0 0 74933293.34862986 0 0 73658359.84749553 0 0 75916994.51740336 0 0 76913798.54204024 0 0 77918887.23003593 0 0 78927340.2767043 0 0 80389557.25327294 0 0 79355222.81607316 0 0 81358417.90655722 0 0 82315092.24939163 0 0 83265395.24925776 0 0 84208813.64797865 0 0 85118391.35857908 0 0 85564033.14305431 0 0 87075570.35307519 0 0 86471479.84796639 0 0 88019335.70817223 0 0 88853651.83338411 0 0 89094891.84449042 0 0 90026751.84562182 0 0 90828018.71968538 0 0 91041494.86794174 0 0 71588551.87747496 0 0 61502779.11826412 0 0 62124679.73769351 0 0 62611286.09312803 0 0 62468196.04419488 0 0 64022118.62768966 0 0 64675425.51173828 0 0 65412866.43380252 0 0 66234102.46548108 0 0 67121082.16829538 0 0 68045754.22160722 0 0 68357533.69592312 0 0 69859988.61298583 0 0 70867682.02049428 0 0 71979271.11885905 0 0 72984061.68968004 0 0 74663272.58164798 0 0 74280823.86971591 0 0 75701046.45906216 0 0 76749736.89491244 0 0 77804880.56286398 0 0 78861048.63262342 0 0 80371443.48779435 0 0 79934583.36094627 0 0 81380830.40848301 0 0 82378711.54118913 0 0 83365971.11896598 0 0 84337439.63486092 0 0 85288133.58912019 0 0 86029530.27883562 0 0 87340954.50996564 0 0 86908879.55115868 0 0 88212821.84398016 0 0 89093728.324417 0 0 89792741.01820631 0 0 89881100.25969265 0 0 90755213.52577962 0 0 91641233.3722344 0 0 71248449.37465462 0 0 61392184.81183046 0 0 60890170.04016023 0 0 61399059.48264478 0 0 63054464.98191272 0 0 63071802.30769295 0 0 63786602.26494373 0 0 64593009.66817275 0 0 65484419.0691879 0 0 66447744.90152614 0 0 67471963.02506436 0 0 69032470.38655899 0 0 69381591.11524096 0 0 70439392.8503329 0 0 72586677.95513761 0 0 73604602.7512044 0 0 75302431.34151521 0 0 74000351.32559024 0 0 76335070.14169185 0 0 77376306.48791862 0 0 78421400.25533904 0 0 79465870.55907242 0 0 80937916.94856894 0 0 79913954.20415173 0 0 81932643.42665026 0 0 82914290.61309732 0 0 83886919.89176299 0 0 84836935.84295569 0 0 85768537.05609909 0 0 86228563.8759166 0 0 87775404.25502501 0 0 87141710.93171757 0 0 88627344.44234407 0 0 89337225.63278683 0 0 90529227.33695005 0 0 91328239.33846007 0 0 91873045.02502637 0 0 91576853.37094612 0 0 71878751.31298439 0 0 60554356.95325755 0 0 61572897.9951326 0 0 62061340.44877699 0 0 62061359.60325573 0 0 63705504.32584709 0 0 64453310.43172241 0 0 65290086.58597644 0 0 66202415.60998937 0 0 67162787.48138162 0 0 68178335.9203213 0 0 68528700.85663576 0 0 70083161.48602344 0 0 71165487.76122628 0 0 72282461.7171296 0 0 73353376.53685944 0 0 75073485.01981045 0 0 74664765.0190552 0 0 76161402.21932255 0 0 77254677.05835664 0 0 78349768.85943769 0 0 79441968.436213 0 0 80960160.98723258 0 0 80505206.42444693 0 0 81995632.70650782 0 0 83017806.35992391 0 0 84023865.31803964 0 0 85011044.55909018 0 0 85979313.61401691 0 0 86695784.05993433 0 0 88035022.84869479 0 0 87595401.88824438 0 0 88910858.49469852 0 0 89787289.31609581 0 0 90543164.91437976 0 0 91374219.34409373 0 0 92459548.70875885 0 0 92199080.73895784 0 0 92710409.31752233 0 0 93498314.56732549 0 0 71555623.21335162 0 0 60041853.55588657 0 0 60383831.9138458 0 0 61010672.00208222 0 0 62707245.86668263 0 0 62774424.50847762 0 0 63591276.0317151 0 0 64500037.08576174 0 0 65491191.94564022 0 0 66566704.27396114 0 0 67670843.42111319 0 0 69259000.55807421 0 0 69632486.05013512 0 0 70771029.99062939 0 0 72912594.92128418 0 0 73992173.77510485 0 0 75735905.09144828 0 0 74431377.35937734 0 0 76815032.23127443 0 0 77898807.53481962 0 0 78981730.38958983 0 0 80059519.89914764 0 0 81536207.07101007 0 0 80526793.29658683 0 0 82555090.68755081 0 0 83559519.41125238 0 0 84546326.57545404 0 0 85513259.23505327 0 0 86464883.17525697 0 0 86930606.7767048 0 0 88468111.83071265 0 0 87856317.01730314 0 0 89311852.45959122 0 0 90160327.73287779 0 0 91038003.12031198 0 0 91870640.57429864 0 0 92405258.15354146 0 0 92058667.56583303 0 0 93187364.57312624 0 0 93971139.24315985 0 0 94230768.60663204 0 0 72225779.39728528 0 0 59498656.82703229 0 0 60264510.77550514 0 0 61054961.91015704 0 0 61679762.34507246 0 0 61725369.3848808 0 0 63462284.56982083 0 0 64313306.75887981 0 0 65249124.97798669 0 0 66247975.1628174 0 0 67288490.97293131 0 0 68390985.69043027 0 0 68807871.99623415 0 0 70379029.93272907 0 0 71530139.78176557 0 0 72673736.82008243 0 0 73800027.20871961 0 0 75550815.34545457 0 0 75116561.05024928 0 0 76685353.31292653 0 0 77821379.03136894 0 0 78953859.39118072 0 0 80080023.6391428 0 0 81600541.61218044 0 0 81128306.7184754 0 0 82660074.01599281 0 0 83702816.85361278 0 0 84726117.95332502 0 0 85728866.71025759 0 0 86710711.5706611 0 0 87399511.74059562 0 0 88754251.46788684 0 0 88303756.2460539 0 0 89625955.65409228 0 0 90469333.15965216 0 0 91289933.21569431 0 0 92106011.69930649 0 0 93088025.08608902 0 0 92724572.47256626 0 0 93535824.20431583 0 0 94155937.76374274 0 0 94712647.4351477 0 0 94940471.19284184 0 0 95649659.03815323 0 0 71965548.89055617 0 0 58893759.92840531 0 0 59376112.55840113 0 0 59940147.85284942 0 0 60642487.38193643 0 0 62434783.86533315 0 0 62552270.12635538 0 0 63480630.10006361 0 0 64497386.36012533 0 0 65589847.24474516 0 0 66764629.19873536 0 0 67944856.59813608 0 0 69555670.59613062 0 0 69972477.25535017 0 0 71188331.12517929 0 0 73332401.55587685 0 0 74467921.48623359 0 0 76235030.61607206 0 0 74935803.7810372 0 0 77358798.21851839 0 0 78482028.78005005 0 0 79600174.99783379 0 0 80708632.91294281 0 0 82184643.9944077 0 0 81193921.45091304 0 0 83225970.22716208 0 0 84248376.72949244 0 0 85251215.19371544 0 0 86234367.03151715 0 0 87196648.3612389 0 0 87668892.44940503 0 0 89176131.58469793 0 0 88597970.01949003 0 0 90026612.2515128 0 0 90860629.21608518 0 0 91681177.17580913 0 0 92336567.47373645 0 0 93161631.34340009 0 0 92802643.8034399 0 0 93814523.1402632 0 0 94565040.86805636 0 0 94759721.46608856 0 0 95414080.04915643 0 0 96101663.15174162 0 0 96346944.95903963 0 0 72654618.26577392 0 0 58410914.74163038 0 0 59132788.66256176 0 0 59854408.02270778 0 0 60623948.52267542 0 0 61376485.34951991 0 0 61475112.77251473 0 0 63300837.5180546 0 0 64260033.93311612 0 0 65300682.20996603 0 0 66401993.7592964 0 0 67519188.37630931 0 0 68720214.34514098 0 0 69164483.46827851 0 0 70763799.79038006 0 0 71982919.66131216 0 0 73135802.96945108 0 0 74313093.48264903 0 0 76095740.08838235 0 0 75631876.45143113 0 0 77275329.75895759 0 0 78450856.98296387 0 0 79617850.11080098 0 0 80774680.81427994 0 0 82292695.31165148 0 0 81804013.55840234 0 0 83373670.53745884 0 0 84434344.95515178 0 0 85472879.03250256 0 0 86488014.9739891 0 0 87478032.37559064 0 0 88133365.68562022 0 0 89497007.52305576 0 0 89038385.65270324 0 0 90373163.43212201 0 0 91220314.85381857 0 0 92039917.38291512 0 0 92850973.98925066 0 0 93649289.68174022 0 0 93329175.08686274 0 0 94356350.00789285 0 0 94432803.24832319 0 0 95321573.32979596 0 0 95518286.29079443 0 0 96298190.391614 0 0 96788372.35709646 0 0 97021053.64132805 0 0 97677778.95860733 0 0 72453562.05068021 0 0 57850765.32076061 0 0 58332352.82083502 0 0 58873445.36179347 0 0 59528183.25480179 0 0 60362313.17177735 0 0 62252191.57397564 0 0 62422151.88052507 0 0 63465007.37380262 0 0 64590582.8617975 0 0 65785909.3686131 0 0 67034287.02475455 0 0 68305257.34699579 0 0 69944849.3717436 0 0 70395748.24846895 0 0 71690466.89592887 0 0 73831716.98157376 0 0 75012283.50489777 0 0 76801475.72681925 0 0 75488377.83729555 0 0 77966311.80276607 0 0 79125738.4738182 0 0 80276724.57569106 0 0 81413102.81055596 0 0 82883259.50659196 0 0 81915196.45654707 0 0 83943363.45202154 0 0 84982426.54856214 0 0 85999533.79524916 0 0 86993302.29191048 0 0 87960959.39347491 0 0 88439921.16587196 0 0 89917100.88282956 0 0 89370914.80746882 0 0 90775401.14638418 0 0 91603225.44968219 0 0 92381725.61161821 0 0 93137542.24978442 0 0 93958035.0430547 0 0 93552479.07275744 0 0 95079731.93451814 0 0 95172485.84954189 0 0 95994719.95341335 0 0 96666412.45954171 0 0 96930297.25704838 0 0 97454682.77793238 0 0 98072593.41942275 0 0 98353412.87099807 0 0 73178915.40336449 0 0 57295126.71257177 0 0 57964355.04454806 0 0 58726692.11641117 0 0 59479637.59127446 0 0 60286082.57171031 0 0 61169343.7564181 0 0 61325885.48940105 0 0 63233544.34768587 0 0 64304310.41534254 0 0 65450719.69835452 0 0 66647577.19361742 0 0 67853927.57330614 0 0 69108650.59370291 0 0 69586877.7435858 0 0 71234781.4768212 0 0 72521960.96729884 0 0 73669367.11084728 0 0 74905601.91713856 0 0 76711632.28118393 0 0 76224103.12125726 0 0 77931764.63052669 0 0 79143850.95850296 0 0 80342519.87093931 0 0 81526488.79121572 0 0 83036104.04545045 0 0 82531989.86305144 0 0 84135617.00208835 0 0 85211559.38674292 0 0 86262066.01172012 0 0 87285600.56454563 0 0 88280175.82807647 0 0 88898975.97387989 0 0 90272794.88966049 0 0 89806070.00412333 0 0 91149553.0237792 0 0 91993273.97188452 0 0 92805826.89016148 0 0 93583161.64139494 0 0 94316014.13341597 0 0 93900053.24681933 0 0 95066974.84783854 0 0 95803257.93960816 0 0 96334996.82116385 0 0 96961354.1555955 0 0 97355141.17667447 0 0 97582007.58449465 0 0 98244988.40235099 0 0 98623296.10803285 0 0 98898361.0393765 0 0 73004369.04124968 0 0 56717305.77147003 0 0 57269410.65403759 0 0 57778545.0402904 0 0 58359718.15118828 0 0 59206081.75836931 0 0 60190061.91945771 0 0 62170063.23523873 0 0 62393857.04407052 0 0 63551573.37915802 0 0 64786541.24867209 0 0 66065346.50887424 0 0 67397569.03156234 0 0 68796385.66305146 0 0 70439791.94877079 0 0 70923445.84292479 0 0 72282325.87106586 0 0 74384159.52623779 0 0 75617552.7133487 0 0 77434106.36847022 0 0 76138058.40142892 0 0 78637527.82661185 0 0 79830400.05307671 0 0 81010732.18679024 0 0 82171928.08536386 0 0 83631047.94965154 0 0 82689745.65234333 0 0 84707863.53407682 0 0 85760620.50004621 0 0 86787953.52486233 0 0 87787908.34217373 0 0 88758285.77552839 0 0 89244084.4028945 0 0 90688976.88821754 0 0 90176162.1254313 0 0 91542708.52632055 0 0 92357879.71849273 0 0 93144589.79139988 0 0 93908519.92133042 0 0 94726197.33725286 0 0 94347593.00583397 0 0 95395065.41472696 0 0 95913851.36908792 0 0 96588183.07962145 0 0 97251491.21407919 0 0 97458621.16561712 0 0 97999534.66829397 0 0 98779232.90586221 0 0 99096409.59087524 0 0 99273116.73542301 0 0 99477621.70345081 0 0 100079101.6866911 0 0 73765648.74725685 0 0 56059036.47155157 0 0 56799250.39579426 0 0 57648733.95547669 0 0 58350077.60135211 0 0 59129442.47576942 0 0 60046053.5151127 0 0 61068283.420974 0 0 61282847.61768138 0 0 63269149.84861982 0 0 64451201.05995807 0 0 65699276.92373676 0 0 66975933.88733513 0 0 68285146.7587043 0 0 69602869.56452879 0 0 70137528.83637819 0 0 71789688.2730048 0 0 73137746.56709734 0 0 74296399.39562394 0 0 75579004.24288081 0 0 77397908.82690226 0 0 76886043.76489297 0 0 78655520.92093512 0 0 79900628.44336498 0 0 81127206.21686339 0 0 82334248.31921534 0 0 83829838.88941242 0 0 83311477.41967943 0 0 84944862.65444434 0 0 86032765.80206224 0 0 87091843.61222364 0 0 88120474.29934229 0 0 89117579.08958519 0 0 89696606.03431225 0 0 91078090.84045476 0 0 90604645.30564891 0 0 91949222.6924433 0 0 92785779.35247821 0 0 93594335.18533508 0 0 94369841.872529 0 0 95067708.52313913 0 0 94668548.76031883 0 0 95798500.15445723 0 0 96432340.53606848 0 0 97064302.18711998 0 0 97655451.12099539 0 0 97959325.9774151 0 0 98107354.44824257 0 0 98842829.90915909 0 0 98796191.17932807 0 0 99163234.33637752 0 0 99817059.10994227 0 0 100380790.3303636 0 0 100589029.6866222 0 0 73662417.11438155 0 0 55412037.97106238 0 0 56859519.53558127 0 0 56411564.97833326 0 0 57149074.37082064 0 0 58009034.25600407 0 0 59011500.31290178 0 0 60129168.88272992 0 0 62195774.64848103 0 0 62473857.8697006 0 0 63747395.62656859 0 0 65089036.2330038 0 0 66478447.98249336 0 0 67900315.95924389 0 0 69373836.60983264 0 0 71025735.21964926 0 0 71565548.74519061 0 0 72968223.16026866 0 0 75032631.88709937 0 0 76318469.2901381 0 0 78134150.38816883 0 0 76852543.73997267 0 0 79373716.26644658 0 0 80596497.08086102 0 0 81802328.58611655 0 0 82984501.13869183 0 0 84427497.19065151 0 0 83516961.31319925 0 0 85517797.19419016 0 0 86580581.93492879 0 0 87614301.30306283 0 0 88617436.97518669 0 0 89587971.88597174 0 0 90081330.2983256 0 0 91484281.56753391 0 0 91011709.09807591 0 0 92329555.1336666 0 0 93142052.36891082 0 0 93930390.75473924 0 0 94691457.82738739 0 0 95378174.86027488 0 0 95120564.54561685 0 0 96025057.00252144 0 0 96675704.95319702 0 0 97299266.65085797 0 0 97770997.71678561 0 0 98618240.68749274 0 0 99387253.4763606 0 0 99063438.78316562 0 0 99791196.01578747 0 0 100153901.2587816 0 0 100526528.642592 0 0 100835920.9831893 0 0 101047501.5766195 0 0 74435102.25075337 0 0 54922338.23679523 0 0 55832425.82077264 0 0 57205434.41591346 0 0 57918730.4922516 0 0 58872943.57712816 0 0 59923536.96533846 0 0 61080844.92845841 0 0 61353705.39505158 0 0 63414064.89059214 0 0 64706223.15793002 0 0 66043968.90246541 0 0 67420720.37725428 0 0 68830476.28502706 0 0 70233919.47702675 0 0 70819816.60273938 0 0 72434189.94767261 0 0 73845610.06699786 0 0 74997406.3496193 0 0 76329060.72812463 0 0 78153153.24421793 0 0 77620181.37422292 0 0 79444030.69077958 0 0 80718156.5166923 0 0 81969981.99697864 0 0 83196674.42067662 0 0 84672899.22677371 0 0 84141461.67498735 0 0 85799890.05567332 0 0 86896326.82535921 0 0 87960523.8535993 0 0 88991414.26262116 0 0 89988052.41433628 0 0 90525443.23544429 0 0 91909381.41336001 0 0 91431390.57328509 0 0 92773360.29882514 0 0 93604953.47611558 0 0 94405218.81579018 0 0 95172076.20621115 0 0 95829879.12826656 0 0 95418845.8937387 0 0 96512569.26287924 0 0 97161238.0685678 0 0 97774460.19665019 0 0 98388014.4279855 0 0 98892884.60873792 0 0 99477453.98281786 0 0 99476224.83778076 0 0 99846736.46778443 0 0 100275562.8209601 0 0 100938598.0861083 0 0 101189985.7062512 0 0 101441045.3072071 0 0 102064240.947722 0 0 101689613.60243 0 0 74397548.67260741 0 0 54555589.98608608 0 0 55411693.24580699 0 0 55912121.96527736 0 0 56777596.93863467 0 0 57792354.2293276 0 0 58929190.28558882 0 0 60188277.0682301 0 0 62336761.04255559 0 0 62669128.36264194 0 0 64058529.45851184 0 0 65502881.62974406 0 0 67002751.89224397 0 0 68526764.31399794 0 0 70078295.39942458 0 0 71726220.05786251 0 0 72285542.8150264 0 0 73734576.82155865 0 0 75766403.56190845 0 0 77085639.59018934 0 0 78904321.30704595 0 0 77639355.52704278 0 0 80174352.65523425 0 0 81423570.35530554 0 0 82649972.16926014 0 0 83849939.71254344 0 0 85270979.79267888 0 0 84395810.45933801 0 0 86371211.47376835 0 0 87440451.90831017 0 0 88477370.06450686 0 0 89481170.93250507 0 0 90449803.94459713 0 0 90948907.98854454 0 0 92304298.58749649 0 0 91874886.91317649 0 0 93143872.2901306 0 0 93952661.14900707 0 0 94732540.72545069 0 0 95476249.41879019 0 0 96090978.83691405 0 0 95902733.07375605 0 0 96767167.2203964 0 0 97405648.82171382 0 0 97984775.80023412 0 0 98539508.03702803 0 0 99107877.74635045 0 0 100018155.3887956 0 0 99642342.24001563 0 0 100462067.6638882 0 0 100704502.557414 0 0 100961944.5394151 0 0 100734846.9040584 0 0 101245402.5619842 0 0 101457047.2933022 0 0 101874769.8323406 0 0 102308013.7404309 0 0 102502270.8529412 0 0 75203528.55998388 0 0 53721719.76317982 0 0 54048420.62285294 0 0 55902055.9067402 0 0 56777212.42831523 0 0 57654512.27116332 0 0 58731777.67659394 0 0 59921431.07858974 0 0 61216586.26817324 0 0 61546966.2812828 0 0 63674478.2659579 0 0 65077412.98219308 0 0 66525541.33743647 0 0 67993803.22943391 0 0 69495279.84731546 0 0 70981889.17601351 0 0 71575801.30201285 0 0 73171393.9385557 0 0 74639005.07951374 0 0 75770696.20837775 0 0 77148514.57460228 0 0 78973146.87576811 0 0 78422587.74201307 0 0 80296854.52262136 0 0 81596431.90035167 0 0 82870171.63114756 0 0 84113179.7685677 0 0 85563605.02622055 0 0 85020240.7339104 0 0 86699018.99685651 0 0 87800136.23386408 0 0 88866250.91453901 0 0 89896193.13187949 0 0 90889244.85911706 0 0 91384126.38818702 0 0 92765544.16629153 0 0 92283805.88504392 0 0 93622068.86300901 0 0 94444528.66859362 0 0 95232902.22980295 0 0 95985394.03292128 0 0 96599455.44239508 0 0 96179199.05272751 0 0 97271345.68516348 0 0 97907165.77669019 0 0 98510488.82619689 0 0 99076321.7443862 0 0 99638349.48650935 0 0 100118398.6597898 0 0 100158446.1212356 0 0 100492904.6836933 0 0 101334072.6869355 0 0 101157304.2208437 0 0 101791909.4548748 0 0 102020548.9399845 0 0 102054925.7244148 0 0 102594436.8066241 0 0 102728866.1604735 0 0 102926976.1281277 0 0 75211098.39318554 0 0 52984583.84595324 0 0 54952277.38862967 0 0 54467123.54979794 0 0 55584875.92953972 0 0 56541243.02091789 0 0 57682362.30909648 0 0 58975024.41188952 0 0 60378957.57110376 0 0 62600689.63002969 0 0 62986426.10519741 0 0 64490099.09760841 0 0 66037603.82042449 0 0 67623480.41653089 0 0 69235600.08696085 0 0 70844803.47739235 0 0 72502446.5478548 0 0 73094741.44719967 0 0 74583569.86285783 0 0 76568835.93792179 0 0 77922682.15263663 0 0 79739075.20373869 0 0 78496455.39600353 0 0 81035873.19937207 0 0 82308196.09036043 0 0 83552210.02419192 0 0 84766099.48210612 0 0 86159675.99556038 0 0 85323936.10006678 0 0 87266110.42334716 0 0 88338371.48830819 0 0 89375707.46048693 0 0 90377090.44475274 0 0 91341405.23801015 0 0 91845028.33944413 0 0 93149383.01308887 0 0 92763550.96663754 0 0 93981277.48247857 0 0 94780515.03774925 0 0 95545424.13954532 0 0 96272166.90700889 0 0 96858398.66081223 0 0 96702711.15823232 0 0 97515174.82153925 0 0 98125189.37654163 0 0 98703152.24116883 0 0 99271517.0262416 0 0 99798982.82911497 0 0 100657982.8824785 0 0 100290079.2394279 0 0 101059380.7158467 0 0 101524993.1370794 0 0 101081570.6910371 0 0 101807824.5951708 0 0 102399781.1094041 0 0 102758842.7978819 0 0 103007794.2872823 0 0 103152852.9704012 0 0 76034361.94117723 0 0 52443388.17925625 0 0 53493136.02939075 0 0 53095097.50958402 0 0 55381415.94649269 0 0 56430038.91409514 0 0 57497659.56562793 0 0 58715138.76574467 0 0 60051932.31798331 0 0 61484618.18699026 0 0 61870292.21119838 0 0 64056641.82046258 0 0 65568533.3443175 0 0 67121775.88747352 0 0 68699582.34063266 0 0 70278990.48046681 0 0 71812328.64238431 0 0 72416190.80754718 0 0 74004260.67670968 0 0 75519433.62810616 0 0 76641369.34548001 0 0 78050940.10869867 0 0 79863643.41903675 0 0 79292412.73690785 0 0 81213587.28536406 0 0 82536248.22131424 0 0 83827741.34288968 0 0 85083033.44513559 0 0 86501137.54568113 0 0 85946892.42426664 0 0 87639896.42899185 0 0 88742349.07693984 0 0 89807038.09300084 0 0 90832854.72216067 0 0 91819538.13768294 0 0 92268957.47448704 0 0 93645281.80495553 0 0 93160339.66705243 0 0 94491094.9467788 0 0 95300996.50268121 0 0 96074500.69735281 0 0 96811739.28913862 0 0 97387193.64299983 0 0 96965715.26429796 0 0 98039883.2011414 0 0 98656816.51319152 0 0 99244201.17128678 0 0 99803443.52505983 0 0 100332918.7096371 0 0 100857131.3455469 0 0 100842253.5959896 0 0 101105188.8599971 0 0 101961395.6990042 0 0 101629413.7365797 0 0 102354967.31943 0 0 102700648.5949402 0 0 103113776.9590426 0 0 103153329.5524579 0 0 103319949.2213357 0 0 103330679.5227456 0 0 103733071.6457236 0 0 76120410.59845416 0 0 51830775.16473252 0 0 52069250.37621216 0 0 54217328.02707228 0 0 54611776.91517337 0 0 55331454.20658242 0 0 56383652.42389286 0 0 57713577.36739951 0 0 59164650.31086459 0 0 60709627.10642825 0 0 62994696.06652378 0 0 63430731.17161313 0 0 65043980.01894407 0 0 66694743.94933648 0 0 68368617.51596375 0 0 70043601.53330751 0 0 71715083.54897806 0 0 73369602.79904386 0 0 73969066.46059151 0 0 75535183.99514289 0 0 77449684.40004024 0 0 78834625.07308716 0 0 80638329.32069643 0 0 79430476.54823332 0 0 81959113.12746482 0 0 83250873.45833981 0 0 84508751.26494409 0 0 85731937.98503835 0 0 87091303.7017083 0 0 86302618.44458504 0 0 88200363.38769352 0 0 89272580.79065831 0 0 90306846.81309804 0 0 91302540.77361655 0 0 92259571.46317369 0 0 92767083.42984283 0 0 94016405.72992718 0 0 93675198.33524363 0 0 94837138.15389879 0 0 95622351.93953826 0 0 96370787.53811091 0 0 97084288.73358482 0 0 97632563.59621902 0 0 97514103.08139962 0 0 98264067.4482508 0 0 98858350.44733113 0 0 99433745.09960292 0 0 99970365.69484362 0 0 100480430.0045206 0 0 101306786.3435349 0 0 101000219.7830328 0 0 101334376.3558834 0 0 102039158.4577646 0 0 101645788.1963102 0 0 102437616.4712827 0 0 102831459.0585428 0 0 103206217.6755156 0 0 103499695.8497595 0 0 103537898.5599895 0 0 103642333.0000146 0 0 103853060.6090211 0 0 104067990.0086932 0 0 76967569.25548264 0 0 51103621.95546599 0 0 51907625.19463226 0 0 52751224.86418027 0 0 53568002.3994761 0 0 52399011.13693471 0 0 55156062.19912789 0 0 56238739.11292168 0 0 57470001.52360593 0 0 58842755.21247937 0 0 60325090.64943181 0 0 61891428.69044519 0 0 62329836.50048661 0 0 64565066.60006095 0 0 66179806.95361273 0 0 67823705.04443662 0 0 69483279.6321702 0 0 71113648.12808836 0 0 72714636.87872435 0 0 73346666.91363195 0 0 74926393.5939481 0 0 76485055.49910955 0 0 77575708.18814836 0 0 79023379.6942379 0 0 80824515.56724693 0 0 80232037.79925677 0 0 82195984.98321955 0 0 83536555.04964526 0 0 84838846.76169091 0 0 86101480.47095409 0 0 87481453.46629374 0 0 86917716.6627917 0 0 88621598.32176273 0 0 89721222.21806456 0 0 90780598.66790198 0 0 91799158.85705069 0 0 92776355.07325369 0 0 93177968.83233985 0 0 94545441.78525354 0 0 94058881.39202732 0 0 95377610.61113358 0 0 96172237.46003906 0 0 96929142.32084385 0 0 97649590.85114633 0 0 98182174.11453161 0 0 97765149.61634174 0 0 98815173.2813489 0 0 99414394.57061188 0 0 99985444.51567186 0 0 100524868.361423 0 0 101039937.7460655 0 0 101433794.0600037 0 0 101522425.5388784 0 0 101771560.2230932 0 0 102570848.2306282 0 0 102182738.9126368 0 0 102938734.9879092 0 0 103301682.3221108 0 0 103643701.4173377 0 0 103502298.7809524 0 0 103667803.1932087 0 0 104259956.4804186 0 0 104290851.8682577 0 0 104407650.6141104 0 0 77104518.20059519 0 0 50592389.59807004 0 0 51504884.77877717 0 0 51120065.33963922 0 0 54286541.94802158 0 0 53377852.2246655 0 0 53859039.37129238 0 0 55030751.02844771 0 0 56408913.46299247 0 0 57903716.61543477 0 0 59502590.66594078 0 0 61184709.21345124 0 0 63523259.71271399 0 0 64007318.80849783 0 0 65725791.88860137 0 0 67469976.66213268 0 0 69226762.43691136 0 0 70983569.32200788 0 0 72718174.31317896 0 0 74330301.70343719 0 0 74971827.5930779 0 0 76572243.79952072 0 0 78405569.74141988 0 0 79821602.65486823 0 0 81602787.28864175 0 0 80436755.38197947 0 0 82943582.55774684 0 0 84249546.69950993 0 0 85516789.28103833 0 0 86746410.66224591 0 0 88064709.18520111 0 0 87324044.66480371 0 0 89172241.37117253 0 0 90240581.11196704 0 0 91268576.20468491 0 0 92255787.94332474 0 0 93202429.4062418 0 0 93712353.3109391 0 0 94902167.78568228 0 0 94607788.74275653 0 0 95708389.14008865 0 0 96477273.19191988 0 0 97209600.31845833 0 0 97907049.24701475 0 0 98410748.16491406 0 0 98333780.71167909 0 0 99022102.51425874 0 0 99604458.67785077 0 0 100155951.5503693 0 0 100677339.3931815 0 0 101183222.1247708 0 0 101969734.4192714 0 0 101640497.7503574 0 0 101858386.940172 0 0 102269564.6333231 0 0 102647746.1917172 0 0 103011740.5465567 0 0 103362795.8287225 0 0 103678044.8517119 0 0 103954741.7533288 0 0 104081662.8431675 0 0 104069129.0250355 0 0 104230219.2833097 0 0 104584433.8510616 0 0 104760324.0308924 0 0 77959731.83211364 0 0 49779073.95650618 0 0 50424743.72621629 0 0 51839137.95696287 0 0 52854776.88779127 0 0 51502474.27851907 0 0 54973136.83785901 0 0 56151328.76726579 0 0 57588591.63756918 0 0 59119983.89975584 0 0 60744615.44245553 0 0 62441004.9807533 0 0 62929791.74161617 0 0 65203646.47700503 0 0 66916838.30019834 0 0 68646661.12432377 0 0 70368133.73691376 0 0 72066570.73869415 0 0 73739785.39107977 0 0 74436039.05480175 0 0 75934338.60320787 0 0 77534976.91240554 0 0 78604726.86232363 0 0 80074333.13035566 0 0 81851680.11623637 0 0 81243502.56658494 0 0 83240247.60251655 0 0 84591274.42620496 0 0 85899506.06576723 0 0 87165393.27229106 0 0 88503211.97917609 0 0 87932041.6659061 0 0 89640030.63013788 0 0 90733737.9187759 0 0 91784656.09964563 0 0 92792552.40399994 0 0 93757114.01551457 0 0 94108842.154192 0 0 95463415.67789517 0 0 94975953.12762377 0 0 96279467.2248598 0 0 97056576.80375107 0 0 97795110.86756922 0 0 98496080.98887759 0 0 98981596.08355722 0 0 98567540.40547968 0 0 99594859.2889798 0 0 100177135.9373621 0 0 100727921.3792198 0 0 101249254.1786819 0 0 101741319.9653521 0 0 102069162.7632848 0 0 102198848.8905763 0 0 102401793.2766598 0 0 102799416.0736232 0 0 103177040.6930848 0 0 103531238.1080589 0 0 103865601.6925331 0 0 104171646.532012 0 0 103972134.4953046 0 0 104239255.8248148 0 0 104541407.2246107 0 0 104735052.2658818 0 0 104926241.6815581 0 0 104880051.7624905 0 0 105063067.0254994 0 0 78173311.27754277 0 0 49023750.97758415 0 0 49739610.87087442 0 0 50190243.59322666 0 0 52701638.83511827 0 0 52494133.68440071 0 0 53648975.54635745 0 0 55040420.09022658 0 0 56587027.29260218 0 0 58244806.83790159 0 0 59992271.7491952 0 0 61808577.09798648 0 0 64189916.83043955 0 0 64719675.57319937 0 0 66538335.35528036 0 0 68371041.76796208 0 0 70204396.07289872 0 0 72035494.12790653 0 0 73797420.94837756 0 0 75378549.39282849 0 0 76064282.30664554 0 0 77688982.88098779 0 0 79438681.42829202 0 0 80881438.51984945 0 0 82631979.78505293 0 0 81506004.44325367 0 0 83987137.92539468 0 0 85300562.38037036 0 0 86572981.66850466 0 0 87800883.94590704 0 0 89076684.57479262 0 0 88386441.91677864 0 0 90179476.45954131 0 0 91240137.54503323 0 0 92258450.9579013 0 0 93234007.59621957 0 0 94167193.15088543 0 0 94678824.77102768 0 0 95803843.6734039 0 0 95558508.57454719 0 0 96593340.84798011 0 0 97344396.50925696 0 0 98058674.99427538 0 0 98735410.42397298 0 0 99193956.87101051 0 0 99159586.72113231 0 0 99787614.81926587 0 0 100350191.863845 0 0 100882680.7579881 0 0 101388822.3323274 0 0 101861337.0727875 0 0 102630005.9969253 0 0 102300940.5432392 0 0 102492300.3705511 0 0 102878620.2370954 0 0 103245463.0135423 0 0 103588197.9834244 0 0 103906229.9414566 0 0 104198277.7048427 0 0 104452227.0820403 0 0 104295592.7586127 0 0 104524655.8611385 0 0 104699785.3738626 0 0 104969671.2278032 0 0 105201183.8601904 0 0 105184502.049219 0 0 79051623.77237219 0 0 48257585.14589389 0 0 49206958.79735871 0 0 50363888.87387568 0 0 51158576.15393347 0 0 53475874.53857147 0 0 50984679.806784 0 0 54847368.23644205 0 0 56274303.58006924 0 0 57863477.51289931 0 0 59550998.82517981 0 0 61315885.1121105 0 0 63137436.22970374 0 0 63673681.13903031 0 0 65974609.14280091 0 0 67778295.56448565 0 0 69588359.91170274 0 0 71386957.52135421 0 0 73142620.62439148 0 0 74898260.97254141 0 0 75543368.11985657 0 0 77047139.84044634 0 0 78666842.87574269 0 0 79692200.52919059 0 0 81188526.34162989 0 0 82939042.92600843 0 0 82319119.88480769 0 0 84339996.30107339 0 0 85696736.12925351 0 0 87007540.802003 0 0 88271307.10673435 0 0 89562037.16004929 0 0 88984551.9518719 0 0 90692108.90745863 0 0 91776811.98421025 0 0 92816262.68897451 0 0 93810197.69946374 0 0 94759095.33831869 0 0 95058790.90874663 0 0 96397086.81063659 0 0 95909457.00583608 0 0 97194735.47801939 0 0 97951872.55908753 0 0 98670024.55615775 0 0 99349432.31162618 0 0 99786380.05822775 0 0 99375841.48803893 0 0 100379663.6170079 0 0 100941452.0950734 0 0 101471545.8921923 0 0 101970782.7996483 0 0 102438408.5678142 0 0 102719267.9379314 0 0 102876175.4027726 0 0 103040365.2012827 0 0 103422000.9911927 0 0 103779253.870465 0 0 104111671.6391599 0 0 104420704.0958248 0 0 104708179.4316254 0 0 104482040.6394367 0 0 104740451.9085502 0 0 104973492.2983362 0 0 105170872.3921011 0 0 105397661.7411868 0 0 105232172.587447 0 0 105364318.8483024 0 0 105408834.7758549 0 0 79318420.36081333 0 0 47774596.63322964 0 0 49110091.62057666 0 0 48485321.40824839 0 0 49425750.50475342 0 0 52223259.8472508 0 0 52169815.30183233 0 0 53625268.91576907 0 0 55214587.23376436 0 0 56933627.99219342 0 0 58750373.64149661 0 0 60641416.53934895 0 0 62585576.65312665 0 0 64997328.05186816 0 0 65569575.14370341 0 0 67480979.12634052 0 0 69394014.674128 0 0 71295401.77767362 0 0 73147589.11352611 0 0 74979160.11081816 0 0 76557617.34840256 0 0 77205856.95795742 0 0 78887273.36492787 0 0 80543274.9133018 0 0 82001669.97390653 0 0 83721393.57511823 0 0 82638885.86307222 0 0 85083031.02098665 0 0 86399897.93069066 0 0 87670938.90752056 0 0 88895761.58731322 0 0 90123761.69313377 0 0 89487744.80862197 0 0 91218222.05738571 0 0 92268268.82063898 0 0 93273573.44310673 0 0 94234383.12319183 0 0 95151224.67871889 0 0 95663579.67178714 0 0 96719784.21728943 0 0 96524727.65805864 0 0 97489966.09173922 0 0 98221425.60196887 0 0 98914518.38530314 0 0 99569128.10969251 0 0 99980744.0428334 0 0 99989951.99725717 0 0 100555033.895664 0 0 101097580.4380618 0 0 101610118.3828579 0 0 102091138.0927814 0 0 102541257.2884646 0 0 103288325.8998934 0 0 102963928.4672844 0 0 103117503.6806796 0 0 103486569.9428888 0 0 103831566.3016098 0 0 104150540.0769807 0 0 104447646.8584469 0 0 104727695.8818025 0 0 104974151.7238587 0 0 104734502.4708079 0 0 104967148.3988962 0 0 105171935.304442 0 0 105381597.0054797 0 0 105610255.4256206 0 0 105443057.9159377 0 0 105688619.7130184 0 0 105621190.0737593 0 0 80198051.49422334 0 0 46841196.03220107 0 0 47689300.76087434 0 0 49585067.0424747 0 0 50608042.09757607 0 0 53388051.37512297 0 0 50709797.83771145 0 0 54919644.98395895 0 0 56555799.13161078 0 0 58308752.68636752 0 0 60145771.66611778 0 0 62044291.19746253 0 0 63983832.65503574 0 0 64563262.00447644 0 0 66878802.91843791 0 0 68767128.36539847 0 0 70650468.41340883 0 0 72514509.02096336 0 0 74319778.36651956 0 0 76034728.53560801 0 0 76706639.56789327 0 0 78230122.12667739 0 0 79876262.54898734 0 0 80871414.5222742 0 0 82376412.98132131 0 0 84085715.89816095 0 0 83453454.58425295 0 0 85492994.07997419 0 0 86851079.02322415 0 0 88159797.94431403 0 0 89418143.89353482 0 0 90655802.95943038 0 0 90072819.1371077 0 0 91775797.67026536 0 0 92847934.34393041 0 0 93872287.8464274 0 0 94849234.62939341 0 0 95779465.5329496 0 0 96024959.68357134 0 0 97343344.85976729 0 0 96856563.24982657 0 0 98120340.5543332 0 0 98855373.69432819 0 0 99550091.32759686 0 0 100205218.4608618 0 0 100594857.1876604 0 0 100186923.9537916 0 0 101166921.1757952 0 0 101706210.8105029 0 0 102213207.3413617 0 0 102688544.6113552 0 0 103133458.7869024 0 0 103362912.9142503 0 0 103550183.4113874 0 0 103675805.5698636 0 0 104036422.7882891 0 0 104371731.4214402 0 0 104682472.850895 0 0 104970734.7143511 0 0 105236105.8417276 0 0 104977132.6108412 0 0 105218744.3191163 0 0 105432501.4878711 0 0 105631352.3092169 0 0 105828877.1873131 0 0 105592364.5483831 0 0 105804389.9424763 0 0 105657915.3466292 0 0 105698667.6640813 0 0 105842569.9695135 0 0 106470727.557271 0 0 106292506.1870861 0 0 106070166.1071871 0 0 80549363.48875888 0 0 46127193.2944212 0 0 47162519.71275575 0 0 47931220.16567969 0 0 49152813.87895139 0 0 52157073.36887963 0 0 51985053.33018844 0 0 53792292.48060656 0 0 55569857.2651627 0 0 57457367.8373942 0 0 59427023.30285197 0 0 61454256.72428355 0 0 63517620.53179914 0 0 65946645.06640812 0 0 66557512.97333074 0 0 68553244.70217462 0 0 70537604.7629928 0 0 72485939.44384021 0 0 74393972.37606381 0 0 76273087.98011443 0 0 77781756.47822146 0 0 78456679.96192762 0 0 80173652.59799173 0 0 81716224.92508081 0 0 83185008.13681792 0 0 84863433.2763387 0 0 83835910.48993896 0 0 86227870.77881581 0 0 87543866.80842394 0 0 88810645.46935503 0 0 90027474.16672194 0 0 91202769.28972249 0 0 90625671.9331722 0 0 92285779.15059254 0 0 93321878.17709175 0 0 94311085.23963103 0 0 95254096.072574 0 0 96151449.35654061 0 0 96663616.83566512 0 0 97646979.79029007 0 0 97503355.13087514 0 0 98395823.58070798 0 0 99104866.8389288 0 0 99774509.61491114 0 0 100405560.6592252 0 0 100771790.5850519 0 0 100822651.8673773 0 0 101324112.5212179 0 0 101844494.759638 0 0 102333201.8599974 0 0 102790984.2966788 0 0 103220053.8163805 0 0 103940285.4466073 0 0 103622271.2811866 0 0 103737496.0392827 0 0 104085246.1837744 0 0 104407677.9957527 0 0 104706475.4949758 0 0 104984762.4468953 0 0 105238749.9057281 0 0 105478775.0581404 0 0 105216622.1123278 0 0 105413890.0659256 0 0 105607805.2719395 0 0 105799557.9648744 0 0 106000884.5256563 0 0 105844293.5347379 0 0 106051241.0760937 0 0 105981572.7949423 0 0 105920029.450556 0 0 106328164.1578252 0 0 106510136.4719079 0 0 106142989.2255834 0 0 106654237.5787108 0 0 81435907.5107298 0 0 45303966.60447994 0 0 46381034.87321639 0 0 47768027.95432766 0 0 49119847.34325695 0 0 50476079.75965381 0 0 53499162.73519746 0 0 50636372.48920939 0 0 55200850.24304665 0 0 57018612.39094876 0 0 58930170.34586054 0 0 60908831.66549145 0 0 62932257.58814953 0 0 64980815.16216301 0 0 65598898.75463343 0 0 67917000.59748486 0 0 69881118.23617864 0 0 71826010.41851553 0 0 73720896.51750141 0 0 75560984.87887987 0 0 77309527.99614577 0 0 78043332.06698442 0 0 79488139.7935037 0 0 81157727.58662979 0 0 82102187.9616989 0 0 83622983.04434113 0 0 85289190.20897447 0 0 84644131.66764836 0 0 86696295.53394791 0 0 88051871.11017667 0 0 89353915.13510653 0 0 90602200.86694172 0 0 91782203.89161058 0 0 91194374.71535547 0 0 92888130.96426636 0 0 93943930.14883818 0 0 94949573.74065918 0 0 95906890.47689661 0 0 96815025.85965919 0 0 97004705.61216941 0 0 98299478.25754139 0 0 97814668.210466 0 0 99052877.08753356 0 0 99763841.72301401 0 0 100432927.0352478 0 0 101063158.6903602 0 0 101405343.0244859 0 0 101001410.4561806 0 0 101953609.6816522 0 0 102468609.8201069 0 0 102951140.5849701 0 0 103402553.3511472 0 0 103824132.0369622 0 0 103998759.0609167 0 0 104217568.6468254 0 0 104304327.1195836 0 0 104642115.0781007 0 0 104954803.1702438 0 0 105244215.7879105 0 0 105511642.5869339 0 0 105755515.6040684 0 0 105474561.1081262 0 0 105698082.6349628 0 0 105894324.9378424 0 0 106080374.9123623 0 0 106238105.369738 0 0 105948815.24532 0 0 106073026.3403187 0 0 106085218.0778653 0 0 106249961.780849 0 0 106654864.6193673 0 0 106812768.2541088 0 0 106477938.0810895 0 0 106673063.4450637 0 0 106827008.3809454 0 0 106957657.316123 0 0 81842324.89422216 0 0 44674182.34089004 0 0 45599116.94429699 0 0 46371515.14561598 0 0 47544015.50864556 0 0 49051747.5678359 0 0 52314455.51224654 0 0 52053563.68427394 0 0 54153647.18821944 0 0 56113778.97323666 0 0 58164291.19883244 0 0 60278396.76076775 0 0 62432106.85729721 0 0 64604904.98893429 0 0 67037523.58419457 0 0 67682429.06724255 0 0 69753380.93362786 0 0 71799609.25012191 0 0 73799362.16651015 0 0 75749375.02037163 0 0 77654342.5157938 0 0 79094849.15315534 0 0 79819979.12183003 0 0 81531350.3020445 0 0 82953353.19781539 0 0 84428823.74929133 0 0 86057633.95642294 0 0 85092163.59018934 0 0 87420266.71313074 0 0 88730987.98627193 0 0 89988831.3555328 0 0 91194037.08347936 0 0 92311712.39471765 0 0 91796803.46264599 0 0 93379438.87604551 0 0 94397887.81100425 0 0 95368066.42978762 0 0 96290009.2271838 0 0 97165140.28678118 0 0 97676176.06713824 0 0 98582233.17716399 0 0 98491766.04423538 0 0 99307797.9639537 0 0 99991933.2325227 0 0 100636067.4676018 0 0 101243080.3916851 0 0 101563084.6249925 0 0 101656512.5563603 0 0 102091679.4638533 0 0 102587883.5546603 0 0 103052608.2227404 0 0 103487338.1918574 0 0 103893586.0791161 0 0 104583960.0642445 0 0 104272763.0229913 0 0 104349765.7838766 0 0 104674799.0106222 0 0 104975678.6400738 0 0 105254708.9862829 0 0 105511809.1444414 0 0 105745594.2813843 0 0 105975156.1907921 0 0 105672041.3455248 0 0 105870239.6698704 0 0 106047155.6417792 0 0 106196613.1171956 0 0 106406667.831601 0 0 106253052.8625219 0 0 106405153.4027946 0 0 106320720.3390173 0 0 106636923.4929133 0 0 106487601.9881665 0 0 106771535.8719275 0 0 106948409.4617045 0 0 106841033.4259176 0 0 106974344.8995429 0 0 107101502.0391628 0 0 82718885.77793391 0 0 43717644.64988317 0 0 44418404.47525222 0 0 46210341.50625324 0 0 47465542.32728938 0 0 48920442.80752701 0 0 50536882.11634149 0 0 53794851.74407256 0 0 50782259.57210328 0 0 55680388.29066534 0 0 57668039.72218359 0 0 59730564.26521616 0 0 61841713.90144427 0 0 63979868.31411804 0 0 66126857.93815162 0 0 66779938.81843112 0 0 69087467.36329813 0 0 71118807.40438703 0 0 73110127.29980406 0 0 75041668.59386718 0 0 76924949.03602181 0 0 78751380.51202068 0 0 79529431.74218282 0 0 80826675.76781613 0 0 82513706.8631731 0 0 83416240.12961951 0 0 84935184.99590556 0 0 86545273.7980946 0 0 85891369.69371128 0 0 87948189.28990744 0 0 89295540.16196094 0 0 90586024.86390562 0 0 91819989.79679249 0 0 92937794.59349267 0 0 92346660.72243847 0 0 94025367.28590859 0 0 95060745.94440982 0 0 96046098.26129167 0 0 96979177.26150511 0 0 97862935.90718071 0 0 97995045.0536816 0 0 99262732.4842898 0 0 98780509.75448346 0 0 99990057.36631048 0 0 100674513.1485416 0 0 101317591.0513901 0 0 101921525.4808807 0 0 102214154.5370839 0 0 101814845.6625813 0 0 102737372.3223332 0 0 103226995.0975315 0 0 103684405.8339792 0 0 104110653.7296837 0 0 104507650.6282441 0 0 104625783.5465756 0 0 104876502.7508164 0 0 104924104.2043117 0 0 105238173.592573 0 0 105527650.7600138 0 0 105795970.6172462 0 0 106042321.9028672 0 0 106264891.3175932 0 0 105951464.5350504 0 0 106174918.0471256 0 0 106353172.330757 0 0 106510578.377135 0 0 106661440.958018 0 0 106367149.051437 0 0 106550644.7080448 0 0 106447208.8197764 0 0 106597374.4514951 0 0 107003531.6387945 0 0 106873670.775533 0 0 107116845.2868121 0 0 107000701.6180424 0 0 107101156.0880168 0 0 107287115.0397946 0 0 107107817.0074554 0 0 83208914.51932032 0 0 42641058.99691906 0 0 45081126.08783176 0 0 44475979.70629014 0 0 45878228.86262878 0 0 47416133.80310754 0 0 49191057.25720609 0 0 52682247.7606938 0 0 52341240.58168563 0 0 54717024.31826424 0 0 56851863.3893678 0 0 59056513.69541431 0 0 61305029.97151909 0 0 63574540.99955096 0 0 65845919.70545632 0 0 68267145.35254876 0 0 68942883.48272194 0 0 71081048.32189217 0 0 73174015.79222867 0 0 75233315.39612797 0 0 77228334.33543631 0 0 79143410.9358318 0 0 80508186.32043257 0 0 81253038.90665771 0 0 82960579.40606147 0 0 84253565.20335561 0 0 85732334.8738672 0 0 87300887.78515822 0 0 86400004.89520487 0 0 88657020.60788904 0 0 89957374.60823919 0 0 91202156.70748875 0 0 92391312.57595524 0 0 93446882.00684203 0 0 92997338.03224482 0 0 94495412.40446635 0 0 95493367.03487714 0 0 96440834.99839377 0 0 97339068.5495179 0 0 98189137.25636633 0 0 98698104.56133351 0 0 99522694.82114853 0 0 99487241.22626902 0 0 100222757.731016 0 0 100880316.9880272 0 0 101498403.3189908 0 0 102080419.0736115 0 0 102352093.9172564 0 0 102488923.2885095 0 0 102855704.4260585 0 0 103326906.3603379 0 0 103766887.2975524 0 0 104177278.8027851 0 0 104559322.8478164 0 0 105218233.6821947 0 0 104914276.5829373 0 0 104953131.2592519 0 0 105255116.1267409 0 0 105534348.68534 0 0 105792653.2123697 0 0 106028981.6734044 0 0 106239784.4966182 0 0 106463280.2830677 0 0 106148498.5892642 0 0 106318068.3121223 0 0 106467177.4640032 0 0 106613760.8539277 0 0 106814533.4609892 0 0 106571917.2273701 0 0 106709184.2990221 0 0 106810990.2371083 0 0 106844159.6066285 0 0 106949693.3498131 0 0 106804600.3390383 0 0 107038959.4556688 0 0 107138784.9212314 0 0 107254584.0078337 0 0 107242717.8253424 0 0 107404508.1153194 0 0 84090113.87277249 0 0 42071128.81277542 0 0 43403893.08917922 0 0 43038254.00722887 0 0 45877838.03539237 0 0 47274810.32562009 0 0 48966768.61330171 0 0 50827872.55463585 0 0 54292357.18572279 0 0 51154369.30174657 0 0 56359604.33928284 0 0 58508598.60814046 0 0 60711513.92614385 0 0 62943802.98136737 0 0 65185190.54963879 0 0 67419371.06322885 0 0 68104237.24844372 0 0 70386823.92694531 0 0 72470597.43135896 0 0 74507510.36629692 0 0 76476864.79154743 0 0 78392612.17291568 0 0 80276982.80063601 0 0 80987009.61148606 0 0 82257630.79632229 0 0 83935278.70049302 0 0 84775584.37022477 0 0 86298486.52844635 0 0 87848503.98437966 0 0 87188936.4689223 0 0 89243718.53575802 0 0 90577688.015746 0 0 91852572.22205923 0 0 93067654.7798 0 0 94118770.40401241 0 0 93525500.94434558 0 0 95184419.70792393 0 0 96196354.79011703 0 0 97156606.59897448 0 0 98063783.08749756 0 0 98919459.28073236 0 0 98993048.56550452 0 0 100230559.6636874 0 0 99751587.08381839 0 0 100929487.9895722 0 0 101586069.3233123 0 0 102201240.917702 0 0 102778064.8646753 0 0 103020485.2436638 0 0 102626482.3829359 0 0 103516787.1618748 0 0 103979660.9898246 0 0 104410474.5078022 0 0 104810808.477392 0 0 105181987.6052685 0 0 105243269.2553467 0 0 105525339.8518982 0 0 105533572.3625354 0 0 105823315.7815794 0 0 106090199.7064258 0 0 106336106.9289678 0 0 106560891.1230348 0 0 106763141.866507 0 0 106431304.5561653 0 0 106645295.0602908 0 0 106809386.1547162 0 0 106942316.1605008 0 0 107083107.426902 0 0 106780538.3051582 0 0 106962542.5874248 0 0 106913246.4103184 0 0 106951077.7489934 0 0 107251180.4768337 0 0 107332580.8044254 0 0 107188735.4740126 0 0 107395866.6921738 0 0 107463130.7265209 0 0 107558117.2581742 0 0 107224053.9639356 0 0 107369143.6950664 0 0 107341137.8037329 0 0 84636652.40378615 0 0 41012647.39269626 0 0 41435561.18576818 0 0 44351166.08234395 0 0 44162186.43473013 0 0 45715532.36190959 0 0 47535940.67202634 0 0 49565185.76654223 0 0 53265692.17334978 0 0 52852810.85090041 0 0 55487697.24676886 0 0 57787114.71143934 0 0 60134765.31554993 0 0 62505863.92156377 0 0 64879424.79996714 0 0 67237791.64604731 0 0 69631398.33862858 0 0 70335220.47297598 0 0 72524220.56161799 0 0 74661078.13152342 0 0 76749035.70022447 0 0 78768261.67450351 0 0 80691681.01740754 0 0 82018360.79937926 0 0 82721453.18502086 0 0 84448179.15024824 0 0 85612531.62324448 0 0 87083257.11830665 0 0 88589802.09507127 0 0 87759429.10319009 0 0 89933623.83868022 0 0 91219302.20861629 0 0 92446409.23898008 0 0 93615473.59493533 0 0 94604696.19267847 0 0 94223854.05746005 0 0 95629476.58035938 0 0 96604629.76613636 0 0 97526580.77678794 0 0 98397858.13448185 0 0 99220756.81259865 0 0 99727171.939771 0 0 100466111.4294067 0 0 100486871.3057532 0 0 101137767.0269323 0 0 101768109.4084811 0 0 102360003.9887181 0 0 102914689.5340194 0 0 103137342.4534276 0 0 103317612.0734539 0 0 103614527.3630802 0 0 104059573.8946399 0 0 104473835.673396 0 0 104858651.4847763 0 0 105215433.5521772 0 0 105841728.09132 0 0 105545751.4058024 0 0 105546070.0642359 0 0 105824546.7661402 0 0 106080929.4976878 0 0 106317354.8190605 0 0 106532296.6636339 0 0 106726149.5129682 0 0 106945389.7219848 0 0 106614609.4094012 0 0 106755245.9084813 0 0 106892008.3095174 0 0 107037648.9277492 0 0 107211691.2783715 0 0 106892256.042739 0 0 107041634.9069551 0 0 107199216.1380584 0 0 107125991.619243 0 0 107266031.9649879 0 0 107309848.7487673 0 0 107387292.1643799 0 0 107501905.7945669 0 0 107487259.9740948 0 0 107619855.9822787 0 0 107299313.1002426 0 0 107429173.8898134 0 0 85498940.79117854 0 0 40433472.11973483 0 0 41690266.40528781 0 0 42699509.81332364 0 0 42383010.62185284 0 0 45650376.06512714 0 0 47319636.568161 0 0 49252359.22796291 0 0 51354655.36248614 0 0 55001809.29930191 0 0 51756360.47637978 0 0 57241514.4147056 0 0 59540407.10762013 0 0 61871737.43345118 0 0 64212916.07745455 0 0 66545315.29982223 0 0 68854066.46005186 0 0 69565521.51411623 0 0 71807819.1668766 0 0 73935367.28012113 0 0 76012995.90338504 0 0 78033406.14359856 0 0 79973866.85101563 0 0 81783883.66386557 0 0 82516341.4349051 0 0 83738517.47265451 0 0 85415702.14913407 0 0 86213493.0611314 0 0 87721035.07230335 0 0 89199191.57677031 0 0 88530077.47615317 0 0 90578028.51120123 0 0 91895579.58662833 0 0 93149620.05613938 0 0 94341982.20565706 0 0 95321327.1388277 0 0 94726732.21820328 0 0 96361384.16550745 0 0 97346906.10078049 0 0 98279561.80779256 0 0 99156098.88183825 0 0 99983964.58943334 0 0 99996102.22460908 0 0 101199897.9495602 0 0 100725225.0281249 0 0 101868812.2949292 0 0 102495653.6045009 0 0 103081381.6970639 0 0 103629020.0835647 0 0 103820852.6220852 0 0 103432916.5102116 0 0 104289220.3899287 0 0 104724309.4052731 0 0 105127595.7419596 0 0 105500813.5992614 0 0 105845368.3081446 0 0 105849437.3332578 0 0 106162613.8090554 0 0 106131483.3482747 0 0 106397075.499919 0 0 106640822.0996961 0 0 106863473.3429766 0 0 107066267.1125678 0 0 107250189.375476 0 0 106907982.5542803 0 0 107110053.7197314 0 0 107245106.1786562 0 0 107365516.779985 0 0 107487399.6843379 0 0 107155938.5874093 0 0 107318740.9713193 0 0 107399415.9445068 0 0 107584857.202464 0 0 107506156.7703568 0 0 107645393.835688 0 0 107697834.4249688 0 0 107759743.2459929 0 0 107817817.4227977 0 0 107575693.5116016 0 0 107713023.8531638 0 0 107590475.9243673 0 0 107395516.7569702 0 0 86132500.90312777 0 0 40222765.13006678 0 0 39351176.39370508 0 0 40417610.84447934 0 0 43936134.58154891 0 0 43947221.24380018 0 0 45813050.9151744 0 0 47909878.13529488 0 0 50185542.91470032 0 0 54070244.08522057 0 0 53592151.2872064 0 0 56468618.66564026 0 0 58920442.54814098 0 0 61397557.24419865 0 0 63877858.24203668 0 0 66342077.95008714 0 0 68774223.71599154 0 0 71125105.56814477 0 0 71850707.1071769 0 0 74083493.36529063 0 0 76258206.17502326 0 0 78367080.19603398 0 0 80378225.67854011 0 0 82317340.58900678 0 0 83531611.04180425 0 0 84263290.02144945 0 0 86009490.30442755 0 0 87024312.65578125 0 0 88483126.1700128 0 0 89918363.49995576 0 0 89168554.40373494 0 0 91246540.09889418 0 0 92512787.36654338 0 0 93718356.97422238 0 0 94862284.5715467 0 0 95780825.33845104 0 0 95471910.64296491 0 0 96780584.49425234 0 0 97728152.39066157 0 0 98621456.85246609 0 0 99464465.30615242 0 0 100257264.2205861 0 0 100760095.5323387 0 0 101409849.7528126 0 0 101486567.7278239 0 0 102052439.1924097 0 0 102653976.561652 0 0 103216602.5136373 0 0 103742898.5436358 0 0 103916229.3780645 0 0 104139608.5652906 0 0 104366120.9553613 0 0 104783791.5328751 0 0 105171130.9207145 0 0 105529525.997715 0 0 105860508.9773759 0 0 106452762.9864548 0 0 106165132.788314 0 0 106127168.3551022 0 0 106382374.7666701 0 0 106616199.4709264 0 0 106830020.2993103 0 0 107023922.9329546 0 0 107203393.7489247 0 0 107413974.4175986 0 0 107055581.6049567 0 0 107181779.7154749 0 0 107307943.1664186 0 0 107423586.4717599 0 0 107592966.7247046 0 0 107246955.4076353 0 0 107342101.3510038 0 0 107511943.5044696 0 0 107440156.1567253 0 0 107563180.1599927 0 0 107618235.4942807 0 0 107676946.3801508 0 0 107717915.5787861 0 0 107580786.9968879 0 0 107752268.8231045 0 0 107561860.0563718 0 0 107519253.9595076 0 0 107657997.2556307 0 0 86984219.68896528 0 0 38808860.22859082 0 0 40930029.13640273 0 0 42195301.05543181 0 0 42123467.45959116 0 0 45639079.07424942 0 0 47614090.45458623 0 0 49797806.36114806 0 0 52127437.17624188 0 0 55927047.37886537 0 0 52596076.43221659 0 0 58326945.47301245 0 0 60762100.87668654 0 0 63208334.49692603 0 0 65644973.02127759 0 0 68055444.05323341 0 0 70424437.15183917 0 0 71160620.27164459 0 0 73344899.63548422 0 0 75508469.76974151 0 0 77615232.73286903 0 0 79655271.21614353 0 0 81571936.76887412 0 0 83361835.68619938 0 0 84116570.3006624 0 0 85277547.40079263 0 0 86952783.09983736 0 0 87684385.2061379 0 0 89182368.70207942 0 0 90588640.26922883 0 0 89914254.39255519 0 0 91951542.12517494 0 0 93246753.50289023 0 0 94478309.20042476 0 0 95640350.2411119 0 0 96540777.59892035 0 0 95945879.17502566 0 0 97552567.99792121 0 0 98511376.00290754 0 0 99413865.12699774 0 0 100259767.4815837 0 0 101051434.281028 0 0 101000597.2541255 0 0 102167935.4591586 0 0 101698284.6465798 0 0 102806007.7798717 0 0 103400937.6465091 0 0 103955463.7954168 0 0 104472241.1509406 0 0 104613008.6476056 0 0 104231910.9462026 0 0 105052163.7795017 0 0 105458276.407525 0 0 105833285.077151 0 0 106178697.0859661 0 0 106495847.9810726 0 0 106442584.7535701 0 0 106785696.7897803 0 0 106716643.7734074 0 0 106958009.9175177 0 0 107178645.8790232 0 0 107379026.1267072 0 0 107560063.1106485 0 0 107722314.959506 0 0 107357670.6649661 0 0 107552534.1369782 0 0 107666388.9359624 0 0 107773338.7313447 0 0 107872241.2291865 0 0 107519429.5393533 0 0 107682624.0641338 0 0 107771861.096152 0 0 107901935.7197302 0 0 107844524.2204054 0 0 107950136.3799654 0 0 107992448.3859343 0 0 108024756.3934828 0 0 108043463.6110438 0 0 107854511.9338742 0 0 107750856.9777588 0 0 107807392.9368531 0 0 107479016.2425045 0 0 107645668.2049297 0 0 107576221.3080444 0 0 107698135.9175732 0 0 107648804.8405969 0 0 87675866.85792574 0 0 37876216.94513761 0 0 38450590.76967394 0 0 40133611.5475924 0 0 43900183.99961629 0 0 44035130.47570401 0 0 46196925.14906503 0 0 48555724.03814346 0 0 51064817.09926746 0 0 55099866.72632963 0 0 54564039.5675265 0 0 57660259.33352169 0 0 60248995.00709261 0 0 62840776.08011569 0 0 65415953.25048306 0 0 67957071.16994405 0 0 70450124.26988442 0 0 72740407.79603481 0 0 73490096.5901763 0 0 75755702.77917171 0 0 77953783.98261419 0 0 80055680.33324544 0 0 82078163.3626186 0 0 84041818.82737672 0 0 85141650.67708947 0 0 85889624.86143667 0 0 87624657.30672212 0 0 88485322.78223178 0 0 89928009.86413245 0 0 91284783.35483006 0 0 90613796.83422557 0 0 92592861.47974248 0 0 93836547.54054861 0 0 95013698.76164739 0 0 96126339.54439162 0 0 96972644.56058012 0 0 96736490.95658667 0 0 97944372.38005473 0 0 98863345.59669578 0 0 99725842.68199041 0 0 100535632.4957658 0 0 101294273.4007284 0 0 101791728.9378723 0 0 102352340.7914956 0 0 102484080.4490123 0 0 102963803.7297407 0 0 103534321.4378569 0 0 104066198.7733773 0 0 104561773.8247471 0 0 104686375.3687457 0 0 104951635.4270095 0 0 105107453.7817293 0 0 105497045.3461501 0 0 105856795.6481245 0 0 106188106.8771661 0 0 106492646.1687892 0 0 107049064.0068165 0 0 106769786.0565088 0 0 106696019.1642424 0 0 106927572.9307881 0 0 107139442.9348487 0 0 107331170.5374092 0 0 107505740.2147097 0 0 107661513.5742328 0 0 107862171.751749 0 0 107482276.8075362 0 0 107594933.1196134 0 0 107701313.5027779 0 0 107795833.2136828 0 0 107961462.5340148 0 0 107610070.0960052 0 0 107693575.52714 0 0 107764102.5936083 0 0 107816183.3935456 0 0 107865165.4291214 0 0 107907800.9931104 0 0 107931699.5184514 0 0 107942318.2113391 0 0 107764072.3777414 0 0 108050272.4107668 0 0 107766305.3255994 0 0 107740810.6049241 0 0 107543038.4288116 0 0 107593152.5429994 0 0 107635878.2799544 0 0 107736442.2395293 0 0 88495629.07509001 0 0 37080768.78989859 0 0 38737188.4491301 0 0 40560755.11489058 0 0 42144834.64574902 0 0 42180690.76170405 0 0 45928694.80802651 0 0 48181611.82338446 0 0 50607282.73047489 0 0 53149753.65477743 0 0 57069760.5021757 0 0 53675449.15395856 0 0 59614397.87821545 0 0 62170283.23280086 0 0 64716155.6021175 0 0 67233674.25797585 0 0 69707576.09073488 0 0 72124304.86195792 0 0 72881164.74580388 0 0 74995839.88465592 0 0 77188320.57155243 0 0 79314414.8894325 0 0 81330911.87082309 0 0 83261445.33101468 0 0 85043416.75082046 0 0 85826251.79234606 0 0 86882363.82539728 0 0 88537663.19331901 0 0 89219993.6940514 0 0 90684772.35118438 0 0 92018494.15911391 0 0 91337092.2873802 0 0 93368982.14699292 0 0 94636643.77192271 0 0 95829588.09411222 0 0 96953963.55585325 0 0 97773146.58302593 0 0 97178941.83608927 0 0 98756416.53842306 0 0 99679257.63799465 0 0 100550049.0418851 0 0 101360757.7910283 0 0 102116163.7912714 0 0 102003986.8687928 0 0 103133041.239093 0 0 102668743.1855427 0 0 103737218.6411124 0 0 104299051.3545365 0 0 104820395.0181634 0 0 105304764.6259562 0 0 105394653.7574196 0 0 105021028.3156999 0 0 105803542.6302576 0 0 106179759.7653692 0 0 106525821.919871 0 0 106842968.5950648 0 0 107131825.011583 0 0 107021941.3828185 0 0 107393221.0782875 0 0 107288072.6789572 0 0 107505709.8575217 0 0 107703068.7690258 0 0 107880348.3110092 0 0 108038850.8073298 0 0 108177780.1823585 0 0 107786276.0373325 0 0 107975710.2779914 0 0 108072877.1549529 0 0 108161203.1486183 0 0 108245835.0223091 0 0 107881474.164459 0 0 108039069.1757645 0 0 108107336.4206094 0 0 108163036.5040514 0 0 108206907.419711 0 0 108242340.641064 0 0 108267838.5241899 0 0 108280658.6594102 0 0 108284325.4045007 0 0 108064034.0705393 0 0 107949369.0262203 0 0 108032552.6881851 0 0 107716272.6275138 0 0 107834069.9368326 0 0 107863552.6722554 0 0 107887687.8214595 0 0 107674343.2966575 0 0 107776432.9549314 0 0 107784399.4702861 0 0 89273198.43501213 0 0 36120816.70671362 0 0 37065918.28237062 0 0 38267645.71338736 0 0 40261408.08327927 0 0 44178230.08350998 0 0 44416524.06211458 0 0 46864040.66598757 0 0 49473739.36704122 0 0 52199863.50653889 0 0 56351264.76034581 0 0 55769252.71100482 0 0 59057426.57179394 0 0 61766976.10002618 0 0 64458005.65614302 0 0 67113282.21062452 0 0 69716325.84721807 0 0 72255482.47694337 0 0 74475169.05674019 0 0 75244123.24726361 0 0 77532576.96934922 0 0 79740620.1367414 0 0 81858559.55651459 0 0 83882002.99524087 0 0 85803703.163322 0 0 86811487.77268745 0 0 87596470.77150834 0 0 89286129.11749746 0 0 89989676.48222028 0 0 91400968.16565028 0 0 92692157.35618901 0 0 92087666.3920595 0 0 93972536.99373353 0 0 95185068.24013531 0 0 96328711.0227025 0 0 97406480.42335792 0 0 98175999.70534243 0 0 98014402.5772548 0 0 99115352.99957262 0 0 100003089.9676454 0 0 100833720.9041435 0 0 101608476.8825296 0 0 102328937.7179783 0 0 102819495.1737731 0 0 103289805.5908106 0 0 103477991.7558709 0 0 103868488.3093075 0 0 104406310.2210109 0 0 104905912.3706736 0 0 105370103.6640495 0 0 105445341.0611087 0 0 105752059.1603495 0 0 105836943.5283161 0 0 106197663.9423115 0 0 106529158.1437445 0 0 106833259.1706767 0 0 107109509.477303 0 0 107630301.6319398 0 0 107359456.0843196 0 0 107251146.3983645 0 0 107459882.0363358 0 0 107648656.7024474 0 0 107818783.6136677 0 0 107971223.4849491 0 0 108101592.7479841 0 0 108293387.4191236 0 0 107895108.7003197 0 0 107990699.9510367 0 0 108079021.3306351 0 0 108159307.2807864 0 0 108318085.5028699 0 0 107955280.8443111 0 0 108020890.2715191 0 0 108073039.0886219 0 0 108115416.5572648 0 0 108150032.5897215 0 0 108172730.8557822 0 0 108179161.1873109 0 0 108187060.5522435 0 0 107974774.9249801 0 0 108288570.6888163 0 0 107954274.8963041 0 0 108020430.7935677 0 0 107753983.9178333 0 0 107769879.4571711 0 0 107783488.6359254 0 0 107901562.679768 0 0 107720831.0958778 0 0 107736562.0797085 0 0 107816953.6246148 0 0 90075313.14785016 0 0 35306056.84054792 0 0 36632812.68486266 0 0 38202078.52897056 0 0 40332897.69668821 0 0 42408030.54527562 0 0 42568594.95129932 0 0 46515260.08427488 0 0 49034610.37966877 0 0 51686075.62423868 0 0 54420015.31596495 0 0 58427500.92563558 0 0 54993691.55459345 0 0 61098664.79393741 0 0 63758232.87664888 0 0 66387747.52203377 0 0 68970565.96218784 0 0 71493478.8742933 0 0 73944929.01308525 0 0 74721559.50392385 0 0 76756542.54525074 0 0 78964744.75112432 0 0 81078997.24143405 0 0 83091735.08416668 0 0 85010372.42197576 0 0 86811641.19351807 0 0 87614930.5319296 0 0 88531922.7449268 0 0 90170160.1550011 0 0 90783492.27430554 0 0 92234215.42848714 0 0 93478126.23919095 0 0 92791706.35752292 0 0 94799092.51451622 0 0 96035094.95716631 0 0 97192424.23676495 0 0 98278020.9676054 0 0 99021412.17771251 0 0 98425827.00788373 0 0 99969153.37996969 0 0 100854553.4092249 0 0 101684156.7896849 0 0 102456304.5752855 0 0 103175020.9176606 0 0 103003481.6918747 0 0 104090411.8249026 0 0 103632817.7719381 0 0 104659743.2956424 0 0 105186592.6636895 0 0 105673501.1381356 0 0 106123661.2556762 0 0 106163134.8989639 0 0 105797714.2155995 0 0 106540420.2599354 0 0 106886762.7624278 0 0 107203141.9365959 0 0 107491100.7592989 0 0 107751616.4581915 0 0 107585892.7749346 0 0 107985450.0890808 0 0 107844573.1988805 0 0 108038297.0282034 0 0 108211539.4391518 0 0 108365480.106203 0 0 108499544.7404254 0 0 108616319.7167546 0 0 108202333.0903109 0 0 108381881.5670597 0 0 108461750.5867018 0 0 108536839.2147977 0 0 108604521.8261918 0 0 108227965.5571371 0 0 108378921.7804575 0 0 108429388.5818274 0 0 108468847.5318953 0 0 108498233.2432753 0 0 108517772.6205768 0 0 108526648.0238837 0 0 108526832.5051167 0 0 108521463.4095808 0 0 108278191.3700881 0 0 108189346.763728 0 0 108264080.6254049 0 0 107938727.7774985 0 0 108036419.9989454 0 0 108049662.2729213 0 0 108049372.676307 0 0 107892610.7954984 0 0 107925819.3146583 0 0 107972896.9122629 0 0 107752732.2452253 0 0 107832747.028729 0 0 90896816.02452783 0 0 34569684.5629683 0 0 35413272.70184993 0 0 36536171.00430774 0 0 38332023.35725512 0 0 40677472.2203026 0 0 44793849.38637067 0 0 45104807.21340968 0 0 47825016.41725902 0 0 50667361.91101677 0 0 53586680.81519829 0 0 57821559.59933343 0 0 57199285.24258435 0 0 60654624.76254939 0 0 63467684.78458878 0 0 66241065.46813271 0 0 68960515.82229666 0 0 71610202.42488667 0 0 74182706.92125694 0 0 76319688.34635839 0 0 77105041.29702879 0 0 79405678.22627462 0 0 81612909.58366115 0 0 83737050.59212637 0 0 85753291.29217441 0 0 87664136.70472048 0 0 88572180.52268189 0 0 89342711.23303252 0 0 90987015.19881751 0 0 91522178.53775823 0 0 92910666.01214997 0 0 94125510.23629029 0 0 93626009.91116226 0 0 95380397.68567324 0 0 96554431.62920056 0 0 97657841.67071077 0 0 98695041.42485639 0 0 99390328.06321044 0 0 99303884.17915632 0 0 100293071.2670942 0 0 101142500.4593229 0 0 101934792.7567804 0 0 102671574.3549549 0 0 103355673.1877646 0 0 103841789.9816764 0 0 104219122.9110895 0 0 104462746.8400485 0 0 104763406.6224263 0 0 105267283.5753451 0 0 105732960.9101154 0 0 106164546.7643212 0 0 106190932.1463998 0 0 106538730.7830806 0 0 106552428.4341429 0 0 106883552.5412707 0 0 107186284.03921 0 0 107462129.8366052 0 0 107710318.2125399 0 0 108195469.9577006 0 0 107933414.9848652 0 0 107791552.4405864 0 0 107976686.6065452 0 0 108142427.326536 0 0 108289612.79086 0 0 108418360.148315 0 0 108520056.1318969 0 0 108703626.641807 0 0 108291692.9442922 0 0 108372600.1170635 0 0 108444075.6907541 0 0 108507821.0558313 0 0 108659356.3211729 0 0 108285985.9884111 0 0 108333709.2145082 0 0 108371074.2773209 0 0 108398816.2806985 0 0 108416074.0305761 0 0 108421644.3637806 0 0 108421739.0882955 0 0 108415614.2824197 0 0 108176570.2410839 0 0 108508651.5651417 0 0 108172954.1707444 0 0 108249530.6273226 0 0 107941495.3564147 0 0 107942857.1091503 0 0 107926908.5544425 0 0 107892902.1398335 0 0 107876943.334953 0 0 107942615.2171886 0 0 107737811.360807 0 0 107824879.5160021 0 0 91672543.25325739 0 0 33537220.05163002 0 0 34620601.84053368 0 0 36394240.20076418 0 0 38259030.94242983 0 0 40571787.19790585 0 0 43030225.57863064 0 0 43291650.70112164 0 0 47411675.56918579 0 0 50172793.50202867 0 0 53027805.74847382 0 0 55931034.76411958 0 0 59991618.29068837 0 0 56541922.7691102 0 0 62770830.85871764 0 0 65516696.90792292 0 0 68213584.20005567 0 0 70845248.34698255 0 0 73402845.95742366 0 0 75876906.62255272 0 0 76668062.99202831 0 0 78614918.68059732 0 0 80824125.75981264 0 0 82941435.25587144 0 0 84937320.28549865 0 0 86849842.23228556 0 0 88635113.38841255 0 0 89431696.1444926 0 0 90234438.25214198 0 0 91829828.96352366 0 0 92395387.30770794 0 0 93815286.73714373 0 0 94967006.82019438 0 0 94271718.76504557 0 0 96247283.24797684 0 0 97443005.90955679 0 0 98561741.00666861 0 0 99613407.73143618 0 0 100276708.2026813 0 0 99682570.47728701 0 0 101182507.5250074 0 0 102027629.1428255 0 0 102815378.2696833 0 0 103547280.1406223 0 0 104225887.6949054 0 0 103994985.3023407 0 0 105037641.9649726 0 0 104587538.9369209 0 0 105570058.5690769 0 0 106061163.759818 0 0 106512402.7189149 0 0 106927922.1846265 0 0 106915952.9808774 0 0 106559963.80705 0 0 107261788.0113911 0 0 107576965.0184072 0 0 107863026.2285687 0 0 108121414.2484141 0 0 108353497.9660756 0 0 108134636.5798593 0 0 108559992.4376002 0 0 108384864.7923177 0 0 108553711.4760091 0 0 108702742.2675498 0 0 108832747.8355167 0 0 108942253.4378325 0 0 109030967.6258494 0 0 108601167.0372765 0 0 108773200.9855513 0 0 108838904.1361541 0 0 108899008.240495 0 0 108947362.6340182 0 0 108559735.2799069 0 0 108703217.9621229 0 0 108736803.0990697 0 0 108760261.1826547 0 0 108773636.2129527 0 0 108777403.594991 0 0 108772221.1567532 0 0 108760475.1978129 0 0 108741889.2469169 0 0 108492852.3446731 0 0 108400159.9430368 0 0 108468997.7385223 0 0 108152143.5956711 0 0 108230833.9831022 0 0 108209581.6951235 0 0 108169808.3886205 0 0 108138691.6246083 0 0 108126791.2909052 0 0 108032408.6226495 0 0 107938281.0287293 0 0 107752427.8245545 0 0 107810093.7662593 0 0 92568011.21605845 0 0 32679379.78884926 0 0 33728669.76807903 0 0 34714762.34548466 0 0 36410151.5226657 0 0 38741814.75394889 0 0 41434914.03734333 0 0 45737112.24791858 0 0 46114999.78598515 0 0 49078961.27083398 0 0 52128087.20573937 0 0 55217218.0763035 0 0 59502872.09653493 0 0 58848725.59829376 0 0 62443659.01551806 0 0 65341740.91978998 0 0 68180714.97988454 0 0 70947551.89405677 0 0 73630148.10210511 0 0 76222055.78936052 0 0 78263531.32054536 0 0 79063110.68258107 0 0 81363480.59447394 0 0 83561688.04872786 0 0 85665078.09433174 0 0 87658785.88818906 0 0 89547022.06349267 0 0 90352700.84720637 0 0 91130613.41746904 0 0 92714465.61325298 0 0 93094511.28053422 0 0 94470334.79219584 0 0 95571303.9445353 0 0 95169374.85211097 0 0 96786973.96845675 0 0 97923887.97083743 0 0 98988678.82815099 0 0 99992301.7829846 0 0 100607203.5763276 0 0 100601173.8438648 0 0 101473068.1307634 0 0 102279784.1523524 0 0 103030453.152339 0 0 103727828.4115658 0 0 104375737.1829449 0 0 104854632.2700302 0 0 105137383.3841639 0 0 105436282.0223561 0 0 105645858.392601 0 0 106114537.5645322 0 0 106546090.2336297 0 0 106943474.2313962 0 0 106921141.2353017 0 0 107307978.8495249 0 0 107251214.8877246 0 0 107552266.3201404 0 0 107826137.7859405 0 0 108071976.8469741 0 0 108293053.7149943 0 0 108743913.5506427 0 0 108490511.1966211 0 0 108315644.4933213 0 0 108476656.512579 0 0 108618758.8362135 0 0 108743038.5629436 0 0 108845249.1909332 0 0 108918720.0087585 0 0 109093579.7751253 0 0 108671596.5803974 0 0 108739393.8772079 0 0 108795088.7437153 0 0 108840819.0279925 0 0 108984717.3556663 0 0 108601093.3659459 0 0 108632632.024748 0 0 108654404.2300531 0 0 108665771.0514996 0 0 108667287.576392 0 0 108661299.0065012 0 0 108648710.0766105 0 0 108629238.7998505 0 0 108389743.4826947 0 0 108718375.0018482 0 0 108361737.738813 0 0 108438934.7054349 0 0 108127439.8362204 0 0 108102275.5590356 0 0 108055972.6560413 0 0 108012926.9991793 0 0 108003934.7545057 0 0 107963666.9806135 0 0 107877670.8413207 0 0 107740979.571501 0 0 107784827.1296312 0 0 93292348.82941829 0 0 31631398.51027718 0 0 32866933.47027009 0 0 34711117.00570253 0 0 36398096.67241587 0 0 38598588.90165595 0 0 41207905.9922507 0 0 44013939.64418788 0 0 44351718.1904385 0 0 48613597.44257943 0 0 51590870.75689764 0 0 54623723.02439314 0 0 57670412.64839917 0 0 61753409.12234864 0 0 58310866.58043429 0 0 64621317.43602431 0 0 67435288.20446627 0 0 70181644.06112717 0 0 72846826.72744399 0 0 75425183.8129583 0 0 77908454.05707252 0 0 78715356.30353284 0 0 80558703.56047839 0 0 82757801.99446279 0 0 84855580.40272264 0 0 86854018.49269162 0 0 88752625.9044501 0 0 90495697.72712751 0 0 91278358.96423766 0 0 91959267.38253601 0 0 93521190.38281134 0 0 94032037.74261904 0 0 95417776.12740399 0 0 96478917.88981216 0 0 95787579.73085482 0 0 97709177.45745634 0 0 98862403.88537152 0 0 99941482.91235194 0 0 100950760.4227961 0 0 101527007.7322831 0 0 100937453.1547457 0 0 102391129.833635 0 0 103192962.0161096 0 0 103937216.199618 0 0 104627317.3968221 0 0 105265316.1157391 0 0 104975541.8086038 0 0 105972961.3103824 0 0 105530554.2180403 0 0 106466871.3283633 0 0 106919690.4473379 0 0 107335513.8812317 0 0 107715112.3343178 0 0 107652043.4404342 0 0 107304628.5046798 0 0 107965196.1907893 0 0 108248848.7745942 0 0 108503892.4211895 0 0 108732923.8605268 0 0 108935984.4657246 0 0 108666346.5128143 0 0 109115215.8585172 0 0 108907350.8420389 0 0 109050754.8501164 0 0 109175445.9031213 0 0 109279881.5352792 0 0 109366162.4747677 0 0 109423680.6483067 0 0 108980763.3931243 0 0 109149232.234443 0 0 109201393.6304933 0 0 109243043.9782837 0 0 109273532.1199353 0 0 108875750.8093719 0 0 109011662.0801937 0 0 109028709.7157833 0 0 109036004.0523803 0 0 109033692.0318727 0 0 109022818.7643993 0 0 109004664.3655448 0 0 108979756.1236145 0 0 108949293.6069484 0 0 108689493.5417131 0 0 108607108.067742 0 0 108653264.5909215 0 0 108331011.5226552 0 0 108403582.6915614 0 0 108361923.4591007 0 0 108319940.6159624 0 0 108272451.5063092 0 0 108221803.9648314 0 0 108106674.5131412 0 0 108008585.0242886 0 0 107927055.6936532 0 0 107797340.3194144 0 0 94263963.58466126 0 0 30949671.04172918 0 0 33277207.71292441 0 0 32432693.29048006 0 0 34299526.1035579 0 0 36732040.56097181 0 0 39513267.16390721 0 0 42542499.48849481 0 0 47004427.2218241 0 0 47437106.47446866 0 0 50619286.31508719 0 0 53846186.96758144 0 0 57079684.95477232 0 0 61384820.82625371 0 0 60705323.04239716 0 0 64413073.97869859 0 0 67377684.73484591 0 0 70265264.29792567 0 0 73064050.06697924 0 0 75765043.60086593 0 0 78362479.24286716 0 0 80294264.95423181 0 0 81107846.05569859 0 0 83394906.85635637 0 0 85575772.19190173 0 0 87647719.66723475 0 0 89607893.33643618 0 0 91462207.66515146 0 0 92147428.52619083 0 0 92918839.23054731 0 0 94478684.05628502 0 0 94699663.31955662 0 0 96024876.80070093 0 0 97035758.71124618 0 0 96731975.33690229 0 0 98206266.45400329 0 0 99301174.27085292 0 0 100328211.6100562 0 0 101292535.8957082 0 0 101822689.2721115 0 0 101895083.5726317 0 0 102644333.0817001 0 0 103407481.7615784 0 0 104116736.5569759 0 0 104774491.5401931 0 0 105381962.1212208 0 0 105853576.9699626 0 0 106041963.1954149 0 0 106394294.2698743 0 0 106513093.7956387 0 0 106946151.8873487 0 0 107343155.5829929 0 0 107703432.7335682 0 0 107632910.8286963 0 0 108058953.230486 0 0 107931558.3196756 0 0 108202202.3271805 0 0 108445330.0778635 0 0 108663531.9830075 0 0 108856815.0105428 0 0 109272917.2035879 0 0 109028362.8922082 0 0 108821968.9352585 0 0 108958381.7501329 0 0 109076759.9221598 0 0 109178047.1244484 0 0 109253635.5057887 0 0 109301694.7320334 0 0 109470103.5523487 0 0 109039987.6168014 0 0 109090510.9319398 0 0 109129325.4992836 0 0 109157492.1207534 0 0 109293555.4703704 0 0 108900665.671122 0 0 108916062.5638042 0 0 108921895.565286 0 0 108917845.1638477 0 0 108906035.984281 0 0 108887292.514792 0 0 108861942.2112187 0 0 108831739.6020839 0 0 108577201.1362402 0 0 108913435.9927765 0 0 108540857.0338992 0 0 108611994.0279021 0 0 108296384.3287717 0 0 108250881.5507601 0 0 108213806.5166536 0 0 108164332.0195113 0 0 108121720.8552483 0 0 108187808.9473938 0 0 108061429.3367864 0 0 107934133.0584772 0 0 107849980.623386 0 0 94961676.9116334 0 0 29885027.81512858 0 0 31383719.41237424 0 0 34487730.09622323 0 0 36677376.42169863 0 0 39308678.59869304 0 0 42237297.96997954 0 0 45344632.91668293 0 0 45743400.66576361 0 0 50109934.06037304 0 0 53275719.62384596 0 0 56458362.34807789 0 0 59626290.87409865 0 0 63700728.42817561 0 0 60290616.13803426 0 0 66637606.6092 0 0 69501578.55860585 0 0 72280410.98135225 0 0 74965366.99570563 0 0 77550516.26307175 0 0 80030526.05956425 0 0 80851707.93565446 0 0 82578500.51934668 0 0 84757571.11914811 0 0 86830409.64130643 0 0 88798077.33358815 0 0 90656540.64982873 0 0 92347586.45341924 0 0 93131056.27376927 0 0 93719748.24606335 0 0 95236104.05897684 0 0 95683233.90064035 0 0 97030281.20377097 0 0 97992855.18408546 0 0 97303472.746053 0 0 99177026.99885099 0 0 100284343.4368479 0 0 101318761.9020556 0 0 102283087.9797845 0 0 102774277.5103699 0 0 102191443.5843632 0 0 103590643.9200915 0 0 104347441.1689888 0 0 105047703.4810313 0 0 105694174.1063196 0 0 106288865.8505106 0 0 105941219.899896 0 0 106890983.2776319 0 0 106456787.4067256 0 0 107346850.0528114 0 0 107762248.3629773 0 0 108141710.5175803 0 0 108481237.7339493 0 0 108369308.2818493 0 0 108030945.9433222 0 0 108649406.0330716 0 0 108900566.5622162 0 0 109124723.8959896 0 0 109322914.5584884 0 0 109497933.2139087 0 0 109178574.5021395 0 0 109649694.3392319 0 0 109410322.9556148 0 0 109528153.9058631 0 0 109629523.2254312 0 0 109705417.9930474 0 0 109762602.8718943 0 0 109805022.193099 0 0 109348925.8569144 0 0 109510889.7120992 0 0 109546547.1801387 0 0 109569874.5242628 0 0 109582548.2632207 0 0 109175526.223829 0 0 109303680.3681803 0 0 109304354.7439586 0 0 109295915.1613868 0 0 109278755.3030688 0 0 109253881.4514411 0 0 109222593.6925725 0 0 109185168.9868629 0 0 109142257.1224388 0 0 108871767.1538093 0 0 108795594.8369364 0 0 108824525.2135875 0 0 108499321.2771756 0 0 108565338.4103508 0 0 108515049.9677685 0 0 108461207.5539302 0 0 108405496.2581871 0 0 108326289.4576661 0 0 108254953.4897466 0 0 108177027.0005036 0 0 108071001.9065994 0 0 107957615.1322934 0 0 95980591.83825666 0 0 29129241.60719703 0 0 30700389.2795386 0 0 32338123.20584426 0 0 34719694.78423803 0 0 37540992.19705254 0 0 40666265.76476143 0 0 44002954.82968509 0 0 48584665.12982416 0 0 49059442.59738944 0 0 52428839.79070076 0 0 55807087.47357065 0 0 59160681.80261304 0 0 63454174.64521418 0 0 62754167.15167436 0 0 66549702.77829855 0 0 69562790.91063082 0 0 72481661.26767589 0 0 75297358.41889249 0 0 78002878.98795681 0 0 80593514.83815691 0 0 82402933.07462925 0 0 83229734.90890203 0 0 85494120.6666055 0 0 87643336.42832977 0 0 89674715.2377871 0 0 91581051.67426133 0 0 93352480.09773502 0 0 93954127.63080058 0 0 94720148.99668038 0 0 96257940.55999653 0 0 96316026.67871235 0 0 97596859.65282415 0 0 98503430.29090758 0 0 98298586.05857399 0 0 99629051.94165637 0 0 100682170.7737448 0 0 101666131.2679241 0 0 102581960.5330651 0 0 103027787.6798009 0 0 103179176.1071951 0 0 103804581.5314997 0 0 104524573.2375582 0 0 105190861.5260965 0 0 105805838.7955106 0 0 106370817.1297373 0 0 106834196.1396115 0 0 106930434.8822879 0 0 107333356.5102548 0 0 107364659.8931988 0 0 107762374.7206303 0 0 108121284.9048897 0 0 108444557.6832247 0 0 108327342.7960269 0 0 108788908.0817622 0 0 108594453.6201763 0 0 108833661.5414253 0 0 109046829.42604 0 0 109235549.726281 0 0 109401454.5634302 0 0 109780936.8332473 0 0 109545924.199104 0 0 109309111.5724251 0 0 109421073.6595691 0 0 109517682.5054074 0 0 109588787.0603759 0 0 109633121.4448343 0 0 109670382.5912357 0 0 109833886.1781138 0 0 109393052.6620648 0 0 109425278.8412045 0 0 109446331.4577461 0 0 109457218.6535064 0 0 109585305.5394105 0 0 109184004.6132021 0 0 109183288.7069853 0 0 109173770.2227111 0 0 109155820.1773377 0 0 109130480.1662641 0 0 109098888.336966 0 0 109061587.7589134 0 0 109018710.5389527 0 0 108753967.8224083 0 0 109093941.7466184 0 0 108706865.6053407 0 0 108772347.1460078 0 0 108451997.1057813 0 0 108403819.2962962 0 0 108348910.0318931 0 0 108307344.6300005 0 0 108289996.4727057 0 0 108230549.144417 0 0 108119440.3689251 0 0 108012419.8418126 0 0 96624284.9772086 0 0 28139919.50755443 0 0 29749431.90814218 0 0 32158521.43223032 0 0 34715283.20820052 0 0 37420040.99950628 0 0 40412155.60155106 0 0 43648932.78102928 0 0 47016024.5249904 0 0 47454054.83974537 0 0 51888797.96555386 0 0 55211713.52278215 0 0 58518017.54280134 0 0 61781443.37824655 0 0 65819022.09911723 0 0 62463681.47515004 0 0 68805823.36242257 0 0 71701221.83375186 0 0 74497503.2566921 0 0 77187623.52937797 0 0 79766601.3537522 0 0 82230484.62972757 0 0 83066126.0756194 0 0 84664414.05223398 0 0 86812590.30439739 0 0 88849556.47359988 0 0 90770513.20169446 0 0 92577783.97529425 0 0 94210477.40078881 0 0 94995022.24744011 0 0 95498873.90408468 0 0 96964245.99324737 0 0 97363667.89742821 0 0 98652823.21284133 0 0 99511595.84429419 0 0 98822474.86648539 0 0 100647738.6390221 0 0 101706182.2848727 0 0 102691004.8965397 0 0 103604954.1375988 0 0 104010182.5446783 0 0 103433001.2455667 0 0 104778928.4468889 0 0 105488764.528583 0 0 106143102.5468576 0 0 106743525.9441122 0 0 107293622.3653927 0 0 106889417.172076 0 0 107790403.4336122 0 0 107365165.3744181 0 0 108208589.0218701 0 0 108587188.8644247 0 0 108925222.8772116 0 0 109227955.6478295 0 0 109066000.7615287 0 0 108737847.0425094 0 0 109313511.885996 0 0 109532832.159353 0 0 109724878.488134 0 0 109893819.2966853 0 0 110038527.6028198 0 0 109670169.1612121 0 0 110162931.2509156 0 0 109892397.3015338 0 0 109983620.706697 0 0 110057715.8915934 0 0 110106923.4258997 0 0 110142029.6637797 0 0 110163384.0968724 0 0 109703807.6577881 0 0 109857925.511281 0 0 109873501.6811371 0 0 109878467.6270527 0 0 109873772.3263128 0 0 109458486.0375275 0 0 109578855.7863929 0 0 109563469.1977398 0 0 109539712.7602453 0 0 109508337.543925 0 0 109469992.4721283 0 0 109425557.7494142 0 0 109375518.7213967 0 0 109320222.5656347 0 0 109040609.049195 0 0 108970549.7583751 0 0 108982599.2285967 0 0 108654758.2862045 0 0 108716094.5038478 0 0 108655762.6617999 0 0 108591634.1864005 0 0 108532696.883833 0 0 108445435.7947979 0 0 108347857.2005893 0 0 108233162.2767405 0 0 108122224.8642976 0 0 97720130.34645799 0 0 27345810.57362276 0 0 28872081.58071956 0 0 30960053.34259271 0 0 32829121.10427794 0 0 35566338.23994822 0 0 38744113.4358126 0 0 42210070.38925493 0 0 45803924.01173097 0 0 50461128.26761586 0 0 50964369.42642459 0 0 54490839.7421134 0 0 57991795.23811094 0 0 61439511.63432207 0 0 65695114.72717489 0 0 64978498.2748163 0 0 68838979.67940038 0 0 71877197.10430497 0 0 74808572.53170478 0 0 77629376.83783497 0 0 80330754.61516203 0 0 82902938.38487256 0 0 84577493.76194805 0 0 85418608.11104386 0 0 87649335.6657607 0 0 89758963.83569565 0 0 91748778.3508094 0 0 93587375.82068512 0 0 95289085.38291903 0 0 95777429.96326305 0 0 96554610.9376823 0 0 98058175.59411247 0 0 97942264.82617387 0 0 99168411.77786466 0 0 99975324.81791487 0 0 99866205.42523515 0 0 101052950.2279612 0 0 102057697.2714779 0 0 102992018.5615284 0 0 103858701.1838266 0 0 104222303.8822102 0 0 104451122.8828126 0 0 104952529.2832778 0 0 105627351.6365686 0 0 106248499.0427682 0 0 106819037.5779724 0 0 107341096.6259617 0 0 107795499.7649878 0 0 107799380.6111087 0 0 108252292.5223861 0 0 108198210.6005299 0 0 108558172.193934 0 0 108879174.4019411 0 0 109166091.2144323 0 0 109001869.6174177 0 0 109499032.3065756 0 0 109237213.5783524 0 0 109444911.6774567 0 0 109628186.6486828 0 0 109787007.4139624 0 0 109924847.6710983 0 0 110267092.7714261 0 0 110042181.9456767 0 0 109775313.4570636 0 0 109861337.341445 0 0 109928748.57347 0 0 109968667.0900586 0 0 109995019.2554968 0 0 110022273.556183 0 0 110179007.534654 0 0 109728333.1482891 0 0 109741924.2675644 0 0 109745327.9121673 0 0 109739313.4960475 0 0 109859631.1600668 0 0 109450754.7156389 0 0 109434438.2523834 0 0 109409960.7170494 0 0 109378414.9366737 0 0 109339940.3568495 0 0 109295719.073786 0 0 109245971.2875175 0 0 109191035.6858137 0 0 108917593.5506556 0 0 109260174.8020859 0 0 108860083.5227287 0 0 108920436.9004904 0 0 108599499.8348568 0 0 108539790.9529202 0 0 108479049.0805807 0 0 108426034.1207998 0 0 108365222.0212276 0 0 108287348.9660246 0 0 108182422.6495649 0 0 98314616.0510965 0 0 26449316.84646404 0 0 27917991.08245983 0 0 30008490.53230706 0 0 32532921.97089443 0 0 35535099.91335925 0 0 38584292.22441672 0 0 41918396.34407564 0 0 45421690.73166069 0 0 48999789.05926298 0 0 49457542.80981864 0 0 53929560.3018761 0 0 57379386.93760336 0 0 60782340.71373513 0 0 64114666.3812016 0 0 68092008.90541872 0 0 64811478.44396664 0 0 71107556.6151194 0 0 74018532.62183589 0 0 76818895.47059511 0 0 79499312.98777032 0 0 82059817.60682631 0 0 84495990.6703143 0 0 85347160.40668693 0 0 86805896.92606074 0 0 88916093.51495442 0 0 90910684.74997017 0 0 92772238.77071832 0 0 94473936.11815646 0 0 96080419.39346176 0 0 96880817.38907385 0 0 97280904.79628316 0 0 98699621.95129056 0 0 99038249.96814749 0 0 100281221.798571 0 0 101033846.7343162 0 0 100345345.5598845 0 0 102115727.6450948 0 0 103121370.2130229 0 0 104053443.4563315 0 0 104914217.3014714 0 0 105232415.281225 0 0 104661143.9542009 0 0 105951691.321067 0 0 106613008.5876156 0 0 107219251.9225612 0 0 107772434.8095143 0 0 108277053.5368888 0 0 107817295.0253774 0 0 108668519.5970938 0 0 108251491.8201244 0 0 109047760.2705349 0 0 109387874.1435439 0 0 109685613.858189 0 0 109950899.7556441 0 0 109741102.9752032 0 0 109424808.5572983 0 0 109956168.4858841 0 0 110141657.1666238 0 0 110303621.145044 0 0 110440373.1789869 0 0 110557268.1998696 0 0 110140328.3446574 0 0 110652989.503849 0 0 110353014.5011791 0 0 110417460.5147133 0 0 110459628.558103 0 0 110482532.5723635 0 0 110494569.2546685 0 0 110505051.5671135 0 0 110039028.3245441 0 0 110184255.2715957 0 0 110180900.3615518 0 0 110168536.1182494 0 0 110146569.4373075 0 0 109724179.3085659 0 0 109836804.1508004 0 0 109805774.1267327 0 0 109767239.3697591 0 0 109721860.6163828 0 0 109670174.8479407 0 0 109612908.3441837 0 0 109550485.3003267 0 0 109483257.3295023 0 0 109195702.7275714 0 0 109131497.3896535 0 0 109127413.0460666 0 0 108798868.0810017 0 0 108854512.2810093 0 0 108783978.3803609 0 0 108707832.9133646 0 0 108647575.989018 0 0 108542595.2602499 0 0 108401787.3065346 0 0 108284120.6189744 0 0 99448519.53031798 0 0 25728173.90154551 0 0 27398864.65729116 0 0 29544072.51629283 0 0 31610321.79654798 0 0 33692729.03407176 0 0 36797366.04787525 0 0 40383352.98362028 0 0 44108863.68062564 0 0 47902725.68792699 0 0 52611282.15887233 0 0 53130662.60449902 0 0 56783360.08045638 0 0 60379223.00033907 0 0 63896342.44837243 0 0 68090602.09601766 0 0 67358818.68865469 0 0 71258714.58588634 0 0 74304657.40767586 0 0 77239617.11070471 0 0 80045396.47396022 0 0 82733249.55221759 0 0 85278275.95473367 0 0 86807640.62669931 0 0 87663449.86438401 0 0 89851533.6564284 0 0 91913777.77693598 0 0 93848018.5212536 0 0 95612884.36310253 0 0 97269070.2568001 0 0 97621754.9536491 0 0 98416175.89974548 0 0 99850620.63252521 0 0 99563194.41387111 0 0 100737221.5138919 0 0 101445506.8334329 0 0 101447361.314969 0 0 102471221.0519931 0 0 103423837.5368234 0 0 104306110.0351595 0 0 105121450.1020307 0 0 105402111.6363678 0 0 105708558.1006692 0 0 106084369.9782278 0 0 106711643.4608615 0 0 107286123.1303905 0 0 107811046.5796529 0 0 108288822.107819 0 0 108734730.0367665 0 0 108647121.0199268 0 0 109148525.5450343 0 0 109009822.7580077 0 0 109330535.6498545 0 0 109612614.1772261 0 0 109865124.0786586 0 0 109656465.3582955 0 0 110186508.7786496 0 0 109857473.1819029 0 0 110036065.2724827 0 0 110185942.0821718 0 0 110316257.4078922 0 0 110426071.0378086 0 0 110730389.4593866 0 0 110516098.7361406 0 0 110221407.4054612 0 0 110282969.5370493 0 0 110316143.1899268 0 0 110330827.3862456 0 0 110345912.4972125 0 0 110356853.5634123 0 0 110502629.7157709 0 0 110044123.5606779 0 0 110039949.0419009 0 0 110026182.2253945 0 0 110003410.3686992 0 0 110115893.8868412 0 0 109700580.6572188 0 0 109669059.2248685 0 0 109630378.2934343 0 0 109585037.4248561 0 0 109533703.0241911 0 0 109476974.9011733 0 0 109415140.7034394 0 0 109348759.9346618 0 0 109067807.5918388 0 0 109411879.3583097 0 0 109000482.3714786 0 0 109055601.648509 0 0 108733882.0759382 0 0 108665243.7954635 0 0 108594319.7052629 0 0 108525354.2414291 0 0 108450350.7619291 0 0 108348367.7118823 0 0 99990367.25618018 0 0 24883920.63245182 0 0 26274845.26147637 0 0 28270792.84232453 0 0 30751651.96150076 0 0 33593212.1483693 0 0 36774353.23978711 0 0 40184284.85757046 0 0 43802312.57662733 0 0 47512236.24876749 0 0 51261455.2024918 0 0 51728093.52533156 0 0 56208227.06123349 0 0 59754426.31208991 0 0 63225793.01306363 0 0 66604983.30107851 0 0 70500354.61504655 0 0 67315750.62473725 0 0 73523016.45535271 0 0 76432903.20304099 0 0 79220288.29967245 0 0 81886806.01248568 0 0 84417229.87843448 0 0 86815025.53284289 0 0 87683340.95221409 0 0 88993671.34398954 0 0 91057889.19791251 0 0 93011492.04254642 0 0 94776672.36840466 0 0 96455653.77215452 0 0 97996002.52941748 0 0 98798744.77696405 0 0 99069748.3509046 0 0 100429974.0055942 0 0 100724321.8979647 0 0 101904746.5793377 0 0 102548613.5281195 0 0 101859906.7841942 0 0 103574844.6024347 0 0 104525102.7588347 0 0 105401034.425614 0 0 106207211.460046 0 0 106437498.6215465 0 0 105873489.9019018 0 0 107105720.3705464 0 0 107716536.6081888 0 0 108272190.5964267 0 0 108778154.2215701 0 0 109235111.9484758 0 0 108722792.3252394 0 0 109524675.8987887 0 0 109116379.8227171 0 0 109861293.6972217 0 0 110158863.4268943 0 0 110419692.0735675 0 0 110647197.1580948 0 0 110393413.4996095 0 0 110089402.2045017 0 0 110573983.2442893 0 0 110727381.1470539 0 0 110859042.6988089 0 0 110963236.6835982 0 0 111050915.2247577 0 0 110588696.5572925 0 0 111119009.6860398 0 0 110790881.2721672 0 0 110827258.049915 0 0 110843216.1942875 0 0 110840637.3588228 0 0 110835684.6015394 0 0 110830061.2703126 0 0 110353661.0835024 0 0 110489168.6114833 0 0 110469817.2777674 0 0 110439664.1942235 0 0 110400626.461669 0 0 109972217.0903886 0 0 110077137.9688126 0 0 110030951.6722521 0 0 109977979.8534862 0 0 109918818.2065353 0 0 109854033.8507862 0 0 109784108.2738284 0 0 109709736.9168452 0 0 109631207.7639073 0 0 109336812.4665095 0 0 109278370.4892177 0 0 109258465.4966397 0 0 108929947.254662 0 0 108979949.8769783 0 0 108898272.3993139 0 0 108805243.6080452 0 0 108735843.220768 0 0 108570841.4945259 0 0 108443439.446138 0 0 101187371.8489292 0 0 24248006.44740635 0 0 25905006.45182915 0 0 28511697.43334294 0 0 31700324.61814158 0 0 31360738.63403585 0 0 34751005.57125755 0 0 38517647.74938644 0 0 42377631.02496985 0 0 46318479.59576034 0 0 50279627.89501927 0 0 55003297.98328193 0 0 55533506.45800876 0 0 59284884.6396431 0 0 62947612.15679213 0 0 66512957.89199722 0 0 70619730.49481504 0 0 69876109.31644499 0 0 73795892.92323218 0 0 76838875.47158559 0 0 79756508.9931502 0 0 82548056.36009561 0 0 85202653.21147409 0 0 87708136.02435227 0 0 89080165.98652808 0 0 89952444.17638536 0 0 92089807.8628498 0 0 94095411.00768337 0 0 95965068.7929457 0 0 97664054.00424135 0 0 99273501.36274923 0 0 99472687.98607603 0 0 100271773.9716793 0 0 101646465.4852977 0 0 101182993.2914647 0 0 102307709.5136131 0 0 102907644.9894691 0 0 103007603.8912704 0 0 103878423.4701044 0 0 104776247.9200623 0 0 105604518.7028855 0 0 106366473.3656097 0 0 106564036.8889936 0 0 106946628.6032699 0 0 107196249.7388173 0 0 107773658.6581074 0 0 108300958.9313912 0 0 108779246.593331 0 0 109211899.7972219 0 0 109648847.9386189 0 0 109473827.8223685 0 0 110019784.3737163 0 0 109791613.0585621 0 0 110073447.2692432 0 0 110319952.0713566 0 0 110536385.1531198 0 0 110285751.2140729 0 0 110846616.2989789 0 0 110453821.8754982 0 0 110600352.3041969 0 0 110721344.2084837 0 0 110821925.1579575 0 0 110903562.7363588 0 0 111169842.3010483 0 0 110966838.3341533 0 0 110646009.7773405 0 0 110675544.99218 0 0 110690493.4447613 0 0 110686252.1995154 0 0 110681270.0753276 0 0 110670385.4349215 0 0 110807435.3222951 0 0 110340514.7000319 0 0 110319454.519501 0 0 110288335.3569019 0 0 110249175.0959238 0 0 110353760.0806383 0 0 109933199.7201402 0 0 109887079.2585141 0 0 109834366.1753038 0 0 109775720.5108649 0 0 109711735.3587895 0 0 109642686.4085332 0 0 109569242.5652353 0 0 109491907.6665922 0 0 109204371.5586953 0 0 109549147.6093608 0 0 109127221.1545428 0 0 109177312.0624384 0 0 108855690.2862574 0 0 108776337.5596473 0 0 108687352.2156347 0 0 108656378.781458 0 0 108514253.6110597 0 0 108669487.0195962 0 0 101652727.0231927 0 0 23553679.00885709 0 0 25035905.46631271 0 0 27171017.76556414 0 0 29737509.0354731 0 0 34840802.77641653 0 0 38373936.80866093 0 0 42148884.3749117 0 0 45993761.51507652 0 0 49879356.9928662 0 0 53768625.7508062 0 0 54243660.71846495 0 0 58697871.14191683 0 0 62310247.85226118 0 0 65828345.37231992 0 0 69230876.65654911 0 0 73024401.73046799 0 0 69957131.48703666 0 0 76037986.58649807 0 0 78931743.91333032 0 0 81693198.64156315 0 0 84332061.22793502 0 0 86827571.65567294 0 0 89173845.49072362 0 0 90060579.4275602 0 0 91216317.28312409 0 0 93229571.52125694 0 0 95110006.40049404 0 0 96832712.17123066 0 0 98436174.28051981 0 0 99923172.53834996 0 0 100750562.7293753 0 0 100862080.309208 0 0 102155789.7987152 0 0 102397204.4140493 0 0 103515232.9248125 0 0 104053628.2126258 0 0 103371678.656848 0 0 105021680.416158 0 0 105912184.3418344 0 0 106729813.7356358 0 0 107476612.8505079 0 0 107623565.1847958 0 0 107069262.3302506 0 0 108237505.1950377 0 0 108792044.1624282 0 0 109302172.5260012 0 0 109756265.8643085 0 0 110166743.6056852 0 0 109603298.3546246 0 0 110353057.0221885 0 0 109956395.8576581 0 0 110645361.1114904 0 0 110900786.8937408 0 0 111122678.995725 0 0 111314053.9806401 0 0 111018800.0951761 0 0 110725783.2636156 0 0 111164658.240661 0 0 111286508.6557685 0 0 111384373.7086477 0 0 111460903.0152915 0 0 111519695.797509 0 0 111013755.2076036 0 0 111559964.682979 0 0 111203626.5304216 0 0 111216542.5252479 0 0 111212905.4817931 0 0 111188666.97902 0 0 111160455.6306817 0 0 111133282.758397 0 0 110646668.9863626 0 0 110777199.2820509 0 0 110739702.7506343 0 0 110690908.7858051 0 0 110635510.4000574 0 0 110202288.7027634 0 0 110299534.3861502 0 0 110238666.5138126 0 0 110171564.1338899 0 0 110099054.6145373 0 0 110021557.7951419 0 0 109939493.4596949 0 0 109853532.9841599 0 0 109764221.7579572 0 0 109463770.8106604 0 0 109411142.9264061 0 0 109375526.2436004 0 0 109047672.478787 0 0 109091472.6595916 0 0 108994421.4218956 0 0 108857201.7797757 0 0 108820231.8847079 0 0 108598888.3154107 0 0 108715839.5699576 0 0 102915797.5006264 0 0 22967180.75406162 0 0 24618763.80280566 0 0 26933883.23954865 0 0 29804814.79663308 0 0 32806478.43929261 0 0 36640983.27333255 0 0 40614244.23434053 0 0 44701533.40144821 0 0 48822399.73074169 0 0 52922247.00161231 0 0 57610108.33858086 0 0 58154789.35166866 0 0 61971766.2500247 0 0 65680119.41340477 0 0 69266247.96694538 0 0 73273582.46933196 0 0 72506794.75399852 0 0 76441520.76227485 0 0 79467630.47584665 0 0 82351828.84348066 0 0 85106179.73961931 0 0 87733427.33701023 0 0 90173793.87755252 0 0 91384205.35603391 0 0 92274337.05843846 0 0 94352615.31512885 0 0 96293903.84546985 0 0 98099530.53410476 0 0 99765325.59381954 0 0 101267237.1050398 0 0 101312609.4487828 0 0 102124856.4099669 0 0 103430494.3918292 0 0 102798720.8359333 0 0 103857926.8336792 0 0 104357234.5364027 0 0 104555651.3028094 0 0 105269700.2798556 0 0 106110086.5597761 0 0 106883003.630322 0 0 107591883.4065991 0 0 107706751.4383462 0 0 108161507.5753348 0 0 108282029.543639 0 0 108812246.3150219 0 0 109290871.8992622 0 0 109721062.9767107 0 0 110106230.8650269 0 0 110533004.6932407 0 0 110270850.7468316 0 0 110863256.9023427 0 0 110545838.9422432 0 0 110787512.425225 0 0 110997232.159669 0 0 111179122.7877231 0 0 110887404.5809141 0 0 111476969.2996998 0 0 111023194.9835651 0 0 111136255.9132281 0 0 111229555.7719798 0 0 111301743.3632272 0 0 111355645.8694915 0 0 111583186.6226039 0 0 111392376.7744091 0 0 111044132.3400074 0 0 111055019.7375816 0 0 111056538.3424525 0 0 111037138.2478809 0 0 110995771.8584003 0 0 110968127.2020339 0 0 111100090.0772492 0 0 110619329.8503904 0 0 110579329.9815987 0 0 110531270.5757222 0 0 110476132.7337475 0 0 110572858.0956686 0 0 110148378.0880844 0 0 110087963.4880725 0 0 110021647.9130161 0 0 109950094.7503264 0 0 109873775.2841354 0 0 109792934.9186882 0 0 109708315.1064205 0 0 109620532.4403272 0 0 109327111.3886037 0 0 109671969.9412569 0 0 109240260.4322656 0 0 109286312.8662186 0 0 108965088.9376753 0 0 108873562.3486584 0 0 108823113.2816539 0 0 108668536.8991886 0 0 108823722.6564184 0 0 103325051.1053255 0 0 22398055.39729083 0 0 23931172.87150649 0 0 26116947.83266039 0 0 28939165.07589481 0 0 32720363.28428154 0 0 36649088.36179814 0 0 40483139.01571362 0 0 44463845.93401428 0 0 48485917.44746242 0 0 52504059.42339355 0 0 56494170.57706919 0 0 56975820.84147053 0 0 61371508.60247835 0 0 65025655.53702471 0 0 68565040.40360643 0 0 71970843.56483053 0 0 75648041.39498815 0 0 72716405.76805744 0 0 78637715.76139973 0 0 81499831.23695287 0 0 84234252.98176241 0 0 86835963.58513312 0 0 89270780.55746065 0 0 91560362.18846604 0 0 92466546.62738639 0 0 93463336.30395953 0 0 95411304.50289248 0 0 97218684.55988966 0 0 98892302.96129906 0 0 100426711.5238755 0 0 101841940.6002886 0 0 102667185.7086453 0 0 102642061.7104201 0 0 103865401.932703 0 0 104052646.1758098 0 0 105108687.2128468 0 0 105542611.0876703 0 0 104859880.4614849 0 0 106447894.6950389 0 0 107276924.6833211 0 0 108033916.081001 0 0 108717907.4147186 0 0 108784525.338443 0 0 108241293.9334334 0 0 109342631.6115726 0 0 109848985.4006994 0 0 110300549.8901767 0 0 110708530.1359696 0 0 111062191.6133886 0 0 110456170.8219351 0 0 111149587.5974246 0 0 110766822.3222025 0 0 111397857.2944812 0 0 111611805.9043295 0 0 111794871.2423683 0 0 111948725.8796428 0 0 111613547.1384229 0 0 111331579.5973693 0 0 111726245.6400941 0 0 111814539.1328117 0 0 111881776.4400804 0 0 111929934.1561318 0 0 111960227.3568767 0 0 111412451.5438304 0 0 111973212.463641 0 0 111591264.434961 0 0 111582497.6971135 0 0 111563774.7010913 0 0 111527425.12692 0 0 111470051.5322945 0 0 111427403.2376826 0 0 110931432.9891547 0 0 111051908.4637858 0 0 110990976.598289 0 0 110922666.9432874 0 0 110850471.2830103 0 0 110414239.7395458 0 0 110503860.832983 0 0 110428415.2830964 0 0 110347764.6561239 0 0 110262379.6532057 0 0 110172691.5415445 0 0 110078970.2144491 0 0 109981933.0248502 0 0 109882253.4323769 0 0 109576600.4518971 0 0 109529847.3062905 0 0 109478585.3902268 0 0 109152170.9424202 0 0 109188738.842015 0 0 109088129.8166307 0 0 108995552.2931061 0 0 108753520.4361153 0 0 108867866.0925711 0 0 104624579.0474834 0 0 22123215.69164134 0 0 24060860.16731278 0 0 26270435.05800122 0 0 28464015.0822006 0 0 31245340.97533724 0 0 34788427.65926374 0 0 38848557.68035345 0 0 43053001.89703019 0 0 47306746.3691586 0 0 51557525.89485847 0 0 55758150.3631603 0 0 60405045.02465531 0 0 60954329.36949445 0 0 64811594.86807631 0 0 68542318.01752402 0 0 72130165.62030071 0 0 76023440.79583132 0 0 75242074.24903947 0 0 79179611.69740143 0 0 82168608.3045204 0 0 85012275.38871692 0 0 87718521.45573011 0 0 90273659.17515326 0 0 92662431.85371813 0 0 93709817.30250502 0 0 94619618.36561994 0 0 96625881.566817 0 0 98493841.33460352 0 0 100224442.6643214 0 0 101819700.1878874 0 0 103242181.0380561 0 0 103160255.1246034 0 0 103969643.7314734 0 0 105187271.7021376 0 0 104395987.8866775 0 0 105391829.5615967 0 0 105786666.4511106 0 0 106090095.6211348 0 0 106638967.994445 0 0 107420600.9658544 0 0 108131978.6402173 0 0 108786047.1343486 0 0 108816366.7445661 0 0 109352698.3716626 0 0 109347484.0197569 0 0 109825812.3254505 0 0 110253580.0273758 0 0 110631023.2420997 0 0 110971553.4231569 0 0 111389292.0618588 0 0 111036046.226278 0 0 111672291.703438 0 0 111269949.5732414 0 0 111471964.4311357 0 0 111644228.4109845 0 0 111788845.2633617 0 0 111459811.7396487 0 0 112075863.2683277 0 0 111563212.5541232 0 0 111645835.3291725 0 0 111709067.5548742 0 0 111753277.0609136 0 0 111779409.4366267 0 0 111970613.5681669 0 0 111789778.6631271 0 0 111417247.7678705 0 0 111410417.4121689 0 0 111400529.6256324 0 0 111353914.3457844 0 0 111291923.9197638 0 0 111251185.3954808 0 0 111379937.2717205 0 0 110878244.9432845 0 0 110818441.7585956 0 0 110755174.9601785 0 0 110684408.6606134 0 0 110773592.0221564 0 0 110345800.5644825 0 0 110271406.6263644 0 0 110191979.8957652 0 0 110107947.7536009 0 0 110019806.1386881 0 0 109927781.254993 0 0 109832448.4773678 0 0 109734627.0139497 0 0 109436027.8690933 0 0 109780531.101986 0 0 109339164.5136285 0 0 109384906.4504118 0 0 109059487.1069316 0 0 108960433.0187505 0 0 108874887.7169658 0 0 108816859.5531885 0 0 104959882.3146816 0 0 21987918.08737615 0 0 23220309.43581444 0 0 24612667.22292081 0 0 27522741.08983418 0 0 31294221.38138678 0 0 34914334.61884 0 0 38858452.39662005 0 0 42930543.07466518 0 0 47078119.98593291 0 0 51235716.77938943 0 0 55345357.96816469 0 0 59389236.75060126 0 0 59879473.44025953 0 0 64200251.01332662 0 0 67873614.5233283 0 0 71409156.57030243 0 0 74803505.18873627 0 0 78354766.78247358 0 0 75573996.53511676 0 0 81311216.84821936 0 0 84129942.18658094 0 0 86814244.24034236 0 0 89368917.55676246 0 0 91742900.95382299 0 0 93962651.40725696 0 0 94896901.3446185 0 0 95719573.77952334 0 0 97591870.15481524 0 0 99335210.72639671 0 0 100958201.716135 0 0 102396075.9797939 0 0 103743405.8715169 0 0 104567845.22414 0 0 104401169.4844912 0 0 105555093.8240284 0 0 105703277.7280887 0 0 106686890.8765911 0 0 107009930.795573 0 0 106329960.2466971 0 0 107848815.4431824 0 0 108614313.9845621 0 0 109306992.3929225 0 0 109923531.3507485 0 0 109925434.7534157 0 0 109389039.987916 0 0 110419591.1196781 0 0 110873784.092809 0 0 111273397.8727693 0 0 111618903.4363946 0 0 111935869.6670834 0 0 111277249.9927417 0 0 111912620.9163695 0 0 111543056.0195401 0 0 112116951.3552094 0 0 112290821.8050938 0 0 112434730.9227763 0 0 112551222.1779204 0 0 112177870.5855605 0 0 111907286.2901156 0 0 112256485.2014587 0 0 112313285.9391413 0 0 112350471.567974 0 0 112369804.6759336 0 0 112371863.3829417 0 0 111784573.7031105 0 0 112358007.3995464 0 0 111954415.2893084 0 0 111925036.1072504 0 0 111881234.5458415 0 0 111819465.5859833 0 0 111749754.9802509 0 0 111706582.4095856 0 0 111194969.499821 0 0 111308925.0037646 0 0 111221793.617871 0 0 111133487.1844627 0 0 111047466.1575431 0 0 110607950.8569494 0 0 110689374.2554431 0 0 110600070.2604971 0 0 110506471.1624032 0 0 110408748.8246599 0 0 110307281.5408984 0 0 110202460.4929102 0 0 110094772.3363096 0 0 109984995.4327784 0 0 109675927.1985857 0 0 109634880.4570807 0 0 109568213.982128 0 0 109242301.4189397 0 0 109269593.3830864 0 0 109151792.6419324 0 0 109028665.4853563 0 0 108907670.6132824 0 0 106319093.7200682 0 0 21805156.3908958 0 0 22281951.66626791 0 0 26916387.96299483 0 0 29400661.6808131 0 0 28964600.18377215 0 0 32955339.95578248 0 0 37096783.93065885 0 0 41385661.52640445 0 0 45752760.64262496 0 0 50132289.42794617 0 0 54475718.53801853 0 0 58745603.53219655 0 0 63333769.05387004 0 0 63892365.89613304 0 0 67771417.2258448 0 0 71507624.02570751 0 0 75086634.19470096 0 0 78857659.7064326 0 0 78050245.60018352 0 0 81979443.42190309 0 0 84925245.82255171 0 0 87717952.94804101 0 0 90366437.70107476 0 0 92847106.79485404 0 0 95166736.74740735 0 0 96040167.64192143 0 0 96971909.48352359 0 0 98899153.31887971 0 0 100685367.0609199 0 0 102325557.8490517 0 0 103840515.4303704 0 0 105183440.858082 0 0 104969013.5403055 0 0 105769637.1938066 0 0 106935692.0386461 0 0 105972428.174217 0 0 106904355.86034 0 0 107192937.367683 0 0 107596420.9781338 0 0 107982395.1218045 0 0 108700628.413807 0 0 109351462.0525242 0 0 109946716.2446154 0 0 109905573.8456749 0 0 110509497.9679536 0 0 110384882.1724449 0 0 110812825.4009261 0 0 111180211.0576254 0 0 111512117.4198408 0 0 111807799.9425735 0 0 112209900.1245493 0 0 111768923.8347518 0 0 112443132.1992085 0 0 111961823.9054714 0 0 112124860.7552854 0 0 112259264.199235 0 0 112367716.6794776 0 0 112001961.0031806 0 0 112642531.315274 0 0 112074505.5091942 0 0 112126742.580158 0 0 112160475.6467972 0 0 112177040.5721349 0 0 112176312.294345 0 0 112330596.1884534 0 0 112160691.5268247 0 0 111766305.113931 0 0 111746682.8453043 0 0 111709019.1289793 0 0 111647978.7984568 0 0 111571033.7267952 0 0 111504478.3548522 0 0 111626294.001903 0 0 111115860.8130247 0 0 111037729.8222346 0 0 110959064.9154976 0 0 110874475.8389102 0 0 110954703.2956477 0 0 110524962.6381661 0 0 110437255.4753948 0 0 110345214.8818395 0 0 110249205.4670788 0 0 110149592.255712 0 0 110046822.9682626 0 0 109941169.2656861 0 0 109833695.3392862 0 0 109532539.1065343 0 0 109875087.4144163 0 0 109425925.5741212 0 0 109475227.559644 0 0 109150691.5288413 0 0 109072301.4388612 0 0 108968848.5195615 0 0 106588766.3963042 0 0 21955388.77035657 0 0 22987375.04428085 0 0 25634470.71679877 0 0 27279149.45065125 0 0 24338567.42211165 0 0 33320909.64038198 0 0 37202201.75521571 0 0 41395483.37805071 0 0 45640543.79619687 0 0 49911463.08907059 0 0 54155479.04133426 0 0 58331052.12672338 0 0 62409935.37856618 0 0 62912819.58453976 0 0 67147158.44318008 0 0 70815817.17927139 0 0 74335891.72287686 0 0 77708341.41891176 0 0 81124043.59211974 0 0 78509538.40999439 0 0 84040264.87953198 0 0 86806717.11456345 0 0 89439764.03534095 0 0 91901803.13326135 0 0 94209553.03769325 0 0 96370102.20834848 0 0 97329360.15249541 0 0 97973533.20809224 0 0 99769744.60813941 0 0 101434404.8226875 0 0 102978432.1766415 0 0 104356770.1880859 0 0 105570231.26249 0 0 106403584.1831929 0 0 106139220.2552681 0 0 107217084.5734112 0 0 107315541.1952702 0 0 108229011.394213 0 0 108446966.012187 0 0 107774781.7566315 0 0 109219250.2662938 0 0 109920713.0229121 0 0 110559858.2101625 0 0 111121951.7748763 0 0 111030854.6822815 0 0 110484848.8693574 0 0 111475332.4813116 0 0 111865146.31615 0 0 112212917.5124457 0 0 112507891.0931424 0 0 112767063.1444293 0 0 112063736.1113749 0 0 112638503.3576103 0 0 112283471.0239114 0 0 112802439.4775952 0 0 112935684.7110264 0 0 113040825.4739597 0 0 113120330.7779531 0 0 112710120.6089551 0 0 112452332.9125439 0 0 112755770.1305416 0 0 112781780.7073238 0 0 112789305.9412449 0 0 112780029.9973825 0 0 112754555.8656868 0 0 112131687.9959404 0 0 112715620.3044638 0 0 112291730.9171702 0 0 112239894.9472003 0 0 112171224.4211677 0 0 112087376.7480848 0 0 111996445.2270861 0 0 111932709.8247248 0 0 111429209.5028446 0 0 111527147.328028 0 0 111423471.3913645 0 0 111323223.9052218 0 0 111224218.0756116 0 0 110782368.8993379 0 0 110855877.0467504 0 0 110753710.1209194 0 0 110647648.5548345 0 0 110538023.3544313 0 0 110425248.7813908 0 0 110309675.3413072 0 0 110191514.278916 0 0 110071565.4150309 0 0 109761292.1161745 0 0 109726110.9917401 0 0 109640022.0543053 0 0 109325203.8377422 0 0 109339228.286726 0 0 109189487.2840414 0 0 109056515.7576799 0 0 107979740.4434619 0 0 22362242.71670564 0 0 22235189.8859998 0 0 23622989.98804444 0 0 27839060.34421007 0 0 28391376.99670302 0 0 31227983.65843905 0 0 35408486.68703263 0 0 39717711.87263254 0 0 44168578.57917931 0 0 48659914.91662733 0 0 53134220.33253538 0 0 57546579.31181 0 0 61863086.40582298 0 0 66366439.91753474 0 0 66948014.06681436 0 0 70835433.05608149 0 0 74561620.36455394 0 0 78120044.52917255 0 0 81758346.28032215 0 0 80912500.72036693 0 0 84826809.95103562 0 0 87725576.51837082 0 0 90460555.36922053 0 0 93027936.23578191 0 0 95429322.33919719 0 0 97680165.63087887 0 0 98367557.84007829 0 0 99322316.5216396 0 0 101165067.8039358 0 0 102837560.5379311 0 0 104395827.9866782 0 0 105822776.715556 0 0 107119249.016983 0 0 106749002.5013049 0 0 107569950.4967737 0 0 108644291.6275662 0 0 107521867.2306887 0 0 108382487.2835502 0 0 108570345.3674832 0 0 109069592.8900068 0 0 109295424.1338393 0 0 109953646.7124905 0 0 110548666.1051795 0 0 111079318.6827547 0 0 110964866.8147022 0 0 111626656.9809901 0 0 111387177.7324631 0 0 111763896.8087944 0 0 112082378.3283422 0 0 112364634.7870983 0 0 112607611.2493924 0 0 112989553.1597069 0 0 112467333.1266914 0 0 113176630.8646275 0 0 112620233.9070284 0 0 112744233.7520319 0 0 112841770.2064968 0 0 112914852.2336279 0 0 112514425.3379124 0 0 113176126.6264541 0 0 112555542.3309492 0 0 112578091.8017446 0 0 112583334.0940973 0 0 112571778.5972994 0 0 112544722.9073828 0 0 112664383.0977039 0 0 112505005.0165646 0 0 112093101.3377036 0 0 112052082.209555 0 0 111993188.1020695 0 0 111930937.1866781 0 0 111846750.3975199 0 0 111733693.9755853 0 0 111830567.6627599 0 0 111335169.1626917 0 0 111242721.1374147 0 0 111146363.2088824 0 0 111045503.9970217 0 0 111114824.5731459 0 0 110685801.6690977 0 0 110585448.0483883 0 0 110481317.7621789 0 0 110373766.7638783 0 0 110263184.0253526 0 0 110149902.3215266 0 0 110033927.2377838 0 0 109916315.8330998 0 0 109613532.1806695 0 0 109955278.556559 0 0 109477769.1943779 0 0 109547939.6195042 0 0 109243324.1414584 0 0 109136303.1624275 0 0 108167348.4154196 0 0 22763801.5837018 0 0 22959566.4311964 0 0 24744131.6935013 0 0 27485609.03486297 0 0 31545292.95834628 0 0 26348806.19868068 0 0 35791380.6555839 0 0 39878245.28140371 0 0 44194463.26376929 0 0 48557221.91069198 0 0 52912728.12272368 0 0 57215446.34318834 0 0 61428116.65803743 0 0 65524801.70802284 0 0 66055316.78213362 0 0 70177293.90515544 0 0 73832920.50306924 0 0 77328356.57787608 0 0 80662867.96753913 0 0 83941062.93017061 0 0 81509642.98982456 0 0 86804134.21654165 0 0 89513541.75502008 0 0 92063276.39023378 0 0 94450890.00688353 0 0 96688448.17963068 0 0 98768214.80909546 0 0 99756589.93489869 0 0 100218783.7748392 0 0 101917821.7461916 0 0 103504824.8177592 0 0 104941592.3982532 0 0 106256704.4176244 0 0 107382697.7753412 0 0 108227240.4172407 0 0 107842987.3431182 0 0 108839282.4262244 0 0 108905646.8534951 0 0 109740007.000819 0 0 109851087.2934659 0 0 109182832.1542576 0 0 110552843.5519924 0 0 111184328.3008911 0 0 111760236.5569995 0 0 112272012.1554666 0 0 112084417.6733381 0 0 111553385.9300058 0 0 112470675.8456967 0 0 112812122.3678387 0 0 113103497.1665688 0 0 113354708.8286909 0 0 113564043.4918111 0 0 112814511.2593169 0 0 113330049.0355199 0 0 112988455.3413765 0 0 113451624.1247396 0 0 113544613.8079207 0 0 113611634.0905111 0 0 113654673.9066392 0 0 113210048.8264071 0 0 112965465.0838926 0 0 113223828.8032905 0 0 113219269.0631251 0 0 113197384.0467626 0 0 113160180.2806201 0 0 113108461.0365603 0 0 112453690.4220612 0 0 113044622.15682 0 0 112602037.3221143 0 0 112526336.2893517 0 0 112438390.0682717 0 0 112353676.9149371 0 0 112245592.0922246 0 0 112142853.3585582 0 0 111640848.7268286 0 0 111719742.9185263 0 0 111612688.2469094 0 0 111495887.0184354 0 0 111378924.5327533 0 0 110937420.3925068 0 0 111003978.096485 0 0 110889229.8903878 0 0 110771169.4155663 0 0 110650145.0890938 0 0 110526599.7121715 0 0 110400695.7937008 0 0 110272122.1178787 0 0 110141288.9388393 0 0 109833546.4039964 0 0 109800023.088187 0 0 109684641.1714539 0 0 109437548.3804849 0 0 109358319.1792407 0 0 109201898.6693953 0 0 109600649.6136294 0 0 23483936.35396563 0 0 22950051.67673519 0 0 23656062.34925519 0 0 25560624.62763307 0 0 29775986.39067677 0 0 30723498.43468101 0 0 33808833.74576689 0 0 38096897.31396716 0 0 42578572.60554375 0 0 47147063.51554604 0 0 51730665.3352102 0 0 56274563.99563942 0 0 60734216.09295243 0 0 65079761.17319596 0 0 69481590.88435587 0 0 70100525.61265981 0 0 73978698.23744135 0 0 77682158.02317628 0 0 81209786.51980776 0 0 84710562.47302037 0 0 83817024.60027397 0 0 87725682.91237848 0 0 90560377.46752405 0 0 93218637.28645775 0 0 95700379.3751291 0 0 98011725.42974903 0 0 100181023.5754563 0 0 100676413.5224816 0 0 101654484.9270687 0 0 103386862.4975312 0 0 104977164.4473373 0 0 106450722.358576 0 0 107791025.2217773 0 0 108990375.8125085 0 0 108498637.5228313 0 0 109335377.1467269 0 0 110296556.8085104 0 0 109033994.1026752 0 0 109823540.5723249 0 0 109911173.7202178 0 0 110506173.8991334 0 0 110566260.5421348 0 0 111156086.6657819 0 0 111707404.8072432 0 0 112186238.5814449 0 0 111978135.2771514 0 0 112716158.4723758 0 0 112349431.0401787 0 0 112660602.4692612 0 0 112938222.0895067 0 0 113174119.4172401 0 0 113368438.6038535 0 0 113734587.7736266 0 0 113130376.0444906 0 0 113873976.6565354 0 0 113243035.3335313 0 0 113328784.7389708 0 0 113389761.0373187 0 0 113427972.1629263 0 0 112995175.2836282 0 0 113675790.8257296 0 0 113005733.112355 0 0 112998875.8418665 0 0 112975688.7825756 0 0 112937459.2913472 0 0 112885536.4933341 0 0 112969820.571079 0 0 112821834.0776332 0 0 112392155.2140879 0 0 112322008.1852977 0 0 112242993.761084 0 0 112152229.3533261 0 0 112059628.954639 0 0 111937048.6698613 0 0 112023614.8595428 0 0 111533026.9048769 0 0 111432830.1272323 0 0 111315873.5016142 0 0 111194087.2638436 0 0 111256998.9667335 0 0 110828482.3608765 0 0 110715936.5853299 0 0 110600176.2545101 0 0 110481604.6188646 0 0 110360566.4590454 0 0 110237293.8183636 0 0 110111355.5752025 0 0 109982699.084975 0 0 109678103.3313082 0 0 110026338.1832656 0 0 109583420.2277442 0 0 109455005.1473086 0 0 109289343.0998749 0 0 109720324.5990233 0 0 24547652.42715262 0 0 23800014.23939104 0 0 25074159.64870575 0 0 26975279.06780445 0 0 29868613.60747652 0 0 34341193.40795704 0 0 28628737.66959402 0 0 38484279.48424754 0 0 42773425.00111999 0 0 47186416.30163948 0 0 51627869.04444627 0 0 56038901.77975675 0 0 60376886.81177682 0 0 64608255.8940765 0 0 68707880.05885823 0 0 69281494.85314758 0 0 73277566.87885056 0 0 76906710.45237917 0 0 80367879.29351944 0 0 83654609.08408752 0 0 86787718.43873084 0 0 84548803.94256838 0 0 89592658.24749994 0 0 92228093.51212686 0 0 94691104.5840873 0 0 96991162.92223312 0 0 99158405.77895179 0 0 101139090.1138691 0 0 102146512.7265796 0 0 102436172.7906787 0 0 104041391.1418932 0 0 105521945.8934946 0 0 106886114.5715541 0 0 108103463.0095523 0 0 109198312.1955319 0 0 110060314.5928371 0 0 109498981.0402692 0 0 110417684.2994933 0 0 110441740.0050735 0 0 111205353.1667507 0 0 111213222.0401997 0 0 110552168.900845 0 0 111844692.1890946 0 0 112413152.8874277 0 0 112923173.0392748 0 0 113367938.4760409 0 0 113097792.8701604 0 0 112591966.3040051 0 0 113428561.9224864 0 0 113711186.2588588 0 0 113951069.9120932 0 0 114149464.4870019 0 0 114308755.5845348 0 0 113526614.2635824 0 0 113982323.8951555 0 0 113655728.1824194 0 0 114062220.7331787 0 0 114116131.9826692 0 0 114145549.2101499 0 0 114152857.3022398 0 0 113676713.9966478 0 0 113445240.4247037 0 0 113658973.8090394 0 0 113624323.496875 0 0 113573821.6376179 0 0 113509553.5468049 0 0 113432588.8080283 0 0 112747587.210517 0 0 113344421.0049001 0 0 112883530.6186934 0 0 112787257.5757265 0 0 112685845.3644517 0 0 112575186.1397334 0 0 112459263.3798112 0 0 112330061.5709915 0 0 111828705.5629413 0 0 111903229.4207122 0 0 111785913.2804309 0 0 111646396.6852405 0 0 111511712.933884 0 0 111074088.4702716 0 0 111133277.122268 0 0 111006479.4026285 0 0 110876944.168355 0 0 110745096.4953139 0 0 110611271.0234492 0 0 110475869.6460561 0 0 110337264.8876223 0 0 110196051.4117218 0 0 109899249.7425305 0 0 109858242.950827 0 0 109647850.454784 0 0 109488920.2284203 0 0 109341680.9266481 0 0 111175422.1947891 0 0 25436996.46270759 0 0 26215492.64360192 0 0 23940660.83989058 0 0 25505726.91890892 0 0 27932659.43671073 0 0 32375058.49764764 0 0 33326178.45784492 0 0 36569122.23271649 0 0 41016785.59774806 0 0 45609990.63162264 0 0 50266137.60503712 0 0 54916440.76686947 0 0 59509524.76514769 0 0 64001341.34197916 0 0 68360873.22187306 0 0 72651017.15250339 0 0 73316222.51876746 0 0 77176415.18327315 0 0 80851654.69571541 0 0 84334490.17230141 0 0 87696909.55143157 0 0 86745564.59905645 0 0 90646466.69209225 0 0 93406560.23592126 0 0 95978886.96826959 0 0 98364974.29590069 0 0 100581023.1903027 0 0 102636645.2369098 0 0 102960263.1013946 0 0 103947157.089301 0 0 105584832.2670239 0 0 107094666.0379228 0 0 108479252.2232748 0 0 109711492.7700016 0 0 110819304.5703407 0 0 110188091.6332015 0 0 111018277.0859892 0 0 111908988.4084716 0 0 110507971.1093344 0 0 111222885.4751164 0 0 111209731.4635659 0 0 111897667.6137953 0 0 111798997.555998 0 0 112337155.8846193 0 0 112806843.5292657 0 0 113228489.0325635 0 0 112951964.771346 0 0 113743738.8391719 0 0 113258062.7169396 0 0 113525362.9495751 0 0 113749008.0479142 0 0 113933577.2773667 0 0 114080715.8389261 0 0 114433612.5941849 0 0 113755594.9834937 0 0 114528161.5094819 0 0 113828681.1658379 0 0 113876853.3439984 0 0 113901908.692682 0 0 113905909.880174 0 0 113443366.682029 0 0 114139910.8618359 0 0 113423777.6403857 0 0 113388154.1229657 0 0 113337527.8376945 0 0 113273146.2511045 0 0 113197032.6177348 0 0 113246072.5660197 0 0 113109878.054995 0 0 112661601.0172212 0 0 112565657.5820433 0 0 112468904.8629641 0 0 112358276.8048696 0 0 112246341.7815721 0 0 112118800.1300166 0 0 112198946.3367922 0 0 111714181.7628652 0 0 111595951.9725344 0 0 111463375.6573425 0 0 111323353.3926688 0 0 111379201.2036819 0 0 110952813.2516628 0 0 110828567.56705 0 0 110701739.6954501 0 0 110572748.0087865 0 0 110441847.0003482 0 0 110309675.6599358 0 0 110177353.4492877 0 0 110041295.2411086 0 0 109742955.8188145 0 0 110097368.4185114 0 0 109780011.3344051 0 0 109608826.6821217 0 0 109429016.593639 0 0 111218384.7471097 0 0 27296066.72030773 0 0 27313054.08456733 0 0 24717491.97665988 0 0 27459570.42624703 0 0 29584938.64653988 0 0 32628155.11834897 0 0 37206337.65899317 0 0 31320640.67825089 0 0 41433257.86389359 0 0 45823698.18930082 0 0 50302864.61679099 0 0 54795582.78643649 0 0 59242171.07424247 0 0 63599263.92354644 0 0 67837497.96946187 0 0 71925621.99437648 0 0 72562293.88829204 0 0 76419423.79097506 0 0 80014053.23682748 0 0 83429168.33119883 0 0 86652819.92625999 0 0 89658709.09004989 0 0 87617692.4776738 0 0 92388881.05222416 0 0 94939716.98541082 0 0 97312620.13534974 0 0 99523959.45016748 0 0 101596138.8354216 0 0 103478544.645575 0 0 104508579.198662 0 0 104603044.0378685 0 0 106122405.1916166 0 0 107524421.1596588 0 0 108779845.154314 0 0 109913308.0305883 0 0 110960317.2895524 0 0 111804290.1923752 0 0 111119134.2162002 0 0 111949762.6693745 0 0 111947341.7111698 0 0 112633503.3077998 0 0 112528741.8804213 0 0 111877202.8821439 0 0 113089326.4661951 0 0 113599331.1752559 0 0 114037801.7802515 0 0 114412284.1453307 0 0 114064244.2134855 0 0 113573863.4058939 0 0 114336524.4246368 0 0 114565047.3340038 0 0 114751402.8700512 0 0 114898897.0371977 0 0 115010202.7667464 0 0 114195984.4110313 0 0 114593882.4476149 0 0 114282268.8225213 0 0 114633599.4234034 0 0 114648664.3493386 0 0 114641270.7902834 0 0 114613612.1807821 0 0 114108552.153024 0 0 113890539.4770871 0 0 114060069.5654713 0 0 113996180.1772176 0 0 113917930.3128417 0 0 113827341.5333412 0 0 113726033.5192368 0 0 113012444.325742 0 0 113614314.4285215 0 0 113137812.1163101 0 0 113022436.7017662 0 0 112900762.020828 0 0 112771415.3792295 0 0 112635700.3826647 0 0 112494300.1141183 0 0 111993673.5232762 0 0 112069895.0987611 0 0 111934253.2193209 0 0 111777464.210056 0 0 111625461.0938613 0 0 111191580.8548177 0 0 111243715.5381148 0 0 111105310.8964884 0 0 110964965.0898026 0 0 110822808.1330032 0 0 110679115.3919096 0 0 110534901.5732398 0 0 110385640.086109 0 0 110193380.7888368 0 0 109984670.8310242 0 0 109951381.4483377 0 0 109791443.4399462 0 0 109632863.8804054 0 0 109481201.2333546 0 0 112706835.7771975 0 0 28840107.02495257 0 0 28120741.10876913 0 0 28768368.92506063 0 0 25942088.48574676 0 0 27928030.74778965 0 0 30740503.69611978 0 0 35231399.21735178 0 0 36213485.85481465 0 0 39530599.42545722 0 0 44072460.52594483 0 0 48746512.7868382 0 0 53470471.40866 0 0 58172342.0626611 0 0 62804764.69661476 0 0 67320829.15515354 0 0 71689334.28214078 0 0 75842459.24657869 0 0 76581741.31984118 0 0 80416334.45243926 0 0 84050660.89778562 0 0 87477353.77897644 0 0 90698027.75954607 0 0 89684746.5919116 0 0 93572460.77126978 0 0 96243974.5542388 0 0 98720645.29535717 0 0 101010345.7328009 0 0 103129858.2279603 0 0 105070610.0512567 0 0 105177385.9278702 0 0 106205759.7130266 0 0 107752958.3476339 0 0 109161013.7238861 0 0 110436378.5566304 0 0 111582724.4853504 0 0 112589254.6054178 0 0 111852792.3174284 0 0 112665666.5407106 0 0 113470686.4475944 0 0 111944594.0243325 0 0 112582098.6727274 0 0 112460753.006197 0 0 113242264.8027008 0 0 112990238.0755412 0 0 113461371.015893 0 0 113870624.8615051 0 0 114217276.7611913 0 0 113872733.9995507 0 0 114720798.0248145 0 0 114127529.5295282 0 0 114340248.7002224 0 0 114513200.0228543 0 0 114649308.4856564 0 0 114751786.1008979 0 0 115089177.4806084 0 0 114341501.8915904 0 0 115139403.1313052 0 0 114375923.6689349 0 0 114387081.8070571 0 0 114376940.6249438 0 0 114347483.8455304 0 0 113857730.7779763 0 0 114567481.5380777 0 0 113808737.8803447 0 0 113744980.6449074 0 0 113668091.2075709 0 0 113578213.1831277 0 0 113478232.149711 0 0 113493523.2226067 0 0 113368500.6761746 0 0 112905724.1541627 0 0 112793330.932792 0 0 112673807.1030813 0 0 112547626.1177547 0 0 112413811.3901991 0 0 112276452.5532688 0 0 112348808.011458 0 0 111863247.5700222 0 0 111724627.7774055 0 0 111586071.4041426 0 0 111432936.3835743 0 0 111481677.6125486 0 0 111058608.3478763 0 0 110923242.9686549 0 0 110785942.7881767 0 0 110646967.3991673 0 0 110506344.8107543 0 0 110365849.8316496 0 0 110221670.4399556 0 0 110135283.4742232 0 0 109843476.216793 0 0 109719095.5368862 0 0 109570311.8658717 0 0 112682271.8282986 0 0 30934164.1803878 0 0 29569147.84619143 0 0 27700135.10778622 0 0 30275476.69944626 0 0 32515154.39166642 0 0 35582761.96297366 0 0 40209379.77448142 0 0 34204082.12880174 0 0 44498576.70972872 0 0 48951228.00616635 0 0 53478850.12412132 0 0 58006134.65560768 0 0 62475535.34521309 0 0 66846447.50043593 0 0 71081607.38248122 0 0 75154700.27075493 0 0 75882405.49053903 0 0 79580927.97087614 0 0 83135141.29256366 0 0 86494184.15420665 0 0 89653712.00471641 0 0 92525131.85549155 0 0 90692816.40601838 0 0 95169590.86984661 0 0 97629293.22659391 0 0 99909902.19976446 0 0 102032109.9410172 0 0 103976040.7412128 0 0 105749790.2190367 0 0 106835635.0719778 0 0 106739801.6142081 0 0 108169549.4776071 0 0 109468673.5545873 0 0 110645153.750897 0 0 111705729.6826406 0 0 112615125.8530169 0 0 113469317.9827682 0 0 112681999.1315095 0 0 113423422.0532604 0 0 113395240.7008718 0 0 114012823.6139529 0 0 113804469.5888922 0 0 113157102.9147191 0 0 114296167.4429977 0 0 114728445.1939777 0 0 115093815.9944856 0 0 115395740.4094165 0 0 114981558.458427 0 0 114505435.9880655 0 0 115197181.8598929 0 0 115370194.5153508 0 0 115503761.0177515 0 0 115601285.5239211 0 0 115665331.5282227 0 0 114823020.8576985 0 0 115163926.9776751 0 0 114867270.3457147 0 0 115163653.1042485 0 0 115140919.6999337 0 0 115097588.15096 0 0 115035969.2008622 0 0 114504599.6831868 0 0 114300441.1857866 0 0 114426413.266919 0 0 114334128.2423515 0 0 114229438.4336247 0 0 114113508.2390994 0 0 113988018.3470605 0 0 113249909.835787 0 0 113853909.2727937 0 0 113364840.8010838 0 0 113230021.2643771 0 0 113088948.7878777 0 0 112941671.1826504 0 0 112788475.6146802 0 0 112632892.2753206 0 0 112137834.0595012 0 0 112204293.238829 0 0 112050508.0539939 0 0 111879456.8307331 0 0 111719829.1102242 0 0 111290312.1629567 0 0 111334794.673712 0 0 111185808.6136208 0 0 111035227.9330746 0 0 110883426.7064864 0 0 110729958.3961021 0 0 110576095.760335 0 0 110423141.9202212 0 0 110111941.0629547 0 0 109954343.2439643 0 0 109777605.6734563 0 0 109615354.7332015 0 0 114181201.5571672 0 0 33329610.56261012 0 0 31800652.64205121 0 0 30351463.25616645 0 0 29213379.57922752 0 0 30896059.63147369 0 0 33656682.57089017 0 0 38201306.47440634 0 0 39210598.94135059 0 0 42573394.2731772 0 0 47188165.47587327 0 0 51930660.35930996 0 0 56712912.6889848 0 0 61466915.88882935 0 0 66131801.87811308 0 0 70668582.40562953 0 0 75040720.91580611 0 0 79043425.3573868 0 0 79881386.39152993 0 0 83678467.02249306 0 0 87261433.56233734 0 0 90623278.31510301 0 0 93693357.38349412 0 0 92613659.29660168 0 0 96482217.65684019 0 0 99060183.50306627 0 0 101435875.7106946 0 0 103628896.0366545 0 0 105635838.5270792 0 0 107458346.2517071 0 0 107362722.7641851 0 0 108427180.4265674 0 0 109872199.4124746 0 0 111177575.5827055 0 0 112348468.3155325 0 0 113386689.8396278 0 0 114291623.9776577 0 0 113432361.8110634 0 0 114254266.3342662 0 0 114971876.5133506 0 0 113324581.5292123 0 0 113893554.4437309 0 0 113676542.6306539 0 0 114552436.0375681 0 0 114136015.194274 0 0 114536661.6824938 0 0 114873745.4040031 0 0 115156098.3729463 0 0 114748419.9244205 0 0 115645864.0742097 0 0 114948509.5364086 0 0 115108312.6411059 0 0 115230822.4098225 0 0 115319781.3074412 0 0 115376980.9351453 0 0 115699462.2395402 0 0 114886831.0809173 0 0 115707226.8480114 0 0 114883209.2384215 0 0 114858263.1709922 0 0 114813835.088999 0 0 114751917.4977175 0 0 114237294.6009917 0 0 114957531.8112824 0 0 114159689.5688248 0 0 114068791.8908918 0 0 113966180.5020302 0 0 113852534.2141597 0 0 113729438.063553 0 0 113712120.5175068 0 0 113598168.1036864 0 0 113124377.1406001 0 0 112992092.6236755 0 0 112854247.1475461 0 0 112709968.9186891 0 0 112561164.0207975 0 0 112411300.9847352 0 0 112475057.77527 0 0 111982040.7648376 0 0 111827289.2122504 0 0 111685167.8252325 0 0 111524029.650494 0 0 111565433.5576992 0 0 111145926.4029939 0 0 111000095.7789745 0 0 110852825.7356296 0 0 110704355.8084138 0 0 110554240.9278375 0 0 110406014.4556256 0 0 110233586.6681966 0 0 110054898.1630307 0 0 110266976.5194852 0 0 109867620.3675435 0 0 109711209.2400974 0 0 114080580.7722035 0 0 36076407.51158724 0 0 33834202.29216129 0 0 30880873.29876412 0 0 31436414.04775822 0 0 33340639.12988416 0 0 35573973.93988471 0 0 38568824.75062647 0 0 43257295.0069324 0 0 37147476.07942279 0 0 47591590.60420976 0 0 52089333.87714525 0 0 56656778.60790691 0 0 61214416.46009051 0 0 65709464.88597061 0 0 70090025.561573 0 0 74321659.66535178 0 0 78376822.19527146 0 0 79221642.39163433 0 0 82749064.09669019 0 0 86252478.76219948 0 0 89548642.33811788 0 0 92634976.46681103 0 0 95367351.92016703 0 0 93760943.50316985 0 0 97924118.13706569 0 0 100285938.9580264 0 0 102475858.3229569 0 0 104486444.7158745 0 0 106320257.6926597 0 0 107991258.8501366 0 0 109109733.5837321 0 0 108834218.7759754 0 0 110167417.433985 0 0 111369648.1330772 0 0 112456640.8290558 0 0 113390548.8700765 0 0 114230737.0632266 0 0 115080894.7896749 0 0 114179019.0202336 0 0 114834239.9428261 0 0 114797947.6013824 0 0 115327284.9439869 0 0 115025494.055658 0 0 114388648.8633831 0 0 115448947.724083 0 0 115800177.8672135 0 0 116093686.9953191 0 0 116329953.1173373 0 0 115848055.677302 0 0 115387305.5684535 0 0 116006670.7634645 0 0 116125012.145736 0 0 116206695.92114 0 0 116254816.7337256 0 0 116272053.4056288 0 0 115405494.6710905 0 0 115690411.0447277 0 0 115409616.5879353 0 0 115651192.9185906 0 0 115591902.4274136 0 0 115513663.2574208 0 0 115418914.9082234 0 0 114864118.2193227 0 0 114674055.9810677 0 0 114757223.9504283 0 0 114637490.8918117 0 0 114507228.9951571 0 0 114367228.7190476 0 0 114218956.0740082 0 0 113459592.0955535 0 0 114063312.2451031 0 0 113563623.2892031 0 0 113409683.4563745 0 0 113250267.5922141 0 0 113086083.4544945 0 0 112916091.7768375 0 0 112745965.5126304 0 0 112250321.4270033 0 0 112311092.5722137 0 0 112139009.3425191 0 0 111965608.8405925 0 0 111797736.3088894 0 0 111369460.8064983 0 0 111407536.3874656 0 0 111248119.6884661 0 0 111087994.595624 0 0 110927482.9607697 0 0 110763496.0442172 0 0 110607492.8715728 0 0 110429381.4836981 0 0 110083785.1567743 0 0 110223125.2425796 0 0 109912115.1967549 0 0 109743129.6407436 0 0 115587028.6870479 0 0 39160210.26405244 0 0 35679207.48168765 0 0 35140885.07591332 0 0 31343493.31337704 0 0 32140793.24872652 0 0 33854582.73132884 0 0 36552807.88902979 0 0 41190841.20849546 0 0 42190391.99970184 0 0 45622888.54711039 0 0 50303525.24462307 0 0 55113577.2682406 0 0 59959200.76374795 0 0 64764680.8548922 0 0 69469107.01866861 0 0 74025553.95386253 0 0 78398503.65571111 0 0 82241244.53082933 0 0 83193203.94129983 0 0 86943845.05134232 0 0 90464158.89076641 0 0 93752147.08659841 0 0 96676062.8451795 0 0 95511411.66284116 0 0 99365414.73120761 0 0 101840570.0564173 0 0 104118067.5413135 0 0 106197844.230522 0 0 108086488.8335034 0 0 109794358.7925573 0 0 109505874.5269719 0 0 110596626.8280836 0 0 111935798.1896474 0 0 113133493.81437 0 0 114195540.2103212 0 0 115130493.8338147 0 0 115937465.6191597 0 0 114961034.0536088 0 0 115781232.1051876 0 0 116393128.0072785 0 0 114641872.5063323 0 0 115133708.9184074 0 0 114841700.5066304 0 0 115791397.339093 0 0 115229724.0690915 0 0 115554149.9400385 0 0 115825273.4335692 0 0 116043586.8076204 0 0 115574014.0130386 0 0 116517632.7485633 0 0 115719878.5146633 0 0 115828196.7792678 0 0 115901827.6796526 0 0 115943667.2205405 0 0 115956219.1463317 0 0 116262359.6646687 0 0 115390170.7186906 0 0 116228745.702244 0 0 115349440.3688236 0 0 115289383.6571815 0 0 115211936.8471066 0 0 115118454.3623967 0 0 114581637.0967761 0 0 115309390.9603903 0 0 114476536.8648008 0 0 114359481.4156428 0 0 114231927.2624393 0 0 114095297.9375893 0 0 113950532.3906208 0 0 113901288.814671 0 0 113798765.8562058 0 0 113314729.6940484 0 0 113164175.7549581 0 0 113008605.2039896 0 0 112848274.9826261 0 0 112687656.3266885 0 0 112516882.195528 0 0 112570971.4053738 0 0 112079922.2146035 0 0 111911889.0613177 0 0 111761378.7017578 0 0 111594959.0647862 0 0 111630095.0130942 0 0 111214988.8541695 0 0 111059234.7476594 0 0 110902816.6620909 0 0 110745842.9376594 0 0 110587363.772884 0 0 110437780.7534046 0 0 110325771.0109119 0 0 110186857.8919002 0 0 110019314.2087111 0 0 109843027.5842538 0 0 115406272.343817 0 0 42553801.44119697 0 0 39737646.3886819 0 0 38945371.76650264 0 0 34020976.46588241 0 0 35157119.38450258 0 0 36352329.55934767 0 0 38476345.06911528 0 0 41425389.13510977 0 0 46261439.78092083 0 0 40035870.36878557 0 0 50636560.81014054 0 0 55180331.89939717 0 0 59791874.96483931 0 0 64389670.34755394 0 0 68911288.07825226 0 0 73305681.60243736 0 0 77535932.64886849 0 0 81576731.08772877 0 0 82561294.38110058 0 0 85900874.5609238 0 0 89347542.26108851 0 0 92575464.54076481 0 0 95582276.22482873 0 0 98175250.64785671 0 0 96803498.36041899 0 0 100633775.2783116 0 0 102904506.1013589 0 0 104989063.3727166 0 0 106889799.0524721 0 0 108617352.80792 0 0 110179693.1756271 0 0 111329647.2806927 0 0 110875819.6214509 0 0 112105965.4987158 0 0 113211054.9949796 0 0 114184231.5391842 0 0 115037728.4305033 0 0 115787991.1626469 0 0 116638403.6211527 0 0 115607173.9024595 0 0 116180127.9215671 0 0 116121530.0525366 0 0 116577853.6433172 0 0 116196724.0235152 0 0 115571711.8823242 0 0 116533233.059594 0 0 116810203.4479773 0 0 117032502.0734889 0 0 117204741.9382893 0 0 116660518.3100374 0 0 116216291.4932301 0 0 116762769.4083827 0 0 116827456.6068199 0 0 116858266.3421544 0 0 116857972.1716768 0 0 116830109.8804218 0 0 115943235.1669058 0 0 116172280.4338563 0 0 115907688.9093331 0 0 116095304.7064221 0 0 116000483.6028696 0 0 115888667.6197285 0 0 115762054.1177766 0 0 115186501.7587146 0 0 115010709.4692122 0 0 115051704.5500828 0 0 114906178.7381701 0 0 114751177.7905855 0 0 114588281.6009928 0 0 114418402.3930946 0 0 113640650.8343947 0 0 114242337.0996507 0 0 113733803.69971 0 0 113561636.0786854 0 0 113385270.5185934 0 0 113204822.1035734 0 0 113016595.911045 0 0 112830674.8383044 0 0 112337973.0307304 0 0 112389515.5404425 0 0 112209172.812516 0 0 112031654.9533258 0 0 111853503.8546351 0 0 111430523.3109135 0 0 111461425.7744331 0 0 111292382.2517461 0 0 111123579.2003186 0 0 110955920.4548409 0 0 110770413.0513859 0 0 110589897.6113595 0 0 110401255.8061288 0 0 110213181.6148086 0 0 110038630.6406489 0 0 109865495.7415854 0 0 116926044.6884192 0 0 46545936.40061597 0 0 42110955.13402171 0 0 39330079.5594681 0 0 38669144.9040463 0 0 34415518.06564 0 0 35054908.06867196 0 0 36683278.93063031 0 0 39304901.04548541 0 0 44112787.58460163 0 0 45040348.96653037 0 0 48607681.14592975 0 0 53364202.50360707 0 0 58254335.52704101 0 0 63175894.80616622 0 0 68045107.23058805 0 0 72794108.96155466 0 0 77371520.80056699 0 0 81743810.63342005 0 0 85408438.37712017 0 0 86497248.99208602 0 0 90194636.45042908 0 0 93645832.5630312 0 0 96851479.96787818 0 0 99621326.96283284 0 0 98368324.9180485 0 0 102209192.1309202 0 0 104581931.8232781 0 0 106745492.9347707 0 0 108707632.6046321 0 0 110477051.3690285 0 0 112064591.3080744 0 0 111588535.8692503 0 0 112705981.4541813 0 0 113930777.3900784 0 0 115015369.9616814 0 0 115966337.283345 0 0 116795252.0430451 0 0 117508577.5320351 0 0 116403989.5812238 0 0 117219860.8295289 0 0 117747366.6791604 0 0 115898469.655818 0 0 116316859.7246624 0 0 115944773.3640134 0 0 116960038.8978081 0 0 116258783.3045361 0 0 116510979.6152328 0 0 116716592.941217 0 0 116874371.2735395 0 0 116347136.4726434 0 0 117331348.8488528 0 0 116439792.1476862 0 0 116497744.0037651 0 0 116522709.8555211 0 0 116518522.7766752 0 0 116488580.2474334 0 0 116778293.9144329 0 0 115850500.2697974 0 0 116703701.0012695 0 0 115773892.0897643 0 0 115679704.7295562 0 0 115570302.2809531 0 0 115446506.99538 0 0 114890203.2959214 0 0 115622542.0225025 0 0 114758336.6007607 0 0 114616445.5480966 0 0 114465460.5936485 0 0 114306734.938691 0 0 114141180.9000759 0 0 114061011.282563 0 0 113969675.8010769 0 0 113477411.0103696 0 0 113309662.8397504 0 0 113137829.2330085 0 0 112962677.8393103 0 0 112783411.1028525 0 0 112593985.7420731 0 0 112639371.5049526 0 0 112161106.9803434 0 0 111988353.981442 0 0 111821500.9833107 0 0 111646820.6422289 0 0 111675135.9645185 0 0 111265901.3446486 0 0 111100823.7022785 0 0 110936048.4771389 0 0 110770472.0804331 0 0 110612377.8327129 0 0 110468559.3109321 0 0 110315901.2082557 0 0 110141270.313702 0 0 109972374.5707834 0 0 116671164.1987558 0 0 50692084.31444 0 0 46768076.05389261 0 0 44406575.55198336 0 0 43375149.33395785 0 0 38205401.05090524 0 0 38371888.90803118 0 0 39277278.89917183 0 0 41198690.22548585 0 0 44060880.15672402 0 0 49142070.51577604 0 0 42772839.15394567 0 0 53567195.84224387 0 0 58173721.9568674 0 0 62847441.67059952 0 0 67501046.17784145 0 0 72061622.041334 0 0 76476431.65959519 0 0 80710340.2699825 0 0 84734463.78753346 0 0 85885316.34828527 0 0 89020627.06309173 0 0 92404396.69209057 0 0 95556925.90157381 0 0 98479440.33186598 0 0 100937127.4181746 0 0 99810318.1154965 0 0 103298975.5244457 0 0 105466090.1303647 0 0 107441144.0892962 0 0 109231802.2213245 0 0 110847473.8113728 0 0 112299639.0646577 0 0 113481894.8827138 0 0 112849423.0147918 0 0 113974475.4131978 0 0 114967163.4015855 0 0 115839504.1843795 0 0 116596765.896687 0 0 117258529.9418527 0 0 118114878.4670171 0 0 116974602.9822305 0 0 117456371.6008801 0 0 117374437.6074243 0 0 117748190.1059409 0 0 117285021.15112 0 0 116677607.8141382 0 0 117548980.5094598 0 0 117753984.7590812 0 0 117909221.8921136 0 0 118018207.2825867 0 0 117416394.1636925 0 0 116989488.4307377 0 0 117463174.0144738 0 0 117475450.1522212 0 0 117456686.2088091 0 0 117409907.5211957 0 0 117338466.1069113 0 0 116435199.3533167 0 0 116608666.8411766 0 0 116360682.6061341 0 0 116495227.3706964 0 0 116365826.6338178 0 0 116221799.9876535 0 0 116064855.4842097 0 0 115471346.0715929 0 0 115310259.2033834 0 0 115309904.6444413 0 0 115139653.6881175 0 0 114961559.2073661 0 0 114776767.3220891 0 0 114586175.2204151 0 0 113793115.6561897 0 0 114390727.7933919 0 0 113875422.035968 0 0 113686630.1260759 0 0 113494144.1391798 0 0 113294197.5569435 0 0 113092174.8549543 0 0 112892960.3899752 0 0 112409586.5613682 0 0 112450171.4408291 0 0 112262926.6305187 0 0 112076750.7274129 0 0 111888836.0762671 0 0 111472775.3612337 0 0 111496881.3941215 0 0 111318711.4901166 0 0 111141898.241495 0 0 110964246.3629187 0 0 110754453.0902596 0 0 110535350.9514307 0 0 110344585.4203189 0 0 110162274.6324525 0 0 109983505.3352907 0 0 118192786.082798 0 0 55731363.39839761 0 0 50065260.78750388 0 0 45998013.80076545 0 0 43402385.83614801 0 0 42063833.0617624 0 0 37792911.62299822 0 0 37957086.13721222 0 0 39325961.72872048 0 0 41819490.10004589 0 0 46892685.44682491 0 0 47672021.89828251 0 0 51468957.16641325 0 0 56326555.03173976 0 0 61320389.90228257 0 0 66341623.42976582 0 0 71284829.78321192 0 0 76087300.76833335 0 0 80689019.18011366 0 0 85061977.45209725 0 0 88532354.06656277 0 0 89779810.21429978 0 0 93417467.49692735 0 0 96794604.66177277 0 0 99910358.13328309 0 0 102526166.9563551 0 0 101172755.8436091 0 0 105005106.2717509 0 0 107264527.6090276 0 0 109309520.8142647 0 0 111148627.9431984 0 0 112794541.8266704 0 0 114258138.9427671 0 0 113596338.978929 0 0 114739056.8608012 0 0 115846627.4129421 0 0 116814598.9194656 0 0 117654618.4915164 0 0 118375531.2221187 0 0 118980985.2968457 0 0 117787316.7398812 0 0 118580524.9679032 0 0 119025216.6004852 0 0 117081934.5514647 0 0 117429776.69903 0 0 116976338.0656158 0 0 118056854.5781642 0 0 117218125.2073118 0 0 117405801.5279489 0 0 117547875.3720323 0 0 117646239.33278 0 0 117065620.6481067 0 0 118085054.5125172 0 0 117106251.0757034 0 0 117114755.007814 0 0 117092278.3850946 0 0 117044275.0269123 0 0 116972642.6568148 0 0 117244657.1622757 0 0 116266875.5992789 0 0 117130839.476163 0 0 116155890.4942295 0 0 116028895.2821371 0 0 115888517.8454867 0 0 115735707.2238399 0 0 115162722.7862521 0 0 115896867.9247004 0 0 115005396.0053276 0 0 114839693.8135287 0 0 114666429.4745683 0 0 114486707.1102624 0 0 114301372.8819285 0 0 114191278.2297656 0 0 114111172.6382463 0 0 113612493.3838671 0 0 113428842.209628 0 0 113243269.0996302 0 0 113053009.4893315 0 0 112854225.8154238 0 0 112655699.7249139 0 0 112693956.083649 0 0 112226793.2283402 0 0 112044249.2706373 0 0 111862882.5683296 0 0 111679552.7211762 0 0 111701271.6724871 0 0 111298783.4542531 0 0 111124799.3011157 0 0 110950369.7734272 0 0 110773700.8416469 0 0 110632551.2320726 0 0 110456615.7036264 0 0 110273972.1858368 0 0 110092782.2217925 0 0 117864162.6545929 0 0 60676238.05471802 0 0 54186173.81548537 0 0 51998944.63212837 0 0 50083914.49101392 0 0 47607668.91063198 0 0 42158307.78664457 0 0 41291338.50107861 0 0 41857116.32049007 0 0 43564048.9977893 0 0 46355135.68729743 0 0 51824707.11678611 0 0 45275312.81147745 0 0 56331424.03837194 0 0 61030217.49237195 0 0 65795344.41377614 0 0 70525297.01870829 0 0 75140270.96006374 0 0 79585866.98992345 0 0 83827878.78760979 0 0 87837294.29586449 0 0 89179615.26753694 0 0 92094073.45132728 0 0 95410336.77111043 0 0 98485569.70761645 0 0 101319951.515614 0 0 103640204.0997645 0 0 102769814.3733022 0 0 105903446.46563 0 0 107962205.4629034 0 0 109824344.0893354 0 0 111500973.4007944 0 0 113002336.1091517 0 0 114339157.7837111 0 0 115551820.2277869 0 0 114747219.8739297 0 0 115760542.6476627 0 0 116647725.0917666 0 0 117417836.2175045 0 0 118091548.4016246 0 0 118634779.5107983 0 0 119475389.821506 0 0 118262354.0111744 0 0 118656902.8930186 0 0 118555756.8102102 0 0 118849413.2383095 0 0 118304551.6589292 0 0 117712310.8627183 0 0 118493492.6347556 0 0 118630577.7203246 0 0 118720796.3716488 0 0 118767994.2163622 0 0 118113343.446911 0 0 117704764.871547 0 0 118106243.3698495 0 0 118067738.2651594 0 0 118001022.557134 0 0 117908859.6355323 0 0 117794553.3696324 0 0 116879524.0680583 0 0 116998826.1993396 0 0 116767462.9878475 0 0 116850393.4875713 0 0 116687834.694564 0 0 116513063.5447384 0 0 116327386.3869022 0 0 115718766.9338197 0 0 115572072.2816857 0 0 115532195.8012763 0 0 115338326.4106757 0 0 115138124.2195359 0 0 114932560.1247689 0 0 114722561.9548606 0 0 113917144.1630019 0 0 114508869.830977 0 0 113988675.2737088 0 0 113785096.5656095 0 0 113574183.7511697 0 0 113361392.6498816 0 0 113147396.9150278 0 0 112937955.3853687 0 0 112462552.2789313 0 0 112496225.9074475 0 0 112298566.463568 0 0 112101516.2154292 0 0 111904682.0773398 0 0 111496651.2511957 0 0 111514292.2902787 0 0 111327867.7979959 0 0 111146223.7383052 0 0 110964830.6666105 0 0 110641428.6261717 0 0 110463761.1602 0 0 110275994.6221302 0 0 110094150.065361 0 0 119379693.0194186 0 0 66507792.7971917 0 0 60583417.0454318 0 0 53203556.36508119 0 0 50568554.0107673 0 0 48296583.49627048 0 0 45142116.72833198 0 0 40908051.18963537 0 0 40547970.02068578 0 0 41610616.46318372 0 0 43985567.97593419 0 0 49465479.06980675 0 0 49996938.55297837 0 0 54161165.03167747 0 0 59160396.97512369 0 0 64294540.96392816 0 0 69430616.98310614 0 0 74470845.00015998 0 0 79335786.37137631 0 0 83967807.06248589 0 0 88341272.46258798 0 0 91602309.27717602 0 0 93028251.39778942 0 0 96602011.75300497 0 0 99897355.23209022 0 0 102916368.0131048 0 0 105375116.0875773 0 0 103914506.1857495 0 0 107741401.5792451 0 0 109879936.2200441 0 0 111798886.5208529 0 0 113510862.754237 0 0 115027571.361536 0 0 116363287.5669205 0 0 115521384.0718421 0 0 116686900.6997734 0 0 117674698.9283724 0 0 118527299.3009752 0 0 119255429.3560447 0 0 119863832.7215783 0 0 120360407.3281077 0 0 119085002.2659356 0 0 119868858.3395607 0 0 120218782.9744492 0 0 118199870.7092983 0 0 118466582.7621332 0 0 117938793.2382676 0 0 119077686.8630093 0 0 118111833.4992503 0 0 118236370.4992006 0 0 118316905.1811731 0 0 118356997.4385433 0 0 117727280.9534353 0 0 118776417.4811433 0 0 117717130.3199458 0 0 117677855.7203088 0 0 117610795.6140334 0 0 117519610.9039626 0 0 117407470.5076864 0 0 117660710.6668802 0 0 116638387.7046615 0 0 117509475.3317163 0 0 116494265.388777 0 0 116336033.9872165 0 0 116166259.0354654 0 0 115985873.1201628 0 0 115398905.2917948 0 0 116132013.1965297 0 0 115217516.2767249 0 0 115029160.2883614 0 0 114834686.1505621 0 0 114634981.2362159 0 0 114430991.3192361 0 0 114292403.3951373 0 0 114223406.5502658 0 0 113720217.2897644 0 0 113522408.2493678 0 0 113320100.327644 0 0 113113719.9027971 0 0 112906986.1232115 0 0 112697386.7384252 0 0 112728683.9840489 0 0 112269674.632854 0 0 112077251.7618299 0 0 111885221.623229 0 0 111693348.7517291 0 0 111708574.3531539 0 0 111314428.8881148 0 0 111132702.4612046 0 0 110941924.7721094 0 0 110751313.5436997 0 0 110597500.5555693 0 0 110795237.9452911 0 0 110394427.6283413 0 0 110208157.9436025 0 0 118982568.0387069 0 0 73699664.09556973 0 0 67943914.36755948 0 0 60393120.3911172 0 0 58898807.35715797 0 0 55947783.91305161 0 0 51237643.8610624 0 0 45649398.71766941 0 0 43778607.9598841 0 0 43919400.70003963 0 0 45437615.91831191 0 0 48198171.11452481 0 0 54250600.81712674 0 0 47460301.85297263 0 0 58888520.30763197 0 0 63724092.46116687 0 0 68616802.74269712 0 0 73445503.7128966 0 0 78133317.1301129 0 0 82621661.47754522 0 0 86877808.14790954 0 0 90878280.24388328 0 0 92432890.04758769 0 0 95110524.45861804 0 0 98360534.37996112 0 0 101353286.8596136 0 0 104094606.4404701 0 0 106285241.1102918 0 0 105668348.0392469 0 0 108438982.0405235 0 0 110383581.2593241 0 0 112129648.6865579 0 0 113688043.2930404 0 0 115071471.2544925 0 0 116290444.8882786 0 0 117530157.9973615 0 0 116559136.7323509 0 0 117463797.7816154 0 0 118245064.678895 0 0 118920179.3715048 0 0 119473906.4881666 0 0 119921971.506241 0 0 120761676.887208 0 0 119468407.9554988 0 0 119777736.4716633 0 0 119660097.8028921 0 0 119871398.8877896 0 0 119249841.3180711 0 0 118675855.2437194 0 0 119368560.7047727 0 0 119438760.2200329 0 0 119465289.9666221 0 0 119452167.0718483 0 0 118749442.900864 0 0 118360343.0972129 0 0 118690491.7053135 0 0 118602524.2088161 0 0 118489736.0527219 0 0 118354429.8811933 0 0 118198714.8354115 0 0 117275876.1658536 0 0 117341669.9257837 0 0 117127806.3696381 0 0 117159854.2213186 0 0 116966180.5899617 0 0 116762143.6040887 0 0 116549008.7360331 0 0 115928439.3770928 0 0 115796135.4043333 0 0 115718101.9806532 0 0 115501925.857589 0 0 115280871.0411265 0 0 115055856.4369143 0 0 114827724.3580792 0 0 114013078.0652241 0 0 114596957.3000966 0 0 114073734.0052193 0 0 113857547.0143709 0 0 113627714.7577805 0 0 113400525.6204903 0 0 113178335.4555563 0 0 112960055.0050911 0 0 112494352.5110501 0 0 112520479.1743107 0 0 112313175.3087952 0 0 112106541.04772 0 0 111901645.7814836 0 0 111502000.6393725 0 0 111513409.5437496 0 0 111319981.1095973 0 0 111130659.9310172 0 0 110920873.3532436 0 0 110570520.5129313 0 0 110722320.438863 0 0 110383818.1217307 0 0 110198336.87964 0 0 120485380.0889443 0 0 81391509.33388448 0 0 73774646.69016825 0 0 68870999.08516541 0 0 58894694.72750862 0 0 56866482.62486392 0 0 52935831.87113836 0 0 47713290.6351084 0 0 43550103.03524549 0 0 42676273.50436859 0 0 43420556.67131882 0 0 45693852.09988714 0 0 51777830.40347007 0 0 51946051.13220937 0 0 56656390.31620988 0 0 61842941.58370782 0 0 67153197.87243068 0 0 72441774.24174142 0 0 77598139.28038833 0 0 82531339.88833232 0 0 87200361.22765164 0 0 91574655.47062796 0 0 94613098.78590102 0 0 96233060.6531187 0 0 99734859.24535438 0 0 102943161.1698752 0 0 105859618.9793882 0 0 108158513.9278502 0 0 106590393.1667148 0 0 110404559.5203942 0 0 112415078.0426947 0 0 114203291.7729163 0 0 115782276.0675929 0 0 117166573.9694256 0 0 118370680.4365818 0 0 117356605.0815074 0 0 118541311.4473983 0 0 119409184.9138689 0 0 120146123.7632201 0 0 120760504.2257264 0 0 121259960.4331818 0 0 121648973.6329161 0 0 120288178.5138549 0 0 121077556.774993 0 0 121325305.9075242 0 0 119236727.1574269 0 0 119430279.2264312 0 0 118832482.509859 0 0 120023318.4207135 0 0 118939358.0859474 0 0 119000988.6131579 0 0 119021659.9954884 0 0 119004813.3559672 0 0 118330437.3038956 0 0 119403567.1173913 0 0 118271210.8584785 0 0 118185297.7785558 0 0 118075066.031746 0 0 117942909.6309136 0 0 117792465.7479377 0 0 118025787.0982549 0 0 116964916.1188638 0 0 117838431.7181711 0 0 116788927.6587977 0 0 116601381.4465551 0 0 116403540.3226276 0 0 116196669.1297332 0 0 115598629.9204543 0 0 116327847.266474 0 0 115394489.971596 0 0 115184705.7717289 0 0 114970211.8473528 0 0 114751863.9294282 0 0 114530401.2074435 0 0 114364384.1266242 0 0 114306303.6727921 0 0 113801003.6107249 0 0 113583613.712917 0 0 113367317.8089561 0 0 113151922.4995392 0 0 112934906.7500951 0 0 112717895.0151611 0 0 112741489.6318414 0 0 112291587.2238662 0 0 112089779.6493509 0 0 111888471.8192265 0 0 111688401.6716144 0 0 111697533.2235015 0 0 111311306.2587304 0 0 111122008.263233 0 0 110939427.2870028 0 0 110825945.4631731 0 0 110509118.7364706 0 0 110683289.2733682 0 0 110315749.6849236 0 0 120020241.8650559 0 0 85650452.91295411 0 0 81908733.62910637 0 0 69071828.76792945 0 0 67674597.32495908 0 0 60093627.05983902 0 0 54146420.49799595 0 0 48907424.08921109 0 0 45645242.4627481 0 0 45336212.16961593 0 0 46683508.09733274 0 0 49506696.54425634 0 0 56381525.30900441 0 0 49258187.53506766 0 0 61217710.7317955 0 0 66242870.47799268 0 0 71297091.01368 0 0 76255449.20614952 0 0 81037102.9824869 0 0 85580019.08990194 0 0 89858131.71265382 0 0 93852169.96473023 0 0 95633788.48793493 0 0 98065889.2973329 0 0 101244312.9032632 0 0 104153519.2170955 0 0 106795745.7034221 0 0 108855009.1123198 0 0 108496194.8820337 0 0 110894366.5037928 0 0 112721110.7902237 0 0 114346852.0207557 0 0 115784887.9864597 0 0 117047041.0289875 0 0 118146557.2494163 0 0 119408831.6687882 0 0 118281819.6987243 0 0 119076986.6527617 0 0 119754990.8235496 0 0 120321295.7457718 0 0 120771321.2785203 0 0 121125179.1291184 0 0 121947607.7334703 0 0 120587493.3654918 0 0 120813422.2711845 0 0 120681171.5791684 0 0 120812782.7752818 0 0 120122052.4642409 0 0 119567664.0366918 0 0 120171604.5396115 0 0 120176039.8225645 0 0 120140792.0758405 0 0 120069402.7678754 0 0 119323746.7516565 0 0 118954512.5319458 0 0 119214035.8439113 0 0 119078728.2078784 0 0 118921755.2486506 0 0 118744799.7102105 0 0 118550608.3141206 0 0 117624194.0862442 0 0 117637027.2434709 0 0 117441179.3868075 0 0 117423602.0872855 0 0 117200910.7725834 0 0 116969249.6348061 0 0 116729866.3012652 0 0 116100405.3628849 0 0 115982327.2142642 0 0 115867612.8182795 0 0 115630492.2212728 0 0 115389999.6723919 0 0 115146935.9652521 0 0 114902090.5479088 0 0 114080718.5616659 0 0 114655391.5194748 0 0 114130050.4342042 0 0 113895846.7985359 0 0 113654104.9633194 0 0 113421964.8560247 0 0 113190276.7357378 0 0 112960620.7736617 0 0 112505031.4764588 0 0 112523602.8704527 0 0 112307575.7293671 0 0 112092030.4790014 0 0 111880414.1314826 0 0 111488875.7210234 0 0 111494337.0675817 0 0 111294890.8482757 0 0 111105143.558442 0 0 110886006.062389 0 0 110487482.9687773 0 0 110683851.5549824 0 0 110296167.1862594 0 0 121504138.8669446 0 0 100171025.9200821 0 0 84808319.72450724 0 0 80835466.94444951 0 0 67480609.51062372 0 0 64733953.61800437 0 0 57186099.03833127 0 0 49558754.57177065 0 0 45657559.09531739 0 0 44224555.99546961 0 0 44606583.83870731 0 0 46847410.78579948 0 0 53799346.26015558 0 0 53487772.40307245 0 0 58932676.42789314 0 0 64364917.49829032 0 0 69907494.26053056 0 0 75378584.58915925 0 0 80663290.57230024 0 0 85676665.38994375 0 0 90383816.9422897 0 0 94755195.33649541 0 0 97553744.71833943 0 0 99384618.47944336 0 0 102817736.9975789 0 0 105923278.6316031 0 0 108729187.5721379 0 0 110866111.7717824 0 0 109189528.0603732 0 0 112983498.8522583 0 0 114859144.6662468 0 0 116511213.0476695 0 0 117953688.6879578 0 0 119201235.698246 0 0 120271436.5008917 0 0 119096280.7524738 0 0 120295582.4021515 0 0 121043108.9385858 0 0 121662270.0526001 0 0 122163367.9570267 0 0 122556048.7867856 0 0 122840893.4086885 0 0 121407701.9438524 0 0 122175337.296589 0 0 122339982.9555176 0 0 120198302.7888438 0 0 120317219.6522906 0 0 119655583.7589681 0 0 120889701.7804369 0 0 119697704.3085095 0 0 119697925.0805044 0 0 119660653.6755137 0 0 119589347.1365226 0 0 118874439.4286653 0 0 119965627.7843579 0 0 118767556.3724729 0 0 118636934.9496973 0 0 118484343.6044091 0 0 118312481.4472606 0 0 118124888.0224899 0 0 118341040.5523493 0 0 117246092.6763416 0 0 118118592.8147311 0 0 117039821.1589225 0 0 116823943.9334969 0 0 116599715.4783371 0 0 116368211.6596527 0 0 115761942.315134 0 0 116484527.4565717 0 0 115536296.5254556 0 0 115306464.1810986 0 0 115073321.1419781 0 0 114837681.5220619 0 0 114600263.9078131 0 0 114407477.2831204 0 0 114361576.9807494 0 0 113857382.1451938 0 0 113619047.1481639 0 0 113391187.801732 0 0 113164052.1059004 0 0 112941528.1086594 0 0 112716980.0604692 0 0 112733046.3824552 0 0 112292865.7916449 0 0 112081810.3121781 0 0 111872763.79257 0 0 111664531.8640499 0 0 111669214.5789492 0 0 111291466.1430489 0 0 111098938.0250015 0 0 110926069.7777829 0 0 110758821.6391492 0 0 110600192.5784844 0 0 110415780.382423 0 0 120977236.1624118 0 0 96784047.15672232 0 0 81344547.52194332 0 0 78972626.57051463 0 0 63909063.00452651 0 0 67368462.02996485 0 0 55325120.9549793 0 0 51470386.21873284 0 0 46738251.34897926 0 0 45932213.44825127 0 0 47172228.3515288 0 0 50264099.10476373 0 0 58197105.65705653 0 0 50652070.34149478 0 0 63306418.13864803 0 0 68578760.08190602 0 0 73844786.27951899 0 0 78968360.12631083 0 0 83854517.19083193 0 0 88463305.72605295 0 0 92770225.24182492 0 0 96760093.2629247 0 0 98791666.17430802 0 0 100954623.9187685 0 0 104061220.0254018 0 0 106874795.0233689 0 0 109416254.6455812 0 0 111341498.0204634 0 0 111241415.2525071 0 0 113261144.5875496 0 0 114966146.6313449 0 0 116468968.6722566 0 0 117782860.37374 0 0 118921618.8269788 0 0 119901020.3505057 0 0 121180905.7739024 0 0 119908644.2496463 0 0 120594270.4902764 0 0 121161897.8874456 0 0 121623421.693156 0 0 121978655.1050102 0 0 122234025.1983981 0 0 123035629.3051483 0 0 121617341.2298625 0 0 121763839.312047 0 0 121617098.8030982 0 0 121672267.1206768 0 0 120917404.2544695 0 0 120384508.106317 0 0 120899566.7877698 0 0 120840585.2078761 0 0 120746009.2624238 0 0 120618374.8411598 0 0 119833670.1547683 0 0 119487621.7445192 0 0 119675861.6192639 0 0 119495692.4009542 0 0 119296148.4933074 0 0 119079549.2768332 0 0 118848267.6653702 0 0 117922591.6423206 0 0 117885314.349311 0 0 117707203.6891271 0 0 117642149.8051967 0 0 117391437.7919359 0 0 117133635.4206536 0 0 116870365.4917621 0 0 116234679.1315811 0 0 116130817.279608 0 0 115980909.4501223 0 0 115724314.9074521 0 0 115465848.6933222 0 0 115206035.8935167 0 0 114945970.5532275 0 0 114118271.751378 0 0 114684146.6572255 0 0 114169353.5185202 0 0 113914222.8671941 0 0 113659183.5588859 0 0 113419165.7760047 0 0 113178576.6802656 0 0 112938843.5091233 0 0 112494368.1965406 0 0 112505883.1050251 0 0 112281973.3337401 0 0 112058368.5877628 0 0 111840610.0791027 0 0 111458496.4184242 0 0 111459622.5706041 0 0 111253374.0009887 0 0 111061859.1599668 0 0 110821461.0754546 0 0 110591180.8456769 0 0 110388205.1545099 0 0 122432913.9252305 0 0 95730232.52382028 0 0 79106185.17528977 0 0 64891767.93952435 0 0 77982085.19561873 0 0 60931151.18847042 0 0 50159711.12042547 0 0 47265497.7803718 0 0 44995623.69969122 0 0 45008059.54356924 0 0 47448287.58675122 0 0 55514613.50483025 0 0 54599045.01790936 0 0 60987558.87287784 0 0 66735162.50249764 0 0 72560203.95776863 0 0 78254195.56489779 0 0 83675562.92429607 0 0 88776781.75782649 0 0 93523093.04172504 0 0 97891958.08843388 0 0 100428304.6566038 0 0 102484542.3638746 0 0 105831282.039592 0 0 108834788.6289413 0 0 111516419.6458316 0 0 113483595.2483373 0 0 111699985.5917606 0 0 115466394.9404278 0 0 117201978.0449625 0 0 118713978.7749884 0 0 120014825.651408 0 0 121122265.636589 0 0 122058711.8791283 0 0 120734792.5817045 0 0 121943374.7226641 0 0 122568316.5967241 0 0 123069312.3699334 0 0 123455058.9323951 0 0 123741324.2646929 0 0 123931971.1406288 0 0 122435328.1245821 0 0 123184694.2982286 0 0 123258657.5435942 0 0 121078227.0816045 0 0 121125616.0627586 0 0 120405749.5640031 0 0 121675831.6115621 0 0 120384811.0844707 0 0 120325637.4799254 0 0 120231915.1258099 0 0 120107914.0185638 0 0 119358835.3537501 0 0 120462210.4434948 0 0 119206242.5807732 0 0 119032062.8643347 0 0 118839151.6396119 0 0 118630132.4046615 0 0 118406953.5343112 0 0 118604175.7694485 0 0 117481571.0657405 0 0 118349316.8752162 0 0 117247107.8067274 0 0 117004332.3394554 0 0 116754888.8877299 0 0 116500297.1673437 0 0 115888889.5116189 0 0 116602402.2759364 0 0 115643138.7893147 0 0 115394661.887245 0 0 115144232.1552415 0 0 114892455.4809213 0 0 114640498.7505584 0 0 114410475.4211143 0 0 114391940.0623558 0 0 113876136.4042714 0 0 113629202.7545659 0 0 113397588.8367448 0 0 113160486.5254101 0 0 112926803.3192361 0 0 112694770.3127981 0 0 112701959.4260205 0 0 112273575.0790019 0 0 112053933.2363354 0 0 111838815.5921722 0 0 111624172.7626673 0 0 111624292.3802942 0 0 111255009.7913414 0 0 111061037.6668935 0 0 110863011.1206513 0 0 110703159.0991868 0 0 110510977.3348321 0 0 121849453.3713325 0 0 92806282.43536849 0 0 72778611.98051459 0 0 77801066.1889337 0 0 55892108.01555059 0 0 60345800.44214519 0 0 52518341.90284768 0 0 46866424.0697512 0 0 45555406.78356802 0 0 46950365.17025782 0 0 50449992.41273336 0 0 59693555.79723274 0 0 51603809.05177251 0 0 65163858.64411331 0 0 70763026.23748086 0 0 76285713.24044551 0 0 81588502.58947283 0 0 86596938.14807637 0 0 91280007.30668768 0 0 95617158.35711981 0 0 99605129.7804779 0 0 101894181.1611365 0 0 103771086.3337004 0 0 106791322.3682088 0 0 109515212.0423129 0 0 111949244.5791189 0 0 113734184.7057079 0 0 113896939.8507457 0 0 115532075.9951609 0 0 117111295.0543257 0 0 118486967.7978083 0 0 119674306.1589538 0 0 120689362.6018515 0 0 121549449.7595858 0 0 122840973.5345967 0 0 121433299.7314817 0 0 122006533.8878766 0 0 122466387.5765985 0 0 122821862.8993775 0 0 123090321.4581589 0 0 123254950.000145 0 0 124029938.6588401 0 0 122558754.3550388 0 0 122624023.0442304 0 0 122466408.9172549 0 0 122446084.1683987 0 0 121634280.4256815 0 0 121124436.4011217 0 0 121551527.2224338 0 0 121431341.8799002 0 0 121278994.5585748 0 0 121097555.512816 0 0 120280337.0972897 0 0 119957319.3101052 0 0 120076935.255031 0 0 119853475.6001447 0 0 119613039.9083508 0 0 119359036.1608767 0 0 119092568.6832555 0 0 118171613.2977887 0 0 118086325.5782873 0 0 117926025.5979414 0 0 117815180.216659 0 0 117538187.6406614 0 0 117256075.8887093 0 0 116970610.4156104 0 0 116331578.9170014 0 0 116241695.737106 0 0 116058290.9204421 0 0 115783790.3079737 0 0 115508789.4779757 0 0 115233550.3794468 0 0 114959175.7131794 0 0 114141751.2739442 0 0 114686381.9022422 0 0 114164289.5932203 0 0 113901535.9808259 0 0 113645261.196143 0 0 113393222.284626 0 0 113143406.387345 0 0 112897639.6987944 0 0 112462947.0376473 0 0 112466988.7191378 0 0 112234470.4510796 0 0 112006040.2760384 0 0 111782944.3718411 0 0 111416017.0009706 0 0 111409513.503626 0 0 111203240.144697 0 0 111025378.7537925 0 0 110670881.3975642 0 0 110468573.6519322 0 0 123270199.4058086 0 0 72438296.65402378 0 0 88589221.00997648 0 0 58703374.79189521 0 0 68671115.20415467 0 0 49921009.93192376 0 0 47845350.65299003 0 0 44711944.44969855 0 0 44723096.25925123 0 0 47456189.76041085 0 0 56920859.32389035 0 0 55274534.52756444 0 0 62834018.42483769 0 0 68979522.76787351 0 0 75148840.15717506 0 0 81069301.61351459 0 0 86647338.53477308 0 0 91840261.85801782 0 0 96616821.97192518 0 0 100985779.5101752 0 0 103234729.3154738 0 0 105528917.8355936 0 0 108768609.6700379 0 0 111654406.9360506 0 0 114212413.5705466 0 0 116004442.5885793 0 0 114116341.6243449 0 0 117840491.9268014 0 0 119431221.7917522 0 0 120792138.0310226 0 0 121952279.1255053 0 0 122926149.4288869 0 0 123731839.9089548 0 0 122265480.5212185 0 0 123476273.0548802 0 0 123977802.0183496 0 0 124364485.0737007 0 0 124636553.2088089 0 0 124814575.1254526 0 0 124911363.7227204 0 0 123365018.8091682 0 0 124090865.2202538 0 0 124081602.46102 0 0 121876004.0533148 0 0 121853297.7287785 0 0 121081208.4335628 0 0 122378689.4693427 0 0 120999497.0513835 0 0 120883171.7473785 0 0 120735336.0417335 0 0 120561086.4577267 0 0 119781828.6628492 0 0 120891020.8762068 0 0 119585613.4526812 0 0 119370901.9130207 0 0 119139615.4312511 0 0 118894803.5422605 0 0 118638133.80155 0 0 118816033.4768096 0 0 117671790.8110124 0 0 118531062.7658404 0 0 117410506.644338 0 0 117142388.4414533 0 0 116869872.5250596 0 0 116593320.5816946 0 0 115979814.7975769 0 0 116681970.9890864 0 0 115715397.2548781 0 0 115449703.7995973 0 0 115183298.5142637 0 0 114916877.1013212 0 0 114651113.0247153 0 0 114397518.1399231 0 0 114386351.0266683 0 0 113876891.4899362 0 0 113623475.3936392 0 0 113379364.0322732 0 0 113133751.131665 0 0 112891061.2142491 0 0 112648963.2865508 0 0 112651123.3362634 0 0 112234609.3587355 0 0 112008832.4293119 0 0 111787063.2704334 0 0 111566736.5141322 0 0 111562923.2145957 0 0 111209471.6272725 0 0 111009770.7940682 0 0 110825859.2326375 0 0 110838870.9201666 0 0 110612035.0345522 0 0 122634419.6988286 0 0 83366469.02283198 0 0 59991851.63879271 0 0 68252490.60788797 0 0 53104020.00668916 0 0 45833778.30938437 0 0 44411349.36229967 0 0 45934388.17102401 0 0 50046747.08421887 0 0 60897518.82903146 0 0 52078765.5060955 0 0 66825885.70864344 0 0 72831249.58862555 0 0 78645115.81913692 0 0 84139106.37919018 0 0 89282849.31440726 0 0 94044200.20099738 0 0 98412175.24191818 0 0 102393132.2220781 0 0 104950583.367113 0 0 106512578.7594321 0 0 109448983.2082504 0 0 112069425.9734559 0 0 114387150.2816535 0 0 116026408.6951901 0 0 116456542.0712505 0 0 117696555.8076756 0 0 119145103.1640272 0 0 120392170.3598207 0 0 121453544.6594805 0 0 122345329.4883724 0 0 123085419.1679986 0 0 124377126.3370201 0 0 122848717.6451139 0 0 123311547.1734595 0 0 123669348.3425541 0 0 123923765.1245519 0 0 124087855.8505037 0 0 124171198.9978426 0 0 124930501.6778569 0 0 123406731.3361907 0 0 123394330.691515 0 0 123226017.8510693 0 0 123133660.0799833 0 0 122271024.3566899 0 0 121785845.8450994 0 0 122125905.4963782 0 0 121947113.394327 0 0 121739168.7040489 0 0 121506601.8968348 0 0 120662615.2614813 0 0 120363028.3183262 0 0 120415280.6460989 0 0 120151069.7888467 0 0 119872701.2546358 0 0 119583398.3123708 0 0 119284020.0184059 0 0 118371844.0051082 0 0 118240355.6268978 0 0 118097589.1982122 0 0 117942933.9354143 0 0 117641324.5577035 0 0 117336860.2384774 0 0 117030530.842029 0 0 116391934.5627221 0 0 116314994.2352355 0 0 116100515.325312 0 0 115809526.0058102 0 0 115519507.5843659 0 0 115229934.6939651 0 0 114942691.4251939 0 0 114123801.0822308 0 0 114655902.9936483 0 0 114136025.1109908 0 0 113868343.5008399 0 0 113605485.6260589 0 0 113344092.1488591 0 0 113085498.4349112 0 0 112831702.2173715 0 0 112410621.1943827 0 0 112408824.7763151 0 0 112170596.8285287 0 0 111936483.9621488 0 0 111706291.8059697 0 0 111352674.7070701 0 0 111327911.583358 0 0 111074879.9978916 0 0 111033717.8679219 0 0 110714327.1340206 0 0 110542683.5884832 0 0 124013262.371365 0 0 61465864.94972926 0 0 76681892.23445532 0 0 47725037.88257428 0 0 47695765.87424552 0 0 43651154.06857155 0 0 43626692.02839 0 0 46771952.33826498 0 0 58050390.22997512 0 0 55531460.65776662 0 0 64504579.83615514 0 0 71180113.06597959 0 0 77714297.48765625 0 0 83861588.54316881 0 0 89599965.90855575 0 0 94880993.92539097 0 0 99687685.45257643 0 0 104030036.876751 0 0 105974689.061486 0 0 108484602.6819537 0 0 111622126.0580221 0 0 114385290.4110139 0 0 116800847.8231386 0 0 118411718.5064203 0 0 116429933.0964291 0 0 120096831.7876841 0 0 121533052.9070281 0 0 122747221.8530278 0 0 123773943.8246054 0 0 124605853.7347944 0 0 125269649.8288944 0 0 123681550.8813223 0 0 124887388.2378892 0 0 125269566.1200564 0 0 125541536.7055313 0 0 125703806.2605839 0 0 125774957.6264061 0 0 125782940.0971829 0 0 124196947.6417637 0 0 124898838.5879871 0 0 124806119.2853933 0 0 122589350.873338 0 0 122499481.4095701 0 0 121680474.2827979 0 0 122997707.2901525 0 0 121539899.8961656 0 0 121369120.3524437 0 0 121170327.4535087 0 0 120948349.3781882 0 0 120143915.9721199 0 0 121252596.1198201 0 0 119905891.0494713 0 0 119652513.7087411 0 0 119384822.8156955 0 0 119106190.0093975 0 0 118818616.856375 0 0 118977006.7421483 0 0 117816048.6383307 0 0 118664005.3335521 0 0 117530075.3519774 0 0 117238951.0811629 0 0 116945110.5089329 0 0 116648856.512534 0 0 116034687.342472 0 0 116723095.0821522 0 0 115753540.3354189 0 0 115471871.9979337 0 0 115190799.2966862 0 0 114910931.3626771 0 0 114633351.8839649 0 0 114358286.721218 0 0 114358690.7984264 0 0 113852161.1381845 0 0 113594000.7022325 0 0 113338184.8911956 0 0 113084710.3355493 0 0 112834873.6230723 0 0 112584680.2207621 0 0 112579654.2373745 0 0 112175388.0520172 0 0 111944175.6087935 0 0 111716790.1527643 0 0 111491998.8204986 0 0 111480353.722769 0 0 111145871.8758342 0 0 110882847.3397832 0 0 110668761.0208342 0 0 110886180.0827742 0 0 123329651.1803178 0 0 67815207.34061001 0 0 55302317.5676425 0 0 43322281.34497898 0 0 41938794.91160386 0 0 44168037.97040024 0 0 49156420.7500812 0 0 61857251.09384732 0 0 52126311.77719487 0 0 68401910.95895717 0 0 74825718.89053167 0 0 80933549.01607849 0 0 86654671.85504304 0 0 91938478.66331212 0 0 96771635.69471154 0 0 101163395.9747856 0 0 105127892.6527226 0 0 107932227.2155883 0 0 109177325.186751 0 0 112018450.2162844 0 0 114526331.864941 0 0 116727461.541428 0 0 118210859.150879 0 0 118898421.3627579 0 0 119750951.6487328 0 0 121064329.7415965 0 0 122174398.6011164 0 0 123109193.539883 0 0 123885202.7052459 0 0 124501297.4400249 0 0 125783357.6370389 0 0 124150891.2391778 0 0 124506983.7505827 0 0 124760043.1241881 0 0 124916262.0028648 0 0 124982481.2956881 0 0 124985624.6263296 0 0 125719418.2935688 0 0 124160153.7703115 0 0 124072565.111671 0 0 123894577.6795816 0 0 123731980.3935284 0 0 122825352.7089505 0 0 122368761.9597844 0 0 122620299.6188059 0 0 122386277.5498694 0 0 122126887.778209 0 0 121846643.1457229 0 0 120980313.1411952 0 0 120704769.3296882 0 0 120691433.4012084 0 0 120389083.3253527 0 0 120074817.5555406 0 0 119752228.5575317 0 0 119422711.0796573 0 0 118523538.3095483 0 0 118346498.6443119 0 0 118222593.0363734 0 0 118025204.670817 0 0 117701421.401178 0 0 117376806.8366888 0 0 117051533.1122285 0 0 116415735.9606422 0 0 116352032.274371 0 0 116108251.3192632 0 0 115802227.8598035 0 0 115498679.8490038 0 0 115196139.2062745 0 0 114898423.3376721 0 0 114091510.5399661 0 0 114602811.9681734 0 0 114087302.1703571 0 0 113812966.0242303 0 0 113541117.2208073 0 0 113271438.9772078 0 0 113006340.5203002 0 0 112746131.5591175 0 0 112339873.1113862 0 0 112331548.9524091 0 0 112088345.914565 0 0 111848695.3707112 0 0 111613928.476192 0 0 111270553.5574163 0 0 111248962.3330862 0 0 111022582.4746101 0 0 110610092.2330681 0 0 110774949.5010184 0 0 124660835.0633275 0 0 51956329.24161105 0 0 43242187.03064045 0 0 45669115.78889219 0 0 40732542.3144542 0 0 41545515.04588694 0 0 45196920.48255738 0 0 58906639.17520776 0 0 55345679.88878078 0 0 66202587.53561524 0 0 73358621.99711694 0 0 80244926.17708392 0 0 86662956.9365837 0 0 92556180.64184177 0 0 97924046.41728018 0 0 102738868.3877379 0 0 107043894.4564703 0 0 108647872.7595036 0 0 111370315.3377907 0 0 114384767.3161854 0 0 117010827.9762584 0 0 119277763.1915282 0 0 120701624.6115596 0 0 118638603.6805574 0 0 122229355.0190707 0 0 123502417.9639713 0 0 124572274.5400363 0 0 125452272.0031677 0 0 126145862.3067537 0 0 126674578.7828935 0 0 124977636.6157874 0 0 126169386.3649656 0 0 126437573.2986768 0 0 126593428.4287765 0 0 126655128.1988485 0 0 126633939.1254911 0 0 126543696.462902 0 0 124928928.5573389 0 0 125602005.671816 0 0 125431134.0198316 0 0 123216717.0833506 0 0 123061312.7020299 0 0 122203252.9330274 0 0 123531438.8067247 0 0 122005851.8465132 0 0 121782206.7493838 0 0 121535165.8679596 0 0 121267575.3921326 0 0 120443679.1531212 0 0 121547592.4346757 0 0 120166478.8261863 0 0 119876676.7025442 0 0 119575447.8666584 0 0 119265226.550478 0 0 118948700.8331982 0 0 119087690.5431925 0 0 117915890.8575499 0 0 118748655.9891079 0 0 117606469.713422 0 0 117294465.3929807 0 0 116980935.3615874 0 0 116666916.0437643 0 0 116054366.3820707 0 0 116726940.6748595 0 0 115757516.889769 0 0 115461673.6481098 0 0 115167749.1655406 0 0 114876352.950785 0 0 114585923.4529189 0 0 114297168.6390629 0 0 114298366.7063504 0 0 113804971.7097395 0 0 113537796.5421828 0 0 113274007.6385039 0 0 113014355.4944715 0 0 112755922.4282556 0 0 112501103.6218583 0 0 112489410.4903736 0 0 112100233.1956557 0 0 111863123.1832355 0 0 111629432.3437303 0 0 111401025.1179548 0 0 111386807.4347235 0 0 111044251.5227929 0 0 110857525.1082461 0 0 110736271.514912 0 0 123934964.664592 0 0 61881119.0201954 0 0 49055309.99853763 0 0 40535253.30310589 0 0 38217737.54369972 0 0 41771751.48350421 0 0 48029510.3516032 0 0 62840672.18026393 0 0 51750042.73072998 0 0 69911728.79407725 0 0 76787244.70938598 0 0 83238590.21739365 0 0 89177206.09739341 0 0 94596470.1765341 0 0 99491369.74218205 0 0 103888299.0803507 0 0 107797704.9755031 0 0 110841072.8577914 0 0 111760049.965749 0 0 114498420.7603465 0 0 116888283.0505609 0 0 118957827.0187572 0 0 120287722.6406857 0 0 121218704.5951765 0 0 121681262.0737994 0 0 122852406.4364362 0 0 123828965.600436 0 0 124648267.6117594 0 0 125299741.5647262 0 0 125790023.2506515 0 0 127057217.452467 0 0 125333336.777649 0 0 125582350.0244677 0 0 125732067.5992528 0 0 125794061.9171073 0 0 125775862.6593436 0 0 125695689.8851946 0 0 126400057.706185 0 0 124816442.2497176 0 0 124655838.4601588 0 0 124470687.9087963 0 0 124241700.8636236 0 0 123297568.2744617 0 0 122870353.6848704 0 0 123035658.8898995 0 0 122748567.0808187 0 0 122441073.0268708 0 0 122116174.1156328 0 0 121233053.6092899 0 0 120981860.5284248 0 0 120905288.2103214 0 0 120567150.1355757 0 0 120220212.0867291 0 0 119867053.9782977 0 0 119509470.0150289 0 0 118626870.689417 0 0 118406777.5340718 0 0 118300916.7735353 0 0 118063386.584979 0 0 117719660.5456623 0 0 117376411.6281866 0 0 117034127.7058563 0 0 116403441.4226861 0 0 116353210.2486831 0 0 116081672.9490108 0 0 115764045.7613394 0 0 115450586.8167586 0 0 115135214.1409941 0 0 114828008.36859 0 0 114027639.314132 0 0 114519977.9690273 0 0 114014314.7850728 0 0 113732369.9051329 0 0 113453807.6351012 0 0 113178499.1100453 0 0 112907142.7843482 0 0 112641887.3446317 0 0 112251790.7554146 0 0 112237165.306518 0 0 111989062.4944715 0 0 111744859.2478612 0 0 111512986.7320078 0 0 111168910.0567959 0 0 111150086.8468981 0 0 110896922.8856995 0 0 110667732.0500769 0 0 125212465.1096378 0 0 46660877.44136808 0 0 39710358.64584219 0 0 38690029.25972723 0 0 38667851.79843321 0 0 42286620.7512491 0 0 60077101.3874876 0 0 55050207.30316528 0 0 67961770.20105577 0 0 75536284.82763226 0 0 82863197.94580244 0 0 89510603.60055353 0 0 95557947.07740733 0 0 100986694.6327191 0 0 105779395.5375532 0 0 110010027.1282016 0 0 111251216.3598122 0 0 114166359.4825921 0 0 117044624.7221387 0 0 119517438.1530254 0 0 121631039.7767581 0 0 122858543.7947938 0 0 120733450.0859509 0 0 124220771.0304293 0 0 125345433.6198795 0 0 126257810.0760878 0 0 126985938.038576 0 0 127546019.9481318 0 0 127939450.0596438 0 0 126152227.3261433 0 0 127323568.5789042 0 0 127477905.9831362 0 0 127521604.2577977 0 0 127484604.0521912 0 0 127371053.4350848 0 0 127196158.3344037 0 0 125561835.9775381 0 0 126199889.6697963 0 0 125954527.8455797 0 0 123755352.1684237 0 0 123537809.6705064 0 0 122647305.4802607 0 0 123979561.0118246 0 0 122396973.2868578 0 0 122123689.0772795 0 0 121830393.2614244 0 0 121519347.5944077 0 0 120680824.9980401 0 0 121774326.0670764 0 0 120367258.7721934 0 0 120043447.5354985 0 0 119711292.2961339 0 0 119372144.4740622 0 0 119029110.69852 0 0 119148702.2306345 0 0 117971761.1338362 0 0 118785955.1278808 0 0 117641149.251483 0 0 117309960.0798509 0 0 116978840.8162641 0 0 116648856.009238 0 0 116040685.1663307 0 0 116693936.2680339 0 0 115730033.2651312 0 0 115420986.8927488 0 0 115112896.2451485 0 0 114811434.1279102 0 0 114508965.7662531 0 0 114205939.686855 0 0 114210477.8778983 0 0 113732530.8425962 0 0 113459027.0642955 0 0 113188083.4990462 0 0 112920747.371541 0 0 112658135.0681308 0 0 112398472.5192193 0 0 112380912.8076982 0 0 112006607.9639562 0 0 111765435.1390491 0 0 111528999.5233722 0 0 111293130.8876795 0 0 111285843.5310863 0 0 110957497.1641906 0 0 110782665.5257885 0 0 124450208.2516319 0 0 51945342.04889378 0 0 41594006.95324639 0 0 33564933.27517336 0 0 31874504.33639473 0 0 39186953.05780077 0 0 46449513.17708817 0 0 63624992.15367083 0 0 54106067.53008045 0 0 71431173.22526602 0 0 78863478.8040116 0 0 85609549.52841577 0 0 91755484.37540616 0 0 97287723.82063879 0 0 102212977.0447223 0 0 106592394.7092634 0 0 110436797.5661038 0 0 113688810.5832898 0 0 114264267.9798037 0 0 116885006.2978808 0 0 119144994.0993559 0 0 121076280.9563853 0 0 122237511.3201334 0 0 123403304.553524 0 0 123490625.3089701 0 0 124520521.2482048 0 0 125368686.5852186 0 0 126055336.2020452 0 0 126580004.9373767 0 0 126948074.6628122 0 0 128197064.8814603 0 0 126393863.7760072 0 0 126542988.0229451 0 0 126586641.5271097 0 0 126557516.5194934 0 0 126461507.6034661 0 0 126304477.5406391 0 0 126969013.2427231 0 0 125376678.3741845 0 0 125145705.9687332 0 0 124954055.9348529 0 0 124660974.1606409 0 0 123687234.2209277 0 0 123289483.5186107 0 0 123371155.6928266 0 0 123034790.9860475 0 0 122682072.4491035 0 0 122314548.1674672 0 0 121420573.1237385 0 0 121194478.4118961 0 0 121057031.3322867 0 0 120685982.4705326 0 0 120309043.3452427 0 0 119928117.0089309 0 0 119545114.427806 0 0 118682575.4997296 0 0 118422392.1397024 0 0 118333955.3048815 0 0 118059228.2351247 0 0 117697438.2601186 0 0 117337444.8374483 0 0 116980331.9444506 0 0 116356442.7438468 0 0 116320396.5489295 0 0 116021150.7814763 0 0 115692035.2511981 0 0 115364009.1752646 0 0 115041758.7736403 0 0 114725354.3315106 0 0 113935823.2654507 0 0 114412046.3928391 0 0 113916114.6148117 0 0 113629591.7463523 0 0 113343796.2559389 0 0 113063861.1796899 0 0 112787822.3114031 0 0 112518629.0942921 0 0 112145279.3584584 0 0 112124787.1901702 0 0 111874230.455119 0 0 111629978.1954619 0 0 111380892.8027939 0 0 111061739.7568185 0 0 111072116.0504308 0 0 110708007.0642851 0 0 125665755.1860964 0 0 37568772.33147197 0 0 31745809.15443724 0 0 34392984.83124363 0 0 36084716.3658147 0 0 45677387.71054403 0 0 35445506.25489254 0 0 61071973.21800423 0 0 56609304.71180774 0 0 69604886.77164906 0 0 77969581.61247571 0 0 85580851.14865729 0 0 92446963.39462742 0 0 98634891.99327092 0 0 104069886.7294226 0 0 108826168.8291534 0 0 112940097.0588315 0 0 113778906.2431481 0 0 116876362.6900975 0 0 119599142.8073104 0 0 121912846.6362854 0 0 123852181.7275715 0 0 124873850.0060699 0 0 122706951.755217 0 0 126082030.5759687 0 0 127050197.8336144 0 0 127804656.9840831 0 0 128380602.1530683 0 0 128800145.1829804 0 0 129067811.8540326 0 0 127192760.7310856 0 0 128342115.175687 0 0 128382977.7869709 0 0 128327286.5216307 0 0 128188618.7361593 0 0 127990296.6104643 0 0 127735418.863225 0 0 126093836.9538129 0 0 126693753.0530322 0 0 126376671.8295523 0 0 124207303.1042886 0 0 123931379.3042372 0 0 123013109.1109275 0 0 124340064.7958337 0 0 122712501.0195306 0 0 122392796.4936944 0 0 122056408.3228448 0 0 121705155.5249097 0 0 120856737.0435221 0 0 121933971.2915708 0 0 120509268.1744485 0 0 120154285.7136471 0 0 119793706.8579698 0 0 119428134.1697173 0 0 119060641.7178425 0 0 119161030.5239947 0 0 117984322.7607492 0 0 118776962.252244 0 0 117634724.5420263 0 0 117286080.1432223 0 0 116939111.1045449 0 0 116594673.0526458 0 0 115994481.11928 0 0 116626467.4462208 0 0 115672631.9608539 0 0 115352972.4945996 0 0 115034185.039694 0 0 114721946.2802589 0 0 114409520.6237852 0 0 114103372.1130511 0 0 114100771.6398204 0 0 113639564.3168911 0 0 113357569.0500638 0 0 113080837.9887692 0 0 112807496.3131392 0 0 112540291.0684447 0 0 112277363.4819594 0 0 112254441.1259638 0 0 111896649.5020106 0 0 111655355.5865073 0 0 111416133.0677628 0 0 111189193.9571282 0 0 111187219.1997123 0 0 110828329.4050304 0 0 110851090.9407574 0 0 124875062.0924301 0 0 42283960.1460936 0 0 28401877.62161539 0 0 29599922.41969679 0 0 50379489.24092123 0 0 37103060.93989828 0 0 64848626.39363845 0 0 50728683.7954593 0 0 73317668.14111075 0 0 81135234.51253025 0 0 88101313.93594943 0 0 94421058.50551836 0 0 100030411.5586819 0 0 104957152.9913783 0 0 109278432.4843667 0 0 113011992.1231027 0 0 116493660.3790335 0 0 116682888.676264 0 0 119163606.9073074 0 0 121285566.4013253 0 0 123075048.7599258 0 0 124056143.187436 0 0 125452321.2809643 0 0 125173146.0016247 0 0 126075092.1515314 0 0 126790661.6067072 0 0 127326896.0733361 0 0 127725341.8193459 0 0 127982469.3862133 0 0 129200980.8229951 0 0 127328538.2388419 0 0 127373418.9964224 0 0 127332897.6473728 0 0 127217120.0997031 0 0 127040295.6751732 0 0 126806481.4732579 0 0 127430485.9121027 0 0 125837762.1736625 0 0 125539911.1860435 0 0 125342348.4930922 0 0 124991107.8533134 0 0 123994460.5915676 0 0 123627641.4909479 0 0 123627972.1677523 0 0 123246088.8056031 0 0 122851330.2908388 0 0 122444171.610819 0 0 121544508.2137514 0 0 121343731.6227558 0 0 121148152.8596202 0 0 120747043.4243439 0 0 120342944.1563247 0 0 119936856.4027516 0 0 119530806.2037855 0 0 118691807.5668992 0 0 118394026.3736835 0 0 118322749.4689324 0 0 118013289.4391027 0 0 117635322.15831 0 0 117260785.7499819 0 0 116890328.5121541 0 0 116276535.3129877 0 0 116253188.5159001 0 0 115928401.1425365 0 0 115592059.2289471 0 0 115252890.4965424 0 0 114921962.7931649 0 0 114599319.6319419 0 0 113815656.8284131 0 0 114280029.4235805 0 0 113801267.7745812 0 0 113505975.6174209 0 0 113214829.0609269 0 0 112928960.7006722 0 0 112650314.7888826 0 0 112377262.6406992 0 0 112020323.4167262 0 0 111993536.3289798 0 0 111736592.7003039 0 0 111444975.7567378 0 0 111210532.9687689 0 0 110977923.8511465 0 0 110991716.8183866 0 0 110744001.4687704 0 0 126023003.5432661 0 0 28883042.78266056 0 0 31059229.37676107 0 0 37551799.73466687 0 0 24437449.34003135 0 0 61562994.26403028 0 0 56098940.64961925 0 0 71745478.07615116 0 0 80618621.30629063 0 0 88553268.77861343 0 0 95580430.9095262 0 0 101799654.2426434 0 0 107236563.4286392 0 0 111873523.4496352 0 0 115852501.9716392 0 0 116247030.2359996 0 0 119509954.3252213 0 0 122060292.8272041 0 0 124188626.4196984 0 0 125942950.1463645 0 0 126756956.6388578 0 0 124542902.4372839 0 0 127795431.1441982 0 0 128604737.7764757 0 0 129211779.4369602 0 0 129642497.0655727 0 0 129911366.1767318 0 0 130048569.6345349 0 0 128121758.3802318 0 0 129220417.9643417 0 0 129150032.3839816 0 0 128999976.1832372 0 0 128775445.885544 0 0 128495660.8434168 0 0 128162845.9840386 0 0 126523206.4337175 0 0 127082496.6582562 0 0 126697631.3506738 0 0 124572043.1612975 0 0 124241135.0689657 0 0 123300572.2636975 0 0 124615347.6571592 0 0 122953271.7265524 0 0 122590110.6384218 0 0 122213393.0620752 0 0 121826011.2945381 0 0 120972112.294513 0 0 122028031.5589195 0 0 120593517.8696268 0 0 120209890.0730419 0 0 119823112.1228204 0 0 119433854.7873784 0 0 119044318.1178423 0 0 119125912.910781 0 0 117954543.6022277 0 0 118722875.0789813 0 0 117588006.7154763 0 0 117223852.9559089 0 0 116862777.9951487 0 0 116505555.7887862 0 0 115915767.5329638 0 0 116524579.7327958 0 0 115584209.5596693 0 0 115248563.3568738 0 0 114925781.7792626 0 0 114604251.6434757 0 0 114288254.3254021 0 0 113968621.0670469 0 0 113980230.4746848 0 0 113522167.2746451 0 0 113233835.0150228 0 0 112951757.4193224 0 0 112674968.1255285 0 0 112403935.0916731 0 0 112138519.5877357 0 0 112111299.2276004 0 0 111765879.590807 0 0 111512369.7938143 0 0 111338769.0684795 0 0 111109087.3328732 0 0 110812873.2267041 0 0 125209104.3421849 0 0 17904062.54112525 0 0 39571528.3562139 0 0 25186359.30629235 0 0 66157815.38498973 0 0 52197482.2868733 0 0 75295227.61533411 0 0 83475040.36247753 0 0 90762901.28904828 0 0 97229905.07031317 0 0 102847013.705582 0 0 107745050.5636125 0 0 111969434.1265116 0 0 115594996.5388115 0 0 119215827.0144844 0 0 119003261.5608226 0 0 121348910.4263365 0 0 123313122.8570183 0 0 124940369.6915131 0 0 125752108.3945689 0 0 127367109.3291453 0 0 126727730.0051461 0 0 127493864.4546961 0 0 128073784.0930817 0 0 128487033.5814485 0 0 128755820.9499634 0 0 128896978.0079415 0 0 130062386.5237762 0 0 128152547.9649513 0 0 128096251.7567438 0 0 127965906.68831 0 0 127766715.9896508 0 0 127508218.3652947 0 0 127200626.0504323 0 0 127781777.2899003 0 0 126199421.8056749 0 0 125840418.2624041 0 0 125639091.923668 0 0 125233066.5356672 0 0 124219876.0997013 0 0 123885942.5243494 0 0 123806972.3768062 0 0 123382483.0728125 0 0 122949411.1863603 0 0 122507059.4115768 0 0 121605809.5832822 0 0 121430687.2355897 0 0 121179708.0857602 0 0 120751516.2434165 0 0 120322821.7536077 0 0 119894353.4589346 0 0 119467895.2178931 0 0 118655622.6149996 0 0 118322855.735362 0 0 118268386.7113442 0 0 117926606.6116059 0 0 117534479.3541715 0 0 117147281.7707686 0 0 116765564.6714716 0 0 116163997.9925804 0 0 116152439.284531 0 0 115802839.3956994 0 0 115457062.0464952 0 0 115117189.32059 0 0 114777764.0625233 0 0 114448867.2684032 0 0 113682421.3566727 0 0 114125768.0334502 0 0 113661537.640812 0 0 113360031.1698709 0 0 113065019.6696371 0 0 112775914.2496973 0 0 112493734.149937 0 0 112218291.2419231 0 0 111879710.9667921 0 0 111843811.6982948 0 0 111605913.6721855 0 0 111143543.3598669 0 0 110983374.3433793 0 0 110776433.7953148 0 0 126283422.3138993 0 0 20770774.23714423 0 0 25435323.55668698 0 0 42480918.83299696 0 0 10233734.08368049 0 0 64294738.37519263 0 0 56684843.62273327 0 0 74440702.04206322 0 0 83646020.3528816 0 0 91791198.23992644 0 0 98955072.62213388 0 0 105178243.7229918 0 0 110454856.958885 0 0 114913282.326212 0 0 118714723.0747421 0 0 118667160.0567511 0 0 122043581.0402906 0 0 124401214.1541068 0 0 126333322.427157 0 0 127887995.7223988 0 0 128490963.4309999 0 0 126263323.0167197 0 0 129360351.1751023 0 0 130008430.7925286 0 0 130464835.5286764 0 0 130750944.0215553 0 0 130886332.8383429 0 0 130895012.6484108 0 0 128925283.6746797 0 0 129974698.2244688 0 0 129802543.3011657 0 0 129553753.951574 0 0 129242545.4679285 0 0 128882027.7126835 0 0 128472845.2494653 0 0 126850626.5622655 0 0 127365243.3791645 0 0 126919053.4898976 0 0 124849454.9903377 0 0 124466932.326935 0 0 123510871.0683825 0 0 124806092.8602531 0 0 123120829.9330086 0 0 122717368.4678191 0 0 122302904.7058278 0 0 121881372.435139 0 0 121028028.4029347 0 0 122058578.434498 0 0 120621041.8202185 0 0 120211653.0517624 0 0 119801283.9354664 0 0 119390654.7807102 0 0 118981514.3588844 0 0 119044836.3397283 0 0 117883627.2479714 0 0 118625346.8575604 0 0 117502121.2999589 0 0 117124400.9429406 0 0 116751053.4777502 0 0 116382535.6417097 0 0 115804146.3478408 0 0 116389586.8562796 0 0 115467723.1394839 0 0 115126555.022743 0 0 114788726.961746 0 0 114466278.7980655 0 0 114145909.9465379 0 0 113809706.9651066 0 0 113832983.1955916 0 0 113384058.1029026 0 0 113091580.9600979 0 0 112804209.8247941 0 0 112524645.9843948 0 0 112249965.1233461 0 0 111981913.6594975 0 0 111953629.4034444 0 0 111620691.6871238 0 0 111306084.6766091 0 0 111136019.711037 0 0 111358589.0963956 0 0 110914590.9485414 0 0 125453136.462309 0 0 26516031.72186713 0 0 42593275.43647047 0 0 11543731.38287924 0 0 68284530.73473425 0 0 55698925.5810324 0 0 77848546.03601509 0 0 86301299.2965629 0 0 93739415.02119671 0 0 100179199.6057618 0 0 105788889.7927165 0 0 110611418.4889131 0 0 114684310.6248139 0 0 118120049.9688059 0 0 121867197.8341636 0 0 121273573.955458 0 0 123449754.5338271 0 0 125240468.7607723 0 0 126698452.5845484 0 0 127324948.6474121 0 0 129126002.4100433 0 0 128154411.6532574 0 0 128780432.2257229 0 0 129220548.7586879 0 0 129515235.7012455 0 0 129658384.0714714 0 0 129684140.5349029 0 0 130794093.5340035 0 0 128855161.9781095 0 0 128704079.9561976 0 0 128484114.9019525 0 0 128204339.9408213 0 0 127867863.327822 0 0 127490668.7985668 0 0 128023681.5554353 0 0 126463893.6183107 0 0 126047714.6097278 0 0 125844184.0482436 0 0 125386946.7912284 0 0 124364055.3883247 0 0 124064300.4672105 0 0 123908914.2885215 0 0 123445634.1663767 0 0 122976720.0772539 0 0 122502087.913267 0 0 121606111.8552901 0 0 121455417.4643541 0 0 121153062.5798002 0 0 120700887.1010192 0 0 120250580.3863843 0 0 119802325.325903 0 0 119358236.2596761 0 0 118575113.2857892 0 0 118210199.9418066 0 0 118172004.2332765 0 0 117800375.1481403 0 0 117396214.3715689 0 0 116998288.0302324 0 0 116606874.4986622 0 0 116019397.2500309 0 0 116019803.1962606 0 0 115655176.7946618 0 0 115296937.6885438 0 0 114953917.4050396 0 0 114611261.3903553 0 0 114275559.9703625 0 0 113526593.7270166 0 0 113948555.8239492 0 0 113498327.1976005 0 0 113193431.5803911 0 0 112895843.6887076 0 0 112604640.7563772 0 0 112319990.8625934 0 0 112045228.0473468 0 0 111725867.9756897 0 0 111678812.4205307 0 0 111444707.2456291 0 0 111050919.109414 0 0 111063077.238953 0 0 110790319.9238025 0 0 126448810.5504464 0 0 10983378.83393735 0 0 30118751.96344791 0 0 46443313.65752568 0 0 67030233.33837962 0 0 60131082.35146476 0 0 77700359.63019851 0 0 87173350.95521951 0 0 95538060.08211745 0 0 102590696.609621 0 0 108628636.6468479 0 0 113685865.0555426 0 0 117971362.8919959 0 0 121544425.1223116 0 0 121030661.7107918 0 0 124491778.7772733 0 0 126634912.4153353 0 0 128346899.7342977 0 0 129698908.762288 0 0 130070270.0261346 0 0 127862443.5308511 0 0 130770101.2072491 0 0 131252762.0697909 0 0 131564721.2452108 0 0 131716748.4918637 0 0 131720909.2890074 0 0 131600562.8755272 0 0 129605734.5815924 0 0 130596356.8941488 0 0 130323333.9797285 0 0 129983554.4484635 0 0 129588716.5864889 0 0 129151660.2478888 0 0 128671679.4108345 0 0 127077668.5401699 0 0 127545104.6551481 0 0 127042451.6650269 0 0 125040906.1618473 0 0 124609914.8893441 0 0 123645590.6790219 0 0 124913735.1614068 0 0 123215515.6156171 0 0 122775430.2466979 0 0 122327533.3363765 0 0 121875651.2596296 0 0 121025715.6300819 0 0 122025888.7026 0 0 120593205.552645 0 0 120160730.954105 0 0 119729879.1063049 0 0 119300255.5325083 0 0 118874063.8161166 0 0 118919744.3713674 0 0 117772772.7533319 0 0 118485674.2711957 0 0 117378343.463803 0 0 116989016.5920192 0 0 116605387.6657748 0 0 116227617.8065988 0 0 115663539.858477 0 0 116223058.0079662 0 0 115318062.5608919 0 0 114974205.6301473 0 0 114631966.5686908 0 0 114300915.8549493 0 0 113977155.4550506 0 0 113628706.5541413 0 0 113660239.1660449 0 0 113224331.0441011 0 0 112928467.4518453 0 0 112639243.2006187 0 0 112356518.4863181 0 0 112080759.2360493 0 0 111809164.6690758 0 0 111772553.245196 0 0 111461772.7514465 0 0 111207702.8178883 0 0 110929984.3964229 0 0 111233992.448351 0 0 125607913.1757879 0 0 12003631.14925274 0 0 32453878.83189795 0 0 47186767.59708567 0 0 71245562.02740079 0 0 58597967.02510237 0 0 81047167.31404388 0 0 89595551.41268297 0 0 97005716.23822439 0 0 103411433.3881111 0 0 108878599.7182234 0 0 113576718.957797 0 0 117340815.1889842 0 0 120643270.4086475 0 0 124449356.1833121 0 0 123457447.9140441 0 0 125444446.9015374 0 0 127054688.3866551 0 0 128334078.3785026 0 0 128767177.7395075 0 0 130736602.5302819 0 0 129444952.9185275 0 0 129922071.0329624 0 0 130229204.5232884 0 0 130394331.2165494 0 0 130426199.3521439 0 0 130337676.8689936 0 0 131387268.2107871 0 0 129432961.1644002 0 0 129189724.201857 0 0 128885163.123274 0 0 128527625.0157419 0 0 128120505.9714631 0 0 127678400.7273418 0 0 128159932.2986303 0 0 126632834.3845741 0 0 126163461.6320978 0 0 125958352.6088885 0 0 125454539.7996909 0 0 124428992.1491334 0 0 124163857.7150621 0 0 123935710.355177 0 0 123437003.7295401 0 0 122936854.8077814 0 0 122434349.4034317 0 0 121547642.3553927 0 0 121420397.8345345 0 0 121070303.8082704 0 0 120597005.3953969 0 0 120129647.4236836 0 0 119663790.8074158 0 0 119203940.5463939 0 0 118451048.8516305 0 0 118057231.7558383 0 0 118033940.3359269 0 0 117636156.4975954 0 0 117222067.2244921 0 0 116815688.1415233 0 0 116417076.1476606 0 0 115845970.3507634 0 0 115858289.3077421 0 0 115476064.7822055 0 0 115114184.3038772 0 0 114763497.5975307 0 0 114417942.1990221 0 0 114078635.6503706 0 0 113348898.3445345 0 0 113749745.8226261 0 0 113314417.6012435 0 0 113008006.2945221 0 0 112708355.7407403 0 0 112415277.4522845 0 0 112127758.3426946 0 0 111818152.6367698 0 0 111555080.0703855 0 0 111499598.0137653 0 0 111249559.4823546 0 0 110798012.6585303 0 0 110953052.2481544 0 0 126521066.1719126 0 0 21312709.18991626 0 0 36354577.26465098 0 0 52183773.2981257 0 0 70619286.97376169 0 0 64045226.38119978 0 0 81700764.91668652 0 0 91364775.65846071 0 0 99540368.12671055 0 0 106419357.8891478 0 0 112176647.4998278 0 0 116953570.5916344 0 0 121081918.0356154 0 0 124311185.0210608 0 0 123335765.272543 0 0 126834294.3503966 0 0 128720661.805511 0 0 130213100.0920587 0 0 131354574.0501541 0 0 131497162.409465 0 0 129328047.113925 0 0 132023409.1201282 0 0 132339799.7457972 0 0 132501873.5607147 0 0 132519061.6375735 0 0 132400036.7328825 0 0 132160881.9197204 0 0 130155954.1839742 0 0 131082638.0285257 0 0 130711914.3423099 0 0 130286753.2524832 0 0 129815095.654674 0 0 129307557.7025599 0 0 128763796.8571008 0 0 127205883.5135731 0 0 127624505.236942 0 0 127070523.4394498 0 0 125148217.1356964 0 0 124672875.0682797 0 0 123705508.7883663 0 0 124939562.506358 0 0 123238871.6374724 0 0 122765843.8718023 0 0 122287656.2128499 0 0 121808873.057903 0 0 120966038.3368778 0 0 121932037.5839856 0 0 120512156.6473003 0 0 120058824.1161391 0 0 119609514.2456362 0 0 119162899.6549492 0 0 118720948.1101181 0 0 118749597.3120342 0 0 117623532.4351221 0 0 118303176.9982494 0 0 117218234.4725049 0 0 116819360.2716764 0 0 116427634.732002 0 0 116043493.9313587 0 0 115496322.7961175 0 0 116026299.2764976 0 0 115141416.779458 0 0 114794828.7760626 0 0 114447728.4701374 0 0 114112138.0835574 0 0 113786696.4867209 0 0 113427505.2442174 0 0 113465642.2421516 0 0 113044174.7496528 0 0 112746708.1228845 0 0 112455825.2027317 0 0 112170842.3145799 0 0 111885700.1850096 0 0 111678225.4744612 0 0 111620785.2961545 0 0 111300375.0309933 0 0 111122594.82563 0 0 110950420.7039132 0 0 125675083.3805413 0 0 22376604.04800532 0 0 45136532.57082745 0 0 46650363.61262576 0 0 75070371.90558167 0 0 61935875.62679897 0 0 84844846.78114167 0 0 93409234.60526365 0 0 100626254.868166 0 0 106793609.5165345 0 0 112161186.9377636 0 0 116426005.2330218 0 0 120053892.0873812 0 0 123142314.7836355 0 0 126953807.1538808 0 0 125540225.2034908 0 0 127326858.7041201 0 0 128742162.6571028 0 0 129836869.703491 0 0 130071147.8898897 0 0 132189278.8172014 0 0 130596116.1202282 0 0 130928633.8173601 0 0 131094334.9026057 0 0 131124241.152005 0 0 131045734.8201671 0 0 130857394.2216899 0 0 131836071.7132398 0 0 129887816.8062165 0 0 129554566.4085805 0 0 129171317.2193977 0 0 128739366.5821508 0 0 128265641.5788128 0 0 127764119.2314373 0 0 128192650.9267534 0 0 126707741.3497371 0 0 126189855.0103814 0 0 125985052.6437235 0 0 125438945.3322962 0 0 124416784.2547785 0 0 124186765.4854059 0 0 123889339.4566402 0 0 123359396.3598733 0 0 122830532.7195794 0 0 122304306.568669 0 0 121432991.6195743 0 0 121329298.9817797 0 0 120937785.0812285 0 0 120443824.263954 0 0 119961929.0298915 0 0 119478177.3859374 0 0 119003419.5545774 0 0 118287129.9507862 0 0 117865841.3025684 0 0 117858985.659101 0 0 117436026.8130356 0 0 117014164.3720246 0 0 116602919.9539735 0 0 116194515.5534848 0 0 115641697.4555693 0 0 115666675.7957021 0 0 115271232.5383548 0 0 114904901.1674763 0 0 114550528.5936493 0 0 114202276.9190367 0 0 113863150.9665364 0 0 113151552.4662763 0 0 113530620.4657468 0 0 113111702.4785244 0 0 112803980.6938321 0 0 112504089.0128198 0 0 112210985.6533391 0 0 111941772.6965671 0 0 111479352.6645388 0 0 111331433.0159076 0 0 111313200.6551674 0 0 111017991.2697626 0 0 110788749.7488522 0 0 126502871.301991 0 0 35116490.48747364 0 0 35598549.87205733 0 0 57085476.67883492 0 0 75268740.63485797 0 0 68552780.39349103 0 0 86697962.0155623 0 0 96036992.73675917 0 0 103865892.6870732 0 0 110408768.1646422 0 0 115748239.6198475 0 0 120415048.9359095 0 0 124079129.8750258 0 0 126963366.4308818 0 0 125549812.5822553 0 0 129028956.6601257 0 0 130671081.818869 0 0 131931134.6207528 0 0 132844806.0348379 0 0 132759175.4191844 0 0 130654056.6056477 0 0 133115275.1875624 0 0 133268111.3872344 0 0 133273899.7497267 0 0 133159046.9021409 0 0 132916258.3543542 0 0 132568036.0000315 0 0 130575432.0893047 0 0 131432932.4687002 0 0 130972062.4824005 0 0 130466183.3690088 0 0 129922448.1451365 0 0 129349852.1963092 0 0 128749322.5445213 0 0 127237947.9758751 0 0 127605947.5769268 0 0 127006007.5694944 0 0 125171841.4454566 0 0 124656899.1632346 0 0 123692355.4956675 0 0 124886222.547957 0 0 123192613.0438452 0 0 122690178.6531009 0 0 122186820.3271485 0 0 121683316.7059792 0 0 120851445.6088757 0 0 121779311.8664633 0 0 120376037.9332804 0 0 119906304.2745142 0 0 119439981.0492932 0 0 118979690.2559432 0 0 118527963.7886013 0 0 118539536.1764412 0 0 117437155.5573994 0 0 118081949.4184275 0 0 117023603.6792937 0 0 116618173.8615317 0 0 116218242.8084952 0 0 115828267.3679813 0 0 115300087.3832527 0 0 115797367.7984696 0 0 114938703.2917403 0 0 114586991.1139262 0 0 114239425.7244957 0 0 113902179.1255101 0 0 113573044.2612883 0 0 113206463.4581915 0 0 113250984.1758069 0 0 112845641.5131495 0 0 112547311.1271132 0 0 112256824.0427183 0 0 111974660.5805284 0 0 111630165.4859362 0 0 111658988.8270235 0 0 111527835.0332821 0 0 111131221.6698079 0 0 110934686.5833653 0 0 125657548.7489934 0 0 35453564.38029855 0 0 50459452.07645804 0 0 50492177.47712741 0 0 79602525.25932376 0 0 67856163.39675219 0 0 89293157.43776716 0 0 97516463.89898309 0 0 104470816.8481018 0 0 110493558.2568546 0 0 115292502.7781936 0 0 119372084.6937439 0 0 122769955.5546201 0 0 125527019.7711261 0 0 129331082.628497 0 0 127527341.2095437 0 0 129090106.4302047 0 0 130298052.3747187 0 0 131197195.2539724 0 0 131227304.9234395 0 0 133471895.5495154 0 0 131601470.8757512 0 0 131796397.6173459 0 0 131820630.3521929 0 0 131721196.9611824 0 0 131527549.5138094 0 0 131240634.7409919 0 0 132141516.2568135 0 0 130220135.5838191 0 0 129802059.1938598 0 0 129342772.2857402 0 0 128843245.3093921 0 0 128308962.1723681 0 0 127750671.14977 0 0 128125452.8555908 0 0 126691219.2083235 0 0 126129490.5803683 0 0 125925600.4966491 0 0 125342385.1194177 0 0 124329681.4948189 0 0 124134998.8332146 0 0 123772063.9012315 0 0 123214973.0475914 0 0 122664151.0730927 0 0 122117120.875176 0 0 121260472.5182132 0 0 121183735.3126705 0 0 120745381.5743968 0 0 120234992.6068631 0 0 119747191.121869 0 0 119248624.0970694 0 0 118759956.0519178 0 0 118081210.4122779 0 0 117638585.7165252 0 0 117648095.4643764 0 0 117205705.9227146 0 0 116777257.8384061 0 0 116356966.6133071 0 0 115942407.9743745 0 0 115414220.2069548 0 0 115448555.0398907 0 0 115040785.3265146 0 0 114674489.738857 0 0 114315101.5789028 0 0 113965268.2328981 0 0 113624564.7803776 0 0 112935659.1828814 0 0 113291668.0380255 0 0 112890081.3501358 0 0 112581736.1148503 0 0 112281301.0565438 0 0 111981716.8292361 0 0 111671066.1547159 0 0 111397163.9519528 0 0 111183531.8295672 0 0 111009823.9184772 0 0 110767133.2188405 0 0 126397204.7299377 0 0 40065559.09408937 0 0 62133230.31668817 0 0 81495366.10139024 0 0 74229329.87075216 0 0 92260146.52195777 0 0 101109350.2551232 0 0 108461761.7663447 0 0 114458075.5544496 0 0 119672389.7874818 0 0 123730862.7899923 0 0 126974507.8831254 0 0 129551141.8756162 0 0 127686075.7440882 0 0 131093208.6859384 0 0 132472226.3049321 0 0 133474124.5708271 0 0 134162998.8600042 0 0 133855061.3956258 0 0 131829024.0208461 0 0 134039280.4979039 0 0 134036664.6618185 0 0 133887794.1200305 0 0 133640400.1880022 0 0 133281859.1872194 0 0 132826749.6857781 0 0 130865666.259042 0 0 131648614.6707862 0 0 131110076.2039199 0 0 130527985.7739529 0 0 129917134.6155436 0 0 129285850.4834821 0 0 128632460.0430948 0 0 127177190.0532508 0 0 127492899.4219253 0 0 126852301.56054 0 0 125114950.5140682 0 0 124564815.14724 0 0 123608298.4331754 0 0 124756557.7642572 0 0 123079595.8859795 0 0 122551157.6369522 0 0 122025045.0728089 0 0 121500423.0503255 0 0 120688509.6174184 0 0 121571791.2924225 0 0 120195426.9967881 0 0 119712805.8775233 0 0 119222856.6334759 0 0 118753208.525512 0 0 118295367.9841896 0 0 118289512.3712111 0 0 117217593.4938657 0 0 117828594.2465197 0 0 116795154.6739549 0 0 116383136.2029725 0 0 115977505.7204691 0 0 115587739.5876619 0 0 115077480.7623771 0 0 115550787.94612 0 0 114711747.4372419 0 0 114357215.1644698 0 0 114010330.6831771 0 0 113672571.7156316 0 0 113340737.0034241 0 0 112967160.7083018 0 0 113017157.0975009 0 0 112628685.6664445 0 0 112329149.3567235 0 0 112036498.2514914 0 0 111745271.8573599 0 0 111603729.3857332 0 0 111387686.7760037 0 0 111186626.6224113 0 0 110944468.4527632 0 0 125557891.3763315 0 0 49200379.99861669 0 0 61953355.05488279 0 0 85108795.67670272 0 0 77286695.00328892 0 0 94278301.87332173 0 0 102065507.1108819 0 0 108702126.4089674 0 0 114073314.9785273 0 0 118604934.1580107 0 0 122344506.4803895 0 0 125394391.5851778 0 0 127790007.8313371 0 0 131545868.3248897 0 0 129398429.9436425 0 0 130721783.594758 0 0 131710073.8866366 0 0 132412332.3852575 0 0 132235355.741058 0 0 134581488.1281767 0 0 132445206.5097867 0 0 132498869.0847813 0 0 132406659.7945312 0 0 132179394.6034406 0 0 131878601.4139159 0 0 131492260.0451896 0 0 132307933.2946012 0 0 130429546.464596 0 0 129930863.7821699 0 0 129400890.0692109 0 0 128840366.4371196 0 0 128250038.4032491 0 0 127641777.3739725 0 0 127962183.132938 0 0 126585794.1591906 0 0 125985064.0868327 0 0 125783591.992608 0 0 125168069.5719784 0 0 124170462.8914349 0 0 124011093.9685146 0 0 123587176.3612675 0 0 123006458.8415517 0 0 122441286.2161451 0 0 121873222.3076932 0 0 121038218.0522151 0 0 120984446.5447319 0 0 120506126.9097555 0 0 119984258.3093483 0 0 119487075.7642885 0 0 118980265.449775 0 0 118487664.3183936 0 0 117842053.6457762 0 0 117374048.3517343 0 0 117398425.8917805 0 0 116938058.5650857 0 0 116508933.6430712 0 0 116087174.8852212 0 0 115673992.5697872 0 0 115166308.6813062 0 0 115202972.4098033 0 0 114787348.9276766 0 0 114418451.7067908 0 0 114059750.5775648 0 0 113708644.3589779 0 0 113367371.1829186 0 0 112701910.3432283 0 0 113035310.648758 0 0 112650740.8846285 0 0 112341994.6609649 0 0 112041107.6586951 0 0 111761765.772715 0 0 111325982.217839 0 0 111173227.5347706 0 0 110952193.551684 0 0 110733835.5192512 0 0 126207590.8302138 0 0 57034972.70195783 0 0 69925293.75270203 0 0 88831571.67382422 0 0 81519359.11665766 0 0 98431790.7142764 0 0 106531101.8948523 0 0 113250588.2186913 0 0 118989580.9038265 0 0 123439524.0516879 0 0 126996782.3363622 0 0 129813979.5013 0 0 131979762.3783089 0 0 129702608.9555839 0 0 133004923.6978715 0 0 134105153.3255158 0 0 134844064.9820822 0 0 135299008.1420164 0 0 134775706.6734662 0 0 132861914.0159479 0 0 134782655.5986564 0 0 134627893.8376601 0 0 134342647.3853044 0 0 133964751.0793262 0 0 133493684.894182 0 0 132944599.1445266 0 0 131029188.348537 0 0 131731871.4667281 0 0 131122410.8726874 0 0 130471868.8233272 0 0 129797640.7587578 0 0 129115644.6768888 0 0 128415407.6510011 0 0 127024684.2202851 0 0 127288863.6854534 0 0 126613085.826974 0 0 124980158.9758604 0 0 124399134.7228887 0 0 123456028.1700071 0 0 124553630.4111158 0 0 122902397.2723043 0 0 122355541.7455327 0 0 121804445.1391861 0 0 121262913.5085721 0 0 120467646.6333585 0 0 121308717.1494724 0 0 119963431.2848209 0 0 119472980.0834142 0 0 118965297.2353027 0 0 118491105.769254 0 0 118024035.2443499 0 0 118005158.6856908 0 0 116969707.1964468 0 0 117541510.2106184 0 0 116540239.9136186 0 0 116120408.7513767 0 0 115710126.4618993 0 0 115321688.0321354 0 0 114828332.0609222 0 0 115277239.3812863 0 0 114464425.3669367 0 0 114108077.5730547 0 0 113759970.672782 0 0 113420282.5343707 0 0 113089207.830908 0 0 112711484.3400327 0 0 112766578.5675016 0 0 112394381.3858647 0 0 112093634.7225427 0 0 111799707.5642271 0 0 111481594.3540445 0 0 111355426.7134696 0 0 111467431.3168754 0 0 111124918.1026477 0 0 110888869.0374409 0 0 125378888.1760624 0 0 63394169.34428192 0 0 74654876.9688528 0 0 91454395.04814723 0 0 86469764.68913992 0 0 99808355.16750054 0 0 106935323.3405827 0 0 112933010.2328688 0 0 117870806.4698903 0 0 121945062.5022415 0 0 125261638.9298943 0 0 127906805.7740929 0 0 129986390.9624162 0 0 133604070.8244604 0 0 131132004.1260992 0 0 132222082.2587283 0 0 132994730.3182801 0 0 133486120.9568195 0 0 133095562.4805785 0 0 135515025.3035643 0 0 133145219.8148848 0 0 133059078.5742264 0 0 132849270.2831596 0 0 132516006.6194972 0 0 132097247.7698472 0 0 131615299.7521319 0 0 132335731.4239825 0 0 130516772.5026185 0 0 129946078.2321877 0 0 129351925.1232211 0 0 128736559.8898229 0 0 128094084.3529549 0 0 127442113.0474202 0 0 127706076.8098723 0 0 126394932.3762971 0 0 125760095.081536 0 0 125562317.8483265 0 0 124919216.885011 0 0 123942241.3914084 0 0 123817931.0588141 0 0 123338381.3620832 0 0 122738684.803632 0 0 122154658.6468343 0 0 121573762.7378136 0 0 120758799.5135146 0 0 120731949.0627182 0 0 120220490.4439837 0 0 119694868.7419787 0 0 119172256.6612031 0 0 118668348.1826334 0 0 118170618.865516 0 0 117567341.1128088 0 0 117094040.8168968 0 0 117120974.8668273 0 0 116646122.9497926 0 0 116211253.6694098 0 0 115790405.7300317 0 0 115377962.1429179 0 0 114889502.2083471 0 0 114938295.647302 0 0 114510219.3949804 0 0 114141874.3185218 0 0 113782608.8731122 0 0 113432762.3710562 0 0 113092607.8368703 0 0 112452199.2922107 0 0 112761952.8488164 0 0 112396172.1007773 0 0 112089239.6597531 0 0 111792329.1664013 0 0 111520869.5921747 0 0 111120007.688755 0 0 111234386.1873305 0 0 110901880.9339007 0 0 110691613.7360815 0 0 125937631.6810094 0 0 70057491.30356984 0 0 80324979.08829916 0 0 96519513.6809984 0 0 89894396.93552835 0 0 105132651.0357054 0 0 112366510.9661896 0 0 118401885.702102 0 0 123353380.1693749 0 0 127164708.8027488 0 0 130177234.9447608 0 0 132502938.5066046 0 0 134247255.34849 0 0 131592327.1457866 0 0 134758558.8228397 0 0 135547116.712265 0 0 136046818.1007022 0 0 136270756.5287539 0 0 135517546.1525626 0 0 133746309.5623342 0 0 135357405.2374488 0 0 135057372.149082 0 0 134656852.7868208 0 0 134148391.7349439 0 0 133565361.7610966 0 0 132924770.4295944 0 0 131073809.4585313 0 0 131685441.8322984 0 0 131006418.8471899 0 0 130296333.1937304 0 0 129574034.2862787 0 0 128845295.6264215 0 0 128105513.7952333 0 0 126785858.9847841 0 0 126998279.4743155 0 0 126292980.2499453 0 0 124770645.027016 0 0 124163062.8772833 0 0 123239471.4610729 0 0 124280861.5343407 0 0 122665346.570416 0 0 122101766.8946993 0 0 121531551.5431991 0 0 120972232.5040334 0 0 120206965.5422314 0 0 120999372.0735712 0 0 119689768.5283332 0 0 119183608.7592655 0 0 118687490.0323062 0 0 118198049.8325069 0 0 117722879.677292 0 0 117689404.7516681 0 0 116679917.9075864 0 0 117224306.2410507 0 0 116252671.1139576 0 0 115832863.4940224 0 0 115426162.630128 0 0 115033740.8324339 0 0 114561589.1911333 0 0 114979140.3619092 0 0 114195186.4249879 0 0 113839003.1150763 0 0 113490392.4497856 0 0 113150939.2877396 0 0 112820899.8544286 0 0 112440411.4510397 0 0 112499943.1158001 0 0 112145980.4687608 0 0 111848150.5057654 0 0 111553648.6253811 0 0 111264532.1378179 0 0 111060870.3234855 0 0 111212708.5026155 0 0 110851140.8903976 0 0 125123765.0398396 0 0 77855976.85073055 0 0 86981864.81975406 0 0 98325060.24253181 0 0 96486099.02693588 0 0 105704363.0552196 0 0 112023158.2329638 0 0 117332927.2358949 0 0 121707962.0099758 0 0 125260670.8355093 0 0 128103925.6888946 0 0 130336204.62541 0 0 132051623.1212899 0 0 135499533.1848191 0 0 132750280.4731492 0 0 133567976.2562264 0 0 134112614.9746382 0 0 134398556.8897671 0 0 133808242.8367904 0 0 136271946.7584707 0 0 133708044.0558537 0 0 133481608.2234673 0 0 133132764.9240711 0 0 132695032.6166167 0 0 132180007.8338598 0 0 131609382.1395848 0 0 132235596.6611752 0 0 130485240.5489617 0 0 129851442.2447608 0 0 129198176.5771394 0 0 128530603.9556614 0 0 127844939.7342845 0 0 127154070.8091594 0 0 127361836.8688494 0 0 126122566.3910393 0 0 125457745.5754362 0 0 125265400.2906904 0 0 124599330.7492033 0 0 123647965.8801252 0 0 123558795.0170303 0 0 123023951.2811121 0 0 122412293.0444454 0 0 121811064.7032948 0 0 121223204.3435953 0 0 120439166.3086059 0 0 120429543.9282671 0 0 119894883.9903568 0 0 119365953.2041984 0 0 118825139.953225 0 0 118317014.4151243 0 0 117818185.546219 0 0 117260947.1685644 0 0 116770360.7526518 0 0 116818765.2318806 0 0 116322772.3818934 0 0 115886801.6520402 0 0 115466329.7744763 0 0 115056231.9663053 0 0 114589790.235634 0 0 114646537.6301663 0 0 114212265.849839 0 0 113844548.4083699 0 0 113486677.3528438 0 0 113139150.4271754 0 0 112801516.9287114 0 0 112187780.4647292 0 0 112473696.1149606 0 0 112127913.8628357 0 0 111824443.5679041 0 0 111533196.9902147 0 0 111268774.7678629 0 0 110880331.2636849 0 0 110973115.0173979 0 0 110637943.4268121 0 0 125591052.1193566 0 0 83227332.31819274 0 0 90976256.73775947 0 0 105050863.4690585 0 0 98447399.03484187 0 0 112272957.6577513 0 0 118515202.2944296 0 0 123657995.1627096 0 0 127640546.9992127 0 0 130788673.7765421 0 0 133216478.0294888 0 0 135029727.4456261 0 0 136325795.6609846 0 0 133313236.4542255 0 0 136325459.0464391 0 0 136815625.9751253 0 0 137054387.6220572 0 0 137048026.0637509 0 0 136092722.0573703 0 0 134463204.3617783 0 0 135773476.0768172 0 0 135334476.9386523 0 0 134793337.635447 0 0 134175554.4625201 0 0 133496843.2936014 0 0 132772975.5741263 0 0 130994703.2291362 0 0 131515270.2798357 0 0 130776642.8009651 0 0 130016696.345229 0 0 129250940.6246737 0 0 128481024.4397062 0 0 127708009.2286545 0 0 126465378.5410891 0 0 126625424.822993 0 0 125895024.0267614 0 0 124489539.8401998 0 0 123859274.7047687 0 0 122960745.7157034 0 0 123940431.5088049 0 0 122370560.5541525 0 0 121788905.2002946 0 0 121209835.2137632 0 0 120641173.5833188 0 0 119898843.3116597 0 0 120642413.7949226 0 0 119374370.5244062 0 0 118850122.1523861 0 0 118353906.1119597 0 0 117861890.9186488 0 0 117388511.5923987 0 0 117330765.9067168 0 0 116372621.4096043 0 0 116871227.6113775 0 0 115938699.475957 0 0 115523894.7141155 0 0 115116266.7010276 0 0 114719285.917394 0 0 114270407.9690954 0 0 114656914.0078434 0 0 113905661.4588532 0 0 113548895.5975518 0 0 113201655.5224544 0 0 112864540.698974 0 0 112536991.1859121 0 0 112155514.637534 0 0 112218798.6958244 0 0 111884403.8307976 0 0 111589887.4982664 0 0 111310226.9472784 0 0 111020399.9061089 0 0 110783521.4129159 0 0 111014407.879853 0 0 124797072.0489583 0 0 92577410.87428047 0 0 99590150.05067219 0 0 105484088.1422286 0 0 107093356.5972398 0 0 111921356.3780247 0 0 117328232.7528948 0 0 121822063.3223227 0 0 125526409.7890179 0 0 128504056.9268492 0 0 130845555.3304837 0 0 132639376.0822689 0 0 133962519.860201 0 0 137181931.934453 0 0 134204001.4066534 0 0 134761479.8650826 0 0 135059182.5946531 0 0 135131320.3104476 0 0 134360263.1485003 0 0 136841398.9554656 0 0 134109302.2436019 0 0 133748374.3831439 0 0 133280463.6959841 0 0 132737908.7001895 0 0 132132861.1274628 0 0 131481171.8374433 0 0 132019541.0531282 0 0 130337513.9596062 0 0 129645721.0124189 0 0 128943337.0280563 0 0 128229735.6408028 0 0 127506254.9038914 0 0 126782613.8233683 0 0 126936951.5770817 0 0 125772548.6116894 0 0 125084081.8980039 0 0 124897253.7713956 0 0 124212840.2863736 0 0 123288253.8712429 0 0 123236222.0986715 0 0 122652803.5591934 0 0 122033220.3745366 0 0 121422962.5563906 0 0 120824159.6573204 0 0 120081104.6261664 0 0 120090132.4598923 0 0 119526428.1072183 0 0 118983375.5883598 0 0 118444002.8797443 0 0 117932992.007721 0 0 117432762.8627994 0 0 116937084.5840552 0 0 116416151.4506646 0 0 116477195.6485766 0 0 115972619.5660718 0 0 115540015.334589 0 0 115118997.9296937 0 0 114711257.0101578 0 0 114270036.3359162 0 0 114333789.7284271 0 0 113894236.9489336 0 0 113528654.350808 0 0 113173902.6653336 0 0 112829474.562074 0 0 112495440.2520535 0 0 111910108.3090767 0 0 112171478.3797847 0 0 111846982.2836146 0 0 111549887.7369529 0 0 111266018.9602023 0 0 110979957.5351938 0 0 110562385.0209498 0 0 110690778.0227096 0 0 125173206.7736593 0 0 96710705.71857589 0 0 101810091.0457211 0 0 113651735.6357744 0 0 107566153.8524909 0 0 119651877.1170703 0 0 124757913.3088498 0 0 128718505.4893344 0 0 131837810.7086538 0 0 134265455.9438334 0 0 136075374.0319501 0 0 137354386.739313 0 0 138189106.7262787 0 0 134885474.4007646 0 0 137681690.3826075 0 0 137891588.557102 0 0 137857880.6031772 0 0 137623636.8251181 0 0 136490474.7280367 0 0 135017586.2848631 0 0 136014566.1327083 0 0 135436864.0047002 0 0 134776839.8805068 0 0 134057507.5216204 0 0 133291992.7560908 0 0 132494726.2824156 0 0 130791346.8144513 0 0 131236498.8037913 0 0 130446946.9134662 0 0 129635968.5129037 0 0 128828719.816171 0 0 128028971.3948647 0 0 127225241.9846481 0 0 126063600.1392206 0 0 126175139.4034572 0 0 125425615.3743694 0 0 124141046.167917 0 0 123492679.3227247 0 0 122625524.4702462 0 0 123539485.1509928 0 0 122022286.0687228 0 0 121423072.5744916 0 0 120837382.7671879 0 0 120264923.1946327 0 0 119546669.2742685 0 0 120239550.9412007 0 0 119011236.1318412 0 0 118482839.4575808 0 0 117985648.1870536 0 0 117492067.1621055 0 0 117019200.4343295 0 0 116944258.1925527 0 0 116033617.5212334 0 0 116491812.2810922 0 0 115603772.978461 0 0 115185381.4112929 0 0 114778616.7705567 0 0 114383509.8192979 0 0 113960433.1756937 0 0 114315145.8495103 0 0 113595585.6873922 0 0 113240831.6392145 0 0 112896693.3390878 0 0 112562718.0905473 0 0 112238480.997268 0 0 111856979.7540921 0 0 111923742.9556284 0 0 111611283.620516 0 0 111325453.0549179 0 0 111055272.3915737 0 0 110839465.5307605 0 0 110714047.8313682 0 0 124402114.7112192 0 0 107429521.452885 0 0 112359346.1799147 0 0 113182531.9956274 0 0 117527625.4142278 0 0 118284884.6669171 0 0 122652175.0609859 0 0 126274241.8042422 0 0 129257510.9354345 0 0 131626221.5262928 0 0 133442629.3366309 0 0 134775280.9113881 0 0 135695205.2343033 0 0 138656528.1648521 0 0 135471879.1775984 0 0 135765024.6402816 0 0 135823493.0790491 0 0 135689400.002533 0 0 134748919.5827124 0 0 137228242.5802805 0 0 134354387.3462071 0 0 133862245.0090711 0 0 133286560.4189276 0 0 132648283.5481784 0 0 131961625.5677389 0 0 131240979.868558 0 0 131677178.4135872 0 0 130080266.4361415 0 0 129335434.8277545 0 0 128592731.1155599 0 0 127840409.0541545 0 0 127082644.7882218 0 0 126332474.6436007 0 0 126434684.9771967 0 0 125349639.6141103 0 0 124641494.7304796 0 0 124462359.8603521 0 0 123764125.1922737 0 0 122877003.2754057 0 0 122854427.3201656 0 0 122228566.7691568 0 0 121604983.2088851 0 0 120987247.756075 0 0 120384278.8852896 0 0 119678954.039375 0 0 119708229.4015908 0 0 119118650.7773339 0 0 118568128.306129 0 0 118033217.154407 0 0 117522699.8525084 0 0 117026873.8899254 0 0 116570970.1399382 0 0 116042324.0854657 0 0 116112116.7150795 0 0 115597918.0328311 0 0 115167230.32571 0 0 114749388.3875025 0 0 114345173.9229714 0 0 113931021.0640448 0 0 114001892.3912034 0 0 113558104.7456998 0 0 113196391.1797011 0 0 112845562.6364772 0 0 112505415.7923893 0 0 112175958.7518104 0 0 111617630.3058735 0 0 111856819.1051681 0 0 111550295.7935204 0 0 111245820.7160933 0 0 110938686.9294286 0 0 110695320.3653819 0 0 110477060.3294269 0 0 124688655.3519141 0 0 109797735.80743 0 0 113023195.195711 0 0 122705186.8807073 0 0 116663127.7718206 0 0 127159106.254234 0 0 130722441.3821661 0 0 133568231.9259733 0 0 135835821.3143618 0 0 137526301.0740199 0 0 138698828.0088895 0 0 139436292.7972393 0 0 139811421.0030625 0 0 136268202.0111117 0 0 138822707.7896724 0 0 138734456.2379056 0 0 138447824.3990161 0 0 137998404.4015156 0 0 136705296.3807846 0 0 135397406.9128425 0 0 136079814.6852549 0 0 135376566.7974529 0 0 134611532.2694016 0 0 133801288.8138921 0 0 132956583.031887 0 0 132096649.3207351 0 0 130491003.902338 0 0 130843464.2740325 0 0 130000876.7738076 0 0 129156991.477033 0 0 128318261.672535 0 0 127491162.9185177 0 0 126666898.997806 0 0 125590017.5079053 0 0 125654016.3624963 0 0 124890366.8275426 0 0 123728731.0111469 0 0 123065724.7616511 0 0 122229134.7821926 0 0 123078017.9340024 0 0 121617938.0887748 0 0 121010735.2786686 0 0 120419400.5721291 0 0 119842123.7322727 0 0 119147769.3852396 0 0 119796562.1980269 0 0 118609087.5032528 0 0 118084782.4790999 0 0 117587202.4784282 0 0 117097793.6588569 0 0 116621520.7244238 0 0 116539026.7764464 0 0 115668445.8093586 0 0 116086712.9281219 0 0 115239543.9907468 0 0 114823540.4937888 0 0 114420936.1483203 0 0 114031124.7545454 0 0 113629781.1530253 0 0 113953983.5331301 0 0 113267872.6213541 0 0 112917111.9255943 0 0 112576744.8522667 0 0 112246820.6316782 0 0 111927095.7026777 0 0 111547435.5304896 0 0 111617161.5560116 0 0 111319538.3866937 0 0 111028212.9549274 0 0 110830496.5366348 0 0 110589024.3336708 0 0 123943642.5331012 0 0 122095335.674638 0 0 124972021.6785967 0 0 120821558.3306357 0 0 128136028.8256744 0 0 124534444.4382533 0 0 127798572.046222 0 0 130586390.4508358 0 0 132843619.1037223 0 0 134582121.2160243 0 0 135850818.7788993 0 0 136712635.0047891 0 0 137228768.9415271 0 0 139889159.5442292 0 0 136547358.9651414 0 0 136580144.1591653 0 0 136410262.8163449 0 0 136078768.9404364 0 0 134973921.2441634 0 0 137420515.6462763 0 0 134445262.0991038 0 0 133834248.4907486 0 0 133156865.8509529 0 0 132431277.8255921 0 0 131672901.6632631 0 0 130884641.0781307 0 0 131219012.9557689 0 0 129722154.2581586 0 0 128934344.880458 0 0 128149113.2644368 0 0 127365424.9111125 0 0 126579729.9859892 0 0 125810984.9799676 0 0 125856949.8263538 0 0 124857668.3844236 0 0 124135610.1509102 0 0 123965662.4495959 0 0 123258655.7207098 0 0 122405528.8433616 0 0 122417654.3412821 0 0 121759944.4286191 0 0 121127618.6401699 0 0 120506667.7387823 0 0 119902768.4974087 0 0 119231421.022313 0 0 119282067.2970414 0 0 118679236.4318368 0 0 118129905.8175326 0 0 117601683.1577909 0 0 117085581.2442085 0 0 116581246.3350643 0 0 116169099.951468 0 0 115638648.5478654 0 0 115717118.1103745 0 0 115199462.2963808 0 0 114773850.1897859 0 0 114361040.681778 0 0 113961592.6601087 0 0 113574340.6047409 0 0 113651174.2279506 0 0 113206034.9541121 0 0 112848986.6997345 0 0 112503101.764917 0 0 112168297.4795522 0 0 111844416.08472 0 0 111317483.7152026 0 0 111531142.507717 0 0 111249556.0122664 0 0 110980487.3468665 0 0 110567543.1522945 0 0 110377450.3204844 0 0 124142912.8067957 0 0 123059950.2584098 0 0 124008752.9529646 0 0 131685431.1638487 0 0 126136281.0884236 0 0 134169869.5882408 0 0 136306202.4857291 0 0 138184771.0587673 0 0 139577247.5196352 0 0 140508469.7193755 0 0 141039215.2983019 0 0 141243456.4322235 0 0 141171086.926318 0 0 137453186.4749541 0 0 139722706.0701852 0 0 139356214.8917818 0 0 138831680.3566943 0 0 138180445.0764337 0 0 136740711.1491051 0 0 135615024.542799 0 0 135982198.882646 0 0 135165122.5345067 0 0 134303890.2773592 0 0 133411947.4631182 0 0 132498704.2310257 0 0 131583889.1143896 0 0 130082314.8787674 0 0 130346204.5968634 0 0 129463350.9537138 0 0 128590186.1662524 0 0 127728313.2137221 0 0 126883472.1776086 0 0 126043835.0395582 0 0 125052079.0432808 0 0 125067328.6018416 0 0 124295566.7200955 0 0 123257678.9648371 0 0 122585396.5055183 0 0 121789017.2546317 0 0 122569892.9471744 0 0 121166433.7108218 0 0 120552887.4753554 0 0 119958611.1746753 0 0 119380254.3355557 0 0 118725851.0882298 0 0 119315717.5877916 0 0 118180248.6355749 0 0 117659517.0005457 0 0 117156334.0953552 0 0 116666433.5051932 0 0 116203280.0828067 0 0 116125121.9606205 0 0 115278003.0127367 0 0 115662761.8874697 0 0 114853506.9044557 0 0 114441884.3124751 0 0 114043992.0282438 0 0 113658360.1151361 0 0 113282207.5362524 0 0 113576050.2915309 0 0 112924984.9800818 0 0 112578677.8081265 0 0 112243139.6775601 0 0 111918342.4234363 0 0 111603992.6771574 0 0 111227463.9001262 0 0 111299977.936625 0 0 111026093.4076639 0 0 110695401.4021148 0 0 110532097.0487574 0 0 110710951.7226075 0 0 123426356.6424226 0 0 136688388.1616055 0 0 137599313.8095234 0 0 128093216.3868536 0 0 139941821.9276269 0 0 130501087.227826 0 0 132788964.2416534 0 0 134721957.7174023 0 0 136224155.9001571 0 0 137314350.5292329 0 0 138030172.7410446 0 0 138423393.1204391 0 0 138539425.0737093 0 0 140873823.7257225 0 0 137430802.7630142 0 0 137206326.4307778 0 0 136815828.9236484 0 0 136295943.457998 0 0 135043767.8482877 0 0 137431803.206762 0 0 134387951.9289427 0 0 133666861.6278997 0 0 132896850.6342873 0 0 132092551.4202906 0 0 131268570.1510754 0 0 130422275.3532406 0 0 130660964.7774706 0 0 129259825.2980233 0 0 128442695.557303 0 0 127624469.6792475 0 0 126813930.2258336 0 0 126005346.4155997 0 0 125217163.4879551 0 0 125224156.8232411 0 0 124304413.8084505 0 0 123570983.9868089 0 0 123411848.2268768 0 0 122700307.3602068 0 0 121891219.2988634 0 0 121927758.4224431 0 0 121239867.6586335 0 0 120606053.4167438 0 0 119986403.5691433 0 0 119384314.1442023 0 0 118749467.3707018 0 0 118819823.4083813 0 0 118197361.2830201 0 0 117655981.1801783 0 0 117136886.807304 0 0 116629757.3223033 0 0 116134054.8937411 0 0 115744434.5749416 0 0 115215767.4509378 0 0 115301119.2156378 0 0 114782189.2288497 0 0 114362543.7860978 0 0 113956454.9299759 0 0 113563229.2210374 0 0 113202197.3093206 0 0 113283523.380154 0 0 112839507.4046185 0 0 112488066.9595924 0 0 112148071.2533418 0 0 111819319.2441179 0 0 111501467.5793876 0 0 111006372.3685503 0 0 111194545.9744028 0 0 110932526.2772046 0 0 110695353.6943339 0 0 110270485.1574721 0 0 110440800.9313341 0 0 123541671.067574 0 0 136229765.6073722 0 0 134733062.3555718 0 0 140082608.0715417 0 0 134091169.3144259 0 0 140500219.3286496 0 0 141646276.6854209 0 0 142488976.9162586 0 0 142961573.4967605 0 0 143144579.804962 0 0 143054913.5902636 0 0 142754628.4645977 0 0 142254236.1715389 0 0 138422963.600609 0 0 140389207.5429102 0 0 139757383.697098 0 0 139010724.8976933 0 0 138173138.5377976 0 0 136607694.961525 0 0 135669523.6187079 0 0 135727438.5096602 0 0 134808941.7675816 0 0 133861722.215965 0 0 132899032.0459457 0 0 131926779.485761 0 0 130963740.4715826 0 0 129570489.4950455 0 0 129747749.2602812 0 0 128834580.5989578 0 0 127937259.9976069 0 0 127058368.8727602 0 0 126196554.2371775 0 0 125351760.8721495 0 0 124445416.2424139 0 0 124425781.6754732 0 0 123649569.8500868 0 0 122732474.7426544 0 0 122056423.0218613 0 0 121294237.0584434 0 0 122006018.7164169 0 0 120666898.6451983 0 0 120054355.6798317 0 0 119459323.3967988 0 0 118882087.7523008 0 0 118269427.2575103 0 0 118799101.1400068 0 0 117729943.2859987 0 0 117211263.4630377 0 0 116703903.1934608 0 0 116214149.7997091 0 0 115764912.4597037 0 0 115673461.9548045 0 0 114868248.8373502 0 0 115216862.2651654 0 0 114449036.169653 0 0 114043156.5047845 0 0 113650111.7418793 0 0 113269942.918204 0 0 112920201.6534348 0 0 113183574.8381659 0 0 112567995.781581 0 0 112227113.7678071 0 0 111897238.6330741 0 0 111577978.747239 0 0 111269263.2548788 0 0 110891593.4443446 0 0 110969338.5140794 0 0 110739843.1180988 0 0 110560683.258553 0 0 110389169.4723454 0 0 122855294.8956568 0 0 151266455.6015214 0 0 149875436.8301228 0 0 134940614.984328 0 0 146336629.8669299 0 0 136264127.95608 0 0 137546036.5834455 0 0 138581336.7898061 0 0 139323101.4730794 0 0 139777160.4503982 0 0 139949460.2882986 0 0 139879396.9266825 0 0 139610874.7252656 0 0 141599739.3245933 0 0 138110837.0495724 0 0 137639357.5675862 0 0 137039821.4850354 0 0 136340929.0988953 0 0 134959544.972648 0 0 137267587.1377143 0 0 134185948.1630549 0 0 133364300.0970005 0 0 132510809.2016147 0 0 131635689.2760681 0 0 130753099.9655682 0 0 129857702.2448925 0 0 130002733.1232606 0 0 128713778.8296943 0 0 127863746.8468358 0 0 127020858.1680724 0 0 126189859.3405466 0 0 125370902.0275929 0 0 124570600.1586683 0 0 124529066.4085485 0 0 123690034.9949216 0 0 122951457.8241329 0 0 122807022.7289877 0 0 122097847.5989119 0 0 121332907.5861612 0 0 121395721.3482347 0 0 120680912.5565235 0 0 120047069.7316551 0 0 119429963.4268566 0 0 118831568.4614305 0 0 118233460.9284246 0 0 118323213.3156447 0 0 117683580.7908298 0 0 117151767.2025191 0 0 116643540.4678427 0 0 116143799.7418656 0 0 115663230.7336405 0 0 115309278.179886 0 0 114775006.9056907 0 0 114867738.207344 0 0 114347856.3989564 0 0 113935119.6088114 0 0 113535839.4699988 0 0 113149921.1153323 0 0 112815916.5157113 0 0 112901321.9821227 0 0 112459785.7710844 0 0 112115319.3581487 0 0 111782179.3498125 0 0 111460241.1589337 0 0 111149065.0189703 0 0 110684882.587605 0 0 110851669.7629418 0 0 110602416.7238144 0 0 110356376.5252968 0 0 110144803.9795816 0 0 122893846.9089268 0 0 148701270.9772408 0 0 149385781.4253159 0 0 145983968.8055488 0 0 140584619.2805468 0 0 148840375.6210375 0 0 146482108.3987911 0 0 146533130.6347476 0 0 146294874.7562938 0 0 145906169.9407414 0 0 145397206.4062324 0 0 144727386.497973 0 0 143944401.5257675 0 0 143046440.5600368 0 0 139167103.5249684 0 0 140819760.6879749 0 0 139941909.313954 0 0 138989170.0288942 0 0 137981159.8257401 0 0 136312350.4272982 0 0 135562808.1746276 0 0 135323592.284603 0 0 134316046.3248263 0 0 133294252.4705245 0 0 132270523.0544616 0 0 131253562.739711 0 0 130249117.5336062 0 0 128969304.1487548 0 0 129056693.189379 0 0 128124814.341202 0 0 127210325.5765058 0 0 126317713.0075768 0 0 125444865.3294297 0 0 124598819.8839271 0 0 123790943.9519391 0 0 123729685.4280455 0 0 122952879.7494373 0 0 122160214.8192385 0 0 121477620.6583666 0 0 120754288.9497454 0 0 121404981.4246009 0 0 120128466.0568703 0 0 119517216.6927798 0 0 118924550.6445339 0 0 118351154.4351483 0 0 117775670.9467584 0 0 118253346.0486099 0 0 117245853.9929554 0 0 116736612.4729241 0 0 116235698.0222196 0 0 115759581.0748559 0 0 115298471.7425076 0 0 115199453.8305858 0 0 114440515.7173313 0 0 114750579.885061 0 0 114027641.0352091 0 0 113627943.7437147 0 0 113241372.4558359 0 0 112868502.6107727 0 0 112544074.1631375 0 0 112777952.6244781 0 0 112198544.0639866 0 0 111864151.6008741 0 0 111540780.4329667 0 0 111227466.7115658 0 0 110925144.6696168 0 0 110564958.1197824 0 0 110632208.2043106 0 0 110460797.8559139 0 0 110300667.980804 0 0 122232747.6910641 0 0 165158616.4785091 0 0 162968248.0737519 0 0 141015170.1571707 0 0 153046826.2511232 0 0 150030362.5585638 0 0 141548182.4820807 0 0 141877012.8382143 0 0 142051419.7581402 0 0 142080181.4486862 0 0 141927518.4873389 0 0 141572628.6791323 0 0 141062764.3375795 0 0 140431198.133401 0 0 142063659.7635147 0 0 138578840.9163592 0 0 137875083.6835925 0 0 137080219.8299507 0 0 136215842.2272994 0 0 134725349.3845618 0 0 136934089.8021474 0 0 133844769.9802327 0 0 132932363.729351 0 0 132004243.4702343 0 0 131067606.1241593 0 0 130131858.3634468 0 0 129196047.6761935 0 0 129258380.7966935 0 0 128079407.06938 0 0 127200436.2154339 0 0 126341545.7703427 0 0 125496647.1989457 0 0 124671260.2305602 0 0 123867861.5778574 0 0 123777274.951455 0 0 123030775.7619924 0 0 122290983.3063301 0 0 122156544.0921425 0 0 121449393.6733021 0 0 120734081.1648858 0 0 120818194.3807534 0 0 120083827.69242 0 0 119453414.8839729 0 0 118839048.823954 0 0 118250847.3370182 0 0 117693088.790855 0 0 117793979.0918071 0 0 117151830.4775456 0 0 116628786.0797993 0 0 116122584.6415035 0 0 115635130.0887273 0 0 115163802.5941619 0 0 114849953.5768624 0 0 114316739.9374185 0 0 114415811.4425749 0 0 113897897.9040724 0 0 113493351.1164251 0 0 113102798.8304429 0 0 112725304.0365085 0 0 112418105.8317249 0 0 112506954.3267888 0 0 112069439.8165578 0 0 111732540.0199417 0 0 111407381.5184902 0 0 111093703.1593628 0 0 110792663.5422023 0 0 110345290.744373 0 0 110514506.8038218 0 0 110268290.633825 0 0 110007335.9468354 0 0 122198957.9465964 0 0 162131293.1086181 0 0 159905036.0549736 0 0 152785421.7482648 0 0 148364022.9170991 0 0 160483422.3970954 0 0 151984039.6297099 0 0 150726371.0431006 0 0 149524016.3802569 0 0 148387869.147166 0 0 147230892.4947253 0 0 146025538.9283928 0 0 144799684.9530588 0 0 143546200.2805683 0 0 139680059.2105981 0 0 141012802.8552098 0 0 139910525.8476855 0 0 138772307.6099774 0 0 137612407.3575498 0 0 135862426.0131421 0 0 135299794.5742473 0 0 134777933.9354091 0 0 133691726.5970227 0 0 132609216.9731969 0 0 131535459.9628664 0 0 130481525.2198617 0 0 129446657.4307609 0 0 128274728.6235923 0 0 128288030.6579177 0 0 127343228.1778389 0 0 126417875.4164008 0 0 125518206.505336 0 0 124645655.6441303 0 0 123800294.6219337 0 0 123086363.2334872 0 0 122980720.5282143 0 0 122209285.9673757 0 0 121540882.9759714 0 0 120863071.543483 0 0 120175928.3228611 0 0 120763062.13514 0 0 119552472.4374564 0 0 118944218.7552199 0 0 118360520.4065662 0 0 117791703.5210938 0 0 117255227.8474128 0 0 117679608.8396226 0 0 116734144.8342866 0 0 116228947.821492 0 0 115741734.6314087 0 0 115270280.6397358 0 0 114814339.5998164 0 0 114708128.0775899 0 0 113996349.6327211 0 0 114268303.9974231 0 0 113590853.7825001 0 0 113198798.9091762 0 0 112819920.3831998 0 0 112454767.2735853 0 0 112156850.2672421 0 0 112361553.6168587 0 0 111818420.6543659 0 0 111491660.1863554 0 0 111175859.8369713 0 0 110870973.5540733 0 0 110582128.8159461 0 0 110330206.3221315 0 0 110351861.5627199 0 0 110164211.6801309 0 0 121573666.4905283 0 0 179188378.9008272 0 0 174931694.7051393 0 0 147042486.8913551 0 0 160508668.1126852 0 0 158009090.0745335 0 0 146346154.5140901 0 0 145716761.334489 0 0 145109352.1867673 0 0 144473824.5755453 0 0 143704200.4781763 0 0 142873172.8854444 0 0 141964845.2987017 0 0 140993106.9574697 0 0 142270603.9064119 0 0 138834332.8031456 0 0 137914797.1533277 0 0 136940473.1836095 0 0 135925749.7927604 0 0 134347016.4533827 0 0 136440687.3785695 0 0 133370825.4355688 0 0 132380325.743639 0 0 131387075.7714485 0 0 130398798.4086437 0 0 129418543.4012007 0 0 128453918.8315067 0 0 128434381.008005 0 0 127363712.4680708 0 0 126469706.9217303 0 0 125595448.4832098 0 0 124744194.6510392 0 0 123915728.4155799 0 0 123111321.9965646 0 0 122982469.7778824 0 0 122326875.3943559 0 0 121590883.9038469 0 0 121467600.5528647 0 0 120763919.5235548 0 0 120096666.0322519 0 0 120201614.794755 0 0 119452788.3740374 0 0 118826320.0366407 0 0 118222526.1800217 0 0 117644291.2450557 0 0 117128417.4519235 0 0 117242535.9980063 0 0 116596528.4253217 0 0 116082744.8864097 0 0 115586407.1092019 0 0 115108207.5116413 0 0 114646963.8655037 0 0 114373875.9793777 0 0 113843864.3909871 0 0 113948402.8432927 0 0 113434445.2579659 0 0 113039115.6870129 0 0 112658053.5158612 0 0 112290471.1298749 0 0 112009600.89346 0 0 112101370.6918093 0 0 111669585.2734981 0 0 111341412.7708911 0 0 111025013.2523799 0 0 110720474.1417538 0 0 110441772.0352401 0 0 109999450.3378164 0 0 110178551.5566987 0 0 109849750.4009091 0 0 121464433.1620852 0 0 174979286.2563887 0 0 166615424.7420844 0 0 159589048.4620149 0 0 155274360.9039631 0 0 169016366.5039908 0 0 156617902.5307541 0 0 154227827.1599887 0 0 152231261.4152373 0 0 150371030.1144902 0 0 148613028.4081917 0 0 146945649.1522976 0 0 145332116.0733146 0 0 143760599.0947352 0 0 139957654.2604816 0 0 140975140.8959928 0 0 139669990.7437137 0 0 138368246.1634041 0 0 137075283.3922035 0 0 135266922.233086 0 0 134885398.2309286 0 0 134101533.1365498 0 0 132951991.8205229 0 0 131818494.7752511 0 0 130703915.8352574 0 0 129620405.9238774 0 0 128566520.6786471 0 0 127508004.1893864 0 0 127450462.2703937 0 0 126493838.9632089 0 0 125565555.3994611 0 0 124668250.2774165 0 0 123800021.0784355 0 0 122959333.6918748 0 0 122331352.0809789 0 0 122192040.3984286 0 0 121428793.5469105 0 0 120881992.3335394 0 0 120207578.6541627 0 0 119565162.6872494 0 0 120084743.1530267 0 0 118942707.175371 0 0 118344936.199942 0 0 117768999.8246896 0 0 117206314.2614381 0 0 116711542.6958606 0 0 117081939.7099529 0 0 116197611.240653 0 0 115701775.2444877 0 0 115222574.5976023 0 0 114760180.1333778 0 0 114313854.6100757 0 0 114201793.9164068 0 0 113537646.5279622 0 0 113772575.3611277 0 0 113140656.3293279 0 0 112757739.9847243 0 0 112388347.5276384 0 0 112031723.9863092 0 0 111759379.7331899 0 0 111935648.4190574 0 0 111429264.8346834 0 0 111110788.3460537 0 0 110804213.1537472 0 0 110513292.4974556 0 0 110247242.5678649 0 0 110013762.7298142 0 0 110122680.0042252 0 0 120876443.5143615 0 0 192532090.3404504 0 0 171667897.2580638 0 0 152660973.3327247 0 0 168863340.5212413 0 0 175733379.6978281 0 0 150610653.5781527 0 0 149073190.0897568 0 0 147700026.5442856 0 0 146423110.3852741 0 0 145136901.3075553 0 0 143854371.2510109 0 0 142581924.8447401 0 0 141299434.0200265 0 0 142218883.8456911 0 0 138876872.9213298 0 0 137762206.922683 0 0 136625546.7513033 0 0 135477469.2124024 0 0 133831310.9517954 0 0 135796657.6374446 0 0 132772113.8768727 0 0 131712972.5242015 0 0 130664604.8949062 0 0 129637059.9811121 0 0 128624956.3183493 0 0 127634345.300786 0 0 127538727.006125 0 0 126581272.1821828 0 0 125673630.4872379 0 0 124794305.717015 0 0 123939353.2915512 0 0 123111183.3349483 0 0 122310489.0794878 0 0 122148208.8051805 0 0 121576272.3189429 0 0 120845822.1891517 0 0 120742502.0792036 0 0 120047776.3638819 0 0 119426765.5223206 0 0 119554459.4889708 0 0 118789450.651103 0 0 118174283.560761 0 0 117582906.6381697 0 0 117015780.5993814 0 0 116542858.7323609 0 0 116668026.1490212 0 0 116021406.9066422 0 0 115518482.0741624 0 0 115033660.0245868 0 0 114566748.7311054 0 0 114117096.9343281 0 0 113883244.3072512 0 0 113358683.1473627 0 0 113467616.1917415 0 0 112959706.2276845 0 0 112574757.4328217 0 0 112204256.5898818 0 0 111847084.3191191 0 0 111592926.3379995 0 0 111686711.6210585 0 0 111261939.1164369 0 0 110942692.4092883 0 0 110634089.9077076 0 0 110327121.5373521 0 0 110050381.4664762 0 0 109675347.7748968 0 0 109844962.5472944 0 0 120692377.1959419 0 0 185896636.9373601 0 0 186199051.5429438 0 0 164254675.4060905 0 0 160347976.5890094 0 0 165805427.0116491 0 0 160323489.2581538 0 0 157097957.297896 0 0 154327433.0222807 0 0 151854954.4825714 0 0 149582440.7204578 0 0 147500811.5349452 0 0 145544495.7768673 0 0 143692255.6764343 0 0 140006435.2323118 0 0 140708826.3090228 0 0 139229413.3081282 0 0 137787183.1616752 0 0 136383102.07217 0 0 134537144.38261 0 0 134328320.3198141 0 0 133304746.195828 0 0 132099799.1521977 0 0 130927993.8180472 0 0 129785020.9830606 0 0 128682105.3457246 0 0 127616357.0493964 0 0 126671743.7190342 0 0 126546916.8450394 0 0 125589429.2034803 0 0 124661446.3901901 0 0 123775731.0223922 0 0 122914003.3681311 0 0 122081911.94859 0 0 121536875.3446486 0 0 121367570.8970511 0 0 120616147.7241404 0 0 120187194.6854976 0 0 119519669.1540566 0 0 118919266.3610436 0 0 119376219.0823546 0 0 118308259.5277288 0 0 117718560.6243381 0 0 117150399.7460517 0 0 116600149.612698 0 0 116145365.7126384 0 0 116464966.8798854 0 0 115642017.1273101 0 0 115156077.3542496 0 0 114687503.4723466 0 0 114235924.7841739 0 0 113800350.3337784 0 0 113683539.4607792 0 0 113066514.8981456 0 0 113265846.2756816 0 0 112679429.5023461 0 0 112306882.6158459 0 0 111947212.4710834 0 0 111599952.3175317 0 0 111353654.8881885 0 0 111502385.559555 0 0 111032140.2847554 0 0 110721540.9263155 0 0 110419231.9762188 0 0 110137360.6287941 0 0 110002318.3236021 0 0 109836966.5342107 0 0 120140533.1919753 0 0 205382581.900347 0 0 179078807.3478592 0 0 157045919.2991001 0 0 174397853.1907328 0 0 181872337.8007253 0 0 154190492.4595604 0 0 151861440.7213416 0 0 149806225.5268657 0 0 147940912.8179068 0 0 146187732.1140709 0 0 144513276.6627976 0 0 142903574.5598481 0 0 141346468.0678013 0 0 141921454.3913652 0 0 138710895.2554268 0 0 137423298.9800352 0 0 136143897.2018892 0 0 134879410.1595381 0 0 133187078.1116894 0 0 135014450.7896314 0 0 132056251.6728032 0 0 130943887.3555448 0 0 129851460.6068637 0 0 128790068.1784007 0 0 127755811.8363008 0 0 126744902.0962418 0 0 126583130.5195729 0 0 125732425.0053256 0 0 124822265.8152228 0 0 123946062.322804 0 0 123091081.707327 0 0 122266427.734393 0 0 121472573.9051739 0 0 121281073.3285157 0 0 120789954.3841564 0 0 120069853.7735822 0 0 119983378.6874927 0 0 119299646.2590907 0 0 118728004.3284658 0 0 118871353.5721119 0 0 118101516.6252813 0 0 117501225.1447299 0 0 116924383.9298538 0 0 116367924.1125918 0 0 115938717.7784497 0 0 116073692.5088774 0 0 115429667.8195391 0 0 114939596.3145208 0 0 114467657.7950799 0 0 114013546.8618192 0 0 113576468.7767925 0 0 113380508.900086 0 0 112863560.4684407 0 0 112975779.2822312 0 0 112475843.1271311 0 0 112102645.8450919 0 0 111743333.3163882 0 0 111397126.0322249 0 0 111169585.1105243 0 0 111264843.4640509 0 0 110848433.9369508 0 0 110539209.692367 0 0 110243054.6707895 0 0 109971868.6135732 0 0 109649939.253624 0 0 109500203.0295931 0 0 119893376.8768351 0 0 196875516.7038841 0 0 196467217.226731 0 0 167963370.8557143 0 0 165272656.8275223 0 0 171556089.7096978 0 0 163229819.5284542 0 0 159247451.9069847 0 0 155830742.5236295 0 0 152829035.3819517 0 0 150131040.6124746 0 0 147688582.929471 0 0 145445600.173656 0 0 143352714.0026747 0 0 139826551.790245 0 0 140226626.0836449 0 0 138600857.14246 0 0 137040848.4438179 0 0 135542433.6113217 0 0 133682314.3626849 0 0 133636475.600145 0 0 132394938.3965184 0 0 131153281.0411338 0 0 129951205.3768173 0 0 128790582.9709652 0 0 127676003.8918082 0 0 126607395.2444825 0 0 125773960.0864866 0 0 125592319.9552755 0 0 124636834.1920662 0 0 123720767.7577282 0 0 122841931.8469399 0 0 121992021.6760032 0 0 121174692.6568824 0 0 120709603.0066789 0 0 120513905.0110554 0 0 119778028.8669432 0 0 119459377.2751399 0 0 118800912.5963856 0 0 118248492.2240603 0 0 118642505.9818563 0 0 117648623.5314434 0 0 117070797.1924669 0 0 116513555.447881 0 0 115976808.5104457 0 0 115562310.0241084 0 0 115832435.6091929 0 0 115070249.1572784 0 0 114596057.6812629 0 0 114139494.3297167 0 0 113699804.6445304 0 0 113276233.3618414 0 0 113155666.2135709 0 0 112585485.4937291 0 0 112750522.1904644 0 0 112209653.252898 0 0 111847634.2991513 0 0 111498625.4087189 0 0 111161803.0822459 0 0 110941481.1672629 0 0 111063097.5698447 0 0 110629411.541904 0 0 110328593.0078493 0 0 110045368.1190958 0 0 109783634.4171239 0 0 109655110.4715897 0 0 109792615.6652054 0 0 119375852.8340549 0 0 217346196.124235 0 0 194065192.9094227 0 0 160718016.6848208 0 0 177255557.4707746 0 0 185617221.466225 0 0 157107116.6124476 0 0 154057711.7841938 0 0 151405240.7045395 0 0 149031523.7504686 0 0 146857015.4163656 0 0 144838853.5816799 0 0 142940997.4117732 0 0 141141912.3536451 0 0 141392842.7896158 0 0 138344264.8449153 0 0 136905231.8614799 0 0 135505011.3262913 0 0 134143290.0004069 0 0 132422195.2608758 0 0 134102439.9343052 0 0 131234702.6650843 0 0 130076860.8336377 0 0 128951046.0826923 0 0 127866594.440763 0 0 126815815.7405327 0 0 125802034.461059 0 0 125577659.8166111 0 0 124832338.550563 0 0 123925358.1250551 0 0 123053443.7077022 0 0 122204302.1472057 0 0 121389574.322462 0 0 120604325.9655887 0 0 120387354.5017865 0 0 119974873.0760046 0 0 119267761.8093626 0 0 119199676.2236668 0 0 118536390.6877633 0 0 118004916.622562 0 0 118166031.4581817 0 0 117395248.4965796 0 0 116810106.313749 0 0 116247660.2179763 0 0 115706819.2047282 0 0 115318952.1996424 0 0 115461359.5795917 0 0 114825146.8145417 0 0 114349075.1784229 0 0 113891262.482178 0 0 113451040.3257555 0 0 113027678.159394 0 0 112868215.4083214 0 0 112360660.0309508 0 0 112475309.3085822 0 0 111985127.9891796 0 0 111624235.9492765 0 0 111276840.1578557 0 0 110942045.9946542 0 0 110741268.6647453 0 0 110837302.9358797 0 0 110431125.8380625 0 0 110136569.1486059 0 0 109864784.6160579 0 0 109618995.4438327 0 0 109310948.2062299 0 0 109445489.6910999 0 0 119071434.0875386 0 0 209889581.0957653 0 0 186664544.3453084 0 0 208334928.9015995 0 0 170755939.8643445 0 0 174634623.8249253 0 0 168758063.4236715 0 0 165300102.3178283 0 0 160689521.0119454 0 0 156746447.3634386 0 0 153313673.0348932 0 0 150267481.9663595 0 0 147534649.0060199 0 0 145050039.4992833 0 0 142760923.4377413 0 0 139422669.9130893 0 0 139545487.2724566 0 0 137799795.5833468 0 0 136144718.9429161 0 0 134572756.8721434 0 0 132720032.4382366 0 0 132822700.3610264 0 0 131390487.2444865 0 0 130118221.9382363 0 0 128901285.0740004 0 0 127733594.2235944 0 0 126617308.8790578 0 0 125548575.2407914 0 0 124825881.5076661 0 0 124590575.1600456 0 0 123647071.7699969 0 0 122743207.1425537 0 0 121878661.5518341 0 0 121041759.8091441 0 0 120243028.1046887 0 0 119855899.2334093 0 0 119637432.928555 0 0 118919717.8689705 0 0 118708580.5376379 0 0 118057311.3952637 0 0 117555530.919407 0 0 117884495.9652409 0 0 116969044.2137139 0 0 116404186.0706907 0 0 115861289.4519611 0 0 115339167.7175829 0 0 114964686.5901279 0 0 115187874.8110531 0 0 114485354.7680885 0 0 114024518.5057684 0 0 113581074.9082905 0 0 113154401.4532799 0 0 112743816.1130132 0 0 112620524.6256817 0 0 112096780.3780045 0 0 112228905.913539 0 0 111732980.3673158 0 0 111382353.9970979 0 0 111044327.9754904 0 0 110718595.1816484 0 0 110524705.237771 0 0 110619282.3691173 0 0 110224168.9616327 0 0 109940766.3043369 0 0 109675560.6519542 0 0 109552962.6841632 0 0 109436891.3619763 0 0 118588724.2642344 0 0 230347865.1248617 0 0 199373365.7276655 0 0 198630697.8011221 0 0 163584128.2837685 0 0 188530622.153556 0 0 179704477.2781506 0 0 159294932.3759706 0 0 155658728.6349995 0 0 152492007.748122 0 0 149685107.4065062 0 0 147152155.6707467 0 0 144836336.0452181 0 0 142694670.2365082 0 0 140693668.6700939 0 0 140649410.3625903 0 0 137785904.7034957 0 0 136219224.0433203 0 0 134717052.0713801 0 0 133276719.9180935 0 0 131544647.7958895 0 0 133078652.4356826 0 0 130314382.6326841 0 0 129124376.4927636 0 0 127979176.3305311 0 0 126879066.1349488 0 0 125821170.9257467 0 0 124806181.7514756 0 0 124527275.9903326 0 0 123888195.401445 0 0 122989960.3367569 0 0 122123946.5350007 0 0 121285300.8505984 0 0 120484069.6708543 0 0 119713627.9915008 0 0 119474288.8576401 0 0 119136137.1335576 0 0 118445198.4716554 0 0 118392838.041989 0 0 117742948.7934974 0 0 117265842.0181594 0 0 117438551.7234674 0 0 116673359.4454626 0 0 116105039.5866842 0 0 115559639.0750977 0 0 115035844.9447583 0 0 114688197.0317171 0 0 114836813.431152 0 0 114210752.0458023 0 0 113749976.5424596 0 0 113307271.9672497 0 0 112881921.3192941 0 0 112473222.4598328 0 0 112348688.5526494 0 0 111852353.1569088 0 0 111968556.1830547 0 0 111489932.3862215 0 0 111141615.8484765 0 0 110806392.2934367 0 0 110483404.5287345 0 0 110308284.7752256 0 0 110404723.4902365 0 0 110006612.3083523 0 0 109717707.7698325 0 0 109455659.3065951 0 0 109272206.0346161 0 0 109104594.4887705 0 0 118231814.7764112 0 0 216028162.3872533 0 0 188871558.6288397 0 0 217028522.5243862 0 0 172566363.442405 0 0 178413364.9504248 0 0 171416950.5828562 0 0 166534947.7529667 0 0 161447909.0882032 0 0 157104200.3763322 0 0 153333588.3071645 0 0 150011685.4299075 0 0 147051063.8163882 0 0 144374301.081581 0 0 141942030.9911768 0 0 138816203.7447461 0 0 138681885.4337873 0 0 136841868.3257914 0 0 135115340.5446734 0 0 133490323.8778079 0 0 131657241.015463 0 0 131896780.9140992 0 0 130303722.8363893 0 0 129015601.9942067 0 0 127788936.0370942 0 0 126621353.6585627 0 0 125509610.0506708 0 0 124450967.2332513 0 0 123835264.650225 0 0 123554854.1506556 0 0 122624976.0479079 0 0 121736417.1436225 0 0 120889813.2380358 0 0 120074555.6069645 0 0 119294450.4951679 0 0 118981515.1738267 0 0 118744196.8684636 0 0 118046743.468624 0 0 117934996.6609742 0 0 117303203.4834716 0 0 116844779.5429898 0 0 117116656.469047 0 0 116273464.735826 0 0 115724342.0134095 0 0 115197049.8772389 0 0 114690054.9672972 0 0 114355734.7378793 0 0 114533255.1350529 0 0 113890691.8965859 0 0 113444118.6881441 0 0 113014840.3373049 0 0 112602224.3171908 0 0 112205544.7535938 0 0 112080509.0970962 0 0 111602711.6360339 0 0 111703129.3820064 0 0 111251017.7662023 0 0 110912399.3688279 0 0 110586051.1873898 0 0 110271568.224023 0 0 110102195.314138 0 0 110171813.1168441 0 0 109808114.885802 0 0 109546747.8219174 0 0 109371598.9893578 0 0 109235620.8005906 0 0 117782790.8284064 0 0 237988127.9603388 0 0 202347552.8132716 0 0 202563229.9186452 0 0 165663205.2362081 0 0 190563600.1870445 0 0 181206142.1578641 0 0 160804337.5297078 0 0 156665457.6227954 0 0 153079753.0468041 0 0 149918989.8489445 0 0 147090373.4826187 0 0 144528300.2890307 0 0 142186403.2372239 0 0 140024246.0247968 0 0 139711046.1904414 0 0 137048598.1731187 0 0 135378571.3159514 0 0 133796825.2926862 0 0 132296372.8841137 0 0 130574744.7986476 0 0 131958479.6905586 0 0 129310271.895826 0 0 128099201.4977231 0 0 126941705.0376794 0 0 125835106.2160502 0 0 124778309.1164987 0 0 123770670.5220243 0 0 123446810.179667 0 0 122908403.3093981 0 0 122018750.501254 0 0 121165123.1918851 0 0 120341849.8879324 0 0 119556296.9975463 0 0 118804234.7501555 0 0 118547013.6600063 0 0 118279188.550194 0 0 117607208.4297697 0 0 117574567.254313 0 0 116943569.107271 0 0 116514884.1983515 0 0 116698992.0907011 0 0 115940112.5603877 0 0 115390269.0800553 0 0 114862931.1297587 0 0 114357247.9279264 0 0 114050515.1290732 0 0 114203516.418597 0 0 113589238.9655642 0 0 113144912.4631572 0 0 112718247.452501 0 0 112308668.4829805 0 0 111915408.843452 0 0 111824243.8893205 0 0 111340497.8729737 0 0 111457722.5960402 0 0 110991714.1311938 0 0 110656471.53027 0 0 110334185.4054791 0 0 110023919.3544859 0 0 109870292.9248082 0 0 109967712.6323334 0 0 109570572.5472772 0 0 109274217.4109521 0 0 109062883.8808788 0 0 108885702.1021329 0 0 117380449.4490139 0 0 228892050.5569577 0 0 191008736.092536 0 0 214047125.7180398 0 0 173469899.6758019 0 0 181004767.3073458 0 0 173299185.1827921 0 0 167014087.4847521 0 0 161584182.2503128 0 0 156944564.328744 0 0 152924577.160099 0 0 149395614.6891887 0 0 146264305.013756 0 0 143453754.355046 0 0 140914449.6354786 0 0 138018128.1395917 0 0 137654906.5731408 0 0 135747148.527186 0 0 133969210.2009151 0 0 132309858.5505729 0 0 130512094.2821211 0 0 130872032.2292551 0 0 129144881.668038 0 0 127850996.3547072 0 0 126626171.4620553 0 0 125466304.7915834 0 0 124368272.6887692 0 0 123326571.4261641 0 0 122812580.0039446 0 0 122489383.3488851 0 0 121578101.9492404 0 0 120709917.4374745 0 0 119883331.5088814 0 0 119090250.5958771 0 0 118334775.1877616 0 0 118092139.9529271 0 0 117839560.434223 0 0 117165334.8596175 0 0 117145862.8631101 0 0 116531923.5488248 0 0 116120682.5345382 0 0 116335121.9266988 0 0 115566214.1057319 0 0 115034085.5097711 0 0 114523496.7344973 0 0 114033809.0214064 0 0 113737831.0590919 0 0 113872609.5558857 0 0 113288662.7729809 0 0 112857498.5303408 0 0 112443396.9474578 0 0 112045694.4264777 0 0 111663733.9540872 0 0 111537798.5638525 0 0 111105178.144712 0 0 111175220.1291021 0 0 110766119.6471754 0 0 110439901.5167334 0 0 110126080.5655932 0 0 109823798.5964396 0 0 109672002.5609144 0 0 109724574.633302 0 0 109367670.2487354 0 0 109206654.6980998 0 0 109023174.0611192 0 0 116964187.0406513 0 0 250272979.8737236 0 0 224596981.4699444 0 0 202226920.8361824 0 0 203755924.2065771 0 0 166959943.1878032 0 0 191334347.1221777 0 0 181558485.3158652 0 0 161639464.7788781 0 0 157112372.0081595 0 0 153194204.3040836 0 0 149752790.8169658 0 0 146691138.6468441 0 0 143935885.3200697 0 0 141437577.7581141 0 0 139151665.2529036 0 0 138602614.2988865 0 0 136149051.7108297 0 0 134398608.3884758 0 0 132759155.1820952 0 0 131215611.5080103 0 0 129519061.8254164 0 0 130756329.5251557 0 0 128233360.9300214 0 0 127011520.4820543 0 0 125850274.5701533 0 0 124746958.1051053 0 0 123697610.8072166 0 0 122707357.6232614 0 0 122340928.6881147 0 0 121896020.3077613 0 0 121020169.06328 0 0 120184154.8451797 0 0 119380941.9332039 0 0 118615484.0959684 0 0 117884427.315491 0 0 117611977.2158632 0 0 117410679.248227 0 0 116759568.8704194 0 0 116743991.8076229 0 0 116134200.7007658 0 0 115753505.7443443 0 0 115945607.7583305 0 0 115199324.4411464 0 0 114669297.6238108 0 0 114161299.8111075 0 0 113674756.7893181 0 0 113407858.6814686 0 0 113564204.8218282 0 0 112963782.1142501 0 0 112536606.1233025 0 0 112126869.1300869 0 0 111733735.8097773 0 0 111356548.6905277 0 0 111296893.991309 0 0 110826995.2887441 0 0 110944480.8196596 0 0 110492363.2937103 0 0 110170918.5125991 0 0 109862236.3950637 0 0 109565910.8689382 0 0 109437835.1310752 0 0 109532282.1549112 0 0 109189480.176104 0 0 108797231.1203858 0 0 108655168.1086329 0 0 116522461.9072939 0 0 236906542.3100175 0 0 217279636.8250022 0 0 191947774.0923269 0 0 217948027.7054748 0 0 173504826.3754464 0 0 182256146.2247114 0 0 174183192.8402423 0 0 166805072.6187392 0 0 161152169.4023546 0 0 156316375.058205 0 0 152127881.2372911 0 0 148460074.1674723 0 0 145214266.7583179 0 0 142315216.0151321 0 0 139706920.6548834 0 0 137050779.8613877 0 0 136485938.3111217 0 0 134534489.309136 0 0 132726892.8198255 0 0 131050339.8886283 0 0 129298689.8695369 0 0 129761503.7419809 0 0 127928189.413103 0 0 126638982.0926044 0 0 125424616.686381 0 0 124277438.5937079 0 0 123196877.8245036 0 0 122179278.7315463 0 0 121760514.7386873 0 0 121404690.9228127 0 0 120514751.5692522 0 0 119669584.6804796 0 0 118868837.0116079 0 0 118102827.8789254 0 0 117370403.7491592 0 0 117193727.4345109 0 0 116929206.766426 0 0 116280525.6233671 0 0 116346537.3562014 0 0 115753001.5939966 0 0 115386585.5889601 0 0 115548406.947044 0 0 114850784.4412472 0 0 114336878.217038 0 0 113844567.137808 0 0 113373179.972686 0 0 113114936.4510786 0 0 113209237.8243632 0 0 112682351.3171761 0 0 112267456.2844435 0 0 111869315.0752656 0 0 111487221.5486522 0 0 111120577.9973962 0 0 110994658.1301251 0 0 110605600.5392725 0 0 110647380.1629527 0 0 110279923.8252832 0 0 109966929.112208 0 0 109666410.1512985 0 0 109377794.4785971 0 0 109251481.223375 0 0 109280756.4131884 0 0 108893435.3374157 0 0 108804286.973313 0 0 108908516.0688579 0 0 116138118.920252 0 0 259138509.6471496 0 0 235032140.6847373 0 0 203114927.6728995 0 0 205066116.3180014 0 0 167484180.2488883 0 0 190747194.6424956 0 0 180924092.6850925 0 0 161844148.1902567 0 0 157032131.7512925 0 0 152866902.2817173 0 0 149215882.4596577 0 0 145980220.8130975 0 0 143084467.8319977 0 0 140472677.2540945 0 0 138101089.4797474 0 0 137344262.1549567 0 0 135105405.314357 0 0 133299086.752836 0 0 131617884.2028353 0 0 130048129.3559836 0 0 128389634.352761 0 0 129489233.5650388 0 0 127095499.3033739 0 0 125872910.4195145 0 0 124715628.7553367 0 0 123624313.9963664 0 0 122594709.5614793 0 0 121618062.1122067 0 0 121218460.2021183 0 0 120859478.8566806 0 0 120002779.5803618 0 0 119188715.7147886 0 0 118407231.0951183 0 0 117663820.4212656 0 0 116957469.9901154 0 0 116673755.563038 0 0 116535088.3739794 0 0 115906977.5097145 0 0 115909716.0249726 0 0 115323007.499733 0 0 114988265.263893 0 0 115187051.1360901 0 0 114454807.2617841 0 0 113945385.5671834 0 0 113457924.7587076 0 0 112991616.5458917 0 0 112763440.4981275 0 0 112921569.4119732 0 0 112336978.1123597 0 0 111927862.353694 0 0 111535454.5575489 0 0 111159400.781205 0 0 110798865.543978 0 0 110768679.0357902 0 0 110313907.6285412 0 0 110430703.7487523 0 0 109993630.0690676 0 0 109686155.7750642 0 0 109391508.5403746 0 0 109109159.0254408 0 0 109004979.56236 0 0 109098003.0767075 0 0 108772303.9584356 0 0 108412550.2515789 0 0 108523637.6104305 0 0 115662202.0557893 0 0 247179108.9224643 0 0 227902320.6827585 0 0 192760324.8478939 0 0 215063527.8633039 0 0 172791355.8613923 0 0 182520662.0556158 0 0 174233887.4662883 0 0 165985276.369111 0 0 160218295.4887224 0 0 155274991.5625104 0 0 150992656.8900314 0 0 147245290.8238273 0 0 143935755.4031889 0 0 140988898.3383465 0 0 138345138.912578 0 0 135933925.5767311 0 0 135191499.1350229 0 0 133218110.5280533 0 0 131401181.1226552 0 0 129723544.4048253 0 0 128033778.3612568 0 0 128579164.8991169 0 0 126671015.3278781 0 0 125392545.6985186 0 0 124193184.1819989 0 0 123067396.609983 0 0 122013731.6531241 0 0 121021560.065493 0 0 120688984.6005305 0 0 120307174.1843239 0 0 119443308.7875186 0 0 118624716.1589909 0 0 117850991.27598 0 0 117110391.7407011 0 0 116409107.4382899 0 0 116292690.0600988 0 0 116019260.5602397 0 0 115396835.7974503 0 0 115541736.8803578 0 0 114968893.8674327 0 0 114647294.7230579 0 0 114758615.8483358 0 0 114130980.6431663 0 0 113636690.1716238 0 0 113163583.865218 0 0 112711254.7585394 0 0 112489308.8416327 0 0 112545932.3002261 0 0 112074429.0003648 0 0 111676342.0120616 0 0 111294860.9177652 0 0 110929066.2280976 0 0 110578242.7004046 0 0 110453107.8047222 0 0 110105986.1807952 0 0 110121353.8117018 0 0 109794096.7742955 0 0 109494545.8559283 0 0 109207508.0226354 0 0 108931732.9497673 0 0 108828002.527276 0 0 108827664.5798607 0 0 108661357.2527683 0 0 108520875.8032209 0 0 115308282.8727499 0 0 267238907.7112571 0 0 245841431.0355313 0 0 221760669.9980904 0 0 201026043.0641279 0 0 204249590.6177647 0 0 167318067.7169974 0 0 189298379.2174536 0 0 179561944.915364 0 0 161474065.3302026 0 0 156471025.1514161 0 0 152138550.7938209 0 0 148345734.627023 0 0 144992967.7405681 0 0 142003171.9733543 0 0 139317462.8528175 0 0 136890923.7194864 0 0 135958212.8556048 0 0 133936041.9107797 0 0 132096076.3146012 0 0 130394417.5575856 0 0 128814427.109999 0 0 127201279.2738854 0 0 128169191.6678844 0 0 125907755.5655261 0 0 124691350.6019649 0 0 123549628.3284708 0 0 122478078.7348227 0 0 121466067.7914712 0 0 120511292.778329 0 0 120088936.6140523 0 0 119809749.7982633 0 0 118976018.6839575 0 0 118186098.1340558 0 0 117430033.5840481 0 0 116712556.9718685 0 0 116030827.494606 0 0 115739784.2107415 0 0 115657920.8549587 0 0 115054333.1609616 0 0 115073413.8672844 0 0 114510747.9785241 0 0 114220903.3810441 0 0 114423722.7809184 0 0 113710236.3366749 0 0 113222017.8106718 0 0 112756035.7985721 0 0 112311032.4137956 0 0 112119739.5769543 0 0 112278561.739004 0 0 111711545.4170704 0 0 111320933.2583641 0 0 110946579.651622 0 0 110588010.304133 0 0 110244461.5430356 0 0 110241617.3776625 0 0 109803006.4200186 0 0 109918548.8365599 0 0 109497267.310749 0 0 109203479.6357512 0 0 108922250.9993238 0 0 108653126.1791462 0 0 108567692.2503743 0 0 108671502.538918 0 0 108320343.2099522 0 0 108158968.250851 0 0 114804755.7995905 0 0 259744247.8061211 0 0 231593679.2173723 0 0 228519044.1483449 0 0 192013376.5835011 0 0 212352843.240627 0 0 171459858.5794484 0 0 181924497.5871034 0 0 173563974.7681499 0 0 164645301.9169244 0 0 158853009.8934377 0 0 153879774.3267212 0 0 149566510.1804636 0 0 145792553.0483564 0 0 142463671.9266365 0 0 139504392.3393159 0 0 136857979.8708944 0 0 134681788.9568964 0 0 133794595.9312342 0 0 131819483.9176058 0 0 130008959.8875936 0 0 128344121.5995819 0 0 126725696.734416 0 0 127344535.7534971 0 0 125380896.7026679 0 0 124123843.8546222 0 0 122945947.7386912 0 0 121847870.5682901 0 0 120823576.760802 0 0 119863902.529618 0 0 119606932.4903802 0 0 119204958.907464 0 0 118370088.7825804 0 0 117581599.9963035 0 0 116839506.2210856 0 0 116128249.0149383 0 0 115452823.1100286 0 0 115392583.4590732 0 0 115113865.6095446 0 0 114518978.3608181 0 0 114734678.5288535 0 0 114185150.905876 0 0 113905714.1008787 0 0 113971607.7184686 0 0 113409990.2655256 0 0 112936275.5748659 0 0 112483685.1943151 0 0 112051220.5847444 0 0 111864099.5716959 0 0 111885747.2118564 0 0 111467273.6812232 0 0 111086871.4750974 0 0 110722479.744886 0 0 110373351.6661743 0 0 110038657.2405052 0 0 109915110.9096533 0 0 109608356.7907056 0 0 109599332.4374414 0 0 109310355.0106213 0 0 109023532.0654546 0 0 108747469.3422062 0 0 108486043.3083893 0 0 108432945.4469227 0 0 108389000.5758451 0 0 108285852.7896252 0 0 114480311.8486812 0 0 280086591.2814115 0 0 250575488.6214119 0 0 242732611.0565793 0 0 217417957.6307532 0 0 198544172.5891266 0 0 202607202.3122002 0 0 166546896.2225686 0 0 187078463.6488737 0 0 177562912.1090609 0 0 160592968.9783328 0 0 155483988.0032935 0 0 151055372.5535387 0 0 147182232.8480871 0 0 143763116.3929081 0 0 140721770.2883354 0 0 137999961.1145787 0 0 135547109.8059647 0 0 134476137.2115217 0 0 132662483.6387879 0 0 130809584.9202169 0 0 129103657.6048617 0 0 127527284.5544647 0 0 125970579.2438574 0 0 126807872.3267544 0 0 124685763.7268335 0 0 123485204.4603292 0 0 122364593.4047347 0 0 121314931.6269864 0 0 120329628.9087615 0 0 119397921.749956 0 0 118959157.7768793 0 0 118752722.1581091 0 0 117945703.2395542 0 0 117183350.8989006 0 0 116451252.6500874 0 0 115761766.9669459 0 0 115110259.7717361 0 0 114815655.0361092 0 0 114783940.5526266 0 0 114206248.1590711 0 0 114242444.8494558 0 0 113704991.2364717 0 0 113457199.9354425 0 0 113662602.0585372 0 0 112968051.0894552 0 0 112502766.8742669 0 0 112059255.1010824 0 0 111635696.8981062 0 0 111479240.4688642 0 0 111637593.39852 0 0 111090368.0812964 0 0 110718376.8586243 0 0 110362396.8055074 0 0 110021662.3681911 0 0 109695384.7346384 0 0 109717768.1826525 0 0 109296376.3633458 0 0 109409992.0068061 0 0 109005959.7524886 0 0 108727377.147717 0 0 108468074.1132371 0 0 108242839.880694 0 0 108120700.2622394 0 0 108210050.3426021 0 0 107896458.8991935 0 0 113954345.7611987 0 0 262264367.8320509 0 0 258228841.0377141 0 0 229739773.3748041 0 0 224488418.6268974 0 0 190545814.9260918 0 0 208661157.3201378 0 0 169595912.4679612 0 0 180580307.9045846 0 0 172259477.2676813 0 0 162864818.6940667 0 0 157125406.5778255 0 0 152185670.2268162 0 0 147897936.1012227 0 0 144143360.9688698 0 0 140833364.1911103 0 0 137895324.0906506 0 0 135271553.7450201 0 0 133325027.535913 0 0 132322096.3218179 0 0 130362508.0767828 0 0 128572879.7228179 0 0 126933163.5382248 0 0 125389002.0394651 0 0 126067421.0117247 0 0 124069622.2611884 0 0 122839797.3265921 0 0 121692535.2261415 0 0 120627350.2131792 0 0 119634143.0057955 0 0 118709364.6795135 0 0 118522032.0943158 0 0 118106000.2962197 0 0 117302833.6521122 0 0 116546560.156938 0 0 115835162.3935842 0 0 115154354.6156748 0 0 114512478.9524336 0 0 114499069.028267 0 0 114217984.8557915 0 0 113652133.8283197 0 0 113930822.8559626 0 0 113403991.2594184 0 0 113165277.8310237 0 0 113188778.6687795 0 0 112691431.5511051 0 0 112239531.0742687 0 0 111807819.6663833 0 0 111395558.6362289 0 0 111242011.4836983 0 0 111231116.897687 0 0 110863424.2394299 0 0 110501101.6687293 0 0 110154286.0778741 0 0 109822187.0657476 0 0 109504054.1933944 0 0 109382809.3940494 0 0 109114904.3508537 0 0 109082928.1162188 0 0 108832032.6177905 0 0 108561607.6491879 0 0 108315309.6539667 0 0 108102117.7096235 0 0 108034282.3615196 0 0 108060835.8469716 0 0 113657559.3660403 0 0 280465722.7539495 0 0 245282771.0672514 0 0 236455538.5215308 0 0 214469626.1627139 0 0 195315284.2632876 0 0 200091551.0410254 0 0 165240792.6420635 0 0 184263752.5224448 0 0 175045851.1106604 0 0 159264359.6541608 0 0 154125153.968732 0 0 149667859.806292 0 0 145766929.5393152 0 0 142326905.8526684 0 0 139273442.0598506 0 0 136546784.0722084 0 0 134096983.5778907 0 0 132916747.505966 0 0 131300576.2695194 0 0 129452150.107327 0 0 127756894.9672974 0 0 126197631.2059354 0 0 124708927.9089383 0 0 125425754.1257187 0 0 123443330.9056561 0 0 122264337.4385741 0 0 121168208.5038309 0 0 120145892.8324354 0 0 119190620.336861 0 0 118287781.6064386 0 0 117835258.8302791 0 0 117696158.5444485 0 0 116919034.6477312 0 0 116185511.4477041 0 0 115484652.8675327 0 0 114822983.0568715 0 0 114199052.6941086 0 0 113903937.5082624 0 0 113917807.8094658 0 0 113367207.3651742 0 0 113417817.2940001 0 0 112905920.885163 0 0 112698323.7184395 0 0 112903514.2812475 0 0 112233388.498965 0 0 111790917.7365572 0 0 111369768.2643665 0 0 110967642.6215658 0 0 110844716.6418916 0 0 111001642.7142906 0 0 110475456.4893974 0 0 110122543.6624636 0 0 109785022.8644211 0 0 109462200.6600679 0 0 109153221.5243181 0 0 109198939.1626905 0 0 108795486.7748865 0 0 108906617.6473272 0 0 108520299.5493937 0 0 108254166.7781116 0 0 108010507.798924 0 0 107804485.5174045 0 0 107614255.7875043 0 0 107707577.6037083 0 0 113115341.8446051 0 0 265081329.4046499 0 0 246074815.4041934 0 0 226468324.0944256 0 0 219340917.5827448 0 0 188357084.712772 0 0 204145099.4706579 0 0 167296219.9291431 0 0 178598656.8758852 0 0 170411329.9723413 0 0 160724366.5139244 0 0 155104511.7253058 0 0 150254203.6325952 0 0 146033673.6745633 0 0 142338078.5931082 0 0 139080981.025929 0 0 136192797.3620061 0 0 133615435.8172401 0 0 131883264.9194405 0 0 130792135.5137044 0 0 128864080.2219328 0 0 127108772.6429557 0 0 125505135.9691981 0 0 124038874.8433268 0 0 124758333.3597705 0 0 122747804.6245283 0 0 121550216.0308563 0 0 120443665.8238198 0 0 119413345.0798593 0 0 118454661.6424142 0 0 117562831.6407535 0 0 117442653.5632627 0 0 117017525.1267261 0 0 116248632.6990867 0 0 115526408.0979463 0 0 114848530.4801712 0 0 114199652.7658609 0 0 113588558.8454264 0 0 113617179.4840866 0 0 113337244.3133711 0 0 112799799.8082061 0 0 113132801.3342339 0 0 112630991.741804 0 0 112430203.1109465 0 0 112415925.7013618 0 0 111978769.2851647 0 0 111548582.7462344 0 0 111138336.615228 0 0 110746720.847044 0 0 110625241.9894758 0 0 110584323.849196 0 0 110265451.2061873 0 0 109921443.6930841 0 0 109592365.2798246 0 0 109277417.4739187 0 0 108975991.6312846 0 0 108857361.0559763 0 0 108626622.9891011 0 0 108573610.3447038 0 0 108358442.8061144 0 0 108098544.6616699 0 0 107916330.5990635 0 0 107794564.2021614 0 0 107737991.5702083 0 0 112845071.6745247 0 0 286749125.9790567 0 0 262823856.6965647 0 0 238738128.3275382 0 0 230048942.6515749 0 0 210426019.1556214 0 0 191483666.8578522 0 0 196812563.849627 0 0 163478849.9518151 0 0 180942131.1607774 0 0 172110436.9677392 0 0 157556711.949861 0 0 152452574.6514766 0 0 148020471.257634 0 0 144141498.4195261 0 0 140722777.0043111 0 0 137690871.1264586 0 0 134987195.0596639 0 0 132563123.8397643 0 0 131305894.7024254 0 0 129874721.1947984 0 0 128046236.3306148 0 0 126375469.0030272 0 0 124844252.2602118 0 0 123421070.5536669 0 0 124038028.9822042 0 0 122183015.6242324 0 0 121037794.3481162 0 0 119970768.2203581 0 0 118979829.5162177 0 0 118054523.289534 0 0 117188781.1103734 0 0 116728813.5731947 0 0 116649019.6833342 0 0 115902417.5530197 0 0 115200542.9849118 0 0 114527393.641168 0 0 113897890.0510694 0 0 113306897.6525064 0 0 113014733.7952748 0 0 113064132.6852065 0 0 112541094.5223649 0 0 112606614.3459378 0 0 112120437.2681883 0 0 111948960.2792781 0 0 112154856.2711661 0 0 111508226.4173205 0 0 111089917.4460968 0 0 110690028.3286429 0 0 110310111.3422535 0 0 110218501.3349652 0 0 110373136.6648578 0 0 109869251.4020103 0 0 109535301.8411433 0 0 109216293.8393891 0 0 108911398.050772 0 0 108619911.4796222 0 0 108687041.9087344 0 0 108301073.2576261 0 0 108409781.0398798 0 0 108039271.0298131 0 0 107780412.1025511 0 0 107532883.2231018 0 0 107422793.6037684 0 0 107325293.5847043 0 0 112290995.7735477 0 0 267324834.1838892 0 0 247194846.494519 0 0 244215582.7360777 0 0 220948244.3926921 0 0 213344453.7047809 0 0 185512743.3860736 0 0 199078863.4284943 0 0 164649997.3674834 0 0 176065000.0697179 0 0 168104892.8175172 0 0 158300087.4003029 0 0 152849575.1398672 0 0 148134436.1496586 0 0 144022214.296284 0 0 140417375.2815985 0 0 137240500.6934905 0 0 134423369.9307186 0 0 131913504.2906995 0 0 130379370.4517933 0 0 129225659.4457227 0 0 127342942.093279 0 0 125633315.6056794 0 0 124074649.9223969 0 0 122684989.7982401 0 0 123433950.6176143 0 0 121436457.8092271 0 0 120276976.3827648 0 0 119207593.5541079 0 0 118216078.4562444 0 0 117297727.0999753 0 0 116439489.2944407 0 0 116374988.4008861 0 0 115945562.5491848 0 0 115213857.2147508 0 0 114524854.305436 0 0 113880777.1512798 0 0 113267380.5110088 0 0 112689296.7802576 0 0 112751602.9646221 0 0 112476650.1481154 0 0 111966600.8833787 0 0 112345707.8976258 0 0 111866922.2494096 0 0 111703562.2208753 0 0 111654032.4191918 0 0 111275473.5937859 0 0 110866638.3874073 0 0 110477844.3157629 0 0 110107321.6286856 0 0 110016410.1096319 0 0 109948037.9636717 0 0 109675480.9302627 0 0 109349784.4561778 0 0 109038537.202591 0 0 108741020.0589543 0 0 108456077.1528689 0 0 108340785.0118185 0 0 108143588.2492094 0 0 108073207.883803 0 0 107886443.9618075 0 0 107634489.568631 0 0 107514023.9499335 0 0 107433442.6716172 0 0 112045228.4264923 0 0 291131864.2718143 0 0 265314824.5058579 0 0 232131952.3888668 0 0 223038187.3210852 0 0 205757802.8449534 0 0 187183647.4786344 0 0 192898358.2435634 0 0 161337883.4526941 0 0 177244995.6275887 0 0 168863502.0375083 0 0 155536265.7594024 0 0 150526137.3129849 0 0 146169022.29126 0 0 142348501.1493689 0 0 138986861.8819268 0 0 136006323.7408234 0 0 133351341.4389911 0 0 130974778.0719592 0 0 129665826.0960048 0 0 128404086.6170194 0 0 126609938.8253897 0 0 124975194.1252448 0 0 123482749.0995454 0 0 122129992.9313696 0 0 122651806.8833488 0 0 120922555.439411 0 0 119810212.837625 0 0 118781243.4997253 0 0 117825356.2217325 0 0 116931430.165882 0 0 116101513.1076045 0 0 115642536.498504 0 0 115615797.597057 0 0 114901366.6856734 0 0 114231591.0257232 0 0 113594489.3406911 0 0 112994795.243461 0 0 112435577.1623516 0 0 112147983.0857188 0 0 112226064.1936848 0 0 111730148.6125914 0 0 111808120.1505029 0 0 111348358.5505867 0 0 111212780.9408138 0 0 111415147.2890665 0 0 110796145.6307729 0 0 110399989.7904518 0 0 110023549.6686516 0 0 109665652.2849326 0 0 109602936.2948788 0 0 109754355.4896767 0 0 109273213.1686011 0 0 108958509.5493994 0 0 108657972.1331643 0 0 108370901.5899097 0 0 108096589.5380817 0 0 108183248.2482917 0 0 107816332.0776263 0 0 107922004.8942503 0 0 107574965.8333935 0 0 107362420.8621974 0 0 107104790.0686671 0 0 107034113.9323838 0 0 111483687.9167576 0 0 271482113.8722605 0 0 248787316.0532299 0 0 231296165.9590124 0 0 214983282.0959283 0 0 206903556.3232975 0 0 182136844.1932804 0 0 193638972.840215 0 0 161746071.6215789 0 0 173092675.4597634 0 0 165434245.6528293 0 0 155659961.0230852 0 0 150427148.8928221 0 0 145877777.0583372 0 0 141906478.1018714 0 0 138418791.3042634 0 0 135343938.7683675 0 0 132618107.2795786 0 0 130189578.9613704 0 0 128837331.3175194 0 0 127643103.189535 0 0 125816242.8430479 0 0 124159823.0183198 0 0 122652494.2556621 0 0 121341993.1103353 0 0 122106688.387852 0 0 120136586.607411 0 0 119023052.0660655 0 0 117991967.7224634 0 0 117042779.5104215 0 0 116163358.734816 0 0 115346704.4322942 0 0 115325880.1632803 0 0 114896893.0753534 0 0 114201525.5443009 0 0 113548653.1051313 0 0 112937749.4504956 0 0 112359555.1894125 0 0 111816831.983197 0 0 111907471.6687751 0 0 111637158.1058694 0 0 111152161.9213716 0 0 111571099.757815 0 0 111118718.3022141 0 0 110988553.2136178 0 0 110908715.4045238 0 0 110582495.7993925 0 0 110196727.5000321 0 0 109829778.182236 0 0 109479938.8042379 0 0 109417033.6023889 0 0 109324388.1925628 0 0 109095228.922186 0 0 108787911.8967705 0 0 108494418.1698758 0 0 108214009.6071826 0 0 107945989.9331031 0 0 107834355.8531176 0 0 107671022.7913372 0 0 107583195.0654608 0 0 107435771.9410397 0 0 107166773.1888834 0 0 107181000.1854535 0 0 107129716.2914648 0 0 111261887.1018537 0 0 294616132.8018549 0 0 269125547.5759213 0 0 246307916.4519613 0 0 225118188.9212158 0 0 215005316.6578498 0 0 200638077.9632238 0 0 182597673.00898 0 0 188528692.6849985 0 0 158896019.871846 0 0 173301133.7100705 0 0 165404824.4149029 0 0 153272897.9602108 0 0 148402910.4065653 0 0 144153344.6506846 0 0 140431489.9855868 0 0 137154337.9267075 0 0 134251656.0154195 0 0 131665636.1113344 0 0 129353387.4570272 0 0 128016191.9502496 0 0 126908000.791561 0 0 125160288.1555789 0 0 123571585.7787514 0 0 122122398.5409417 0 0 120842740.0520763 0 0 121277758.7850179 0 0 119677441.1702468 0 0 118600877.0575354 0 0 117611174.8035463 0 0 116690131.6865314 0 0 115836169.1150432 0 0 115041274.4881144 0 0 114586442.5096705 0 0 114601827.8700755 0 0 113922224.9028581 0 0 113285360.2516335 0 0 112682408.1588783 0 0 112118713.2597805 0 0 111590657.2256894 0 0 111309180.6731416 0 0 111407584.7391497 0 0 110940968.6062203 0 0 111029751.4584985 0 0 110596029.2544205 0 0 110492320.6360416 0 0 110691154.4315746 0 0 110099098.0034582 0 0 109725789.1700231 0 0 109372009.1166353 0 0 109035873.5838539 0 0 108999761.9603592 0 0 109147261.0351376 0 0 108689681.8803426 0 0 108393918.4614236 0 0 108111635.8487659 0 0 107842045.5106841 0 0 107584669.7895496 0 0 107689467.243546 0 0 107341072.8827932 0 0 107444179.5246056 0 0 107114381.8892273 0 0 106945889.9388075 0 0 106802981.9166643 0 0 106735410.7651612 0 0 110699354.6622627 0 0 272967606.0388516 0 0 252728571.2428257 0 0 236471927.0189669 0 0 222212184.6884956 0 0 208663005.8640808 0 0 200205116.561911 0 0 178381365.153106 0 0 188076733.5520099 0 0 158667262.9520249 0 0 169795768.7739272 0 0 162491478.6645038 0 0 152880191.1518365 0 0 147875017.0452063 0 0 143529768.6106249 0 0 139725947.6387375 0 0 136378402.7489232 0 0 133421479.4771852 0 0 130801353.1293431 0 0 128466593.3267963 0 0 127277138.0367821 0 0 126062577.5980156 0 0 124299694.1707399 0 0 122703541.5184991 0 0 121253588.4754938 0 0 120019104.6832804 0 0 120793895.5377178 0 0 118864503.2882913 0 0 117798165.8549927 0 0 116806564.1308223 0 0 115899038.7983946 0 0 115061667.8914867 0 0 114285381.9564709 0 0 114302655.4835787 0 0 113878859.0905791 0 0 113218299.5046745 0 0 112600389.7515111 0 0 112021736.4107532 0 0 111478949.9735672 0 0 110968608.5545184 0 0 111089390.9109409 0 0 110827334.2575518 0 0 110365948.7124889 0 0 110814146.9177184 0 0 110385819.3220353 0 0 110287492.3998209 0 0 110180761.0508835 0 0 109904414.6594592 0 0 109540776.3903622 0 0 109195401.6302836 0 0 108866868.0328452 0 0 108829609.4669393 0 0 108715679.5210017 0 0 108526625.8455632 0 0 108237531.0229216 0 0 107961490.1348743 0 0 107698005.2265155 0 0 107446261.8117264 0 0 107338430.7797682 0 0 107207874.6258907 0 0 107102640.7577977 0 0 107006386.9956669 0 0 106896642.8093453 0 0 106810793.7536227 0 0 110498496.1657167 0 0 294676401.5344005 0 0 270357654.863727 0 0 251391053.4677591 0 0 232652610.1944655 0 0 216386623.2795094 0 0 206629390.9992122 0 0 195134532.4053564 0 0 177878211.239931 0 0 183872950.1511451 0 0 156225253.3338084 0 0 169214061.4350076 0 0 161826898.9804305 0 0 150826980.0541525 0 0 146132884.1847391 0 0 142032951.9113381 0 0 138432901.2103252 0 0 135263103.6413198 0 0 132456421.6861203 0 0 129956582.5107202 0 0 127722649.1760554 0 0 126377125.7872361 0 0 125405763.210166 0 0 123713047.6454692 0 0 122176448.0865486 0 0 120777126.387267 0 0 119575789.5507353 0 0 119933170.0775362 0 0 118451634.4941076 0 0 117412221.2701473 0 0 116461634.5998511 0 0 115582864.9735631 0 0 114768288.6472846 0 0 114012140.3619506 0 0 113564085.2537269 0 0 113612267.1883322 0 0 112968017.6739932 0 0 112364198.2279876 0 0 111798426.4839086 0 0 111267079.4307758 0 0 110767314.4718331 0 0 110489313.9084171 0 0 110612213.0172935 0 0 110170498.8550327 0 0 110270322.8545808 0 0 109863551.9812618 0 0 109789178.3148288 0 0 109982935.4664979 0 0 109418731.9581255 0 0 109069439.0011402 0 0 108738097.5538161 0 0 108422972.6791103 0 0 108410825.9717413 0 0 108553810.5703927 0 0 108120216.2834356 0 0 107843086.4761483 0 0 107578677.2716792 0 0 107326298.5191558 0 0 107085501.6233104 0 0 107205212.7181791 0 0 106868695.4277746 0 0 106974454.5971699 0 0 106668891.5908371 0 0 106528728.7826665 0 0 106430462.1914934 0 0 109936257.8093414 0 0 277377748.3759233 0 0 250387801.9050145 0 0 236305883.930447 0 0 231952571.9162287 0 0 212828121.9425436 0 0 201751236.0986375 0 0 193511424.1983748 0 0 174366305.9731416 0 0 182473619.2484381 0 0 155483221.0165942 0 0 166278870.3930489 0 0 159361788.697179 0 0 150011045.857969 0 0 145269163.942475 0 0 141135014.3659768 0 0 137517518.0003332 0 0 134324457.3274953 0 0 131501072.812309 0 0 128997197.301295 0 0 126764093.0988162 0 0 125718337.5891481 0 0 124500053.6098077 0 0 122807758.9214595 0 0 121276830.3739056 0 0 119887456.6219761 0 0 118724674.4524843 0 0 119500268.8174149 0 0 117616793.1046523 0 0 116596459.9038393 0 0 115655053.575756 0 0 114793743.7817527 0 0 113997908.5312697 0 0 113261619.2074508 0 0 113309484.2753433 0 0 112893657.2318696 0 0 112268808.7395668 0 0 111685462.3983526 0 0 111140174.2150454 0 0 110629948.5354282 0 0 110152461.9661678 0 0 110294867.770594 0 0 110035061.1949175 0 0 109602754.2625283 0 0 110076038.3410283 0 0 109674421.1327022 0 0 109602367.0057558 0 0 109473007.1646567 0 0 109242684.9222064 0 0 108901761.6402631 0 0 108577635.7797754 0 0 108269388.4480767 0 0 108255635.3910789 0 0 108123339.1481804 0 0 107971334.6772207 0 0 107700116.7167077 0 0 107441384.9718432 0 0 107194414.6558398 0 0 106958684.0956648 0 0 106855116.5061013 0 0 106756226.2849132 0 0 106638285.6880606 0 0 106616734.6406994 0 0 106526117.9789051 0 0 109756983.9650292 0 0 300129622.7217104 0 0 271181599.4034517 0 0 247671025.3967046 0 0 258104974.7554958 0 0 223358817.9947868 0 0 208514907.3651825 0 0 199314371.2896636 0 0 189437015.532231 0 0 173075295.5049098 0 0 179055550.1344454 0 0 153406218.0561553 0 0 165074054.830622 0 0 158196528.3315644 0 0 148250365.0811099 0 0 143765968.2356399 0 0 139839226.6807245 0 0 136389349.7165556 0 0 133345967.3805808 0 0 130648861.2305324 0 0 128248173.6376063 0 0 126102500.4315123 0 0 124765485.9300688 0 0 123913601.1580174 0 0 122283008.5779749 0 0 120804468.482846 0 0 119460113.5152963 0 0 118328073.2046215 0 0 118623096.6044171 0 0 117251543.5893054 0 0 116258890.4557073 0 0 115349678.6041891 0 0 114510811.0753255 0 0 113735305.9079637 0 0 113017483.5595199 0 0 112579089.579234 0 0 112655138.8329336 0 0 112044294.3479877 0 0 111473875.7189045 0 0 110940764.4676303 0 0 110442009.59176 0 0 109969799.1178562 0 0 109699610.8321185 0 0 109847180.1960095 0 0 109432182.7466396 0 0 109536710.4227964 0 0 109153110.8521802 0 0 109104051.8050476 0 0 109293524.65863 0 0 108759141.7741787 0 0 108432510.8150096 0 0 108122539.8955203 0 0 107828388.7004168 0 0 107838095.6429166 0 0 107976120.8764375 0 0 107566458.1213933 0 0 107307565.6240774 0 0 107060508.9173735 0 0 106824912.0583738 0 0 106601475.0364699 0 0 106732969.3777513 0 0 106425604.6833646 0 0 106517389.6676641 0 0 106241210.5333796 0 0 106119560.4388937 0 0 109203965.3388332 0 0 277427329.7619509 0 0 270380842.0209849 0 0 234175830.2379265 0 0 246944081.9113013 0 0 218000117.600193 0 0 204520800.6270096 0 0 194849753.022096 0 0 187059851.4155042 0 0 170194332.3273731 0 0 176912032.6357079 0 0 152257721.4746055 0 0 162623978.5547901 0 0 156121597.4285398 0 0 147117836.8021734 0 0 142645424.6565002 0 0 138744418.1460637 0 0 135315215.1305371 0 0 132286851.1874085 0 0 129608472.6283826 0 0 127225756.4272941 0 0 125099150.6465601 0 0 124178206.3106162 0 0 122970675.4642225 0 0 121353099.8524358 0 0 119890438.0014111 0 0 118564566.9703962 0 0 117468456.1739476 0 0 118234371.2636206 0 0 116407761.662724 0 0 115437558.6145921 0 0 114546461.3251854 0 0 113729059.9941946 0 0 112975454.8554707 0 0 112279188.7221654 0 0 112351262.8398999 0 0 111945467.8397888 0 0 111355983.4434025 0 0 110806682.3920713 0 0 110294274.0732948 0 0 109815398.2673056 0 0 109369102.0103889 0 0 109524088.8439134 0 0 109273330.1921837 0 0 108870401.2614068 0 0 109360389.2289545 0 0 108982915.2057289 0 0 108937978.4003788 0 0 108789227.6460768 0 0 108600303.1431263 0 0 108280822.4236318 0 0 107977561.0242554 0 0 107689510.4686066 0 0 107696969.9650027 0 0 107548803.5426665 0 0 107431012.5444454 0 0 107177291.9690132 0 0 106935453.3058788 0 0 106705056.8307137 0 0 106485652.440852 0 0 106384812.9250004 0 0 106304826.6939507 0 0 106213180.5808883 0 0 106223004.6351225 0 0 109042349.6060916 0 0 257986367.5772157 0 0 230988536.8103094 0 0 246926178.9273231 0 0 216100435.7119725 0 0 200570956.7761725 0 0 193902567.0791342 0 0 183740194.5604033 0 0 168332970.513022 0 0 174168805.7488936 0 0 150493836.0271297 0 0 160928534.4903071 0 0 154585256.3967607 0 0 145609538.0417828 0 0 141348340.5861443 0 0 137619349.3197497 0 0 134331981.4179227 0 0 131431170.0042376 0 0 128855929.128954 0 0 126561455.7602251 0 0 124510635.7911752 0 0 123196407.0026213 0 0 122446602.1592049 0 0 120883145.4417548 0 0 119466958.9930517 0 0 118181017.0154107 0 0 117110766.3519172 0 0 117361184.6712491 0 0 116083419.8892422 0 0 115138117.0747206 0 0 114272726.7978595 0 0 113476201.1071658 0 0 112741063.4616608 0 0 112061313.8101185 0 0 111634844.3654975 0 0 111732198.1904748 0 0 111155615.47515 0 0 110618108.4912271 0 0 110116861.0528766 0 0 109648476.8412243 0 0 109206788.9953394 0 0 108949435.1873748 0 0 109104682.3024828 0 0 108715944.2308562 0 0 108828266.1420441 0 0 108468084.1478548 0 0 108441872.161132 0 0 108624749.4753941 0 0 108121000.4342458 0 0 107816026.2420527 0 0 107527359.87135 0 0 107253503.2561278 0 0 107282828.7731272 0 0 107415637.6241797 0 0 107029560.2520811 0 0 106788374.1655641 0 0 106558212.6701587 0 0 106338839.1870351 0 0 106137485.9635913 0 0 106283383.5552607 0 0 106080012.0939283 0 0 106131350.8997434 0 0 105796215.5419329 0 0 108496769.4520244 0 0 226814349.6378032 0 0 236796800.3934412 0 0 205367767.4021251 0 0 202377360.1831607 0 0 188059141.7179004 0 0 180950842.3172235 0 0 165951540.9188666 0 0 171465343.0842406 0 0 149053834.1630199 0 0 158900648.8392665 0 0 152840897.4183922 0 0 144244837.1464218 0 0 140057793.3035622 0 0 136384616.1732741 0 0 133151326.2561957 0 0 130298286.483057 0 0 127762278.3746516 0 0 125502308.878438 0 0 123487365.0140184 0 0 122672386.9639697 0 0 121487551.4298272 0 0 119946283.8314301 0 0 118554111.714271 0 0 117293584.5463725 0 0 116258983.3303916 0 0 117007926.8122129 0 0 115245526.2899443 0 0 114326842.8246121 0 0 113484717.0065245 0 0 112711220.0272456 0 0 111999011.1848387 0 0 111341966.9098504 0 0 111431958.4457819 0 0 111037601.2250053 0 0 110482677.5167663 0 0 109966593.2783913 0 0 109485927.5506367 0 0 109037301.6559598 0 0 108618067.6187147 0 0 108783503.4645535 0 0 108544738.2254286 0 0 108170848.6237023 0 0 108667930.1036057 0 0 108315444.9298548 0 0 108293104.7624409 0 0 108127145.2151194 0 0 107977862.7544473 0 0 107679652.3040958 0 0 107396824.5072009 0 0 107128364.7413753 0 0 107155037.3454328 0 0 106993407.5634789 0 0 106906767.1522972 0 0 106670013.5742108 0 0 106444847.1580114 0 0 106231667.144942 0 0 106033006.5060549 0 0 105918429.4520762 0 0 105818483.6417235 0 0 105790823.7763019 0 0 105864743.5691303 0 0 108352870.5649941 0 0 217374303.0690036 0 0 211543842.9359747 0 0 194571287.8109745 0 0 189381776.5024133 0 0 178351738.416661 0 0 163551568.1837077 0 0 169215661.8107722 0 0 147558434.9248118 0 0 156938396.4241145 0 0 151065491.7776582 0 0 142952890.5918318 0 0 138936002.202911 0 0 135407256.5468091 0 0 132295960.2095037 0 0 129545221.3857099 0 0 127096977.9873042 0 0 124913689.6101973 0 0 122963850.2934338 0 0 121684435.2212451 0 0 121018512.7693122 0 0 119525145.7092848 0 0 118174391.7524705 0 0 116946507.6460583 0 0 115932124.4609768 0 0 116145005.2974789 0 0 114955327.6185261 0 0 114061246.5452508 0 0 113240150.2452947 0 0 112485363.4029979 0 0 111789870.4958161 0 0 111147725.1025396 0 0 110734683.0286317 0 0 110847407.5383386 0 0 110304286.5560909 0 0 109798980.3220239 0 0 109327873.1606776 0 0 108887818.1930695 0 0 108478357.3209699 0 0 108226624.0510977 0 0 108395729.1578299 0 0 108030785.8210463 0 0 108146507.1630717 0 0 107809635.8162301 0 0 107805337.014249 0 0 107981540.3612665 0 0 107505724.75771 0 0 107222021.7879428 0 0 106953866.7796881 0 0 106699879.9365862 0 0 106746136.455344 0 0 106873427.3162441 0 0 106510675.34247 0 0 106286117.0483647 0 0 106071502.3614752 0 0 105857669.0041536 0 0 105666549.9146345 0 0 105852786.4113494 0 0 105820453.1705488 0 0 105477964.5170159 0 0 107819197.7679764 0 0 202023100.3136524 0 0 197080008.3188929 0 0 182249946.5320235 0 0 174397152.4066755 0 0 161636916.9571267 0 0 166555912.0785413 0 0 145880960.2521543 0 0 155250792.6159374 0 0 149581054.0581442 0 0 141439619.8247498 0 0 137521967.1379838 0 0 134079401.3745306 0 0 131061006.9110448 0 0 128373259.7499176 0 0 125974761.77469 0 0 123842720.5243842 0 0 121948211.3105238 0 0 121215256.3634633 0 0 120059366.628515 0 0 118596500.1883123 0 0 117274670.1168704 0 0 116078817.3720913 0 0 115097542.3447803 0 0 115828558.3882366 0 0 114140138.2968862 0 0 113270196.0096337 0 0 112474262.8915064 0 0 111743542.8345931 0 0 111071571.5819475 0 0 110452518.3698824 0 0 110553811.9500247 0 0 110172643.4799256 0 0 109651460.6343416 0 0 109167453.9529623 0 0 108717468.4968053 0 0 108298329.2509606 0 0 107907484.88099 0 0 108085037.4433096 0 0 107852426.4118333 0 0 107502584.4565842 0 0 108002999.840793 0 0 107672388.8999929 0 0 107670949.7976228 0 0 107493440.395095 0 0 107377535.1181589 0 0 107099844.6279343 0 0 106836946.8885129 0 0 106587687.8834497 0 0 106630915.325385 0 0 106458662.9964733 0 0 106399520.7022799 0 0 106178675.8865391 0 0 105966477.587639 0 0 105763489.4384456 0 0 105647266.6147976 0 0 105540387.5253842 0 0 105459566.9880697 0 0 105500278.1891857 0 0 107692127.2191338 0 0 190130250.3708842 0 0 180694175.7523713 0 0 185557072.4249763 0 0 172444214.5762794 0 0 159539521.1701212 0 0 164160287.4782329 0 0 144619784.4615663 0 0 153232605.5882064 0 0 147671053.1801567 0 0 140335809.5190904 0 0 136556858.2959566 0 0 133236768.4322597 0 0 130313082.9848721 0 0 127709403.7584746 0 0 125387957.6619597 0 0 123322872.5444882 0 0 121477839.5069914 0 0 120233102.2668504 0 0 119639648.7476185 0 0 118219412.3712622 0 0 116934133.5882386 0 0 115760930.8294884 0 0 114807206.0015466 0 0 114982888.7011921 0 0 113880211.7814611 0 0 113032779.9349004 0 0 112255644.068555 0 0 111541878.8424922 0 0 110885086.1862468 0 0 110279514.3311026 0 0 109881176.7118987 0 0 110003549.2845761 0 0 109493024.2892808 0 0 109018601.6846706 0 0 108577462.9115003 0 0 108167152.7189545 0 0 107783481.5307681 0 0 107543052.8825664 0 0 107720327.5388183 0 0 107377436.1299145 0 0 107494119.7208008 0 0 107180918.1170322 0 0 107194037.6634628 0 0 107362595.6153991 0 0 106914692.6765004 0 0 106651696.920597 0 0 106403661.6764534 0 0 106168535.6361326 0 0 106229327.7666337 0 0 106350971.2593508 0 0 106011257.687139 0 0 105803728.2654688 0 0 105613017.7672238 0 0 105438906.083943 0 0 105272911.6661385 0 0 105367918.3834179 0 0 105350798.8079513 0 0 105167767.4024626 0 0 107173912.0784905 0 0 174840251.7999253 0 0 179517119.8514786 0 0 170475829.1701987 0 0 157436192.2179583 0 0 162678281.8153614 0 0 142885519.4124775 0 0 151690653.7477417 0 0 146403732.3022683 0 0 138715808.6833122 0 0 135042692.7400713 0 0 131894186.3810902 0 0 129049427.2788118 0 0 126513338.3091203 0 0 124268026.3572178 0 0 122289474.5262058 0 0 120467732.0736194 0 0 119814601.8188983 0 0 118696241.8852056 0 0 117311222.5242074 0 0 116063006.9784251 0 0 114929583.4468392 0 0 113993865.936465 0 0 114703412.1058601 0 0 113091785.2074371 0 0 112269877.0183003 0 0 111518127.8632242 0 0 110828815.5019422 0 0 110195597.6348436 0 0 109612978.7754572 0 0 109720208.6431468 0 0 109353000.0148341 0 0 108863971.5917987 0 0 108410810.7304898 0 0 107989914.5383809 0 0 107598284.1419486 0 0 107235439.0865459 0 0 107414450.2991019 0 0 107191669.4681256 0 0 106864105.7152722 0 0 107364367.6155605 0 0 107056874.2448889 0 0 107072970.9323742 0 0 106885364.9096279 0 0 106800403.8172216 0 0 106542839.4906825 0 0 106299245.9319602 0 0 106068374.2695008 0 0 106125928.131324 0 0 105945346.6628461 0 0 105911258.7138811 0 0 105709219.9329714 0 0 105517913.3505802 0 0 105306851.0625735 0 0 105296740.9445226 0 0 105319565.6041417 0 0 105248481.9610449 0 0 107061450.3704669 0 0 175248948.9349075 0 0 166867511.8600853 0 0 155903034.9146892 0 0 159924360.6546386 0 0 141727658.0063789 0 0 149185207.0316577 0 0 144441435.0310948 0 0 137770968.0620929 0 0 134235658.536008 0 0 131154035.0450223 0 0 128384282.7123173 0 0 125944755.3203681 0 0 123759989.7985021 0 0 121800861.9772136 0 0 120051900.0200286 0 0 118856438.2166853 0 0 118320384.5315373 0 0 116973306.9863867 0 0 115753536.8269612 0 0 114637790.9924161 0 0 113738413.8183374 0 0 113889736.247866 0 0 112859632.901668 0 0 112057257.7084657 0 0 111322699.8645869 0 0 110648761.7511559 0 0 110029382.1547485 0 0 109459091.1931152 0 0 109075972.343232 0 0 109202851.7515433 0 0 108723906.4828745 0 0 108279744.2568449 0 0 107866381.7378972 0 0 107482951.0137636 0 0 107123668.2214704 0 0 106893331.6964387 0 0 107073668.1328423 0 0 106755446.3297942 0 0 106872571.6016817 0 0 106584540.0983397 0 0 106608373.5596156 0 0 106769414.6464129 0 0 106350103.9403465 0 0 106107251.2070136 0 0 105877479.3867987 0 0 105660139.4965936 0 0 105733375.2278913 0 0 105849267.7716053 0 0 105532209.6227496 0 0 105339911.9170807 0 0 105163329.6380547 0 0 105021845.1921424 0 0 104933660.5391185 0 0 104902684.9158384 0 0 104852892.247133 0 0 106561522.0366942 0 0 170805610.204342 0 0 166929509.2809069 0 0 153724744.2259163 0 0 159406556.7657755 0 0 140137431.0345762 0 0 148629340.3291158 0 0 142999308.4291457 0 0 136029875.5732936 0 0 132797084.8539602 0 0 129817330.0476884 0 0 127195912.4577795 0 0 124787962.5675258 0 0 122723573.4873449 0 0 120774318.910931 0 0 119077206.1782272 0 0 118481937.865881 0 0 117404658.8892405 0 0 116096420.4531109 0 0 114916380.2152683 0 0 113841601.6687872 0 0 112953847.1484051 0 0 113635964.2689846 0 0 112103247.16082 0 0 111327763.3416275 0 0 110618501.3656435 0 0 109968789.546107 0 0 109372729.6187611 0 0 108824765.4846619 0 0 108933091.4253549 0 0 108580234.2399677 0 0 108121855.4236162 0 0 107697516.6144859 0 0 107304415.5993576 0 0 106938810.9901325 0 0 106595519.124461 0 0 106777381.3019 0 0 106561961.6214204 0 0 106261674.9545693 0 0 106759497.0716438 0 0 106471684.2844038 0 0 106501767.9492093 0 0 106308234.5922959 0 0 106249286.4858128 0 0 106009907.9845153 0 0 105784602.3505754 0 0 105571096.4539815 0 0 105641001.8457062 0 0 105453680.8760644 0 0 105442868.5748809 0 0 105255398.0555653 0 0 105091347.5452733 0 0 105015495.3415881 0 0 104971958.0120551 0 0 104938909.5183969 0 0 106462398.5249557 0 0 163021455.0533143 0 0 152801719.2305313 0 0 156205036.6788574 0 0 139080993.238106 0 0 144602423.6178134 0 0 144090806.6946277 0 0 135325321.3106035 0 0 132005009.534327 0 0 129165445.3849916 0 0 126571077.7960224 0 0 124256628.3643146 0 0 122174491.57628 0 0 120358339.4554523 0 0 118705041.4700982 0 0 117557582.2249405 0 0 117068231.867018 0 0 115792674.12942 0 0 114637272.9280305 0 0 113585496.9142687 0 0 112725140.6198224 0 0 112862101.7686231 0 0 111895423.5050878 0 0 111137367.066948 0 0 110443922.604744 0 0 109808357.9980001 0 0 109224865.4244449 0 0 108688172.9843857 0 0 108320280.744135 0 0 108447260.5263219 0 0 107998140.9261602 0 0 107582161.221047 0 0 107196044.1710438 0 0 106835315.768184 0 0 106498442.6283492 0 0 106275162.0255875 0 0 106460920.7701661 0 0 106168423.3564674 0 0 106281195.2019068 0 0 106015852.9653558 0 0 106049705.3972173 0 0 106203069.0149906 0 0 105812956.177041 0 0 105590375.2519176 0 0 105375891.5446023 0 0 105174090.7115013 0 0 105257667.8079467 0 0 105368318.639908 0 0 105071818.2707498 0 0 104892967.4805207 0 0 104740630.3283956 0 0 104634587.3738653 0 0 104577968.3029455 0 0 104530078.9126341 0 0 105982269.9573978 0 0 149381901.8556018 0 0 136669936.5864236 0 0 147777390.7707886 0 0 140213079.3594159 0 0 133808682.5929911 0 0 130977244.295231 0 0 127931034.1117696 0 0 125313132.285951 0 0 123190787.6668942 0 0 121383890.477092 0 0 119350891.8656289 0 0 117757255.5403866 0 0 117224321.7740337 0 0 116193017.8656652 0 0 114959486.2808269 0 0 113842241.3444908 0 0 112830222.0013312 0 0 111981134.0723963 0 0 112637932.8817535 0 0 111177853.7011413 0 0 110445813.0756869 0 0 109776892.4038898 0 0 109165166.2865574 0 0 108603971.1619003 0 0 108088615.9982061 0 0 108193847.0735861 0 0 107855215.3396119 0 0 107425856.8482765 0 0 107028539.3937512 0 0 106661147.0839239 0 0 106318450.4846626 0 0 105992437.712346 0 0 106177782.998287 0 0 105970109.9745424 0 0 105692395.3746782 0 0 106184179.0192645 0 0 105919781.8674363 0 0 105956201.7712746 0 0 105763136.8166428 0 0 105724672.3461358 0 0 105502347.2912446 0 0 105293431.194095 0 0 105096087.3719229 0 0 105175924.0680718 0 0 104983694.3952757 0 0 104993100.37558 0 0 104815725.2186377 0 0 104715929.2881694 0 0 104655248.495177 0 0 104606156.5808773 0 0 105895248.5619163 0 0 140208918.5838992 0 0 136635061.0239738 0 0 144168658.6415768 0 0 142859357.6020048 0 0 132912177.2655741 0 0 129860419.0582848 0 0 127200847.4038252 0 0 125045741.4819017 0 0 122535737.3401668 0 0 120743014.6500262 0 0 118992179.9805318 0 0 117434150.3237253 0 0 116355615.1463472 0 0 115891497.181602 0 0 114683956.6728895 0 0 113590635.433623 0 0 112596956.6043141 0 0 111776338.0667021 0 0 111905578.6941409 0 0 110991393.5597745 0 0 110275194.3197082 0 0 109621257.8341961 0 0 109022179.5168169 0 0 108472601.5470155 0 0 107967666.5949499 0 0 107614828.3578575 0 0 107737994.7946223 0 0 107317036.8682386 0 0 106926905.9217228 0 0 106566477.1963169 0 0 106224492.2223476 0 0 105905864.4973675 0 0 105693234.9586039 0 0 105882753.342594 0 0 105613374.6672364 0 0 105723298.6026356 0 0 105477672.6204893 0 0 105525784.5827395 0 0 105671636.2824052 0 0 105305932.808241 0 0 105100420.6432958 0 0 104899911.0744567 0 0 104712178.185705 0 0 104802614.1873836 0 0 104908475.6799794 0 0 104628969.3776634 0 0 104458309.1743548 0 0 104318224.9693307 0 0 104253283.6452065 0 0 104215882.2478844 0 0 105436225.521718 0 0 137994582.759232 0 0 133881522.5453507 0 0 140277748.2446292 0 0 132619267.0156631 0 0 129371734.0283103 0 0 126670750.5486105 0 0 123227453.7147136 0 0 122973350.5880692 0 0 119683094.4030289 0 0 118021938.9900752 0 0 116552713.9354168 0 0 116054563.3405256 0 0 115062464.7404207 0 0 113898837.7745748 0 0 112847411.4736326 0 0 111892417.4216544 0 0 111073199.4652922 0 0 111703846.8547844 0 0 110315082.1233412 0 0 109625042.0979716 0 0 108994723.2015529 0 0 108418171.7064467 0 0 107889572.1564407 0 0 107404945.7709698 0 0 107503283.9756083 0 0 107178655.000626 0 0 106776230.9282532 0 0 106403496.6730681 0 0 106058055.2372492 0 0 105733455.8587876 0 0 105429921.8850058 0 0 105613365.5860608 0 0 105415748.0796868 0 0 105160904.2597395 0 0 105638456.9235186 0 0 105394803.7513962 0 0 105442419.8663488 0 0 105245145.1843691 0 0 105226928.5235211 0 0 105020695.2994858 0 0 104825374.0649263 0 0 104643788.748379 0 0 104729678.4224472 0 0 104537278.9773733 0 0 104556487.852291 0 0 104394865.5817807 0 0 104338150.7206322 0 0 104286241.233395 0 0 105361160.8208531 0 0 136317814.8373232 0 0 134642832.4955384 0 0 131023047.7795265 0 0 128008301.1477159 0 0 125253516.4060802 0 0 124552333.0211437 0 0 121283864.5827913 0 0 119352191.9303769 0 0 121276805.5325279 0 0 117736041.0015956 0 0 116248588.7148556 0 0 115251524.2033674 0 0 114791574.2409349 0 0 113649937.7035906 0 0 112620376.9187874 0 0 111684091.3319233 0 0 110889658.239236 0 0 111019745.4489166 0 0 110148117.2581755 0 0 109472545.6609766 0 0 108855730.9210384 0 0 108290995.2023481 0 0 107773202.841392 0 0 107298192.040889 0 0 106959900.7050759 0 0 107075479.8734638 0 0 106680445.8622986 0 0 106314119.8705116 0 0 105973022.4508188 0 0 105651551.5575499 0 0 105358678.4421274 0 0 105153751.0723538 0 0 105343000.4074172 0 0 105092923.3412364 0 0 105196353.6725495 0 0 104971041.8579696 0 0 105030694.8900493 0 0 105170088.5615042 0 0 104831968.7036495 0 0 104637600.9537797 0 0 104449512.0984732 0 0 104275186.4712735 0 0 104371005.6066959 0 0 104471390.3952221 0 0 104217289.9178723 0 0 104079531.7563774 0 0 103916763.7682856 0 0 103904374.7919769 0 0 104924014.0301415 0 0 132655268.5259356 0 0 131227012.9144184 0 0 128223693.9134254 0 0 125575821.7143391 0 0 122882639.6323188 0 0 122295983.3961988 0 0 118210780.0365252 0 0 120078748.567975 0 0 116731902.3397561 0 0 115559775.541963 0 0 114975779.3657795 0 0 114005217.3116986 0 0 112922429.872824 0 0 111941752.4993938 0 0 111031834.9943424 0 0 110230666.8497732 0 0 110837708.076809 0 0 109516489.1850758 0 0 108866101.9405817 0 0 108271816.4616087 0 0 107727302.6805557 0 0 107229714.3504995 0 0 106773698.7809848 0 0 106861724.1888134 0 0 106550546.9213875 0 0 106173735.0685849 0 0 105824232.8987023 0 0 105494959.5958456 0 0 105190306.1837371 0 0 104912321.3785934 0 0 105087329.7423746 0 0 104900147.5828111 0 0 104664545.871958 0 0 105124211.1375815 0 0 104900427.9743781 0 0 104962533.8575984 0 0 104758952.4235491 0 0 104757623.7222177 0 0 104563151.4676816 0 0 104382384.2821711 0 0 104215582.9057093 0 0 104307481.3112046 0 0 104114618.9025059 0 0 104156647.0625055 0 0 103963415.551625 0 0 103971531.2350194 0 0 103957859.3754614 0 0 104858842.7650341 0 0 129450147.4799421 0 0 126756626.2959403 0 0 124310415.1403805 0 0 123233473.4719811 0 0 121189843.049784 0 0 118076822.1053912 0 0 119550828.9922675 0 0 116616582.4579817 0 0 115048949.8055634 0 0 114295612.7879672 0 0 113767845.6382611 0 0 112699735.1565555 0 0 111726936.6750336 0 0 110840530.0086224 0 0 110066865.3056724 0 0 110196507.4209658 0 0 109366916.6477495 0 0 108730362.228575 0 0 108147830.0333037 0 0 107614735.445763 0 0 107126914.4739369 0 0 106679701.3742285 0 0 106355172.4739814 0 0 106460091.3630372 0 0 106090560.828199 0 0 105739146.1502438 0 0 105419440.7346282 0 0 105120951.7885025 0 0 104850247.8823298 0 0 104657169.7244886 0 0 104838202.7009968 0 0 104606479.1286045 0 0 104702299.5372871 0 0 104494382.6070619 0 0 104561491.1643891 0 0 104693308.6591814 0 0 104379181.7882223 0 0 104196897.151273 0 0 104026210.0443017 0 0 103863423.5302231 0 0 103961941.3894622 0 0 104057305.2553134 0 0 103815155.1490404 0 0 103695998.6216951 0 0 103603063.8862187 0 0 103597847.0422194 0 0 104445514.0233635 0 0 122057528.1296413 0 0 121109108.4193901 0 0 116700875.5185556 0 0 119203711.8108772 0 0 115464283.916368 0 0 115418823.3967857 0 0 113982746.7653199 0 0 113087429.2395301 0 0 112059214.3958444 0 0 111099712.3618128 0 0 110232051.9770255 0 0 109456132.6555175 0 0 110035675.225895 0 0 108784112.3561214 0 0 108169047.8761024 0 0 107605578.9635829 0 0 107092914.6328653 0 0 106624089.994839 0 0 106194308.7211111 0 0 106269088.6418774 0 0 105970676.8062362 0 0 105615852.0746812 0 0 105287044.0861333 0 0 104971503.4531408 0 0 104693299.1314564 0 0 104436074.7195487 0 0 104600665.2746179 0 0 104422261.2464346 0 0 104203915.5366835 0 0 104640864.5862102 0 0 104436189.7272841 0 0 104502155.9765267 0 0 104301229.830024 0 0 104313716.9644233 0 0 104134397.5051885 0 0 103966010.69916 0 0 103811023.8490439 0 0 103906721.4693738 0 0 103712523.8034328 0 0 103776938.1415831 0 0 103694277.6037521 0 0 103638255.5894886 0 0 104389814.881986 0 0 120228683.9890066 0 0 116684787.9513264 0 0 117672636.2264623 0 0 118208886.9039863 0 0 114324495.5287753 0 0 113217786.3450226 0 0 112843445.1603213 0 0 111831421.3071699 0 0 110901391.7192575 0 0 110069148.953885 0 0 109309793.2156369 0 0 109443585.9758251 0 0 108649063.4509903 0 0 108047089.3732756 0 0 107496100.9994316 0 0 106993474.8845716 0 0 106533511.2685609 0 0 106111737.6535168 0 0 105799950.3333171 0 0 105891773.9986815 0 0 105542500.95601 0 0 105205196.0987947 0 0 104910663.520763 0 0 104636038.8150681 0 0 104384210.0053701 0 0 104198989.6924461 0 0 104369769.8320277 0 0 104153878.9468694 0 0 104240487.439208 0 0 104049458.7607752 0 0 104119905.4895157 0 0 104246721.723909 0 0 103949270.6052396 0 0 103781884.5996365 0 0 103626686.9339004 0 0 103476262.705073 0 0 103566336.2967809 0 0 103663332.6627612 0 0 103441325.2730789 0 0 103336479.5034622 0 0 103301701.1416595 0 0 104000327.6012166 0 0 115830928.2112032 0 0 116685153.0893866 0 0 114582993.8154635 0 0 114305803.9478129 0 0 113075158.382544 0 0 112323736.3349173 0 0 111311382.7524802 0 0 110380856.9920589 0 0 109529803.020532 0 0 108751741.0586191 0 0 109301668.7186682 0 0 108115261.6173003 0 0 107526964.4923506 0 0 106998417.0515026 0 0 106514420.956957 0 0 106071912.4234327 0 0 105665784.0528696 0 0 105724947.5300541 0 0 105438366.601442 0 0 105105908.9954995 0 0 104796214.8596506 0 0 104495417.0624464 0 0 104237777.9119592 0 0 103998563.6095114 0 0 104151392.1189567 0 0 103980097.9570507 0 0 103777550.1758824 0 0 104188301.4994776 0 0 104000825.4933953 0 0 104067275.5550785 0 0 103870993.9270854 0 0 103891900.629561 0 0 103728122.4561942 0 0 103574077.6212717 0 0 103429401.3445997 0 0 103518302.7803406 0 0 103333329.8587812 0 0 103413413.5066258 0 0 103354089.4292888 0 0 103953444.3069938 0 0 115358644.4580788 0 0 114158178.9407962 0 0 113297404.5370639 0 0 112465426.2980504 0 0 112024595.8949061 0 0 111026085.1753911 0 0 110155359.6320496 0 0 109374292.261333 0 0 108621386.2475065 0 0 108782115.6047456 0 0 107991269.1149177 0 0 107420282.5405959 0 0 106901818.889238 0 0 106426959.9640582 0 0 105992366.4646813 0 0 105593298.1565926 0 0 105292465.6154839 0 0 105370308.8781144 0 0 105038272.3957889 0 0 104719017.3094912 0 0 104444163.6772362 0 0 104190487.26408 0 0 103955442.2643221 0 0 103777747.4731425 0 0 103936277.5554145 0 0 103735753.7146977 0 0 103810792.3570786 0 0 103634504.7446948 0 0 103703790.597146 0 0 103824898.2468162 0 0 103546108.6365281 0 0 103395114.787937 0 0 103253770.0570237 0 0 103117728.575739 0 0 103192015.9606148 0 0 103283253.5696169 0 0 103068384.7690554 0 0 103016140.1204411 0 0 103588549.9008246 0 0 113286980.3275737 0 0 112308611.2802077 0 0 111587569.431841 0 0 110626361.2710861 0 0 109750552.3375836 0 0 108858359.0781116 0 0 108122078.5549297 0 0 108640974.1888413 0 0 107493823.1823373 0 0 106947400.9912544 0 0 106449092.5617298 0 0 105990364.1815908 0 0 105571726.4917006 0 0 105182632.0708269 0 0 105228120.3164019 0 0 104952964.9892545 0 0 104639219.4809021 0 0 104353357.0380762 0 0 104068476.2411979 0 0 103823201.6659907 0 0 103598835.4542112 0 0 103738095.8088715 0 0 103573398.4712552 0 0 103384393.8377774 0 0 103767380.5740077 0 0 103593790.1315345 0 0 103658743.8033946 0 0 103469485.4802663 0 0 103500728.976274 0 0 103347683.3591738 0 0 103208669.171167 0 0 103076000.498137 0 0 103136079.5669746 0 0 102982085.4343967 0 0 103084649.8713681 0 0 103549669.1203058 0 0 112556220.1108032 0 0 112117622.2433267 0 0 111287919.8884681 0 0 110289401.9077198 0 0 109484440.3882598 0 0 108786051.2763442 0 0 107990302.0649792 0 0 108163929.1104341 0 0 107386582.7649791 0 0 106852188.4695326 0 0 106364089.7371783 0 0 105913205.2553406 0 0 105500606.3524776 0 0 105122619.2145621 0 0 104835120.3165007 0 0 104894528.5500267 0 0 104580829.327059 0 0 104283118.1285398 0 0 104019784.2271158 0 0 103783828.86919 0 0 103563274.0730052 0 0 103392128.7248177 0 0 103536776.7190828 0 0 103350265.171663 0 0 103412757.7755566 0 0 103249002.4952167 0 0 103314641.5087512 0 0 103430073.6270854 0 0 103170852.2084274 0 0 103036647.0193658 0 0 102918860.6915512 0 0 102787647.7689103 0 0 102885522.4498102 0 0 102938984.0929835 0 0 102736152.963154 0 0 103208839.8072188 0 0 111610123.3234822 0 0 111074085.0868645 0 0 110134373.9991785 0 0 109255059.6259351 0 0 108095203.3303483 0 0 107537863.9216284 0 0 108040086.8718926 0 0 106939366.8991115 0 0 106440226.1717176 0 0 105956012.5881868 0 0 105523813.6307532 0 0 105108170.0855983 0 0 104755578.8352108 0 0 104778204.2509525 0 0 104509015.9696155 0 0 104212116.5742969 0 0 103939727.0974822 0 0 103682588.2458465 0 0 103446812.1968378 0 0 103235689.0192495 0 0 103359536.8081978 0 0 103200898.0013279 0 0 103024289.8811641 0 0 103376512.7239404 0 0 103215489.2939006 0 0 103277598.548832 0 0 103097092.3866469 0 0 103135342.3320822 0 0 103000979.7051312 0 0 102884957.9809 0 0 102772269.5647235 0 0 102735887.7588259 0 0 102676632.1366178 0 0 102753966.6042644 0 0 103177137.0156562 0 0 110628827.664354 0 0 109705133.8168004 0 0 108808393.0960416 0 0 108587475.1132075 0 0 108093051.6961418 0 0 107434179.1484372 0 0 107592883.1029462 0 0 106843989.1216361 0 0 106348458.9581082 0 0 105878683.616891 0 0 105446698.1195407 0 0 105055078.7776319 0 0 104700839.1185824 0 0 104417500.50808 0 0 104458294.5225773 0 0 104167104.2179282 0 0 103892428.2444914 0 0 103639497.9757893 0 0 103414451.116332 0 0 103206637.8162194 0 0 103040927.8858605 0 0 103171110.9199468 0 0 102996886.4488164 0 0 103045705.4439698 0 0 102894087.2739912 0 0 102953887.3965739 0 0 103065034.7997423 0 0 102819294.7596385 0 0 102686124.0971664 0 0 102565370.9569623 0 0 102515455.8783581 0 0 102571731.3383419 0 0 102578970.5093371 0 0 102473663.5585003 0 0 102860636.0743698 0 0 108190387.7336423 0 0 107797277.2609553 0 0 106938788.9238531 0 0 107486006.2431341 0 0 106508299.7174922 0 0 106032122.3120735 0 0 105562011.2939797 0 0 105085642.0902792 0 0 104715511.6811224 0 0 104360258.9294397 0 0 104369800.4727315 0 0 104109399.389004 0 0 103832239.0479449 0 0 103569563.6580446 0 0 103326176.6689589 0 0 103106797.8760126 0 0 102906542.17652 0 0 103014854.2332165 0 0 102861524.1191549 0 0 102696077.6974971 0 0 103016384.3863974 0 0 102866819.5617695 0 0 102923366.2325533 0 0 102753829.4719244 0 0 102789425.6801884 0 0 102653846.6308181 0 0 102591742.0200644 0 0 102560413.6067811 0 0 102526116.0365529 0 0 102835482.3962297 0 0 107561706.2456278 0 0 106947227.6290659 0 0 107121538.8231778 0 0 106357098.5942515 0 0 105869989.1377324 0 0 105403792.6454266 0 0 105046525.4222444 0 0 104665268.5004822 0 0 104320067.2459131 0 0 104043238.7901529 0 0 104068430.485027 0 0 103787900.0654588 0 0 103528254.9679534 0 0 103295478.6825467 0 0 103080724.1537893 0 0 102883904.8824132 0 0 102723054.4316939 0 0 102838029.0550736 0 0 102674825.5635185 0 0 102708933.6607521 0 0 102568236.5719363 0 0 102622922.8391132 0 0 102729342.3322622 0 0 102503278.3539082 0 0 102401142.1276422 0 0 102254945.9244071 0 0 102242227.997467 0 0 102226170.5033681 0 0 102543274.6151044 0 0 106420569.865486 0 0 106859551.5812512 0 0 106262864.6361378 0 0 105731073.7106044 0 0 105300228.5064499 0 0 104628639.4992348 0 0 104345074.6398546 0 0 104028141.6545264 0 0 104004751.1810879 0 0 103751679.1717504 0 0 103493987.1489763 0 0 103247103.5716538 0 0 103006248.7013651 0 0 102800501.6652773 0 0 102611603.3775896 0 0 102702996.1970444 0 0 102554098.6366061 0 0 102398943.7620609 0 0 102685836.6005812 0 0 102547356.6396024 0 0 102600254.1754515 0 0 102437165.12232 0 0 102480826.5908048 0 0 102309183.7129235 0 0 102305123.0666594 0 0 102319413.0457472 0 0 102287572.0849113 0 0 102523958.6861492 0 0 106589384.8945056 0 0 105995662.7189945 0 0 105500285.6753393 0 0 105024066.6246249 0 0 104944295.2082452 0 0 104636976.0403559 0 0 104296802.14636 0 0 103992513.5861987 0 0 103711852.7855576 0 0 103718551.9494391 0 0 103456709.1815062 0 0 103205121.48125 0 0 102980862.1780289 0 0 102781077.73857 0 0 102594281.6398522 0 0 102436701.1788418 0 0 102536460.3356588 0 0 102383266.3479887 0 0 102401623.1771459 0 0 102269873.6920207 0 0 102318023.0998196 0 0 102419135.5322574 0 0 102205586.5274829 0 0 102109741.3736249 0 0 101995391.9909758 0 0 102030927.5116543 0 0 101986610.1683207 0 0 102255888.6726313 0 0 106279551.7734368 0 0 106027983.3717895 0 0 105517896.8625577 0 0 105026386.1779083 0 0 104645145.6312261 0 0 104423531.8116841 0 0 104064406.0160402 0 0 103688256.836617 0 0 103682133.6964157 0 0 103436134.1204115 0 0 103193480.0880553 0 0 102941837.8516326 0 0 102722108.2713561 0 0 102532868.7527303 0 0 102346409.7899801 0 0 102422361.7030022 0 0 102277662.9904917 0 0 102131884.1185147 0 0 102384035.2748118 0 0 102254288.2570631 0 0 102304282.9903684 0 0 102148041.6305061 0 0 102194620.8134222 0 0 102118177.3413939 0 0 102040771.047528 0 0 102071210.7471603 0 0 102241481.6440887 0 0 105743573.7915574 0 0 105266747.7471007 0 0 104793310.3488479 0 0 104615452.2616159 0 0 104319282.5254697 0 0 103961070.017471 0 0 103697402.5910216 0 0 103407452.064032 0 0 103407034.4292501 0 0 103158510.6203739 0 0 102918116.6728913 0 0 102705324.7357674 0 0 102517196.0807663 0 0 102334925.0023652 0 0 102181029.6537169 0 0 102265413.4866332 0 0 102120824.8014887 0 0 102122779.3787395 0 0 101998666.9557396 0 0 102034214.9376463 0 0 102136618.6609431 0 0 101929689.4774399 0 0 101852421.2893726 0 0 101765577.3231518 0 0 101780907.5279769 0 0 101996118.0655017 0 0 104433413.5909636 0 0 104218284.9829534 0 0 103862415.2800093 0 0 103344924.8414491 0 0 103417099.5636941 0 0 103173226.4716098 0 0 102910149.8555793 0 0 102688975.3251096 0 0 102473563.9825977 0 0 102295078.0939043 0 0 102108554.4116854 0 0 102172245.3626321 0 0 102032102.8691851 0 0 101892167.0624488 0 0 102110222.4677761 0 0 101987398.5653859 0 0 102023567.5227779 0 0 101881793.6774664 0 0 101919658.974412 0 0 101880276.4924733 0 0 101822529.92632 0 0 101986709.2122271 0 0 104056715.8052436 0 0 103670272.9119999 0 0 103381243.5441579 0 0 103584435.080447 0 0 103104924.8757217 0 0 103095402.5382856 0 0 102886227.8186298 0 0 102672825.9782295 0 0 102455095.936503 0 0 102284533.9364936 0 0 102104017.4298141 0 0 101958951.3916449 0 0 102023723.9476239 0 0 101885336.3339062 0 0 101871021.2528638 0 0 101754534.3376696 0 0 101774303.4372772 0 0 101873123.3062863 0 0 101680494.8339777 0 0 101594748.4767066 0 0 101563746.7732444 0 0 101762767.1289053 0 0 103202132.6564287 0 0 103379257.7745859 0 0 103126429.6070788 0 0 102657686.4282385 0 0 102476002.029279 0 0 102268526.7712672 0 0 102074803.3037167 0 0 101922031.5821209 0 0 101952329.9966041 0 0 101812756.626018 0 0 101677978.0461662 0 0 101863027.5920058 0 0 101747542.1644492 0 0 101765155.2093745 0 0 101639032.4631105 0 0 101676351.8350342 0 0 101638117.24061 0 0 101757693.784728 0 0 103084045.6593297 0 0 102870639.6467568 0 0 102625821.9000937 0 0 102871111.2418116 0 0 102433283.9862944 0 0 102212774.7425758 0 0 102082838.4913161 0 0 101915671.510873 0 0 101761523.373151 0 0 101807927.9496671 0 0 101674863.8166034 0 0 101644898.5845447 0 0 101537396.0571069 0 0 101544535.5494532 0 0 101635433.5214544 0 0 101460554.3093704 0 0 101381347.2934892 0 0 101552475.8414518 0 0 102951345.3115835 0 0 102576127.8034197 0 0 102702299.1032754 0 0 102342501.9864257 0 0 102154448.045959 0 0 101840459.1491417 0 0 101743785.8227679 0 0 101759220.0577293 0 0 101623655.7421907 0 0 101482171.7985859 0 0 101641696.1783182 0 0 101537735.5775807 0 0 101529816.4020552 0 0 101422238.6151679 0 0 101422678.6262393 0 0 101425701.2278879 0 0 101552279.4517458 0 0 102777714.5473727 0 0 102473007.2267223 0 0 102689405.2587638 0 0 102252480.5008194 0 0 102020087.5194574 0 0 101875047.6845175 0 0 102048202.0455886 0 0 101751992.9647152 0 0 101597115.944766 0 0 101616632.1362172 0 0 101486573.5989864 0 0 101444307.9868069 0 0 101324145.7658713 0 0 101349735.6964872 0 0 101421579.4340122 0 0 101254416.2312954 0 0 101222059.1391175 0 0 101372288.8203763 0 0 102454925.865404 0 0 102568122.0621541 0 0 102231385.4654152 0 0 102035158.7371672 0 0 101692412.255112 0 0 101823635.6929033 0 0 101571880.4009991 0 0 101586002.6515281 0 0 101455018.6059987 0 0 101324837.6796006 0 0 101443484.8043242 0 0 101355759.746871 0 0 101337762.1279678 0 0 101244444.1413116 0 0 101272732.5416511 0 0 101374278.2617554 0 0 102336848.5007459 0 0 102136838.8743551 0 0 101986157.6476481 0 0 101863728.8787664 0 0 101712989.6483497 0 0 101573341.5025091 0 0 101450243.1478583 0 0 101460842.833277 0 0 101329825.924447 0 0 101280895.2143781 0 0 101167900.7571756 0 0 101162477.765973 0 0 101202796.8849625 0 0 101082579.0980903 0 0 101226275.9994661 0 0 101722114.7945134 0 0 101646507.1338296 0 0 101473434.467793 0 0 101450096.2759372 0 0 101288872.3084686 0 0 101189764.0489095 0 0 101255675.5599006 0 0 101233243.4471778 0 0 101196636.8176256 0 0 101172054.7825335 0 0 101233325.5789566 0 0 101595520.1508589 0 0 101413300.9391282 0 0 101321638.5571126 0 0 101324422.2245002 0 0 101186447.134756 0 0 101141131.7600249 0 0 101073998.2621197 0 0 101016417.0251426 0 0 100961789.7076533 0 0 101098017.7261209 0 0 101266095.9797731 0 0 101147744.8150763 0 0 101133638.7073556 0 0 101168409.1205661 0 0 101119143.076291 0 0 101066408.703501 0 0 101097082.7279005 0 0 101223073.427741 0 0 101071637.0534199 0 0 100988464.629794 0 0 100916272.911076 0 0 100864171.6036263 0 0 101008232.5702822 0 0 101143707.15912 0 0 101092031.4284397 0 0 101034706.5871454 0 0 100967154.0063043 0 0 100948998.6743805 0 0 101006765.8235398 0 0 100846328.4528857 0 0 100794105.8029878 0 0 100959785.9017148 0 0 100962981.5120984 0 0 100898471.7751461 0 0 100827095.7373821 0 0 100880156.7521927 0 0 100746604.0867039 0 0 100846673.8149586 0 0 100861494.7875936 0 0 100825497.1379446 0 0 100725810.6583437 0 0 </DataArray>
      </CellData>
      <PointData>
        <DataArray type="Int64" IdType="1" Name="vtkOriginalPointIds" format="ascii" RangeMin="0" RangeMax="7057">57 1 6974 58 432 6788 56 59 6033 7048 426 55 6815 60 388 7018 4205 4455 61 6920 54 4204 382 62 6917 6772 4202 7029 4626 63 4206 53 4207 4203 4627 4628 4500 4200 4201 6895 64 6837 52 4198 6836 6771 356 6991 65 66 4540 377 4197 4199 6834 3721 399 67 2848 51 4035 5842 2847 4181 6883 6921 4600 68 69 344 6849 4499 3694 6728 2283 3175 4601 4604 70 2526 50 4034 2011 2614 6831 4105 4602 4603 400 6932 4147 3693 3692 6830 1934 6827 7013 4605 71 2227 49 6733 1814 3709 4104 3177 3449 6564 6870 4927 7031 72 73 6871 350 7037 4146 3691 3690 1935 1808 6814 6910 336 74 6010 48 6739 1664 6825 3137 2835 5931 3134 6090 4135 4133 5012 75 76 77 359 5013 4579 4578 4577 3151 3193 4526 1648 4078 5872 6980 6994 78 1665 47 4044 1563 6809 2834 2642 2639 2638 2640 4112 4111 4113 6292 6840 6890 4208 422 6940 3701 3149 3150 3671 6738 1523 4756 5998 6957 79 6803 46 6742 1467 4286 2833 2641 2367 2366 5900 3483 3522 6133 3718 5856 3975 4167 327 80 5760 6979 4573 3148 2826 5860 6027 1524 1424 3302 3447 6995 81 6802 45 4253 1390 4285 3301 4688 1993 1930 1929 3482 6095 3157 3156 3158 3974 6886 4162 6521 82 83 361 340 4574 3317 2825 2635 2894 3194 6741 1339 3720 2769 6232 4081 6891 84 1391 44 6833 4055 1303 6798 4478 2540 1992 1828 1827 3942 6051 2558 2559 3973 6211 4093 6709 4362 6990 85 86 321 6942 4194 4546 5017 2633 2634 2895 3672 6818 1282 5036 5893 2871 2870 4164 5169 87 6795 43 4066 6819 1230 4474 3880 3879 4632 1826 1732 5995 1996 1997 5714 6188 3360 5819 5777 3593 4163 6644 5170 4195 4067 3135 2631 2632 5978 6075 6748 1283 1186 4471 1730 2816 2815 6851 88 6793 42 3136 4592 1050 4473 4470 5060 2299 1825 1731 1729 1893 3018 6113 5754 5687 2817 3082 3592 6356 3719 363 5171 89 90 6841 420 4315 4449 2630 2039 5761 5653 3471 3472 4591 1038 4472 1609 2305 2306 6914 404 91 1141 41 5840 6750 1013 6791 2831 2682 2681 5855 5132 1608 5904 6018 3954 1901 1902 3081 3540 6347 2850 2849 6952 3178 4155 6958 4972 92 93 314 5594 6842 3795 4456 2038 2007 2214 3001 3470 6749 4593 1004 4889 1526 2254 5709 4973 4980 94 6786 40 5468 4594 925 4373 2830 2683 3274 4564 5251 1525 5567 5792 1649 1650 2230 6322 6328 5775 2520 2629 3186 4082 4183 6757 407 95 96 4981 331 6929 3794 3113 2563 2005 2006 3000 3469 3505 6725 1005 917 3202 1489 3072 6301 3179 7045 6894 348 97 6784 39 2004 4595 902 4372 2832 4562 4563 4866 1591 1486 1484 1483 1487 6030 6063 3538 2013 2012 2014 5101 3187 6404 3762 3761 4040 4982 6605 6959 98 6683 7025 4161 3147 2564 2008 1834 5726 3937 6064 6767 4598 4596 885 4371 1488 6218 3561 3929 6987 6899 4430 406 99 100 6873 903 38 1833 4597 864 6776 4379 5883 2051 1865 1864 1485 1422 1421 5888 3936 3935 2454 1813 1812 5795 6003 4024 6393 2884 2883 5762 5969 3777 312 101 6904 4412 5670 4977 3300 5906 1667 5975 6020 2625 6740 3708 2296 860 3714 5212 6199 3562 5545 3776 4157 4431 7043 6963 102 6775 37 1666 4261 773 4289 3713 5493 1925 1866 2956 4958 1314 1313 5563 3002 3003 4753 1748 1747 5740 2765 6385 3297 2656 2655 2657 5914 3406 7003 6778 4187 103 104 365 7033 375 4237 3828 3827 4447 4978 5711 1600 1787 1922 2624 2924 3706 6744 769 3712 4960 6141 4754 6333 3407 4432 6811 5196 105 2298 36 1597 6745 763 6773 3095 2538 1926 5190 6013 4959 1302 1300 1298 1297 5835 2595 1746 1564 1565 2248 5258 5054 2364 2363 5691 3404 3405 3774 3673 4186 6857 411 106 6868 4142 3155 2948 5600 4949 1595 1599 1889 1923 2781 2925 3707 770 761 3711 4961 6080 4827 3064 6185 7008 6948 6684 6770 35 4238 1596 6813 745 4288 3094 2539 2673 4348 4566 1402 1301 1299 1200 1199 2983 5640 1427 1428 2137 2469 3969 6308 1946 1945 1947 3008 3966 6161 3140 5538 3198 5948 3922 7056 107 108 319 5523 7028 4239 7050 2842 2353 1899 1594 1530 5490 5279 3448 6176 6195 6732 4658 743 3715 4565 5973 3442 3074 3965 5617 4138 7004 109 746 34 6780 5859 4659 733 6746 4885 2674 4347 5629 3362 6144 2710 4775 1041 1040 5791 1310 1311 5565 4930 3075 5321 6297 1807 1887 3007 3501 2989 6140 2582 2583 5885 3921 3190 5303 5304 110 323 6909 2843 6968 2354 1900 1598 1529 1439 6009 6065 6139 3961 3521 4063 2055 731 4682 3932 5721 1189 3995 3375 3191 6897 371 111 6736 33 4154 5550 4271 726 4683 4681 4337 3804 2747 2980 4569 6079 5089 1035 1033 1031 1190 1640 5167 3997 3996 6305 1806 1644 5558 3919 6103 2988 5852 2388 2387 5592 2661 2662 3765 3769 5302 6824 5316 112 5449 7032 4153 6058 3829 5173 2722 5055 1438 1382 3010 5744 5492 2532 2976 4064 6730 724 4341 3941 1030 1138 6285 3897 3192 6893 412 2206 32 3299 1496 6805 718 6731 4338 3805 2436 2435 5827 6077 5207 1184 1034 1032 933 5168 4479 3999 3998 4001 2735 1643 1468 5905 5976 1572 5073 5697 1915 1916 2269 2618 5536 3766 5301 6821 5398 6993 113 418 5133 3176 5264 4411 4481 5951 5056 1380 1381 2148 2150 2256 2531 5778 6721 725 717 4340 6022 932 5907 6267 5698 3767 4103 5325 4254 114 6729 31 2951 2147 4727 711 4343 4339 5229 2036 2035 5541 2759 1619 1618 5233 4970 911 5939 4002 4000 5257 6274 5285 1342 1343 1345 1347 1364 1668 1419 1669 2268 2617 3103 5463 3768 6820 3679 3677 7051 325 115 117 118 373 116 5331 5328 5399 6854 3746 2952 2950 3296 5879 5057 1379 1335 5586 2149 2151 2257 2533 6756 4729 4726 707 4342 5204 910 2764 5623 1425 6498 3676 5326 5599 5356 119 712 30 2585 5252 4728 702 6727 4554 2530 1928 1803 1647 1621 1620 3312 4971 2698 897 4439 4003 4004 6261 1843 1250 1251 1344 1346 1348 1365 1498 1420 5256 5192 3104 4038 6491 6769 3773 3678 2863 5327 6844 6943 5329 5357 120 121 338 368 6949 4091 3747 5080 2584 5627 3374 5418 1333 1334 5996 2456 5283 3080 6369 6714 3689 2057 701 4555 1623 896 5964 1143 1497 1904 2862 6855 7054 5359 122 6726 29 2228 6074 4277 700 4831 4830 5037 1927 1802 1645 1622 5871 5960 4684 5082 895 6180 6207 6223 5467 1006 1144 5514 5180 1547 4769 5802 5483 1641 5508 6472 6477 6482 1809 4349 4214 6586 2680 2867 5330 4114 4115 4116 5358 6863 414 6816 4476 6276 5081 2229 2115 2113 2111 1332 1249 5880 3948 6109 6000 6360 4017 3132 3686 6713 698 3696 1624 882 881 1007 1642 1704 2679 6941 6953 6889 123 2295 28 4139 2116 3946 6782 696 6723 3330 2528 2069 4929 1646 5639 3905 4408 3345 923 894 5540 2743 5522 908 909 2728 4415 5824 4482 3883 5479 2117 1801 6465 3605 3604 5476 1702 1705 3772 6581 2678 5532 3908 3142 3141 5875 5466 4074 4075 5360 5361 124 6938 4184 3164 3958 6268 5032 2114 2112 1407 1248 1183 5611 3027 3947 6327 5487 2789 3131 6712 699 695 3695 1741 880 878 4442 1960 1703 2359 7005 6901 125 6720 27 3163 2958 3527 4854 693 4833 3083 2529 5298 3894 1933 2424 2931 4406 3252 2086 4871 876 874 872 871 5967 4413 3862 5462 3304 2964 1962 6408 1961 3982 3097 2483 1701 1448 2749 6806 3663 2391 2358 3907 2667 5776 2668 2844 3047 6231 6982 3484 4144 346 318 5149 3145 6265 5034 5033 5035 2708 4957 1182 1181 1269 3026 6246 2246 2220 2626 3411 6706 4853 692 4832 2018 879 877 4414 2245 5502 1977 7020 126 694 26 3144 4956 6186 4855 691 6717 3084 3215 4436 4437 5913 2425 5602 6115 6062 4331 4457 875 873 856 855 5994 3861 3308 3305 2965 2479 2478 6395 5280 5085 2792 1742 1397 1396 5503 6560 5100 5253 1976 5497 2315 2314 2669 3046 3990 6170 3138 4127 5365 6407 127 128 129 5370 417 6817 5150 3146 2943 2942 6272 5262 4954 4955 5799 1158 1180 2776 3499 5051 2219 1957 5655 6724 4940 4938 690 3687 2919 6295 1537 5997 6430 5699 1975 2846 358 130 6716 25 2944 3874 6164 4939 689 4068 3216 4300 3450 4012 6481 2920 3477 4314 3814 3815 6288 4896 4905 852 851 1743 3860 3307 3306 5061 3037 3038 5276 6370 3334 3333 5433 1307 1306 6556 4545 3356 2500 1895 1894 1896 5290 3048 6286 6290 2400 3133 6005 5366 6867 6965 6807 131 132 5382 6850 4102 3343 3342 2356 1990 2223 6156 3873 5636 1156 1157 5309 3500 3964 2731 1956 1855 2289 6699 3971 2527 688 3688 3475 4898 4897 4401 3563 1308 1974 2399 4089 7057 385 133 6715 24 5308 3504 6132 4282 687 4298 6040 2911 2910 6476 4465 3476 4313 2907 2906 5683 3361 4899 2709 849 848 6017 3863 5063 5062 3567 3549 3550 3336 6365 3335 4661 5432 1178 1179 6800 4544 2806 2719 1680 1679 5496 5291 6282 3533 5414 2383 5934 4770 4087 4086 5405 4108 6916 5381 134 367 6931 4101 3539 4842 1988 1989 3497 6138 2779 1155 1025 5717 5310 6081 6107 5437 1728 1853 6173 3970 3682 6704 685 4299 4306 6254 4900 4402 3409 6796 5273 2381 4088 7023 429 135 2198 23 1987 2993 3396 6702 684 6677 5108 2620 2566 2565 5539 5448 3915 2752 2429 2675 2677 4901 4902 846 845 6035 6289 6311 6325 6340 6355 6362 3408 5511 4527 2729 1133 1134 1326 4543 2967 2966 3889 1536 1533 5518 6106 3532 3261 2457 2382 2380 5899 3899 3744 3742 3741 4145 5402 6934 6790 136 6398 7038 6225 6227 6447 5274 1781 5597 6117 3939 2594 1024 1002 5917 6036 2209 5794 1590 1727 1854 6152 3681 3680 686 683 4061 1692 3031 6255 6281 6041 6537 5266 2348 5319 6972 2 6676 22 1780 2994 1506 4287 681 4309 3061 2619 1982 1724 1691 5520 5591 1949 2030 2676 3030 4903 4904 844 842 840 2143 5512 850 5507 2234 5510 4528 857 4633 1131 1132 5461 6799 4542 4541 5993 5267 1509 1452 1453 6098 3507 3260 2692 5234 2346 2345 3898 3743 3740 3739 5401 5379 5378 5380 137 5086 4025 3204 3585 6444 1782 1673 2176 6097 3940 5259 1001 1000 1021 1328 1330 1398 1589 5551 6119 5423 3035 3675 6701 680 4059 1689 5392 6120 838 5665 5384 1555 2347 5836 7027 682 21 1672 4559 1504 6761 679 6675 3327 5007 1981 1723 1690 1687 1686 1740 5277 3478 3479 6050 847 843 841 839 836 834 832 830 828 826 5738 824 1129 1130 3379 6797 4085 3844 3843 3901 4621 1451 1395 5519 4422 4421 5469 4384 4423 2341 2340 4809 5271 3737 3736 3738 6912 5377 424 138 330 6880 3203 3162 5460 6238 6436 1560 5837 5526 5816 5499 998 999 1327 1329 1331 1399 5732 6060 5422 3034 3033 6758 2068 678 4060 1688 6172 1744 837 822 5464 5921 6014 2344 6674 20 1559 3370 1505 4933 677 4582 4580 2410 2032 5254 3350 1577 1576 5725 5278 6076 6116 854 853 4662 6502 2062 835 833 831 829 827 825 820 823 819 5605 6794 4084 2869 2542 2977 3920 5965 1394 1292 5417 2761 3255 3257 3468 6183 2339 2338 5678 3745 3735 3734 6822 5375 5376 139 5087 6885 4136 3161 2814 3498 4021 6433 1546 5471 2163 5524 996 997 5686 2750 4812 4755 1538 2767 6001 5421 2403 3032 6700 4932 676 4581 4895 5005 862 4841 821 2541 5220 2342 5613 6673 19 1461 994 1539 4934 675 4583 3054 2411 2685 5810 5115 1493 1492 5892 6034 2775 5495 861 2714 4297 5642 4301 1051 4657 2060 4649 1289 4697 768 2067 767 2162 6520 3655 2868 2488 5525 5870 3349 1264 1241 1239 1240 3256 3258 6134 5287 2336 2335 5300 5299 3732 3733 5374 381 140 5297 4678 4679 6999 2812 2813 4020 6431 1462 1337 1235 1046 993 995 3410 6453 6467 5575 2053 1540 5857 5659 2213 2402 6698 4936 4935 673 4685 5123 890 889 5745 4887 2487 1383 5286 2337 2255 18 1338 990 1541 4894 672 6672 5088 2686 3290 4438 2957 1393 1268 1168 1163 1161 916 4906 4296 3401 3402 3435 6334 4651 4650 4407 4324 6320 759 4888 758 6516 4212 3656 6634 2444 2443 5438 2075 1259 1226 1225 5465 3910 3957 5983 3357 2333 2334 5482 3731 3730 7039 5372 141 402 4674 4677 2811 2376 5431 6427 3503 2270 1236 1047 1003 989 5787 6443 4033 3602 6484 5825 1542 1544 1725 1983 5782 3415 6694 674 671 4058 1502 915 1020 3952 3332 2486 2074 2332 3902 5373 6671 17 6206 984 1543 4893 669 4311 3292 3291 4419 5116 1585 1392 1267 1167 1162 1160 1159 5485 3399 3400 3434 3951 6448 4652 6329 3386 3367 3962 739 4446 738 740 5620 6747 4512 2083 2081 2077 2076 5307 1224 1223 5546 5849 5958 3358 2452 2331 5436 5453 3728 3729 142 5371 4672 4673 4675 6829 2375 2301 5671 6224 6217 4360 1516 6187 6353 983 2174 6434 3564 3560 4302 2037 1583 1545 1726 1984 2623 3028 3206 4892 668 4057 1503 5305 4291 6099 6296 4510 3348 2330 5544 6951 670 16 6201 981 4680 6692 667 6670 3293 4630 1940 1721 1586 4848 4845 1169 4849 2396 2397 3250 3398 5912 5971 6049 6376 2901 5666 2903 2904 3963 730 6338 729 5619 6808 4513 4511 2082 2079 2078 5553 5773 1221 1220 1222 3881 5924 3359 5268 2329 2343 3154 3727 6856 143 354 342 4946 4676 6939 2386 2300 2267 3071 3486 3488 3490 4365 4366 6346 980 5815 6425 3559 3558 5916 4019 4498 4774 1985 1986 2798 3029 6690 4979 666 4388 6616 6121 3249 2748 1324 4509 4536 2327 2553 6663 15 3492 979 3869 4838 665 4394 4393 5494 1938 1722 1924 4847 4846 4264 6588 4273 4318 3248 5728 2099 3903 5818 2572 2573 2575 2577 5618 6277 721 5144 720 2166 6859 4514 6703 4508 2080 2963 4521 5735 1218 1219 3378 5877 4469 5652 2326 2328 2547 3153 4148 5368 144 4622 6828 7035 5984 5481 1921 2144 3385 3487 3489 3491 3541 6336 2093 978 982 6417 3557 3311 5952 6512 3870 2786 2501 5146 3638 3639 6689 2070 664 3667 6639 3251 3247 2172 5140 4507 3324 2325 3152 2285 14 5681 3493 977 3535 4837 663 6659 3050 2515 1939 5634 4270 3779 3778 3780 5986 3781 4440 2398 2098 2097 5715 1786 2173 2574 2576 2578 2979 6258 715 5141 714 5521 5576 2658 6496 4209 4196 4505 3325 1217 1216 5501 5781 3392 3884 6038 2323 5416 3368 5369 416 145 396 6936 4011 4010 5933 1920 1800 5587 5749 4643 4788 3494 5447 6319 5383 975 6399 5311 3310 3099 3098 6026 6045 2799 3111 6566 6574 6668 4840 4836 662 3666 6263 6351 3246 2171 2726 3195 2091 2324 3751 6658 13 4008 3495 976 3536 4839 661 4316 3049 2516 2517 4269 3341 2897 3433 5992 2886 2885 6344 2231 1785 1617 1569 1568 5120 5016 2724 2725 6239 5143 708 5142 703 704 2135 2389 2647 4506 3753 6464 3346 1215 1214 2133 2753 3391 6023 2322 2321 5588 3752 6839 5367 146 4548 7041 4168 4009 4007 5750 1798 1796 1795 1891 4789 3912 3911 3988 6299 974 973 6384 3565 3309 2612 2611 2613 5040 5038 6555 4062 2616 6638 3661 697 660 3669 2875 4625 4624 5708 5145 2649 5231 5386 710 12 4006 3987 5779 5039 4307 659 6655 4829 2518 2874 4268 3340 2560 5786 5408 2015 2597 2981 4910 1693 1579 1437 1436 5894 5014 2751 3052 3545 6221 634 5452 635 2134 2136 2390 2648 2651 2866 4210 6456 1212 1213 2590 2991 5731 5275 2277 2320 5878 5364 343 147 352 6766 6280 6251 3063 1799 1797 1628 1627 4791 4790 6110 4443 6284 5712 971 972 5829 5831 6343 2265 2264 6066 6539 6550 5584 2286 2615 2971 3659 6633 658 4567 2395 6317 3534 1495 629 2650 1211 6896 7010 6653 11 7055 4005 6266 2249 6546 6667 657 4568 3051 2880 6240 4629 5102 2094 5488 1830 1841 2784 4015 2065 2064 4962 1378 1377 5015 3452 3053 3526 6249 1631 630 623 5582 5385 2783 6260 6203 2652 3126 4211 6452 1210 5428 3369 3918 5982 2132 2276 6637 5352 5353 5363 148 4730 6619 4100 3166 6253 3062 3011 5138 1511 1510 6087 6104 1637 6136 2760 969 970 1844 3066 3972 6326 1811 1810 2998 6015 2207 1790 2224 2782 3523 3660 2071 656 4052 1675 6307 2445 5946 624 3057 1208 2179 10 6202 5446 2601 5439 6632 655 6651 3201 3210 5103 1881 1676 1615 1613 1612 5704 4016 6324 2066 5610 5863 1194 1193 5974 3520 5106 6226 5435 568 637 569 6178 6209 6242 3989 6213 6781 6789 6785 1207 1209 5771 5915 5962 2130 2131 2807 5350 5351 5362 149 4731 4733 6955 3165 2665 3506 3906 4525 3344 1309 1195 1029 992 988 986 967 968 4757 4701 3067 6318 3543 1700 1357 5891 5662 1571 1789 5296 3960 6215 6627 4850 654 4259 1616 2990 2446 2175 5651 6779 1206 7015 6503 9 6143 966 3068 1455 4851 653 5105 5104 4260 5484 1879 1878 1614 1482 1481 5746 6271 5019 2712 3877 5111 760 555 6105 6179 6197 2142 566 567 6159 2593 3517 5505 3529 3511 6774 5269 3700 5281 1204 5515 3914 5459 2128 2129 5528 6908 5349 5348 415 150 380 4732 3167 2664 2309 5928 6086 4823 4822 1196 1039 1015 991 987 985 965 5861 5846 3994 3992 6302 5660 1355 1356 1359 1375 1570 5789 6167 6196 2961 5806 775 652 3588 5282 5018 2713 5677 6124 3710 1205 776 8 6853 2589 964 3993 1454 4312 651 6424 2797 2440 1965 1880 3366 5041 1371 1370 1514 6245 3956 3278 3878 5112 551 552 5472 3377 5579 564 565 5548 3516 6092 3036 5413 2536 2537 6423 2824 2140 1202 1203 2120 2122 2124 2127 2374 6783 5346 5347 5355 151 4484 6864 4243 5943 2308 1905 1706 5953 5434 1284 1227 4664 6039 2040 5970 5205 963 2772 6128 6182 6269 2232 1353 1354 1358 1360 1376 3015 6083 3467 2405 2960 3211 6609 650 3586 5044 3280 3279 554 3519 3645 2119 6416 7 6848 1588 962 6212 5445 4022 649 3983 2796 2437 1966 5654 5748 5042 1257 1256 6230 4703 3955 5244 5533 548 549 553 557 559 561 563 5624 5950 3013 4965 2225 2226 2535 6768 3887 2805 1201 1192 5555 2121 2123 2125 5506 5344 5343 5345 334 152 425 7006 4242 4241 2355 1942 1824 1663 1550 1423 1323 5932 4425 4535 4435 6053 3934 960 5821 5808 2221 5454 1351 1352 5766 4736 1411 1412 6029 5407 2222 2404 2962 3632 6606 648 3587 5043 3841 4428 556 4964 3886 5812 6400 6 6718 1587 959 5864 5874 6646 647 4433 5263 2438 2439 2953 5989 1409 1019 1018 2180 6208 4399 1697 546 547 5705 4870 558 560 562 627 5645 3006 2217 5589 2218 2534 3124 6418 4611 5442 1175 1191 3380 5876 2126 2318 5500 5342 5341 5354 153 6624 6925 4240 4029 6082 2349 5947 1850 1549 1456 1573 4424 4404 3416 3262 5784 5830 958 961 1277 1279 1349 1350 2933 4737 3331 1512 1513 5648 2210 2211 5574 6046 6597 1136 646 4434 6151 4986 4987 2084 1954 4950 3909 7002 1290 5 7047 4028 4654 956 1281 1709 4868 645 6368 4911 2441 2442 5680 4382 6166 927 533 5843 5242 2746 544 545 2745 4869 4480 5644 5295 1140 1270 1474 1476 1955 1558 5663 3125 6765 4951 2092 1152 1174 2164 3381 5918 2319 2548 3096 5339 6903 5340 154 6961 430 4235 4236 4027 6037 4377 6160 5801 4655 1574 1683 2691 4403 3234 2694 2434 954 957 1276 1278 1280 1317 5832 4641 4640 5478 1707 1708 1711 1815 5798 5954 3453 3646 4867 644 4912 4383 5626 542 5322 1777 1150 5394 6361 0 3852 4656 955 1316 1710 6594 643 4914 2999 2581 2918 3817 4381 5260 527 528 532 535 537 543 5245 4427 3853 3315 3876 5294 1274 1401 1475 1535 3403 1736 6762 6764 3705 5249 1148 1151 5593 3628 6571 2730 2549 2660 6760 374 5338 155 309 4234 6946 4026 3850 3848 3847 5887 5235 1684 1839 4333 3276 2915 2571 953 952 4750 2736 4668 1580 1418 4642 3298 2699 2033 1971 5656 1712 1816 2208 2506 3105 3647 2085 642 4913 2720 539 541 3313 5590 1149 6580 2197 308 386 3851 2938 6373 4746 5489 6589 641 6332 4915 2937 3816 4368 5241 524 525 531 534 536 538 5853 6148 3943 3316 3314 2974 1639 1417 5529 5208 1737 6759 1884 4080 3703 1271 1146 1147 1361 6559 6567 3629 6569 3118 3183 5336 5337 156 307 6763 7026 3849 3749 3172 2939 1903 1840 5635 4389 3277 4725 5404 950 951 4334 4332 6256 4748 4745 4744 2700 2505 2504 3326 4524 1972 1973 2287 2627 5716 6635 4989 640 4552 522 540 550 2975 2499 6552 4032 6323 306 4276 6892 2357 5288 4747 2717 4991 505 4553 3819 3818 5240 1440 520 523 5396 5395 1883 5470 5121 2177 4821 3944 6312 6279 1842 1699 3364 5909 2742 1885 6405 2497 3704 3338 1145 1049 6551 6553 4036 3117 3116 6591 6593 7044 5334 157 305 355 5424 3748 3171 2940 1912 1936 2160 4475 5759 3857 949 948 6235 3813 3811 3810 5527 4825 2702 2701 4844 4045 4496 3594 2512 5004 2628 3119 3668 6577 4990 501 4551 521 749 750 3542 6401 4714 5450 5335 6315 304 4229 5685 3865 2912 2802 5504 502 4561 4549 4550 5387 518 519 6250 4391 4390 5628 5122 5090 6189 6273 6300 4013 6291 5166 3553 3591 5320 5065 2498 4671 2820 4670 5206 1037 1048 5980 4037 3337 2645 2644 4065 4092 326 158 303 6861 4699 3683 3842 1937 2019 5724 4327 3858 1435 947 946 6241 3812 3092 3090 2913 2704 2703 5317 6565 6572 6348 3595 5456 3339 3120 3648 6631 1473 499 500 1886 1890 751 752 6354 3699 4713 2659 6930 504 302 394 4749 6247 2706 3642 496 503 507 6294 5388 516 517 4785 4786 3822 3820 3821 5427 1517 1515 5926 3395 3073 5409 6363 6383 6367 5066 3574 2821 6391 3698 2288 1017 1036 6547 5023 4712 5250 2467 2643 3189 4305 159 6874 7001 4182 4120 4444 2311 2312 2898 4310 3859 4669 945 944 1745 4686 3091 3089 3088 2705 3106 6505 3590 2800 6358 4056 4547 3649 4942 6630 5473 494 497 5411 509 4778 753 754 3087 4079 5022 3188 506 301 6812 2822 4687 4792 6603 495 4916 508 511 513 515 6298 4779 3823 2954 2923 5664 4909 4908 5886 3900 2995 2470 2471 5633 2787 6375 6386 3575 6753 6388 6755 938 1016 1312 5942 5024 2468 2465 2466 5601 4188 413 160 7046 6846 6971 2495 2496 5755 4369 6419 2088 943 942 6264 3630 3619 4835 4793 3107 3622 6501 2161 479 6596 6598 6614 6621 6625 3384 492 493 6310 4364 510 4777 756 757 2473 6752 5224 4189 1447 300 335 4219 6944 6494 4794 1242 1888 4363 5457 512 514 526 6309 6321 4776 2696 2695 3270 5172 4907 5805 5071 1958 1959 2472 2475 2477 2790 6711 6751 5226 930 1185 937 6536 6540 5184 5182 2463 2464 2865 6843 4304 161 4226 4220 2550 2551 2896 6403 4367 4992 941 529 5851 6500 6509 6513 6526 6542 6543 5684 473 474 476 478 5710 2152 5702 490 491 5306 4826 3808 2723 4780 1026 1042 2474 913 2462 6950 7022 4917 299 4218 4217 2774 6528 481 4695 3806 6102 5480 928 934 1416 4782 3005 2690 2689 5820 3913 1243 1261 1389 1501 5585 3938 2476 2636 5632 6359 5227 5225 929 907 6531 5188 5185 5183 5181 2371 5535 5809 5314 372 162 4275 298 2818 2819 5774 4294 4295 4993 449 450 452 5854 893 5834 2170 3621 469 470 472 475 477 480 483 485 487 489 6378 4696 3809 2945 4865 4781 1043 1260 5477 912 2362 3807 4216 391 3212 454 5826 482 4694 2914 5919 4864 935 1246 6339 6350 4783 2433 2432 5255 1372 1245 1388 1499 5817 5990 6056 2773 3112 3702 6349 5228 901 1228 906 5902 5187 5186 5189 2317 2370 3383 6996 5313 163 297 2854 2887 3231 4293 6507 447 448 451 453 456 458 460 462 467 468 471 6248 2212 4923 940 484 486 488 498 6392 6412 4693 2580 4862 4784 5415 5175 3930 6517 2361 4124 5723 4215 4255 296 6860 455 464 5031 4691 2451 4863 1410 1247 1385 2178 6371 3004 2250 1694 1507 1384 5537 1500 1581 5669 3009 6078 3473 3474 6707 914 884 900 6519 5703 3893 5211 2459 2242 2316 3143 4123 5312 164 2888 3229 4292 1566 445 446 5941 4344 2167 457 459 461 463 466 5578 6377 4925 4924 4922 4921 4278 5649 530 570 2199 4692 3023 2450 4861 6380 5176 2982 6100 4023 5667 6907 2935 295 316 6933 4097 5236 465 3775 4690 2449 5125 4860 1386 1518 5790 3544 5070 2216 1685 1520 2587 6043 1582 1695 1862 2302 2809 3670 4072 6341 868 883 1044 3616 6511 3892 5822 2240 2241 2845 4125 6777 165 320 3230 5210 5074 443 444 5764 4249 4248 4345 1137 5509 5003 706 5668 6012 6578 4926 6602 3228 3226 5030 2139 571 572 6422 6428 4689 2448 4858 6390 6647 5028 6123 3253 7030 5614 294 4156 4098 4346 1244 3225 3603 2431 4859 4857 1519 1713 2600 3115 6445 6415 2290 6665 6666 4610 1696 1856 2291 2808 3239 6708 6705 859 867 5713 6487 3060 5010 5474 2238 2239 5673 5200 5199 5203 166 7011 4290 2284 441 442 2145 5050 3577 3268 3267 6495 4997 4995 1674 5828 3017 6557 4047 6601 3227 3224 4280 5029 573 574 1291 4787 3024 2447 3323 3652 6645 1858 6697 3058 6919 2430 293 6461 4279 6411 1831 3223 3242 2252 5232 1715 1714 2282 3114 3651 3977 6640 6662 4322 4323 2959 1857 5581 3382 6696 6695 1177 818 858 2259 6478 5009 2458 3059 2236 2237 2543 5927 5201 5198 410 167 5406 439 440 5727 4247 3578 3269 3266 2873 4998 4996 1882 1832 2021 2562 2909 4046 6604 4883 3222 5641 1325 575 576 6438 3991 3025 5554 1717 3662 1860 1859 5165 2715 1848 292 390 4179 2872 2020 3221 3568 2251 1719 1716 5549 3372 6617 6623 3978 6257 4320 4321 4609 1863 2524 6688 6691 5163 5164 814 817 5720 6470 3601 5008 2235 3875 1995 5606 5850 7042 5202 5197 168 437 438 886 4477 3580 3579 5991 3265 2741 5002 4999 5000 2022 2561 2908 3782 4274 6146 4884 2771 6504 5021 577 578 6449 6458 3569 5910 1718 6626 1861 5534 812 5223 4110 1847 291 4272 435 2740 5517 3209 3570 5956 1720 2280 6047 6611 4053 2514 6628 4051 4319 2523 2261 1980 6687 5158 5162 2525 810 813 931 6459 3599 3600 5988 1836 5222 1994 3387 3389 6922 366 169 436 6548 6734 4380 4386 4387 6021 4758 2739 3199 5001 5963 4266 4263 6085 5239 1829 5770 2414 2770 3784 5020 579 580 777 4458 3571 4663 5572 5410 2485 6685 811 1818 4109 1849 290 311 434 2738 3770 3432 3572 1970 1952 5985 3953 6205 2513 1821 3122 4050 4325 2522 2521 5736 5157 5155 5154 808 809 5734 6454 3597 3598 4945 1951 1835 1776 2637 3388 3783 6792 170 2271 4370 3581 2891 5813 2010 3868 5333 2737 5757 3826 5426 3205 5516 3347 1611 1783 1943 2412 5785 4378 728 581 582 6471 4459 4416 4560 5804 1822 6314 5159 2247 1817 4152 1953 289 433 4245 2394 2876 5949 4813 5119 2023 3556 3796 6193 936 1632 3121 6649 6652 3129 3130 3685 5156 920 806 807 5742 6439 3596 3040 5692 5898 1774 5694 1775 3393 6612 6882 171 6984 4246 6599 2890 2422 2009 1779 5807 4759 1567 2663 3825 6237 2697 5109 1491 1575 1784 1944 2413 2889 6397 4571 583 584 6479 6492 3322 3320 2791 2763 4070 6304 6432 2365 2281 288 389 6379 1950 1534 6514 4814 2509 2507 3554 6595 922 921 5608 3123 4326 3697 3664 3684 4069 5160 804 805 888 6210 3615 3039 2718 5151 1772 1773 6171 6130 6194 4985 310 172 3566 2892 2423 2073 1778 1610 1508 1479 1478 3446 6216 2947 2588 1472 1490 5945 6007 2415 2416 6466 4531 2072 585 586 1638 4815 3321 3109 2801 3925 6682 5161 4876 6154 2508 287 4265 3759 5763 1471 4532 3650 3108 5630 3555 6175 899 898 5911 3926 6654 6678 6679 6680 6681 802 803 5751 6190 3839 4875 2602 1969 1770 1771 2141 4077 4702 4140 4984 173 3273 3272 5547 4852 1733 1548 1480 1404 1403 6054 4516 4515 4715 1406 5772 3933 6055 2417 2418 2893 4530 4529 587 588 6518 6533 3620 5107 3633 5977 2096 800 5390 3793 7016 3110 286 4221 4222 2168 1288 6413 6541 3627 5903 4042 6157 778 779 781 6019 905 5583 2297 5577 5261 801 2202 6153 3837 3838 2603 2061 1769 1768 6089 6112 4076 3791 6902 174 408 3282 4426 4501 1906 1870 5612 4497 1305 1304 5622 4570 3318 1165 1405 2996 3931 5690 2419 2420 5811 4335 591 589 590 5753 2768 6544 6549 6587 783 798 799 4359 3792 3653 285 315 7009 5793 1287 3583 5701 6554 6576 6592 764 765 780 782 785 787 789 791 793 795 5672 6127 3835 3836 3840 5284 4760 1765 1767 5093 3790 4244 3789 6804 175 4223 4450 2684 2313 1907 2955 6382 4468 1232 1126 3365 5064 1124 1164 1698 2997 6101 5137 2421 2480 3077 4303 4385 592 593 596 598 1234 5674 1630 784 797 5689 6259 5604 6562 284 4262 6962 1118 5847 3582 600 2727 5124 747 748 5767 4575 2169 786 788 790 792 794 796 6088 3834 3833 5737 6233 3329 1763 1764 6052 5092 3787 349 3788 176 6642 4533 2653 2401 5700 4467 4466 1315 1231 1125 1116 1115 1119 2455 3424 3425 6155 2482 2481 3076 3576 6406 6024 594 595 597 599 602 604 741 5420 815 2165 5131 7024 5621 283 392 3771 1117 5848 4405 601 606 734 742 5765 4330 4329 4576 1275 5568 2146 4494 5930 816 5858 3832 3831 5631 1766 1761 1762 1991 5147 3431 3786 4988 6905 177 7049 2921 2670 2671 4994 3240 4317 4502 1941 6270 1107 1106 5743 6057 3426 3524 6191 5270 3093 6389 6442 2707 1052 616 5647 3390 5580 603 605 735 6129 865 5873 1759 608 282 6636 3168 4522 3981 6396 1629 607 610 1477 5862 3800 3798 3799 4493 4491 4490 5936 2090 866 5095 3444 3830 6204 1758 1760 5869 5966 3429 3430 4130 178 409 4224 2922 5059 5058 3237 3238 6044 4336 5556 4410 1099 1098 3441 6145 3979 3980 6330 6410 6372 5049 1625 1054 1053 2118 6455 6468 6402 5596 4768 5923 5676 891 5696 1757 609 281 3674 3169 2693 6214 1056 4766 611 5937 4740 3801 2946 2902 5603 4492 4489 4487 4486 4928 892 2987 3443 5783 2453 1756 5557 5425 3427 3428 5739 6686 179 4225 6489 3802 3217 3218 5972 3439 3440 3824 4361 1086 1085 5756 4834 6243 6219 5084 5047 5046 5048 1058 1055 5455 6446 4030 4031 4767 4763 2721 4741 2905 918 1010 1755 7034 612 280 6927 3755 3754 4445 2063 1057 4764 613 6440 4739 4738 2579 2409 2407 5542 4488 3867 3866 5595 919 2986 3485 6158 4873 1735 2755 2757 2864 3750 6923 180 313 333 6497 2029 2028 5733 3437 3438 3496 3917 6150 1083 1081 1078 1075 5091 1272 5083 2711 5045 1060 1059 1273 6437 3589 3070 6435 6441 4762 4761 6451 2406 1008 2985 1754 614 279 6847 3756 3797 5148 1073 5419 4765 615 2205 3617 3041 2490 2408 2048 2762 5400 3328 2059 1022 1009 6070 6114 4874 1657 1734 2756 2861 5741 6810 4976 181 4227 4667 2027 2025 2024 3373 5968 6091 6122 2050 1082 1080 1077 1074 1071 1069 1067 1065 1062 1061 2754 6420 3618 3069 2608 2609 4953 4952 939 5693 2047 5643 5979 5780 617 278 4284 4283 4441 1096 1072 6394 4724 618 6457 3606 3042 5758 5769 2046 5838 3846 3263 1176 1023 1027 5616 2596 1636 1656 2034 3412 3413 4177 405 182 393 6937 2304 2026 1838 1837 5768 2087 4843 4637 1100 1084 5191 2089 5096 1070 1068 1066 1064 1063 5430 6381 4807 4824 2607 2266 6460 6483 4723 5209 6469 2045 5839 3445 5796 619 277 4083 3259 4872 1097 1079 4805 4720 620 622 3607 3608 4648 2049 2044 5393 5011 3319 5117 1028 1153 5615 1634 1635 6006 6096 3414 4143 4944 183 4228 4623 4392 5072 1465 1336 1229 1121 1112 1105 1104 6200 6236 6283 6313 5248 2716 5179 1076 1087 6198 4806 4804 2610 2253 2196 2484 4721 4718 2058 5443 2043 1413 1415 6137 7000 621 276 3244 3243 3245 2203 6337 4803 4719 625 6475 3609 3610 5961 4931 2042 2949 5247 5118 5006 1154 1252 1458 1593 5944 3923 3502 6165 6918 184 364 347 6947 4117 4615 4614 1459 1322 1197 1120 1111 1110 5844 5747 3551 3530 3573 6357 6366 6342 1088 1089 1633 6181 4802 4795 2195 2194 6488 6490 4717 4716 6485 2041 1414 1457 3525 626 275 2927 2926 5719 6163 5561 4799 4722 628 2258 3611 4517 3864 5293 1877 5625 3845 5246 1254 1253 5675 1592 1845 5646 3101 3102 4132 6801 185 7017 6664 4665 4572 1521 1460 5896 3397 5213 1127 1128 5845 3552 3079 3078 5706 4018 4448 1626 1090 1091 6177 4800 4796 2426 2193 2192 2489 4975 4974 633 4918 1875 3014 5682 4131 631 274 4166 2837 2310 1823 4772 3085 4798 4711 632 6493 4518 3044 2930 2233 1876 1873 1871 1262 1255 5552 5999 1846 1963 2385 3100 5722 4185 186 6719 3760 2838 1551 1522 2215 5889 5214 2744 1187 1188 2978 4771 2605 2604 2606 3967 6352 5098 1092 1093 6174 4963 4797 5451 2191 2190 6499 6508 4710 5230 6506 1874 6093 3508 6985 636 273 4128 2360 2095 1677 5920 3065 4801 4708 638 709 4519 3043 2929 2928 5136 1872 1387 1263 1265 5884 3949 1964 2368 2785 3173 4213 187 322 379 6966 3184 2839 1552 5935 6126 5216 5215 5332 1285 1286 5788 4773 2243 2244 2777 3968 5099 5097 1094 1095 1166 5938 4808 2460 2189 2188 2491 4709 4706 2056 4520 2936 6125 6147 639 272 4886 5940 4698 1678 4941 6111 3928 4707 705 6524 3623 3045 5458 4538 4539 5193 5052 1266 1340 2591 3019 2369 5800 3174 4090 6878 188 4230 4233 3185 3417 1749 5752 6244 5217 5218 1368 1366 1367 1443 1804 1805 5718 6084 6414 6421 1102 1101 1103 5866 3927 6072 4983 2187 2186 6510 6563 4705 4704 6525 5513 3945 6168 713 271 3419 6071 1751 1750 1445 3481 3294 6570 716 2204 3624 4374 4537 3264 5865 5053 4943 1341 1431 2592 3020 6228 6262 6278 5139 189 395 4231 6858 3418 5922 1752 2461 6287 6335 5324 5323 1441 1442 1444 1578 2992 6031 3480 3976 6426 6486 1108 1109 5688 2766 3895 6059 2185 2184 2492 5803 6579 723 4464 3295 5823 3984 7007 719 270 3420 6220 5530 1913 1446 2794 2984 3626 722 6527 4461 3241 2503 2031 1869 5243 1433 1432 5707 3021 3022 3985 4048 6888 362 190 4267 4232 6970 3584 3421 3528 1914 5814 3363 6364 6374 4014 2972 5657 1469 5607 5959 5272 2428 5661 4398 6429 1113 1114 1170 1258 6048 4948 2183 2182 5650 3394 6515 4647 6529 1867 3456 3459 727 269 3422 6275 2275 2273 1470 2793 3436 3625 732 737 4462 3055 2502 1948 1868 1449 1434 5571 3924 3454 3455 3986 4049 6710 191 6960 6976 6558 4126 3423 3546 2274 2569 2788 3086 6387 4612 4613 5562 1561 5573 5318 2201 2427 3235 4397 1135 1122 1123 1171 5569 6032 2778 2181 2159 2493 2934 4646 2054 4463 1584 3457 5833 736 4 6622 5987 6303 6316 2567 1562 2795 6025 6523 744 6582 3643 3056 5491 2052 5152 1450 1463 6016 6067 4828 3458 5981 5114 192 268 428 4460 6978 3547 3548 2568 2570 3016 3855 6229 3871 4937 1662 1658 1660 1791 2200 5881 4395 3236 2970 5391 1172 1173 5897 5178 5177 2157 2158 2494 3518 4645 4644 6573 5153 3460 4134 755 267 4193 4150 6345 4357 1659 5901 5440 6522 762 2272 3644 4409 4534 5292 3856 1464 1553 1655 5841 4666 3461 7021 193 266 384 4099 4149 2823 5679 4356 6234 2511 2379 1911 1910 5389 1661 1792 5560 3916 3612 3303 3882 4856 1237 1238 1320 3371 2155 2156 5444 3959 6192 6618 772 4504 5174 3462 328 4141 766 265 6875 4151 6409 4352 5219 6450 5570 3635 771 6584 4503 3289 3285 3283 2968 1554 1651 6142 3854 3464 3463 194 264 5429 7014 6911 4350 3872 3232 2654 2510 2378 2377 5403 3896 1793 1794 1967 2672 3613 5076 5075 1408 1318 1319 1321 2153 2154 5729 6135 6169 2917 6530 6532 6590 1653 6981 6900 774 263 6826 4353 4351 2732 5078 1373 3634 863 870 4631 3286 3284 2969 1819 1652 1753 5882 3466 3465 5068 5067 195 353 262 4599 4106 3233 3197 2851 5486 2860 3890 5890 2734 1908 1909 1968 6462 5077 2263 2101 2100 5094 1362 1363 1494 3012 6068 3451 2780 2916 4308 2262 4400 1654 6986 869 398 4653 6973 2733 5079 1374 3636 887 6607 3288 3287 5531 4751 1820 5658 6222 6293 3537 3716 6877 360 196 261 260 4165 5475 3763 3764 5129 3891 5237 2840 2836 5238 2303 2899 5195 5194 2103 2102 5559 4880 4878 1429 5498 6004 5289 1932 2598 6535 4617 4616 4041 2108 904 259 339 5397 3275 1430 4618 924 6610 3640 3641 4752 2260 2109 5929 3531 6306 3717 4071 5069 197 258 403 6865 7019 4137 6835 5127 7012 3726 3722 4890 3351 2900 6480 6474 2105 2104 2586 4881 4879 4877 1527 5867 5543 1892 1931 2599 4620 4619 1012 6629 2110 926 257 3355 2107 1528 4376 1011 1139 3657 6656 6661 6641 2292 2294 2552 5695 4180 6832 198 256 6823 6924 329 5128 6838 4891 5026 3352 3353 4358 2545 2106 5598 5895 4882 4919 1605 1601 1603 1606 1788 5638 6620 5441 4375 6162 6613 2293 1014 255 5126 6906 5025 2544 1602 3510 1045 6184 6650 3658 4043 5135 5134 2384 6331 6615 337 199 254 253 252 5130 6545 370 5027 6928 3354 3614 6473 5113 2546 3376 4920 2941 1898 1897 4810 1604 1607 5730 5957 3637 3220 3885 6131 4418 2519 6992 1142 251 4171 2853 4743 3509 1198 6149 3515 3514 6643 6648 4054 2852 3724 4252 6913 200 250 7036 249 317 4073 4107 4969 3196 2932 6008 6028 2351 2350 5609 5412 1681 1682 2138 4947 3219 2882 6252 1294 4417 3654 1233 248 6954 4429 3170 4734 6094 1293 1296 3513 3128 3127 6669 6657 3723 4251 6866 201 247 246 6935 6872 4967 4966 3281 4420 2828 2827 2829 3271 4735 1851 1852 6585 3950 2881 2758 4558 4557 6108 3725 1295 245 7052 4121 2279 3254 1369 6069 3512 2804 2803 2810 4354 4172 401 202 369 6538 419 4968 4122 4818 4816 3159 3160 5564 6118 2278 2554 6583 6575 2688 2687 6002 4556 4639 4173 1400 244 6915 5315 5908 1426 6042 4638 2003 2307 6660 4355 4250 203 243 242 241 324 4819 4817 4129 3207 3208 4159 4396 2555 2877 3904 5265 2017 1979 4634 1532 4742 6926 6988 1466 240 6862 2879 1919 1531 1557 2001 2002 2841 6754 6722 345 204 239 4820 6983 6879 4039 4158 4160 4636 2878 3213 6568 2352 2016 1978 1671 1670 1739 1556 238 4635 1918 4608 1738 2000 6600 6534 4607 4606 205 376 237 5566 6608 6956 6869 6463 3214 3631 6561 5221 2666 4584 1917 5925 1998 6998 4495 332 4096 2392 6011 1999 5868 4258 4257 397 6887 206 236 235 234 5637 421 4281 4094 4095 4589 4586 4585 4700 2393 2973 2372 3888 233 4178 2621 6073 2373 2646 4256 4176 207 6743 232 231 6989 6881 4590 4588 4587 4191 3200 2622 4328 2556 4483 230 341 3139 4485 2557 6061 4175 357 208 229 7040 6945 6852 4190 3665 4660 3803 2855 2857 228 6693 3785 2859 2856 3758 4174 209 423 5797 351 4192 6737 4523 3181 3757 6997 2858 227 7053 6876 3180 5110 4169 6884 210 226 225 224 6967 223 378 4119 4118 6977 3182 6735 4811 4452 383 211 222 221 4170 6964 6969 6898 220 6845 4453 4451 212 219 387 4454 5955 427 213 218 431 217 6787 214 6975 216 215 3 </DataArray>
        <DataArray type="UInt8" Name="vtkGhostType" format="ascii" RangeMin="0" RangeMax="0">0 0 0 0 0 0 0 0 0 0 0 0 0 0 0 0 0 0 0 0 0 0 0 0 0 0 0 0 0 0 0 0 0 0 0 0 0 0 0 0 0 0 0 0 0 0 0 0 0 0 0 0 0 0 0 0 0 0 0 0 0 0 0 0 0 0 0 0 0 0 0 0 0 0 0 0 0 0 0 0 0 0 0 0 0 0 0 0 0 0 0 0 0 0 0 0 0 0 0 0 0 0 0 0 0 0 0 0 0 0 0 0 0 0 0 0 0 0 0 0 0 0 0 0 0 0 0 0 0 0 0 0 0 0 0 0 0 0 0 0 0 0 0 0 0 0 0 0 0 0 0 0 0 0 0 0 0 0 0 0 0 0 0 0 0 0 0 0 0 0 0 0 0 0 0 0 0 0 0 0 0 0 0 0 0 0 0 0 0 0 0 0 0 0 0 0 0 0 0 0 0 0 0 0 0 0 0 0 0 0 0 0 0 0 0 0 0 0 0 0 0 0 0 0 0 0 0 0 0 0 0 0 0 0 0 0 0 0 0 0 0 0 0 0 0 0 0 0 0 0 0 0 0 0 0 0 0 0 0 0 0 0 0 0 0 0 0 0 0 0 0 0 0 0 0 0 0 0 0 0 0 0 0 0 0 0 0 0 0 0 0 0 0 0 0 0 0 0 0 0 0 0 0 0 0 0 0 0 0 0 0 0 0 0 0 0 0 0 0 0 0 0 0 0 0 0 0 0 0 0 0 0 0 0 0 0 0 0 0 0 0 0 0 0 0 0 0 0 0 0 0 0 0 0 0 0 0 0 0 0 0 0 0 0 0 0 0 0 0 0 0 0 0 0 0 0 0 0 0 0 0 0 0 0 0 0 0 0 0 0 0 0 0 0 0 0 0 0 0 0 0 0 0 0 0 0 0 0 0 0 0 0 0 0 0 0 0 0 0 0 0 0 0 0 0 0 0 0 0 0 0 0 0 0 0 0 0 0 0 0 0 0 0 0 0 0 0 0 0 0 0 0 0 0 0 0 0 0 0 0 0 0 0 0 0 0 0 0 0 0 0 0 0 0 0 0 0 0 0 0 0 0 0 0 0 0 0 0 0 0 0 0 0 0 0 0 0 0 0 0 0 0 0 0 0 0 0 0 0 0 0 0 0 0 0 0 0 0 0 0 0 0 0 0 0 0 0 0 0 0 0 0 0 0 0 0 0 0 0 0 0 0 0 0 0 0 0 0 0 0 0 0 0 0 0 0 0 0 0 0 0 0 0 0 0 0 0 0 0 0 0 0 0 0 0 0 0 0 0 0 0 0 0 0 0 0 0 0 0 0 0 0 0 0 0 0 0 0 0 0 0 0 0 0 0 0 0 0 0 0 0 0 0 0 0 0 0 0 0 0 0 0 0 0 0 0 0 0 0 0 0 0 0 0 0 0 0 0 0 0 0 0 0 0 0 0 0 0 0 0 0 0 0 0 0 0 0 0 0 0 0 0 0 0 0 0 0 0 0 0 0 0 0 0 0 0 0 0 0 0 0 0 0 0 0 0 0 0 0 0 0 0 0 0 0 0 0 0 0 0 0 0 0 0 0 0 0 0 0 0 0 0 0 0 0 0 0 0 0 0 0 0 0 0 0 0 0 0 0 0 0 0 0 0 0 0 0 0 0 0 0 0 0 0 0 0 0 0 0 0 0 0 0 0 0 0 0 0 0 0 0 0 0 0 0 0 0 0 0 0 0 0 0 0 0 0 0 0 0 0 0 0 0 0 0 0 0 0 0 0 0 0 0 0 0 0 0 0 0 0 0 0 0 0 0 0 0 0 0 0 0 0 0 0 0 0 0 0 0 0 0 0 0 0 0 0 0 0 0 0 0 0 0 0 0 0 0 0 0 0 0 0 0 0 0 0 0 0 0 0 0 0 0 0 0 0 0 0 0 0 0 0 0 0 0 0 0 0 0 0 0 0 0 0 0 0 0 0 0 0 0 0 0 0 0 0 0 0 0 0 0 0 0 0 0 0 0 0 0 0 0 0 0 0 0 0 0 0 0 0 0 0 0 0 0 0 0 0 0 0 0 0 0 0 0 0 0 0 0 0 0 0 0 0 0 0 0 0 0 0 0 0 0 0 0 0 0 0 0 0 0 0 0 0 0 0 0 0 0 0 0 0 0 0 0 0 0 0 0 0 0 0 0 0 0 0 0 0 0 0 0 0 0 0 0 0 0 0 0 0 0 0 0 0 0 0 0 0 0 0 0 0 0 0 0 0 0 0 0 0 0 0 0 0 0 0 0 0 0 0 0 0 0 0 0 0 0 0 0 0 0 0 0 0 0 0 0 0 0 0 0 0 0 0 0 0 0 0 0 0 0 0 0 0 0 0 0 0 0 0 0 0 0 0 0 0 0 0 0 0 0 0 0 0 0 0 0 0 0 0 0 0 0 0 0 0 0 0 0 0 0 0 0 0 0 0 0 0 0 0 0 0 0 0 0 0 0 0 0 0 0 0 0 0 0 0 0 0 0 0 0 0 0 0 0 0 0 0 0 0 0 0 0 0 0 0 0 0 0 0 0 0 0 0 0 0 0 0 0 0 0 0 0 0 0 0 0 0 0 0 0 0 0 0 0 0 0 0 0 0 0 0 0 0 0 0 0 0 0 0 0 0 0 0 0 0 0 0 0 0 0 0 0 0 0 0 0 0 0 0 0 0 0 0 0 0 0 0 0 0 0 0 0 0 0 0 0 0 0 0 0 0 0 0 0 0 0 0 0 0 0 0 0 0 0 0 0 0 0 0 0 0 0 0 0 0 0 0 0 0 0 0 0 0 0 0 0 0 0 0 0 0 0 0 0 0 0 0 0 0 0 0 0 0 0 0 0 0 0 0 0 0 0 0 0 0 0 0 0 0 0 0 0 0 0 0 0 0 0 0 0 0 0 0 0 0 0 0 0 0 0 0 0 0 0 0 0 0 0 0 0 0 0 0 0 0 0 0 0 0 0 0 0 0 0 0 0 0 0 0 0 0 0 0 0 0 0 0 0 0 0 0 0 0 0 0 0 0 0 0 0 0 0 0 0 0 0 0 0 0 0 0 0 0 0 0 0 0 0 0 0 0 0 0 0 0 0 0 0 0 0 0 0 0 0 0 0 0 0 0 0 0 0 0 0 0 0 0 0 0 0 0 0 0 0 0 0 0 0 0 0 0 0 0 0 0 0 0 0 0 0 0 0 0 0 0 0 0 0 0 0 0 0 0 0 0 0 0 0 0 0 0 0 0 0 0 0 0 0 0 0 0 0 0 0 0 0 0 0 0 0 0 0 0 0 0 0 0 0 0 0 0 0 0 0 0 0 0 0 0 0 0 0 0 0 0 0 0 0 0 0 0 0 0 0 0 0 0 0 0 0 0 0 0 0 0 0 0 0 0 0 0 0 0 0 0 0 0 0 0 0 0 0 0 0 0 0 0 0 0 0 0 0 0 0 0 0 0 0 0 0 0 0 0 0 0 0 0 0 0 0 0 0 0 0 0 0 0 0 0 0 0 0 0 0 0 0 0 0 0 0 0 0 0 0 0 0 0 0 0 0 0 0 0 0 0 0 0 0 0 0 0 0 0 0 0 0 0 0 0 0 0 0 0 0 0 0 0 0 0 0 0 0 0 0 0 0 0 0 0 0 0 0 0 0 0 0 0 0 0 0 0 0 0 0 0 0 0 0 0 0 0 0 0 0 0 0 0 0 0 0 0 0 0 0 0 0 0 0 0 0 0 0 0 0 0 0 0 0 0 0 0 0 0 0 0 0 0 0 0 0 0 0 0 0 0 0 0 0 0 0 0 0 0 0 0 0 0 0 0 0 0 0 0 0 0 0 0 0 0 0 0 0 0 0 0 0 0 0 0 0 0 0 0 0 0 0 0 0 0 0 0 0 0 0 0 0 0 0 0 0 0 0 0 0 0 0 0 0 0 0 0 0 0 0 0 0 0 0 0 0 0 0 0 0 0 0 0 0 0 0 0 0 0 0 0 0 0 0 0 0 0 0 0 0 0 0 0 0 0 0 0 0 0 0 0 0 0 0 0 0 0 0 0 0 0 0 0 0 0 0 0 0 0 0 0 0 0 0 0 0 0 0 0 0 0 0 0 0 0 0 0 0 0 0 0 0 0 0 0 0 0 0 0 0 0 0 0 0 0 0 0 0 0 0 0 0 0 0 0 0 0 0 0 0 0 0 0 0 0 0 0 0 0 0 0 0 0 0 0 0 0 0 0 0 0 0 0 0 0 0 0 0 0 0 0 0 0 0 0 0 0 0 0 0 0 0 0 0 0 0 0 0 0 0 0 0 0 0 0 0 0 0 0 0 0 0 0 0 0 0 0 0 0 0 0 0 0 0 0 0 0 0 0 0 0 0 0 0 0 0 0 0 0 0 0 0 0 0 0 0 0 0 0 0 0 0 0 0 0 0 0 0 0 0 0 0 0 0 0 0 0 0 0 0 0 0 0 0 0 0 0 0 0 0 0 0 0 0 0 0 0 0 0 0 0 0 0 0 0 0 0 0 0 0 0 0 0 0 0 0 0 0 0 0 0 0 0 0 0 0 0 0 0 0 0 0 0 0 0 0 0 0 0 0 0 0 0 0 0 0 0 0 0 0 0 0 0 0 0 0 0 0 0 0 0 0 0 0 0 0 0 0 0 0 0 0 0 0 0 0 0 0 0 0 0 0 0 0 0 0 0 0 0 0 0 0 0 0 0 0 0 0 0 0 0 0 0 0 0 0 0 0 0 0 0 0 0 0 0 0 0 0 0 0 0 0 0 0 0 0 0 0 0 0 0 0 0 0 0 0 0 0 0 0 0 0 0 0 0 0 0 0 0 0 0 0 0 0 0 0 0 0 0 0 0 0 0 0 0 0 0 0 0 0 0 0 0 0 0 0 0 0 0 0 0 0 0 0 0 0 0 0 0 0 0 0 0 0 0 0 0 0 0 0 0 0 0 0 0 0 0 0 0 0 0 0 0 0 0 0 0 0 0 0 0 0 0 0 0 0 0 0 0 0 0 0 0 0 0 0 0 0 0 0 0 0 0 0 0 0 0 0 0 0 0 0 0 0 0 0 0 0 0 0 0 0 0 0 0 0 0 0 0 0 0 0 0 0 0 0 0 0 0 0 0 0 0 0 0 0 0 0 0 0 0 0 0 0 0 0 0 0 0 0 0 0 0 0 0 0 0 0 0 0 0 0 0 0 0 0 0 0 0 0 0 0 0 0 0 0 0 0 0 0 0 0 0 0 0 0 0 0 0 0 0 0 0 0 0 0 0 0 0 0 0 0 0 0 0 0 0 0 0 0 0 0 0 0 0 0 0 0 0 0 0 0 0 0 0 0 0 0 0 0 0 0 0 0 0 0 0 0 0 0 0 0 0 0 0 0 0 0 0 0 0 0 0 0 0 0 0 0 0 0 0 0 0 0 0 0 0 0 0 0 0 0 0 0 0 0 0 0 0 0 0 0 0 0 0 0 0 0 0 0 0 0 0 0 0 0 0 0 0 0 0 0 0 0 0 0 0 0 0 0 0 0 0 0 0 0 0 0 0 0 0 0 0 0 0 0 0 0 0 0 0 0 0 0 0 0 0 0 0 0 0 0 0 0 0 0 0 0 0 0 0 0 0 0 0 0 0 0 0 0 0 0 0 0 0 0 0 0 0 0 0 0 0 0 0 0 0 0 0 0 0 0 0 0 0 0 0 0 0 0 0 0 0 0 0 0 0 0 0 0 0 0 0 0 0 0 0 0 0 0 0 0 0 0 0 0 0 0 0 0 0 0 0 0 0 0 0 0 0 0 0 0 0 0 0 0 0 0 0 0 0 0 0 0 0 0 0 0 0 0 0 0 0 0 0 0 0 0 0 0 0 0 0 0 0 0 0 0 0 0 0 0 0 0 0 0 0 0 0 0 0 0 0 0 0 0 0 0 0 0 0 0 0 0 0 0 0 0 0 0 0 0 0 0 0 0 0 0 0 0 0 0 0 0 0 0 0 0 0 0 0 0 0 0 0 0 0 0 0 0 0 0 0 0 0 0 0 0 0 0 0 0 0 0 0 0 0 0 0 0 0 0 0 0 0 0 0 0 0 0 0 0 0 0 0 0 0 0 0 0 0 0 0 0 0 0 0 0 0 0 0 0 0 0 0 0 0 0 0 0 0 0 0 0 0 0 0 0 0 0 0 0 0 0 0 0 0 0 0 0 0 0 0 0 0 0 0 0 0 0 0 0 0 0 0 0 0 0 0 0 0 0 0 0 0 0 0 0 0 0 0 0 0 0 0 0 0 0 0 0 0 0 0 0 0 0 0 0 0 0 0 0 0 0 0 0 0 0 0 0 0 0 0 0 0 0 0 0 0 0 0 0 0 0 0 0 0 0 0 0 0 0 0 0 0 0 0 0 0 0 0 0 0 0 0 0 0 0 0 0 0 0 0 0 0 0 0 0 0 0 0 0 0 0 0 0 0 0 0 0 0 0 0 0 0 0 0 0 0 0 0 0 0 0 0 0 0 0 0 0 0 0 0 0 0 0 0 0 0 0 0 0 0 0 0 0 0 0 0 0 0 0 0 0 0 0 0 0 0 0 0 0 0 0 0 0 0 0 0 0 0 0 0 0 0 0 0 0 0 0 0 0 0 0 0 0 0 0 0 0 0 0 0 0 0 0 0 0 0 0 0 0 0 0 0 0 0 0 0 0 0 0 0 0 0 0 0 0 0 0 0 0 0 0 0 0 0 0 0 0 0 0 0 0 0 0 0 0 0 0 0 0 0 0 0 0 0 0 0 0 0 0 0 0 0 0 0 0 0 0 0 0 0 0 0 0 0 0 0 0 0 0 0 0 0 0 0 0 0 0 0 0 0 0 0 0 0 0 0 0 0 0 0 0 0 0 0 0 0 0 0 0 0 0 0 0 0 0 0 0 0 0 0 0 0 0 0 0 0 0 0 0 0 0 0 0 0 0 0 0 0 0 0 0 0 0 0 0 0 0 0 0 0 0 0 0 0 0 0 0 0 0 0 0 0 0 0 0 0 0 0 0 0 0 0 0 0 0 0 0 0 0 0 0 0 0 0 0 0 0 0 0 0 0 0 0 0 0 0 0 0 0 0 0 0 0 0 0 0 0 0 0 0 0 0 0 0 0 0 0 0 0 0 0 0 0 0 0 0 0 0 0 0 0 0 0 0 0 0 0 0 0 0 0 0 0 0 0 0 0 0 0 0 0 0 0 0 0 0 0 0 0 0 0 0 0 0 0 0 0 0 0 0 0 0 0 0 0 0 0 0 0 0 0 0 0 0 0 0 0 0 0 0 0 0 0 0 0 0 0 0 0 0 0 0 0 0 0 0 0 0 0 0 0 0 0 0 0 0 0 0 0 0 0 0 0 0 0 0 0 0 0 0 0 0 0 0 0 0 0 0 0 0 0 0 0 0 0 0 0 0 0 0 0 0 0 0 0 0 0 0 0 0 0 0 0 0 0 0 0 0 0 0 0 0 0 0 0 0 0 0 0 0 0 0 0 0 0 0 0 0 0 0 0 0 0 0 0 0 0 0 0 0 0 0 0 0 0 0 0 0 0 0 0 0 0 0 0 0 0 0 0 0 0 0 0 0 0 0 0 0 0 0 0 0 0 0 0 0 0 0 0 0 0 0 0 0 0 0 0 0 0 0 0 0 0 0 0 0 0 0 0 0 0 0 0 0 0 0 0 0 0 0 0 0 0 0 0 0 0 0 0 0 0 0 0 0 0 0 0 0 0 0 0 0 0 0 0 0 0 0 0 0 0 0 0 0 0 0 0 0 0 0 0 0 0 0 0 0 0 0 0 0 0 0 0 0 0 0 0 0 0 0 0 0 0 0 0 0 0 0 0 0 0 0 0 0 0 0 0 0 0 0 0 0 0 0 0 0 0 0 0 0 0 0 0 0 0 0 0 0 0 0 0 0 0 0 0 0 0 0 0 0 0 0 0 0 0 0 0 0 0 0 0 0 0 0 0 0 0 0 0 0 0 0 0 0 0 0 0 0 0 0 0 0 0 0 0 0 0 0 0 0 0 0 0 0 0 0 0 0 0 0 0 0 0 0 0 0 0 0 0 0 0 0 0 0 0 0 0 0 0 0 0 0 0 0 0 0 0 0 0 0 0 0 0 0 0 0 0 0 0 0 0 0 0 0 0 0 0 0 0 0 0 0 0 0 0 0 0 0 0 0 0 0 0 0 0 0 0 0 0 0 0 0 0 0 0 0 0 0 0 0 0 0 0 0 0 0 0 0 0 0 0 0 0 0 0 0 0 0 0 0 0 0 0 0 0 0 0 0 0 0 0 0 0 0 0 0 0 0 0 0 0 0 0 0 0 0 0 0 0 0 0 0 0 0 0 0 0 0 0 0 0 0 0 0 0 0 0 0 0 0 0 0 0 0 0 0 0 0 0 0 0 0 0 0 0 0 0 0 0 0 0 0 0 0 0 0 0 0 0 0 0 0 0 0 0 0 0 0 0 0 0 0 0 0 0 0 0 0 0 0 0 0 0 0 0 0 0 0 0 0 0 0 0 0 0 0 0 0 0 0 0 0 0 0 0 0 0 0 0 0 0 0 0 0 0 0 0 0 0 0 0 0 0 0 0 0 0 0 0 0 0 0 0 0 0 0 0 0 0 0 0 0 0 0 0 0 0 0 0 0 0 0 0 0 0 0 0 0 0 0 0 0 0 0 0 0 0 0 0 0 0 0 0 0 0 0 0 0 0 0 0 0 0 0 0 0 0 0 0 0 0 0 0 0 0 0 0 0 0 0 0 0 0 0 0 0 0 0 0 0 0 0 0 0 0 0 0 0 0 0 0 0 0 0 0 0 0 0 0 0 0 0 0 0 0 0 0 0 0 0 0 0 0 0 0 0 0 0 0 0 0 0 0 0 0 0 0 0 0 0 0 0 0 0 0 0 0 0 0 0 0 0 0 0 0 0 0 0 0 0 0 0 0 0 0 0 0 0 0 0 0 0 0 0 0 0 0 0 0 0 0 0 0 0 0 0 0 0 0 0 0 0 0 0 0 0 0 0 0 0 0 0 0 0 0 0 0 0 0 0 0 0 0 0 0 0 0 0 0 0 0 0 0 0 0 0 0 0 0 0 0 0 0 0 0 0 0 0 0 0 0 0 0 0 0 0 0 0 0 0 0 0 0 0 0 0 0 0 0 0 0 0 0 0 0 0 0 0 0 0 0 0 0 0 0 0 0 0 0 0 0 0 0 0 0 0 0 0 0 0 0 0 0 0 0 0 0 0 0 0 0 0 0 0 0 0 0 0 0 0 0 0 0 0 0 0 0 0 0 0 0 0 0 0 0 0 0 0 0 0 0 0 0 0 0 0 0 0 0 0 0 0 0 0 0 0 0 0 0 0 0 0 0 0 0 0 0 0 0 0 0 0 0 0 0 0 0 0 0 0 0 0 0 0 0 0 0 0 0 0 0 0 0 0 0 0 0 0 0 0 0 0 0 0 0 0 0 0 0 0 0 0 0 0 0 0 0 0 0 0 0 0 0 0 0 0 0 0 0 0 0 0 0 0 0 0 0 0 0 0 0 0 0 0 0 0 0 0 0 0 0 0 0 0 0 0 0 0 0 0 0 0 0 0 0 0 0 0 0 0 0 0 0 0 0 0 0 0 0 0 0 0 0 0 0 0 0 0 0 0 0 0 0 0 0 0 0 0 0 0 0 0 0 0 0 0 0 0 0 0 0 0 0 0 0 0 0 0 0 0 0 0 0 0 0 0 0 0 0 0 0 0 0 0 0 0 0 0 0 0 0 0 0 0 0 0 0 0 0 0 0 0 0 0 0 0 0 0 0 0 0 0 0 0 0 0 0 0 0 0 0 0 0 0 0 0 0 0 0 0 0 0 0 0 0 0 0 0 0 0 0 0 0 0 0 0 0 0 0 0 0 0 0 0 0 0 0 0 0 0 0 0 0 0 0 0 0 0 0 0 0 0 0 0 0 0 0 0 0 0 0 0 0 0 0 0 0 0 0 0 0 0 0 0 0 0 0 0 0 0 0 0 0 0 0 0 0 0 0 0 0 0 0 0 0 0 0 0 0 0 0 0 0 0 0 0 0 0 0 0 0 0 0 0 0 0 0 0 0 0 0 0 0 0 0 0 0 0 0 0 0 0 0 0 0 0 0 0 0 0 0 0 0 0 0 0 0 0 0 0 0 0 0 0 0 0 0 0 0 0 0 0 0 0 0 0 0 0 0 0 0 0 0 0 0 0 0 0 0 0 0 0 0 0 0 0 0 0 0 0 0 0 0 0 0 0 0 0 0 0 0 0 0 0 0 0 0 0 0 0 0 0 0 0 0 0 0 0 0 0 0 0 0 0 0 0 0 0 0 0 0 0 0 0 0 0 0 0 0 0 0 0 0 0 0 0 0 0 0 0 0 0 0 0 0 0 0 0 0 0 0 0 0 0 0 0 0 0 0 0 0 0 0 0 0 0 0 0 0 0 0 0 0 0 0 0 0 0 0 0 0 0 0 0 0 0 0 0 0 0 0 0 0 0 0 0 0 0 0 0 0 0 0 0 0 0 0 0 0 0 0 0 0 0 0 0 0 0 0 0 0 0 0 0 0 0 0 0 0 0 0 0 0 0 0 0 0 0 0 0 0 0 0 0 0 0 0 0 0 0 0 0 0 0 0 0 0 0 0 0 0 0 0 0 0 0 0 0 0 0 0 0 0 0 0 0 0 0 0 0 0 0 0 0 0 0 0 0 0 0 0 0 0 0 0 0 0 0 0 0 0 0 0 0 0 0 0 0 0 0 0 0 0 0 0 0 0 0 0 0 0 0 0 0 0 0 0 0 0 0 0 0 0 0 0 0 0 0 0 0 0 0 0 0 0 0 0 0 0 0 0 0 0 0 0 0 0 0 0 0 0 0 0 0 0 0 0 0 0 0 0 0 0 0 0 0 0 0 0 0 0 0 0 0 0 0 0 0 0 0 0 0 0 0 0 0 0 0 0 0 0 0 0 0 0 0 0 0 0 0 0 0 0 0 0 0 0 0 0 0 0 0 0 0 0 0 0 0 0 0 0 0 0 0 0 0 0 0 0 0 0 0 0 0 0 0 0 0 0 0 0 0 0 0 0 0 0 0 0 0 0 0 0 0 0 0 0 0 0 0 0 0 0 0 0 0 0 0 0 0 0 0 0 0 0 0 0 0 0 0 0 0 0 0 0 0 0 0 0 0 0 0 0 0 0 0 0 0 0 0 0 0 0 0 0 0 0 0 0 0 0 0 0 0 0 0 0 0 0 0 0 0 0 0 0 0 0 0 0 0 0 0 0 0 0 0 0 0 0 0 0 0 0 0 0 0 0 0 0 0 0 0 0 0 0 0 0 0 0 0 0 0 0 0 0 0 0 0 0 0 0 0 0 0 0 0 0 0 0 0 0 0 0 0 0 0 0 0 0 0 0 0 0 0 0 0 0 0 0 0 0 0 0 0 0 0 0 0 0 0 0 0 0 0 0 0 0 0 0 0 0 0 0 0 0 0 0 0 0 0 0 0 0 0 0 0 0 0 0 0 0 0 0 0 0 0 0 0 0 0 0 0 0 0 0 0 0 0 0 0 0 0 0 0 0 0 0 0 0 0 0 0 0 0 0 0 0 0 0 0 0 0 0 0 0 0 0 0 0 0 0 0 0 0 0 0 0 0 0 0 0 0 0 0 0 0 0 0 0 0 0 0 0 0 0 0 0 0 0 0 0 0 0 0 0 0 0 0 0 0 0 0 0 0 0 0 0 0 0 0 0 0 0 0 0 0 0 0 0 0 0 0 0 0 0 0 0 0 0 0 0 0 0 0 0 0 0 0 0 0 0 0 0 0 0 0 0 0 0 0 0 0 0 0 0 0 0 0 0 0 0 0 0 0 0 0 0 0 0 0 0 0 0 0 0 0 0 0 0 0 0 0 0 0 0 0 0 0 0 0 0 0 0 0 0 0 0 0 0 0 0 0 0 0 0 0 0 0 0 0 0 0 0 0 0 0 0 0 0 0 0 0 0 0 0 0 0 0 0 0 0 0 0 0 0 0 0 0 0 0 0 0 0 0 0 0 0 0 0 0 0 0 0 0 0 0 0 0 0 0 0 0 0 0 0 0 0 0 0 0 0 0 0 0 0 0 0 0 0 0 0 0 0 0 0 0 0 0 0 0 0 0 0 0 0 0 0 0 0 0 0 0 0 0 0 0 0 0 0 0 0 0 0 0 0 0 0 0 0 0 0 0 0 0 0 0 0 0 0 0 0 0 0 0 0 0 0 0 0 0 0 0 0 0 0 0 0 0 0 0 0 0 0 0 0 0 0 0 0 0 0 0 0 0 0 0 0 0 0 0 0 0 0 0 0 0 0 0 0 0 0 0 0 0 0 0 0 0 0 0 0 0 0 0 0 0 0 0 0 0 0 0 0 0 0 0 0 0 0 0 0 0 0 0 0 0 0 0 0 0 0 0 0 0 0 0 0 0 0 0 0 0 0 0 0 0 0 0 0 0 0 0 0 0 0 0 0 0 0 0 0 0 0 0 0 0 0 0 0 0 0 0 0 0 0 0 0 0 0 0 0 0 0 0 0 0 0 0 0 0 0 0 0 0 0 0 0 0 0 0 0 0 0 0 0 0 0 0 0 0 0 0 0 0 0 0 0 0 0 0 0 0 0 0 0 0 0 0 0 0 0 0 0 0 0 0 0 0 0 0 0 0 0 0 0 0 0 0 0 0 0 0 0 0 0 0 0 0 0 0 0 0 0 0 0 0 0 0 0 0 0 0 0 0 0 0 0 0 0 0 0 0 0 0 0 0 0 0 0 0 0 0 0 0 0 0 0 0 0 0 0 0 0 0 0 0 0 0 0 0 0 0 0 0 0 0 0 0 0 0 0 0 0 0 0 0 0 0 0 0 0 0 0 0 0 0 0 0 0 0 0 0 0 0 0 0 0 0 0 0 0 0 0 0 0 0 0 0 0 0 0 0 0 0 0 0 0 0 0 0 0 0 0 0 0 0 0 0 0 0 0 0 0 0 0 0 0 0 0 0 0 0 0 0 0 0 0 0 0 0 0 0 0 0 0 0 0 0 0 0 0 0 0 0 0 0 0 0 0 0 0 0 0 0 0 0 0 0 0 0 0 0 0 0 0 0 0 0 0 0 0 0 0 0 0 0 0 0 0 0 0 0 0 0 0 0 0 0 0 0 0 0 0 0 0 0 0 0 0 0 0 0 0 0 0 0 0 0 0 0 0 0 0 0 0 0 0 0 0 0 0 0 0 0 0 0 0 0 0 0 0 0 0 0 0 0 0 0 0 0 0 0 0 0 0 0 0 0 0 0 0 0 0 0 0 0 0 0 0 0 0 0 0 0 0 0 0 0 0 0 0 0 0 0 0 0 0 0 0 0 0 0 0 0 0 0 0 0 0 0 0 0 0 0 0 0 0 0 0 0 0 0 0 0 0 0 0 0 0 0 0 0 0 0 0 0 0 0 0 0 0 0 0 0 0 0 0 0 0 0 0 0 0 0 0 0 0 0 0 0 0 0 0 0 0 0 0 0 0 0 0 0 0 0 0 0 0 0 0 0 0 0 0 0 0 0 0 0 0 0 0 0 0 0 0 0 0 0 0 0 0 0 0 0 0 0 0 0 0 0 0 0 0 0 0 0 0 0 0 0 0 0 0 0 0 0 0 0 0 0 0 0 0 0 0 0 0 0 0 0 0 0 0 0 0 0 0 0 0 0 0 0 0 0 0 0 0 0 0 0 0 0 0 0 0 0 0 0 0 0 0 0 0 0 0 0 0 0 0 0 0 0 0 0 0 0 0 0 0 0 0 0 0 0 0 0 0 0 0 0 0 0 0 0 0 0 0 0 0 0 0 0 0 0 0 0 0 0 0 0 0 0 0 0 0 0 0 0 0 0 0 0 0 0 0 0 0 0 0 0 0 0 0 0 0 0 0 0 0 0 0 0 0 0 0 0 0 0 0 0 0 0 0 0 0 0 0 0 0 0 0 0 0 0 0 0 0 0 0 0 0 0 0 0 0 0 0 0 0 0 0 0 0 0 0 0 0 0 0 0 0 0 0 0 0 0 0 0 0 0 0 0 0 0 0 0 0 0 0 0 0 0 0 0 0 0 0 0 0 0 0 0 0 0 0 0 0 0 0 0 0 0 0 0 0 0 0 0 0 0 0 0 0 0 0 0 0 0 0 0 0 0 0 0 0 0 0 0 0 0 0 0 0 0 0 0 0 0 0 0 0 0 0 0 0 0 0 0 0 0 0 0 0 0 0 0 0 0 0 0 0 0 0 0 0 0 0 0 0 0 0 0 0 0 0 0 0 0 0 0 0 0 0 0 0 0 0 0 0 0 0 0 0 0 0 0 0 0 0 0 0 0 0 0 0 0 0 0 0 0 0 0 0 0 0 0 0 0 0 0 0 0 0 0 0 0 0 0 0 0 0 0 0 0 0 0 0 0 0 0 0 0 0 0 0 0 0 0 0 0 0 0 0 0 0 0 0 0 0 0 0 0 0 0 0 0 0 0 0 0 0 0 0 0 0 0 0 0 0 0 0 0 0 0 0 0 0 0 0 0 0 0 0 0 0 0 0 0 0 0 0 0 0 0 0 0 0 0 0 0 0 0 0 0 0 0 0 0 0 0 0 0 0 0 0 0 0 0 0 0 0 0 0 0 0 0 0 0 0 0 0 0 0 0 0 0 0 0 0 0 0 0 0 0 0 0 0 0 0 0 0 0 0 0 0 0 0 0 0 0 0 0 0 0 0 0 0 0 0 0 0 0 0 0 0 0 0 0 0 0 0 0 0 0 0 0 0 0 0 0 0 0 0 0 0 0 0 0 0 0 0 0 0 0 0 0 0 0 0 0 0 0 0 0 0 0 0 0 0 0 0 0 0 0 0 0 0 0 0 0 0 0 0 0 0 0 0 0 0 0 0 0 0 0 0 0 0 0 0 0 0 0 0 0 0 0 0 0 0 0 0 0 0 0 0 0 0 0 0 0 0 0 0 0 0 0 0 0 0 0 0 0 0 0 0 0 0 0 0 0 0 0 0 0 0 0 0 0 0 0 0 0 0 0 0 0 0 0 0 0 0 0 0 0 0 0 0 0 0 0 0 0 0 0 0 0 0 0 0 0 0 0 0 0 0 0 0 0 0 0 0 0 0 0 0 0 0 0 0 0 0 0 0 0 0 0 0 0 0 0 0 0 0 0 0 0 0 0 0 0 0 0 0 0 0 0 0 0 0 0 0 0 0 0 0 0 0 0 0 0 0 0 0 0 0 0 0 0 0 0 0 0 0 0 0 0 0 0 0 0 0 0 0 0 0 0 0 0 0 0 0 0 0 0 0 0 0 0 0 0 0 0 0 0 0 0 0 0 0 0 0 0 0 0 0 0 0 0 0 0 0 0 0 0 0 0 0 0 0 0 0 0 0 0 0 0 0 0 0 0 0 0 0 0 0 0 0 0 0 0 0 0 0 0 0 0 0 0 0 0 0 0 0 0 0 0 0 0 0 0 0 0 0 0 0 0 0 0 0 0 0 0 0 0 0 0 0 0 0 0 0 0 0 0 0 0 0 0 0 0 0 0 0 0 0 0 0 0 0 0 0 0 0 0 0 0 0 0 0 0 0 0 0 0 0 0 0 0 0 0 0 0 0 0 0 0 0 0 0 0 0 0 0 0 0 0 0 0 0 0 0 0 0 0 0 0 0 0 0 0 0 0 0 0 0 0 0 0 0 0 0 0 0 0 0 0 0 0 0 0 </DataArray>
      </PointData>
    </Piece>
  </UnstructuredGrid>
</VTKFile>
