<?xml version="1.0"?>
<VTKFile type="UnstructuredGrid" version="2.2">
  <UnstructuredGrid>
    <Piece NumberOfPoints="146" NumberOfCells="250">
      <Points>
        <DataArray type="Float64" NumberOfComponents="3" format="ascii">0.100000000000416 1 0 0 1 0 0.07242270094929616 0.928716154658712 0 0 0.9042857142860055 0 0.1504496488130522 0.920529655141281 0 0.08949214017397381 0.8499193320747833 0 0.2000000000008322 1 0 0 0.8085714285720079 0 0.2499721953899355 0.9185928771799159 0 0.1985034546041365 0.8442209309262434 0 0.07981914983884167 0.755185374623065 0 0.3000000000012483 1 0 0.1647172437488297 0.7772037251192009 0 0 0.7128571428580415 0 0.3498228780409011 0.9196059643157828 0 0.2982782210027112 0.8494663949677289 0 0.2569918719072125 0.7888812511490501 0 0.07928054189815228 0.6639934880868408 0 0.1576018681684929 0.6958879033414608 0 0.4000000000016644 1 0 0.2419461962682328 0.7223495853541093 0 0 0.6171428571437529 0 0.4518775995084199 0.9201756490083464 0 0.3974942312260539 0.8548415168737089 0 0.334473259867368 0.7636851317483528 0 0.07947867006665031 0.5692879274259949 0 0.1512795608247463 0.609359462773452 0 0.2341354436318248 0.6391200624061724 0 0.5000000000020587 1 0 0.318778831313966 0.6664952828410462 0 0 0.5214285714291634 0 0.5501260307078503 0.9157080124274182 0 0.4982783550718213 0.828329071072998 0 0.4270018182274792 0.7748455103032579 0 0.4034544631785332 0.6976365327000738 0 0.07539619258341246 0.4768398233222965 0 0.1430235002041239 0.5157881957117132 0 0.2175071670521008 0.5477913784569416 0 0.3009805024027954 0.5741244054537948 0 0.6000000000013869 1 0 0.3874961043363944 0.6045058593620658 0 0 0.4257142857145927 0 0.6547996067305862 0.9007657125087727 0 0.5904037090299779 0.8429143001748772 0 0.4913158036241168 0.7286208351528235 0 0.4745187976266661 0.6356120108154575 0 0.0801784059973176 0.3963300372632158 0 0.1336105784902603 0.4361702689152495 0 0.2005261160939736 0.4579553459022219 0 0.2845914509445011 0.4848763822704991 0 0.370652546593246 0.5134749221234858 0 0.7000000000006934 1 0 0.5766230053207846 0.756587194415159 0 0.4575639698313757 0.5427700263992947 0 0 0.33 0 0.7543567317552734 0.9205245603072643 0 0.6561937267356622 0.795248704204671 0 0.5631276294601404 0.6660590632334467 0 0.544952063405022 0.5736116874732444 0 0.08541028510984704 0.318755522614832 0 0.1640593670304531 0.3719448045044551 0 0.2643248175403595 0.3987638367146989 0 0.3539299266139261 0.4249789751401974 0 0.4393289521925454 0.4527926137698597 0 0.7999999999999998 1 0 0.7337357535262907 0.8320636705966578 0 0.6531478674937994 0.703048518595867 0 0.5264916765173424 0.482014321273292 0 0.8469936203174671 0.926623085876644 0 0.8112077680726293 0.8636996853073269 0 0.7394722959461435 0.7432808756465732 0 0.6374023867008554 0.606243392783513 0 0.614862275198887 0.5113105424968967 0 0.1650000004123211 0.2857883830108111 0 0.2462583128866442 0.3160366088760196 0 0.336583731672659 0.336790903594801 0 0.4214663514838095 0.3644860395280298 0 0.507573578000972 0.3921138040433801 0 0.8999999999995836 1 0 0.8192566252644851 0.7890860954018275 0 0.7391175425538948 0.6347508717092358 0 0.5953929619415562 0.4201954588069572 0 0.9267949192429046 0.9267949192429458 0 0.9016961094996303 0.8502010143542412 0 0.8288651147231506 0.698679757810489 0 0.7022966507855875 0.5383879929024822 0 0.6812846140658225 0.4460449155380939 0 0.2333452383332417 0.2333452372498797 0 0.3251853837111932 0.241899025735952 0 0.4070425547868018 0.2792204871458516 0 0.4889892423409983 0.3038076761812549 0 0.5758076666280338 0.329609255978541 0 1 1 0 0.9105973158643607 0.7479451577286277 0 0.8337113423576482 0.599696008751001 0 0.7760953731342629 0.5499323499660974 0 0.6649137530048489 0.3577436960937128 0 1 0.8999999999997368 0 1 0.7999999999994734 0 0.9137660456988989 0.6497040788065254 0 0.7640906286465547 0.472719329826164 0 0.7509658875245231 0.3837908847455452 0 0.2857883835188696 0.1649999995323379 0 0.4035780772005116 0.2107049125168711 0 0.4711446762158894 0.2206591250799017 0 0.5533431996705069 0.2396037875864198 0 0.6436084351024101 0.2642353864160775 0 1 0.69999999999921 0 0.9143104164701789 0.5502457745878089 0 0.8396680954092651 0.504123702910957 0 0.7333924436513715 0.2993780895277814 0 0.3648957752756742 0.1555527535917359 0 1 0.5999999999989468 0 0.8342331509598676 0.4140361328938087 0 0.8263642252375109 0.323507212697176 0 0.3187555227447488 0.08541028462499076 0 0.4407949288198665 0.150333809495205 0 0.5280186054746175 0.1570647193166024 0 0.6132366197634969 0.1702836711304234 0 0.7180649979298037 0.1971965142701444 0 1 0.4999999999986943 0 0.9163687097940949 0.4515076337505133 0 0.7983682599879578 0.2535536781780329 0 0.3966376598987704 0.07841900855955966 0 0.9127558318542788 0.3564464450756911 0 0.895555481334194 0.2551442917808648 0 0.33 0 0 0.4804947788537359 0.07960233790655932 0 0.5713844804045298 0.08071061625978788 0 0.6649999999991136 0.08289100293350836 0 0.8239593393545865 0.1758659824302894 0 1 0.3999999999989749 0 0.4257142857140301 0 0 0.7614399244730016 0.1024449366002657 0 1 0.2999999999992664 0 0.9177753013165793 0.1474028499315248 0 0.521428571427989 0 0 0.6171428571420018 0 0 0.7128571428562255 0 0 0.8564285714281221 0.08289100293390847 0 1 0.1999999999995579 0 0.808571428570815 0 0 1 0.09999999999981467 0 0.9307084157825726 0.07051582244471351 0 0.904285714285429 0 0 1 0 0 </DataArray>
      </Points>
      <Cells>
        <DataArray type="Int32" Name="connectivity" format="ascii">0 1 2 1 3 2 4 0 2 3 5 2 6 0 4 5 4 2 3 7 5 6 4 8 9 4 5 7 10 5 11 6 8 8 4 9 9 5 12 7 13 10 5 10 12 14 11 8 8 9 15 9 12 16 10 13 17 10 18 12 19 11 14 14 8 15 15 9 16 12 20 16 13 21 17 10 17 18 18 20 12 19 14 22 14 15 23 24 15 16 20 24 16 21 25 17 18 17 26 18 27 20 28 19 22 22 14 23 15 24 23 29 24 20 21 30 25 17 25 26 27 18 26 27 29 20 31 28 22 32 22 23 24 33 23 34 24 29 25 30 35 26 25 36 37 27 26 27 38 29 39 28 31 31 22 32 33 32 23 34 33 24 40 34 29 30 41 35 25 35 36 37 26 36 37 38 27 38 40 29 39 31 42 31 32 43 33 44 32 34 44 33 45 34 40 35 41 46 36 35 47 48 37 36 49 38 37 38 50 40 51 39 42 42 31 43 32 52 43 32 44 52 45 44 34 53 45 40 41 54 46 35 46 47 48 36 47 49 37 48 49 50 38 50 53 40 55 51 42 56 42 43 52 56 43 44 57 52 45 57 44 58 45 53 54 59 46 46 60 47 60 48 47 49 48 61 62 50 49 50 63 53 64 51 55 55 42 65 42 56 65 66 56 52 57 66 52 58 57 45 67 58 53 59 60 46 48 60 61 62 49 61 62 63 50 63 67 53 64 55 68 55 65 69 56 70 65 66 70 56 57 71 66 58 71 57 67 72 58 59 73 60 60 74 61 75 62 61 62 76 63 63 77 67 78 64 68 68 55 69 65 79 69 70 79 65 66 80 70 66 71 80 58 72 71 67 81 72 60 73 74 74 75 61 75 76 62 63 76 77 67 77 81 78 68 82 83 68 69 79 83 69 70 84 79 80 84 70 71 85 80 71 72 85 72 81 86 73 87 74 74 88 75 75 89 76 77 76 90 81 77 91 92 78 82 68 83 82 83 79 93 79 84 93 94 84 80 80 85 95 85 72 86 81 96 86 87 88 74 75 88 89 76 89 90 91 77 90 81 91 96 97 92 82 83 97 82 98 83 93 84 99 93 94 99 84 94 80 95 85 100 95 85 86 100 96 101 86 87 102 88 89 88 103 90 89 104 105 91 90 96 91 106 98 97 83 107 98 93 99 107 93 108 99 94 109 94 95 100 109 95 86 101 100 96 110 101 88 102 111 88 111 103 104 89 103 105 90 104 106 91 105 96 106 110 112 107 99 112 99 108 108 94 109 113 109 100 101 113 100 101 110 114 102 115 111 111 116 103 116 104 103 105 104 117 106 105 118 110 106 119 120 112 108 121 108 109 121 109 113 101 114 113 114 110 122 111 115 123 111 123 116 117 104 116 118 105 117 119 106 118 110 119 122 121 120 108 124 121 113 114 124 113 125 114 122 115 126 123 123 127 116 127 117 116 128 118 117 129 119 118 119 130 122 131 120 121 131 121 124 114 125 124 130 125 122 126 132 123 132 127 123 127 128 117 128 129 118 119 129 133 119 133 130 134 131 124 125 134 124 125 130 135 132 136 127 127 136 128 137 129 128 129 138 133 133 139 130 140 134 125 140 125 135 130 139 135 136 137 128 137 138 129 138 141 133 141 139 133 142 140 135 135 139 143 141 144 139 142 135 143 139 144 143 145 142 143 144 145 143 </DataArray>
        <DataArray type="Int32" Name="offsets" format="ascii">3 6 9 12 15 18 21 24 27 30 33 36 39 42 45 48 51 54 57 60 63 66 69 72 75 78 81 84 87 90 93 96 99 102 105 108 111 114 117 120 123 126 129 132 135 138 141 144 147 150 153 156 159 162 165 168 171 174 177 180 183 186 189 192 195 198 201 204 207 210 213 216 219 222 225 228 231 234 237 240 243 246 249 252 255 258 261 264 267 270 273 276 279 282 285 288 291 294 297 300 303 306 309 312 315 318 321 324 327 330 333 336 339 342 345 348 351 354 357 360 363 366 369 372 375 378 381 384 387 390 393 396 399 402 405 408 411 414 417 420 423 426 429 432 435 438 441 444 447 450 453 456 459 462 465 468 471 474 477 480 483 486 489 492 495 498 501 504 507 510 513 516 519 522 525 528 531 534 537 540 543 546 549 552 555 558 561 564 567 570 573 576 579 582 585 588 591 594 597 600 603 606 609 612 615 618 621 624 627 630 633 636 639 642 645 648 651 654 657 660 663 666 669 672 675 678 681 684 687 690 693 696 699 702 705 708 711 714 717 720 723 726 729 732 735 738 741 744 747 750 </DataArray>
        <DataArray type="Int8" Name="types" format="ascii">69 69 69 69 69 69 69 69 69 69 69 69 69 69 69 69 69 69 69 69 69 69 69 69 69 69 69 69 69 69 69 69 69 69 69 69 69 69 69 69 69 69 69 69 69 69 69 69 69 69 69 69 69 69 69 69 69 69 69 69 69 69 69 69 69 69 69 69 69 69 69 69 69 69 69 69 69 69 69 69 69 69 69 69 69 69 69 69 69 69 69 69 69 69 69 69 69 69 69 69 69 69 69 69 69 69 69 69 69 69 69 69 69 69 69 69 69 69 69 69 69 69 69 69 69 69 69 69 69 69 69 69 69 69 69 69 69 69 69 69 69 69 69 69 69 69 69 69 69 69 69 69 69 69 69 69 69 69 69 69 69 69 69 69 69 69 69 69 69 69 69 69 69 69 69 69 69 69 69 69 69 69 69 69 69 69 69 69 69 69 69 69 69 69 69 69 69 69 69 69 69 69 69 69 69 69 69 69 69 69 69 69 69 69 69 69 69 69 69 69 69 69 69 69 69 69 69 69 69 69 69 69 69 69 69 69 69 69 69 69 69 69 69 69 69 69 69 69 69 69 </DataArray>
      </Cells>
      <CellData Tensors="stress">
        <DataArray type="UInt8" Name="vtkGhostType" format="ascii" RangeMin="0" RangeMax="1">0 0 0 0 0 0 0 0 0 0 0 0 0 0 0 0 0 0 0 0 0 0 0 0 0 0 0 0 0 0 0 0 0 0 0 0 0 0 0 0 0 0 0 0 0 0 0 0 0 0 0 0 0 0 0 0 0 0 0 0 0 0 0 0 0 0 0 0 0 0 0 0 0 0 0 0 0 0 0 0 0 0 0 0 0 0 0 0 0 0 0 0 0 0 0 0 0 0 0 0 0 0 0 0 0 0 0 0 0 0 0 0 0 0 0 0 0 0 0 0 0 0 0 0 0 0 0 0 0 0 0 0 0 0 0 0 0 0 0 0 0 0 0 0 0 0 0 0 0 0 0 0 0 0 0 0 0 0 0 0 0 0 0 0 0 0 0 0 0 0 0 0 0 0 0 0 0 0 0 0 0 0 0 0 0 0 0 0 0 0 0 0 0 0 0 0 0 0 0 0 0 0 0 0 0 0 0 0 0 0 0 0 0 0 0 0 0 0 0 0 0 0 0 0 0 0 0 0 0 0 0 0 0 0 0 0 0 0 0 0 0 0 0 0 0 0 0 0 0 0 </DataArray>
        <DataArray type="Int64" IdType="1" Name="vtkOriginalCellIds" format="ascii" RangeMin="0" RangeMax="249">0 1 2 3 4 5 6 7 8 9 10 11 12 13 14 15 16 17 18 19 20 21 22 23 24 25 26 27 28 29 30 31 32 33 34 35 36 37 38 39 40 41 42 43 44 45 46 47 48 49 50 51 52 53 54 55 56 57 58 59 60 61 62 63 64 65 66 67 68 69 70 71 72 73 74 75 76 77 78 79 80 81 82 83 84 85 86 87 88 89 90 91 92 93 94 95 96 97 98 99 100 101 102 103 104 105 106 107 108 109 110 111 112 113 114 115 116 117 118 119 120 121 122 123 124 125 126 127 128 129 130 131 132 133 134 135 136 137 138 139 140 141 142 143 144 145 146 147 148 149 150 151 152 153 154 155 156 157 158 159 160 161 162 163 164 165 166 167 168 169 170 171 172 173 174 175 176 177 178 179 180 181 182 183 184 185 186 187 188 189 190 191 192 193 194 195 196 197 198 199 200 201 202 203 204 205 206 207 208 209 210 211 212 213 214 215 216 217 218 219 220 221 222 223 224 225 226 227 228 229 230 231 232 233 234 235 236 237 238 239 240 241 242 243 244 245 246 247 248 249 </DataArray>
        <DataArray type="Float64" Name="stress" format="ascii" NumberOfComponents="9">107371412.2769516 989094.1321287983 989094.1321287983 14392299.35993136 0 0 0 0 0 108687903.7427214 1464726.996623184 1464726.996623184 14815942.82482472 0 0 0 0 0 108472865.7418403 3080897.530113488 3080897.530113488 12362714.42790208 0 0 0 0 0 109278675.7163514 862355.610509637 862355.610509637 15043042.90204918 0 0 0 0 0 107956760.7907135 3232362.71347179 3232362.71347179 12707565.93213114 0 0 0 0 0 109778241.4733605 3362135.156792407 3362135.156792407 16599323.71992907 0 0 0 0 0 111013511.6474072 1954751.948350646 1954751.948350646 17688414.30672045 0 0 0 0 0 109641465.4939024 4749432.250825636 4749432.250825636 9754235.872065526 0 0 0 0 0 111327296.5397899 4448994.97178155 4448994.97178155 12568900.7764129 0 0 0 0 0 112428881.8566512 901177.0197845045 901177.0197845045 18371376.73706654 0 0 0 0 0 108691278.555977 4395684.079992345 4395684.079992345 9199981.151948167 0 0 0 0 0 110551546.6390219 4541802.292000383 4541802.292000383 12826392.03662406 0 0 0 0 0 112229199.0256978 4261271.310741245 4261271.310741245 15686217.4060185 0 0 0 0 0 115063456.5076077 2462052.828360466 2462052.828360466 21312267.87339004 0 0 0 0 0 114505964.5173346 5438317.582299704 5438317.582299704 17766443.48976603 0 0 0 0 0 110959651.2850839 5637782.61447294 5637782.61447294 6763109.30682972 0 0 0 0 0 112538838.433758 6218106.815049931 6218106.815049931 8888875.127609916 0 0 0 0 0 115348597.6126403 6852661.391181475 6852661.391181475 12163928.6819134 0 0 0 0 0 117496526.5557366 852182.7831189582 852182.7831189582 21745596.10033994 0 0 0 0 0 115287295.3347035 3881753.776479565 3881753.776479565 16545997.37881441 0 0 0 0 0 109281220.3466569 4501850.705357096 4501850.705357096 4853898.182250943 0 0 0 0 0 111061862.6705833 5208788.480487034 5208788.480487034 7066185.009737344 0 0 0 0 0 112856152.204131 5497013.649900575 5497013.649900575 9623928.846616287 0 0 0 0 0 115213431.8834988 5715667.892238761 5715667.892238761 10372892.33904119 0 0 0 0 0 121404182.5388033 3217303.918717935 3217303.918717935 25848699.59616434 0 0 0 0 0 119203735.1195071 6311500.543728504 6311500.543728504 22173868.03567972 0 0 0 0 0 118696376.6959578 8006276.020020723 8006276.020020723 16604392.75851997 0 0 0 0 0 111622173.9901774 5198393.175442282 5198393.175442282 3336624.203427807 0 0 0 0 0 113576764.4442296 5923071.183737517 5923071.183737517 4717079.522235059 0 0 0 0 0 115656067.2979575 6880272.088262605 6880272.088262605 6241590.959026526 0 0 0 0 0 116958086.9586719 7576140.989179809 7576140.989179809 9702880.443879316 0 0 0 0 0 126558982.5899222 198087.5259775069 198087.5259775069 26339589.33149567 0 0 0 0 0 121400163.1482078 3919644.140289089 3919644.140289089 18854839.22735715 0 0 0 0 0 119411684.3878107 5638806.670946685 5638806.670946685 10467701.35426608 0 0 0 0 0 109538161.1391348 3730867.522841302 3730867.522841302 789117.4182117605 0 0 0 0 0 111187537.1318832 4365447.032323141 4365447.032323141 1847396.745171653 0 0 0 0 0 113457626.6640579 5145329.811764401 5145329.811764401 3947606.200776346 0 0 0 0 0 118600551.3866091 5714502.638877153 5714502.638877153 3546812.058089782 0 0 0 0 0 132895587.082794 3969925.92750741 3969925.92750741 30454521.19836459 0 0 0 0 0 126469361.5372538 7092997.800220164 7092997.800220164 26350207.00066421 0 0 0 0 0 124363774.5340624 8862278.273852315 8862278.273852315 18789032.3594906 0 0 0 0 0 122273576.5057045 8211223.285056128 8211223.285056128 10673940.83386347 0 0 0 0 0 112043494.6915208 3920463.701167468 3920463.701167468 277207.6907823634 0 0 0 0 0 113775765.0303875 4440723.885676947 4440723.885676947 358071.1014837815 0 0 0 0 0 116437628.7833549 5821892.041446822 5821892.041446822 1908799.595809958 0 0 0 0 0 119177822.5945641 6053850.024043084 6053850.024043084 3562587.377481904 0 0 0 0 0 144520635.8308306 -2717319.730716999 -2717319.730716999 32200443.33602942 0 0 0 0 0 133335918.9918445 2833568.644125035 2833568.644125035 22483387.36731938 0 0 0 0 0 127035046.7432126 4813640.11254821 4813640.11254821 11694508.48879187 0 0 0 0 0 123771944.6792281 4540019.943203785 4540019.943203785 2302832.482040369 0 0 0 0 0 109336981.2419464 2261405.808188919 2261405.808188919 -2429982.406466677 0 0 0 0 0 111124543.1195358 2659073.151456306 2659073.151456306 -2304748.843209033 0 0 0 0 0 112900910.7490984 3613855.329455855 3613855.329455855 -903403.5608873483 0 0 0 0 0 116025604.8770667 3827147.758269848 3827147.758269848 -1719755.943520203 0 0 0 0 0 121031203.3705646 2935100.777603764 2935100.777603764 -3745620.000414388 0 0 0 0 0 155356438.7182195 3583185.001508877 3583185.001508877 31977595.99357419 0 0 0 0 0 139362369.6670178 6334495.361933526 6334495.361933526 29622228.82206821 0 0 0 0 0 132537325.8533135 8651494.52178409 8651494.52178409 20911691.95006022 0 0 0 0 0 128473387.1900853 7982194.112832064 7982194.112832064 10567176.66925113 0 0 0 0 0 123513337.5693903 4994453.091746608 4994453.091746608 2003861.253086021 0 0 0 0 0 111078336.7578923 2097034.171696536 2097034.171696536 -2244897.469645348 0 0 0 0 0 112852573.03343 2506502.221084855 2506502.221084855 -2142201.800010774 0 0 0 0 0 115690507.4336021 2835061.392100686 2835061.392100686 -3940842.21251051 0 0 0 0 0 116590002.798076 3540278.601045575 3540278.601045575 -1365576.535390074 0 0 0 0 0 118978375.8960522 1792786.627653168 1792786.627653168 -3792681.224698227 0 0 0 0 0 182331341.3096282 -9859727.198680358 -9859727.198680358 34771296.43584922 0 0 0 0 0 154647297.6842071 -2810974.411667879 -2810974.411667879 27430768.84770123 0 0 0 0 0 140226500.850572 1319817.415882809 1319817.415882809 12876473.94977073 0 0 0 0 0 132005587.3737699 1481739.641751793 1481739.641751793 1064979.50422358 0 0 0 0 0 126521603.1822503 164374.574401707 164374.574401707 -6559898.979024479 0 0 0 0 0 108745089.8403371 704703.1394155165 704703.1394155165 -4432570.188201559 0 0 0 0 0 109795287.732172 711045.1072787478 711045.1072787478 -4965678.552962065 0 0 0 0 0 112646558.5042867 611974.1199930848 611974.1199930848 -5722360.178735786 0 0 0 0 0 113757183.7427782 1298039.87307647 1298039.87307647 -4232783.695636329 0 0 0 0 0 118121721.2454914 914115.8249840515 914115.8249840515 -6679520.177849896 0 0 0 0 0 121614598.0168053 -2031153.271771238 -2031153.271771238 -9707252.622193458 0 0 0 0 0 194134452.1513727 3374567.089760162 3374567.089760162 27028139.13473394 0 0 0 0 0 159538178.2492616 -299965.2779830105 -299965.2779830105 29484560.5015679 0 0 0 0 0 144430870.6510368 4949658.660142416 4949658.660142416 22100764.56496207 0 0 0 0 0 135369993.4077969 4608156.693969834 4608156.693969834 9945542.286539927 0 0 0 0 0 127263439.0772679 1682252.247749499 1682252.247749499 -307369.6313556724 0 0 0 0 0 120617613.7212014 -1837870.510004492 -1837870.510004492 -7172008.733320061 0 0 0 0 0 109319729.2701973 228583.7890771446 228583.7890771446 -3774588.516235999 0 0 0 0 0 112002073.3507357 53136.9650344632 53136.9650344632 -5233407.324063687 0 0 0 0 0 110816809.6480043 -538360.6360068826 -538360.6360068826 -5747405.742567214 0 0 0 0 0 115200249.8712796 -1162255.306195696 -1162255.306195696 -7871348.161008 0 0 0 0 0 115109277.7536954 -938586.1082651801 -938586.1082651801 -6614431.318675006 0 0 0 0 0 115180302.3547958 -4613354.435086066 -4613354.435086066 -10201843.04674044 0 0 0 0 0 284233374.8974249 -31717249.66436275 -31717249.66436275 37122038.52474121 0 0 0 0 0 185727720.5192491 -10726785.90546595 -10726785.90546595 23202671.6177619 0 0 0 0 0 158426414.0861391 -11565084.59220046 -11565084.59220046 19892061.96775161 0 0 0 0 0 143536939.6880667 -6932567.815510846 -6932567.815510846 1369123.606313795 0 0 0 0 0 132008829.3532531 -5653973.03237546 -5653973.03237546 -9540018.377278276 0 0 0 0 0 124293675.8114678 -7148077.20463303 -7148077.20463303 -13089786.34240186 0 0 0 0 0 107888295.5919199 -611308.9741949439 -611308.9741949439 -5232570.418591574 0 0 0 0 0 109547674.048324 -1298061.283845161 -1298061.283845161 -5933061.433841996 0 0 0 0 0 109193036.3155559 -1458496.17517224 -1458496.17517224 -6127602.408804374 0 0 0 0 0 112877887.8377241 -2133506.493400838 -2133506.493400838 -7311834.110329724 0 0 0 0 0 111511863.8489904 -2870486.270994309 -2870486.270994309 -8236232.969095414 0 0 0 0 0 117207241.0600049 -3969351.289406944 -3969351.289406944 -10374137.98846228 0 0 0 0 0 118300842.9564545 -8425049.9703651 -8425049.9703651 -13015997.1529474 0 0 0 0 0 169948994.7547414 -25702903.89786439 -25702903.89786439 4366490.936873327 0 0 0 0 0 141724069.4667714 -5358590.296444304 -5358590.296444304 10537573.2909029 0 0 0 0 0 127421510.9118467 -5985329.070575217 -5985329.070575217 -3228904.9101132 0 0 0 0 0 119040611.3308027 -8577421.673514947 -8577421.673514947 -11552663.42208413 0 0 0 0 0 112783841.8025514 -10538197.76059215 -10538197.76059215 -14298571.42724583 0 0 0 0 0 108046794.5279705 -1158021.344448967 -1158021.344448967 -4331821.077792292 0 0 0 0 0 107843612.3653827 -2249103.761382986 -2249103.761382986 -5772657.512035372 0 0 0 0 0 110840406.1049425 -2737447.555321832 -2737447.555321832 -6701214.038999061 0 0 0 0 0 108683355.8880422 -4005522.975154479 -4005522.975154479 -8405183.292365441 0 0 0 0 0 113679791.7046852 -4951037.455790393 -4951037.455790393 -9491391.743809784 0 0 0 0 0 110818911.2644585 -6280668.161323324 -6280668.161323324 -10867953.59074081 0 0 0 0 0 108207114.8338944 -11315900.38254209 -11315900.38254209 -14132936.37341098 0 0 0 0 0 225880129.3343713 -56383577.04348935 -56383577.04348935 40526776.107884 0 0 0 0 0 154716422.6694221 -24370899.61821706 -24370899.61821706 8311316.277490614 0 0 0 0 0 133186812.4385743 -15587680.62315502 -15587680.62315502 -11096657.36465862 0 0 0 0 0 123605899.3082342 -14788351.01396264 -14788351.01396264 -15880984.88204736 0 0 0 0 0 116387483.2233679 -14719823.69308684 -14719823.69308684 -15166532.99570511 0 0 0 0 0 106793888.3067503 -1813017.334962419 -1813017.334962419 -5418129.242156975 0 0 0 0 0 107695168.8823382 -2417086.359072562 -2417086.359072562 -6248429.127080581 0 0 0 0 0 108830903.4547842 -3184073.416007811 -3184073.416007811 -6183741.306753296 0 0 0 0 0 107240369.9244885 -4242435.912535998 -4242435.912535998 -8020677.372369683 0 0 0 0 0 110601883.6460906 -5464341.37710019 -5464341.37710019 -8093810.441872364 0 0 0 0 0 107553785.0896963 -7014457.050977924 -7014457.050977924 -10300946.05109706 0 0 0 0 0 113358273.8901268 -9102170.356605867 -9102170.356605867 -11693778.32860663 0 0 0 0 0 110983193.6509702 -14154207.95458918 -14154207.95458918 -12880432.2273944 0 0 0 0 0 124943014.1034414 -38645386.4371456 -38645386.4371456 10760126.9784641 0 0 0 0 0 114891945.1596495 -20605484.13143332 -20605484.13143332 -4051599.420263615 0 0 0 0 0 110039175.2377039 -19107022.36696482 -19107022.36696482 -15395461.70589718 0 0 0 0 0 105085757.8660173 -19139939.208494 -19139939.208494 -18421813.13842798 0 0 0 0 0 101567233.0010038 -18132549.50091441 -18132549.50091441 -17115021.20233886 0 0 0 0 0 106775647.2161761 -2118011.288356177 -2118011.288356177 -4734167.060019691 0 0 0 0 0 107180486.6060852 -2885562.447948324 -2885562.447948324 -5467902.805325084 0 0 0 0 0 106132637.2133073 -4277106.288196843 -4277106.288196843 -7272187.068031801 0 0 0 0 0 108623877.9951056 -5102325.095096535 -5102325.095096535 -6776093.401042459 0 0 0 0 0 105492146.1019231 -7224581.599598994 -7224581.599598994 -9611722.30519066 0 0 0 0 0 109322734.4895431 -9381636.76553202 -9381636.76553202 -10290518.00859322 0 0 0 0 0 104854821.347358 -11137498.95387615 -11137498.95387615 -12523007.91138496 0 0 0 0 0 99358110.40312995 -16513528.28956168 -16513528.28956168 -14549281.31623825 0 0 0 0 0 144449555.2152039 -53856898.32175546 -53856898.32175546 35372844.91105417 0 0 0 0 0 118025308.5339821 -27852084.83482134 -27852084.83482134 -9089713.720004804 0 0 0 0 0 113331497.9999342 -23313737.97161617 -23313737.97161617 -17366334.27221369 0 0 0 0 0 108061285.4585291 -22020967.05380504 -22020967.05380504 -15984775.12302084 0 0 0 0 0 103916726.2325328 -19865008.01566771 -19865008.01566771 -12882039.82112681 0 0 0 0 0 105466805.657206 -2808671.613643916 -2808671.613643916 -5645369.380785723 0 0 0 0 0 106374203.2240235 -3262130.045805766 -3262130.045805766 -6093683.974486914 0 0 0 0 0 106689536.4113461 -4679360.615336668 -4679360.615336668 -6029068.525031808 0 0 0 0 0 104300964.62888 -6399223.872533093 -6399223.872533093 -8387972.656796086 0 0 0 0 0 106229106.5539867 -7794603.886740496 -7794603.886740496 -7533993.555488743 0 0 0 0 0 103039550.752962 -10697377.9365915 -10697377.9365915 -9935379.611097386 0 0 0 0 0 107081660.2315467 -13296340.39649466 -13296340.39649466 -10443129.44671954 0 0 0 0 0 101136927.5802843 -17433889.60432996 -17433889.60432996 -9725070.394517696 0 0 0 0 0 71660262.41083658 -37613004.25776977 -37613004.25776977 8519360.300674496 0 0 0 0 0 86730090.30716467 -33160485.3402243 -33160485.3402243 -16400509.05996471 0 0 0 0 0 88618822.41066003 -29499827.93163851 -29499827.93163851 -21386674.76101306 0 0 0 0 0 88968618.40113482 -25897111.91655195 -25897111.91655195 -18783185.30368763 0 0 0 0 0 89793764.66298966 -22287592.49912367 -22287592.49912367 -15128429.27884429 0 0 0 0 0 105777514.4529833 -3056362.141474924 -3056362.141474924 -5036084.78747612 0 0 0 0 0 104820501.1681865 -3877639.239887925 -3877639.239887925 -5861061.622844647 0 0 0 0 0 103520616.328686 -5678661.464178381 -5678661.464178381 -7184526.473047676 0 0 0 0 0 105111221.1346643 -6937543.445441387 -6937543.445441387 -6466043.363493367 0 0 0 0 0 101993502.26637 -8862602.365873812 -8862602.365873812 -8931478.24661248 0 0 0 0 0 103063194.9371273 -10566604.92411801 -10566604.92411801 -9775427.844386883 0 0 0 0 0 104127008.9898326 -12489478.9583126 -12489478.9583126 -8662943.094626885 0 0 0 0 0 98109214.43126056 -14860746.11777991 -14860746.11777991 -11765322.50993417 0 0 0 0 0 90773341.64110416 -18889495.79032419 -18889495.79032419 -11797644.34663359 0 0 0 0 0 67992184.14529499 -29776284.43102619 -29776284.43102619 2475238.118150348 0 0 0 0 0 76166560.62625121 -24868071.67042915 -24868071.67042915 -17211350.01094364 0 0 0 0 0 87789391.70541506 -26851600.53651757 -26851600.53651757 -15391464.11389554 0 0 0 0 0 89390102.01031817 -24401476.91593994 -24401476.91593994 -11385230.27803918 0 0 0 0 0 90059500.60513452 -20927295.63748667 -20927295.63748667 -8266524.343795388 0 0 0 0 0 105511957.4235013 -4348017.066194203 -4348017.066194203 -5430353.785775257 0 0 0 0 0 104157064.9936847 -6095564.490590569 -6095564.490590569 -5661806.607177909 0 0 0 0 0 101615064.7386794 -7744305.662904048 -7744305.662904048 -7579257.18757117 0 0 0 0 0 102479100.3018448 -9274773.487076411 -9274773.487076411 -6263729.403715461 0 0 0 0 0 102250819.0432722 -10811504.96058312 -10811504.96058312 -7128507.086459387 0 0 0 0 0 97450555.93728334 -13331117.06220971 -13331117.06220971 -10175237.12020364 0 0 0 0 0 99255338.56518339 -15227403.46396886 -15227403.46396886 -7671411.339130216 0 0 0 0 0 91055967.25011992 -17612917.02703349 -17612917.02703349 -5657274.838214655 0 0 0 0 0 27986432.43544555 -22882477.26867948 -22882477.26867948 -9122042.774205979 0 0 0 0 0 66137173.23636968 -33795111.2816261 -33795111.2816261 -19449803.09866307 0 0 0 0 0 66144788.59812548 -34478942.28866424 -34478942.28866424 -18930049.24501403 0 0 0 0 0 70274971.59956875 -31194393.16220677 -31194393.16220677 -17444254.58982408 0 0 0 0 0 75412104.20498167 -26436300.37352325 -26436300.37352325 -13425531.76902541 0 0 0 0 0 81107070.29223314 -21942710.32886896 -21942710.32886896 -9911600.404909305 0 0 0 0 0 101835694.9289299 -7930780.406941899 -7930780.406941899 -5472109.386129461 0 0 0 0 0 98822892.80792417 -9781572.424979189 -9781572.424979189 -7367704.159792943 0 0 0 0 0 98544172.87308647 -11562876.78797531 -11562876.78797531 -8349284.829819757 0 0 0 0 0 97858049.70093754 -13245060.74045453 -13245060.74045453 -6410792.619762458 0 0 0 0 0 91747627.93651983 -16025935.03670381 -16025935.03670381 -9465495.522708846 0 0 0 0 0 84450653.40989015 -17848399.56616289 -17848399.56616289 -7245781.403845547 0 0 0 0 0 22761566.20275559 -4591319.100596077 -4591319.100596077 -47205564.99875369 0 0 0 0 0 34239628.43658259 -31088649.36362234 -31088649.36362234 -18057851.50446309 0 0 0 0 0 64665287.21291368 -28174496.22298382 -28174496.22298382 -15534342.86316932 0 0 0 0 0 68671167.87230882 -25035901.33296692 -25035901.33296692 -8889019.378900183 0 0 0 0 0 73872509.87747408 -21638018.45320559 -21638018.45320559 -5005048.85571087 0 0 0 0 0 77985776.45085549 -18090294.4375094 -18090294.4375094 -3489889.5454293 0 0 0 0 0 98438160.57052307 -9617992.992661476 -9617992.992661476 -4705174.851517349 0 0 0 0 0 97877776.6370226 -11346981.15534785 -11346981.15534785 -5376350.584473426 0 0 0 0 0 93263231.51647918 -13790093.45945634 -13790093.45945634 -7688417.412899205 0 0 0 0 0 91332448.7048763 -14775797.42692683 -14775797.42692683 -4813172.770652249 0 0 0 0 0 83513147.67716368 -14976009.28763066 -14976009.28763066 -2862776.222426664 0 0 0 0 0 11971105.76506441 -15190563.13422299 -15190563.13422299 -24727748.54991338 0 0 0 0 0 33863216.18451111 -19370411.03441064 -19370411.03441064 -26425955.71448601 0 0 0 0 0 45955234.4291792 -31525842.43993924 -31525842.43993924 -13805683.6300671 0 0 0 0 0 56385479.73739869 -26842407.88641243 -26842407.88641243 -10008688.75945126 0 0 0 0 0 67007581.64432311 -22171200.09403742 -22171200.09403742 -5927908.049688383 0 0 0 0 0 78150861.62068811 -17549416.98282647 -17549416.98282647 -3656145.86278286 0 0 0 0 0 95081164.54706188 -11636642.65542842 -11636642.65542842 -6229929.730594284 0 0 0 0 0 92185470.15108976 -12641062.84028346 -12641062.84028346 -3851723.693360172 0 0 0 0 0 87131160.47818373 -15127549.11454591 -15127549.11454591 -5964932.909314728 0 0 0 0 0 79288346.23241414 -14998456.70156441 -14998456.70156441 -3458827.979729014 0 0 0 0 0 381409.8141145008 4846144.546323531 4846144.546323531 -80348934.32357071 0 0 0 0 0 18341432.65564444 -24402352.56857943 -24402352.56857943 -16020176.88671163 0 0 0 0 0 44885960.75412926 -20220899.92695094 -20220899.92695094 -9721835.718299149 0 0 0 0 0 54979756.58276393 -17419386.29125802 -17419386.29125802 -1293606.050781464 0 0 0 0 0 63394985.82241061 -14495104.73636693 -14495104.73636693 833058.5075418059 0 0 0 0 0 70217567.82878262 -14010329.4242624 -14010329.4242624 -2080592.887329793 0 0 0 0 0 93463643.99010782 -10738660.70097256 -10738660.70097256 -3451574.095889095 0 0 0 0 0 90120285.55670291 -12639338.00915344 -12639338.00915344 -4468733.842380533 0 0 0 0 0 85436694.17402096 -12805064.16629592 -12805064.16629592 -1555832.535579571 0 0 0 0 0 80577898.64807947 -12646968.80346771 -12646968.80346771 1177015.747804548 0 0 0 0 0 -462650.0429606338 -11824414.5694242 -11824414.5694242 -32877145.31110193 0 0 0 0 0 15802935.26508513 -3703011.809018258 -3703011.809018258 -21953788.99508477 0 0 0 0 0 33401200.2450571 -21210782.93981834 -21210782.93981834 -6952830.466888684 0 0 0 0 0 47635787.71656045 -16966152.93971334 -16966152.93971334 -2524740.355805673 0 0 0 0 0 61234334.31892298 -13622132.56793993 -13622132.56793993 -488627.7269959456 0 0 0 0 0 72443204.41659814 -12096591.1724885 -12096591.1724885 2530661.174883166 0 0 0 0 0 87729629.15575041 -10825018.84142688 -10825018.84142688 -1653140.949372013 0 0 0 0 0 84696882.9171187 -12420943.94781151 -12420943.94781151 -1929251.109433239 0 0 0 0 0 73430393.89221945 -10606743.00659862 -10606743.00659862 -286466.4279525687 0 0 0 0 0 18594347.73875458 -9753770.39454655 -9753770.39454655 -9899307.203234714 0 0 0 0 0 33884938.371196 -5906444.24694059 -5906444.24694059 -3721502.301715959 0 0 0 0 0 48359711.86219744 -5268299.010431629 -5268299.010431629 2257856.172448374 0 0 0 0 0 57549018.73638745 -4795534.299459562 -4795534.299459562 3425219.480227644 0 0 0 0 0 64457596.27791736 -9845231.79947081 -9845231.79947081 498855.0875482323 0 0 0 0 0 81506763.46481177 -9495528.455373032 -9495528.455373032 259965.0125812364 0 0 0 0 0 81689315.21140881 -9408607.370454574 -9408607.370454574 2518174.516371076 0 0 0 0 0 76315489.17971604 -8235058.487657986 -8235058.487657986 4207768.070586988 0 0 0 0 0 36320550.64614286 -7487049.308922815 -7487049.308922815 -1076260.364524194 0 0 0 0 0 50265495.27961915 -5483894.382585103 -5483894.382585103 2546863.290306108 0 0 0 0 0 60814087.76559526 -4525717.46635537 -4525717.46635537 3331421.531439633 0 0 0 0 0 68848343.16669814 -3874521.194915236 -3874521.194915236 4921038.469671474 0 0 0 0 0 76239063.96192601 -6495573.204393037 -6495573.204393037 1935396.494355958 0 0 0 0 0 70465290.97665259 -6179451.573271001 -6179451.573271001 2084593.776703854 0 0 0 0 0 67765477.36128348 -3038239.95460272 -3038239.95460272 3566310.479553629 0 0 0 0 0 77749862.27059966 -5535697.724594072 -5535697.724594072 4364749.478491401 0 0 0 0 0 72661447.07307926 -2516191.536289771 -2516191.536289771 4255703.230884498 0 0 0 0 0 73903105.85680397 -2379812.701367731 -2379812.701367731 3134040.971242445 0 0 0 0 0 73741746.22549939 -2160525.342739471 -2160525.342739471 4073955.913058362 0 0 0 0 0 </DataArray>
      </CellData>
      <PointData>
        <DataArray type="Int64" IdType="1" Name="vtkOriginalPointIds" format="ascii" RangeMin="0" RangeMax="145">28 3 134 29 54 120 27 30 92 93 47 26 142 31 46 126 143 107 108 25 124 32 90 139 84 43 127 86 24 117 33 40 110 83 77 106 132 85 74 23 114 34 102 131 76 75 129 141 89 73 63 22 122 111 4 48 99 70 66 35 51 121 59 60 21 130 71 62 119 144 98 67 65 36 55 56 58 61 20 101 97 64 135 53 96 72 113 37 41 57 112 68 2 109 95 137 69 19 18 45 133 81 38 140 116 80 78 17 94 100 79 82 16 125 88 39 138 123 103 87 15 42 145 128 115 49 0 50 91 44 105 14 5 104 13 118 6 7 8 52 12 9 11 136 10 1 </DataArray>
        <DataArray type="UInt8" Name="vtkGhostType" format="ascii" RangeMin="0" RangeMax="0">0 0 0 0 0 0 0 0 0 0 0 0 0 0 0 0 0 0 0 0 0 0 0 0 0 0 0 0 0 0 0 0 0 0 0 0 0 0 0 0 0 0 0 0 0 0 0 0 0 0 0 0 0 0 0 0 0 0 0 0 0 0 0 0 0 0 0 0 0 0 0 0 0 0 0 0 0 0 0 0 0 0 0 0 0 0 0 0 0 0 0 0 0 0 0 0 0 0 0 0 0 0 0 0 0 0 0 0 0 0 0 0 0 0 0 0 0 0 0 0 0 0 0 0 0 0 0 0 0 0 0 0 0 0 0 0 0 0 0 0 0 0 0 0 0 0 </DataArray>
      </PointData>
    </Piece>
  </UnstructuredGrid>
</VTKFile>
