<?xml version="1.0"?>
<VTKFile type="UnstructuredGrid" version="2.2">
  <UnstructuredGrid>
    <Piece NumberOfPoints="1812" NumberOfCells="3467">
      <Points>
        <DataArray type="Float64" NumberOfComponents="3" format="ascii">0.3290772530756401 0.02466093080544896 0 0.33 0 0 0.3477603422905586 0.01839861105341754 0 0.3548148148147337 0 0 0.3507861334052509 0.04005222258411303 0 0.3672204995160676 0.0214932438341765 0 0.3263141726786753 0.049183947676368 0 0.3796296296294943 0 0 0.3448127603585294 0.06610442189858874 0 0.3780611605573652 0.0425232455597328 0 0.3919769333065202 0.02151903925177228 0 0.404444444444236 0 0 0.3217262110736951 0.07343190797033793 0 0.3650109033840933 0.05964178392983693 0 0.4165442445722782 0.02058052294532029 0 0.429259259258989 0 0 0.3391261126044723 0.09007757257192724 0 0.3649055898503318 0.08365216733339799 0 0.3864888727489889 0.06587686227335215 0 0.4058761818286128 0.04596939215959448 0 0.4405772947657787 0.02080084709985549 0 0.3153390260015787 0.09726920725684815 0 0.4285630946167989 0.03820887713581589 0 0.4540740740737054 0 0 0.331389782007059 0.1159582995615523 0 0.3533509462037517 0.1047617729990905 0 0.3914107554151015 0.09134599131653218 0 0.4098477245426514 0.07378689454961446 0 0.4284315989202339 0.05863137714667976 0 0.4668525492439451 0.02196851156224951 0 0.4480127478803628 0.04291429821036039 0 0.3071883371964377 0.1205625376743858 0 0.3729245579637736 0.1079930397932544 0 0.4788888888884407 0 0 0.316989419971821 0.1387378323742147 0 0.3551548351400844 0.1251882976242687 0 0.4149291095989798 0.09936475714925143 0 0.3964254772509267 0.1158107081002692 0 0.4334400653383186 0.08289615664424299 0 0.4522340780300758 0.06660495341394826 0 0.4912962962958274 0.01450852355969636 0 0.4708385766176657 0.04956002347906797 0 0.5037037037032137 0 0 0.297319726619258 0.1431816334696936 0 0.3381281364473843 0.1417027333316622 0 0.3779400200285454 0.1323558881973517 0 0.4916193393547786 0.03491121915192943 0 0.5155147264493944 0.02209116480758801 0 0.3076477269636628 0.1624242386286197 0 0.3256145625129711 0.1581321093557302 0 0.3593233659322229 0.1490653393899266 0 0.4384446285536586 0.1071604122177423 0 0.4199361642825134 0.1236123261958419 0 0.4014488670649475 0.1400839342300094 0 0.4569596620756636 0.09069448160533503 0 0.4754804443950108 0.07422038363777612 0 0.4938730199048005 0.0581428547956639 0 0.528518518517892 0 0 0.2857883835153974 0.164999999538352 0 0.3427596712612405 0.165791343527768 0 0.382932978999989 0.156603801948471 0 0.5105263283628497 0.04530514595357993 0 0.5409271608251781 0.02148954704998107 0 0.5533333333326754 0 0 0.2973950200830063 0.1848972762637482 0 0.3225478579207471 0.1820043989163864 0 0.3642198883290629 0.173633414191809 0 0.4619603416931678 0.1149647770553633 0 0.4434483566177251 0.1314306902588108 0 0.4249419354473413 0.1478986675760378 0 0.406433913964339 0.1643630990332189 0 0.4804826420516641 0.09849633850217543 0 0.4990134146757 0.08202294354339053 0 0.5342389869493429 0.04587637116373335 0 0.5173855691559318 0.06550411984898497 0 0.5657407600236528 0.0203200943508097 0 0.2726587958555121 0.1858956186751646 0 0.3457277194962421 0.190697135196451 0 0.3878720693808646 0.1810194001096686 0 0.5538405116648929 0.0374116160697384 0 0.5781481481473866 0 0 0.2855771411838927 0.2101435945636222 0 0.3090199521256669 0.2016582935559767 0 0.3271293505021492 0.2071132266495216 0 0.3691115430207552 0.1983427621748444 0 0.4669690804670152 0.1392322812528209 0 0.4854920779879626 0.122765886163247 0 0.448451079291724 0.1557030613108026 0 0.4299341026991274 0.1721686521936192 0 0.4114213047943107 0.1886231928901923 0 0.5040115358579571 0.1062970267608967 0 0.5225520835271635 0.0898153757609518 0 0.5411581918168266 0.0731569899800829 0 0.5594640016454442 0.05772361831126684 0 0.5905647037920246 0.02124064458802897 0 0.5760353844308249 0.04099873564183429 0 0.6029629629621371 0 0 0.2580043896129065 0.2057516341137332 0 0.3505024454469452 0.2147945080109271 0 0.3928197339843233 0.2054138279563803 0 0.6147850966795247 0.0207394917559048 0 0.6277777777768812 0 0 0.2660354752083496 0.2294035904898122 0 0.3095105846892885 0.2225772540929119 0 0.3315470401577503 0.2306871043840231 0 0.3741128864144216 0.2225193637513387 0 0.4719761752458378 0.1635070506703933 0 0.4905031301309139 0.1470339805126678 0 0.5090257377270575 0.1305709128955582 0 0.4534471286896889 0.1799734770973241 0 0.4349250294854342 0.196430402345225 0 0.4164118842229841 0.2128829309449493 0 0.5275762672643628 0.1140632179156658 0 0.5461520790886206 0.09748538663253746 0 0.5647167515539725 0.08095681941184017 0 0.5835061993874543 0.06435055757990225 0 0.6036031497470141 0.04490015421878021 0 0.6389935515711938 0.01969725786343581 0 0.241907118200752 0.2244570029288625 0 0.2895171280496962 0.237776273081605 0 0.3555897160792275 0.2391239874341718 0 0.397780528194028 0.2297465081110407 0 0.6254137307624507 0.0371588052115315 0 0.6525925925915987 0 0 0.2477497814038131 0.2484777948331383 0 0.2714181047242128 0.2559296731647976 0 0.3135612023329354 0.2471120632699129 0 0.3371029200933782 0.2555550241059145 0 0.3791268859013064 0.2467270796406775 0 0.4769763191459779 0.187794118611364 0 0.4955154421270967 0.1713139111474323 0 0.5140502559661635 0.1548365952468509 0 0.5325803252316177 0.1383587982966326 0 0.4584475874640624 0.2042510512426852 0 0.4399137625501233 0.2206934587113098 0 0.4213175571010657 0.237392427432306 0 0.5511358421537609 0.1218518071474183 0 0.5697111576517748 0.1052963081152184 0 0.5882762940738013 0.08876926695240489 0 0.6068288941120608 0.07226935938244233 0 0.6262219233571705 0.05670904074539614 0 0.6649854432336192 0.02343654994834422 0 0.6455467477117767 0.04131957653036501 0 0.22445700400432 0.2419071172028733 0 0.2950911061181822 0.2641090809555035 0 0.3605777547330665 0.2633520910735562 0 0.4026083956222111 0.2543695373376331 0 0.6774074074063781 0 0 0.2286900013370919 0.2656901975130597 0 0.2525403453415387 0.2732222059223987 0 0.2764973199697249 0.2805542187655542 0 0.3185984348893173 0.2719676429995195 0 0.342063182728248 0.279783547045302 0 0.3840658430999134 0.2711555390534485 0 0.5005211120907932 0.1956065047283605 0 0.4819830695232344 0.2120751411741752 0 0.5190604087612074 0.1791261434602389 0 0.537599929523483 0.1626421992328058 0 0.5561391558405526 0.1461554053229105 0 0.4634382223477083 0.2285453859970476 0 0.4448804873974853 0.2450512934300566 0 0.4262158747236889 0.2617756206105378 0 0.5747044892585571 0.1296314418938163 0 0.593277218748149 0.1131002279582561 0 0.6118395046641179 0.09658709893633116 0 0.6303914673611982 0.08008502031252557 0 0.6490641336929408 0.06403846605012915 0 0.691186411328102 0.01996498724632402 0 0.667410070040239 0.04874020447399106 0 0.2057516351193665 0.2580043888109407 0 0.3000337548840351 0.288383010769096 0 0.3655091041552007 0.2875162156121827 0 0.4075142723438999 0.2785055672440707 0 0.7022222222212797 0 0 0.6835601627090981 0.03819146930941938 0 0.2088575852771715 0.2817950579402375 0 0.2336318670569428 0.2897585344184831 0 0.2577718962753719 0.2974210870654899 0 0.2814416487476838 0.3044737257683682 0 0.3234471018979397 0.2962310105124547 0 0.3470489792382188 0.3040158051398565 0 0.3889369708215286 0.295102155425485 0 0.5240670025708896 0.2034284760041239 0 0.5055237693597227 0.2199092667798214 0 0.4869799268080236 0.2363772162124963 0 0.5426060692224079 0.186939742013663 0 0.5611553769548023 0.1704500373351951 0 0.5797070956114483 0.1539476626527791 0 0.4684397526265293 0.2528396654522703 0 0.449908763620242 0.2693251419679204 0 0.4312779870997517 0.285912713956552 0 0.5982797686920621 0.1374259440782351 0 0.61685316215776 0.1209017554752988 0 0.6354105645313255 0.1044028453174096 0 0.653979972430027 0.08800438322933586 0 0.672469472363607 0.07158917043242669 0 0.7146296296287241 0.01749517124036163 0 0.7044116995835511 0.04041201738612531 0 0.6906625935783905 0.05618246751530409 0 0.7270370370361676 0 0 0.7518518518510555 0 0 0.7394444444436117 0.02149026001989936 0 0.1858956196144319 0.2726587952151305 0 0.3048127041679842 0.3125861474902573 0 0.3705578259618474 0.3117405798810805 0 0.4126385077882504 0.3024926943503115 0 0.7642592592585037 0.02026348918001098 0 0.7766666666659507 0 0 0.1873547267769993 0.2997702288298769 0 0.2143655087014811 0.3063187914065137 0 0.2392090145395759 0.3140144268447695 0 0.2626455874324279 0.3214602668243733 0 0.2861547377859904 0.3289637576199155 0 0.3282831037804361 0.320500934692416 0 0.3520102570076687 0.3282610642755303 0 0.394080651332255 0.3192343444103095 0 0.5290733926024476 0.2277363574680981 0 0.5476239879106712 0.2112457213506971 0 0.5105240240917285 0.2442165355698687 0 0.4919788374860541 0.2606874598003157 0 0.5661743507078075 0.1947531631545617 0 0.5847289639695197 0.1782507555463701 0 0.6032907465045674 0.1617452811287552 0 0.4734411955162263 0.2771618106630103 0 0.4549050335438354 0.2936317920572637 0 0.436375671209584 0.3100956176552973 0 0.6218646104236433 0.1452246915548477 0 0.6404252634698819 0.1287226467197892 0 0.6589894526036082 0.1122124484045718 0 0.6775417642535717 0.09575913774475453 0 0.6961153987166329 0.07919135904457507 0 0.7323344480306977 0.04475924833636961 0 0.7146736259056637 0.06268348218682314 0 0.7518518518510563 0.03574711576688991 0 0.7890740740734019 0.0214902600199008 0 0.8014814814808531 0 0 0.8511111111106724 0 0 0.875925925925582 0 0 0.864234925262936 0.02239881074473123 0 0.8389068005443951 0.01668091821077354 0 0.826296296295737 0 0 0.8164218827675217 0.02530198897405149 0 0.1650000004140786 0.2857883830097964 0 0.3095158779118201 0.3369644455792935 0 0.3755935416461844 0.3359022887252775 0 0.4177896573070337 0.3266821528570411 0 0.7734607443995032 0.039959841486588 0 0.8883333333330139 0.01608823996309471 0 0.8410148017596475 0.03957286496020976 0 0.9007407407404482 0 0 0.9255555555553578 0 0 0.9132565455101189 0.0221396046113784 0 0.1624140856898295 0.3096297665071095 0 0.1968718679678434 0.3222749352005131 0 0.2202679905903537 0.3302995652052025 0 0.2438297294324619 0.338240930807274 0 0.2674664978134838 0.345647672840423 0 0.2908134622526127 0.3534667924596016 0 0.3333240663104564 0.3447242420918695 0 0.3570454161774325 0.3524713822106874 0 0.3991633361203042 0.343538619168294 0 0.5526311324398021 0.2355617326658616 0 0.5340758390222057 0.252049776491689 0 0.5711905053629152 0.2190648905508976 0 0.515522275977881 0.2685402160668147 0 0.4969744511151041 0.2849983315997202 0 0.589750323911194 0.2025639229100756 0 0.6083121105811378 0.1860582823807501 0 0.6268752328959983 0.169553054471469 0 0.4784002353656192 0.3015672815762395 0 0.4598747471597245 0.3179686431459853 0 0.4413689760614288 0.3343696468387066 0 0.6454378078729972 0.1530495528787476 0 0.6640004471696335 0.1365447067959722 0 0.6825656536645762 0.1200343787773243 0 0.7011306357429794 0.1035230865802935 0 0.7196929184340475 0.08701246763238235 0 0.7381502718698443 0.07051363686482595 0 0.7570779941622764 0.05547599946377331 0 0.7978753307413605 0.04457410093641026 0 0.8895138849828448 0.03586285761335464 0 0.8661342330349007 0.0465512781477089 0 0.9371185286786125 0.01643406614311053 0 0.950370370370224 0 0 0.9751851851851336 0 0 0.9604164173529302 0.02261974492386779 0 0.1431816342877394 0.2973197262253079 0 0.1784327828897505 0.3207063683733316 0 0.3145508252903744 0.361220303478173 0 0.3805495922406977 0.3602796834535357 0 0.4227922470941286 0.3510075419151114 0 0.7806259563104214 0.06220808355254275 0 0.8216000083277615 0.05276026237308903 0 0.8462536963992724 0.0620193573193563 0 0.935993754604431 0.03741098118030646 0 0.9818661039166057 0.01818407024132333 0 1 0 0 0.1410187125783315 0.3219593476917742 0 0.1596306368966954 0.3330196511129248 0 0.178959913450931 0.3393369983281462 0 0.2018359521341633 0.3465257614711665 0 0.2252646310084213 0.3544542196516381 0 0.2487551675487775 0.3622349892112589 0 0.272279588662502 0.369929030259873 0 0.2957816799690199 0.377708647561572 0 0.3383752937541185 0.3689584763094209 0 0.3618192501938983 0.3767697661262163 0 0.4041162520852193 0.3679293325438314 0 0.5761995634131735 0.2433877884755007 0 0.5576370559023731 0.2598862606506355 0 0.5390737389911614 0.2763877423346089 0 0.5947611299773874 0.2268873939250825 0 0.5205067651610331 0.2929014506046859 0 0.5019280852997953 0.3094479827899598 0 0.6133212509537825 0.2103859093990888 0 0.6318847795260223 0.1938836883507083 0 0.6504500346294679 0.1773794881146775 0 0.4832614789736361 0.3262548350041869 0 0.4646571233915241 0.3429106457977369 0 0.4461248050584989 0.3593817130233749 0 0.6690153472674223 0.1608740104460699 0 0.6875786117838114 0.1443679846993359 0 0.7061454570424637 0.1278583620524827 0 0.7247112723663174 0.11134611739911 0 0.7432774208189061 0.09483335653366799 0 0.7618452238674751 0.0783172670359394 0 0.8040671634502812 0.06960899402962981 0 0.8932358480385251 0.06255374085947414 0 0.9136335572235775 0.05004009695940603 0 0.8704897227459739 0.07136754625234717 0 0.9795377420586799 0.03825381024092724 0 1 0.02499999999995287 0 0.1205625383695983 0.3071883369235869 0 0.3194844102349649 0.3854794295319147 0 0.385442677220333 0.3845463616812941 0 0.4276267785630697 0.3757597408431024 0 0.7854337321723612 0.08613779333238081 0 0.8277957825782165 0.07726048065504425 0 0.8514827428287817 0.08509226346071952 0 0.9352152905893345 0.06248766295456605 0 0.957567131541738 0.04977783338120937 0 0.1153279426828525 0.336012413988859 0 0.1391935554434067 0.3467590619949619 0 0.1604506364155789 0.3557439817754399 0 0.1833470876569236 0.3629246773030032 0 0.2068093876131531 0.3707497792482791 0 0.23029519428879 0.3785361892531146 0 0.2537851983676759 0.3863481420036806 0 0.2772824732849912 0.394159541562299 0 0.300807931511865 0.4019637278999418 0 0.3428812062822164 0.3932915994965436 0 0.3666213154885916 0.4010710936058159 0 0.4090402226555248 0.3923546989329605 0 0.5997742890855455 0.2512140630295613 0 0.5812074644438787 0.2677190747529451 0 0.5626399474279102 0.2842284720898995 0 0.5440677086981822 0.3007476626081341 0 0.6183333872847133 0.2347106244003826 0 0.5254613583802259 0.317339572168488 0 0.5068553731736789 0.3339334709279783 0 0.636895913886359 0.2182115885330546 0 0.6554636701263493 0.2017129918884271 0 0.6740317110256113 0.1852061092194791 0 0.4882093364445975 0.3506780717540457 0 0.469609825833974 0.3672229639900663 0 0.4510822947229439 0.3836823812930407 0 0.6925890704452877 0.1686884078633445 0 0.7111567354111019 0.1521905368282127 0 0.729719931231585 0.1356678617566468 0 0.7482970399607967 0.1191718262514591 0 0.7668658715475087 0.1026549753048071 0 0.8090892638827476 0.09388108384668306 0 0.913144803251791 0.07932733074366774 0 0.8917698944093132 0.08219160458757216 0 0.8748190929372101 0.09375067264496985 0 0.9784800336079593 0.06272122387550884 0 1 0.04999999999989965 0 0.09726920781918051 0.3153390258281221 0 0.3243459006613066 0.4097649764401416 0 0.3902779269933121 0.4088644186376985 0 0.4325735458286236 0.4001780082744086 0 0.7904610277625698 0.1104393685277462 0 0.8328141761228973 0.1015850698028329 0 0.8565482073811164 0.1092957859343451 0 0.9383777816389591 0.08867376418390693 0 0.9571684556330188 0.0743942333130789 0 0.0908820227038411 0.3391763252588054 0 0.1192670609572117 0.3629810116835155 0 0.141484165168862 0.3716276840463262 0 0.1648510897141037 0.3793361378455522 0 0.1883185800095777 0.3871526458207753 0 0.2117905148634212 0.394966152519339 0 0.2352688712691891 0.4027926232200001 0 0.2587777669153802 0.4106073483746669 0 0.2822935346856642 0.4184193635240298 0 0.3058225000716859 0.4262264574571056 0 0.3478770096022575 0.4175707853482769 0 0.3715046898472574 0.4253680048038152 0 0.4139424361930027 0.4166701156320396 0 0.6047859649576532 0.2755467427788354 0 0.6233507879895808 0.2590395124505624 0 0.5862139185890767 0.292054324791441 0 0.567643268683414 0.3085572488410246 0 0.5490374285679154 0.3251508317255638 0 0.6419109692513969 0.2425358611010147 0 0.5303493505868031 0.3419302267732081 0 0.5117620136695128 0.3584792365212613 0 0.6604731690572219 0.2260511388694739 0 0.6790428907185287 0.2095389724661914 0 0.6976183741856941 0.1929953453139312 0 0.4931648628487288 0.3749983121768699 0 0.4745994341886961 0.3914140839202028 0 0.4560848446483141 0.4079188649836823 0 0.7161489248686774 0.1764744061788924 0 0.7347385472628793 0.1599630373107981 0 0.7533154524979635 0.1434816431502765 0 0.7718882531467617 0.1269980628228628 0 0.8141139211321768 0.1181781283419987 0 0.8987758629632715 0.1005957105551913 0 0.8801553088625974 0.117097954368688 0 0.920994590809072 0.1066346801336122 0 0.9789285260356273 0.08687397750644051 0 1 0.07499999999985282 0 0.07343190839507768 0.321726210976751 0 0.09856833527558084 0.3581691150677636 0 0.329348929467324 0.4340366488424355 0 0.3951162205551634 0.4331762371702663 0 0.4375585056697874 0.4244992664884041 0 0.7955185746908847 0.1347458817535492 0 0.8378519743358006 0.1259022094951245 0 0.8615497790705159 0.1336715981771326 0 0.9598465399105121 0.09913205665393421 0 0.9446335831732777 0.1147517096691806 0 0.06406863068888002 0.3456731966763421 0 0.0790726933584589 0.3639882737073946 0 0.1240002052495442 0.3876435943803863 0 0.0982758092096533 0.3817528354042412 0 0.146507645473521 0.3957468924386381 0 0.169819616045836 0.4035689498087319 0 0.1932908737484338 0.4113975068222208 0 0.2167699420100017 0.4192362505321509 0 0.2402614232974457 0.4270593853240712 0 0.2637713864643558 0.4348761564099787 0 0.2872935207330393 0.4426901059067519 0 0.3108188327590737 0.4505049042838594 0 0.3528767787269951 0.4418491570785931 0 0.3764638734203427 0.449665157959188 0 0.4189120243359719 0.4409778255552058 0 0.6097944638527725 0.2998879753456527 0 0.628370821011916 0.2833749233078766 0 0.6469410392275915 0.2668655428964726 0 0.591219313093129 0.3163907928819155 0 0.5726470790682173 0.3328872786529942 0 0.5540566647229483 0.3494367958719987 0 0.6655052316144523 0.2503665675585153 0 0.5352948954089146 0.36635332588274 0 0.516737680312525 0.3827687495734698 0 0.6840689761179155 0.233867206957901 0 0.702667024183766 0.2173179655306673 0 0.7212838763670747 0.2007374452006669 0 0.4982327290317946 0.3991602769419902 0 0.4797062171258888 0.4155664865267416 0 0.4611160500209806 0.4321986011143346 0 0.7398222890460222 0.1842414539724053 0 0.7583865402886641 0.1677446126051957 0 0.7769498695938802 0.1512840584184919 0 0.8192927899910123 0.1424184707919865 0 0.903606013336135 0.1245981076152737 0 0.8851075257055716 0.1411197837412661 0 0.9274295004909987 0.1318614580344534 0 1 0.09999999999981467 0 0.9797511356289614 0.1118027676995142 0 0.04918394795157357 0.3263141726371947 0 0.3343560053762801 0.4583184011639614 0 0.4003538050365805 0.4574620361275121 0 0.4425182873018102 0.4487745096171368 0 0.8006422164690581 0.1590173929780209 0 0.8429364223141067 0.1502239181582554 0 0.866500882310541 0.157983455440999 0 0.9629779202881751 0.1232702243959762 0 0.9515738227516191 0.1392571593621231 0 0.03839907693726518 0.351936187631331 0 0.05469448199863473 0.3699390237956708 0 0.07073102724879157 0.3883578467501009 0 0.1276699542868539 0.4122573012806752 0 0.1097924908798322 0.4031345907384097 0 0.1512208423759261 0.4200476872701573 0 0.1747435115760374 0.4278555505413203 0 0.1982393390795901 0.435685440453167 0 0.221739147960874 0.4435104480863048 0 0.2452442282124253 0.4513348375264268 0 0.2687607906830984 0.4591544995014732 0 0.2922847931602404 0.4669750747755249 0 0.3158169243074882 0.4747928331116292 0 0.3579873038273714 0.4661206811986364 0 0.3816433454252693 0.4739326556440995 0 0.4239774044135646 0.465275889968002 0 0.6333814948899742 0.3077263502701703 0 0.6148020521007626 0.3242311698600224 0 0.6519660865974358 0.2912095449212653 0 0.6705426410688288 0.2746975446842513 0 0.5962217832093133 0.3407264756884943 0 0.5776475433039879 0.3572262171495246 0 0.5589750485558675 0.3738757606252139 0 0.6891172266578215 0.2581917026817414 0 0.5403753418020059 0.3904664586643635 0 0.5218346211614495 0.4069887956573577 0 0.7076958581340058 0.2416600577187316 0 0.7262921695793786 0.2251087655265817 0 0.7449173306921848 0.2085503048466248 0 0.5033535585534797 0.4232252337972989 0 0.4847443318701203 0.439799534592894 0 0.4661319647283493 0.4564509160121381 0 0.7635117250657314 0.1920179553020634 0 0.7820435006125145 0.1755477531849621 0 0.8243122323384033 0.1667927203023511 0 0.9090868195129675 0.148223415014632 0 0.8903434502373557 0.1652217953182105 0 0.9327932446176901 0.1559121501855273 0 1 0.1249999999997738 0 0.9760818880138178 0.1395466186140394 0 0.0246609309410076 0.3290772530654814 0 0.08981445595792484 0.4050596014309591 0 0.3393996715587021 0.4825993537465607 0 0.4053241753922234 0.4817553074065661 0 0.4475437313226527 0.473014887360181 0 0.8057363315876531 0.1833154734167846 0 0.8479000304776806 0.1745446567126481 0 0.8716579911047823 0.1819588569840351 0 0.9579564497087876 0.1641613808417229 0 0.01840467357416554 0.3477661511690116 0 0.0368681824275823 0.3760889201784264 0 0.04723601827855266 0.3933675051415201 0 0.06209613988623114 0.4130185081326868 0 0.1069688165291733 0.4257523976790194 0 0.1326480233007362 0.4365162404567949 0 0.156175300575115 0.4443231987278488 0 0.1796955550125701 0.4521392662176059 0 0.2031970041696235 0.4599736205193997 0 0.2267153892320009 0.4677998681105761 0 0.2502348127180882 0.4756195118726351 0 0.2737485883460608 0.4834419806455224 0 0.2972750455414594 0.4912678239594332 0 0.3208161074897887 0.4990900286640176 0 0.3630593261672364 0.4903921712098093 0 0.3866957976961297 0.4982304333671038 0 0.4289836983067584 0.4895778093888185 0 0.6569786557194911 0.3155651813803206 0 0.6383934661402707 0.3320771095746967 0 0.6198079475337974 0.3485814293166021 0 0.6755659962197759 0.2990428360271801 0 0.6941509010468223 0.2825255395105168 0 0.6012184369631388 0.3650753336362814 0 0.5826322925652181 0.3815804581769059 0 0.5639972723186633 0.3981409760705126 0 0.7127425477604943 0.2659897671929058 0 0.5454125330546156 0.4146711441768869 0 0.5269096882632823 0.4310912219344191 0 0.7313275680845164 0.2494496660638966 0 0.7499215086720742 0.2329133610630104 0 0.7685248661662825 0.2163839893744327 0 0.5083523634421144 0.4475555895671607 0 0.48974657928413 0.4641349946529017 0 0.4711228085704017 0.4807829687353807 0 0.7871315193001452 0.1998557308804348 0 0.8293279175988092 0.1911193659878628 0 0.9141003436236392 0.1726171638622248 0 0.8956071391666339 0.1894280968661062 0 0.9373017375337755 0.1804484831962166 0 1 0.1499999999997036 0 0 0.33 0 0.01961697483078856 0.3676233253709071 0 0.08324458500125047 0.4253954162437077 0 0.3444411951983682 0.5068898863163388 0 0.4104188363894256 0.5060849854145028 0 0.4525718370532545 0.4973376279754878 0 0.8106852661622574 0.2076180155142064 0 0.8531448667322521 0.1985881930665873 0 0.8769720503581013 0.2060642525660208 0 0.9816340229511493 0.1630391404180838 0 0.9551537078556818 0.1895113718309231 0 0 0.3548148148148881 0 0.02366547199876628 0.3934299386512741 0 0.03946641553820806 0.4109628226661957 0 0.06675850705545067 0.4380193197495474 0 0.1141103619768384 0.4529622438142493 0 0.1376267912104174 0.4607838857856335 0 0.09058500557747234 0.4451272542263262 0 0.1611370083275241 0.4686082794343558 0 0.1846466193002904 0.4764411947884737 0 0.2081773995062988 0.4842694373648354 0 0.2317070107661483 0.4920885720199666 0 0.2552289802128822 0.4999054358205581 0 0.2787225652067487 0.507739086506318 0 0.3022669212154292 0.5155702459598286 0 0.3258172564422751 0.5233957055230349 0 0.3680169047173962 0.5146907255217028 0 0.3917121980852275 0.5225267550059425 0 0.4339897431838469 0.513890252819179 0 0.6805811231964261 0.32340166587542 0 0.6619913436712916 0.3399256815421926 0 0.6434016558123773 0.3564408489542836 0 0.6248102909769229 0.3729376381858339 0 0.6991700225969415 0.3068785490846949 0 0.7177123314800804 0.2903018714600639 0 0.6062216744079317 0.3894094465814316 0 0.5876385711105234 0.4059107198553349 0 0.5690824653555113 0.4223944508551398 0 0.7362982463825978 0.2737655536649066 0 0.5504887005961514 0.4389135520265802 0 0.5319267152922534 0.4553926915181561 0 0.7548873050131768 0.2572281183219418 0 0.7735171981369354 0.2407324007857291 0 0.7920911522194383 0.2241662235230579 0 0.5133631185334727 0.4719266182625534 0 0.4947531339376178 0.4885624100378834 0 0.4761447617730177 0.50516510979209 0 0.8342860278121946 0.2151238423619227 0 0.9196171270837242 0.1968635406397503 0 0.9010085212086844 0.2135372750333493 0 0.9771947152846163 0.1875659834721558 0 0.9430558036989721 0.2047400567236996 0 1 0.1749999999996307 0 0 0.3796296296297976 0 0.04348039372306706 0.4299211580966209 0 0.3494130825254077 0.5312041428433014 0 0.4153873491178693 0.5303538448525936 0 0.4575577331997529 0.5217185536852725 0 0.8158282555344891 0.2316416965434485 0 0.8582276804855523 0.2226309149195793 0 0.8821861034507039 0.230242178526468 0 0.9616395598737416 0.20455621946396 0 0 0.4044444444446639 0 0.02148279520369024 0.4191625659714191 0 0.04809908011042541 0.4537166734689868 0 0.07205009078900823 0.461579545239191 0 0.1190910212784755 0.4772386238602664 0 0.09557109104249639 0.4694116330158209 0 0.1425897024413112 0.485051627375087 0 0.1661071006513714 0.492892308696283 0 0.1896127201496366 0.5007376405041146 0 0.2131762606468171 0.5085653678754557 0 0.236709891733869 0.516390291775255 0 0.2602209172974992 0.5242170463461419 0 0.283723891435523 0.5320481884892264 0 0.3072612340071453 0.5398819798871085 0 0.3308254908866375 0.5476932662161684 0 0.3730763178943322 0.538996721961866 0 0.3968058176106002 0.546835784388528 0 0.4389884445912844 0.5382210931038973 0 0.6855989708005521 0.347764203153933 0 0.7041376353251456 0.3311200307109858 0 0.6670053716359622 0.3642913702073436 0 0.6484130946674908 0.3808048244579846 0 0.6298304974460733 0.3972719722516866 0 0.7227331355390032 0.3144652778377005 0 0.7412026679735653 0.2978760864104022 0 0.6112513721788508 0.4137237458300841 0 0.592667772667439 0.4302332368044096 0 0.5740812582573308 0.4467332424883904 0 0.759942064410709 0.2813080440587959 0 0.5555039812914796 0.4632332270088725 0 0.5369286078397852 0.4797788314417522 0 0.7785534859770593 0.2647888799409276 0 0.797322496562004 0.2482483868163189 0 0.5183972702741497 0.496325454487629 0 0.4997281145066586 0.5130061449320679 0 0.4811285206919571 0.5295526495991241 0 0.8396991390470105 0.23915412967954 0 0.9256495817562214 0.2210819367510612 0 0.9057840375161944 0.2379309600792439 0 1 0.1999999999995579 0 0.9544360273899093 0.2278712338834097 0 0.9783575451395288 0.2130924514096117 0 0.02241547775361405 0.4457255982648826 0 0.3544929234157252 0.5555076971490536 0 0.420401405655734 0.554701299209581 0 0.4625401922116554 0.5460452665908497 0 0.8210769406332866 0.255770504654629 0 0.8634759150475422 0.2466816630039632 0 0.8871509135317562 0.2545207366891967 0 0 0.4292592592595735 0 0.05350969879468399 0.4780341553108907 0 0.03117837424801704 0.4716251531571973 0 0.07702974174530888 0.4858647390415279 0 0.1240227372404373 0.5015112577278066 0 0.1005436545860326 0.4936852161913819 0 0.1475181496827587 0.5093706765473316 0 0.1710529167628759 0.5171977391986127 0 0.1946011430714606 0.525046639001413 0 0.2181720997698946 0.5328778225435995 0 0.2417196191953195 0.5407058452307174 0 0.2652253062202882 0.5485386961200407 0 0.2887302582461857 0.5563581777308553 0 0.3122950084835824 0.5641693757672958 0 0.3359367884996381 0.5720143961982156 0 0.3782091694143944 0.5633695962481244 0 0.4018429288953189 0.5712148344703981 0 0.4439357847821788 0.5625426428886247 0 0.690618385826852 0.3721310410513988 0 0.7092175522740416 0.3554253806231332 0 0.7279031377864202 0.3386443704541965 0 0.6720173024296745 0.3886630024976299 0 0.6534254411829561 0.4051717093636942 0 0.6348302935024946 0.4216857305330098 0 0.7466133189901567 0.3218564495334593 0 0.765145382130562 0.3054926412598749 0 0.6162311162040709 0.438225858500162 0 0.5976325096608426 0.4547706042203195 0 0.5790482843371216 0.471275463973257 0 0.78372445334852 0.2889181845301052 0 0.5604622938184521 0.4878018264892038 0 0.541907794285134 0.504318959948526 0 0.8024101399449531 0.2723043579662009 0 0.5233209919065851 0.5208363392619575 0 0.5047068872232431 0.5373916561815187 0 0.4861079137346033 0.5538983097053295 0 0.8449183787024126 0.2633511564286316 0 0.9305265643014905 0.2455559707625413 0 0.9108327183427698 0.2623644192024103 0 1 0.224999999999485 0 0.9783493649054522 0.2374999999994485 0 0 0.454074074074455 0 0.01265633469797602 0.4664814814819019 0 0.3595795821704133 0.5798548466969164 0 0.4253508506926837 0.5789975465989979 0 0.4674844071790886 0.5704109193665747 0 0.8262832340088506 0.2799233004936346 0 0.8685200952689911 0.2711060889572628 0 0.954878904464971 0.2534816535021241 0 0.8921968589228046 0.2789495630451255 0 0.0594065613627475 0.5023671740394664 0 0.03681559108962285 0.4956722502853239 0 0.01627669664467032 0.4890828888974428 0 0.08194846435399185 0.5101678537652242 0 0.1054241643666082 0.5180187449207544 0 0.1288898268141743 0.5258796468518273 0 0.1524466141863824 0.5336914794343737 0 0.1759963665787632 0.5415429588093155 0 0.1996074171702327 0.5493610244371214 0 0.2231688021141407 0.5571983709670784 0 0.2467236727160513 0.5650313624364798 0 0.2702334784311506 0.5728715564868236 0 0.2938006997319548 0.5806870290777006 0 0.3173889939954087 0.5885064514685286 0 0.3410387320460618 0.5963547398913315 0 0.3832441340939856 0.5877013273515739 0 0.4067757641642384 0.595518065254654 0 0.4488272797836301 0.5869353325432844 0 0.6956300929661641 0.3964988570600397 0 0.7142761198742451 0.3798430592683468 0 0.733066240988437 0.3627830839267371 0 0.7516509436017379 0.3462160000931636 0 0.6770307788698662 0.4130332375277856 0 0.6584306801821374 0.429571488914069 0 0.639828197140267 0.4460998818076379 0 0.7703381682778933 0.3296454947967 0 0.7889589940639473 0.3130702053432369 0 0.6212322891162607 0.4626312871049095 0 0.602639943395888 0.4791617802848994 0 0.5840459106701786 0.4956840124977444 0 0.8076018241491716 0.2964304573393658 0 0.5654621349794287 0.5122088740850828 0 0.5468868887241904 0.5287164340017172 0 0.5282937438246087 0.5452320360795568 0 0.5096868087796789 0.5617501686361694 0 0.4910714853220879 0.5782565423657824 0 0.8498886459295709 0.2876983069602642 0 0.9345194777485991 0.2702151213417461 0 0.9158814000780666 0.2867976679274566 0 1 0.2499999999994121 0 0.9782803882529871 0.2631802189185795 0 0 0.4788888888893493 0 0.3646638306366188 0.6042123497539433 0 0.4302775659102084 0.6034021462547108 0 0.4724237872403761 0.5947874221055778 0 0.8312622700746785 0.30427320549251 0 0.8735634203386861 0.2955345608695979 0 0.9574466490171454 0.2775247331808742 0 0.8972434240563516 0.3033806937563711 0 0.06389556877225333 0.5265231357510568 0 0.04099107311904938 0.5200679840750897 0 0.0190502886292451 0.5128136781082064 0 0 0.5037037037042373 0 0.08679963481994654 0.5345199903933056 0 0.110340668385067 0.5423485045949812 0 0.1338657588989269 0.5502014820286014 0 0.1574265495312374 0.5580284091486784 0 0.1810083957513302 0.5658598353624222 0 0.2045895348301391 0.573693244280312 0 0.2281698323036109 0.5815232064281389 0 0.2517259396390925 0.5893631815382987 0 0.2752900119035217 0.5971918917205852 0 0.2988664473318794 0.6050247212921157 0 0.3225153188647178 0.6128792472419983 0 0.346087438344956 0.6207179956631808 0 0.3882365916310755 0.6120345960092011 0 0.4117502981503186 0.6198924221768081 0 0.4538012514709782 0.6113214063583159 0 0.7006184103527595 0.4208433247414493 0 0.7192898293899483 0.4042101690385272 0 0.7380781092423282 0.3872693207882335 0 0.756782725504198 0.3705049409137441 0 0.7753908214372119 0.3539800961765073 0 0.6820245809121561 0.4373891721689543 0 0.6634334018090879 0.4539337087516126 0 0.6448215061414201 0.4704483112863773 0 0.7940120218039454 0.3374112321240085 0 0.8126381387144195 0.3208394021630566 0 0.6262304832485388 0.4869828650288552 0 0.6076522706792746 0.503527806132116 0 0.5890436962870513 0.5200305511581854 0 0.5704677989547996 0.5365706217217467 0 0.5518830807274954 0.5530827664410282 0 0.5332905129777327 0.5695984544352163 0 0.5146503095957985 0.5861240130496133 0 0.4960211723091589 0.6026480998374006 0 0.8549311942495411 0.3121155451040616 0 0.9387444297120943 0.2939171881517417 0 0.920931516695279 0.3112313990808915 0 1 0.2749999999993392 0 0.9790846051735232 0.2878207790717968 0 0.3696849538685768 0.6285601831739576 0 0.435232132165836 0.6278117203973526 0 0.4774116478877088 0.619170185856651 0 0.8363009966088302 0.3286893589891072 0 0.8786061207988342 0.3199621939968615 0 0.9603158273593373 0.3018016466823144 0 0.9022882485031691 0.3278131821066076 0 0.06822075955823491 0.5510095643476172 0 0.04511196868381368 0.5448387735916178 0 0.02166646017661383 0.5381928926748674 0 0 0.5285185185191252 0 0.09175879248643939 0.5588491222944362 0 0.1153057155716078 0.5666842044756281 0 0.1388603362264167 0.5745163882254714 0 0.1624346389646312 0.5823511690607924 0 0.1860165166400862 0.5901890665581355 0 0.2095923717648717 0.5980173841843811 0 0.2331702494407522 0.605858952295967 0 0.256750370710937 0.613699935189394 0 0.2803348035260436 0.6215434435860034 0 0.3039252896708921 0.6293865285206608 0 0.3275156694648217 0.6372292771399769 0 0.3511056181234446 0.6450723876236384 0 0.3933174989802973 0.6363930910178786 0 0.416765728270366 0.644270801224227 0 0.4588056491022949 0.6356933648336646 0 0.7056733573641646 0.44505582983184 0 0.7243645772440819 0.4284263093068877 0 0.7430783298766991 0.411666347073474 0 0.761790395240725 0.394998660072213 0 0.7804169156839806 0.37840782738368 0 0.7990430589076037 0.3618273053632355 0 0.687051301618494 0.4616359429351972 0 0.6684696306067571 0.4781649983992496 0 0.6498659372721041 0.4946973936934139 0 0.8176721370312985 0.3452562734455698 0 0.6312426367938165 0.5112531780854381 0 0.6126008152888998 0.5277728876676777 0 0.5940610821959522 0.5443210060637034 0 0.5754645160841024 0.560889434780584 0 0.5568874390333315 0.5774474966715086 0 0.5382789556046588 0.5939695578431663 0 0.5196513875430735 0.610495446087958 0 0.5010273338374925 0.6270200750039683 0 0.8599718367689305 0.3365398539376921 0 0.9433299950925365 0.3183333261875484 0 0.9259045111512834 0.335584568548027 0 1 0.2999999999992664 0 0.9793053585062567 0.3125293719473917 0 0.3747346193364651 0.6529071752675326 0 0.4402085177590328 0.6522064627881019 0 0.4824219054696667 0.6435476141322658 0 0.8413379607019837 0.3531183416933104 0 0.8836498532996081 0.3443905237040605 0 0.9631816573173332 0.3244480856044329 0 0.9072424377726559 0.3521364418539099 0 0.07332786377828848 0.5752983796537241 0 0.04965995951471774 0.567480242832343 0 0.0249834466136083 0.5651528626093364 0 0 0.5533333333340349 0 0.09674629113333985 0.5831635492489901 0 0.1202995322314759 0.5910010870880075 0 0.1438619260270901 0.5988369531349076 0 0.1674341096116265 0.60667636193514 0 0.1910142718493342 0.6145146190024782 0 0.2145897866820808 0.6223551487168084 0 0.2381669067264795 0.6301995848411021 0 0.2617472225305263 0.6380451383868861 0 0.2853302738534718 0.6458941109732877 0 0.3089227236655345 0.653742750957645 0 0.3325253064840016 0.6615852543130244 0 0.3561435024972865 0.6694202961884091 0 0.3983658381531882 0.66073590919907 0 0.4217755321705908 0.6686470060548894 0 0.4638097301798896 0.6600735695466979 0 0.7108010400063446 0.4693270578475873 0 0.7294117247240506 0.4527426002303832 0 0.7481158117568694 0.4360395849256525 0 0.766816542352655 0.4194143902773143 0 0.7854405115607854 0.4028493619330692 0 0.8040719568823037 0.3862715395702241 0 0.8227040856730496 0.369696059772778 0 0.6921935356161347 0.4858525897164934 0 0.6735805317196341 0.5024224975442961 0 0.6549639428832413 0.5189835335225863 0 0.6363420309394155 0.5355144200056596 0 0.6177833071746502 0.5519918237477426 0 0.5991257405618409 0.5686369536155571 0 0.5804981324914821 0.5852355905919382 0 0.5618973407954218 0.6018174714202145 0 0.5432757029603912 0.6183425451920801 0 0.5246548509509411 0.6348683856015194 0 0.5060449438615435 0.651399990000793 0 0.8650133327288214 0.3609698315237279 0 0.9531236649677879 0.3442266817912836 0 0.9305828502323457 0.3600532203643892 0 1 0.3249999999991935 0 0.9783493649054522 0.337499999999157 0 0.3797615314556299 0.6772665981490398 0 0.4452184102284131 0.676582708033471 0 0.4874325970471131 0.6679314364763977 0 0.8463760247410617 0.3775511812289831 0 0.8886951414929454 0.3688217870948846 0 0.9118292369950951 0.3759890111440765 0 0.07818058966719027 0.5996435249157955 0 0.05540079030980872 0.5916442742831634 0 0.03838623718898841 0.5824496453057707 0 0 0.5781481481489228 0 0.1017345219090115 0.6074844702252005 0 0.1252947759976517 0.6153252171622717 0 0.1488627021432321 0.6231658900264534 0 0.1724352512524938 0.6310073339478939 0 0.1960101373004101 0.6388506250090222 0 0.2195821933944969 0.6466922125729971 0 0.2431523941232186 0.6545439789138249 0 0.2667318254315694 0.6624017651405385 0 0.2903236403605666 0.6702533133055605 0 0.3139230764078482 0.678105302628867 0 0.3375365177192305 0.6859505507139364 0 0.3611532981919824 0.6937965450147709 0 0.4033793584280094 0.6851146518424077 0 0.4267869831139907 0.6930374461193747 0 0.4688143396576477 0.6844621815144964 0 0.7345649575848197 0.4770313415892311 0 0.7159113631304042 0.4936440427823794 0 0.7532121197396529 0.4603950180364969 0 0.7718438659668441 0.4438247237915236 0 0.7904723633719652 0.4272681592662371 0 0.8091054078411366 0.4107042650678926 0 0.827739458268675 0.3941301941491444 0 0.6973216157707715 0.5101406465108458 0 0.6786861027901734 0.5267336425537019 0 0.6600664177843052 0.5432800692530084 0 0.6414579396281882 0.5598002138991411 0 0.6228064378481597 0.5763694828691406 0 0.604140967576699 0.5930143836402343 0 0.5855204742135041 0.6096386096011654 0 0.5669079556584624 0.6261935447424414 0 0.5483026600023247 0.642721271150267 0 0.5296780944562514 0.6592536045050564 0 0.5110614215785023 0.6757887281097951 0 0.8700545744599018 0.3854010696095286 0 0.9759124781737945 0.360856907644136 0 0.9521705116159291 0.3714799610271255 0 0.9326759828065196 0.3807850395286783 0 1 0.3499999999991206 0 0.02075322665498634 0.5921571194528482 0 0.3847730366458322 0.7016477224027957 0 0.4502085299801141 0.7009834057249427 0 0.4924417505775523 0.6923227999562013 0 0.8514155483601388 0.4019802006026212 0 0.8937386311899412 0.393253745964711 0 0.9205253414277578 0.4004712168232333 0 0.08316705355004717 0.623964923039969 0 0.06038843474089779 0.6159643402682691 0 0.03988365789851508 0.6055145682335541 0 0 0.6029629629638107 0 0.1067245716698605 0.6318118969259948 0 0.1302861626406518 0.6396565226927227 0 0.1538560798783825 0.6475000906546176 0 0.177429803313966 0.6553446647663955 0 0.2010041757305205 0.663188532484287 0 0.2245677744624026 0.6710469287795713 0 0.2481291040693195 0.6789077388401683 0 0.2717083176523139 0.686766310423504 0 0.2953166513230287 0.6946232392850149 0 0.3189273278311548 0.7024714852203654 0 0.3425418151169876 0.710321757154695 0 0.3661632670696052 0.7181777851752489 0 0.4083741369504623 0.7095025923552655 0 0.431792832847068 0.7174315091860419 0 0.4738192410578559 0.7088551908740551 0 0.7582329148794615 0.4848457527928729 0 0.7395977487247378 0.5014290582719352 0 0.7209687843961012 0.5179901733861971 0 0.7768680722122886 0.4682572252873384 0 0.7955036770030258 0.4516974437779702 0 0.8141385724700803 0.4351276641694067 0 0.8327767604527332 0.4185595385116759 0 0.7023420748730158 0.5345451230923752 0 0.6837181060577385 0.5510980167532773 0 0.6650954260860554 0.5676496129576578 0 0.6464756228838012 0.5841892860205143 0 0.6278437904717107 0.6007553090477934 0 0.609196881877285 0.6173828206069083 0 0.5905361402522431 0.6340417618833771 0 0.5719244862549815 0.6505749868762685 0 0.5533107356452442 0.667109201283317 0 0.5346929400415402 0.6836440951755386 0 0.516072680020112 0.7001824456824616 0 0.87509801406924 0.4098353720027987 0 1 0.3749999999990478 0 0.9753264527031407 0.3858473132848911 0 0.9482719737614708 0.3959317882845669 0 0.02043278371159229 0.6169019114365835 0 0.3897881576540717 0.726033836684578 0 0.4552264080966278 0.7253703513636245 0 0.4974493922164514 0.7167186024500983 0 0.8564543810865806 0.4264138926801548 0 0.8985890910720431 0.4179891175995043 0 0.9374829460293036 0.4154585788044615 0 0.08798693052857361 0.6482029125836933 0 0.06472843152490766 0.6404172100294032 0 0.04194071194350339 0.6296198354088209 0 0 0.6277777777786986 0 0.1117082054575221 0.6561448476330706 0 0.135277269657037 0.6639911897003148 0 0.1588494412395862 0.6718370785008786 0 0.1824246205872022 0.6796871404430678 0 0.2059893219874037 0.6875358339623556 0 0.2295494574694565 0.695413275903795 0 0.2531118814613222 0.703283799211555 0 0.2767075885434211 0.71114249448416 0 0.3003184907848835 0.7189921806593647 0 0.3239217094384719 0.7268428569863401 0 0.3475443955216395 0.7347018222577463 0 0.3711721311472348 0.7425684700838106 0 0.4133750153884546 0.7338794850891992 0 0.4367859235527586 0.7418157744638462 0 0.4788276550908764 0.733252090167551 0 0.7632519454924658 0.509290897812643 0 0.7818916095477958 0.4927127363170701 0 0.7446199854045628 0.5258478994415462 0 0.7259893538767104 0.542400212867584 0 0.8005288092243439 0.4761416799589275 0 0.8191703787726332 0.4595652101943882 0 0.8378125250940235 0.4429933581209849 0 0.7073634266680984 0.5589540464797527 0 0.6887315236904954 0.5755230955312325 0 0.6701082738607773 0.5920676642980007 0 0.6514871861597038 0.6085975262734278 0 0.6328412578748752 0.6252085009794541 0 0.6141836362346645 0.641855181241164 0 0.5955529026734456 0.6584310605833048 0 0.5769368974438647 0.6749619895603549 0 0.5583215900635801 0.6915002606135722 0 0.5397078453491169 0.7080421403757224 0 0.5210804196182607 0.7245844938642947 0 0.8801389300647814 0.4342712322213127 0 1 0.3999999999989749 0 0.9756037526676504 0.4118152227554959 0 0.9213103396682538 0.4273419196628802 0 0.9548932158404102 0.4205568438126591 0 0.01992242291882586 0.6404324285070513 0 0.3947719414038556 0.7503947984605071 0 0.4602296618279889 0.749768292783265 0 0.502447373934589 0.7411263537713157 0 0.8614914529695862 0.4508500196970016 0 0.9038321410407987 0.4421283793861039 0 0.944099459167388 0.4375111603718729 0 0.0684543395299238 0.6642452437147811 0 0.09291860411778397 0.6725280948757519 0 0.04453978177836573 0.6544745428854659 0 0 0.6525925925936003 0 0.1166986267346086 0.6804814578836577 0 0.1402684416348842 0.6883266958876694 0 0.1638159760556962 0.6961666426686376 0 0.18736998309911 0.7040338177617562 0 0.2109353118360714 0.711917021255781 0 0.2345043389913581 0.7197926524340628 0 0.25809664260701 0.7276655325376629 0 0.2817107237837704 0.7355175210339724 0 0.3052826078436244 0.7433540757615269 0 0.3289156195325418 0.7512158208643421 0 0.3525284888161149 0.759101344111881 0 0.3761808199352289 0.766967126995684 0 0.4182320584903965 0.7583209355123095 0 0.4416067571987429 0.7662785430898098 0 0.4837938534117457 0.7576737497629483 0 0.7869161514642252 0.51715232075046 0 0.76827922407676 0.5337144185791693 0 0.8055599728586709 0.500580460615708 0 0.7496433710053343 0.5502765145847827 0 0.7310104436712931 0.5668089734082304 0 0.8242034525305253 0.4840049923478297 0 0.8428475675109481 0.4674283565715801 0 0.712373674559213 0.5834003810915359 0 0.6937218748340861 0.6000043330977102 0 0.6750900570785531 0.6165768555725248 0 0.6564536625284823 0.6331457147102526 0 0.6378267252152967 0.6497001678135366 0 0.6191902190074561 0.666281988194575 0 0.6005696847183914 0.6828148294302177 0 0.5819615507483388 0.6993513698347169 0 0.5633539621017442 0.7158977489795554 0 0.5447245278097892 0.7324470084791914 0 0.5260894349271272 0.7489948521171799 0 0.8851786503831663 0.4587131670692922 0 1 0.4249999999989021 0 0.9721633022313162 0.4381861634066376 0 0.9271590142243278 0.451108985530584 0 0.02244024296208421 0.665443310663175 0 0.3997265930613652 0.774802437498046 0 0.4651437450243828 0.7742284140094992 0 0.5074490618191403 0.7655436525360297 0 0.8665279863862101 0.475287070416319 0 0.9088681796689149 0.4665741416420401 0 0.9524085324875774 0.4573430387231406 0 0.04561500420768735 0.6805406386002657 0 0.07455133293969705 0.6891220499865387 0 0.09811218951637864 0.6969720574527707 0 0 0.6774074074084013 0 0.1216762774909054 0.704808063294498 0 0.1451988305909639 0.7126692140983959 0 0.1687467165260395 0.7205563307052554 0 0.192308325507287 0.7284210671335973 0 0.2158904439618135 0.7363054803391196 0 0.2394737538904325 0.7441820301941526 0 0.2630566931569376 0.7519940352114607 0 0.2865177321578201 0.7598723949557622 0 0.3101677546954226 0.7677594600137491 0 0.3338621832517872 0.7756089142815432 0 0.3574806568656952 0.7835754204179021 0 0.3811272793178246 0.7913948670530759 0 0.4231440460496554 0.782770229559548 0 0.4464961582565884 0.790778283799753 0 0.4888030824154309 0.7820951077212417 0 0.810590309825615 0.5250136577723966 0 0.7919471164465174 0.5415861891717244 0 0.7733031098549398 0.558153202625448 0 0.8292360251007387 0.5084394077429238 0 0.7546581091477402 0.5747343805867186 0 0.7360083295012038 0.5913167217330416 0 0.8478806698429093 0.4918638187725178 0 0.7173775266858647 0.6078665582170002 0 0.6987358150779457 0.6244462521140954 0 0.6800972842288611 0.641020840751795 0 0.6614619652784738 0.6575891317054205 0 0.6428329521985653 0.6741390916992703 0 0.6242063078846973 0.690676706328708 0 0.6056020970979394 0.7072031767195669 0 0.5869934170714213 0.7237479104428988 0 0.5683704554477221 0.7403067140391728 0 0.5497423325785558 0.7568597420329263 0 0.5311042163470272 0.7734121165826411 0 0.8902115685512562 0.4831489113903306 0 1 0.4499999999988292 0 0.9324695774718121 0.4742446667017044 0 0.9769746177691516 0.4644829463040774 0 0.01920752478402035 0.687098564925689 0 0.4047482662064574 0.7992619088998196 0 0.470155676210311 0.7986491679287873 0 0.5124561952776021 0.7899581500538182 0 0.8715669057127868 0.4997267902566472 0 0.9132246291525836 0.4911070958070679 0 0.9575096759645638 0.4793607368097575 0 0.0560043950991018 0.7054972211460016 0 0.07952918660092168 0.713463624235109 0 0.1030902758670643 0.7212975498540821 0 0.0342430373884291 0.7002669988051548 0 0 0.7022222222231429 0 0.1266137128192611 0.7291784913538568 0 0.1501358400701763 0.7370644787605134 0 0.1736513438330034 0.7449827638086323 0 0.1972289207864246 0.7528590340323063 0 0.2208571900011832 0.7607099998745748 0 0.24446339770714 0.7685412864815584 0 0.2678110478606905 0.7762711723743245 0 0.2909796950856129 0.7844945896198503 0 0.3146118714856876 0.7923850526857834 0 0.3382973205720157 0.8002490927239122 0 0.3618507668528468 0.8081511455525046 0 0.3855735786733273 0.8159967617893589 0 0.4281576951881152 0.8072694418592353 0 0.4515566133224416 0.8151919123999953 0 0.4938112534122743 0.8065125246291013 0 0.83426855647877 0.5328770022959974 0 0.8156205247949728 0.5494513648405532 0 0.7969737944509402 0.5660264612768638 0 0.7783278462280757 0.5825999788037879 0 0.8529169721495444 0.5163021415565918 0 0.7596814273026053 0.5991723225201177 0 0.7410359198801615 0.6157423146129217 0 0.7223957630335885 0.632304202915198 0 0.7037528084324721 0.6488619825818602 0 0.6851141026949554 0.6654480257434606 0 0.6664774111177661 0.6820077548062392 0 0.6478471061784008 0.6985494919997649 0 0.6292496820490878 0.715065403897033 0 0.6106556356179553 0.7315964000636211 0 0.5920447108625293 0.7481595210178895 0 0.5734027054423609 0.7647223725945206 0 0.5547619683471777 0.7812798746693133 0 0.5360976646213483 0.7978257982629859 0 0.8951345925181619 0.5076178808337953 0 1 0.4749999999987564 0 0.9344644825163591 0.4994541646129635 0 0.9786587875276578 0.4880466552356785 0 0.01824729960442715 0.7130198012370443 0 0.4093588874913375 0.823832749744825 0 0.4751498669913934 0.8230531698288421 0 0.5174246461383223 0.8143545225399788 0 0.8766092129826444 0.5241687347953812 0 0.9181993741889981 0.5156028096615742 0 0.9584941364775128 0.5034641699499567 0 0.06120311468429579 0.7300545946532699 0 0.03875993627916079 0.7226541127315291 0 0.08451646271688336 0.7377999303313882 0 0.1080367636121987 0.7456703326862879 0 0 0.7270370370379062 0 0.1315442892842583 0.7535613094293636 0 0.1550372283086403 0.7615347716791003 0 0.1786296655991145 0.7693882904378202 0 0.2022409763752517 0.77723259541663 0 0.2258231275649372 0.7850408332957983 0 0.249164123129814 0.793052410620681 0 0.2724963639488193 0.8009699366641132 0 0.2958799727690006 0.808965328152835 0 0.3195319206837415 0.8168377857861093 0 0.3432162183245427 0.8247018948854157 0 0.3668636627996443 0.832576878694042 0 0.3905374462838021 0.8404333611852459 0 0.4329186131879578 0.831731634009669 0 0.4565070260104145 0.8396077996741664 0 0.4987181643009094 0.8309170916362549 0 0.8393002811114627 0.5573161561756499 0 0.8579525158363205 0.5407400881843989 0 0.8206499262342155 0.5738906153957655 0 0.8020018884510544 0.5904640483077561 0 0.783352732964978 0.6070343279509478 0 0.7647056260934725 0.6236062114332885 0 0.7460598568504843 0.6401738308274227 0 0.7274167069680619 0.6567387052467183 0 0.7087743267228468 0.673306484181728 0 0.6901301982844008 0.689871754404158 0 0.6714983775377144 0.7064131643983119 0 0.6528842825992741 0.7229380124443738 0 0.6342996548109008 0.739468509254694 0 0.6156867287809997 0.756008896546335 0 0.5970632894379271 0.7725776872402388 0 0.5784130568579197 0.7891345073406894 0 0.5597598116343698 0.8057104590854673 0 0.541063299503563 0.822248463849883 0 0.9003357758240813 0.5320548118415827 0 1 0.4999999999986943 0 0.941462293721084 0.525690772951228 0 0.9793957259705779 0.5125897029775612 0 0.02029393072515113 0.737807705322381 0 0.4142177254083659 0.8483033907256221 0 0.4800588805719308 0.8474528052946391 0 0.5223159902521997 0.8388581040249475 0 0.8816431454430991 0.5486040544089792 0 0.9225799748982122 0.5402247952566366 0 0.9633995159833473 0.5250178219964825 0 0.06610757633098412 0.7544983380538742 0 0.04265447259993951 0.7463623280155633 0 0.08947675622208813 0.7621529959990545 0 0.1129826351942807 0.7700428983926999 0 0 0.7518518518526134 0 0.1364804826172271 0.7779872886551386 0 0.160021501878905 0.7859072220446174 0 0.1836247468971111 0.793760154955781 0 0.2071979186769334 0.801558091379807 0 0.2304967436195755 0.8095092405862745 0 0.2538762321404401 0.8175542563805906 0 0.277280456919011 0.82556798950204 0 0.300885877193884 0.8333842211374886 0 0.3245440389970305 0.8412602420303608 0 0.3482096000419775 0.8491362245255656 0 0.3718768600851677 0.8570088430743198 0 0.3955441224192577 0.8648892755768016 0 0.4378797834827166 0.8561892706731925 0 0.4614529046791603 0.8640556177025999 0 0.5035167285428321 0.8555021672854815 0 0.8443283558103336 0.5817492196838934 0 0.8629848927083482 0.5651851272873862 0 0.8256769759826138 0.5983244506244128 0 0.8070289631178847 0.6149013778067599 0 0.788373326995407 0.6314647203958539 0 0.7697294095763465 0.6480382673175346 0 0.751082743096648 0.6646049036565875 0 0.7324391445286654 0.6811733832681364 0 0.7137921114620467 0.697738835622616 0 0.6951424081394644 0.7143005552224285 0 0.6765058508016208 0.7308512909414374 0 0.6578978047650572 0.7473759104034738 0 0.6392687950684351 0.763921532385609 0 0.6206529963020714 0.7804240694515227 0 0.6020157040789255 0.7969951635706324 0 0.5834030811425338 0.8135701803478554 0 0.5646986480563805 0.8301761899742912 0 0.5459599122729117 0.8467606740132776 0 0.9055301699603683 0.5566836017761458 0 1 0.5249999999987492 0 0.940057283483531 0.5496719522413978 0 0.979518080540148 0.5375133733632371 0 0.9596026851425439 0.5458749112855853 0 0.02221978533889611 0.7623746137307323 0 0.4192221615995876 0.8727592505238185 0 0.4849723353401566 0.8720428716040762 0 0.5272131907546604 0.8633657048248093 0 0.8868388326962633 0.5732390061060307 0 0.9283628037946519 0.5655574414550555 0 0.07091407349463492 0.7786560941324794 0 0.04734249224114913 0.7707846036015937 0 0.09446689132203293 0.7865006414425409 0 0.1179496127037743 0.7944597721022589 0 0 0.7766666666673896 0 0.1414377216460096 0.8024059942450911 0 0.16501227617352 0.8102963409389146 0 0.1886138733221236 0.8181237027457824 0 0.2119167330060564 0.8259054708720135 0 0.2351887974729961 0.8341006697819511 0 0.2586309077524249 0.8421252911284842 0 0.2822364376434488 0.8499256851824561 0 0.3058904459925652 0.8578139056250199 0 0.3295549585847791 0.8656920861909639 0 0.3532214787128272 0.8735683324632829 0 0.3768932545164256 0.8814396398733241 0 0.4005611535211024 0.8893313962134479 0 0.4428109949514724 0.8806792491963701 0 0.466351811043652 0.888641267494948 0 0.5084868954132657 0.8799978631164953 0 0.8493752657065122 0.6061599122562435 0 0.8680410149164179 0.5896389722201565 0 0.8307093562215317 0.6227172745560059 0 0.8120528158134981 0.6392986500132216 0 0.7934018709161819 0.6558755268961528 0 0.7747473200976156 0.6724617571942348 0 0.7561091837761297 0.6890342785870996 0 0.73746441410959 0.7056032873133604 0 0.7188106746601314 0.7221718217396396 0 0.7001537421765504 0.7387367648395847 0 0.6815202438292804 0.7552993372562165 0 0.6628776156406854 0.7718532385103485 0 0.6441793787482816 0.788446423495423 0 0.625593751810023 0.8049318513785757 0 0.6069747136613555 0.8214927375399401 0 0.5883914843363351 0.838054436325876 0 0.5695760710580791 0.8547059114298869 0 0.5508361366267366 0.8713141493690585 0 0.9102562874764708 0.581486255584615 0 1 0.5499999999988151 0 0.9537171211769888 0.5715497880180289 0 0.9783491899070614 0.5624967757087331 0 0.02223927511815234 0.7894683281085733 0 0.424241147336498 0.8972083794211473 0 0.4898457555301258 0.8965456696992797 0 0.532151586502237 0.8878954370762224 0 0.8918635378306612 0.5977937202602777 0 0.9338331342610152 0.5896571831857453 0 0.07571908381766404 0.803148465116764 0 0.05123146156818962 0.7955465057843925 0 0.09943387229372865 0.8108903724188359 0 0.1228960731493669 0.8189314374592472 0 0 0.8014814814820662 0 0.1464012202999251 0.8268327195613123 0 0.169966895026147 0.8346232232003677 0 0.1932724058338706 0.8426661455121671 0 0.216595510167095 0.8505605624778427 0 0.2399059307342791 0.8586062571695949 0 0.2635674892062141 0.8664868653527269 0 0.2872336489884993 0.8743672071684112 0 0.3108995669194621 0.8822490424288623 0 0.3345708876925642 0.8901275427232611 0 0.3582368398719147 0.8979978433056797 0 0.381921265465493 0.9058432698490482 0 0.405682812146422 0.9134674252303387 0 0.447677422323644 0.905411758330343 0 0.4708996786245623 0.9136339471497605 0 0.5134245705105318 0.9044137094260006 0 0.8544234127768138 0.6305252915863269 0 0.873101712410141 0.614064145024754 0 0.8357569257294363 0.6471138809053253 0 0.8170911677922632 0.6637157557091111 0 0.7984405092075355 0.6803042672939856 0 0.7797862026540342 0.6968915778019867 0 0.7611429382888388 0.7134641039952303 0 0.7424893362109248 0.7300379597207696 0 0.7238335834782543 0.7466083791996178 0 0.7051770863473839 0.7631774450196511 0 0.6865181826361677 0.7797494137703052 0 0.6678589912101677 0.7963210384113789 0 0.649196759517588 0.8128932509847175 0 0.6305355730224208 0.8294612647810589 0 0.6119919165383002 0.846015215384045 0 0.593260838958741 0.862592836189126 0 0.5745237613258167 0.8791956813971381 0 0.5558414498135194 0.8957762757511711 0 0.914929403502017 0.6057434780682289 0 1 0.574999999998881 0 0.956753021951478 0.5997636235423952 0 0.9779770871774343 0.5869246431328138 0 0.03453677871100044 0.8142782483806649 0 0.01444291401754058 0.8138888888894578 0 0.4292653241025681 0.9211623317885358 0 0.4947709213156178 0.9209622113367711 0 0.5368535930004315 0.9119985546957926 0 0.89664968576155 0.6221692495730523 0 0.9379484251366037 0.6153801054361767 0 0.05781575895378591 0.8195138932547881 0 0.08072759981536903 0.8275282007425231 0 0.1042281190618504 0.8354561758516006 0 0.1277931649850329 0.8433479157969132 0 0 0.8262962962968513 0 0.15133907904844 0.8511441445906384 0 0.1745903301871124 0.859107445849558 0 0.197963662484356 0.86718924723984 0 0.2213737964823002 0.8752077854296597 0 0.2449070072859731 0.8830388471007271 0 0.2685725614202968 0.8909232706941538 0 0.2922408057353049 0.8988073809847688 0 0.3159141022921216 0.9066908614293596 0 0.3396005727514894 0.9145682117640527 0 0.3621924985248927 0.9218671453691407 0 0.3857970190597724 0.933291061652153 0 0.4131655322028427 0.9371121600396994 0 0.4519250213486328 0.9319023912755366 0 0.4748271401857017 0.9383403847616858 0 0.5181192030649282 0.928509483449354 0 0.8594774965766856 0.6549552251390944 0 0.8781325450993689 0.6383939863723916 0 0.8408124725566882 0.6715436307845799 0 0.8221393138887136 0.6881404404218185 0 0.8034771798964049 0.7047405457406102 0 0.7848247810121526 0.7213230051470744 0 0.7661694937674391 0.7379046545876131 0 0.7475131054610534 0.7544782968380916 0 0.72885726640589 0.7710498634842095 0 0.7101995962950485 0.7876221136561596 0 0.6915407348334135 0.8041954135062129 0 0.6728798764755566 0.820769666232427 0 0.6542123676236612 0.8373450127390759 0 0.6355667209699229 0.8539185029520038 0 0.6169004977811127 0.8704969407396069 0 0.5982067713468127 0.8870809044645964 0 0.5795306453549851 0.9036580357518997 0 0.560863124361125 0.920236819994811 0 0.9198497274124585 0.6305276821852721 0 1 0.5999999999989468 0 0.9784557823649038 0.6124992939669998 0 0.9594109584585798 0.6251240553303727 0 0.02181265509110281 0.8378756231687815 0 0.04384351282362328 0.8349390219703411 0 0.4345791820109262 0.9400937638509882 0 0.499760883370395 0.9454096159774545 0 0.5424231033335517 0.9359521525833703 0 0.9018413455008069 0.6462493828711837 0 0.9425566432143245 0.6402696075306213 0 0.06248246201662784 0.8438214249614961 0 0.08563495422851908 0.85197542529012 0 0.1091548177688167 0.8598817827073867 0 0.1327208300654305 0.8676732528934444 0 0 0.8511111111115715 0 0.1560150997907191 0.8757968784042576 0 0.1793103561032236 0.8838205794361029 0 0.202639576132534 0.8917729647337104 0 0.2262436612792308 0.899591613168645 0 0.2499117804644401 0.907479030325667 0 0.2735809603648098 0.9153629157058939 0 0.2974706958558073 0.9225925868942311 0 0.3209676028307907 0.9310309865829796 0 0.344090555849324 0.9379920905025212 0 0.3635087381513626 0.9415103951413895 0 0.3994783974698983 0.9568717541487702 0 0.4241904584274694 0.9577866235674117 0 0.4511897328101531 0.9559718867111326 0 0.4801575592588382 0.9619372430611695 0 0.5242545733282515 0.9562820574071762 0 0.8645097117710607 0.6794144134777497 0 0.8831784134776564 0.6628252906237679 0 0.8458420761227297 0.6960064009334147 0 0.827176716978915 0.7125956677747608 0 0.8085137414276613 0.7291882129998557 0 0.7898520901122557 0.7457735000650115 0 0.7711943005462094 0.7623504110337262 0 0.7525365661371987 0.7789226132489636 0 0.7338780980965969 0.7954942957668927 0 0.7152208512014255 0.812068124203865 0 0.6965665549639088 0.8286451546882919 0 0.6779022469543394 0.8452229798142257 0 0.659235059215852 0.8618007602952629 0 0.6405703391466653 0.8783805487270523 0 0.6219014714662046 0.8949619265509742 0 0.6032270540718856 0.9115448113482429 0 0.5850837543923901 0.9278457600983311 0 0.5675850982587946 0.9429716913281467 0 0.9253349210229851 0.654765754137428 0 1 0.6249999999990126 0 0.9791624950327835 0.6369927481993429 0 0.9612545521109084 0.6458555409306758 0 0.04256990934559939 0.8592059200859747 0 0.01963700141769538 0.86464028082295 0 0.3748873527725707 0.9582037673789146 0 0.5027808157689178 0.9709878500224216 0 0.5507472810296752 0.9576505965832123 0 0.9068777487804405 0.6706923418367947 0 0.9492670037874444 0.6619779313286484 0 0.06692423260257788 0.8685844704677095 0 0.09054087698637316 0.8764288296151315 0 0.1141581955774513 0.884275594200141 0 0.137486642373028 0.8922163649418167 0 0 0.8759259259263067 0 0.1607478272240353 0.9002724519886751 0 0.1839848821007641 0.9083443650197829 0 0.2075761341408545 0.9161467584904612 0 0.2312467797982391 0.924036981863202 0 0.2571609727803095 0.9352949370182568 0 0.2811050320636451 0.9349644365081815 0 0.2998803480387805 0.9445451268025382 0 0.3236114093603473 0.9568552917250711 0 0.3500032715461974 0.9603064656119203 0 0.3874964233593979 0.9783511625950547 0 0.4124060183900434 0.9783774111508965 0 0.4373436754803635 0.9785340529903613 0 0.4625000000019244 0.9783493649053084 0 0.484087675006743 0.9822548915977798 0 0.519121807285684 0.9821724671233009 0 0.5382556730213008 0.9779206683339866 0 0.8882115913502903 0.6872887432954029 0 0.869541050708827 0.7038771987281804 0 0.8508731908321734 0.7204670544133999 0 0.8322079223661323 0.7370553254639158 0 0.8135437582001082 0.7536412338077616 0 0.7948797379448196 0.770224180736245 0 0.776215208252424 0.7868036649251241 0 0.7575585730956064 0.8033765025512213 0 0.7388977635330474 0.8199492723903578 0 0.7202461892391409 0.8365202795627453 0 0.7015937985248251 0.8531002318594458 0 0.6829172568378301 0.8696715821573207 0 0.6642578481745881 0.8862564922861097 0 0.6455962163112289 0.9027973878940141 0 0.6269254442254897 0.9194273030371678 0 0.6082488003150458 0.9360151305645555 0 0.5898183772274659 0.9515220972580846 0 0.5723240506240188 0.9618223826123091 0 0.9347371044583986 0.6808016589989362 0 1 0.6499999999990784 0 0.9754473838149881 0.6627066425554569 0 0.03354440102899791 0.8754414881034992 0 0.04924277192258593 0.8849435585390604 0 0.01989504304047218 0.8882816165415662 0 0.3625307347020076 0.9790578192477486 0 0.5000000000020587 1 0 0.5626423181334286 0.9791804535727198 0 0.9122714216724934 0.6955943195494296 0 0.9594290170792118 0.6797290205651726 0 0.07192628478819102 0.8929635237824806 0 0.09554863698749463 0.9008236890294989 0 0.1190274714835802 0.9087119103589989 0 0.1423686509877073 0.916699852945162 0 0 0.900740740741054 0 0.1655237437958775 0.9248133694171156 0 0.1889217108111295 0.9327165290978361 0 0.212981660270099 0.9397370674064545 0 0.2362495505842276 0.9484885495408351 0 0.2774321832785184 0.957026616119988 0 0.3000872697982291 0.9648181346211779 0 0.3376847128802752 0.9789813219941272 0 0.3750000000015603 1 0 0.4000000000016644 1 0 0.4250000000017684 1 0 0.4500000000018723 1 0 0.4750000000019764 1 0 0.5250000000019071 1 0 0.5500000000017335 1 0 0.8932406709046274 0.7117279148668422 0 0.8745694405640756 0.7283380902582782 0 0.8559025396082043 0.7449269894723246 0 0.8372353482705543 0.7615118766853956 0 0.8185714391542853 0.7780967280360604 0 0.7999049109318248 0.7946792791911768 0 0.7812345205678694 0.8112613824160921 0 0.7625707610246441 0.8278343260174148 0 0.7439137920895358 0.8444079945066441 0 0.7252655030153858 0.8609837249631657 0 0.7065944882621773 0.8775549054226603 0 0.6879136268060299 0.8941394164444021 0 0.6692620619964416 0.9106863572572965 0 0.6506773243796974 0.9270817877193716 0 0.6323996959369196 0.9425581346322853 0 0.6154416680341184 0.9613802606361771 0 0.5882266297738361 0.9775910734942395 0 0.9323631007981741 0.7052440085464925 0 0.9556622308036888 0.7024818394703988 0 1 0.6749999999991443 0 0.9788044805713576 0.6882878970116679 0 0.03616082104049125 0.8991606485023307 0 0.05535260422683484 0.9091817809710846 0 0.02048860481464835 0.9130243964959712 0 0.2542360000413355 0.9591454860263976 0 0.3126563798688131 0.979632749887113 0 0.3500000000014564 1 0 0.5750000000015603 1 0 0.9168947122386144 0.7197372547015397 0 0.07693002838461571 0.9173595258390898 0 0.1005687385971405 0.9252283173114215 0 0.124236376185767 0.9330843419581414 0 0.1469305956324177 0.9401602037103639 0 0 0.9255555555557314 0 0.170176042527425 0.94732249024473 0 0.1944669341670477 0.9575483269906147 0 0.2188233490548079 0.9597407040405768 0 0.236954073527519 0.9750043147693193 0 0.2632059999294323 0.9787595090595334 0 0.2876432289732964 0.9800998404135708 0 0.3250000000013522 1 0 0.8982868144407045 0.7362927081396095 0 0.8796045826646286 0.7527848205292678 0 0.8609312289461013 0.7693769141948021 0 0.8422681643370393 0.785964559249039 0 0.8236003283720883 0.802554369614515 0 0.8049301797223809 0.8191381336013086 0 0.7862515568984838 0.8357253501669796 0 0.7675738732645875 0.8523091266873013 0 0.748938359700717 0.8688851538347071 0 0.7302624242561706 0.8854625528532387 0 0.7115802214744847 0.9020429637834596 0 0.6928870756123707 0.9186342859734526 0 0.6739181690305398 0.9343119036105173 0 0.6558464245426534 0.949693874805984 0 0.6396385027933389 0.9606977949876527 0 0.6125011624060365 0.9837659019660306 0 0.6000000000013869 1 0 0.9422500348176752 0.7276049700121578 0 0.9792287127594379 0.7126313223766563 0 1 0.69999999999921 0 0.03844150120940828 0.9240910503628027 0 0.05904548219314176 0.9336156757783443 0 0.01980868685398895 0.9378827813624289 0 0.3000000000012483 1 0 0.6338375142196278 0.9798581756997367 0 0.9220723260219985 0.7444493038705119 0 0.9637160826460018 0.7254588490087359 0 0.08231180189519796 0.9406370426715723 0 0.1063478899167181 0.9490329276208429 0 0.1295789816093158 0.9572013610980437 0 0.1526392646455855 0.9617809366015292 0 0 0.9503703703705487 0 0.1751676162932621 0.9660941309604019 0 0.2105581120165657 0.9791514003026911 0 0.2500000000010403 1 0 0.2750000000011442 1 0 0.903339154250282 0.7607188646112171 0 0.8846485810014852 0.7772462152269275 0 0.8659768495771519 0.7938192233234206 0 0.8473014205781961 0.8104276816687435 0 0.8286302923204169 0.8270156527221314 0 0.8099554018921405 0.843603384955278 0 0.7912783901284277 0.860191237157817 0 0.7726082678081153 0.8767781441606158 0 0.7539413171872982 0.893358597157714 0 0.735254655896961 0.9099499719577256 0 0.7165598700763787 0.9265518468660422 0 0.6971582986876022 0.9420148489593562 0 0.6780589084151947 0.9575839248341529 0 0.6604280840244138 0.9752242958469346 0 0.6250000000012135 1 0 0.9605575770566323 0.7414900853882154 0 0.9460736412248638 0.754386607921498 0 1 0.724999999999276 0 0.9783493649053321 0.7374999999993094 0 0.03977368987228719 0.9501009268279407 0 0.06391854305734312 0.9590290071227729 0 0.01938134302196487 0.9621452986061629 0 0.1869379492708169 0.9802561058473664 0 0.2250000000009362 1 0 0.6500000000010401 1 0 0.9270939104230749 0.7685397490501532 0 0.08921000612503392 0.9593765230410201 0 0.1101981146222572 0.9749888975639492 0 0.1378394971664275 0.9790826025462105 0 0.162560108077434 0.9804655500162791 0 0 0.9751851851852422 0 0.2000000000008322 1 0 0.9083672062549225 0.7850937274081223 0 0.8896724643158258 0.8016837412947362 0 0.8710095687742473 0.8182918049647825 0 0.852334637272113 0.8348908429205856 0 0.8336594740691472 0.8514815193834984 0 0.8149841850439553 0.8680699418256793 0 0.7963067583992217 0.8846602522985898 0 0.7776287284027171 0.9012506570572817 0 0.7589526774761994 0.9178416417849347 0 0.7402709404409575 0.9344356505022697 0 0.7221320089538443 0.9545919696811659 0 0.6999998737602793 0.9629026133046579 0 0.6874998526486903 0.9783494499793083 0 0.6750000000008667 1 0 0.9723987616892878 0.7624999999993752 0 0.9511512253247011 0.7767767886416391 0 1 0.7499999999993417 0 0.03865046828365465 0.9773366052343824 0 0.08374992470322454 0.9795104246889742 0 0.01805521312185844 0.9819959226564355 0 0.1750000000007281 1 0 0.9319664786096837 0.7928416311113626 0 0.1250000000005201 1 0 0.1500000000006241 1 0 0.0622637872089485 0.9831752074092259 0 0 1 0 0.9133158575646576 0.8094761078874024 0 0.8947214721783716 0.8261708052299941 0 0.876043183424229 0.8427669110357976 0 0.8573655959810456 0.8593607298265238 0 0.8386885927769918 0.8759484860071625 0 0.8200156942169483 0.892528590855739 0 0.8013621073053289 0.9090453521589961 0 0.7829865157510035 0.9240238959056106 0 0.7655672888102396 0.9397820229816847 0 0.7509350797106531 0.9572692101527505 0 0.7125000000006065 0.9783493649055393 0 0.7000000000006934 1 0 0.9776291594915305 0.7875380515327299 0 1 0.7749999999994076 0 0.9561619376771519 0.8016247214649639 0 0.100000000000416 1 0 0.05000000000020799 1 0 0.02500000000010405 1 0 0.07500000000031215 1 0 0.7373728002791757 0.9797457966891426 0 0.9365017685241022 0.8167601470604585 0 0.9179198228630394 0.8334700926153805 0 0.8997545627560775 0.8506461505404254 0 0.8810748357278673 0.8672409378034107 0 0.862394975574633 0.8838346162085495 0 0.8437145735056659 0.9004276213796638 0 0.8250690498714734 0.9169161840249754 0 0.8066312769116598 0.9360687629880353 0 0.7878775674057313 0.9431430579496005 0 0.7763840591915299 0.9592015607858526 0 0.7623386951258467 0.9791139237471456 0 0.7250000000005199 1 0 0.9785045479276824 0.8132727312725351 0 1 0.7999999999994734 0 0.9578471191845154 0.8261727904892775 0 0.7500000000003466 1 0 0.9391128526801986 0.8403434994928256 0 0.9220365279740232 0.8571983503085738 0 0.9045500207496133 0.8749002583057601 0 0.8861067887336109 0.8917166464217032 0 0.8674239964535654 0.9083123153680097 0 0.8487409038783109 0.9249085077009044 0 0.8300502952167822 0.9415063885533833 0 0.7988740897650844 0.9585094594757773 0 0.7879965183055392 0.9787583886863396 0 0.7750000000001732 1 0 1 0.8249999999995392 0 0.9788637985969766 0.8379581758234063 0 0.9583083698165701 0.8505032137944166 0 0.820199313066216 0.9593370028479036 0 0.9420106582883645 0.8619845925818463 0 0.9322728957351556 0.882381968439512 0 0.9098224078178099 0.8995969187914389 0 0.8911388418834251 0.9161948069605781 0 0.8724544056893323 0.9327926566545816 0 0.8545858659163292 0.9502129052165713 0 0.837499999999744 0.970091485033424 0 0.81229172383815 0.9781055606997104 0 0.7999999999999998 1 0 1 0.8499999999996051 0 0.9785227546530915 0.8628003193850639 0 0.9566987308811586 0.8749999999996694 0 0.9335409902090506 0.9074780711570531 0 0.9148558428489935 0.9240777970694657 0 0.8959904604035898 0.9397747407914325 0 0.878485370162244 0.9569978691712365 0 0.8632446788373009 0.9766771819693658 0 0.8249999999998263 1 0 0.9559309084930709 0.8987111038573347 0 1 0.8749999999996708 0 0.9781530512139307 0.8880930545424779 0 0.8499999999996529 1 0 0.9382926456304728 0.9328115065901348 0 0.9544298725978175 0.9196756121711618 0 0.9196554759229494 0.9469137389489963 0 0.9033970037247694 0.9616579055397857 0 0.8880972945619894 0.9794009325121695 0 0.8749999999995011 1 0 0.9766321162336684 0.9157580083414927 0 1 0.8999999999997368 0 0.9438287412639099 0.9571755573708816 0 0.9622966325024225 0.9398438882854082 0 0.9250191183198891 0.9656866693686141 0 0.9125008924587128 0.9810589679886786 0 0.8999999999995836 1 0 1 0.9249999999998024 0 0.9835192958457386 0.9381043860998908 0 0.9615520967251762 0.9584733172028391 0 0.9367139815717119 0.980000155581342 0 0.9786677304926018 0.9599200338728818 0 0.9249999999996876 1 0 1 0.9499999999998684 0 0.9614152826417707 0.9769537892821853 0 0.9499999999997918 1 0 1 0.9749999999999343 0 0.9818260183860713 0.9818260183860811 0 0.9749999999998958 1 0 1 1 0 </DataArray>
      </Points>
      <Cells>
        <DataArray type="Int32" Name="connectivity" format="ascii">0 1 2 1 3 2 4 0 2 3 5 2 6 0 4 5 4 2 3 7 5 6 4 8 9 4 5 7 10 5 7 11 10 12 6 8 8 4 13 4 9 13 10 9 5 10 11 14 11 15 14 16 12 8 17 8 13 9 18 13 10 19 9 10 14 19 15 20 14 21 12 16 17 16 8 18 17 13 19 18 9 19 14 22 15 23 20 14 20 22 21 16 24 16 17 25 18 26 17 27 18 19 28 19 22 20 23 29 20 30 22 31 21 24 24 16 25 17 32 25 27 26 18 17 26 32 28 27 19 30 28 22 23 33 29 20 29 30 31 24 34 35 24 25 32 35 25 27 36 26 32 26 37 38 27 28 39 28 30 29 33 40 29 41 30 33 42 40 43 31 34 24 44 34 35 44 24 45 35 32 38 36 27 26 36 37 45 32 37 38 28 39 41 39 30 46 29 40 46 41 29 42 47 40 48 43 34 34 44 49 35 50 44 45 50 35 38 51 36 37 36 52 45 37 53 54 38 39 41 55 39 47 46 40 56 41 46 42 57 47 58 43 48 48 34 49 44 59 49 44 50 59 60 50 45 54 51 38 36 51 52 53 37 52 60 45 53 55 54 39 56 55 41 46 47 61 56 46 61 47 57 62 57 63 62 58 48 64 65 48 49 59 65 49 50 66 59 60 66 50 67 51 54 51 68 52 69 53 52 70 60 53 71 54 55 72 55 56 47 73 61 74 56 61 73 47 62 63 75 62 76 58 64 64 48 65 59 77 65 66 77 59 60 78 66 67 68 51 67 54 71 68 69 52 70 53 69 70 78 60 71 55 72 72 56 74 73 74 61 73 62 79 63 80 75 62 75 79 81 76 64 64 65 82 77 83 65 77 66 84 66 78 84 85 68 67 67 71 86 68 87 69 88 70 69 70 89 78 71 72 90 91 72 74 73 92 74 93 73 79 75 80 94 75 95 79 80 96 94 97 76 81 81 64 82 65 83 82 98 83 77 98 77 84 84 78 99 85 87 68 85 67 86 71 90 86 87 88 69 88 89 70 78 89 99 90 72 91 92 91 74 93 92 73 95 93 79 75 94 95 96 100 94 96 101 100 97 81 102 103 81 82 83 103 82 98 104 83 98 84 105 84 99 105 106 87 85 107 85 86 86 90 108 87 109 88 88 110 89 89 111 99 90 91 112 92 113 91 114 92 93 115 93 95 94 116 95 100 116 94 100 101 117 118 97 102 81 119 102 119 81 103 83 104 103 120 104 98 120 98 105 99 121 105 106 109 87 106 85 107 107 86 108 108 90 112 88 109 110 89 110 111 111 121 99 91 113 112 114 113 92 114 93 115 116 115 95 116 100 122 101 123 117 100 117 122 124 118 102 119 125 102 119 103 126 103 104 126 120 127 104 128 120 105 121 128 105 106 129 109 130 106 107 131 107 108 132 108 112 110 109 133 111 110 134 111 135 121 113 136 112 114 137 113 138 114 115 116 139 115 140 116 122 123 141 117 117 142 122 143 118 124 125 124 102 144 125 119 144 119 126 104 127 126 145 127 120 145 120 128 128 121 146 130 129 106 109 129 133 131 130 107 132 131 108 136 132 112 134 110 133 111 134 135 121 135 146 113 137 136 138 137 114 139 138 115 140 139 116 142 140 122 123 147 141 141 142 117 143 124 148 149 124 125 150 125 144 151 144 126 127 151 126 152 127 145 145 128 153 153 128 146 130 154 129 133 129 155 156 130 131 157 131 132 158 132 136 159 134 133 135 134 160 135 161 146 136 137 162 138 163 137 164 138 139 165 139 140 166 140 142 141 147 167 141 168 142 169 143 148 148 124 149 149 125 150 150 144 170 170 144 151 152 151 127 152 145 171 145 153 171 153 146 172 156 154 130 129 154 155 159 133 155 156 131 157 157 132 158 158 136 162 160 134 159 161 135 160 146 161 172 137 163 162 164 163 138 164 139 165 165 140 166 168 166 142 147 173 167 141 167 174 168 141 174 175 169 148 148 149 176 149 150 177 150 170 178 170 151 179 179 151 152 180 152 171 171 153 181 181 153 172 182 154 156 154 183 155 184 159 155 156 157 185 157 158 186 158 162 187 188 160 159 189 161 160 161 190 172 163 191 162 192 163 164 164 165 193 165 166 194 168 195 166 167 173 196 167 197 174 198 168 174 173 199 196 199 200 201 202 169 175 175 148 176 149 177 176 177 150 178 170 203 178 170 179 203 179 152 180 204 180 171 204 171 181 205 181 172 182 183 154 182 156 185 183 184 155 184 188 159 185 157 186 186 158 187 162 191 187 188 189 160 189 190 161 190 205 172 192 191 163 192 164 193 165 194 193 166 195 194 198 195 168 197 167 196 197 198 174 199 201 196 201 200 206 200 207 206 202 175 208 175 176 209 176 177 210 177 178 211 203 212 178 179 213 203 179 180 213 214 180 204 215 204 181 205 215 181 182 216 183 217 182 185 183 218 184 184 219 188 220 185 186 221 186 187 191 222 187 188 223 189 189 224 190 190 225 205 192 226 191 227 192 193 194 228 193 194 195 229 198 230 195 231 197 196 232 198 197 201 231 196 201 206 233 207 234 206 207 235 234 236 237 238 239 236 238 240 236 239 235 240 241 242 202 208 208 175 209 176 210 209 210 177 211 178 212 211 243 212 203 213 243 203 213 180 214 214 204 244 244 204 215 205 245 215 217 216 182 183 216 218 220 217 185 184 218 219 188 219 223 221 220 186 222 221 187 191 226 222 189 223 224 190 224 225 205 225 245 227 226 192 228 227 193 228 194 229 195 230 229 232 230 198 232 197 231 231 201 233 206 246 233 206 234 246 234 235 241 238 237 247 239 238 248 240 239 241 237 249 247 249 250 251 252 242 208 253 208 209 210 254 209 255 210 211 212 256 211 257 212 243 243 213 258 213 214 258 214 244 259 260 244 215 245 260 215 217 261 216 218 216 262 263 217 220 219 218 264 223 219 265 221 266 220 267 221 222 226 268 222 224 223 269 225 224 270 245 225 271 272 226 227 273 227 228 274 228 229 230 275 229 276 230 232 232 231 277 278 231 233 246 278 233 234 279 246 279 234 241 280 238 247 241 239 248 238 281 248 249 251 247 251 250 282 250 283 282 283 284 285 286 242 252 252 208 287 208 253 287 254 253 209 254 210 255 256 255 211 257 256 212 288 257 243 288 243 258 214 259 258 259 244 289 289 244 260 260 245 290 263 261 217 216 261 262 218 262 264 266 263 220 265 219 264 223 265 269 267 266 221 268 267 222 272 268 226 224 269 270 271 225 270 245 271 290 272 227 273 273 228 274 275 274 229 276 275 230 276 232 277 231 278 277 291 278 246 279 291 246 292 279 241 280 281 238 251 280 247 292 241 248 281 293 248 294 251 282 283 285 282 285 284 295 284 296 295 286 252 297 298 252 287 253 299 287 254 300 253 301 254 255 256 302 255 303 256 257 304 257 288 288 258 305 258 259 305 259 289 306 289 260 307 307 260 290 263 308 261 261 309 262 262 310 264 311 263 266 312 265 264 265 313 269 314 266 267 315 267 268 316 268 272 269 317 270 318 271 270 271 319 290 272 273 320 273 274 321 322 274 275 323 275 276 324 276 277 278 325 277 291 325 278 326 291 279 326 279 292 281 280 327 251 328 280 293 292 248 329 293 281 328 251 294 285 294 282 330 285 295 296 331 295 332 286 297 297 252 298 299 298 287 253 300 299 301 300 254 302 301 255 303 302 256 303 257 304 304 288 333 333 288 305 305 259 306 289 334 306 289 307 334 335 307 290 311 308 263 261 308 309 309 310 262 310 312 264 311 266 314 265 312 313 313 317 269 314 267 315 315 268 316 316 272 320 317 318 270 318 319 271 319 335 290 273 321 320 321 274 322 322 275 323 323 276 324 325 324 277 336 325 291 336 291 326 337 326 292 280 328 327 329 281 327 293 337 292 329 338 293 339 328 294 285 340 294 340 285 330 331 330 295 341 332 297 342 297 298 299 343 298 300 344 299 301 345 300 302 346 301 347 302 303 303 304 348 349 304 333 350 333 305 350 305 306 334 351 306 334 307 352 352 307 335 353 308 311 308 354 309 310 309 355 356 312 310 311 314 357 312 358 313 317 313 359 314 315 360 315 316 361 362 316 320 363 318 317 364 319 318 365 335 319 320 321 366 321 322 367 322 323 368 323 324 369 370 324 325 370 325 336 336 326 371 326 337 371 328 372 327 329 327 373 338 337 293 374 338 329 339 372 328 340 339 294 375 340 330 331 376 330 377 332 341 342 341 297 343 342 298 344 343 299 300 345 344 301 346 345 347 346 302 347 303 348 304 349 348 378 349 333 350 378 333 351 350 306 351 334 379 334 352 379 352 335 380 353 354 308 353 311 357 309 354 355 356 310 355 356 358 312 314 360 357 313 358 359 363 317 359 315 361 360 361 316 362 362 320 366 364 318 363 365 319 364 380 335 365 321 367 366 367 322 368 323 369 368 369 324 370 370 336 381 336 371 381 337 382 371 327 372 373 374 329 373 338 382 337 374 383 338 339 384 372 340 385 339 375 385 340 376 375 330 386 377 341 342 387 341 343 388 342 344 389 343 344 345 390 345 346 391 347 392 346 393 347 348 349 394 348 378 395 349 396 378 350 396 350 351 397 351 379 352 398 379 352 380 398 399 354 353 400 353 357 354 401 355 402 356 355 356 403 358 357 360 404 358 405 359 406 363 359 361 407 360 361 362 408 409 362 366 364 363 410 365 364 411 380 365 412 366 367 413 367 368 414 369 415 368 369 370 416 416 370 381 381 371 417 371 382 417 372 418 373 418 374 373 338 383 382 419 383 374 339 385 384 372 384 420 375 421 385 376 422 375 423 377 386 386 341 424 342 388 387 341 387 424 343 389 388 344 390 389 390 345 391 346 392 391 393 392 347 394 393 348 395 394 349 425 395 378 425 378 396 397 396 351 426 397 379 398 426 379 398 380 427 399 401 354 399 353 400 400 357 404 401 402 355 402 403 356 358 403 405 360 407 404 405 406 359 410 363 406 361 408 407 408 362 409 409 366 413 364 410 411 412 365 411 427 380 412 413 367 414 368 415 414 369 416 415 428 416 381 428 381 417 382 429 417 418 372 420 419 374 418 382 383 429 419 430 383 384 385 431 384 432 420 375 422 421 385 421 431 423 386 433 434 386 424 387 388 435 387 436 424 388 389 437 389 390 438 439 390 391 391 392 440 393 441 392 442 393 394 395 443 394 444 395 425 425 396 445 445 396 397 446 397 426 398 447 426 398 427 447 399 448 401 449 399 400 450 400 404 401 451 402 402 452 403 403 453 405 404 407 454 455 406 405 410 406 456 407 408 457 408 409 458 459 409 413 411 410 460 461 412 411 462 427 412 463 413 414 414 415 464 415 416 465 465 416 428 466 428 417 429 466 417 467 418 420 419 418 467 383 430 429 468 430 419 432 384 431 432 469 420 422 470 421 421 471 431 472 423 433 433 386 434 436 434 424 435 388 437 387 435 436 389 438 437 438 390 439 439 391 440 392 441 440 442 441 393 443 442 394 444 443 395 444 425 473 425 445 473 445 397 446 474 446 426 447 474 426 447 427 475 449 448 399 401 448 451 450 449 400 450 404 454 402 451 452 403 452 453 453 455 405 407 457 454 456 406 455 410 456 460 457 408 458 409 459 458 463 459 413 461 411 460 461 462 412 475 427 462 463 414 464 415 465 464 465 428 476 428 466 476 477 466 429 469 467 420 468 419 467 430 477 429 478 430 468 432 431 479 480 469 432 470 471 421 431 471 479 481 472 433 482 433 434 434 436 483 484 435 437 436 435 485 438 486 437 438 439 487 439 440 488 441 489 440 490 441 442 491 442 443 492 443 444 493 444 473 473 445 494 445 446 494 446 474 495 447 496 474 447 475 496 449 497 448 451 448 498 499 449 450 500 450 454 452 451 501 453 452 502 453 503 455 457 504 454 456 455 505 456 506 460 507 457 458 459 508 458 463 509 459 510 461 460 511 462 461 475 462 512 513 463 464 465 514 464 514 465 476 466 515 476 477 515 466 469 516 467 516 468 467 478 477 430 478 468 517 480 432 479 480 518 469 470 519 471 471 520 479 521 472 481 481 433 482 482 434 483 483 436 522 435 484 485 486 484 437 522 436 485 486 438 487 487 439 488 440 489 488 490 489 441 490 442 491 491 443 492 492 444 493 523 493 473 523 473 494 446 495 494 495 474 524 474 496 524 496 475 525 499 497 449 448 497 498 451 498 501 499 450 500 504 500 454 502 452 501 453 502 503 455 503 505 457 507 504 506 456 505 506 510 460 508 507 458 459 509 508 513 509 463 510 511 461 462 511 512 525 475 512 514 513 464 526 514 476 515 526 476 527 515 477 469 518 516 468 516 517 527 477 478 528 478 517 520 480 479 529 518 480 471 519 520 521 481 530 481 482 531 482 483 532 533 483 522 484 534 485 486 535 484 534 522 485 536 486 487 537 487 488 489 538 488 539 489 490 490 491 540 491 492 541 492 493 542 543 493 523 523 494 544 494 495 544 495 524 545 496 546 524 496 525 546 499 547 497 497 548 498 501 498 549 550 499 500 551 500 504 552 502 501 503 502 553 503 554 505 507 555 504 556 506 505 557 510 506 558 507 508 509 559 508 513 560 509 510 561 511 511 562 512 563 525 512 564 513 514 526 564 514 565 526 515 565 515 527 518 566 516 516 566 517 527 478 528 567 528 517 529 480 520 568 518 529 519 569 520 570 521 530 481 571 530 571 481 531 482 532 531 483 533 532 533 522 572 535 534 484 536 535 486 522 534 572 537 536 487 538 537 488 539 538 489 539 490 540 491 541 540 492 542 541 542 493 543 543 523 573 573 523 544 544 495 545 524 574 545 524 546 574 546 525 575 550 547 499 497 547 548 498 548 549 552 501 549 551 550 500 555 551 504 553 502 552 503 553 554 554 556 505 558 555 507 556 557 506 557 561 510 559 558 508 560 559 509 564 560 513 561 562 511 562 563 512 575 525 563 576 564 526 576 526 565 565 527 577 568 566 518 566 567 517 527 528 577 528 567 578 529 520 579 568 529 580 520 569 579 581 570 530 571 581 530 582 571 531 532 582 531 532 533 583 584 533 572 535 585 534 536 586 535 534 587 572 537 588 536 538 589 537 590 538 539 591 539 540 540 541 592 542 593 541 542 543 594 595 543 573 596 573 544 596 544 545 574 597 545 546 598 574 546 575 598 599 547 550 547 600 548 548 601 549 602 552 549 603 550 551 604 551 555 553 552 605 554 553 606 554 607 556 608 555 558 556 609 557 557 610 561 611 558 559 612 559 560 613 560 564 561 614 562 562 615 563 616 575 563 613 564 576 576 565 617 617 565 577 568 618 566 566 618 567 577 528 578 567 619 578 620 529 579 621 568 580 529 620 580 569 622 579 623 581 571 582 623 571 582 532 583 533 624 583 584 624 533 587 584 572 535 586 585 534 585 587 536 588 586 537 589 588 590 589 538 590 539 591 591 540 592 541 593 592 542 594 593 594 543 595 625 595 573 596 625 573 597 596 545 626 597 574 598 626 574 598 575 627 599 600 547 599 550 603 600 601 548 601 602 549 552 602 605 603 551 604 604 555 608 606 553 605 554 606 607 556 607 609 608 558 611 557 609 610 561 610 614 611 559 612 612 560 613 614 615 562 615 616 563 627 575 616 613 576 628 628 576 617 629 617 577 621 618 568 618 619 567 629 577 578 619 630 578 622 620 579 621 580 631 580 620 631 632 623 582 633 582 583 624 633 583 584 634 624 635 584 587 585 586 636 585 637 587 586 588 638 588 589 639 590 640 589 641 590 591 642 591 592 592 593 643 593 594 644 594 595 645 646 595 625 647 625 596 647 596 597 626 648 597 598 649 626 598 627 649 650 600 599 599 603 651 600 652 601 601 653 602 605 602 654 603 604 655 604 608 656 657 606 605 607 606 658 609 607 659 608 611 660 610 609 661 614 610 662 611 612 663 612 613 664 615 614 665 666 616 615 627 616 667 613 628 664 668 628 617 629 668 617 669 618 621 669 619 618 630 629 578 619 670 630 622 671 620 672 621 631 620 673 631 632 582 633 624 674 633 635 634 584 634 674 624 637 635 587 636 586 638 585 636 637 588 639 638 589 640 639 641 640 590 642 641 591 642 592 643 593 644 643 594 645 644 645 595 646 646 625 675 625 647 675 648 647 597 626 676 648 626 649 676 649 627 677 650 652 600 650 599 651 603 655 651 652 653 601 602 653 654 657 605 654 655 604 656 608 660 656 658 606 657 607 658 659 661 609 659 660 611 663 610 661 662 665 614 662 663 612 664 666 615 665 667 616 666 627 667 677 664 628 678 628 668 678 679 668 629 669 621 672 669 670 619 679 629 630 670 680 630 620 671 673 673 672 631 681 632 633 674 681 633 635 682 634 674 634 683 637 684 635 685 636 638 637 636 686 638 639 687 640 688 639 641 689 640 690 641 642 691 642 643 643 644 692 645 693 644 645 646 694 646 675 695 647 696 675 648 696 647 648 676 697 676 649 698 698 649 677 699 652 650 700 650 651 651 655 701 652 702 653 653 703 654 704 657 654 705 655 656 656 660 706 707 658 657 658 708 659 709 661 659 710 660 663 661 711 662 665 662 712 713 663 664 714 666 665 667 666 715 667 716 677 713 664 678 668 717 678 679 717 668 718 669 672 718 670 669 680 679 630 719 680 670 671 720 673 673 721 672 722 681 674 635 684 682 634 682 683 674 683 723 637 686 684 686 636 685 685 638 687 639 688 687 640 689 688 690 689 641 691 690 642 691 643 692 644 693 692 645 694 693 694 646 695 675 724 695 696 724 675 648 697 696 697 676 725 676 698 725 698 677 726 699 702 652 699 650 700 700 651 701 655 705 701 653 702 703 703 704 654 704 707 657 705 656 706 660 710 706 708 658 707 708 709 659 711 661 709 713 710 663 662 711 712 714 665 712 715 666 714 667 715 716 677 716 726 727 713 678 717 727 678 679 728 717 729 718 672 719 670 718 680 728 679 730 680 719 720 721 673 721 729 672 722 674 723 682 684 731 683 682 732 683 733 723 684 686 734 686 685 735 736 685 687 688 737 687 689 738 688 690 739 689 740 690 691 741 691 692 693 742 692 693 694 743 744 694 695 724 745 695 696 746 724 696 697 746 697 725 747 698 748 725 748 698 726 749 702 699 699 700 750 751 700 701 705 752 701 702 753 703 754 704 703 704 755 707 756 705 706 710 757 706 758 708 707 708 759 709 760 711 709 713 761 710 711 762 712 763 714 712 715 714 764 716 715 765 716 766 726 727 761 713 727 717 767 717 728 767 768 718 729 719 718 768 730 728 680 730 719 769 720 770 721 729 721 771 772 722 723 684 734 731 732 682 731 683 732 733 733 772 723 734 686 735 685 736 735 737 736 687 738 737 688 689 739 738 740 739 690 740 691 741 742 741 692 742 693 743 694 744 743 745 744 695 724 773 745 724 746 773 746 697 747 725 774 747 748 774 725 775 748 726 749 753 702 749 699 750 700 751 750 752 751 701 756 752 705 753 754 703 754 755 704 755 758 707 757 756 706 761 757 710 758 759 708 759 760 709 760 762 711 762 763 712 764 714 763 715 764 765 766 716 765 766 775 726 776 761 727 776 727 767 728 777 767 768 729 778 719 768 769 730 777 728 779 730 769 721 770 771 729 771 778 734 780 731 732 731 781 732 782 733 783 772 733 784 734 735 736 785 735 786 736 737 737 738 787 738 739 788 740 789 739 790 740 741 791 741 742 792 742 743 744 793 743 745 794 744 745 773 795 773 746 796 796 746 747 747 774 797 798 774 748 775 798 748 799 753 749 800 749 750 751 801 750 752 802 751 756 803 752 804 754 753 805 755 754 806 758 755 757 807 756 761 808 757 809 759 758 810 760 759 811 762 760 812 763 762 764 763 813 764 814 765 815 766 765 816 775 766 776 808 761 817 776 767 777 817 767 818 768 778 769 768 818 779 777 730 819 779 769 770 820 771 771 821 778 734 784 780 731 780 781 782 732 781 782 783 733 785 784 735 786 785 736 786 737 787 787 738 788 739 789 788 790 789 740 791 790 741 792 791 742 793 792 743 744 794 793 745 795 794 795 773 822 773 796 822 796 747 797 774 823 797 798 823 774 824 798 775 804 753 799 799 749 800 801 800 750 751 802 801 752 803 802 756 807 803 805 754 804 806 755 805 809 758 806 757 808 807 810 759 809 811 760 810 812 762 811 813 763 812 764 813 814 814 815 765 815 816 766 824 775 816 776 825 808 817 825 776 826 817 777 818 778 827 819 769 818 826 777 779 828 779 819 820 821 771 778 821 827 784 829 780 780 830 781 831 782 781 832 783 782 785 833 784 834 785 786 786 787 835 787 788 836 788 789 837 790 838 789 839 790 791 792 840 791 841 792 793 794 842 793 794 795 843 844 795 822 822 796 845 845 796 797 797 823 846 798 847 823 824 847 798 804 799 848 799 800 849 850 800 801 801 802 851 803 852 802 803 807 853 805 804 854 806 805 855 809 806 856 807 808 857 810 809 858 811 810 859 812 811 860 813 812 861 814 813 862 814 863 815 816 815 864 865 824 816 808 825 857 866 825 817 866 817 826 867 818 827 867 819 818 826 779 828 828 819 868 820 869 821 821 870 827 784 833 829 780 829 830 830 831 781 832 782 831 834 833 785 834 786 835 835 787 836 788 837 836 789 838 837 839 838 790 840 839 791 841 840 792 842 841 793 794 843 842 843 795 844 871 844 822 871 822 845 845 797 846 823 872 846 847 872 823 873 847 824 804 848 854 848 799 849 800 850 849 850 801 851 802 852 851 852 803 853 853 807 857 855 805 854 856 806 855 809 856 858 859 810 858 860 811 859 812 860 861 862 813 861 814 862 863 815 863 864 865 816 864 873 824 865 825 874 857 866 874 825 866 826 875 867 827 876 868 819 867 826 828 875 828 868 877 821 869 870 827 870 876 829 833 878 830 829 879 830 880 831 881 832 831 834 882 833 883 834 835 884 835 836 837 885 836 838 886 837 839 887 838 840 888 839 841 889 840 842 890 841 842 843 891 892 843 844 871 893 844 894 871 845 894 845 846 846 872 895 847 896 872 873 896 847 854 848 897 898 848 849 850 899 849 900 850 851 852 901 851 902 852 853 903 853 857 904 855 854 905 856 855 858 856 906 907 859 858 908 860 859 861 860 909 910 862 861 863 862 911 863 912 864 913 865 864 873 865 914 874 903 857 915 874 866 915 866 875 916 867 876 868 867 916 875 828 877 877 868 917 869 918 870 870 919 876 833 882 878 879 829 878 880 830 879 880 881 831 883 882 834 884 883 835 885 884 836 886 885 837 838 887 886 839 888 887 840 889 888 841 890 889 842 891 890 891 843 892 893 892 844 871 920 893 894 920 871 894 846 895 872 921 895 872 896 921 922 896 873 848 898 897 904 854 897 899 898 849 900 899 850 901 900 851 902 901 852 902 853 903 904 905 855 856 905 906 907 858 906 907 908 859 860 908 909 910 861 909 911 862 910 863 911 912 912 913 864 914 865 913 922 873 914 874 923 903 915 923 874 924 915 875 919 916 876 868 916 917 924 875 877 925 877 917 918 919 870 882 926 878 927 879 878 880 879 928 929 881 880 883 930 882 884 931 883 932 884 885 886 933 885 886 887 934 887 888 935 888 889 936 889 890 937 890 891 938 891 892 939 940 892 893 920 941 893 942 920 894 942 894 895 895 921 943 896 944 921 922 944 896 898 945 897 946 904 897 899 947 898 900 948 899 901 949 900 902 950 901 951 902 903 952 905 904 905 953 906 954 907 906 907 955 908 908 956 909 957 910 909 911 910 958 912 911 959 912 960 913 961 914 913 962 922 914 923 951 903 963 923 915 963 915 924 916 919 964 916 965 917 925 924 877 925 917 966 918 967 919 882 930 926 926 927 878 879 927 928 968 880 928 929 880 968 883 931 930 932 931 884 933 932 885 886 934 933 934 887 935 888 936 935 936 889 937 890 938 937 891 939 938 939 892 940 941 940 893 969 941 920 969 920 942 942 895 943 921 970 943 944 970 921 922 971 944 947 945 898 945 946 897 952 904 946 899 948 947 900 949 948 901 950 949 951 950 902 952 953 905 953 954 906 954 955 907 955 956 908 956 957 909 910 957 958 959 911 958 912 959 960 960 961 913 961 962 914 962 971 922 972 951 923 972 923 963 963 924 973 919 967 964 916 964 965 917 965 966 973 924 925 974 925 966 926 930 975 926 976 927 927 977 928 977 968 928 978 929 968 930 931 979 932 980 931 933 981 932 933 934 982 983 934 935 935 936 984 985 936 937 938 986 937 939 987 938 939 940 988 989 940 941 990 941 969 969 942 991 991 942 943 943 970 992 944 993 970 944 971 993 994 945 947 945 995 946 996 952 946 947 948 997 948 949 998 949 950 999 951 1000 950 952 1001 953 1002 954 953 954 1003 955 955 1004 956 956 1005 957 957 1006 958 1007 959 958 960 959 1008 960 1009 961 961 1010 962 962 1011 971 972 1000 951 972 963 1012 963 973 1012 967 1013 964 965 964 1014 965 1015 966 973 925 974 1015 974 966 975 930 979 926 975 976 927 976 977 1016 968 977 1016 978 968 931 980 979 932 981 980 933 982 981 982 934 983 983 935 984 936 985 984 986 985 937 987 986 938 939 988 987 988 940 989 989 941 990 990 969 1017 1017 969 991 991 943 992 970 1018 992 970 993 1018 993 971 1019 994 995 945 994 947 997 995 996 946 996 1001 952 997 948 998 949 999 998 950 1000 999 1001 1002 953 1002 1003 954 955 1003 1004 956 1004 1005 1005 1006 957 1006 1007 958 1008 959 1007 960 1008 1009 961 1009 1010 962 1010 1011 971 1011 1019 1020 1000 972 1020 972 1012 1012 973 1021 964 1013 1014 965 1014 1015 1021 973 974 974 1015 1022 975 979 1023 976 975 1024 976 1025 977 1025 1016 977 1026 978 1016 980 1027 979 980 981 1028 981 982 1029 982 983 1030 1031 983 984 984 985 1032 986 1033 985 987 1034 986 987 988 1035 988 989 1036 989 990 1037 990 1017 1038 1039 1017 991 1039 991 992 992 1018 1040 1018 993 1041 993 1019 1041 994 1042 995 1043 994 997 995 1044 996 996 1045 1001 1046 997 998 999 1047 998 1000 1048 999 1001 1049 1002 1002 1050 1003 1004 1003 1051 1005 1004 1052 1006 1005 1053 1054 1007 1006 1008 1007 1055 1009 1008 1056 1010 1009 1057 1011 1010 1058 1011 1059 1019 1020 1048 1000 1060 1020 1012 1060 1012 1021 1013 1061 1014 1014 1062 1015 1063 1021 974 1015 1064 1022 1063 974 1022 1024 975 1023 979 1027 1023 976 1024 1025 1016 1025 1065 1026 1016 1065 980 1028 1027 1028 981 1029 982 1030 1029 1030 983 1031 1031 984 1032 985 1033 1032 986 1034 1033 987 1035 1034 1035 988 1036 989 1037 1036 990 1038 1037 1038 1017 1066 1066 1017 1039 1039 992 1040 1018 1067 1040 1067 1018 1041 1019 1068 1041 1043 1042 994 995 1042 1044 1043 997 1046 996 1044 1045 1001 1045 1049 1047 1046 998 1048 1047 999 1002 1049 1050 1003 1050 1051 1052 1004 1051 1005 1052 1053 1054 1006 1053 1055 1007 1054 1008 1055 1056 1009 1056 1057 1058 1010 1057 1011 1058 1059 1059 1068 1019 1069 1048 1020 1069 1020 1060 1070 1060 1021 1061 1062 1014 1015 1062 1064 1063 1070 1021 1022 1064 1071 1063 1022 1071 1072 1024 1023 1023 1027 1073 1025 1024 1074 1025 1074 1065 1075 1026 1065 1027 1028 1076 1077 1028 1029 1029 1030 1078 1030 1031 1079 1031 1032 1080 1033 1081 1032 1034 1082 1033 1034 1035 1083 1084 1035 1036 1037 1085 1036 1038 1086 1037 1038 1066 1087 1066 1039 1088 1039 1040 1088 1067 1089 1040 1090 1067 1041 1068 1090 1041 1043 1091 1042 1044 1042 1092 1093 1043 1046 1045 1044 1094 1049 1045 1095 1047 1096 1046 1097 1047 1048 1050 1049 1098 1050 1099 1051 1052 1051 1100 1052 1101 1053 1102 1054 1053 1055 1054 1103 1055 1104 1056 1057 1056 1105 1106 1058 1057 1059 1058 1107 1059 1108 1068 1097 1048 1069 1069 1060 1109 1109 1060 1070 1061 1110 1062 1064 1062 1111 1112 1070 1063 1064 1111 1071 1112 1063 1071 1074 1024 1072 1072 1023 1073 1027 1076 1073 1074 1113 1065 1113 1075 1065 1076 1028 1077 1077 1029 1078 1030 1079 1078 1079 1031 1080 1032 1081 1080 1082 1081 1033 1034 1083 1082 1083 1035 1084 1085 1084 1036 1086 1085 1037 1038 1087 1086 1087 1066 1114 1114 1066 1088 1040 1089 1088 1115 1089 1067 1090 1115 1067 1116 1090 1068 1093 1091 1043 1042 1091 1092 1044 1092 1094 1096 1093 1046 1095 1045 1094 1049 1095 1098 1097 1096 1047 1099 1050 1098 1051 1099 1100 1101 1052 1100 1101 1102 1053 1103 1054 1102 1055 1103 1104 1056 1104 1105 1106 1057 1105 1107 1058 1106 1059 1107 1108 1108 1116 1068 1097 1069 1117 1069 1109 1117 1109 1070 1118 1062 1110 1111 1118 1070 1112 1111 1119 1071 1119 1112 1071 1120 1074 1072 1121 1072 1073 1076 1122 1073 1120 1113 1074 1123 1075 1113 1076 1077 1124 1125 1077 1078 1078 1079 1126 1127 1079 1080 1081 1128 1080 1082 1129 1081 1082 1083 1130 1131 1083 1084 1084 1085 1132 1086 1133 1085 1086 1087 1134 1087 1114 1135 1114 1088 1136 1088 1089 1136 1115 1137 1089 1090 1138 1115 1116 1138 1090 1093 1139 1091 1091 1140 1092 1092 1141 1094 1142 1093 1096 1143 1095 1094 1095 1144 1098 1145 1096 1097 1146 1099 1098 1099 1147 1100 1148 1101 1100 1149 1102 1101 1103 1102 1150 1104 1103 1151 1105 1104 1152 1153 1106 1105 1107 1106 1154 1108 1107 1155 1108 1156 1116 1145 1097 1117 1109 1157 1117 1109 1118 1157 1110 1158 1111 1118 1112 1159 1119 1111 1160 1159 1112 1119 1121 1120 1072 1122 1121 1073 1076 1124 1122 1113 1120 1161 1123 1113 1161 1124 1077 1125 1125 1078 1126 1079 1127 1126 1128 1127 1080 1081 1129 1128 1082 1130 1129 1130 1083 1131 1131 1084 1132 1085 1133 1132 1086 1134 1133 1087 1135 1134 1135 1114 1162 1162 1114 1136 1089 1137 1136 1163 1137 1115 1138 1163 1115 1116 1164 1138 1142 1139 1093 1091 1139 1140 1140 1141 1092 1141 1143 1094 1142 1096 1145 1144 1095 1143 1144 1146 1098 1146 1147 1099 1147 1148 1100 1149 1101 1148 1150 1102 1149 1103 1150 1151 1104 1151 1152 1153 1105 1152 1106 1153 1154 1155 1107 1154 1108 1155 1156 1116 1156 1164 1145 1117 1165 1117 1157 1165 1157 1118 1166 1111 1158 1160 1118 1159 1166 1119 1160 1167 1159 1119 1167 1121 1168 1120 1122 1169 1121 1122 1124 1170 1120 1171 1161 1172 1123 1161 1124 1125 1173 1174 1125 1126 1127 1175 1126 1176 1127 1128 1129 1177 1128 1129 1130 1178 1130 1131 1179 1180 1131 1132 1133 1181 1132 1133 1134 1182 1135 1183 1134 1184 1135 1162 1185 1162 1136 1137 1185 1136 1163 1186 1137 1138 1187 1163 1138 1164 1187 1188 1139 1142 1139 1189 1140 1190 1141 1140 1141 1191 1143 1142 1145 1192 1193 1144 1143 1144 1194 1146 1146 1195 1147 1147 1196 1148 1197 1149 1148 1150 1149 1198 1150 1199 1151 1152 1151 1200 1201 1153 1152 1153 1202 1154 1203 1155 1154 1156 1155 1204 1164 1156 1205 1192 1145 1165 1165 1157 1206 1206 1157 1166 1158 1207 1160 1166 1159 1208 1160 1209 1167 1208 1159 1167 1121 1169 1168 1120 1168 1171 1122 1170 1169 1170 1124 1173 1171 1210 1161 1210 1172 1161 1125 1174 1173 1175 1174 1126 1176 1175 1127 1177 1176 1128 1129 1178 1177 1178 1130 1179 1131 1180 1179 1181 1180 1132 1181 1133 1182 1134 1183 1182 1184 1183 1135 1184 1162 1211 1211 1162 1185 1137 1186 1185 1163 1212 1186 1163 1187 1212 1187 1164 1213 1188 1189 1139 1188 1142 1192 1189 1190 1140 1190 1191 1141 1191 1193 1143 1193 1194 1144 1146 1194 1195 1147 1195 1196 1196 1197 1148 1198 1149 1197 1150 1198 1199 1151 1199 1200 1201 1152 1200 1201 1202 1153 1202 1203 1154 1204 1155 1203 1156 1204 1205 1164 1205 1213 1214 1192 1165 1214 1165 1206 1215 1206 1166 1207 1209 1160 1215 1166 1208 1209 1216 1167 1216 1208 1167 1168 1169 1217 1171 1168 1218 1169 1170 1219 1220 1170 1173 1171 1218 1210 1221 1172 1210 1174 1222 1173 1175 1223 1174 1224 1175 1176 1177 1225 1176 1177 1178 1226 1178 1179 1227 1180 1228 1179 1181 1229 1180 1230 1181 1182 1182 1183 1231 1184 1232 1183 1233 1184 1211 1234 1211 1185 1186 1234 1185 1186 1212 1235 1212 1187 1236 1236 1187 1213 1237 1189 1188 1238 1188 1192 1239 1190 1189 1240 1191 1190 1191 1241 1193 1242 1194 1193 1194 1243 1195 1195 1244 1196 1245 1197 1196 1198 1197 1246 1199 1198 1247 1200 1199 1248 1249 1201 1200 1250 1202 1201 1251 1203 1202 1204 1203 1252 1204 1253 1205 1205 1254 1213 1214 1238 1192 1255 1214 1206 1215 1255 1206 1207 1256 1209 1257 1215 1208 1209 1258 1216 1216 1257 1208 1169 1219 1217 1168 1217 1218 1219 1170 1220 1222 1220 1173 1218 1259 1210 1259 1221 1210 1174 1223 1222 1224 1223 1175 1225 1224 1176 1177 1226 1225 1226 1178 1227 1179 1228 1227 1229 1228 1180 1230 1229 1181 1230 1182 1231 1183 1232 1231 1233 1232 1184 1260 1233 1211 1234 1260 1211 1186 1235 1234 1235 1212 1261 1212 1236 1261 1236 1213 1262 1239 1189 1237 1237 1188 1238 1240 1190 1239 1240 1241 1191 1241 1242 1193 1242 1243 1194 1243 1244 1195 1244 1245 1196 1246 1197 1245 1198 1246 1247 1199 1247 1248 1249 1200 1248 1250 1201 1249 1251 1202 1250 1252 1203 1251 1204 1252 1253 1253 1254 1205 1213 1254 1262 1263 1238 1214 1255 1263 1214 1264 1255 1215 1209 1256 1258 1264 1215 1257 1216 1258 1265 1257 1216 1265 1219 1266 1217 1218 1217 1267 1219 1220 1268 1220 1222 1269 1259 1218 1267 1270 1221 1259 1223 1271 1222 1224 1272 1223 1225 1273 1224 1225 1226 1274 1275 1226 1227 1227 1228 1276 1229 1277 1228 1230 1278 1229 1279 1230 1231 1232 1280 1231 1233 1281 1232 1260 1282 1233 1234 1283 1260 1234 1235 1283 1284 1235 1261 1236 1285 1261 1285 1236 1262 1239 1237 1286 1237 1238 1287 1240 1239 1288 1289 1241 1240 1290 1242 1241 1291 1243 1242 1292 1244 1243 1293 1245 1244 1246 1245 1294 1246 1295 1247 1247 1296 1248 1297 1249 1248 1250 1249 1298 1251 1250 1299 1252 1251 1300 1253 1252 1301 1253 1302 1254 1254 1303 1262 1287 1238 1263 1304 1263 1255 1304 1255 1264 1256 1305 1258 1264 1257 1306 1258 1307 1265 1308 1257 1265 1219 1268 1266 1217 1266 1267 1268 1220 1269 1222 1271 1269 1309 1259 1267 1270 1259 1309 1223 1272 1271 1224 1273 1272 1225 1274 1273 1274 1226 1275 1275 1227 1276 1228 1277 1276 1229 1278 1277 1279 1278 1230 1280 1279 1231 1232 1281 1280 1233 1282 1281 1260 1310 1282 1260 1283 1310 1283 1235 1284 1284 1261 1311 1261 1285 1311 1312 1285 1262 1288 1239 1286 1237 1287 1286 1289 1240 1288 1290 1241 1289 1291 1242 1290 1292 1243 1291 1293 1244 1292 1294 1245 1293 1246 1294 1295 1295 1296 1247 1296 1297 1248 1249 1297 1298 1250 1298 1299 1251 1299 1300 1301 1252 1300 1253 1301 1302 1302 1303 1254 1303 1312 1262 1287 1263 1313 1313 1263 1304 1304 1264 1314 1258 1305 1307 1314 1264 1306 1257 1308 1306 1307 1308 1265 1266 1268 1315 1266 1316 1267 1317 1268 1269 1269 1271 1318 1316 1309 1267 1319 1270 1309 1272 1320 1271 1273 1321 1272 1273 1274 1322 1274 1275 1323 1324 1275 1276 1277 1325 1276 1277 1278 1326 1279 1327 1278 1280 1328 1279 1280 1281 1329 1281 1282 1330 1282 1310 1331 1310 1283 1332 1283 1284 1332 1284 1311 1333 1285 1334 1311 1312 1334 1285 1288 1286 1335 1287 1336 1286 1289 1288 1337 1290 1289 1338 1291 1290 1339 1292 1291 1340 1293 1292 1341 1294 1293 1342 1294 1343 1295 1344 1296 1295 1296 1345 1297 1297 1346 1298 1298 1347 1299 1299 1348 1300 1301 1300 1349 1302 1301 1350 1351 1303 1302 1303 1352 1312 1287 1313 1336 1313 1304 1353 1304 1314 1353 1305 1354 1307 1355 1314 1306 1308 1355 1306 1307 1356 1308 1315 1268 1317 1266 1315 1316 1317 1269 1318 1271 1320 1318 1316 1357 1309 1357 1319 1309 1321 1320 1272 1273 1322 1321 1322 1274 1323 1275 1324 1323 1325 1324 1276 1325 1277 1326 1278 1327 1326 1279 1328 1327 1280 1329 1328 1329 1281 1330 1282 1331 1330 1331 1310 1358 1358 1310 1332 1332 1284 1333 1311 1359 1333 1334 1359 1311 1360 1334 1312 1337 1288 1335 1286 1336 1335 1338 1289 1337 1339 1290 1338 1291 1339 1340 1341 1292 1340 1342 1293 1341 1294 1342 1343 1343 1344 1295 1344 1345 1296 1345 1346 1297 1346 1347 1298 1347 1348 1299 1300 1348 1349 1350 1301 1349 1351 1302 1350 1351 1352 1303 1352 1360 1312 1336 1313 1361 1361 1313 1353 1314 1362 1353 1354 1356 1307 1314 1355 1362 1308 1356 1355 1315 1317 1363 1316 1315 1364 1365 1317 1318 1320 1366 1318 1357 1316 1364 1367 1319 1357 1321 1368 1320 1321 1322 1369 1322 1323 1370 1324 1371 1323 1325 1372 1324 1373 1325 1326 1327 1374 1326 1327 1328 1375 1328 1329 1376 1329 1330 1377 1331 1378 1330 1331 1358 1379 1380 1358 1332 1380 1332 1333 1333 1359 1381 1334 1382 1359 1360 1382 1334 1383 1337 1335 1335 1336 1384 1385 1338 1337 1386 1339 1338 1340 1339 1387 1388 1341 1340 1389 1342 1341 1343 1342 1390 1343 1391 1344 1392 1345 1344 1393 1346 1345 1346 1394 1347 1347 1395 1348 1348 1396 1349 1397 1350 1349 1398 1351 1350 1351 1399 1352 1352 1400 1360 1336 1361 1384 1361 1353 1401 1353 1362 1401 1354 1402 1356 1362 1355 1403 1355 1356 1404 1315 1363 1364 1363 1317 1365 1366 1365 1318 1320 1368 1366 1357 1364 1405 1367 1357 1406 1321 1369 1368 1369 1322 1370 1323 1371 1370 1324 1372 1371 1373 1372 1325 1374 1373 1326 1327 1375 1374 1375 1328 1376 1376 1329 1377 1330 1378 1377 1331 1379 1378 1379 1358 1407 1407 1358 1380 1380 1333 1381 1359 1408 1381 1382 1408 1359 1360 1409 1382 1383 1385 1337 1383 1335 1384 1385 1386 1338 1339 1386 1387 1388 1340 1387 1388 1389 1341 1390 1342 1389 1343 1390 1391 1391 1392 1344 1392 1393 1345 1393 1394 1346 1347 1394 1395 1395 1396 1348 1396 1397 1349 1398 1350 1397 1398 1399 1351 1352 1399 1400 1360 1400 1409 1384 1361 1410 1410 1361 1401 1401 1362 1411 1356 1402 1404 1355 1404 1403 1362 1403 1411 1363 1412 1364 1363 1365 1413 1414 1365 1366 1368 1415 1366 1357 1405 1406 1364 1412 1405 1416 1367 1406 1368 1369 1417 1418 1369 1370 1370 1371 1419 1371 1372 1420 1373 1421 1372 1374 1422 1373 1374 1375 1423 1424 1375 1376 1425 1376 1377 1377 1378 1426 1378 1379 1427 1379 1407 1428 1407 1380 1429 1429 1380 1381 1408 1430 1381 1382 1431 1408 1382 1409 1431 1432 1385 1383 1433 1383 1384 1385 1434 1386 1386 1435 1387 1436 1388 1387 1388 1437 1389 1438 1390 1389 1391 1390 1439 1391 1440 1392 1392 1441 1393 1393 1442 1394 1394 1443 1395 1444 1396 1395 1396 1445 1397 1446 1398 1397 1398 1447 1399 1400 1399 1448 1409 1400 1449 1433 1384 1410 1450 1410 1401 1450 1401 1411 1402 1451 1404 1404 1452 1403 1403 1453 1411 1363 1413 1412 1365 1414 1413 1415 1414 1366 1368 1417 1415 1405 1454 1406 1405 1412 1455 1454 1416 1406 1417 1369 1418 1418 1370 1419 1371 1420 1419 1372 1421 1420 1373 1422 1421 1374 1423 1422 1423 1375 1424 1425 1424 1376 1425 1377 1426 1378 1427 1426 1427 1379 1428 1428 1407 1456 1407 1429 1456 1430 1429 1381 1408 1457 1430 1408 1431 1457 1431 1409 1458 1432 1434 1385 1432 1383 1433 1434 1435 1386 1435 1436 1387 1436 1437 1388 1437 1438 1389 1439 1390 1438 1391 1439 1440 1392 1440 1441 1393 1441 1442 1394 1442 1443 1443 1444 1395 1444 1445 1396 1445 1446 1397 1446 1447 1398 1399 1447 1448 1449 1400 1448 1409 1449 1458 1459 1433 1410 1450 1459 1410 1450 1411 1460 1451 1452 1404 1452 1453 1403 1411 1453 1460 1413 1461 1412 1414 1462 1413 1415 1463 1414 1415 1417 1464 1454 1405 1455 1412 1461 1455 1465 1416 1454 1417 1418 1466 1467 1418 1419 1420 1468 1419 1421 1469 1420 1421 1422 1470 1422 1423 1471 1423 1424 1472 1473 1424 1425 1474 1425 1426 1426 1427 1475 1476 1427 1428 1477 1428 1456 1429 1478 1456 1430 1478 1429 1430 1457 1479 1457 1431 1480 1480 1431 1458 1432 1481 1434 1482 1432 1433 1434 1483 1435 1435 1484 1436 1437 1436 1485 1486 1438 1437 1439 1438 1487 1440 1439 1488 1441 1440 1489 1442 1441 1490 1443 1442 1491 1443 1492 1444 1444 1493 1445 1445 1494 1446 1446 1495 1447 1447 1496 1448 1449 1448 1497 1458 1449 1498 1459 1482 1433 1499 1459 1450 1499 1450 1460 1451 1500 1452 1452 1501 1453 1460 1453 1502 1462 1461 1413 1414 1463 1462 1415 1464 1463 1464 1417 1466 1503 1454 1455 1461 1503 1455 1465 1454 1504 1418 1467 1466 1468 1467 1419 1469 1468 1420 1421 1470 1469 1470 1422 1471 1423 1472 1471 1472 1424 1473 1473 1425 1474 1474 1426 1475 1427 1505 1475 1505 1427 1476 1477 1476 1428 1478 1477 1456 1478 1430 1479 1457 1506 1479 1457 1480 1506 1507 1480 1458 1482 1481 1432 1434 1481 1483 1483 1484 1435 1436 1484 1485 1486 1437 1485 1487 1438 1486 1439 1487 1488 1489 1440 1488 1441 1489 1490 1491 1442 1490 1443 1491 1492 1444 1492 1493 1445 1493 1494 1446 1494 1495 1447 1495 1496 1448 1496 1497 1449 1497 1498 1507 1458 1498 1508 1482 1459 1508 1459 1499 1509 1499 1460 1452 1500 1501 1453 1501 1502 1509 1460 1502 1510 1461 1462 1463 1511 1462 1463 1464 1512 1513 1464 1466 1454 1503 1504 1510 1503 1461 1514 1465 1504 1466 1467 1515 1468 1516 1467 1469 1517 1468 1469 1470 1518 1519 1470 1471 1471 1472 1520 1472 1473 1521 1473 1474 1522 1523 1474 1475 1505 1523 1475 1524 1505 1476 1525 1476 1477 1526 1477 1478 1527 1478 1479 1479 1506 1528 1506 1480 1529 1530 1480 1507 1531 1481 1482 1481 1532 1483 1533 1484 1483 1484 1534 1485 1535 1486 1485 1487 1486 1536 1487 1537 1488 1489 1488 1538 1490 1489 1539 1540 1491 1490 1492 1491 1541 1493 1492 1542 1494 1493 1543 1495 1494 1544 1496 1495 1545 1496 1546 1497 1497 1547 1498 1507 1498 1548 1531 1482 1508 1508 1499 1549 1549 1499 1509 1500 1550 1501 1501 1551 1502 1551 1509 1502 1511 1510 1462 1463 1512 1511 1512 1464 1513 1513 1466 1515 1504 1503 1552 1510 1553 1503 1554 1514 1504 1467 1516 1515 1468 1517 1516 1469 1518 1517 1518 1470 1519 1519 1471 1520 1472 1521 1520 1521 1473 1522 1522 1474 1523 1505 1555 1523 1524 1555 1505 1524 1476 1525 1525 1477 1526 1527 1526 1478 1527 1479 1528 1506 1556 1528 1480 1530 1529 1556 1506 1529 1530 1507 1557 1531 1532 1481 1532 1533 1483 1533 1534 1484 1534 1535 1485 1536 1486 1535 1487 1536 1537 1488 1537 1538 1489 1538 1539 1540 1490 1539 1541 1491 1540 1492 1541 1542 1543 1493 1542 1494 1543 1544 1545 1495 1544 1496 1545 1546 1546 1547 1497 1498 1547 1548 1557 1507 1548 1531 1508 1558 1508 1549 1558 1549 1509 1559 1501 1550 1551 1509 1551 1559 1511 1560 1510 1511 1512 1561 1512 1513 1562 1513 1515 1563 1503 1553 1552 1554 1504 1552 1510 1560 1553 1564 1514 1554 1516 1565 1515 1516 1517 1566 1517 1518 1567 1518 1519 1568 1569 1519 1520 1521 1569 1520 1521 1522 1570 1571 1522 1523 1555 1571 1523 1524 1572 1555 1573 1524 1525 1574 1525 1526 1527 1575 1526 1576 1527 1528 1556 1576 1528 1530 1577 1529 1577 1556 1529 1578 1530 1557 1579 1532 1531 1580 1533 1532 1581 1534 1533 1582 1535 1534 1536 1535 1583 1536 1584 1537 1537 1585 1538 1538 1586 1539 1540 1539 1587 1541 1540 1588 1541 1589 1542 1543 1542 1590 1544 1543 1591 1592 1545 1544 1546 1545 1593 1546 1594 1547 1547 1595 1548 1595 1557 1548 1579 1531 1558 1558 1549 1596 1597 1549 1559 1550 1598 1551 1551 1599 1559 1511 1561 1560 1561 1512 1562 1562 1513 1563 1515 1565 1563 1553 1600 1552 1600 1554 1552 1553 1560 1601 1602 1564 1554 1516 1566 1565 1566 1517 1567 1518 1568 1567 1568 1519 1603 1519 1569 1603 1569 1521 1570 1522 1604 1570 1571 1604 1522 1605 1571 1555 1573 1572 1524 1572 1605 1555 1574 1573 1525 1575 1574 1526 1576 1575 1527 1578 1577 1530 1606 1578 1557 1580 1532 1579 1581 1533 1580 1582 1534 1581 1583 1535 1582 1536 1583 1584 1584 1585 1537 1585 1586 1538 1539 1586 1587 1588 1540 1587 1541 1588 1589 1542 1589 1590 1543 1590 1591 1592 1544 1591 1593 1545 1592 1546 1593 1594 1594 1595 1547 1595 1606 1557 1607 1579 1558 1549 1597 1596 1607 1558 1596 1599 1597 1559 1598 1599 1551 1560 1561 1608 1609 1561 1562 1610 1562 1563 1563 1565 1611 1553 1601 1600 1602 1554 1600 1560 1608 1601 1612 1564 1602 1565 1566 1613 1614 1566 1567 1567 1568 1615 1616 1568 1603 1569 1617 1603 1618 1569 1570 1604 1618 1570 1619 1604 1571 1605 1619 1571 1580 1579 1620 1581 1580 1621 1582 1581 1622 1583 1582 1623 1584 1583 1624 1584 1625 1585 1585 1626 1586 1586 1627 1587 1628 1588 1587 1589 1588 1629 1589 1630 1590 1590 1631 1591 1592 1591 1632 1593 1592 1633 1594 1593 1634 1595 1594 1635 1636 1606 1595 1579 1607 1620 1597 1637 1596 1637 1607 1596 1599 1638 1597 1598 1639 1599 1608 1561 1609 1610 1609 1562 1610 1563 1611 1565 1613 1611 1601 1640 1600 1640 1602 1600 1608 1641 1601 1612 1602 1642 1613 1566 1614 1614 1567 1615 1568 1616 1615 1617 1616 1603 1618 1617 1569 1604 1643 1618 1619 1643 1604 1621 1580 1620 1581 1621 1622 1623 1582 1622 1624 1583 1623 1584 1624 1625 1585 1625 1626 1626 1627 1586 1627 1628 1587 1588 1628 1629 1630 1589 1629 1630 1631 1590 1591 1631 1632 1633 1592 1632 1593 1633 1634 1644 1594 1634 1636 1595 1635 1594 1644 1635 1607 1645 1620 1637 1597 1646 1637 1645 1607 1599 1639 1638 1597 1638 1646 1608 1609 1647 1648 1609 1610 1649 1610 1611 1611 1613 1650 1601 1641 1640 1642 1602 1640 1608 1647 1641 1651 1612 1642 1613 1614 1652 1653 1614 1615 1616 1653 1615 1617 1654 1616 1655 1617 1618 1643 1655 1618 1656 1621 1620 1622 1621 1657 1658 1623 1622 1659 1624 1623 1625 1624 1660 1625 1661 1626 1662 1627 1626 1627 1663 1628 1628 1664 1629 1665 1630 1629 1630 1666 1631 1631 1667 1632 1633 1632 1668 1633 1669 1634 1669 1644 1634 1670 1636 1635 1644 1670 1635 1645 1656 1620 1637 1646 1671 1672 1645 1637 1639 1673 1638 1638 1674 1646 1647 1609 1648 1648 1610 1649 1649 1611 1650 1650 1613 1652 1641 1675 1640 1675 1642 1640 1641 1647 1676 1651 1642 1677 1614 1678 1652 1614 1653 1678 1679 1653 1616 1655 1654 1617 1654 1679 1616 1621 1656 1657 1658 1622 1657 1658 1659 1623 1660 1624 1659 1625 1660 1661 1661 1662 1626 1662 1663 1627 1663 1664 1628 1664 1665 1629 1665 1666 1630 1631 1666 1667 1632 1667 1668 1669 1633 1668 1669 1680 1644 1680 1670 1644 1645 1681 1656 1672 1637 1671 1646 1674 1671 1672 1681 1645 1673 1674 1638 1647 1648 1682 1648 1649 1683 1684 1649 1650 1685 1650 1652 1641 1676 1675 1642 1675 1677 1676 1647 1682 1686 1651 1677 1678 1685 1652 1653 1687 1678 1679 1687 1653 1656 1688 1657 1689 1658 1657 1658 1690 1659 1691 1660 1659 1661 1660 1692 1661 1693 1662 1662 1694 1663 1663 1695 1664 1664 1696 1665 1665 1697 1666 1667 1666 1698 1668 1667 1699 1700 1669 1668 1701 1680 1669 1681 1688 1656 1702 1672 1671 1674 1702 1671 1703 1681 1672 1673 1704 1674 1648 1683 1682 1683 1649 1684 1685 1684 1650 1676 1705 1675 1675 1705 1677 1706 1676 1682 1686 1677 1707 1708 1685 1678 1687 1708 1678 1688 1689 1657 1689 1690 1658 1690 1691 1659 1692 1660 1691 1661 1692 1693 1662 1693 1694 1663 1694 1695 1664 1695 1696 1665 1696 1697 1666 1697 1698 1667 1698 1699 1700 1668 1699 1701 1669 1700 1681 1709 1688 1703 1672 1702 1674 1704 1702 1703 1709 1681 1683 1706 1682 1710 1683 1684 1685 1711 1684 1705 1676 1712 1677 1705 1707 1676 1706 1712 1713 1686 1707 1708 1711 1685 1714 1689 1688 1689 1715 1690 1716 1691 1690 1692 1691 1717 1693 1692 1718 1694 1693 1719 1695 1694 1720 1696 1695 1721 1697 1696 1722 1697 1723 1698 1698 1724 1699 1724 1700 1699 1725 1701 1700 1709 1714 1688 1726 1703 1702 1704 1727 1702 1728 1709 1703 1729 1706 1683 1710 1729 1683 1711 1710 1684 1730 1705 1712 1705 1731 1707 1706 1732 1712 1731 1713 1707 1714 1715 1689 1715 1716 1690 1717 1691 1716 1692 1717 1718 1693 1718 1719 1720 1694 1719 1695 1720 1721 1722 1696 1721 1697 1722 1723 1698 1723 1733 1724 1698 1733 1724 1725 1700 1734 1714 1709 1726 1728 1703 1727 1726 1702 1734 1709 1728 1729 1732 1706 1730 1731 1705 1732 1730 1712 1735 1715 1714 1736 1716 1715 1717 1716 1737 1717 1738 1718 1718 1739 1719 1720 1719 1740 1721 1720 1741 1722 1721 1742 1723 1722 1743 1723 1744 1733 1745 1724 1733 1745 1725 1724 1735 1714 1734 1728 1726 1746 1727 1747 1726 1734 1728 1748 1736 1715 1735 1737 1716 1736 1717 1737 1738 1738 1739 1718 1719 1739 1740 1720 1740 1741 1721 1741 1742 1743 1722 1742 1744 1723 1743 1744 1749 1733 1749 1745 1733 1735 1734 1750 1726 1747 1746 1748 1728 1746 1734 1748 1750 1736 1735 1751 1737 1736 1752 1738 1737 1753 1738 1754 1739 1739 1755 1740 1740 1756 1741 1741 1757 1742 1757 1743 1742 1758 1744 1743 1759 1749 1744 1751 1735 1750 1747 1760 1746 1748 1746 1761 1748 1762 1750 1736 1751 1752 1753 1737 1752 1738 1753 1754 1754 1755 1739 1755 1756 1740 1741 1756 1763 1757 1741 1763 1757 1758 1743 1759 1744 1758 1751 1750 1764 1746 1760 1761 1762 1748 1761 1750 1762 1764 1752 1751 1765 1766 1753 1752 1754 1753 1767 1754 1768 1755 1755 1769 1756 1756 1770 1763 1771 1757 1763 1771 1758 1757 1772 1759 1758 1765 1751 1764 1760 1773 1761 1774 1762 1761 1762 1775 1764 1766 1752 1765 1767 1753 1766 1754 1767 1768 1755 1768 1769 1756 1769 1770 1770 1771 1763 1771 1772 1758 1775 1765 1764 1773 1774 1761 1774 1775 1762 1776 1766 1765 1767 1766 1777 1768 1767 1778 1769 1768 1779 1769 1780 1770 1781 1771 1770 1781 1772 1771 1765 1775 1782 1773 1783 1774 1774 1784 1775 1777 1766 1776 1776 1765 1782 1767 1777 1778 1779 1768 1778 1780 1769 1779 1780 1785 1770 1785 1781 1770 1775 1784 1782 1774 1783 1784 1777 1776 1786 1776 1782 1787 1777 1788 1778 1779 1778 1789 1780 1779 1790 1791 1785 1780 1784 1792 1782 1783 1793 1784 1777 1786 1788 1786 1776 1787 1782 1792 1787 1778 1788 1789 1790 1779 1789 1791 1780 1790 1793 1792 1784 1788 1786 1794 1795 1786 1787 1792 1795 1787 1789 1788 1796 1797 1790 1789 1798 1791 1790 1793 1799 1792 1794 1786 1795 1788 1794 1796 1795 1792 1800 1797 1789 1796 1797 1798 1790 1792 1799 1800 1794 1795 1801 1794 1802 1796 1803 1795 1800 1802 1797 1796 1804 1798 1797 1799 1805 1800 1806 1794 1801 1795 1803 1801 1794 1806 1802 1805 1803 1800 1804 1797 1802 1803 1806 1801 1806 1807 1802 1805 1808 1803 1807 1804 1802 1806 1803 1809 1810 1807 1806 1803 1808 1809 1810 1806 1809 1808 1811 1809 1811 1810 1809 </DataArray>
        <DataArray type="Int32" Name="offsets" format="ascii">3 6 9 12 15 18 21 24 27 30 33 36 39 42 45 48 51 54 57 60 63 66 69 72 75 78 81 84 87 90 93 96 99 102 105 108 111 114 117 120 123 126 129 132 135 138 141 144 147 150 153 156 159 162 165 168 171 174 177 180 183 186 189 192 195 198 201 204 207 210 213 216 219 222 225 228 231 234 237 240 243 246 249 252 255 258 261 264 267 270 273 276 279 282 285 288 291 294 297 300 303 306 309 312 315 318 321 324 327 330 333 336 339 342 345 348 351 354 357 360 363 366 369 372 375 378 381 384 387 390 393 396 399 402 405 408 411 414 417 420 423 426 429 432 435 438 441 444 447 450 453 456 459 462 465 468 471 474 477 480 483 486 489 492 495 498 501 504 507 510 513 516 519 522 525 528 531 534 537 540 543 546 549 552 555 558 561 564 567 570 573 576 579 582 585 588 591 594 597 600 603 606 609 612 615 618 621 624 627 630 633 636 639 642 645 648 651 654 657 660 663 666 669 672 675 678 681 684 687 690 693 696 699 702 705 708 711 714 717 720 723 726 729 732 735 738 741 744 747 750 753 756 759 762 765 768 771 774 777 780 783 786 789 792 795 798 801 804 807 810 813 816 819 822 825 828 831 834 837 840 843 846 849 852 855 858 861 864 867 870 873 876 879 882 885 888 891 894 897 900 903 906 909 912 915 918 921 924 927 930 933 936 939 942 945 948 951 954 957 960 963 966 969 972 975 978 981 984 987 990 993 996 999 1002 1005 1008 1011 1014 1017 1020 1023 1026 1029 1032 1035 1038 1041 1044 1047 1050 1053 1056 1059 1062 1065 1068 1071 1074 1077 1080 1083 1086 1089 1092 1095 1098 1101 1104 1107 1110 1113 1116 1119 1122 1125 1128 1131 1134 1137 1140 1143 1146 1149 1152 1155 1158 1161 1164 1167 1170 1173 1176 1179 1182 1185 1188 1191 1194 1197 1200 1203 1206 1209 1212 1215 1218 1221 1224 1227 1230 1233 1236 1239 1242 1245 1248 1251 1254 1257 1260 1263 1266 1269 1272 1275 1278 1281 1284 1287 1290 1293 1296 1299 1302 1305 1308 1311 1314 1317 1320 1323 1326 1329 1332 1335 1338 1341 1344 1347 1350 1353 1356 1359 1362 1365 1368 1371 1374 1377 1380 1383 1386 1389 1392 1395 1398 1401 1404 1407 1410 1413 1416 1419 1422 1425 1428 1431 1434 1437 1440 1443 1446 1449 1452 1455 1458 1461 1464 1467 1470 1473 1476 1479 1482 1485 1488 1491 1494 1497 1500 1503 1506 1509 1512 1515 1518 1521 1524 1527 1530 1533 1536 1539 1542 1545 1548 1551 1554 1557 1560 1563 1566 1569 1572 1575 1578 1581 1584 1587 1590 1593 1596 1599 1602 1605 1608 1611 1614 1617 1620 1623 1626 1629 1632 1635 1638 1641 1644 1647 1650 1653 1656 1659 1662 1665 1668 1671 1674 1677 1680 1683 1686 1689 1692 1695 1698 1701 1704 1707 1710 1713 1716 1719 1722 1725 1728 1731 1734 1737 1740 1743 1746 1749 1752 1755 1758 1761 1764 1767 1770 1773 1776 1779 1782 1785 1788 1791 1794 1797 1800 1803 1806 1809 1812 1815 1818 1821 1824 1827 1830 1833 1836 1839 1842 1845 1848 1851 1854 1857 1860 1863 1866 1869 1872 1875 1878 1881 1884 1887 1890 1893 1896 1899 1902 1905 1908 1911 1914 1917 1920 1923 1926 1929 1932 1935 1938 1941 1944 1947 1950 1953 1956 1959 1962 1965 1968 1971 1974 1977 1980 1983 1986 1989 1992 1995 1998 2001 2004 2007 2010 2013 2016 2019 2022 2025 2028 2031 2034 2037 2040 2043 2046 2049 2052 2055 2058 2061 2064 2067 2070 2073 2076 2079 2082 2085 2088 2091 2094 2097 2100 2103 2106 2109 2112 2115 2118 2121 2124 2127 2130 2133 2136 2139 2142 2145 2148 2151 2154 2157 2160 2163 2166 2169 2172 2175 2178 2181 2184 2187 2190 2193 2196 2199 2202 2205 2208 2211 2214 2217 2220 2223 2226 2229 2232 2235 2238 2241 2244 2247 2250 2253 2256 2259 2262 2265 2268 2271 2274 2277 2280 2283 2286 2289 2292 2295 2298 2301 2304 2307 2310 2313 2316 2319 2322 2325 2328 2331 2334 2337 2340 2343 2346 2349 2352 2355 2358 2361 2364 2367 2370 2373 2376 2379 2382 2385 2388 2391 2394 2397 2400 2403 2406 2409 2412 2415 2418 2421 2424 2427 2430 2433 2436 2439 2442 2445 2448 2451 2454 2457 2460 2463 2466 2469 2472 2475 2478 2481 2484 2487 2490 2493 2496 2499 2502 2505 2508 2511 2514 2517 2520 2523 2526 2529 2532 2535 2538 2541 2544 2547 2550 2553 2556 2559 2562 2565 2568 2571 2574 2577 2580 2583 2586 2589 2592 2595 2598 2601 2604 2607 2610 2613 2616 2619 2622 2625 2628 2631 2634 2637 2640 2643 2646 2649 2652 2655 2658 2661 2664 2667 2670 2673 2676 2679 2682 2685 2688 2691 2694 2697 2700 2703 2706 2709 2712 2715 2718 2721 2724 2727 2730 2733 2736 2739 2742 2745 2748 2751 2754 2757 2760 2763 2766 2769 2772 2775 2778 2781 2784 2787 2790 2793 2796 2799 2802 2805 2808 2811 2814 2817 2820 2823 2826 2829 2832 2835 2838 2841 2844 2847 2850 2853 2856 2859 2862 2865 2868 2871 2874 2877 2880 2883 2886 2889 2892 2895 2898 2901 2904 2907 2910 2913 2916 2919 2922 2925 2928 2931 2934 2937 2940 2943 2946 2949 2952 2955 2958 2961 2964 2967 2970 2973 2976 2979 2982 2985 2988 2991 2994 2997 3000 3003 3006 3009 3012 3015 3018 3021 3024 3027 3030 3033 3036 3039 3042 3045 3048 3051 3054 3057 3060 3063 3066 3069 3072 3075 3078 3081 3084 3087 3090 3093 3096 3099 3102 3105 3108 3111 3114 3117 3120 3123 3126 3129 3132 3135 3138 3141 3144 3147 3150 3153 3156 3159 3162 3165 3168 3171 3174 3177 3180 3183 3186 3189 3192 3195 3198 3201 3204 3207 3210 3213 3216 3219 3222 3225 3228 3231 3234 3237 3240 3243 3246 3249 3252 3255 3258 3261 3264 3267 3270 3273 3276 3279 3282 3285 3288 3291 3294 3297 3300 3303 3306 3309 3312 3315 3318 3321 3324 3327 3330 3333 3336 3339 3342 3345 3348 3351 3354 3357 3360 3363 3366 3369 3372 3375 3378 3381 3384 3387 3390 3393 3396 3399 3402 3405 3408 3411 3414 3417 3420 3423 3426 3429 3432 3435 3438 3441 3444 3447 3450 3453 3456 3459 3462 3465 3468 3471 3474 3477 3480 3483 3486 3489 3492 3495 3498 3501 3504 3507 3510 3513 3516 3519 3522 3525 3528 3531 3534 3537 3540 3543 3546 3549 3552 3555 3558 3561 3564 3567 3570 3573 3576 3579 3582 3585 3588 3591 3594 3597 3600 3603 3606 3609 3612 3615 3618 3621 3624 3627 3630 3633 3636 3639 3642 3645 3648 3651 3654 3657 3660 3663 3666 3669 3672 3675 3678 3681 3684 3687 3690 3693 3696 3699 3702 3705 3708 3711 3714 3717 3720 3723 3726 3729 3732 3735 3738 3741 3744 3747 3750 3753 3756 3759 3762 3765 3768 3771 3774 3777 3780 3783 3786 3789 3792 3795 3798 3801 3804 3807 3810 3813 3816 3819 3822 3825 3828 3831 3834 3837 3840 3843 3846 3849 3852 3855 3858 3861 3864 3867 3870 3873 3876 3879 3882 3885 3888 3891 3894 3897 3900 3903 3906 3909 3912 3915 3918 3921 3924 3927 3930 3933 3936 3939 3942 3945 3948 3951 3954 3957 3960 3963 3966 3969 3972 3975 3978 3981 3984 3987 3990 3993 3996 3999 4002 4005 4008 4011 4014 4017 4020 4023 4026 4029 4032 4035 4038 4041 4044 4047 4050 4053 4056 4059 4062 4065 4068 4071 4074 4077 4080 4083 4086 4089 4092 4095 4098 4101 4104 4107 4110 4113 4116 4119 4122 4125 4128 4131 4134 4137 4140 4143 4146 4149 4152 4155 4158 4161 4164 4167 4170 4173 4176 4179 4182 4185 4188 4191 4194 4197 4200 4203 4206 4209 4212 4215 4218 4221 4224 4227 4230 4233 4236 4239 4242 4245 4248 4251 4254 4257 4260 4263 4266 4269 4272 4275 4278 4281 4284 4287 4290 4293 4296 4299 4302 4305 4308 4311 4314 4317 4320 4323 4326 4329 4332 4335 4338 4341 4344 4347 4350 4353 4356 4359 4362 4365 4368 4371 4374 4377 4380 4383 4386 4389 4392 4395 4398 4401 4404 4407 4410 4413 4416 4419 4422 4425 4428 4431 4434 4437 4440 4443 4446 4449 4452 4455 4458 4461 4464 4467 4470 4473 4476 4479 4482 4485 4488 4491 4494 4497 4500 4503 4506 4509 4512 4515 4518 4521 4524 4527 4530 4533 4536 4539 4542 4545 4548 4551 4554 4557 4560 4563 4566 4569 4572 4575 4578 4581 4584 4587 4590 4593 4596 4599 4602 4605 4608 4611 4614 4617 4620 4623 4626 4629 4632 4635 4638 4641 4644 4647 4650 4653 4656 4659 4662 4665 4668 4671 4674 4677 4680 4683 4686 4689 4692 4695 4698 4701 4704 4707 4710 4713 4716 4719 4722 4725 4728 4731 4734 4737 4740 4743 4746 4749 4752 4755 4758 4761 4764 4767 4770 4773 4776 4779 4782 4785 4788 4791 4794 4797 4800 4803 4806 4809 4812 4815 4818 4821 4824 4827 4830 4833 4836 4839 4842 4845 4848 4851 4854 4857 4860 4863 4866 4869 4872 4875 4878 4881 4884 4887 4890 4893 4896 4899 4902 4905 4908 4911 4914 4917 4920 4923 4926 4929 4932 4935 4938 4941 4944 4947 4950 4953 4956 4959 4962 4965 4968 4971 4974 4977 4980 4983 4986 4989 4992 4995 4998 5001 5004 5007 5010 5013 5016 5019 5022 5025 5028 5031 5034 5037 5040 5043 5046 5049 5052 5055 5058 5061 5064 5067 5070 5073 5076 5079 5082 5085 5088 5091 5094 5097 5100 5103 5106 5109 5112 5115 5118 5121 5124 5127 5130 5133 5136 5139 5142 5145 5148 5151 5154 5157 5160 5163 5166 5169 5172 5175 5178 5181 5184 5187 5190 5193 5196 5199 5202 5205 5208 5211 5214 5217 5220 5223 5226 5229 5232 5235 5238 5241 5244 5247 5250 5253 5256 5259 5262 5265 5268 5271 5274 5277 5280 5283 5286 5289 5292 5295 5298 5301 5304 5307 5310 5313 5316 5319 5322 5325 5328 5331 5334 5337 5340 5343 5346 5349 5352 5355 5358 5361 5364 5367 5370 5373 5376 5379 5382 5385 5388 5391 5394 5397 5400 5403 5406 5409 5412 5415 5418 5421 5424 5427 5430 5433 5436 5439 5442 5445 5448 5451 5454 5457 5460 5463 5466 5469 5472 5475 5478 5481 5484 5487 5490 5493 5496 5499 5502 5505 5508 5511 5514 5517 5520 5523 5526 5529 5532 5535 5538 5541 5544 5547 5550 5553 5556 5559 5562 5565 5568 5571 5574 5577 5580 5583 5586 5589 5592 5595 5598 5601 5604 5607 5610 5613 5616 5619 5622 5625 5628 5631 5634 5637 5640 5643 5646 5649 5652 5655 5658 5661 5664 5667 5670 5673 5676 5679 5682 5685 5688 5691 5694 5697 5700 5703 5706 5709 5712 5715 5718 5721 5724 5727 5730 5733 5736 5739 5742 5745 5748 5751 5754 5757 5760 5763 5766 5769 5772 5775 5778 5781 5784 5787 5790 5793 5796 5799 5802 5805 5808 5811 5814 5817 5820 5823 5826 5829 5832 5835 5838 5841 5844 5847 5850 5853 5856 5859 5862 5865 5868 5871 5874 5877 5880 5883 5886 5889 5892 5895 5898 5901 5904 5907 5910 5913 5916 5919 5922 5925 5928 5931 5934 5937 5940 5943 5946 5949 5952 5955 5958 5961 5964 5967 5970 5973 5976 5979 5982 5985 5988 5991 5994 5997 6000 6003 6006 6009 6012 6015 6018 6021 6024 6027 6030 6033 6036 6039 6042 6045 6048 6051 6054 6057 6060 6063 6066 6069 6072 6075 6078 6081 6084 6087 6090 6093 6096 6099 6102 6105 6108 6111 6114 6117 6120 6123 6126 6129 6132 6135 6138 6141 6144 6147 6150 6153 6156 6159 6162 6165 6168 6171 6174 6177 6180 6183 6186 6189 6192 6195 6198 6201 6204 6207 6210 6213 6216 6219 6222 6225 6228 6231 6234 6237 6240 6243 6246 6249 6252 6255 6258 6261 6264 6267 6270 6273 6276 6279 6282 6285 6288 6291 6294 6297 6300 6303 6306 6309 6312 6315 6318 6321 6324 6327 6330 6333 6336 6339 6342 6345 6348 6351 6354 6357 6360 6363 6366 6369 6372 6375 6378 6381 6384 6387 6390 6393 6396 6399 6402 6405 6408 6411 6414 6417 6420 6423 6426 6429 6432 6435 6438 6441 6444 6447 6450 6453 6456 6459 6462 6465 6468 6471 6474 6477 6480 6483 6486 6489 6492 6495 6498 6501 6504 6507 6510 6513 6516 6519 6522 6525 6528 6531 6534 6537 6540 6543 6546 6549 6552 6555 6558 6561 6564 6567 6570 6573 6576 6579 6582 6585 6588 6591 6594 6597 6600 6603 6606 6609 6612 6615 6618 6621 6624 6627 6630 6633 6636 6639 6642 6645 6648 6651 6654 6657 6660 6663 6666 6669 6672 6675 6678 6681 6684 6687 6690 6693 6696 6699 6702 6705 6708 6711 6714 6717 6720 6723 6726 6729 6732 6735 6738 6741 6744 6747 6750 6753 6756 6759 6762 6765 6768 6771 6774 6777 6780 6783 6786 6789 6792 6795 6798 6801 6804 6807 6810 6813 6816 6819 6822 6825 6828 6831 6834 6837 6840 6843 6846 6849 6852 6855 6858 6861 6864 6867 6870 6873 6876 6879 6882 6885 6888 6891 6894 6897 6900 6903 6906 6909 6912 6915 6918 6921 6924 6927 6930 6933 6936 6939 6942 6945 6948 6951 6954 6957 6960 6963 6966 6969 6972 6975 6978 6981 6984 6987 6990 6993 6996 6999 7002 7005 7008 7011 7014 7017 7020 7023 7026 7029 7032 7035 7038 7041 7044 7047 7050 7053 7056 7059 7062 7065 7068 7071 7074 7077 7080 7083 7086 7089 7092 7095 7098 7101 7104 7107 7110 7113 7116 7119 7122 7125 7128 7131 7134 7137 7140 7143 7146 7149 7152 7155 7158 7161 7164 7167 7170 7173 7176 7179 7182 7185 7188 7191 7194 7197 7200 7203 7206 7209 7212 7215 7218 7221 7224 7227 7230 7233 7236 7239 7242 7245 7248 7251 7254 7257 7260 7263 7266 7269 7272 7275 7278 7281 7284 7287 7290 7293 7296 7299 7302 7305 7308 7311 7314 7317 7320 7323 7326 7329 7332 7335 7338 7341 7344 7347 7350 7353 7356 7359 7362 7365 7368 7371 7374 7377 7380 7383 7386 7389 7392 7395 7398 7401 7404 7407 7410 7413 7416 7419 7422 7425 7428 7431 7434 7437 7440 7443 7446 7449 7452 7455 7458 7461 7464 7467 7470 7473 7476 7479 7482 7485 7488 7491 7494 7497 7500 7503 7506 7509 7512 7515 7518 7521 7524 7527 7530 7533 7536 7539 7542 7545 7548 7551 7554 7557 7560 7563 7566 7569 7572 7575 7578 7581 7584 7587 7590 7593 7596 7599 7602 7605 7608 7611 7614 7617 7620 7623 7626 7629 7632 7635 7638 7641 7644 7647 7650 7653 7656 7659 7662 7665 7668 7671 7674 7677 7680 7683 7686 7689 7692 7695 7698 7701 7704 7707 7710 7713 7716 7719 7722 7725 7728 7731 7734 7737 7740 7743 7746 7749 7752 7755 7758 7761 7764 7767 7770 7773 7776 7779 7782 7785 7788 7791 7794 7797 7800 7803 7806 7809 7812 7815 7818 7821 7824 7827 7830 7833 7836 7839 7842 7845 7848 7851 7854 7857 7860 7863 7866 7869 7872 7875 7878 7881 7884 7887 7890 7893 7896 7899 7902 7905 7908 7911 7914 7917 7920 7923 7926 7929 7932 7935 7938 7941 7944 7947 7950 7953 7956 7959 7962 7965 7968 7971 7974 7977 7980 7983 7986 7989 7992 7995 7998 8001 8004 8007 8010 8013 8016 8019 8022 8025 8028 8031 8034 8037 8040 8043 8046 8049 8052 8055 8058 8061 8064 8067 8070 8073 8076 8079 8082 8085 8088 8091 8094 8097 8100 8103 8106 8109 8112 8115 8118 8121 8124 8127 8130 8133 8136 8139 8142 8145 8148 8151 8154 8157 8160 8163 8166 8169 8172 8175 8178 8181 8184 8187 8190 8193 8196 8199 8202 8205 8208 8211 8214 8217 8220 8223 8226 8229 8232 8235 8238 8241 8244 8247 8250 8253 8256 8259 8262 8265 8268 8271 8274 8277 8280 8283 8286 8289 8292 8295 8298 8301 8304 8307 8310 8313 8316 8319 8322 8325 8328 8331 8334 8337 8340 8343 8346 8349 8352 8355 8358 8361 8364 8367 8370 8373 8376 8379 8382 8385 8388 8391 8394 8397 8400 8403 8406 8409 8412 8415 8418 8421 8424 8427 8430 8433 8436 8439 8442 8445 8448 8451 8454 8457 8460 8463 8466 8469 8472 8475 8478 8481 8484 8487 8490 8493 8496 8499 8502 8505 8508 8511 8514 8517 8520 8523 8526 8529 8532 8535 8538 8541 8544 8547 8550 8553 8556 8559 8562 8565 8568 8571 8574 8577 8580 8583 8586 8589 8592 8595 8598 8601 8604 8607 8610 8613 8616 8619 8622 8625 8628 8631 8634 8637 8640 8643 8646 8649 8652 8655 8658 8661 8664 8667 8670 8673 8676 8679 8682 8685 8688 8691 8694 8697 8700 8703 8706 8709 8712 8715 8718 8721 8724 8727 8730 8733 8736 8739 8742 8745 8748 8751 8754 8757 8760 8763 8766 8769 8772 8775 8778 8781 8784 8787 8790 8793 8796 8799 8802 8805 8808 8811 8814 8817 8820 8823 8826 8829 8832 8835 8838 8841 8844 8847 8850 8853 8856 8859 8862 8865 8868 8871 8874 8877 8880 8883 8886 8889 8892 8895 8898 8901 8904 8907 8910 8913 8916 8919 8922 8925 8928 8931 8934 8937 8940 8943 8946 8949 8952 8955 8958 8961 8964 8967 8970 8973 8976 8979 8982 8985 8988 8991 8994 8997 9000 9003 9006 9009 9012 9015 9018 9021 9024 9027 9030 9033 9036 9039 9042 9045 9048 9051 9054 9057 9060 9063 9066 9069 9072 9075 9078 9081 9084 9087 9090 9093 9096 9099 9102 9105 9108 9111 9114 9117 9120 9123 9126 9129 9132 9135 9138 9141 9144 9147 9150 9153 9156 9159 9162 9165 9168 9171 9174 9177 9180 9183 9186 9189 9192 9195 9198 9201 9204 9207 9210 9213 9216 9219 9222 9225 9228 9231 9234 9237 9240 9243 9246 9249 9252 9255 9258 9261 9264 9267 9270 9273 9276 9279 9282 9285 9288 9291 9294 9297 9300 9303 9306 9309 9312 9315 9318 9321 9324 9327 9330 9333 9336 9339 9342 9345 9348 9351 9354 9357 9360 9363 9366 9369 9372 9375 9378 9381 9384 9387 9390 9393 9396 9399 9402 9405 9408 9411 9414 9417 9420 9423 9426 9429 9432 9435 9438 9441 9444 9447 9450 9453 9456 9459 9462 9465 9468 9471 9474 9477 9480 9483 9486 9489 9492 9495 9498 9501 9504 9507 9510 9513 9516 9519 9522 9525 9528 9531 9534 9537 9540 9543 9546 9549 9552 9555 9558 9561 9564 9567 9570 9573 9576 9579 9582 9585 9588 9591 9594 9597 9600 9603 9606 9609 9612 9615 9618 9621 9624 9627 9630 9633 9636 9639 9642 9645 9648 9651 9654 9657 9660 9663 9666 9669 9672 9675 9678 9681 9684 9687 9690 9693 9696 9699 9702 9705 9708 9711 9714 9717 9720 9723 9726 9729 9732 9735 9738 9741 9744 9747 9750 9753 9756 9759 9762 9765 9768 9771 9774 9777 9780 9783 9786 9789 9792 9795 9798 9801 9804 9807 9810 9813 9816 9819 9822 9825 9828 9831 9834 9837 9840 9843 9846 9849 9852 9855 9858 9861 9864 9867 9870 9873 9876 9879 9882 9885 9888 9891 9894 9897 9900 9903 9906 9909 9912 9915 9918 9921 9924 9927 9930 9933 9936 9939 9942 9945 9948 9951 9954 9957 9960 9963 9966 9969 9972 9975 9978 9981 9984 9987 9990 9993 9996 9999 10002 10005 10008 10011 10014 10017 10020 10023 10026 10029 10032 10035 10038 10041 10044 10047 10050 10053 10056 10059 10062 10065 10068 10071 10074 10077 10080 10083 10086 10089 10092 10095 10098 10101 10104 10107 10110 10113 10116 10119 10122 10125 10128 10131 10134 10137 10140 10143 10146 10149 10152 10155 10158 10161 10164 10167 10170 10173 10176 10179 10182 10185 10188 10191 10194 10197 10200 10203 10206 10209 10212 10215 10218 10221 10224 10227 10230 10233 10236 10239 10242 10245 10248 10251 10254 10257 10260 10263 10266 10269 10272 10275 10278 10281 10284 10287 10290 10293 10296 10299 10302 10305 10308 10311 10314 10317 10320 10323 10326 10329 10332 10335 10338 10341 10344 10347 10350 10353 10356 10359 10362 10365 10368 10371 10374 10377 10380 10383 10386 10389 10392 10395 10398 10401 </DataArray>
        <DataArray type="Int8" Name="types" format="ascii">69 69 69 69 69 69 69 69 69 69 69 69 69 69 69 69 69 69 69 69 69 69 69 69 69 69 69 69 69 69 69 69 69 69 69 69 69 69 69 69 69 69 69 69 69 69 69 69 69 69 69 69 69 69 69 69 69 69 69 69 69 69 69 69 69 69 69 69 69 69 69 69 69 69 69 69 69 69 69 69 69 69 69 69 69 69 69 69 69 69 69 69 69 69 69 69 69 69 69 69 69 69 69 69 69 69 69 69 69 69 69 69 69 69 69 69 69 69 69 69 69 69 69 69 69 69 69 69 69 69 69 69 69 69 69 69 69 69 69 69 69 69 69 69 69 69 69 69 69 69 69 69 69 69 69 69 69 69 69 69 69 69 69 69 69 69 69 69 69 69 69 69 69 69 69 69 69 69 69 69 69 69 69 69 69 69 69 69 69 69 69 69 69 69 69 69 69 69 69 69 69 69 69 69 69 69 69 69 69 69 69 69 69 69 69 69 69 69 69 69 69 69 69 69 69 69 69 69 69 69 69 69 69 69 69 69 69 69 69 69 69 69 69 69 69 69 69 69 69 69 69 69 69 69 69 69 69 69 69 69 69 69 69 69 69 69 69 69 69 69 69 69 69 69 69 69 69 69 69 69 69 69 69 69 69 69 69 69 69 69 69 69 69 69 69 69 69 69 69 69 69 69 69 69 69 69 69 69 69 69 69 69 69 69 69 69 69 69 69 69 69 69 69 69 69 69 69 69 69 69 69 69 69 69 69 69 69 69 69 69 69 69 69 69 69 69 69 69 69 69 69 69 69 69 69 69 69 69 69 69 69 69 69 69 69 69 69 69 69 69 69 69 69 69 69 69 69 69 69 69 69 69 69 69 69 69 69 69 69 69 69 69 69 69 69 69 69 69 69 69 69 69 69 69 69 69 69 69 69 69 69 69 69 69 69 69 69 69 69 69 69 69 69 69 69 69 69 69 69 69 69 69 69 69 69 69 69 69 69 69 69 69 69 69 69 69 69 69 69 69 69 69 69 69 69 69 69 69 69 69 69 69 69 69 69 69 69 69 69 69 69 69 69 69 69 69 69 69 69 69 69 69 69 69 69 69 69 69 69 69 69 69 69 69 69 69 69 69 69 69 69 69 69 69 69 69 69 69 69 69 69 69 69 69 69 69 69 69 69 69 69 69 69 69 69 69 69 69 69 69 69 69 69 69 69 69 69 69 69 69 69 69 69 69 69 69 69 69 69 69 69 69 69 69 69 69 69 69 69 69 69 69 69 69 69 69 69 69 69 69 69 69 69 69 69 69 69 69 69 69 69 69 69 69 69 69 69 69 69 69 69 69 69 69 69 69 69 69 69 69 69 69 69 69 69 69 69 69 69 69 69 69 69 69 69 69 69 69 69 69 69 69 69 69 69 69 69 69 69 69 69 69 69 69 69 69 69 69 69 69 69 69 69 69 69 69 69 69 69 69 69 69 69 69 69 69 69 69 69 69 69 69 69 69 69 69 69 69 69 69 69 69 69 69 69 69 69 69 69 69 69 69 69 69 69 69 69 69 69 69 69 69 69 69 69 69 69 69 69 69 69 69 69 69 69 69 69 69 69 69 69 69 69 69 69 69 69 69 69 69 69 69 69 69 69 69 69 69 69 69 69 69 69 69 69 69 69 69 69 69 69 69 69 69 69 69 69 69 69 69 69 69 69 69 69 69 69 69 69 69 69 69 69 69 69 69 69 69 69 69 69 69 69 69 69 69 69 69 69 69 69 69 69 69 69 69 69 69 69 69 69 69 69 69 69 69 69 69 69 69 69 69 69 69 69 69 69 69 69 69 69 69 69 69 69 69 69 69 69 69 69 69 69 69 69 69 69 69 69 69 69 69 69 69 69 69 69 69 69 69 69 69 69 69 69 69 69 69 69 69 69 69 69 69 69 69 69 69 69 69 69 69 69 69 69 69 69 69 69 69 69 69 69 69 69 69 69 69 69 69 69 69 69 69 69 69 69 69 69 69 69 69 69 69 69 69 69 69 69 69 69 69 69 69 69 69 69 69 69 69 69 69 69 69 69 69 69 69 69 69 69 69 69 69 69 69 69 69 69 69 69 69 69 69 69 69 69 69 69 69 69 69 69 69 69 69 69 69 69 69 69 69 69 69 69 69 69 69 69 69 69 69 69 69 69 69 69 69 69 69 69 69 69 69 69 69 69 69 69 69 69 69 69 69 69 69 69 69 69 69 69 69 69 69 69 69 69 69 69 69 69 69 69 69 69 69 69 69 69 69 69 69 69 69 69 69 69 69 69 69 69 69 69 69 69 69 69 69 69 69 69 69 69 69 69 69 69 69 69 69 69 69 69 69 69 69 69 69 69 69 69 69 69 69 69 69 69 69 69 69 69 69 69 69 69 69 69 69 69 69 69 69 69 69 69 69 69 69 69 69 69 69 69 69 69 69 69 69 69 69 69 69 69 69 69 69 69 69 69 69 69 69 69 69 69 69 69 69 69 69 69 69 69 69 69 69 69 69 69 69 69 69 69 69 69 69 69 69 69 69 69 69 69 69 69 69 69 69 69 69 69 69 69 69 69 69 69 69 69 69 69 69 69 69 69 69 69 69 69 69 69 69 69 69 69 69 69 69 69 69 69 69 69 69 69 69 69 69 69 69 69 69 69 69 69 69 69 69 69 69 69 69 69 69 69 69 69 69 69 69 69 69 69 69 69 69 69 69 69 69 69 69 69 69 69 69 69 69 69 69 69 69 69 69 69 69 69 69 69 69 69 69 69 69 69 69 69 69 69 69 69 69 69 69 69 69 69 69 69 69 69 69 69 69 69 69 69 69 69 69 69 69 69 69 69 69 69 69 69 69 69 69 69 69 69 69 69 69 69 69 69 69 69 69 69 69 69 69 69 69 69 69 69 69 69 69 69 69 69 69 69 69 69 69 69 69 69 69 69 69 69 69 69 69 69 69 69 69 69 69 69 69 69 69 69 69 69 69 69 69 69 69 69 69 69 69 69 69 69 69 69 69 69 69 69 69 69 69 69 69 69 69 69 69 69 69 69 69 69 69 69 69 69 69 69 69 69 69 69 69 69 69 69 69 69 69 69 69 69 69 69 69 69 69 69 69 69 69 69 69 69 69 69 69 69 69 69 69 69 69 69 69 69 69 69 69 69 69 69 69 69 69 69 69 69 69 69 69 69 69 69 69 69 69 69 69 69 69 69 69 69 69 69 69 69 69 69 69 69 69 69 69 69 69 69 69 69 69 69 69 69 69 69 69 69 69 69 69 69 69 69 69 69 69 69 69 69 69 69 69 69 69 69 69 69 69 69 69 69 69 69 69 69 69 69 69 69 69 69 69 69 69 69 69 69 69 69 69 69 69 69 69 69 69 69 69 69 69 69 69 69 69 69 69 69 69 69 69 69 69 69 69 69 69 69 69 69 69 69 69 69 69 69 69 69 69 69 69 69 69 69 69 69 69 69 69 69 69 69 69 69 69 69 69 69 69 69 69 69 69 69 69 69 69 69 69 69 69 69 69 69 69 69 69 69 69 69 69 69 69 69 69 69 69 69 69 69 69 69 69 69 69 69 69 69 69 69 69 69 69 69 69 69 69 69 69 69 69 69 69 69 69 69 69 69 69 69 69 69 69 69 69 69 69 69 69 69 69 69 69 69 69 69 69 69 69 69 69 69 69 69 69 69 69 69 69 69 69 69 69 69 69 69 69 69 69 69 69 69 69 69 69 69 69 69 69 69 69 69 69 69 69 69 69 69 69 69 69 69 69 69 69 69 69 69 69 69 69 69 69 69 69 69 69 69 69 69 69 69 69 69 69 69 69 69 69 69 69 69 69 69 69 69 69 69 69 69 69 69 69 69 69 69 69 69 69 69 69 69 69 69 69 69 69 69 69 69 69 69 69 69 69 69 69 69 69 69 69 69 69 69 69 69 69 69 69 69 69 69 69 69 69 69 69 69 69 69 69 69 69 69 69 69 69 69 69 69 69 69 69 69 69 69 69 69 69 69 69 69 69 69 69 69 69 69 69 69 69 69 69 69 69 69 69 69 69 69 69 69 69 69 69 69 69 69 69 69 69 69 69 69 69 69 69 69 69 69 69 69 69 69 69 69 69 69 69 69 69 69 69 69 69 69 69 69 69 69 69 69 69 69 69 69 69 69 69 69 69 69 69 69 69 69 69 69 69 69 69 69 69 69 69 69 69 69 69 69 69 69 69 69 69 69 69 69 69 69 69 69 69 69 69 69 69 69 69 69 69 69 69 69 69 69 69 69 69 69 69 69 69 69 69 69 69 69 69 69 69 69 69 69 69 69 69 69 69 69 69 69 69 69 69 69 69 69 69 69 69 69 69 69 69 69 69 69 69 69 69 69 69 69 69 69 69 69 69 69 69 69 69 69 69 69 69 69 69 69 69 69 69 69 69 69 69 69 69 69 69 69 69 69 69 69 69 69 69 69 69 69 69 69 69 69 69 69 69 69 69 69 69 69 69 69 69 69 69 69 69 69 69 69 69 69 69 69 69 69 69 69 69 69 69 69 69 69 69 69 69 69 69 69 69 69 69 69 69 69 69 69 69 69 69 69 69 69 69 69 69 69 69 69 69 69 69 69 69 69 69 69 69 69 69 69 69 69 69 69 69 69 69 69 69 69 69 69 69 69 69 69 69 69 69 69 69 69 69 69 69 69 69 69 69 69 69 69 69 69 69 69 69 69 69 69 69 69 69 69 69 69 69 69 69 69 69 69 69 69 69 69 69 69 69 69 69 69 69 69 69 69 69 69 69 69 69 69 69 69 69 69 69 69 69 69 69 69 69 69 69 69 69 69 69 69 69 69 69 69 69 69 69 69 69 69 69 69 69 69 69 69 69 69 69 69 69 69 69 69 69 69 69 69 69 69 69 69 69 69 69 69 69 69 69 69 69 69 69 69 69 69 69 69 69 69 69 69 69 69 69 69 69 69 69 69 69 69 69 69 69 69 69 69 69 69 69 69 69 69 69 69 69 69 69 69 69 69 69 69 69 69 69 69 69 69 69 69 69 69 69 69 69 69 69 69 69 69 69 69 69 69 69 69 69 69 69 69 69 69 69 69 69 69 69 69 69 69 69 69 69 69 69 69 69 69 69 69 69 69 69 69 69 69 69 69 69 69 69 69 69 69 69 69 69 69 69 69 69 69 69 69 69 69 69 69 69 69 69 69 69 69 69 69 69 69 69 69 69 69 69 69 69 69 69 69 69 69 69 69 69 69 69 69 69 69 69 69 69 69 69 69 69 69 69 69 69 69 69 69 69 69 69 69 69 69 69 69 69 69 69 69 69 69 69 69 69 69 69 69 69 69 69 69 69 69 69 69 69 69 69 69 69 69 69 69 69 69 69 69 69 69 69 69 69 69 69 69 69 69 69 69 69 69 69 69 69 69 69 69 69 69 69 69 69 69 69 69 69 69 69 69 69 69 69 69 69 69 69 69 69 69 69 69 69 69 69 69 69 69 69 69 69 69 69 69 69 69 69 69 69 69 69 69 69 69 69 69 69 69 69 69 69 69 69 69 69 69 69 69 69 69 69 69 69 69 69 69 69 69 69 69 69 69 69 69 69 69 69 69 69 69 69 69 69 69 69 69 69 69 69 69 69 69 69 69 69 69 69 69 69 69 69 69 69 69 69 69 69 69 69 69 69 69 69 69 69 69 69 69 69 69 69 69 69 69 69 69 69 69 69 69 69 69 69 69 69 69 69 69 69 69 69 69 69 69 69 69 69 69 69 69 69 69 69 69 69 69 69 69 69 69 69 69 69 69 69 69 69 69 69 69 69 69 69 69 69 69 69 69 69 69 69 69 69 69 69 69 69 69 69 69 69 69 69 69 69 69 69 69 69 69 69 69 69 69 69 69 69 69 69 69 69 69 69 69 69 69 69 69 69 69 69 69 69 69 69 69 69 69 69 69 69 69 69 69 69 69 69 69 69 69 69 69 69 69 69 69 69 69 69 69 69 69 69 69 69 69 69 69 69 69 69 69 69 69 69 69 69 69 69 69 69 69 69 69 69 69 69 69 69 69 69 69 69 69 69 69 69 69 69 69 69 69 69 69 69 69 69 69 69 69 69 69 69 69 69 69 69 69 69 69 69 69 69 69 69 69 69 69 69 69 69 69 69 69 69 69 69 69 69 69 69 69 69 69 69 69 69 69 69 69 69 69 69 69 69 69 69 69 69 69 69 69 69 69 69 69 69 69 69 69 69 69 69 69 69 69 69 69 69 69 69 69 69 69 69 69 69 69 69 69 69 69 69 69 69 69 69 69 69 69 69 69 69 69 69 69 69 69 69 69 69 69 69 69 69 69 69 69 69 69 69 69 69 69 69 69 69 69 69 69 69 69 69 69 69 69 69 69 69 69 69 69 69 69 69 69 69 69 69 69 69 69 69 69 69 69 69 69 69 69 69 69 69 69 69 69 69 69 69 69 69 69 69 69 69 69 69 69 69 69 69 69 69 69 69 69 69 69 69 69 69 69 69 69 69 69 69 69 69 69 69 69 69 69 69 69 69 69 69 69 69 69 69 69 69 69 69 69 69 69 69 69 69 69 69 69 69 69 69 69 69 69 69 69 69 69 69 69 69 69 69 69 69 69 69 69 69 69 69 69 69 69 69 69 69 69 69 69 69 69 69 69 69 69 69 69 69 69 69 69 69 69 69 69 69 69 69 69 69 69 69 69 69 69 69 69 69 69 69 69 69 69 69 69 69 69 69 69 69 69 69 69 69 69 69 69 69 69 69 69 69 69 69 69 69 69 69 69 69 69 69 69 69 69 69 69 69 69 69 69 69 69 69 69 69 69 69 69 69 69 69 69 69 69 69 69 69 69 69 69 69 69 69 69 69 69 69 69 69 69 69 69 69 69 69 69 69 69 69 69 69 69 69 69 69 69 69 69 69 69 69 69 69 69 69 69 69 69 69 69 69 69 69 69 69 69 69 69 69 69 69 69 69 69 69 69 69 69 69 69 69 69 69 69 69 69 69 69 69 69 69 69 69 69 69 69 69 69 69 69 69 69 69 69 69 69 69 69 69 69 69 69 69 69 69 69 69 69 69 69 69 69 69 69 69 69 69 69 69 69 69 69 69 69 69 69 69 69 69 69 69 69 69 69 69 69 69 69 69 69 69 69 69 69 69 69 69 69 69 69 69 69 69 69 69 69 69 69 69 69 69 69 69 69 69 69 69 69 69 69 69 69 69 69 69 69 69 69 69 69 69 69 69 69 69 69 69 69 69 69 69 69 69 69 69 69 69 69 69 69 69 69 69 69 69 69 69 69 69 69 69 69 69 69 69 69 69 69 69 69 69 69 69 69 69 69 69 69 69 69 69 69 69 69 69 69 69 69 69 69 69 69 69 69 69 69 69 69 69 69 69 69 69 69 69 69 69 69 69 69 69 69 69 69 69 69 69 69 69 69 69 69 69 69 69 69 69 69 69 69 69 69 69 69 69 69 69 69 69 69 69 69 69 69 69 69 69 69 69 69 69 69 69 69 69 69 69 69 69 69 69 69 69 69 69 69 69 69 69 69 69 69 69 69 69 69 69 69 69 69 69 69 69 69 69 69 69 69 69 69 69 69 69 69 69 69 69 69 69 69 69 69 69 69 69 69 69 69 69 69 69 69 69 69 69 69 69 69 69 69 69 69 69 69 69 69 69 69 69 69 69 69 69 69 69 69 69 69 69 69 69 69 69 69 69 69 69 69 69 69 69 69 69 69 69 69 69 69 69 69 69 69 69 69 69 69 69 69 </DataArray>
      </Cells>
      <CellData Tensors="stress">
        <DataArray type="UInt8" Name="vtkGhostType" format="ascii" RangeMin="0" RangeMax="1">0 0 0 0 0 0 0 0 0 0 0 0 0 0 0 0 0 0 0 0 0 0 0 0 0 0 0 0 0 0 0 0 0 0 0 0 0 0 0 0 0 0 0 0 0 0 0 0 0 0 0 0 0 0 0 0 0 0 0 0 0 0 0 0 0 0 0 0 0 0 0 0 0 0 0 0 0 0 0 0 0 0 0 0 0 0 0 0 0 0 0 0 0 0 0 0 0 0 0 0 0 0 0 0 0 0 0 0 0 0 0 0 0 0 0 0 0 0 0 0 0 0 0 0 0 0 0 0 0 0 0 0 0 0 0 0 0 0 0 0 0 0 0 0 0 0 0 0 0 0 0 0 0 0 0 0 0 0 0 0 0 0 0 0 0 0 0 0 0 0 0 0 0 0 0 0 0 0 0 0 0 0 0 0 0 0 0 0 0 0 0 0 0 0 0 0 0 0 0 0 0 0 0 0 0 0 0 0 0 0 0 0 0 0 0 0 0 0 0 0 0 0 0 0 0 0 0 0 0 0 0 0 0 0 0 0 0 0 0 0 0 0 0 0 0 0 0 0 0 0 0 0 0 0 0 0 0 0 0 0 0 0 0 0 0 0 0 0 0 0 0 0 0 0 0 0 0 0 0 0 0 0 0 0 0 0 0 0 0 0 0 0 0 0 0 0 0 0 0 0 0 0 0 0 0 0 0 0 0 0 0 0 0 0 0 0 0 0 0 0 0 0 0 0 0 0 0 0 0 0 0 0 0 0 0 0 0 0 0 0 0 0 0 0 0 0 0 0 0 0 0 0 0 0 0 0 0 0 0 0 0 0 0 0 0 0 0 0 0 0 0 0 0 0 0 0 0 0 0 0 0 0 0 0 0 0 0 0 0 0 0 0 0 0 0 0 0 0 0 0 0 0 0 0 0 0 0 0 0 0 0 0 0 0 0 0 0 0 0 0 0 0 0 0 0 0 0 0 0 0 0 0 0 0 0 0 0 0 0 0 0 0 0 0 0 0 0 0 0 0 0 0 0 0 0 0 0 0 0 0 0 0 0 0 0 0 0 0 0 0 0 0 0 0 0 0 0 0 0 0 0 0 0 0 0 0 0 0 0 0 0 0 0 0 0 0 0 0 0 0 0 0 0 0 0 0 0 0 0 0 0 0 0 0 0 0 0 0 0 0 0 0 0 0 0 0 0 0 0 0 0 0 0 0 0 0 0 0 0 0 0 0 0 0 0 0 0 0 0 0 0 0 0 0 0 0 0 0 0 0 0 0 0 0 0 0 0 0 0 0 0 0 0 0 0 0 0 0 0 0 0 0 0 0 0 0 0 0 0 0 0 0 0 0 0 0 0 0 0 0 0 0 0 0 0 0 0 0 0 0 0 0 0 0 0 0 0 0 0 0 0 0 0 0 0 0 0 0 0 0 0 0 0 0 0 0 0 0 0 0 0 0 0 0 0 0 0 0 0 0 0 0 0 0 0 0 0 0 0 0 0 0 0 0 0 0 0 0 0 0 0 0 0 0 0 0 0 0 0 0 0 0 0 0 0 0 0 0 0 0 0 0 0 0 0 0 0 0 0 0 0 0 0 0 0 0 0 0 0 0 0 0 0 0 0 0 0 0 0 0 0 0 0 0 0 0 0 0 0 0 0 0 0 0 0 0 0 0 0 0 0 0 0 0 0 0 0 0 0 0 0 0 0 0 0 0 0 0 0 0 0 0 0 0 0 0 0 0 0 0 0 0 0 0 0 0 0 0 0 0 0 0 0 0 0 0 0 0 0 0 0 0 0 0 0 0 0 0 0 0 0 0 0 0 0 0 0 0 0 0 0 0 0 0 0 0 0 0 0 0 0 0 0 0 0 0 0 0 0 0 0 0 0 0 0 0 0 0 0 0 0 0 0 0 0 0 0 0 0 0 0 0 0 0 0 0 0 0 0 0 0 0 0 0 0 0 0 0 0 0 0 0 0 0 0 0 0 0 0 0 0 0 0 0 0 0 0 0 0 0 0 0 0 0 0 0 0 0 0 0 0 0 0 0 0 0 0 0 0 0 0 0 0 0 0 0 0 0 0 0 0 0 0 0 0 0 0 0 0 0 0 0 0 0 0 0 0 0 0 0 0 0 0 0 0 0 0 0 0 0 0 0 0 0 0 0 0 0 0 0 0 0 0 0 0 0 0 0 0 0 0 0 0 0 0 0 0 0 0 0 0 0 0 0 0 0 0 0 0 0 0 0 0 0 0 0 0 0 0 0 0 0 0 0 0 0 0 0 0 0 0 0 0 0 0 0 0 0 0 0 0 0 0 0 0 0 0 0 0 0 0 0 0 0 0 0 0 0 0 0 0 0 0 0 0 0 0 0 0 0 0 0 0 0 0 0 0 0 0 0 0 0 0 0 0 0 0 0 0 0 0 0 0 0 0 0 0 0 0 0 0 0 0 0 0 0 0 0 0 0 0 0 0 0 0 0 0 0 0 0 0 0 0 0 0 0 0 0 0 0 0 0 0 0 0 0 0 0 0 0 0 0 0 0 0 0 0 0 0 0 0 0 0 0 0 0 0 0 0 0 0 0 0 0 0 0 0 0 0 0 0 0 0 0 0 0 0 0 0 0 0 0 0 0 0 0 0 0 0 0 0 0 0 0 0 0 0 0 0 0 0 0 0 0 0 0 0 0 0 0 0 0 0 0 0 0 0 0 0 0 0 0 0 0 0 0 0 0 0 0 0 0 0 0 0 0 0 0 0 0 0 0 0 0 0 0 0 0 0 0 0 0 0 0 0 0 0 0 0 0 0 0 0 0 0 0 0 0 0 0 0 0 0 0 0 0 0 0 0 0 0 0 0 0 0 0 0 0 0 0 0 0 0 0 0 0 0 0 0 0 0 0 0 0 0 0 0 0 0 0 0 0 0 0 0 0 0 0 0 0 0 0 0 0 0 0 0 0 0 0 0 0 0 0 0 0 0 0 0 0 0 0 0 0 0 0 0 0 0 0 0 0 0 0 0 0 0 0 0 0 0 0 0 0 0 0 0 0 0 0 0 0 0 0 0 0 0 0 0 0 0 0 0 0 0 0 0 0 0 0 0 0 0 0 0 0 0 0 0 0 0 0 0 0 0 0 0 0 0 0 0 0 0 0 0 0 0 0 0 0 0 0 0 0 0 0 0 0 0 0 0 0 0 0 0 0 0 0 0 0 0 0 0 0 0 0 0 0 0 0 0 0 0 0 0 0 0 0 0 0 0 0 0 0 0 0 0 0 0 0 0 0 0 0 0 0 0 0 0 0 0 0 0 0 0 0 0 0 0 0 0 0 0 0 0 0 0 0 0 0 0 0 0 0 0 0 0 0 0 0 0 0 0 0 0 0 0 0 0 0 0 0 0 0 0 0 0 0 0 0 0 0 0 0 0 0 0 0 0 0 0 0 0 0 0 0 0 0 0 0 0 0 0 0 0 0 0 0 0 0 0 0 0 0 0 0 0 0 0 0 0 0 0 0 0 0 0 0 0 0 0 0 0 0 0 0 0 0 0 0 0 0 0 0 0 0 0 0 0 0 0 0 0 0 0 0 0 0 0 0 0 0 0 0 0 0 0 0 0 0 0 0 0 0 0 0 0 0 0 0 0 0 0 0 0 0 0 0 0 0 0 0 0 0 0 0 0 0 0 0 0 0 0 0 0 0 0 0 0 0 0 0 0 0 0 0 0 0 0 0 0 0 0 0 0 0 0 0 0 0 0 0 0 0 0 0 0 0 0 0 0 0 0 0 0 0 0 0 0 0 0 0 0 0 0 0 0 0 0 0 0 0 0 0 0 0 0 0 0 0 0 0 0 0 0 0 0 0 0 0 0 0 0 0 0 0 0 0 0 0 0 0 0 0 0 0 0 0 0 0 0 0 0 0 0 0 0 0 0 0 0 0 0 0 0 0 0 0 0 0 0 0 0 0 0 0 0 0 0 0 0 0 0 0 0 0 0 0 0 0 0 0 0 0 0 0 0 0 0 0 0 0 0 0 0 0 0 0 0 0 0 0 0 0 0 0 0 0 0 0 0 0 0 0 0 0 0 0 0 0 0 0 0 0 0 0 0 0 0 0 0 0 0 0 0 0 0 0 0 0 0 0 0 0 0 0 0 0 0 0 0 0 0 0 0 0 0 0 0 0 0 0 0 0 0 0 0 0 0 0 0 0 0 0 0 0 0 0 0 0 0 0 0 0 0 0 0 0 0 0 0 0 0 0 0 0 0 0 0 0 0 0 0 0 0 0 0 0 0 0 0 0 0 0 0 0 0 0 0 0 0 0 0 0 0 0 0 0 0 0 0 0 0 0 0 0 0 0 0 0 0 0 0 0 0 0 0 0 0 0 0 0 0 0 0 0 0 0 0 0 0 0 0 0 0 0 0 0 0 0 0 0 0 0 0 0 0 0 0 0 0 0 0 0 0 0 0 0 0 0 0 0 0 0 0 0 0 0 0 0 0 0 0 0 0 0 0 0 0 0 0 0 0 0 0 0 0 0 0 0 0 0 0 0 0 0 0 0 0 0 0 0 0 0 0 0 0 0 0 0 0 0 0 0 0 0 0 0 0 0 0 0 0 0 0 0 0 0 0 0 0 0 0 0 0 0 0 0 0 0 0 0 0 0 0 0 0 0 0 0 0 0 0 0 0 0 0 0 0 0 0 0 0 0 0 0 0 0 0 0 0 0 0 0 0 0 0 0 0 0 0 0 0 0 0 0 0 0 0 0 0 0 0 0 0 0 0 0 0 0 0 0 0 0 0 0 0 0 0 0 0 0 0 0 0 0 0 0 0 0 0 0 0 0 0 0 0 0 0 0 0 0 0 0 0 0 0 0 0 0 0 0 0 0 0 0 0 0 0 0 0 0 0 0 0 0 0 0 0 0 0 0 0 0 0 0 0 0 0 0 0 0 0 0 0 0 0 0 0 0 0 0 0 0 0 0 0 0 0 0 0 0 0 0 0 0 0 0 0 0 0 0 0 0 0 0 0 0 0 0 0 0 0 0 0 0 0 0 0 0 0 0 0 0 0 0 0 0 0 0 0 0 0 0 0 0 0 0 0 0 0 0 0 0 0 0 0 0 0 0 0 0 0 0 0 0 0 0 0 0 0 0 0 0 0 0 0 0 0 0 0 0 0 0 0 0 0 0 0 0 0 0 0 0 0 0 0 0 0 0 0 0 0 0 0 0 0 0 0 0 0 0 0 0 0 0 0 0 0 0 0 0 0 0 0 0 0 0 0 0 0 0 0 0 0 0 0 0 0 0 0 0 0 0 0 0 0 0 0 0 0 0 0 0 0 0 0 0 0 0 0 0 0 0 0 0 0 0 0 0 0 0 0 0 0 0 0 0 0 0 0 0 0 0 0 0 0 0 0 0 0 0 0 0 0 0 0 0 0 0 0 0 0 0 0 0 0 0 0 0 0 0 0 0 0 0 0 0 0 0 0 0 0 0 0 0 0 0 0 0 0 0 0 0 0 0 0 0 0 0 0 0 0 0 0 0 0 0 0 0 0 0 0 0 0 0 0 0 0 0 0 0 0 0 0 0 0 0 0 0 0 0 0 0 0 0 0 0 0 0 0 0 0 0 0 0 0 0 0 0 0 0 0 0 0 0 0 0 0 0 0 0 0 0 0 0 0 0 0 0 0 0 0 0 0 0 0 0 0 0 0 0 0 0 0 0 0 0 0 0 0 0 0 0 0 0 0 0 0 0 0 0 0 0 0 0 0 0 0 0 0 0 0 0 0 0 0 0 0 0 0 0 0 0 0 0 0 0 0 0 0 0 0 0 0 0 0 0 0 0 0 0 0 0 0 0 0 0 0 0 0 0 0 0 0 0 0 0 0 0 0 0 0 0 0 0 0 0 0 0 0 0 0 0 0 0 0 0 0 0 0 0 0 0 0 0 0 0 0 0 0 0 0 0 0 0 0 0 0 0 0 0 0 0 0 0 0 0 0 0 0 0 0 0 0 0 0 0 0 0 0 0 0 0 0 0 0 0 0 0 0 0 0 0 0 0 0 0 0 0 0 0 0 0 0 0 0 0 0 0 0 0 0 0 0 0 0 0 0 0 0 0 0 0 0 0 0 0 0 0 0 0 0 0 0 0 0 0 0 0 0 0 0 0 0 0 0 0 0 0 0 0 0 0 0 0 0 0 0 0 0 0 0 0 0 0 0 0 0 0 0 0 0 0 0 0 0 0 0 0 0 0 0 0 0 0 0 0 0 0 0 0 0 0 0 0 0 0 0 0 0 0 0 0 0 0 0 0 0 0 0 0 0 0 0 0 0 0 0 0 0 0 0 0 0 0 0 0 0 0 0 0 0 0 0 0 0 0 0 0 0 0 0 0 0 0 0 0 0 0 0 0 0 0 0 0 0 0 0 0 0 0 0 0 0 0 0 0 0 0 0 0 0 0 0 0 0 0 0 0 0 0 0 0 0 0 0 0 0 0 0 0 0 0 0 0 0 0 0 0 0 0 0 0 0 0 0 0 0 0 0 0 0 0 0 0 0 0 0 0 0 0 0 0 0 0 0 0 0 0 0 0 0 0 0 0 0 0 0 0 0 0 0 0 0 0 0 0 0 0 0 0 0 0 0 0 0 0 0 0 0 0 0 0 0 0 0 0 0 0 0 0 0 0 0 0 0 0 0 0 0 0 0 0 0 0 0 0 0 0 0 0 0 0 0 0 0 0 0 0 0 0 0 0 0 0 0 0 0 0 0 0 0 0 0 0 0 0 0 0 0 0 0 0 0 0 0 0 0 0 0 0 0 0 0 0 0 0 0 0 0 0 0 0 0 0 0 0 0 0 0 0 0 0 0 0 0 0 0 0 0 0 0 0 0 0 0 0 0 0 0 0 0 0 0 0 0 0 0 0 0 0 0 0 0 0 0 0 0 0 0 0 0 0 0 0 0 0 0 0 0 0 0 0 0 0 0 0 0 0 0 0 0 0 0 0 0 0 0 0 0 0 0 0 0 0 0 0 0 0 0 0 0 0 0 0 0 0 0 0 0 0 0 0 0 0 0 0 0 0 0 0 0 0 0 0 0 0 0 0 0 0 0 0 0 0 0 0 0 0 0 0 0 0 0 0 0 0 0 0 0 0 0 0 0 0 0 0 0 0 0 0 0 0 0 0 0 0 0 0 0 0 0 0 0 0 0 0 0 0 0 0 0 0 0 0 0 0 0 0 0 0 0 0 0 0 0 0 0 0 0 0 0 0 0 0 0 0 0 0 0 0 0 0 0 0 0 0 0 0 0 0 0 0 0 0 0 0 0 0 0 0 0 0 0 0 0 0 0 0 0 0 0 0 0 0 0 0 0 0 0 0 0 0 0 0 0 0 0 0 0 0 0 0 0 0 0 0 0 0 0 0 0 0 0 0 0 0 0 0 0 0 0 0 0 0 0 0 0 0 0 0 0 0 0 0 0 0 0 0 0 0 0 0 0 0 0 0 0 0 0 0 0 0 0 0 0 0 0 0 0 0 0 0 0 0 0 0 0 0 0 0 0 0 0 0 0 0 0 0 0 0 0 0 0 0 0 0 0 0 0 0 0 0 0 0 0 0 0 0 0 0 0 0 0 0 0 0 0 0 0 0 0 0 0 0 0 0 0 0 0 0 0 0 0 0 0 0 0 0 0 0 0 0 0 0 0 0 0 0 0 0 0 0 0 0 0 0 0 0 0 0 0 0 0 0 0 0 0 0 0 0 0 0 0 0 0 0 0 0 0 0 0 0 0 0 0 0 0 0 0 0 0 0 0 0 0 </DataArray>
        <DataArray type="Int64" IdType="1" Name="vtkOriginalCellIds" format="ascii" RangeMin="0" RangeMax="3466">0 1 2 3 4 5 6 7 8 9 10 11 12 13 14 15 16 17 18 19 20 21 22 23 24 25 26 27 28 29 30 31 32 33 34 35 36 37 38 39 40 41 42 43 44 45 46 47 48 49 50 51 52 53 54 55 56 57 58 59 60 61 62 63 64 65 66 67 68 69 70 71 72 73 74 75 76 77 78 79 80 81 82 83 84 85 86 87 88 89 90 91 92 93 94 95 96 97 98 99 100 101 102 103 104 105 106 107 108 109 110 111 112 113 114 115 116 117 118 119 120 121 122 123 124 125 126 127 128 129 130 131 132 133 134 135 136 137 138 139 140 141 142 143 144 145 146 147 148 149 150 151 152 153 154 155 156 157 158 159 160 161 162 163 164 165 166 167 168 169 170 171 172 173 174 175 176 177 178 179 180 181 182 183 184 185 186 187 188 189 190 191 192 193 194 195 196 197 198 199 200 201 202 203 204 205 206 207 208 209 210 211 212 213 214 215 216 217 218 219 220 221 222 223 224 225 226 227 228 229 230 231 232 233 234 235 236 237 238 239 240 241 242 243 244 245 246 247 248 249 250 251 252 253 254 255 256 257 258 259 260 261 262 263 264 265 266 267 268 269 270 271 272 273 274 275 276 277 278 279 280 281 282 283 284 285 286 287 288 289 290 291 292 293 294 295 296 297 298 299 300 301 302 303 304 305 306 307 308 309 310 311 312 313 314 315 316 317 318 319 320 321 322 323 324 325 326 327 328 329 330 331 332 333 334 335 336 337 338 339 340 341 342 343 344 345 346 347 348 349 350 351 352 353 354 355 356 357 358 359 360 361 362 363 364 365 366 367 368 369 370 371 372 373 374 375 376 377 378 379 380 381 382 383 384 385 386 387 388 389 390 391 392 393 394 395 396 397 398 399 400 401 402 403 404 405 406 407 408 409 410 411 412 413 414 415 416 417 418 419 420 421 422 423 424 425 426 427 428 429 430 431 432 433 434 435 436 437 438 439 440 441 442 443 444 445 446 447 448 449 450 451 452 453 454 455 456 457 458 459 460 461 462 463 464 465 466 467 468 469 470 471 472 473 474 475 476 477 478 479 480 481 482 483 484 485 486 487 488 489 490 491 492 493 494 495 496 497 498 499 500 501 502 503 504 505 506 507 508 509 510 511 512 513 514 515 516 517 518 519 520 521 522 523 524 525 526 527 528 529 530 531 532 533 534 535 536 537 538 539 540 541 542 543 544 545 546 547 548 549 550 551 552 553 554 555 556 557 558 559 560 561 562 563 564 565 566 567 568 569 570 571 572 573 574 575 576 577 578 579 580 581 582 583 584 585 586 587 588 589 590 591 592 593 594 595 596 597 598 599 600 601 602 603 604 605 606 607 608 609 610 611 612 613 614 615 616 617 618 619 620 621 622 623 624 625 626 627 628 629 630 631 632 633 634 635 636 637 638 639 640 641 642 643 644 645 646 647 648 649 650 651 652 653 654 655 656 657 658 659 660 661 662 663 664 665 666 667 668 669 670 671 672 673 674 675 676 677 678 679 680 681 682 683 684 685 686 687 688 689 690 691 692 693 694 695 696 697 698 699 700 701 702 703 704 705 706 707 708 709 710 711 712 713 714 715 716 717 718 719 720 721 722 723 724 725 726 727 728 729 730 731 732 733 734 735 736 737 738 739 740 741 742 743 744 745 746 747 748 749 750 751 752 753 754 755 756 757 758 759 760 761 762 763 764 765 766 767 768 769 770 771 772 773 774 775 776 777 778 779 780 781 782 783 784 785 786 787 788 789 790 791 792 793 794 795 796 797 798 799 800 801 802 803 804 805 806 807 808 809 810 811 812 813 814 815 816 817 818 819 820 821 822 823 824 825 826 827 828 829 830 831 832 833 834 835 836 837 838 839 840 841 842 843 844 845 846 847 848 849 850 851 852 853 854 855 856 857 858 859 860 861 862 863 864 865 866 867 868 869 870 871 872 873 874 875 876 877 878 879 880 881 882 883 884 885 886 887 888 889 890 891 892 893 894 895 896 897 898 899 900 901 902 903 904 905 906 907 908 909 910 911 912 913 914 915 916 917 918 919 920 921 922 923 924 925 926 927 928 929 930 931 932 933 934 935 936 937 938 939 940 941 942 943 944 945 946 947 948 949 950 951 952 953 954 955 956 957 958 959 960 961 962 963 964 965 966 967 968 969 970 971 972 973 974 975 976 977 978 979 980 981 982 983 984 985 986 987 988 989 990 991 992 993 994 995 996 997 998 999 1000 1001 1002 1003 1004 1005 1006 1007 1008 1009 1010 1011 1012 1013 1014 1015 1016 1017 1018 1019 1020 1021 1022 1023 1024 1025 1026 1027 1028 1029 1030 1031 1032 1033 1034 1035 1036 1037 1038 1039 1040 1041 1042 1043 1044 1045 1046 1047 1048 1049 1050 1051 1052 1053 1054 1055 1056 1057 1058 1059 1060 1061 1062 1063 1064 1065 1066 1067 1068 1069 1070 1071 1072 1073 1074 1075 1076 1077 1078 1079 1080 1081 1082 1083 1084 1085 1086 1087 1088 1089 1090 1091 1092 1093 1094 1095 1096 1097 1098 1099 1100 1101 1102 1103 1104 1105 1106 1107 1108 1109 1110 1111 1112 1113 1114 1115 1116 1117 1118 1119 1120 1121 1122 1123 1124 1125 1126 1127 1128 1129 1130 1131 1132 1133 1134 1135 1136 1137 1138 1139 1140 1141 1142 1143 1144 1145 1146 1147 1148 1149 1150 1151 1152 1153 1154 1155 1156 1157 1158 1159 1160 1161 1162 1163 1164 1165 1166 1167 1168 1169 1170 1171 1172 1173 1174 1175 1176 1177 1178 1179 1180 1181 1182 1183 1184 1185 1186 1187 1188 1189 1190 1191 1192 1193 1194 1195 1196 1197 1198 1199 1200 1201 1202 1203 1204 1205 1206 1207 1208 1209 1210 1211 1212 1213 1214 1215 1216 1217 1218 1219 1220 1221 1222 1223 1224 1225 1226 1227 1228 1229 1230 1231 1232 1233 1234 1235 1236 1237 1238 1239 1240 1241 1242 1243 1244 1245 1246 1247 1248 1249 1250 1251 1252 1253 1254 1255 1256 1257 1258 1259 1260 1261 1262 1263 1264 1265 1266 1267 1268 1269 1270 1271 1272 1273 1274 1275 1276 1277 1278 1279 1280 1281 1282 1283 1284 1285 1286 1287 1288 1289 1290 1291 1292 1293 1294 1295 1296 1297 1298 1299 1300 1301 1302 1303 1304 1305 1306 1307 1308 1309 1310 1311 1312 1313 1314 1315 1316 1317 1318 1319 1320 1321 1322 1323 1324 1325 1326 1327 1328 1329 1330 1331 1332 1333 1334 1335 1336 1337 1338 1339 1340 1341 1342 1343 1344 1345 1346 1347 1348 1349 1350 1351 1352 1353 1354 1355 1356 1357 1358 1359 1360 1361 1362 1363 1364 1365 1366 1367 1368 1369 1370 1371 1372 1373 1374 1375 1376 1377 1378 1379 1380 1381 1382 1383 1384 1385 1386 1387 1388 1389 1390 1391 1392 1393 1394 1395 1396 1397 1398 1399 1400 1401 1402 1403 1404 1405 1406 1407 1408 1409 1410 1411 1412 1413 1414 1415 1416 1417 1418 1419 1420 1421 1422 1423 1424 1425 1426 1427 1428 1429 1430 1431 1432 1433 1434 1435 1436 1437 1438 1439 1440 1441 1442 1443 1444 1445 1446 1447 1448 1449 1450 1451 1452 1453 1454 1455 1456 1457 1458 1459 1460 1461 1462 1463 1464 1465 1466 1467 1468 1469 1470 1471 1472 1473 1474 1475 1476 1477 1478 1479 1480 1481 1482 1483 1484 1485 1486 1487 1488 1489 1490 1491 1492 1493 1494 1495 1496 1497 1498 1499 1500 1501 1502 1503 1504 1505 1506 1507 1508 1509 1510 1511 1512 1513 1514 1515 1516 1517 1518 1519 1520 1521 1522 1523 1524 1525 1526 1527 1528 1529 1530 1531 1532 1533 1534 1535 1536 1537 1538 1539 1540 1541 1542 1543 1544 1545 1546 1547 1548 1549 1550 1551 1552 1553 1554 1555 1556 1557 1558 1559 1560 1561 1562 1563 1564 1565 1566 1567 1568 1569 1570 1571 1572 1573 1574 1575 1576 1577 1578 1579 1580 1581 1582 1583 1584 1585 1586 1587 1588 1589 1590 1591 1592 1593 1594 1595 1596 1597 1598 1599 1600 1601 1602 1603 1604 1605 1606 1607 1608 1609 1610 1611 1612 1613 1614 1615 1616 1617 1618 1619 1620 1621 1622 1623 1624 1625 1626 1627 1628 1629 1630 1631 1632 1633 1634 1635 1636 1637 1638 1639 1640 1641 1642 1643 1644 1645 1646 1647 1648 1649 1650 1651 1652 1653 1654 1655 1656 1657 1658 1659 1660 1661 1662 1663 1664 1665 1666 1667 1668 1669 1670 1671 1672 1673 1674 1675 1676 1677 1678 1679 1680 1681 1682 1683 1684 1685 1686 1687 1688 1689 1690 1691 1692 1693 1694 1695 1696 1697 1698 1699 1700 1701 1702 1703 1704 1705 1706 1707 1708 1709 1710 1711 1712 1713 1714 1715 1716 1717 1718 1719 1720 1721 1722 1723 1724 1725 1726 1727 1728 1729 1730 1731 1732 1733 1734 1735 1736 1737 1738 1739 1740 1741 1742 1743 1744 1745 1746 1747 1748 1749 1750 1751 1752 1753 1754 1755 1756 1757 1758 1759 1760 1761 1762 1763 1764 1765 1766 1767 1768 1769 1770 1771 1772 1773 1774 1775 1776 1777 1778 1779 1780 1781 1782 1783 1784 1785 1786 1787 1788 1789 1790 1791 1792 1793 1794 1795 1796 1797 1798 1799 1800 1801 1802 1803 1804 1805 1806 1807 1808 1809 1810 1811 1812 1813 1814 1815 1816 1817 1818 1819 1820 1821 1822 1823 1824 1825 1826 1827 1828 1829 1830 1831 1832 1833 1834 1835 1836 1837 1838 1839 1840 1841 1842 1843 1844 1845 1846 1847 1848 1849 1850 1851 1852 1853 1854 1855 1856 1857 1858 1859 1860 1861 1862 1863 1864 1865 1866 1867 1868 1869 1870 1871 1872 1873 1874 1875 1876 1877 1878 1879 1880 1881 1882 1883 1884 1885 1886 1887 1888 1889 1890 1891 1892 1893 1894 1895 1896 1897 1898 1899 1900 1901 1902 1903 1904 1905 1906 1907 1908 1909 1910 1911 1912 1913 1914 1915 1916 1917 1918 1919 1920 1921 1922 1923 1924 1925 1926 1927 1928 1929 1930 1931 1932 1933 1934 1935 1936 1937 1938 1939 1940 1941 1942 1943 1944 1945 1946 1947 1948 1949 1950 1951 1952 1953 1954 1955 1956 1957 1958 1959 1960 1961 1962 1963 1964 1965 1966 1967 1968 1969 1970 1971 1972 1973 1974 1975 1976 1977 1978 1979 1980 1981 1982 1983 1984 1985 1986 1987 1988 1989 1990 1991 1992 1993 1994 1995 1996 1997 1998 1999 2000 2001 2002 2003 2004 2005 2006 2007 2008 2009 2010 2011 2012 2013 2014 2015 2016 2017 2018 2019 2020 2021 2022 2023 2024 2025 2026 2027 2028 2029 2030 2031 2032 2033 2034 2035 2036 2037 2038 2039 2040 2041 2042 2043 2044 2045 2046 2047 2048 2049 2050 2051 2052 2053 2054 2055 2056 2057 2058 2059 2060 2061 2062 2063 2064 2065 2066 2067 2068 2069 2070 2071 2072 2073 2074 2075 2076 2077 2078 2079 2080 2081 2082 2083 2084 2085 2086 2087 2088 2089 2090 2091 2092 2093 2094 2095 2096 2097 2098 2099 2100 2101 2102 2103 2104 2105 2106 2107 2108 2109 2110 2111 2112 2113 2114 2115 2116 2117 2118 2119 2120 2121 2122 2123 2124 2125 2126 2127 2128 2129 2130 2131 2132 2133 2134 2135 2136 2137 2138 2139 2140 2141 2142 2143 2144 2145 2146 2147 2148 2149 2150 2151 2152 2153 2154 2155 2156 2157 2158 2159 2160 2161 2162 2163 2164 2165 2166 2167 2168 2169 2170 2171 2172 2173 2174 2175 2176 2177 2178 2179 2180 2181 2182 2183 2184 2185 2186 2187 2188 2189 2190 2191 2192 2193 2194 2195 2196 2197 2198 2199 2200 2201 2202 2203 2204 2205 2206 2207 2208 2209 2210 2211 2212 2213 2214 2215 2216 2217 2218 2219 2220 2221 2222 2223 2224 2225 2226 2227 2228 2229 2230 2231 2232 2233 2234 2235 2236 2237 2238 2239 2240 2241 2242 2243 2244 2245 2246 2247 2248 2249 2250 2251 2252 2253 2254 2255 2256 2257 2258 2259 2260 2261 2262 2263 2264 2265 2266 2267 2268 2269 2270 2271 2272 2273 2274 2275 2276 2277 2278 2279 2280 2281 2282 2283 2284 2285 2286 2287 2288 2289 2290 2291 2292 2293 2294 2295 2296 2297 2298 2299 2300 2301 2302 2303 2304 2305 2306 2307 2308 2309 2310 2311 2312 2313 2314 2315 2316 2317 2318 2319 2320 2321 2322 2323 2324 2325 2326 2327 2328 2329 2330 2331 2332 2333 2334 2335 2336 2337 2338 2339 2340 2341 2342 2343 2344 2345 2346 2347 2348 2349 2350 2351 2352 2353 2354 2355 2356 2357 2358 2359 2360 2361 2362 2363 2364 2365 2366 2367 2368 2369 2370 2371 2372 2373 2374 2375 2376 2377 2378 2379 2380 2381 2382 2383 2384 2385 2386 2387 2388 2389 2390 2391 2392 2393 2394 2395 2396 2397 2398 2399 2400 2401 2402 2403 2404 2405 2406 2407 2408 2409 2410 2411 2412 2413 2414 2415 2416 2417 2418 2419 2420 2421 2422 2423 2424 2425 2426 2427 2428 2429 2430 2431 2432 2433 2434 2435 2436 2437 2438 2439 2440 2441 2442 2443 2444 2445 2446 2447 2448 2449 2450 2451 2452 2453 2454 2455 2456 2457 2458 2459 2460 2461 2462 2463 2464 2465 2466 2467 2468 2469 2470 2471 2472 2473 2474 2475 2476 2477 2478 2479 2480 2481 2482 2483 2484 2485 2486 2487 2488 2489 2490 2491 2492 2493 2494 2495 2496 2497 2498 2499 2500 2501 2502 2503 2504 2505 2506 2507 2508 2509 2510 2511 2512 2513 2514 2515 2516 2517 2518 2519 2520 2521 2522 2523 2524 2525 2526 2527 2528 2529 2530 2531 2532 2533 2534 2535 2536 2537 2538 2539 2540 2541 2542 2543 2544 2545 2546 2547 2548 2549 2550 2551 2552 2553 2554 2555 2556 2557 2558 2559 2560 2561 2562 2563 2564 2565 2566 2567 2568 2569 2570 2571 2572 2573 2574 2575 2576 2577 2578 2579 2580 2581 2582 2583 2584 2585 2586 2587 2588 2589 2590 2591 2592 2593 2594 2595 2596 2597 2598 2599 2600 2601 2602 2603 2604 2605 2606 2607 2608 2609 2610 2611 2612 2613 2614 2615 2616 2617 2618 2619 2620 2621 2622 2623 2624 2625 2626 2627 2628 2629 2630 2631 2632 2633 2634 2635 2636 2637 2638 2639 2640 2641 2642 2643 2644 2645 2646 2647 2648 2649 2650 2651 2652 2653 2654 2655 2656 2657 2658 2659 2660 2661 2662 2663 2664 2665 2666 2667 2668 2669 2670 2671 2672 2673 2674 2675 2676 2677 2678 2679 2680 2681 2682 2683 2684 2685 2686 2687 2688 2689 2690 2691 2692 2693 2694 2695 2696 2697 2698 2699 2700 2701 2702 2703 2704 2705 2706 2707 2708 2709 2710 2711 2712 2713 2714 2715 2716 2717 2718 2719 2720 2721 2722 2723 2724 2725 2726 2727 2728 2729 2730 2731 2732 2733 2734 2735 2736 2737 2738 2739 2740 2741 2742 2743 2744 2745 2746 2747 2748 2749 2750 2751 2752 2753 2754 2755 2756 2757 2758 2759 2760 2761 2762 2763 2764 2765 2766 2767 2768 2769 2770 2771 2772 2773 2774 2775 2776 2777 2778 2779 2780 2781 2782 2783 2784 2785 2786 2787 2788 2789 2790 2791 2792 2793 2794 2795 2796 2797 2798 2799 2800 2801 2802 2803 2804 2805 2806 2807 2808 2809 2810 2811 2812 2813 2814 2815 2816 2817 2818 2819 2820 2821 2822 2823 2824 2825 2826 2827 2828 2829 2830 2831 2832 2833 2834 2835 2836 2837 2838 2839 2840 2841 2842 2843 2844 2845 2846 2847 2848 2849 2850 2851 2852 2853 2854 2855 2856 2857 2858 2859 2860 2861 2862 2863 2864 2865 2866 2867 2868 2869 2870 2871 2872 2873 2874 2875 2876 2877 2878 2879 2880 2881 2882 2883 2884 2885 2886 2887 2888 2889 2890 2891 2892 2893 2894 2895 2896 2897 2898 2899 2900 2901 2902 2903 2904 2905 2906 2907 2908 2909 2910 2911 2912 2913 2914 2915 2916 2917 2918 2919 2920 2921 2922 2923 2924 2925 2926 2927 2928 2929 2930 2931 2932 2933 2934 2935 2936 2937 2938 2939 2940 2941 2942 2943 2944 2945 2946 2947 2948 2949 2950 2951 2952 2953 2954 2955 2956 2957 2958 2959 2960 2961 2962 2963 2964 2965 2966 2967 2968 2969 2970 2971 2972 2973 2974 2975 2976 2977 2978 2979 2980 2981 2982 2983 2984 2985 2986 2987 2988 2989 2990 2991 2992 2993 2994 2995 2996 2997 2998 2999 3000 3001 3002 3003 3004 3005 3006 3007 3008 3009 3010 3011 3012 3013 3014 3015 3016 3017 3018 3019 3020 3021 3022 3023 3024 3025 3026 3027 3028 3029 3030 3031 3032 3033 3034 3035 3036 3037 3038 3039 3040 3041 3042 3043 3044 3045 3046 3047 3048 3049 3050 3051 3052 3053 3054 3055 3056 3057 3058 3059 3060 3061 3062 3063 3064 3065 3066 3067 3068 3069 3070 3071 3072 3073 3074 3075 3076 3077 3078 3079 3080 3081 3082 3083 3084 3085 3086 3087 3088 3089 3090 3091 3092 3093 3094 3095 3096 3097 3098 3099 3100 3101 3102 3103 3104 3105 3106 3107 3108 3109 3110 3111 3112 3113 3114 3115 3116 3117 3118 3119 3120 3121 3122 3123 3124 3125 3126 3127 3128 3129 3130 3131 3132 3133 3134 3135 3136 3137 3138 3139 3140 3141 3142 3143 3144 3145 3146 3147 3148 3149 3150 3151 3152 3153 3154 3155 3156 3157 3158 3159 3160 3161 3162 3163 3164 3165 3166 3167 3168 3169 3170 3171 3172 3173 3174 3175 3176 3177 3178 3179 3180 3181 3182 3183 3184 3185 3186 3187 3188 3189 3190 3191 3192 3193 3194 3195 3196 3197 3198 3199 3200 3201 3202 3203 3204 3205 3206 3207 3208 3209 3210 3211 3212 3213 3214 3215 3216 3217 3218 3219 3220 3221 3222 3223 3224 3225 3226 3227 3228 3229 3230 3231 3232 3233 3234 3235 3236 3237 3238 3239 3240 3241 3242 3243 3244 3245 3246 3247 3248 3249 3250 3251 3252 3253 3254 3255 3256 3257 3258 3259 3260 3261 3262 3263 3264 3265 3266 3267 3268 3269 3270 3271 3272 3273 3274 3275 3276 3277 3278 3279 3280 3281 3282 3283 3284 3285 3286 3287 3288 3289 3290 3291 3292 3293 3294 3295 3296 3297 3298 3299 3300 3301 3302 3303 3304 3305 3306 3307 3308 3309 3310 3311 3312 3313 3314 3315 3316 3317 3318 3319 3320 3321 3322 3323 3324 3325 3326 3327 3328 3329 3330 3331 3332 3333 3334 3335 3336 3337 3338 3339 3340 3341 3342 3343 3344 3345 3346 3347 3348 3349 3350 3351 3352 3353 3354 3355 3356 3357 3358 3359 3360 3361 3362 3363 3364 3365 3366 3367 3368 3369 3370 3371 3372 3373 3374 3375 3376 3377 3378 3379 3380 3381 3382 3383 3384 3385 3386 3387 3388 3389 3390 3391 3392 3393 3394 3395 3396 3397 3398 3399 3400 3401 3402 3403 3404 3405 3406 3407 3408 3409 3410 3411 3412 3413 3414 3415 3416 3417 3418 3419 3420 3421 3422 3423 3424 3425 3426 3427 3428 3429 3430 3431 3432 3433 3434 3435 3436 3437 3438 3439 3440 3441 3442 3443 3444 3445 3446 3447 3448 3449 3450 3451 3452 3453 3454 3455 3456 3457 3458 3459 3460 3461 3462 3463 3464 3465 3466 </DataArray>
        <DataArray type="Float64" Name="stress" format="ascii" NumberOfComponents="9">-4195826.886610596 5171137.853404722 5171137.853404722 -100954928.4889276 0 0 0 0 0 -2783748.900489338 -2710352.462845085 -2710352.462845085 -74736992.33252108 0 0 0 0 0 618892.5858669514 3844700.174109834 3844700.174109834 -70001504.33508521 0 0 0 0 0 -4890953.509593538 4101833.81684062 4101833.81684062 -67969815.56804442 0 0 0 0 0 -3042917.339337452 7970658.830114219 7970658.830114219 -92186453.88703325 0 0 0 0 0 -2256413.168393232 -2556325.039160964 -2556325.039160964 -68473419.94859375 0 0 0 0 0 -2832470.793405149 -2994519.044415743 -2994519.044415743 -56213631.45284681 0 0 0 0 0 -1153195.350757871 5056232.063197631 5056232.063197631 -63333670.24892245 0 0 0 0 0 -3646007.519458892 1338776.489256564 1338776.489256564 -55867206.83301587 0 0 0 0 0 -3173890.213533957 1851444.73160098 1851444.73160098 -48118399.53860766 0 0 0 0 0 -1231750.478217604 -3460264.016418993 -3460264.016418993 -39388721.13020375 0 0 0 0 0 -4130293.902453662 10827676.76150343 10827676.76150343 -84754693.49657568 0 0 0 0 0 -1362739.072005458 1965191.662399209 1965191.662399209 -65258570.03090461 0 0 0 0 0 -591628.3686993382 -4771599.25073872 -4771599.25073872 -50357968.25425553 0 0 0 0 0 -2257106.298774364 -5996065.877555404 -5996065.877555404 -45133309.44041692 0 0 0 0 0 858060.0286359807 281918.8318595994 281918.8318595994 -33203292.54339918 0 0 0 0 0 2488908.40734701 -3361025.129224042 -3361025.129224042 -27073489.04167344 0 0 0 0 0 -1124430.140986108 6898119.333518866 6898119.333518866 -53851866.7467062 0 0 0 0 0 -861377.9436597505 -1998037.220029226 -1998037.220029226 -46116302.70871189 0 0 0 0 0 -1048297.688643601 -2563785.119537352 -2563785.119537352 -44902240.29672884 0 0 0 0 0 240566.9046605012 -2515728.096442648 -2515728.096442648 -38628703.74918634 0 0 0 0 0 783465.6256788097 -7209296.710280648 -7209296.710280648 -30960711.71042839 0 0 0 0 0 5135241.812094083 -875992.1917178858 -875992.1917178858 -22809668.82301278 0 0 0 0 0 -3236491.547535807 11821030.76992699 11821030.76992699 -71265438.03786185 0 0 0 0 0 1204539.927978595 -318463.9439621879 -318463.9439621879 -57801677.65326849 0 0 0 0 0 4073369.004061867 -9124969.387504436 -9124969.387504436 -44717241.25117729 0 0 0 0 0 3069513.345365218 -9861517.992825938 -9861517.992825938 -37049083.96427917 0 0 0 0 0 6361963.489075941 -4982550.933020794 -4982550.933020794 -27664823.83569548 0 0 0 0 0 7639082.692198995 -3321121.212453032 -3321121.212453032 -19002546.76720802 0 0 0 0 0 5365021.478094191 -7368256.234265272 -7368256.234265272 -22559509.76396049 0 0 0 0 0 -1484084.520905701 6666372.986330871 6666372.986330871 -43669968.46280911 0 0 0 0 0 2412640.513754268 -5150893.060397436 -5150893.060397436 -39652890.77213331 0 0 0 0 0 3659067.668661674 -7819629.889301809 -7819629.889301809 -36455580.56975118 0 0 0 0 0 2913728.164171556 -8030880.087505014 -8030880.087505014 -30429251.03743276 0 0 0 0 0 3661650.804289808 -8870125.551402371 -8870125.551402371 -23008682.66724336 0 0 0 0 0 10633596.00089482 -1255496.072889799 -1255496.072889799 -15428776.94330645 0 0 0 0 0 7943164.296644946 -5360292.392353401 -5360292.392353401 -18886069.81947332 0 0 0 0 0 -2057632.157134841 10572429.6888301 10572429.6888301 -54548138.67342962 0 0 0 0 0 5551001.801576976 -3026660.873849709 -3026660.873849709 -49888157.75665671 0 0 0 0 0 6018718.575422266 -6640199.157275431 -6640199.157275431 -41980157.53421187 0 0 0 0 0 9057305.196123585 -14970489.38891552 -14970489.38891552 -31388002.50660307 0 0 0 0 0 9576181.244757202 -14779569.48428081 -14779569.48428081 -34069630.30623531 0 0 0 0 0 9746447.263112083 -12605586.66725218 -12605586.66725218 -26798351.39840691 0 0 0 0 0 10899258.90654669 -10738550.88174181 -10738550.88174181 -20868952.59727311 0 0 0 0 0 12711198.73979486 -3103369.275371842 -3103369.275371842 -12407101.90631262 0 0 0 0 0 11226255.81430639 -7849840.407021271 -7849840.407021271 -15997934.07705247 0 0 0 0 0 598879.4297775413 2510787.559104647 2510787.559104647 -29471849.78201187 0 0 0 0 0 3992268.980883067 -4476981.823636174 -4476981.823636174 -37776658.27387483 0 0 0 0 0 11811990.29630486 -14443146.14760767 -14443146.14760767 -33192682.06945106 0 0 0 0 0 10260955.70967475 -13449703.35292968 -13449703.35292968 -26627755.13317636 0 0 0 0 0 11144859.08276667 -13517328.62718209 -13517328.62718209 -30608694.15265665 0 0 0 0 0 9069098.202431655 -12084842.68691114 -12084842.68691114 -22288662.80153368 0 0 0 0 0 10785606.75039197 -10199246.27786447 -10199246.27786447 -17333421.9367624 0 0 0 0 0 17055416.38893243 -1544392.672703684 -1544392.672703684 -9967408.102300776 0 0 0 0 0 12107147.64110963 -6739284.43998579 -6739284.43998579 -13160546.00383207 0 0 0 0 0 17876135.21638342 -2412779.885633799 -2412779.885633799 -7947386.36015068 0 0 0 0 0 914715.1718168553 7843920.502194817 7843920.502194817 -37660681.78371645 0 0 0 0 0 6098417.95917182 -1767726.604623179 -1767726.604623179 -38084595.71123481 0 0 0 0 0 12763988.50154726 -11576575.90448108 -11576575.90448108 -29693957.88364466 0 0 0 0 0 14088801.44050763 -13482910.7618748 -13482910.7618748 -31969084.29360568 0 0 0 0 0 15356905.03953935 -18149198.36848896 -18149198.36848896 -22827693.76686709 0 0 0 0 0 16343141.47932075 -19900862.11461845 -19900862.11461845 -25805017.02841892 0 0 0 0 0 18158883.29150444 -20580669.72075754 -20580669.72075754 -27059053.26919724 0 0 0 0 0 15402113.37470382 -15619316.5039584 -15619316.5039584 -18716089.78446186 0 0 0 0 0 16373737.67292823 -12660985.29091705 -12660985.29091705 -14668543.29912651 0 0 0 0 0 14348034.20310423 -5063479.84343545 -5063479.84343545 -9190825.497660533 0 0 0 0 0 18971766.40285467 -8217060.44266242 -8217060.44266242 -10673788.77486573 0 0 0 0 0 19421470.62678466 -1559162.946014504 -1559162.946014504 -6369835.717473825 0 0 0 0 0 1654636.589341436 447320.7150615682 447320.7150615682 -17282602.06918915 0 0 0 0 0 14218617.35584874 -10991698.69071851 -10991698.69071851 -21288046.69001438 0 0 0 0 0 14136307.68804496 -11732660.95587788 -11732660.95587788 -31845609.13866826 0 0 0 0 0 21087507.15130029 -20323427.12831393 -20323427.12831393 -26019353.56328651 0 0 0 0 0 17140658.2022189 -16944643.37905664 -16944643.37905664 -19926212.36904906 0 0 0 0 0 18887733.47105286 -18511577.37511793 -18511577.37511793 -23215204.33379203 0 0 0 0 0 21541313.79652913 -19203937.01530904 -19203937.01530904 -25793312.52849125 0 0 0 0 0 16360793.04393994 -14757517.48742842 -14757517.48742842 -16058298.39387701 0 0 0 0 0 16778445.92717038 -12005794.41882616 -12005794.41882616 -12336389.77827888 0 0 0 0 0 22605718.95170182 -5437686.25101321 -5437686.25101321 -6699998.053699759 0 0 0 0 0 17324537.69496036 -8821162.752536695 -8821162.752536695 -9178349.26729814 0 0 0 0 0 23059084.36196779 -2697892.862704067 -2697892.862704067 -4582122.717453701 0 0 0 0 0 6713851.616834853 -18788.64886815783 -18788.64886815783 -16504580.26460281 0 0 0 0 0 16866523.47788772 -8266479.325917761 -8266479.325917761 -24350211.66956292 0 0 0 0 0 18168241.87863485 -12904667.42254438 -12904667.42254438 -27214049.5195544 0 0 0 0 0 23802181.18782017 -20107310.60879651 -20107310.60879651 -22074514.32236291 0 0 0 0 0 24424167.93212463 -19350606.5378916 -19350606.5378916 -26533670.56292652 0 0 0 0 0 21195778.45695979 -20388295.84390963 -20388295.84390963 -16998132.27953678 0 0 0 0 0 22405038.00358632 -22853327.99464155 -22853327.99464155 -19937004.7639761 0 0 0 0 0 24603253.19661685 -24655265.3266543 -24655265.3266543 -22024219.83683446 0 0 0 0 0 27834848.40536755 -25541239.14648861 -25541239.14648861 -22286757.44582156 0 0 0 0 0 21162538.22455171 -17250771.39250194 -17250771.39250194 -13501387.51371062 0 0 0 0 0 22103340.44727842 -13697747.57982468 -13697747.57982468 -10075510.35326185 0 0 0 0 0 20237603.97769763 -6993756.664581753 -6993756.664581753 -6126821.680578159 0 0 0 0 0 24696189.33344919 -9829304.371509267 -9829304.371509267 -6775164.72199084 0 0 0 0 0 26275549.28006201 -1740269.602494385 -1740269.602494385 -3113400.238807582 0 0 0 0 0 27871735.57134639 -2359101.161737322 -2359101.161737322 -2140359.857601791 0 0 0 0 0 8332228.175335335 -7547626.891454753 -7547626.891454753 -2810024.163904654 0 0 0 0 0 16057110.52313794 -12594656.86338791 -12594656.86338791 -16558868.93666334 0 0 0 0 0 29450376.13358939 -21030108.98054615 -21030108.98054615 -15574513.13446902 0 0 0 0 0 28560085.66924923 -19719692.72575409 -19719692.72575409 -25249112.50770538 0 0 0 0 0 31527751.19252755 -26326170.2250683 -26326170.2250683 -21002673.69441858 0 0 0 0 0 23723980.78385384 -19128028.80891749 -19128028.80891749 -14990158.24850352 0 0 0 0 0 25810203.94978446 -21343197.44799148 -21343197.44799148 -18116939.58600502 0 0 0 0 0 28883383.04203209 -22970733.83960585 -22970733.83960585 -20725334.45212988 0 0 0 0 0 32688821.99033087 -23980346.49016878 -23980346.49016878 -22435911.016809 0 0 0 0 0 22653958.20083031 -16390241.90296886 -16390241.90296886 -11765399.68544176 0 0 0 0 0 22564359.29943462 -13291908.82073775 -13291908.82073775 -8853745.825741637 0 0 0 0 0 26867154.83062266 -6574714.193903513 -6574714.193903513 -4183037.639039042 0 0 0 0 0 23565980.2804877 -10215378.52496152 -10215378.52496152 -6248703.654640626 0 0 0 0 0 25873704.82513638 -6718295.53058401 -6718295.53058401 -3431880.28711967 0 0 0 0 0 30854506.90406937 -1692387.430330673 -1692387.430330673 -1138762.471138825 0 0 0 0 0 17679182.22542448 -10385691.49773952 -10385691.49773952 1564473.425656897 0 0 0 0 0 27314310.64044411 -16153846.35311857 -16153846.35311857 -11838584.31612919 0 0 0 0 0 33163829.79966863 -20341571.9138478 -20341571.9138478 -20118322.30448334 0 0 0 0 0 36997348.20984791 -26800448.67860897 -26800448.67860897 -17008210.50082095 0 0 0 0 0 37799608.09737041 -24705464.43886935 -24705464.43886935 -22666659.19228244 0 0 0 0 0 28319143.49972651 -24450223.79607339 -24450223.79607339 -15775572.27445767 0 0 0 0 0 27012645.16641854 -21514130.88782625 -21514130.88782625 -12837504.93855329 0 0 0 0 0 30674311.47069049 -26796777.61519665 -26796777.61519665 -18181347.6210971 0 0 0 0 0 34041218.75922742 -28498837.45515027 -28498837.45515027 -19639702.43948903 0 0 0 0 0 38271381.38062558 -29702595.25708181 -29702595.25708181 -19881953.966582 0 0 0 0 0 26701901.32767275 -18133799.05121745 -18133799.05121745 -9763284.297625955 0 0 0 0 0 27109980.7360251 -14611551.7237709 -14611551.7237709 -6935452.875116694 0 0 0 0 0 27061444.87615661 -11358174.4835682 -11358174.4835682 -4534866.031301084 0 0 0 0 0 31765271.50161562 -6197478.194338234 -6197478.194338234 -1697024.820379879 0 0 0 0 0 32493070.52744383 -2105737.823351297 -2105737.823351297 -534271.4361319031 0 0 0 0 0 30163445.80739484 -5917172.654354475 -5917172.654354475 -1719425.971267853 0 0 0 0 0 19258799.02852286 -17733158.02919235 -17733158.02919235 9440067.346705569 0 0 0 0 0 27560240.86284112 -21061089.43490541 -21061089.43490541 -5867390.561090782 0 0 0 0 0 42271950.24242655 -27825605.76335194 -27825605.76335194 -11166136.05623656 0 0 0 0 0 44004769.8710385 -25538519.77013559 -25538519.77013559 -20979125.23013021 0 0 0 0 0 43505482.53629488 -30495655.34493271 -30495655.34493271 -18529018.84135494 0 0 0 0 0 32083967.81444331 -22899597.92517052 -22899597.92517052 -14320298.00297424 0 0 0 0 0 29821119.39133751 -20305780.34288006 -20305780.34288006 -11510524.7063927 0 0 0 0 0 35346339.60126067 -24995530.00739118 -24995530.00739118 -16950835.38181689 0 0 0 0 0 39529174.28628378 -26566496.51246559 -26566496.51246559 -19061160.23491945 0 0 0 0 0 44811413.34290586 -27671225.40190137 -27671225.40190137 -20319031.53241248 0 0 0 0 0 28564506.92184393 -17322226.50888338 -17322226.50888338 -8835639.294463988 0 0 0 0 0 28273971.17627434 -14124252.72621762 -14124252.72621762 -6429029.9947528 0 0 0 0 0 28909077.60775818 -10805313.52753571 -10805313.52753571 -3987470.743497711 0 0 0 0 0 29376144.45260822 -8157209.945434425 -8157209.945434425 -2182438.04895918 0 0 0 0 0 34921663.24493768 -1533624.433670779 -1533624.433670779 289224.04735445 0 0 0 0 0 33209891.01636763 -5050608.947086933 -5050608.947086933 -542461.8547035799 0 0 0 0 0 36767671.90256962 -1964973.651813598 -1964973.651813598 933897.7602930274 0 0 0 0 0 29572872.46564512 -22452351.05333651 -22452351.05333651 16767669.79615324 0 0 0 0 0 42100850.71477652 -25760639.8440972 -25760639.8440972 960089.6490356007 0 0 0 0 0 42290788.731773 -23225154.65027739 -23225154.65027739 -13365580.2859622 0 0 0 0 0 50940841.35246821 -26292717.16516176 -26292717.16516176 -17688583.22432161 0 0 0 0 0 50028638.38347742 -31131574.7654288 -31131574.7654288 -15406711.00549581 0 0 0 0 0 51396325.66250451 -28465391.57808344 -28465391.57808344 -20334986.27868687 0 0 0 0 0 36218953.19279446 -27737587.0830492 -27737587.0830492 -15234837.76332437 0 0 0 0 0 33867546.13304072 -25099017.75764105 -25099017.75764105 -12659702.9535436 0 0 0 0 0 32540433.63085971 -22011622.57684871 -22011622.57684871 -9874210.937212251 0 0 0 0 0 39588542.89644223 -29820943.57639477 -29820943.57639477 -17282804.43888282 0 0 0 0 0 43907136.81485341 -31357973.29353045 -31357973.29353045 -18559187.41878556 0 0 0 0 0 49172075.31391058 -32358091.17727345 -32358091.17727345 -18839571.1514231 0 0 0 0 0 32166697.22482079 -18661931.10829432 -18661931.10829432 -7169297.700150372 0 0 0 0 0 32589848.27259925 -15231896.58879231 -15231896.58879231 -4693654.126979184 0 0 0 0 0 33697597.28447689 -11475198.36525749 -11475198.36525749 -2386304.379721751 0 0 0 0 0 34795363.4943709 -8764089.605268933 -8764089.605268933 -496434.0412410708 0 0 0 0 0 35306000.77820617 -5552899.476265611 -5552899.476265611 278025.0535096239 0 0 0 0 0 39288803.11578196 -1479786.098403768 -1479786.098403768 1639742.939407328 0 0 0 0 0 40695346.89030017 -1730378.013484565 -1730378.013484565 2012394.811153765 0 0 0 0 0 35234198.44295555 -31193790.60277915 -31193790.60277915 24043030.3667421 0 0 0 0 0 42649601.39551837 -24115726.79608497 -24115726.79608497 -5080783.968757235 0 0 0 0 0 49722113.06961818 -29586722.28103735 -29586722.28103735 -2628893.354537508 0 0 0 0 0 57168734.70106104 -31686710.11743655 -31686710.11743655 -10307418.50101584 0 0 0 0 0 58586508.92524666 -29041376.59569686 -29041376.59569686 -19033898.88709164 0 0 0 0 0 55464893.17370454 -32871359.10269569 -32871359.10269569 -17760475.59171753 0 0 0 0 0 40999561.56726473 -25908831.70319369 -25908831.70319369 -14047528.11668076 0 0 0 0 0 37718397.62078854 -23584003.63148639 -23584003.63148639 -11509726.45692107 0 0 0 0 0 35420531.6741752 -20867888.77867083 -20867888.77867083 -8962199.742997058 0 0 0 0 0 45235390.31446926 -27758262.77424591 -27758262.77424591 -16342344.78532441 0 0 0 0 0 50429291.17838903 -29115435.96146185 -29115435.96146185 -18138887.37524811 0 0 0 0 0 56727727.08499996 -29997955.05797379 -29997955.05797379 -19169544.80463488 0 0 0 0 0 34096360.50132408 -17890967.47752175 -17890967.47752175 -6537536.53425736 0 0 0 0 0 33671965.9684554 -14780666.2254855 -14780666.2254855 -4238117.941533396 0 0 0 0 0 33800127.45029578 -11471284.06032927 -11471284.06032927 -2561785.459092415 0 0 0 0 0 35642172.82764942 -8588049.155175271 -8588049.155175271 -671902.2309327226 0 0 0 0 0 37700225.58966984 -5019329.015553294 -5019329.015553294 807680.8142633429 0 0 0 0 0 38947903.01953961 -5259122.614889175 -5259122.614889175 1180629.956974739 0 0 0 0 0 42865118.669907 -1381453.978774824 -1381453.978774824 2429173.026394078 0 0 0 0 0 45525204.81746796 -35268335.6243234 -35268335.6243234 29737960.0566968 0 0 0 0 0 56090781.78567015 -30171836.58770432 -30171836.58770432 5931233.311432545 0 0 0 0 0 55385754.98942647 -32520816.40726247 -32520816.40726247 6609004.494016714 0 0 0 0 0 58935899.34618519 -28310147.75549494 -28310147.75549494 -11497037.00919496 0 0 0 0 0 66331643.70245902 -29491336.25110159 -29491336.25110159 -16374974.96571812 0 0 0 0 0 62813786.137711 -33014963.41661651 -33014963.41661651 -15347398.31209522 0 0 0 0 0 64007360.44711479 -30497707.58190648 -30497707.58190648 -19171483.71207103 0 0 0 0 0 44535297.5598337 -30134806.46068776 -30134806.46068776 -15236705.87193439 0 0 0 0 0 41271955.65479422 -27878946.26672419 -27878946.26672419 -12906269.03126029 0 0 0 0 0 38978110.6965891 -25157822.90327312 -25157822.90327312 -10325443.21424608 0 0 0 0 0 37594142.71212764 -22104682.64593847 -22104682.64593847 -7722746.121914426 0 0 0 0 0 48744257.66046741 -31855048.31718535 -31855048.31718535 -17094550.17593637 0 0 0 0 0 53872291.88010202 -33002633.34616562 -33002633.34616562 -18287058.97956691 0 0 0 0 0 59868965.36304797 -33563322.56954954 -33563322.56954954 -18608982.17563116 0 0 0 0 0 37024356.15615677 -18854804.17086871 -18854804.17086871 -5249006.437018765 0 0 0 0 0 37254588.86284947 -15437607.57998633 -15437607.57998633 -2947360.67064883 0 0 0 0 0 38162405.64964987 -12144925.93247818 -12144925.93247818 -1057022.027790151 0 0 0 0 0 39073896.80932418 -9032988.985971862 -9032988.985971862 409685.7094357276 0 0 0 0 0 42867259.36654728 -4804253.138026462 -4804253.138026462 2124951.487271035 0 0 0 0 0 44391063.01722693 -1555790.340473932 -1555790.340473932 2674131.096876041 0 0 0 0 0 42324912.33342621 -4613602.924176945 -4613602.924176945 1831779.686327844 0 0 0 0 0 49207128.39250915 -40915610.18494949 -40915610.18494949 32162014.97948761 0 0 0 0 0 63229520.98301542 -36141544.30403221 -36141544.30403221 13637705.03225189 0 0 0 0 0 67017408.29365967 -29479692.7941249 -29479692.7941249 -6360324.577976516 0 0 0 0 0 64486908.32018838 -32860380.31032388 -32860380.31032388 -5593061.409613255 0 0 0 0 0 70552101.64840475 -33086446.01584192 -33086446.01584192 -11939472.59451976 0 0 0 0 0 71896854.17005667 -30666978.9762746 -30666978.9762746 -18169070.67623949 0 0 0 0 0 66809061.53613237 -33595812.95577598 -33595812.95577598 -17896387.99798876 0 0 0 0 0 50078367.39327349 -28068554.97460175 -28068554.97460175 -14125017.95231648 0 0 0 0 0 45967205.74276384 -26094100.02535062 -26094100.02535062 -11796388.47396948 0 0 0 0 0 42777248.7889156 -23704849.56758427 -23704849.56758427 -9388838.084091259 0 0 0 0 0 40512034.22462862 -20997847.95986682 -20997847.95986682 -7039333.278680384 0 0 0 0 0 55097684.32425061 -29563309.81856035 -29563309.81856035 -16184485.20250153 0 0 0 0 0 61005348.00809685 -30536951.61270128 -30536951.61270128 -17768006.77233901 0 0 0 0 0 67852519.72918956 -31011527.50170731 -31011527.50170731 -18640308.93160048 0 0 0 0 0 39122535.9183086 -18078007.51367335 -18078007.51367335 -4834889.262419977 0 0 0 0 0 38530823.26796311 -15017649.95501864 -15017649.95501864 -2948592.418200329 0 0 0 0 0 38731915.19421973 -11993084.68019314 -11993084.68019314 -1238137.255642755 0 0 0 0 0 39602560.47734729 -8952407.387526136 -8952407.387526136 131162.9475543718 0 0 0 0 0 40738957.61467486 -6843413.185593549 -6843413.185593549 1170682.905710989 0 0 0 0 0 45794451.51439525 -1352260.005708356 -1352260.005708356 2811154.629168392 0 0 0 0 0 44078245.22140198 -4205091.722513051 -4205091.722513051 2187985.213906471 0 0 0 0 0 66430933.62506983 -47822696.8977895 -47822696.8977895 40832127.86104503 0 0 0 0 0 74604919.60985312 -38723752.01318391 -38723752.01318391 17998137.30643038 0 0 0 0 0 81769825.40229276 -34188637.84781852 -34188637.84781852 2516272.695878443 0 0 0 0 0 73134971.57919081 -34276199.19135181 -34276199.19135181 331532.6252992625 0 0 0 0 0 75695643.61385874 -30762474.80973719 -30762474.80973719 -12004063.97003962 0 0 0 0 0 80491300.36419128 -30678977.12812344 -30678977.12812344 -16062963.77079352 0 0 0 0 0 74518674.9506129 -33239930.74464022 -33239930.74464022 -16232921.97410031 0 0 0 0 0 75432560.60276115 -31036218.48561396 -31036218.48561396 -18693978.00977665 0 0 0 0 0 48953324.6484198 -29812288.62045286 -29812288.62045286 -13473171.7466894 0 0 0 0 0 52952013.17804968 -31614068.05085531 -31614068.05085531 -15631898.6264403 0 0 0 0 0 45850046.49409695 -27520980.16397598 -27520980.16397598 -11051151.68091459 0 0 0 0 0 43631698.95287743 -24842079.26593497 -24842079.26593497 -8546054.788079446 0 0 0 0 0 42256476.06379163 -21885807.25439785 -21885807.25439785 -6102569.497211711 0 0 0 0 0 57815159.77390245 -32856970.47433021 -32856970.47433021 -17344574.84760171 0 0 0 0 0 63509709.361371 -33494355.24478048 -33494355.24478048 -18475122.46054649 0 0 0 0 0 70015887.1884422 -33537233.37555356 -33537233.37555356 -18837415.82797248 0 0 0 0 0 41678567.09654594 -18738917.00534077 -18738917.00534077 -3810691.32782079 0 0 0 0 0 41803964.94638578 -15562392.11824719 -15562392.11824719 -1799324.200764856 0 0 0 0 0 42682617.63254292 -12349962.63472353 -12349962.63472353 -8348.704841278784 0 0 0 0 0 44101866.07348121 -9112153.792783571 -9112153.792783571 1472998.538878449 0 0 0 0 0 45649947.22425289 -6876274.805378579 -6876274.805378579 2639872.484400962 0 0 0 0 0 47684526.82897589 -1557125.852868639 -1557125.852868639 3160665.493256657 0 0 0 0 0 47005999.24353933 -4431548.61254776 -4431548.61254776 2998155.827834231 0 0 0 0 0 68393387.06038351 -51396177.5317599 -51396177.5317599 37632330.15674131 0 0 0 0 0 77196102.67137443 -41535345.67918684 -41535345.67918684 19056301.45895628 0 0 0 0 0 84155255.26600559 -36163549.49451542 -36163549.49451542 5427658.933887111 0 0 0 0 0 86888157.10123238 -31785507.75474387 -31785507.75474387 -7531287.168688833 0 0 0 0 0 78984867.33969818 -33540496.26304852 -33540496.26304852 -8666938.4511075 0 0 0 0 0 82665768.94268823 -32630535.72535125 -32630535.72535125 -13863582.66611692 0 0 0 0 0 83541962.07496776 -30672010.68928176 -30672010.68928176 -17951083.63546486 0 0 0 0 0 77237578.19409172 -33023413.93314643 -33023413.93314643 -18353570.34965305 0 0 0 0 0 54256677.97010577 -27813743.85401705 -27813743.85401705 -12304255.12740345 0 0 0 0 0 58999605.5785111 -29367171.65521077 -29367171.65521077 -14461136.81310343 0 0 0 0 0 50352677.90387091 -25816186.41260822 -25816186.41260822 -10020500.20621832 0 0 0 0 0 47310138.66460659 -23457741.51229981 -23457741.51229981 -7741519.003279151 0 0 0 0 0 45113778.36148027 -20829971.98563889 -20829971.98563889 -5566997.787351619 0 0 0 0 0 64534107.57131782 -30417749.58782266 -30417749.58782266 -16330677.32116502 0 0 0 0 0 70899642.22448833 -30934786.75784364 -30934786.75784364 -17737140.7631972 0 0 0 0 0 77973061.94551657 -30927188.19943257 -30927188.19943257 -18519662.41534481 0 0 0 0 0 43722792.61626598 -18021237.85238413 -18021237.85238413 -3596286.82015293 0 0 0 0 0 43077653.15687265 -15150166.51904233 -15150166.51904233 -1833330.105069495 0 0 0 0 0 43122287.45297531 -12284391.802812 -12284391.802812 -382556.2445037607 0 0 0 0 0 43609137.60834184 -9435564.446822086 -9435564.446822086 666929.8011492166 0 0 0 0 0 45344291.17926097 -7127486.950045022 -7127486.950045022 1824040.594890272 0 0 0 0 0 49947010.11864211 -1353247.396777591 -1353247.396777591 3514605.566974182 0 0 0 0 0 46754263.19012307 -4636533.615968179 -4636533.615968179 2444497.113615533 0 0 0 0 0 91352232.6261562 -59752923.34588433 -59752923.34588433 47756045.06924604 0 0 0 0 0 93938515.28514807 -45803981.68455371 -45803981.68455371 25674592.13085453 0 0 0 0 0 96644678.91388018 -37596505.4017438 -37596505.4017438 9463104.319024675 0 0 0 0 0 98682899.60739782 -32868345.17020442 -32868345.17020442 -1915026.208938987 0 0 0 0 0 88780227.54497473 -33196397.12639728 -33196397.12639728 -4331637.748700016 0 0 0 0 0 90183958.81944171 -30728670.00067367 -30728670.00067367 -12923773.79790041 0 0 0 0 0 92183237.66838676 -29994758.78505757 -29994758.78505757 -16296985.61277851 0 0 0 0 0 84947518.90778133 -32054775.75612734 -32054775.75612734 -17083126.50646014 0 0 0 0 0 85529714.53263029 -30425077.34396528 -30425077.34396528 -18618779.30534644 0 0 0 0 0 52901854.94194108 -29100378.21393029 -29100378.21393029 -11959471.31093512 0 0 0 0 0 56641771.50656065 -30912517.39473022 -30912517.39473022 -14236883.65349527 0 0 0 0 0 61187947.20069333 -32204534.22667308 -32204534.22667308 -16237820.3659953 0 0 0 0 0 49980187.59776802 -26853822.85336944 -26853822.85336944 -9553963.640798725 0 0 0 0 0 47862508.02318192 -24271028.26341275 -24271028.26341275 -7154793.03265759 0 0 0 0 0 46512003.8823723 -21447906.33433753 -21447906.33433753 -4867138.187355118 0 0 0 0 0 66493314.24813855 -32924061.10436843 -32924061.10436843 -17822266.60026909 0 0 0 0 0 72504588.51400134 -33028680.39968124 -33028680.39968124 -18845831.43687953 0 0 0 0 0 79173239.7908098 -32514771.29013539 -32514771.29013539 -19165534.12379109 0 0 0 0 0 45867835.20738003 -18493659.90447531 -18493659.90447531 -2780751.269886068 0 0 0 0 0 45868749.55049741 -15482457.83156002 -15482457.83156002 -924823.11461002 0 0 0 0 0 46373739.3142287 -12548211.67408368 -12548211.67408368 608798.0997587767 0 0 0 0 0 47597530.01361036 -9730532.069137115 -9730532.069137115 1884974.78117554 0 0 0 0 0 49149654.13080587 -7162547.735496311 -7162547.735496311 2896258.949799464 0 0 0 0 0 50781358.7378198 -1352772.563965246 -1352772.563965246 3341974.025029134 0 0 0 0 0 48945179.75639962 -3867477.53378808 -3867477.53378808 3052857.635465138 0 0 0 0 0 50846063.90035088 -4710323.742272891 -4710323.742272891 3656188.955049019 0 0 0 0 0 89758720.48991436 -59800486.19411381 -59800486.19411381 39333009.11419878 0 0 0 0 0 93199256.44430703 -45705504.6274548 -45705504.6274548 22497445.97187998 0 0 0 0 0 96543421.94075072 -37486773.77776699 -37486773.77776699 9409331.508764133 0 0 0 0 0 99092420.2350987 -32974809.44858657 -32974809.44858657 -310392.1524069245 0 0 0 0 0 100377372.7652067 -30374372.87948049 -30374372.87948049 -9289895.763269957 0 0 0 0 0 91399914.22279792 -31660882.54643774 -31660882.54643774 -10976399.64843823 0 0 0 0 0 92914851.89371747 -30564878.31751983 -30564878.31751983 -15152471.49266373 0 0 0 0 0 93363950.72474009 -29430852.03442 -29430852.03442 -18002669.97192167 0 0 0 0 0 86327648.17882301 -31415776.45988471 -31415776.45988471 -18782299.05190225 0 0 0 0 0 57895375.53732304 -27204754.97509815 -27204754.97509815 -10793605.19790504 0 0 0 0 0 62317436.58261824 -28764867.6799877 -28764867.6799877 -12951797.5925533 0 0 0 0 0 67471625.19236732 -29854035.72072076 -29854035.72072076 -14947096.52053242 0 0 0 0 0 54241625.24786688 -25243769.72180145 -25243769.72180145 -8593363.686157217 0 0 0 0 0 51372650.51266696 -22964086.72244226 -22964086.72244226 -6452925.564157874 0 0 0 0 0 49273093.41021585 -20450675.83401426 -20450675.83401426 -4455095.496704124 0 0 0 0 0 73308519.7554552 -30426597.58841027 -30426597.58841027 -16645911.46895698 0 0 0 0 0 79779979.40454482 -30453803.50153039 -30453803.50153039 -17899798.16919429 0 0 0 0 0 86698512.23964004 -29934678.12331835 -29934678.12331835 -18601042.18490509 0 0 0 0 0 47901180.36617395 -17796013.46118891 -17796013.46118891 -2649871.977399322 0 0 0 0 0 47206767.80318259 -15078094.12627812 -15078094.12627812 -1097925.149474834 0 0 0 0 0 47123604.07328289 -12388493.02332945 -12388493.02332945 196583.1055447856 0 0 0 0 0 47589524.19303282 -9838477.117678225 -9838477.117678225 1349163.639092029 0 0 0 0 0 48681733.30074362 -7469518.239450566 -7469518.239450566 2149513.366388651 0 0 0 0 0 53002681.63297228 -1028444.332241977 -1028444.332241977 3841574.061211604 0 0 0 0 0 52032389.25603098 -3528631.027946948 -3528631.027946948 3848975.191248894 0 0 0 0 0 49763723.19582085 -5336004.275210778 -5336004.275210778 2718478.700931652 0 0 0 0 0 53692138.54301307 -1101031.512482766 -1101031.512482766 3834410.317354065 0 0 0 0 0 56300055.09313808 -1129809.729974541 -1129809.729974541 4077155.720850582 0 0 0 0 0 120535199.9000677 -68979013.48717004 -68979013.48717004 51217709.12941363 0 0 0 0 0 114967532.6673442 -51580220.69190907 -51580220.69190907 31358482.55385269 0 0 0 0 0 112934647.9931999 -40483234.85038615 -40483234.85038615 15327883.36252455 0 0 0 0 0 111703857.6538946 -33885352.49774799 -33885352.49774799 3472025.288129546 0 0 0 0 0 110992931.6705777 -29822072.47505146 -29822072.47505146 -5058781.366143217 0 0 0 0 0 100608216.4961296 -30260768.44582368 -30260768.44582368 -7573522.980284093 0 0 0 0 0 101244698.8978828 -28977592.45825755 -28977592.45825755 -13838580.45603427 0 0 0 0 0 101507452.9605613 -28063632.28984613 -28063632.28984613 -16597160.79394522 0 0 0 0 0 93722242.94124697 -29769290.12292663 -29769290.12292663 -17684467.38386769 0 0 0 0 0 93923606.14509985 -28906970.01508924 -28906970.01508924 -18681460.7871678 0 0 0 0 0 59910058.78269649 -29932857.79619504 -29932857.79619504 -12946827.99503176 0 0 0 0 0 56435449.03409047 -28156778.87915556 -28156778.87915556 -10657958.93748181 0 0 0 0 0 64117198.17660552 -31239629.03313063 -31239629.03313063 -15072463.84479579 0 0 0 0 0 69015629.49082913 -32009048.03178867 -32009048.03178867 -16908127.60743515 0 0 0 0 0 53705478.34216242 -25994907.19389131 -25994907.19389131 -8325661.705041622 0 0 0 0 0 51701535.48011615 -23537916.08531694 -23537916.08531694 -6055142.665897714 0 0 0 0 0 50389818.58308443 -20880297.75528475 -20880297.75528475 -3930882.173683877 0 0 0 0 0 74546041.19288521 -32189690.02227696 -32189690.02227696 -18315824.05595808 0 0 0 0 0 80630457.50595263 -31753471.60487997 -31753471.60487997 -19170320.62472799 0 0 0 0 0 87181439.9987137 -30713861.46225223 -30713861.46225223 -19402713.88326221 0 0 0 0 0 49721380.28815094 -18106052.43157872 -18106052.43157872 -2006858.929179717 0 0 0 0 0 49625796.09955993 -15313287.35275614 -15313287.35275614 -339301.2290741323 0 0 0 0 0 50012760.50335487 -12583602.93731791 -12583602.93731791 1055938.213218569 0 0 0 0 0 50827449.46705571 -9926119.52600022 -9926119.52600022 2242324.595426631 0 0 0 0 0 51770934.95000416 -7603589.813989125 -7603589.813989125 3014722.308905117 0 0 0 0 0 52263372.27014965 -3368478.918371766 -3368478.918371766 3509730.602094373 0 0 0 0 0 52514779.34812499 -5653444.123644727 -5653444.123644727 3476305.216728925 0 0 0 0 0 54780330.73388609 -967906.647876226 -967906.647876226 3863403.531693142 0 0 0 0 0 57867186.40359354 -1053751.948528192 -1053751.948528192 4145970.653284726 0 0 0 0 0 58811200.08913128 -1018778.6181532 -1018778.6181532 4003553.73503308 0 0 0 0 0 113546250.7424791 -64396176.87399932 -64396176.87399932 37694544.795679 0 0 0 0 0 110618787.7337852 -48377940.47907276 -48377940.47907276 23540283.17453902 0 0 0 0 0 110182705.4936162 -37992085.61158696 -37992085.61158696 12252116.04040264 0 0 0 0 0 110109476.0515195 -31980307.18514876 -31980307.18514876 3111803.727401638 0 0 0 0 0 109976601.529076 -28544276.22329457 -28544276.22329457 -4091640.284683363 0 0 0 0 0 110483541.80619 -27590992.62625634 -27590992.62625634 -10764385.93002456 0 0 0 0 0 101245198.735375 -28705105.62383444 -28705105.62383444 -12613926.03921387 0 0 0 0 0 101304058.6270418 -27680890.71940354 -27680890.71940354 -15919224.26811811 0 0 0 0 0 101356909.532542 -27406109.31358282 -27406109.31358282 -18060257.79886997 0 0 0 0 0 94013816.26840204 -29096138.14153184 -29096138.14153184 -19005888.66713116 0 0 0 0 0 65191203.64071972 -27910369.7566379 -27910369.7566379 -11632399.98700473 0 0 0 0 0 61098756.62333199 -26378609.87512006 -26378609.87512006 -9527129.301911535 0 0 0 0 0 69947555.7753263 -29012068.87074278 -29012068.87074278 -13655536.34728181 0 0 0 0 0 75314390.28794983 -29624533.29981852 -29624533.29981852 -15483081.93317101 0 0 0 0 0 57704553.2027443 -24486115.92336144 -24486115.92336144 -7435715.690270003 0 0 0 0 0 55021255.53412115 -22312289.94269561 -22312289.94269561 -5438515.204566655 0 0 0 0 0 53030137.68097213 -19938652.3252834 -19938652.3252834 -3596256.772198106 0 0 0 0 0 81203327.40556584 -29715786.19157056 -29715786.19157056 -17002338.90688683 0 0 0 0 0 87506621.10912706 -29258224.50206535 -29258224.50206535 -18084057.5143527 0 0 0 0 0 94095405.57467936 -28277262.56910577 -28277262.56910577 -18665039.41144884 0 0 0 0 0 51697890.53051876 -17444043.90737586 -17444043.90737586 -1957747.21790067 0 0 0 0 0 50975783.65558133 -14911084.36933305 -14911084.36933305 -543453.774411988 0 0 0 0 0 50805950.24316904 -12401738.70491715 -12401738.70491715 659869.5256616081 0 0 0 0 0 51140922.55973739 -9959722.362239877 -9959722.362239877 1593191.7632519 0 0 0 0 0 51912815.7673569 -7688456.628163702 -7688456.628163702 2299821.148995816 0 0 0 0 0 54545116.06094002 -3307005.645266737 -3307005.645266737 3831071.684700081 0 0 0 0 0 53215623.74258436 -5630828.731094474 -5630828.731094474 3125020.89666422 0 0 0 0 0 55715575.7202261 -3309542.505688268 -3309542.505688268 3672902.664626584 0 0 0 0 0 57474483.62642086 -3049652.783165943 -3049652.783165943 3689353.512714925 0 0 0 0 0 59990863.23018431 -912064.6227663832 -912064.6227663832 4095395.912270646 0 0 0 0 0 61089065.41815744 -985832.5294305488 -985832.5294305488 4177759.306051613 0 0 0 0 0 66857704.16583257 -824458.0074120311 -824458.0074120311 4108621.754747767 0 0 0 0 0 65709421.56801077 -713196.4622349535 -713196.4622349535 3975093.483275288 0 0 0 0 0 65002418.77035105 -777998.4197192529 -777998.4197192529 4026414.080637564 0 0 0 0 0 63190166.76396644 -1008579.181114287 -1008579.181114287 4099799.220759379 0 0 0 0 0 148112952.8795935 -74582767.00036556 -74582767.00036556 49400005.73024359 0 0 0 0 0 138573573.8220336 -55786564.58231996 -55786564.58231996 35016515.54758082 0 0 0 0 0 130450871.511236 -42187388.00626297 -42187388.00626297 19890201.25170828 0 0 0 0 0 125397709.0919268 -33897340.21800239 -33897340.21800239 8142420.86450447 0 0 0 0 0 122012687.3506876 -28986715.58639364 -28986715.58639364 -667159.7289069268 0 0 0 0 0 119769302.1489641 -25882964.44069874 -25882964.44069874 -7184928.624649505 0 0 0 0 0 109632561.5676714 -26408709.67965466 -26408709.67965466 -9612047.489865147 0 0 0 0 0 109668747.0528639 -26260004.74321635 -26260004.74321635 -14498181.66629907 0 0 0 0 0 108715477.1449769 -25421125.77243195 -25421125.77243195 -16758719.76706129 0 0 0 0 0 100993795.1541681 -26949138.31666538 -26949138.31666538 -17927030.01201726 0 0 0 0 0 100896276.000243 -26798109.10750177 -26798109.10750177 -18639931.62565278 0 0 0 0 0 62814845.71668363 -28795945.35261336 -28795945.35261336 -11772066.8112456 0 0 0 0 0 66688848.30809584 -30088404.36492251 -30088404.36492251 -13922971.4102413 0 0 0 0 0 59605531.05660234 -27081604.88192588 -27081604.88192588 -9534202.214683671 0 0 0 0 0 71194165.76138818 -30888838.84029596 -30888838.84029596 -15873944.26791991 0 0 0 0 0 76276991.19935182 -31140992.2099196 -31140992.2099196 -17516469.8910316 0 0 0 0 0 57066297.9536931 -25025279.9131939 -25025279.9131939 -7308849.352417068 0 0 0 0 0 55183289.11299711 -22712168.96983968 -22712168.96983968 -5178659.69356948 0 0 0 0 0 53923494.99960476 -20225051.12498991 -20225051.12498991 -3207798.657491049 0 0 0 0 0 81847546.02049437 -30810467.2237424 -30810467.2237424 -18721180.3616705 0 0 0 0 0 87802234.67987597 -29893839.92485075 -29893839.92485075 -19397108.94105657 0 0 0 0 0 94037383.74902433 -28409169.51976429 -28409169.51976429 -19506354.30785546 0 0 0 0 0 53240007.05259001 -17647632.91572691 -17647632.91572691 -1444984.992773801 0 0 0 0 0 53057755.05699315 -15058760.80124481 -15058760.80124481 79737.61736587599 0 0 0 0 0 53343081.09347218 -12498705.76686424 -12498705.76686424 1373705.659935074 0 0 0 0 0 53972932.12787956 -10057306.19061472 -10057306.19061472 2381733.837890817 0 0 0 0 0 54814720.88373631 -7853189.46619525 -7853189.46619525 3122782.323506018 0 0 0 0 0 55503209.0271883 -5823653.284567275 -5823653.284567275 3585992.703448076 0 0 0 0 0 58046563.95869463 -3324688.43428275 -3324688.43428275 4156067.128976393 0 0 0 0 0 58749462.30834851 -2747258.235891175 -2747258.235891175 3929425.279310862 0 0 0 0 0 60258392.26000898 -2827894.961366919 -2827894.961366919 4166236.887371965 0 0 0 0 0 62098405.62995336 -991814.6776094189 -991814.6776094189 4130398.705644352 0 0 0 0 0 68314141.35162012 -728849.3671262632 -728849.3671262632 4293645.828777216 0 0 0 0 0 66667920.15223625 -2100066.47829144 -2100066.47829144 4496346.967567957 0 0 0 0 0 65025054.34627108 -955538.7945585245 -955538.7945585245 4440174.871407957 0 0 0 0 0 68542775.71992564 -638057.7343090101 -638057.7343090101 3990027.748400774 0 0 0 0 0 70099038.67545794 -664532.2836845071 -664532.2836845071 3972737.628893425 0 0 0 0 0 143447026.9620722 -71378827.5852685 -71378827.5852685 37427096.47202681 0 0 0 0 0 130104828.1703032 -46857400.06859291 -46857400.06859291 23861181.67886452 0 0 0 0 0 124774834.2608218 -36615120.56687771 -36615120.56687771 14867752.56719958 0 0 0 0 0 121788565.8070852 -30061682.04068699 -30061682.04068699 6477092.691988718 0 0 0 0 0 119542740.8769007 -26080287.40391663 -26080287.40391663 -579140.7319677648 0 0 0 0 0 117886550.6646544 -23648825.11353009 -23648825.11353009 -6238755.470727837 0 0 0 0 0 117739076.5108349 -24121474.99402197 -24121474.99402197 -11780320.80447345 0 0 0 0 0 108880538.6066494 -25141863.50262728 -25141863.50262728 -13524806.87397578 0 0 0 0 0 107910011.5858584 -24360582.49894881 -24360582.49894881 -16177581.14240448 0 0 0 0 0 107649886.5211592 -24811456.55226038 -24811456.55226038 -17969640.11635214 0 0 0 0 0 100447921.7529562 -26351955.2080238 -26351955.2080238 -18991042.13379801 0 0 0 0 0 67702454.88270544 -26908061.63765479 -26908061.63765479 -10477726.32828209 0 0 0 0 0 72073508.85933422 -28001322.36313487 -28001322.36313487 -12468905.47451794 0 0 0 0 0 63934485.03592566 -25424592.97721528 -25424592.97721528 -8457829.195240127 0 0 0 0 0 76992467.31150272 -28647347.70151747 -28647347.70151747 -14339891.10746611 0 0 0 0 0 82394339.67323856 -28796261.29875058 -28796261.29875058 -15985526.63399221 0 0 0 0 0 60799020.41491362 -23619680.65217698 -23619680.65217698 -6487237.485135206 0 0 0 0 0 58300557.40789612 -21567320.56851089 -21567320.56851089 -4630393.122753905 0 0 0 0 0 56425985.41357006 -19342016.45936666 -19342016.45936666 -2935905.863269552 0 0 0 0 0 88147976.30625571 -28429540.25565624 -28429540.25565624 -17307080.07978123 0 0 0 0 0 94143423.18202792 -27546538.87497184 -27546538.87497184 -18205346.60622435 0 0 0 0 0 100303980.6970879 -26161753.25739524 -26161753.25739524 -18609304.53610791 0 0 0 0 0 55142577.32384115 -17017671.2807267 -17017671.2807267 -1435101.598896847 0 0 0 0 0 54411299.44749361 -14658108.95215166 -14658108.95215166 -136018.7864943731 0 0 0 0 0 54175767.0550649 -12315523.75251455 -12315523.75251455 934217.2862363213 0 0 0 0 0 54389557.36626471 -10045811.76745914 -10045811.76745914 1795626.118412479 0 0 0 0 0 54986271.76374417 -7921170.689541603 -7921170.689541603 2536406.16096766 0 0 0 0 0 55853540.4029377 -5869480.073312457 -5869480.073312457 3088767.885694664 0 0 0 0 0 56754556.56889704 -4277902.654550053 -4277902.654550053 3407252.254422386 0 0 0 0 0 59680657.5735196 -4424824.060026872 -4424824.060026872 4197582.596275294 0 0 0 0 0 60896950.54586921 -2828414.190735835 -2828414.190735835 3827772.406561753 0 0 0 0 0 62827522.71364673 -2915123.41828216 -2915123.41828216 4229785.750037765 0 0 0 0 0 67477531.70814142 -1704761.695609946 -1704761.695609946 3624120.585922433 0 0 0 0 0 63688490.40694598 -2112597.674230364 -2112597.674230364 3628575.182800361 0 0 0 0 0 66121659.03021514 -2449398.840835269 -2449398.840835269 3625399.414644367 0 0 0 0 0 69119847.51996791 -596762.6896708703 -596762.6896708703 3883770.672445441 0 0 0 0 0 71188907.93746057 -582953.6960228712 -582953.6960228712 4092254.484507895 0 0 0 0 0 71508018.80455655 -539243.9929265219 -539243.9929265219 3925248.524322604 0 0 0 0 0 72825751.67916252 -586665.6395087861 -586665.6395087861 3892660.92842658 0 0 0 0 0 181660343.4394141 -79148529.16257845 -79148529.16257845 46281698.44658402 0 0 0 0 0 160320696.361231 -54829227.01154528 -54829227.01154528 30972686.41693424 0 0 0 0 0 152110186.0902019 -52259874.83226995 -52259874.83226995 32955437.91648065 0 0 0 0 0 146037469.9124467 -41897746.83653208 -41897746.83653208 23495831.02482424 0 0 0 0 0 137791130.5156116 -32640256.85034882 -32640256.85034882 12035088.16955773 0 0 0 0 0 132399512.8666538 -27232361.23033845 -27232361.23033845 3411726.33910626 0 0 0 0 0 128511433.1821047 -23735916.97172103 -23735916.97172103 -3361108.286793469 0 0 0 0 0 125367789.105663 -21629587.68762676 -21629587.68762676 -8540242.974796426 0 0 0 0 0 116286167.1244997 -22191023.21927986 -22191023.21927986 -10597000.68200575 0 0 0 0 0 115874796.7652616 -23067586.3944848 -23067586.3944848 -14814132.16703538 0 0 0 0 0 114158408.0475012 -22417334.39782044 -22417334.39782044 -16657882.93891761 0 0 0 0 0 106831777.5404115 -23835662.05060721 -23835662.05060721 -17817703.43176077 0 0 0 0 0 106496432.3998532 -24292501.89337745 -24292501.89337745 -18445014.71492816 0 0 0 0 0 65414008.11904766 -27579051.754049 -27579051.754049 -10710948.22992016 0 0 0 0 0 68967713.29663913 -28840015.73800021 -28840015.73800021 -12825035.6629899 0 0 0 0 0 73095000.66733243 -29656389.7779482 -29656389.7779482 -14811428.17417639 0 0 0 0 0 62458838.36724874 -25941329.15075636 -25941329.15075636 -8561829.569476722 0 0 0 0 0 77748415.74829203 -29973479.98247206 -29973479.98247206 -16561468.50766004 0 0 0 0 0 82853099.37295759 -29746281.02259357 -29746281.02259357 -17989746.34406007 0 0 0 0 0 60107132.59993521 -24001758.75710602 -24001758.75710602 -6459774.673531495 0 0 0 0 0 58345015.84535601 -21837921.86273102 -21837921.86273102 -4471613.200348865 0 0 0 0 0 57142899.52323143 -19525836.43430936 -19525836.43430936 -2649159.249014538 0 0 0 0 0 88315350.73906058 -28965086.29186551 -28965086.29186551 -18967113.86777885 0 0 0 0 0 93987457.26108295 -27642976.56729748 -27642976.56729748 -19455511.59441634 0 0 0 0 0 99816195.50747156 -25781321.55101184 -25781321.55101184 -19382382.00242626 0 0 0 0 0 56450111.89826611 -17139773.72809482 -17139773.72809482 -1027752.254657712 0 0 0 0 0 56224644.54236147 -14734636.70086046 -14734636.70086046 378602.3105788021 0 0 0 0 0 56404364.487172 -12378881.19554887 -12378881.19554887 1549340.008540588 0 0 0 0 0 56934821.87346286 -10114570.12453498 -10114570.12453498 2496855.394252603 0 0 0 0 0 57759904.11299493 -7953452.338268111 -7953452.338268111 3277215.879865589 0 0 0 0 0 58748386.72968972 -5905412.41699646 -5905412.41699646 3842225.15367553 0 0 0 0 0 59789527.34176236 -4546146.875228683 -4546146.875228683 3563875.124034537 0 0 0 0 0 61826768.50080408 -4596786.417676061 -4596786.417676061 4020349.573903354 0 0 0 0 0 62724344.7226719 -3112243.857025301 -3112243.857025301 3636269.281526738 0 0 0 0 0 68646630.11946666 -2468326.002384892 -2468326.002384892 4372532.297125597 0 0 0 0 0 69936178.00939065 -1688539.193224207 -1688539.193224207 4351210.898118979 0 0 0 0 0 65413780.26106795 -3158860.954539809 -3158860.954539809 4378228.301716463 0 0 0 0 0 67172253.38308947 -3695719.942147815 -3695719.942147815 4191081.387830456 0 0 0 0 0 70415343.87407379 -1591626.712629861 -1591626.712629861 3543597.810081438 0 0 0 0 0 71826813.94264288 -555210.1727338104 -555210.1727338104 3744956.171519562 0 0 0 0 0 73547396.39218785 -568954.6712680579 -568954.6712680579 3822628.073981413 0 0 0 0 0 74124901.59144983 -481266.9300063059 -481266.9300063059 3834646.991157525 0 0 0 0 0 165252805.5940277 -69426990.07701184 -69426990.07701184 29986352.1871512 0 0 0 0 0 156566858.8512842 -52739572.20986205 -52739572.20986205 27932986.31412938 0 0 0 0 0 146527850.0659195 -41040423.84993678 -41040423.84993678 22405115.71528524 0 0 0 0 0 137522485.4950142 -34314850.25811152 -34314850.25811152 15532136.58077116 0 0 0 0 0 132577964.1020809 -27454795.20942507 -27454795.20942507 9398858.782468963 0 0 0 0 0 128820224.0693838 -23073442.80248978 -23073442.80248978 2988228.283803095 0 0 0 0 0 125715019.0255972 -20482002.98231389 -20482002.98231389 -2663282.926822796 0 0 0 0 0 123249569.3764732 -18921250.18644287 -18921250.18644287 -7248755.917416979 0 0 0 0 0 122624644.229192 -20405086.60690108 -20405086.60690108 -12270484.62009722 0 0 0 0 0 114610959.9246582 -21397848.23640826 -21397848.23640826 -13808479.74048726 0 0 0 0 0 112984016.2841246 -20959751.74304243 -20959751.74304243 -16006803.60610163 0 0 0 0 0 112490488.5845649 -21973299.68092443 -21973299.68092443 -17681160.85370581 0 0 0 0 0 105700620.095998 -23412968.537567 -23412968.537567 -18690520.25042488 0 0 0 0 0 69920760.33657567 -25827282.55719027 -25827282.55719027 -9466462.790824955 0 0 0 0 0 73923625.41176869 -26898934.43562603 -26898934.43562603 -11390009.38275119 0 0 0 0 0 78429953.32933396 -27562578.75695996 -27562578.75695996 -13244110.42794062 0 0 0 0 0 66462219.02114615 -24405383.17995821 -24405383.17995821 -7549651.299451021 0 0 0 0 0 83360665.57406786 -27774099.00024201 -27774099.00024201 -14945556.3986035 0 0 0 0 0 88678547.81429596 -27491622.33791928 -27491622.33791928 -16387183.19374357 0 0 0 0 0 63572471.67638583 -22698134.06719079 -22698134.06719079 -5704428.759374641 0 0 0 0 0 61255467.97763075 -20773628.70409988 -20773628.70409988 -3981938.384673636 0 0 0 0 0 59499048.92187133 -18699503.85339297 -18699503.85339297 -2419326.972694722 0 0 0 0 0 94198530.68547674 -26699895.05978179 -26699895.05978179 -17490453.64056658 0 0 0 0 0 99822784.75656387 -25437162.11032201 -25437162.11032201 -18173162.39970449 0 0 0 0 0 105438596.0574781 -23731971.91802919 -23731971.91802919 -18381078.80811505 0 0 0 0 0 58274845.71736278 -16539334.71853639 -16539334.71853639 -1035657.852476721 0 0 0 0 0 57542551.21138182 -14347997.03563274 -14347997.03563274 152035.2132206125 0 0 0 0 0 57258638.76295134 -12181898.66113999 -12181898.66113999 1150032.670712155 0 0 0 0 0 57365722.89923502 -10081584.49649455 -10081584.49649455 1983082.763080323 0 0 0 0 0 57814762.76055231 -8072792.599804114 -8072792.599804114 2637848.726086808 0 0 0 0 0 58467471.9682086 -6147905.322715064 -6147905.322715064 3017384.904097843 0 0 0 0 0 61120781.97692415 -6236879.432961458 -6236879.432961458 3755729.194927261 0 0 0 0 0 61962061.43537904 -4716296.739267916 -4716296.739267916 3469369.916035885 0 0 0 0 0 64312554.24240233 -4735172.464505224 -4735172.464505224 4053594.722148393 0 0 0 0 0 67757799.79908916 -3095890.028940447 -3095890.028940447 3414762.007869701 0 0 0 0 0 69127455.37032035 -2190601.081835606 -2190601.081835606 3564031.59886559 0 0 0 0 0 64685047.1743826 -3593950.349427023 -3593950.349427023 3507477.544007509 0 0 0 0 0 66839093.96764464 -3951223.30003717 -3951223.30003717 3391341.554030069 0 0 0 0 0 71512401.86632562 -2198502.502654527 -2198502.502654527 4279396.858983109 0 0 0 0 0 72624436.2521673 -1531995.484471202 -1531995.484471202 4208861.29503953 0 0 0 0 0 72974048.45373575 -1465894.534570658 -1465894.534570658 3497095.079429581 0 0 0 0 0 73952393.07719202 -627692.3690659466 -627692.3690659466 3464306.81177466 0 0 0 0 0 211882850.6211146 -75709182.42757894 -75709182.42757894 42210496.99381078 0 0 0 0 0 185817563.8973396 -56961341.14644694 -56961341.14644694 35017822.64811652 0 0 0 0 0 170197412.7011176 -45621056.37850647 -45621056.37850647 29825786.92357155 0 0 0 0 0 157563415.7060356 -37744941.75424644 -37744941.75424644 22619308.35452107 0 0 0 0 0 148888000.8656133 -30545188.1158504 -30545188.1158504 15332240.03723287 0 0 0 0 0 141704704.3203815 -24786896.02648618 -24786896.02648618 7279389.386492829 0 0 0 0 0 136345664.5741641 -21109328.36487924 -21109328.36487924 468437.2147178247 0 0 0 0 0 132232398.526423 -18813981.05534996 -18813981.05534996 -4959516.595444407 0 0 0 0 0 128757474.6617864 -17467193.39037774 -17467193.39037774 -9181178.736675464 0 0 0 0 0 120912886.2170844 -18123003.21627468 -18123003.21627468 -10884473.72526085 0 0 0 0 0 120254078.5845027 -19707845.35688058 -19707845.35688058 -14731124.41026708 0 0 0 0 0 118075228.5376294 -19318321.982916 -19318321.982916 -16322718.00997631 0 0 0 0 0 111407751.0257204 -20657425.21068713 -20657425.21068713 -17362521.82971099 0 0 0 0 0 110907842.6952898 -21609637.26547201 -21609637.26547201 -18069507.56872081 0 0 0 0 0 67750076.77505079 -26334437.23432111 -26334437.23432111 -9757759.696490686 0 0 0 0 0 71003609.26568368 -27552412.75016233 -27552412.75016233 -11797867.56755392 0 0 0 0 0 74776352.12877299 -28371470.13620519 -28371470.13620519 -13760769.95451971 0 0 0 0 0 79029032.64264964 -28736132.53409063 -28736132.53409063 -15559636.44690317 0 0 0 0 0 65036133.96905404 -24781525.86039247 -24781525.86039247 -7717625.027663403 0 0 0 0 0 83696620.85913683 -28607366.8659625 -28607366.8659625 -17098269.41040934 0 0 0 0 0 88715405.73892553 -27943993.43107145 -27943993.43107145 -18295212.10304791 0 0 0 0 0 62863421.30183062 -22962873.85439124 -22962873.85439124 -5745881.952411307 0 0 0 0 0 61216822.5000857 -20948733.28117533 -20948733.28117533 -3897076.455481564 0 0 0 0 0 60067555.47156549 -18807346.43819814 -18807346.43819814 -2212505.898822094 0 0 0 0 0 93986142.07894291 -26773922.35215309 -26773922.35215309 -19052871.78654201 0 0 0 0 0 99318595.37548044 -25128056.24372091 -25128056.24372091 -19315777.03333935 0 0 0 0 0 104623940.8185776 -23009013.4370841 -23009013.4370841 -19015139.05404675 0 0 0 0 0 59379518.63480225 -16598038.88008335 -16598038.88008335 -715651.1120312108 0 0 0 0 0 59106755.0710582 -14379480.67180897 -14379480.67180897 577188.0553367622 0 0 0 0 0 59192124.49379434 -12199362.75025689 -12199362.75025689 1663874.78655114 0 0 0 0 0 59591434.22323616 -10081813.59404466 -10081813.59404466 2563664.594629509 0 0 0 0 0 60217149.59140092 -8070738.636743187 -8070738.636743187 3258943.520069443 0 0 0 0 0 61051832.59711264 -6391250.961436649 -6391250.961436649 3088946.86050432 0 0 0 0 0 63433342.9924306 -6394679.214263314 -6394679.214263314 3716660.682583539 0 0 0 0 0 64074406.60804424 -4963702.521641816 -4963702.521641816 3413925.319750423 0 0 0 0 0 70714330.6862348 -3142236.291400483 -3142236.291400483 4265999.381598716 0 0 0 0 0 69237290.47969931 -3979116.008215085 -3979116.008215085 4055795.893733274 0 0 0 0 0 66175051.69171324 -4985809.237385634 -4985809.237385634 3934298.149963178 0 0 0 0 0 68240916.62350821 -5220898.313686111 -5220898.313686111 3827460.986368063 0 0 0 0 0 70529836.20170014 -2815699.663007361 -2815699.663007361 3341966.805624822 0 0 0 0 0 71863748.32924244 -1993525.204355806 -1993525.204355806 3463800.861780648 0 0 0 0 0 73910403.25598243 -1918674.31431176 -1918674.31431176 4077714.507785544 0 0 0 0 0 74818359.01212411 -1380553.286344691 -1380553.286344691 4053554.171265755 0 0 0 0 0 188268526.7848226 -62992899.83067138 -62992899.83067138 24355489.79045556 0 0 0 0 0 170616347.948387 -47781789.95518602 -47781789.95518602 23872041.90431944 0 0 0 0 0 160852550.9451166 -36700630.64655526 -36700630.64655526 22241023.0742405 0 0 0 0 0 149522814.4654774 -29425079.16097653 -29425079.16097653 17627056.92129343 0 0 0 0 0 142203895.5584304 -23960378.48696865 -23960378.48696865 11769881.36561149 0 0 0 0 0 136999464.674376 -19702833.26073762 -19702833.26073762 6375557.229381516 0 0 0 0 0 132857829.3392028 -17006261.23496141 -17006261.23496141 1055027.640164974 0 0 0 0 0 129496338.5252516 -15447825.1793804 -15447825.1793804 -3641681.010931279 0 0 0 0 0 126604396.2764519 -14649542.45929712 -14649542.45929712 -7528917.712418118 0 0 0 0 0 125806185.3183004 -16735592.59411195 -16735592.59411195 -12209280.87817349 0 0 0 0 0 118743367.524782 -17775223.90119852 -17775223.90119852 -13599705.64881398 0 0 0 0 0 116741003.3246808 -17612766.34020912 -17612766.34020912 -15441219.90208874 0 0 0 0 0 116064709.1475555 -19087433.31610061 -19087433.31610061 -17196270.54847486 0 0 0 0 0 109846368.7054662 -20434413.97745947 -20434413.97745947 -18114246.95878003 0 0 0 0 0 71896834.34037893 -24715460.78571885 -24715460.78571885 -8578266.619113522 0 0 0 0 0 75555508.37057891 -25756127.48823536 -25756127.48823536 -10414336.64735218 0 0 0 0 0 79669254.23642264 -26428927.90472195 -26428927.90472195 -12217224.29725861 0 0 0 0 0 84180641.79622708 -26687722.91817404 -26687722.91817404 -13914512.53151742 0 0 0 0 0 68728737.93291503 -23362555.17320427 -23362555.17320427 -6773269.801148768 0 0 0 0 0 89008836.84641699 -26503655.51241493 -26503655.51241493 -15429059.0882351 0 0 0 0 0 94107255.16934156 -25844871.74417194 -25844871.74417194 -16663203.43762281 0 0 0 0 0 66071728.94883924 -21756665.5146203 -21756665.5146203 -5051942.582072106 0 0 0 0 0 63928132.86131345 -19960071.90971321 -19960071.90971321 -3455184.376283436 0 0 0 0 0 62286005.62915779 -18032199.10617663 -18032199.10617663 -2009880.345866877 0 0 0 0 0 99314125.24417952 -24715143.53955468 -24715143.53955468 -17566686.61925544 0 0 0 0 0 104480391.3177727 -23155481.3244149 -23155481.3244149 -18050910.05015093 0 0 0 0 0 109481600.6927367 -21194615.63762974 -21194615.63762974 -18061406.56389201 0 0 0 0 0 61119884.7982014 -16027762.05518709 -16027762.05518709 -734335.9328411263 0 0 0 0 0 60394415.79677746 -13999666.9149349 -13999666.9149349 364978.0065745646 0 0 0 0 0 60069761.83649719 -11988630.85609797 -11988630.85609797 1293068.461167021 0 0 0 0 0 60096339.42422097 -10026041.32780042 -10026041.32780042 2042081.41353595 0 0 0 0 0 60429217.46783469 -8138606.937430369 -8138606.937430369 2610162.011956071 0 0 0 0 0 62642084.17975926 -8151977.41373508 -8151977.41373508 3194482.647826056 0 0 0 0 0 63379789.23781346 -6542985.897905203 -6542985.897905203 3098139.837018657 0 0 0 0 0 65454271.50690122 -6509893.491603158 -6509893.491603158 3620581.067915579 0 0 0 0 0 69635277.45051531 -3790190.867402482 -3790190.867402482 3266744.443097282 0 0 0 0 0 68561544.21664149 -4488387.957480595 -4488387.957480595 3173372.238884282 0 0 0 0 0 66072919.77304356 -5147800.532181772 -5147800.532181772 3236231.945375434 0 0 0 0 0 67965008.92421061 -5416168.589429062 -5416168.589429062 3222899.218945891 0 0 0 0 0 72054199.15294516 -3744970.508808219 -3744970.508808219 3993770.120650934 0 0 0 0 0 73026508.15919614 -2708924.194179321 -2708924.194179321 4097398.913133325 0 0 0 0 0 73010975.03376894 -2509709.164857311 -2509709.164857311 3307266.781271143 0 0 0 0 0 74114137.18577956 -1793534.126782243 -1793534.126782243 3385143.752054767 0 0 0 0 0 234459018.7503066 -68515978.61847524 -68515978.61847524 34178600.7380745 0 0 0 0 0 205343355.0297602 -52069773.6391321 -52069773.6391321 33296861.88749931 0 0 0 0 0 184181946.4310121 -40577220.01809812 -40577220.01809812 29576031.71093702 0 0 0 0 0 168823739.9639781 -33517263.85981958 -33517263.85981958 24803034.08479996 0 0 0 0 0 157902113.4968107 -26706673.45155939 -26706673.45155939 17354239.13550913 0 0 0 0 0 149521576.1983804 -21732476.7542998 -21732476.7542998 10745320.1550089 0 0 0 0 0 143097998.7055768 -18098319.50248623 -18098319.50248623 4316349.608385925 0 0 0 0 0 138090452.8152402 -15759022.12802481 -15759022.12802481 -1231938.25638297 0 0 0 0 0 134044105.1808805 -14391360.31724953 -14391360.31724953 -5732442.712851403 0 0 0 0 0 130611541.5257868 -13670702.78363381 -13670702.78363381 -9249884.032585625 0 0 0 0 0 123970298.7140931 -14350596.43983197 -14350596.43983197 -10638963.16269723 0 0 0 0 0 123173711.9497372 -16422841.58721595 -16422841.58721595 -14361290.93363952 0 0 0 0 0 120788703.0418335 -16311158.02235378 -16311158.02235378 -15739450.74240091 0 0 0 0 0 114824777.0886778 -17572889.35983597 -17572889.35983597 -16651387.28031736 0 0 0 0 0 114213720.0404957 -18885311.73922274 -18885311.73922274 -17564734.75930148 0 0 0 0 0 72834234.4135043 -26264827.33732826 -26264827.33732826 -10848736.09445885 0 0 0 0 0 69857949.08494389 -25096586.1782865 -25096586.1782865 -8903279.655794201 0 0 0 0 0 76278399.04219827 -27077796.22031364 -27077796.22031364 -12751289.73148074 0 0 0 0 0 80158320.37174322 -27482972.0164842 -27482972.0164842 -14536112.14507888 0 0 0 0 0 84421098.89667012 -27440421.81075981 -27440421.81075981 -16131678.93893986 0 0 0 0 0 67367119.98791182 -23632410.2658972 -23632410.2658972 -6982033.599716078 0 0 0 0 0 88997770.48775896 -26922788.25375997 -26922788.25375997 -17434540.10836883 0 0 0 0 0 93816006.8464559 -25904051.36990599 -25904051.36990599 -18374178.63699535 0 0 0 0 0 65360089.20733666 -21934421.29302223 -21934421.29302223 -5141178.042563531 0 0 0 0 0 63821919.89120592 -20064835.07771639 -20064835.07771639 -3426046.644938732 0 0 0 0 0 62728074.05170638 -18082138.32523834 -18082138.32523834 -1867464.565767618 0 0 0 0 0 98789576.50955831 -24413144.19863927 -24413144.19863927 -18866020.81987556 0 0 0 0 0 103719952.5817429 -22487632.68684961 -22487632.68684961 -18874422.93445308 0 0 0 0 0 108501652.3825751 -20182421.77982292 -20182421.77982292 -18370636.94133199 0 0 0 0 0 62049810.90935769 -16042257.73997592 -16042257.73997592 -483873.8104247827 0 0 0 0 0 61740383.52775927 -13992701.36102641 -13992701.36102641 712367.6615852953 0 0 0 0 0 61768631.25515612 -11970044.50377256 -11970044.50377256 1726242.140977136 0 0 0 0 0 62086448.42608681 -10010180.35869031 -10010180.35869031 2552470.991560422 0 0 0 0 0 62865427.64240012 -8195013.679706102 -8195013.679706102 2645220.463689291 0 0 0 0 0 64813727.01236313 -8164997.035477958 -8164997.035477958 3136493.876812926 0 0 0 0 0 65513219.58453254 -6619402.975201815 -6619402.975201815 3011770.709411407 0 0 0 0 0 71031623.96680331 -4413440.712198428 -4413440.712198428 3916420.16282123 0 0 0 0 0 69914917.836271 -5414635.475814175 -5414635.475814175 3739954.587712782 0 0 0 0 0 67411832.81849414 -6596902.259145667 -6596902.259145667 3494639.153133142 0 0 0 0 0 69235145.45935482 -6651147.300987862 -6651147.300987862 3385126.831146275 0 0 0 0 0 71353883.59740897 -4148378.376195507 -4148378.376195507 3206034.016292055 0 0 0 0 0 72142424.83792545 -3261954.379344004 -3261954.379344004 3270842.337765695 0 0 0 0 0 74245454.28556336 -3219445.717941256 -3219445.717941256 3903039.275515 0 0 0 0 0 75169298.62227181 -2441962.658321511 -2441962.658321511 3958710.110461282 0 0 0 0 0 212618192.3321248 -58507483.95536231 -58507483.95536231 17815145.63737997 0 0 0 0 0 186324034.0062343 -37616919.31561269 -37616919.31561269 23615718.36152264 0 0 0 0 0 171211125.0094267 -30099963.07564778 -30099963.07564778 23300566.83948127 0 0 0 0 0 159597375.6271718 -23752824.25109578 -23752824.25109578 19882581.0648644 0 0 0 0 0 150660311.7075596 -19149295.29373025 -19149295.29373025 14987377.3831347 0 0 0 0 0 144024065.4655706 -15771425.92150617 -15771425.92150617 9809784.642648313 0 0 0 0 0 138950546.5206012 -13343396.65482324 -13343396.65482324 4852745.976052722 0 0 0 0 0 134894516.6427599 -11870335.58011573 -11870335.58011573 199164.0920562569 0 0 0 0 0 131496289.7806147 -11127399.94447941 -11127399.94447941 -3882041.014269417 0 0 0 0 0 128519588.9143201 -10890464.69237829 -10890464.69237829 -7289427.963420442 0 0 0 0 0 127641875.7745595 -13399601.63577927 -13399601.63577927 -11871913.94231055 0 0 0 0 0 121613969.615404 -14330024.90210395 -14330024.90210395 -12940881.07487999 0 0 0 0 0 119383163.4634322 -14474470.71068418 -14474470.71068418 -14624909.06095993 0 0 0 0 0 118605969.9151352 -16282208.40225076 -16282208.40225076 -16545930.10663457 0 0 0 0 0 113065577.8158954 -17549155.88651595 -17549155.88651595 -17328277.40819188 0 0 0 0 0 77011291.20405696 -24607276.7550009 -24607276.7550009 -9534560.811135491 0 0 0 0 0 73669552.03943181 -23604157.05938538 -23604157.05938538 -7796555.322440265 0 0 0 0 0 80763824.40133673 -25282449.42338981 -25282449.42338981 -11265526.09818854 0 0 0 0 0 84881460.58377039 -25583443.33807442 -25583443.33807442 -12926217.03953704 0 0 0 0 0 89315456.97064652 -25472939.60436464 -25472939.60436464 -14445764.44354872 0 0 0 0 0 70769581.75646114 -22323159.65036735 -22323159.65036735 -6105363.536301995 0 0 0 0 0 93947660.80719031 -24939978.94169988 -24939978.94169988 -15761043.30684691 0 0 0 0 0 98714143.76724561 -23969102.48263072 -23969102.48263072 -16785202.88217136 0 0 0 0 0 68327856.43939453 -20818844.92982788 -20818844.92982788 -4502912.789549571 0 0 0 0 0 66347739.84912722 -19145127.01562219 -19145127.01562219 -3020519.148501405 0 0 0 0 0 64816468.64724565 -17354737.90021866 -17354737.90021866 -1681906.026011138 0 0 0 0 0 103462747.4524686 -22577366.62642756 -22577366.62642756 -17477955.42690158 0 0 0 0 0 108092030.4666134 -20804708.85273727 -20804708.85273727 -17749651.63185155 0 0 0 0 0 112510014.4401646 -18692325.84505062 -18692325.84505062 -17562114.28639255 0 0 0 0 0 63705154.39015933 -15499236.63010457 -15499236.63010457 -501880.8426624918 0 0 0 0 0 62996491.21787855 -13620223.30707111 -13620223.30707111 518196.5271799972 0 0 0 0 0 62641403.28022924 -11756237.33823144 -11756237.33823144 1372728.257951402 0 0 0 0 0 62611911.66177184 -9939291.062015172 -9939291.062015172 2070394.58176429 0 0 0 0 0 64357010.83150438 -9907646.018748943 -9907646.018748943 2508257.908513317 0 0 0 0 0 65101589.56379352 -8179827.944608886 -8179827.944608886 2618435.540336929 0 0 0 0 0 66840304.86474995 -8133582.20802753 -8133582.20802753 3046315.126847146 0 0 0 0 0 70496545.77866255 -5453444.341552032 -5453444.341552032 3314194.259828598 0 0 0 0 0 69833870.21604291 -5499190.875782875 -5499190.875782875 3254086.44867455 0 0 0 0 0 67494222.87337177 -6683187.478596805 -6683187.478596805 2950831.488175094 0 0 0 0 0 69303364.50025816 -6719588.331419982 -6719588.331419982 2901966.401286714 0 0 0 0 0 73432179.99486521 -4093740.175817933 -4093740.175817933 3784585.28215079 0 0 0 0 0 72590185.74738814 -5349527.195224765 -5349527.195224765 3381982.677554528 0 0 0 0 0 73513907.7761905 -3686907.343227242 -3686907.343227242 3144577.643742674 0 0 0 0 0 74330960.02080643 -2954728.870377254 -2954728.870377254 3197322.922432546 0 0 0 0 0 263370254.552075 -59942653.89798652 -59942653.89798652 28630035.61889967 0 0 0 0 0 221997763.7020338 -38769154.53125762 -38769154.53125762 27313475.50410728 0 0 0 0 0 191626359.020133 -34461911.55369817 -34461911.55369817 30314394.25583827 0 0 0 0 0 204956859.1130215 -40086258.55920751 -40086258.55920751 29785298.91911513 0 0 0 0 0 176007870.3308734 -27813078.36320928 -27813078.36320928 26270521.52999449 0 0 0 0 0 164235439.0198887 -22158779.05349933 -22158779.05349933 20159248.22217563 0 0 0 0 0 155293470.3824435 -17849205.5984859 -17849205.5984859 13876621.59777992 0 0 0 0 0 148326244.8379685 -14721589.71781771 -14721589.71781771 8046287.238881208 0 0 0 0 0 142788677.2058403 -12545948.27846916 -12545948.27846916 2625399.464641828 0 0 0 0 0 138306493.8702833 -11221931.97760941 -11221931.97760941 -2055396.166638807 0 0 0 0 0 134556830.3838184 -10545523.68258112 -10545523.68258112 -5903741.844689764 0 0 0 0 0 131325225.003559 -10316677.23428579 -10316677.23428579 -8953739.599224327 0 0 0 0 0 125850796.878589 -10983539.59438262 -10983539.59438262 -10019666.73222382 0 0 0 0 0 124959175.9809835 -13374266.02861391 -13374266.02861391 -13741579.87365086 0 0 0 0 0 122536640.3085996 -13489436.06554733 -13489436.06554733 -14986351.2425778 0 0 0 0 0 117333627.4161898 -14667487.94913553 -14667487.94913553 -15740597.08139066 0 0 0 0 0 116607692.2813744 -16280823.93728731 -16280823.93728731 -16894844.3361394 0 0 0 0 0 77632255.61217763 -25801387.10737588 -25801387.10737588 -11801686.64512436 0 0 0 0 0 74489114.49167922 -25002368.95107777 -25002368.95107777 -9978291.169791268 0 0 0 0 0 71767172.50740884 -23888288.24222339 -23888288.24222339 -8138366.82354924 0 0 0 0 0 81168177.85656014 -26236029.05697638 -26236029.05697638 -13542028.06838037 0 0 0 0 0 85055548.63919158 -26266925.69618254 -26266925.69618254 -15135232.85460399 0 0 0 0 0 89256450.20716211 -25863560.75660853 -25863560.75660853 -16514664.36546694 0 0 0 0 0 69482763.46513811 -22512592.61688581 -22512592.61688581 -6338130.706610573 0 0 0 0 0 93666486.78127307 -25009019.60766349 -25009019.60766349 -17566688.42337649 0 0 0 0 0 98199338.3306528 -23713766.89828399 -23713766.89828399 -18245972.579 0 0 0 0 0 67626189.28590897 -20930720.27505448 -20930720.27505448 -4625372.066431489 0 0 0 0 0 66184644.17437736 -19196956.1461931 -19196956.1461931 -3034962.348995178 0 0 0 0 0 65145881.67226291 -17362998.18360619 -17362998.18360619 -1591580.829964336 0 0 0 0 0 102748213.5546511 -21998377.24530445 -21998377.24530445 -18494840.0164877 0 0 0 0 0 107195944.9642671 -19910671.83120171 -19910671.83120171 -18285350.2568731 0 0 0 0 0 111448173.2788216 -17497626.34366984 -17497626.34366984 -17586223.92638448 0 0 0 0 0 64480718.49717569 -15480595.22511512 -15480595.22511512 -309513.0920385101 0 0 0 0 0 64156759.13362408 -13584647.91554536 -13584647.91554536 801284.7755149954 0 0 0 0 0 64132736.38529463 -11716995.86259667 -11716995.86259667 1740209.98953665 0 0 0 0 0 64925675.45730522 -9810932.688053871 -9810932.688053871 2086184.782747152 0 0 0 0 0 66455057.09168036 -9757004.50168811 -9757004.50168811 2454392.921901485 0 0 0 0 0 67163601.20557187 -8128008.850367064 -8128008.850367064 2565993.554251804 0 0 0 0 0 71391924.566866 -5438224.503941938 -5438224.503941938 3182877.284825488 0 0 0 0 0 70704491.75702196 -6653926.197584759 -6653926.197584759 3214997.093387963 0 0 0 0 0 68705838.501816 -8074956.120756027 -8074956.120756027 2938694.743797734 0 0 0 0 0 70395420.38010266 -7966492.183583216 -7966492.183583216 2822302.599991336 0 0 0 0 0 72819774.37360802 -4453685.553129591 -4453685.553129591 3046266.621700084 0 0 0 0 0 72670245.21021403 -5460250.683969412 -5460250.683969412 2923567.747921301 0 0 0 0 0 75467140.21090056 -3654956.023579331 -3654956.023579331 3728391.685331592 0 0 0 0 0 74745599.45860447 -4440231.511698924 -4440231.511698924 3599602.160828107 0 0 0 0 0 229324553.7248578 -46501233.36826696 -46501233.36826696 12750460.24451059 0 0 0 0 0 206763216.9563347 -35695943.57200471 -35695943.57200471 21730221.32317545 0 0 0 0 0 178092801.819278 -22630978.45208712 -22630978.45208712 23939055.12605028 0 0 0 0 0 194057213.8211645 -24593393.47734039 -24593393.47734039 24261653.23655893 0 0 0 0 0 166447589.1411256 -17908090.57919021 -17908090.57919021 22333902.63173217 0 0 0 0 0 156782188.0897652 -14235197.80272663 -14235197.80272663 18343184.5512153 0 0 0 0 0 149543041.8328235 -11487025.03121015 -11487025.03121015 13597794.09286885 0 0 0 0 0 143828871.6667405 -9545553.841150345 -9545553.841150345 8780367.217224525 0 0 0 0 0 139286068.0779516 -8281500.351211564 -8281500.351211564 4204201.432192867 0 0 0 0 0 135517293.3289245 -7645738.906846758 -7645738.906846758 11685.78883523333 0 0 0 0 0 132274424.9539082 -7490799.304936428 -7490799.304936428 -3648432.043644181 0 0 0 0 0 129402628.4510971 -7671243.243917324 -7671243.243917324 -6717944.945036553 0 0 0 0 0 128469351.5206023 -10382950.17336409 -10382950.17336409 -11265924.23650507 0 0 0 0 0 123407837.741062 -11261852.01169322 -11261852.01169322 -12109869.0566454 0 0 0 0 0 121147702.6731503 -11629912.17491267 -11629912.17491267 -13646311.23913319 0 0 0 0 0 120301685.0548219 -13667784.1491634 -13667784.1491634 -15750571.42454774 0 0 0 0 0 115429578.1089276 -14847616.1314567 -14847616.1314567 -16389423.5180747 0 0 0 0 0 81743978.73832808 -24144300.94143608 -24144300.94143608 -10388933.07726598 0 0 0 0 0 78321840.59722556 -23475388.47952421 -23475388.47952421 -8742163.00444383 0 0 0 0 0 75269984.50403062 -22513505.58609335 -22513505.58609335 -7106239.046762162 0 0 0 0 0 85491560.78385232 -24480113.85655704 -24480113.85655704 -11994304.4314549 0 0 0 0 0 89526550.80882171 -24448950.90300155 -24448950.90300155 -13497365.42973053 0 0 0 0 0 93808368.81005281 -24021649.16180523 -24021649.16180523 -14837709.61844917 0 0 0 0 0 72616017.61343218 -21304865.69957899 -21304865.69957899 -5526272.4264375 0 0 0 0 0 98176613.42337017 -23177952.76596798 -23177952.76596798 -15940702.41845191 0 0 0 0 0 102521868.104482 -21971650.89349806 -21971650.89349806 -16765440.10353661 0 0 0 0 0 70375657.40768595 -19898043.21767771 -19898043.21767771 -4033993.473673384 0 0 0 0 0 68545985.2698849 -18338985.54436065 -18338985.54436065 -2655235.341622472 0 0 0 0 0 67116445.35204335 -16677791.60522838 -16677791.60522838 -1414426.469618667 0 0 0 0 0 106796686.4940823 -20386653.61328871 -20386653.61328871 -17236376.23970852 0 0 0 0 0 110906239.2113096 -18482172.82617424 -18482172.82617424 -17304561.32013585 0 0 0 0 0 114767230.0563658 -16270586.7484428 -16270586.7484428 -16920146.38911118 0 0 0 0 0 66061181.7611576 -14960750.0831252 -14960750.0831252 -321619.2763011598 0 0 0 0 0 65366983.61305247 -13221672.55424159 -13221672.55424159 622343.2119541592 0 0 0 0 0 64999202.68885058 -11498082.23166754 -11498082.23166754 1419162.357792594 0 0 0 0 0 66291033.40474614 -11442583.9506611 -11442583.9506611 1724502.770569941 0 0 0 0 0 67051623.11338299 -9642233.6412025 -9642233.6412025 2072406.172060991 0 0 0 0 0 68393620.52473848 -9577895.960561657 -9577895.960561657 2382254.564816887 0 0 0 0 0 72220237.0440287 -6630151.875376813 -6630151.875376813 3039840.002314067 0 0 0 0 0 70999623.50552694 -6657428.23162612 -6657428.23162612 2733637.277372963 0 0 0 0 0 69053564.05658111 -8049387.770224726 -8049387.770224726 2516601.796194876 0 0 0 0 0 70808180.18583213 -7918294.098957309 -7918294.098957309 2411222.700431456 0 0 0 0 0 74131243.71940526 -5405379.542174011 -5405379.542174011 3249189.725958903 0 0 0 0 0 73673465.97444554 -6539335.063992242 -6539335.063992242 2947492.612372838 0 0 0 0 0 74791818.11074276 -4081148.897411077 -4081148.897411077 2962455.888902346 0 0 0 0 0 74160405.45582543 -4795091.074348809 -4795091.074348809 2890027.719158028 0 0 0 0 0 282692101.0384103 -44714688.46205118 -44714688.46205118 22882742.91286328 0 0 0 0 0 240491527.4721244 -34270196.82865147 -34270196.82865147 26281844.4927124 0 0 0 0 0 215738290.5443462 -26874930.89049023 -26874930.89049023 30689358.35743207 0 0 0 0 0 178848051.9197142 -21572158.88525448 -21572158.88525448 27568406.53109653 0 0 0 0 0 190365376.6828339 -24919529.34444498 -24919529.34444498 28359596.84154403 0 0 0 0 0 167705117.2338999 -17376982.41540927 -17376982.41540927 22893101.74682463 0 0 0 0 0 158827381.9000314 -13786067.08536442 -13786067.08536442 17264769.27084833 0 0 0 0 0 151806711.3383189 -11135630.98772836 -11135630.98772836 11723268.77703154 0 0 0 0 0 146125462.283972 -9266194.163226482 -9266194.163226482 6522693.363381719 0 0 0 0 0 141461927.6197577 -8073202.346822385 -8073202.346822385 1794723.152958651 0 0 0 0 0 137555620.1641768 -7459486.381488862 -7459486.381488862 -2287652.007939816 0 0 0 0 0 134200174.8296954 -7284194.881191093 -7284194.881191093 -5675713.565792536 0 0 0 0 0 131246554.7384639 -7416699.123987271 -7416699.123987271 -8389565.835909113 0 0 0 0 0 126802640.0561898 -8061836.655445407 -8061836.655445407 -9198210.400098829 0 0 0 0 0 125884495.0163239 -10614913.14276933 -10614913.14276933 -12952567.70129763 0 0 0 0 0 123502906.8075893 -10949172.33868694 -10949172.33868694 -14141463.08338604 0 0 0 0 0 119049380.9596033 -12005546.2805243 -12005546.2805243 -14685637.07106456 0 0 0 0 0 118269599.7094929 -13840801.02879328 -13840801.02879328 -16100939.75370925 0 0 0 0 0 78863167.85929053 -24560008.08838128 -24560008.08838128 -10915501.37732565 0 0 0 0 0 82089541.15066881 -25014951.19355074 -25014951.19355074 -12592583.96692085 0 0 0 0 0 75992654.99446882 -23781107.27612329 -23781107.27612329 -9183467.680209327 0 0 0 0 0 73502688.78106706 -22722353.43417625 -22722353.43417625 -7453069.836839089 0 0 0 0 0 85631133.57833013 -25110691.79221415 -25110691.79221415 -14155727.431686 0 0 0 0 0 89441778.70624068 -24815325.9738885 -24815325.9738885 -15543741.03069636 0 0 0 0 0 93489648.45390831 -24093540.044287 -24093540.044287 -16681678.51219268 0 0 0 0 0 71400304.97981182 -21432856.0617712 -21432856.0617712 -5773225.012284948 0 0 0 0 0 97691681.97033894 -22973550.86103377 -22973550.86103377 -17487277.0459505 0 0 0 0 0 101846423.7923762 -21467713.84822306 -21467713.84822306 -17923197.80887385 0 0 0 0 0 69678985.52748297 -19960840.34660885 -19960840.34660885 -4181416.53296437 0 0 0 0 0 68331093.71060418 -18352483.07761774 -18352483.07761774 -2703787.310136297 0 0 0 0 0 67349086.77521627 -16657215.86784272 -16657215.86784272 -1365721.547158821 0 0 0 0 0 105971019.3753099 -19610869.53949001 -19610869.53949001 -17952687.70570486 0 0 0 0 0 109937573.0676325 -17424120.29584904 -17424120.29584904 -17548265.69912343 0 0 0 0 0 113684968.6386269 -14984293.29493653 -14984293.29493653 -16684815.56568163 0 0 0 0 0 66706748.75494035 -14916251.97407653 -14916251.97407653 -178599.0159096437 0 0 0 0 0 66368942.83505208 -13167736.56493634 -13167736.56493634 852873.7436547218 0 0 0 0 0 67163179.01789828 -11214544.38644114 -11214544.38644114 1447711.663771125 0 0 0 0 0 68276648.6846862 -11144213.05447431 -11144213.05447431 1696863.529176163 0 0 0 0 0 68984263.34211923 -9457790.832488557 -9457790.832488557 2031796.605361741 0 0 0 0 0 72593897.64261727 -6620214.172436403 -6620214.172436403 2743525.205188924 0 0 0 0 0 72009399.19509946 -7845994.123412962 -7845994.123412962 2685278.018279039 0 0 0 0 0 70181382.262766 -9378895.727903141 -9378895.727903141 2299240.537791793 0 0 0 0 0 71820224.6298338 -9164926.688973572 -9164926.688973572 2195862.211360021 0 0 0 0 0 73868046.20039341 -5617722.394009183 -5617722.394009183 2736195.805409948 0 0 0 0 0 74021433.65355231 -6538030.836671068 -6538030.836671068 2597239.530988947 0 0 0 0 0 76007173.05971152 -4770154.782452698 -4770154.782452698 3440087.32656621 0 0 0 0 0 75601491.75385517 -5580731.451435782 -5580731.451435782 3217007.784362484 0 0 0 0 0 241929140.3689306 -32043986.76364895 -32043986.76364895 6520040.293299627 0 0 0 0 0 215034674.6612597 -26952630.85955074 -26952630.85955074 18595701.11776786 0 0 0 0 0 195695599.1861833 -19720863.94814294 -19720863.94814294 26532822.60472696 0 0 0 0 0 169483041.4058887 -12468609.98683275 -12468609.98683275 24755462.60266372 0 0 0 0 0 183488135.5693449 -13925012.94486757 -13925012.94486757 27458576.09721945 0 0 0 0 0 160441775.813197 -9632783.070054049 -9632783.070054049 21495226.1431923 0 0 0 0 0 153152970.1309219 -7433390.817481073 -7433390.817481073 17391927.22971443 0 0 0 0 0 147282784.7785708 -5860796.150856856 -5860796.150856856 12816466.63793304 0 0 0 0 0 142514418.483793 -4848651.214505536 -4848651.214505536 8289174.599894343 0 0 0 0 0 138559950.5394366 -4334879.152135183 -4334879.152135183 4042918.303047074 0 0 0 0 0 135178996.2436821 -4251897.048105277 -4251897.048105277 203722.231926656 0 0 0 0 0 132206423.1231001 -4495762.870789268 -4495762.870789268 -3141707.251120754 0 0 0 0 0 129533537.7427511 -4963144.493438588 -4963144.493438588 -5959137.136339105 0 0 0 0 0 128585156.627561 -7749267.283155162 -7749267.283155162 -10496289.44271428 0 0 0 0 0 124412847.7496043 -8560152.25724064 -8560152.25724064 -11127485.69989581 0 0 0 0 0 122203951.3887236 -9108512.088784758 -9108512.088784758 -12567950.68870503 0 0 0 0 0 121333798.4464415 -11285654.50146929 -11285654.50146929 -14851639.62962945 0 0 0 0 0 117105486.8185797 -12364427.72378308 -12364427.72378308 -15358265.25135174 0 0 0 0 0 82635359.79146267 -23032881.61940084 -23032881.61940084 -9586327.413349736 0 0 0 0 0 86058058.41900653 -23392233.64896152 -23392233.64896152 -11122014.78330972 0 0 0 0 0 79510773.13920909 -22375084.35052717 -22375084.35052717 -8029159.444626383 0 0 0 0 0 76722194.09036203 -21456161.15069612 -21456161.15069612 -6495153.350443544 0 0 0 0 0 89733341.68385223 -23422091.59324459 -23422091.59324459 -12584224.3858257 0 0 0 0 0 93609809.93185242 -23096231.85169574 -23096231.85169574 -13915558.26930339 0 0 0 0 0 97640614.62209728 -22399622.9160469 -22399622.9160469 -15058883.31982344 0 0 0 0 0 74292703.65194169 -20318165.67011557 -20318165.67011557 -5020172.722486245 0 0 0 0 0 101671913.0954376 -21333765.79778022 -21333765.79778022 -15983639.63755198 0 0 0 0 0 105616733.7189168 -19933282.89771652 -19933282.89771652 -16579774.21970707 0 0 0 0 0 72231677.20117855 -19002609.62334963 -19002609.62334963 -3631155.859999017 0 0 0 0 0 70532492.04168992 -17553117.52011183 -17553117.52011183 -2352073.562427409 0 0 0 0 0 69194505.39645053 -16013880.34393323 -16013880.34393323 -1200350.480000398 0 0 0 0 0 109428048.0118253 -18230161.78427374 -18230161.78427374 -16847223.79571292 0 0 0 0 0 113056263.5658291 -16224802.28659445 -16224802.28659445 -16709005.93832017 0 0 0 0 0 116383342.3240687 -13988204.98773722 -13988204.98773722 -16173132.76654619 0 0 0 0 0 68207248.75234361 -14422028.52274146 -14422028.52274146 -185032.3738176745 0 0 0 0 0 67533443.32116301 -12815416.12468102 -12815416.12468102 693408.5997550766 0 0 0 0 0 68391494.76660243 -12745662.39820917 -12745662.39820917 877369.5203363735 0 0 0 0 0 69132714.77761218 -10915841.75016106 -10915841.75016106 1444485.948937151 0 0 0 0 0 70128108.48806368 -10830104.17215588 -10830104.17215588 1657697.987233385 0 0 0 0 0 73458748.35214987 -7730241.327868822 -7730241.327868822 2554306.525959631 0 0 0 0 0 72454872.10100038 -7775964.689100451 -7775964.689100451 2331147.00305866 0 0 0 0 0 70774331.22887239 -9253291.164032312 -9253291.164032312 1969441.680066246 0 0 0 0 0 72462014.39350651 -9021393.089499352 -9021393.089499352 1917000.03539996 0 0 0 0 0 74906417.23969507 -6423921.928262847 -6423921.928262847 2710450.79534827 0 0 0 0 0 74848846.66472797 -7577923.893051834 -7577923.893051834 2480540.086645097 0 0 0 0 0 75368003.6220977 -5169670.38942143 -5169670.38942143 2649108.709642629 0 0 0 0 0 74885075.14524244 -6000210.342133884 -6000210.342133884 2442334.880647386 0 0 0 0 0 290489602.58505 -29356946.356739 -29356946.356739 15925051.84175476 0 0 0 0 0 251349724.1042631 -24990928.3947221 -24990928.3947221 26390011.47569298 0 0 0 0 0 222754071.8485025 -19895105.26930642 -19895105.26930642 31499481.60301266 0 0 0 0 0 199808017.9421844 -14990053.0220574 -14990053.0220574 31035978.61710113 0 0 0 0 0 178638714.9666236 -14786735.03137593 -14786735.03137593 28220356.54165464 0 0 0 0 0 168600094.698009 -12673198.30535965 -12673198.30535965 25210968.12957735 0 0 0 0 0 180156798.1849403 -14409283.73254415 -14409283.73254415 28165334.02799549 0 0 0 0 0 160261169.5928637 -9888471.935360173 -9888471.935360173 20565485.44621721 0 0 0 0 0 153585245.4744888 -7699964.431834728 -7699964.431834728 15452674.40279643 0 0 0 0 0 148069949.9273223 -6107118.73427245 -6107118.73427245 10419622.71219698 0 0 0 0 0 143471804.8945359 -5074853.598079451 -5074853.598079451 5725706.317585191 0 0 0 0 0 139581617.0469736 -4534540.656734234 -4534540.656734234 1506093.305378241 0 0 0 0 0 136230966.57318 -4401194.885449333 -4401194.885449333 -2142218.817617928 0 0 0 0 0 133283565.3651543 -4574380.698665509 -4574380.698665509 -5191181.303718016 0 0 0 0 0 130634736.7149634 -4961576.469214789 -4961576.469214789 -7667849.659309591 0 0 0 0 0 127089020.0822166 -5565832.315848246 -5565832.315848246 -8259894.149893107 0 0 0 0 0 126159355.894714 -8185474.113905258 -8185474.113905258 -12066880.21488221 0 0 0 0 0 123921176.4231014 -8655943.405965859 -8655943.405965859 -13162167.47639839 0 0 0 0 0 120124327.6516557 -9652055.54241344 -9652055.54241344 -13618121.37335708 0 0 0 0 0 119335025.5340981 -11601984.47507971 -11601984.47507971 -15227073.6485589 0 0 0 0 0 79988897.28038508 -23365082.36032222 -23365082.36032222 -10096979.21299469 0 0 0 0 0 82934700.44692774 -23831431.08889903 -23831431.08889903 -11699282.54870873 0 0 0 0 0 86169313.75745244 -23975453.48083299 -23975453.48083299 -13215081.37897754 0 0 0 0 0 77365621.40059093 -22609875.50641676 -22609875.50641676 -8460811.362433502 0 0 0 0 0 75083201.98281977 -21606969.10831983 -21606969.10831983 -6839850.036847287 0 0 0 0 0 89650844.51181416 -23768338.5510111 -23768338.5510111 -14585602.65390177 0 0 0 0 0 93332809.12761806 -23196321.28658474 -23196321.28658474 -15768495.3923527 0 0 0 0 0 97163964.58956724 -22225110.26191396 -22225110.26191396 -16656595.12042902 0 0 0 0 0 73145066.77335025 -20399375.50749036 -20399375.50749036 -5274498.491915678 0 0 0 0 0 101043114.0570045 -20900012.92568433 -20900012.92568433 -17228988.62960281 0 0 0 0 0 104846940.0196151 -19262132.13113874 -19262132.13113874 -17451381.64729282 0 0 0 0 0 71555544.78535961 -19028845.82320384 -19028845.82320384 -3793120.031268559 0 0 0 0 0 70306881.83501145 -17536272.93191154 -17536272.93191154 -2420090.850415675 0 0 0 0 0 69374177.40677308 -15968845.75008234 -15968845.75008234 -1178596.874288063 0 0 0 0 0 108535964.9272411 -17307203.95660122 -17307203.95660122 -17292185.64576623 0 0 0 0 0 112068485.1886723 -15079100.03335764 -15079100.03335764 -16703207.35892966 0 0 0 0 0 115322414.5325245 -12662360.09199437 -12662360.09199437 -15692830.67670797 0 0 0 0 0 68750130.69641773 -14360031.21338346 -14360031.21338346 -78987.289683625 0 0 0 0 0 69520703.74630533 -12401607.77709505 -12401607.77709505 741551.9959509532 0 0 0 0 0 70261833.54540767 -12320070.7843413 -12320070.7843413 888812.2639847347 0 0 0 0 0 70945672.05886309 -10611175.69374084 -10611175.69374084 1419531.382462055 0 0 0 0 0 73910456.8989159 -7640779.57532593 -7640779.57532593 2279137.550819173 0 0 0 0 0 73320403.69790256 -8936919.994239802 -8936919.994239802 2088725.440585323 0 0 0 0 0 71821752.22406906 -10519661.67779516 -10519661.67779516 1599553.648380191 0 0 0 0 0 73339737.66338156 -10205676.66954833 -10205676.66954833 1525640.643997216 0 0 0 0 0 75839532.13583313 -6288069.97915724 -6288069.97915724 2777813.11432904 0 0 0 0 0 75335993.37264384 -7456272.637242516 -7456272.637242516 2291997.124664311 0 0 0 0 0 76682697.54835352 -5872260.908739963 -5872260.908739963 2997086.840848757 0 0 0 0 0 255469828.0684861 -18812418.31371173 -18812418.31371173 -150570.3235130354 0 0 0 0 0 220796994.1560988 -16278582.52933137 -16278582.52933137 20241339.06568604 0 0 0 0 0 200171410.0212198 -13952701.53131025 -13952701.53131025 27476706.29283211 0 0 0 0 0 184689347.2610188 -9785882.72614019 -9785882.72614019 30611894.2143807 0 0 0 0 0 168864237.7349368 -8034866.984845153 -8034866.984845153 26886706.88206078 0 0 0 0 0 162029198.0329194 -5492802.698497636 -5492802.698497636 24268159.56264044 0 0 0 0 0 182073081.9400676 -9226709.112374734 -9226709.112374734 30272458.90493931 0 0 0 0 0 154963748.0671163 -3867897.675927289 -3867897.675927289 20952835.25754841 0 0 0 0 0 149246165.8365817 -2580943.875641935 -2580943.875641935 16727117.31609369 0 0 0 0 0 144534478.5258655 -1738285.125415861 -1738285.125415861 12346716.70766493 0 0 0 0 0 140579403.9636073 -1325713.661082958 -1325713.661082958 8096831.255679802 0 0 0 0 0 137196536.9270421 -1288480.127944927 -1288480.127944927 4147661.778067383 0 0 0 0 0 134229643.2330555 -1561693.836208684 -1561693.836208684 599128.678046055 0 0 0 0 0 131569549.4150549 -2063818.749934621 -2063818.749934621 -2495096.250452015 0 0 0 0 0 129142906.5849905 -2720361.674223346 -2720361.674223346 -5114788.526963408 0 0 0 0 0 128214228.8049016 -5479315.37997916 -5479315.37997916 -9619036.71765851 0 0 0 0 0 124820112.8716616 -6235765.316937494 -6235765.316937494 -10084151.80043644 0 0 0 0 0 122704259.7352652 -6910678.563719418 -6910678.563719418 -11475813.26767205 0 0 0 0 0 121859692.2690921 -9128131.529624104 -9128131.529624104 -13879455.70486031 0 0 0 0 0 118225377.055301 -10131933.17894257 -10131933.17894257 -14283009.42294577 0 0 0 0 0 83451989.62512018 -21957994.07748132 -21957994.07748132 -8853978.084394919 0 0 0 0 0 86580007.67288691 -22333266.78554404 -22333266.78554404 -10313245.52755413 0 0 0 0 0 89939419.11934458 -22412364.10055955 -22412364.10055955 -11721065.65020258 0 0 0 0 0 80596632.99087858 -21315633.72302466 -21315633.72302466 -7387795.909703881 0 0 0 0 0 78045995.77096783 -20440074.52834986 -20440074.52834986 -5951256.548387285 0 0 0 0 0 93479205.71560071 -22173488.8606305 -22173488.8606305 -13028836.96454987 0 0 0 0 0 97164351.36001468 -21600116.03431532 -21600116.03431532 -14187144.36059508 0 0 0 0 0 100869845.9580601 -20684578.99709007 -20684578.99709007 -15140513.22853544 0 0 0 0 0 75819055.8419521 -19369128.77824982 -19369128.77824982 -4573607.681834821 0 0 0 0 0 104553583.3934915 -19451868.97453129 -19451868.97453129 -15850502.00136319 0 0 0 0 0 108106145.6069556 -17918129.88251448 -17918129.88251448 -16252964.17455544 0 0 0 0 0 73918343.73597075 -18142130.13457825 -18142130.13457825 -3283842.776449536 0 0 0 0 0 72345739.32022005 -16795334.89634748 -16795334.89634748 -2099396.628320447 0 0 0 0 0 71096674.65466826 -15368901.69788965 -15368901.69788965 -1030038.345035312 0 0 0 0 0 111502008.6284513 -16122718.21071777 -16122718.21071777 -16313573.18701757 0 0 0 0 0 114653548.8456015 -14086782.75036139 -14086782.75036139 -16016045.91242163 0 0 0 0 0 117489688.4580326 -11873926.26725929 -11873926.26725929 -15337206.22528967 0 0 0 0 0 70162534.7678863 -13894669.08980934 -13894669.08980934 -83829.05765930093 0 0 0 0 0 70620506.96124636 -13819186.21299725 -13819186.21299725 -6566.025044331263 0 0 0 0 0 71331809.63239044 -11993905.70838954 -11993905.70838954 763150.2834023186 0 0 0 0 0 71978173.49231595 -11901284.38889668 -11901284.38889668 881439.2564408373 0 0 0 0 0 74781158.82844496 -8700928.187792858 -8700928.187792858 2018588.6003572 0 0 0 0 0 73957910.5781745 -8786201.519780535 -8786201.519780535 1849816.922025893 0 0 0 0 0 72636612.31330872 -10294843.51250769 -10294843.51250769 1395293.424686908 0 0 0 0 0 74162965.82153997 -9972759.160683814 -9972759.160683814 1361126.142351911 0 0 0 0 0 75728049.00535478 -7329318.965666642 -7329318.965666642 2299413.482701913 0 0 0 0 0 76149500.75026567 -8459126.311989894 -8459126.311989894 1941350.294354862 0 0 0 0 0 76210408.31912492 -6168083.671772125 -6168083.671772125 2311743.180938997 0 0 0 0 0 305591946.1403097 -13891242.51483832 -13891242.51483832 14029190.34066187 0 0 0 0 0 255544235.8206575 -9410142.407184154 -9410142.407184154 20012503.42525349 0 0 0 0 0 236130741.387487 -15584279.02728092 -15584279.02728092 24899894.29351138 0 0 0 0 0 225571159.4997076 -13699576.5360109 -13699576.5360109 32896750.85963464 0 0 0 0 0 203532342.7901998 -10636550.13623791 -10636550.13623791 33278204.8219681 0 0 0 0 0 185751522.7310449 -8955828.979316276 -8955828.979316276 32525105.7880974 0 0 0 0 0 168701202.2909346 -8080282.476237876 -8080282.476237876 27408994.374827 0 0 0 0 0 159974756.0598392 -6318723.62506302 -6318723.62506302 23580758.35396878 0 0 0 0 0 172406224.7611758 -7721268.404485434 -7721268.404485434 30900549.91774425 0 0 0 0 0 153895982.2077805 -4625023.886377162 -4625023.886377162 19041348.61933743 0 0 0 0 0 148743249.7551085 -3266646.014679418 -3266646.014679418 14269134.52151104 0 0 0 0 0 144380904.6277762 -2359923.297540872 -2359923.297540872 9648147.226707196 0 0 0 0 0 140655339.424518 -1878527.860454776 -1878527.860454776 5369985.558081027 0 0 0 0 0 137428307.842488 -1763970.325661758 -1763970.325661758 1543782.600898671 0 0 0 0 0 134580777.8487491 -1947773.695889427 -1947773.695889427 -1771615.841454119 0 0 0 0 0 132022914.1847283 -2352134.60751928 -2352134.60751928 -4562680.131287592 0 0 0 0 0 129680653.3492774 -2910433.03155601 -2910433.03155601 -6857032.041685278 0 0 0 0 0 126894267.3514914 -3464853.60766308 -3464853.60766308 -7279189.822789029 0 0 0 0 0 125993168.188181 -6057341.504766829 -6057341.504766829 -11087662.54581305 0 0 0 0 0 123921168.8834213 -6648832.456786758 -6648832.456786758 -12158647.26782568 0 0 0 0 0 120734063.7986198 -7552809.033595506 -7552809.033595506 -12487186.26631638 0 0 0 0 0 119946570.6258176 -9568439.311718043 -9568439.311718043 -14288132.76976882 0 0 0 0 0 81022028.2957155 -22222707.84393488 -22222707.84393488 -9344628.003606044 0 0 0 0 0 83714603.47441502 -22693688.77934045 -22693688.77934045 -10865621.21687192 0 0 0 0 0 86671948.88276362 -22876237.71550402 -22876237.71550402 -12322902.82236082 0 0 0 0 0 89857190.88820966 -22745265.23894809 -22745265.23894809 -13665890.41347288 0 0 0 0 0 78621545.52319053 -21494470.70986181 -21494470.70986181 -7805626.789366829 0 0 0 0 0 76523909.68147083 -20545776.66367871 -20545776.66367871 -6290252.907675643 0 0 0 0 0 93222847.80158277 -22284697.35429332 -22284697.35429332 -14848480.41907937 0 0 0 0 0 96726850.08399242 -21467651.88857749 -21467651.88857749 -15792927.74135913 0 0 0 0 0 100287182.6882307 -20325275.00807389 -20325275.00807389 -16481260.51189098 0 0 0 0 0 74740229.71594492 -19414949.84816594 -19414949.84816594 -4829427.162090484 0 0 0 0 0 103833521.5196145 -18855372.40645419 -18855372.40645419 -16840021.21736253 0 0 0 0 0 107271033.511004 -17123824.88873287 -17123824.88873287 -16876622.80970405 0 0 0 0 0 73271997.68386562 -18139676.33545882 -18139676.33545882 -3453585.173998457 0 0 0 0 0 72109880.50220527 -16757865.10276503 -16757865.10276503 -2181249.956543858 0 0 0 0 0 71235296.50248478 -15304923.49549392 -15304923.49549392 -1028524.429816667 0 0 0 0 0 110571881.9530699 -15116445.47804497 -15116445.47804497 -16524234.53045399 0 0 0 0 0 113663478.6233494 -12900101.36242001 -12900101.36242001 -15782458.2374055 0 0 0 0 0 116455406.7342004 -10554619.9338994 -10554619.9338994 -14661011.5752939 0 0 0 0 0 71957262.68143368 -13377836.38851384 -13377836.38851384 -5795.116248875599 0 0 0 0 0 72345155.12155458 -13291590.6766065 -13291590.6766065 49511.60852045127 0 0 0 0 0 73024522.1558741 -11578936.97445942 -11578936.97445942 784017.9960841207 0 0 0 0 0 75319259.27805385 -8577100.631388852 -8577100.631388852 1774985.857376716 0 0 0 0 0 74789755.37755597 -9879788.543681128 -9879788.543681128 1468485.111414344 0 0 0 0 0 73519790.54687506 -11485864.52348092 -11485864.52348092 857290.1795926753 0 0 0 0 0 74976016.06735234 -11076171.13320787 -11076171.13320787 841146.9187094597 0 0 0 0 0 77007015.69810314 -7147976.070431929 -7147976.070431929 2344057.791778664 0 0 0 0 0 76365744.02203611 -8444453.922068998 -8444453.922068998 1488196.772980532 0 0 0 0 0 77211061.88246422 -6999185.367927689 -6999185.367927689 2301737.481217409 0 0 0 0 0 263118640.1574535 -572971.2408802834 -572971.2408802834 9556294.020184685 0 0 0 0 0 255017926.1221477 -9949445.162096702 -9949445.162096702 19942098.46150843 0 0 0 0 0 223610616.2414894 -6296702.532400779 -6296702.532400779 28857425.52491931 0 0 0 0 0 204381745.0632903 -9672052.423684895 -9672052.423684895 27278970.50260106 0 0 0 0 0 187655426.427339 -7436661.552182637 -7436661.552182637 30893766.68377738 0 0 0 0 0 176051318.9980875 -3247009.367588901 -3247009.367588901 32920835.19181837 0 0 0 0 0 161799908.6704805 -2027774.92871332 -2027774.92871332 27881098.97513178 0 0 0 0 0 155230388.7642074 -837657.3601009505 -837657.3601009505 24323947.56946253 0 0 0 0 0 172261029.9917799 -2931668.004986081 -2931668.004986081 31041310.59340349 0 0 0 0 0 149868359.2336204 174086.322265419 174086.322265419 20372250.97464297 0 0 0 0 0 145388295.3534597 900000.904998755 900000.904998755 16218769.9886063 0 0 0 0 0 141601937.6347572 1270964.055337618 1270964.055337618 12051246.37139891 0 0 0 0 0 138340304.8982094 1301389.910861705 1301389.910861705 8064897.855030668 0 0 0 0 0 135475663.6371193 1040496.605635096 1040496.605635096 4385074.962532353 0 0 0 0 0 132908905.9612219 547313.980291337 547313.980291337 1088359.072257088 0 0 0 0 0 130565687.7610271 -113542.916565766 -113542.916565766 -1793458.202244302 0 0 0 0 0 128397688.4360135 -884501.341916232 -884501.341916232 -4249517.217465154 0 0 0 0 0 127523854.7306617 -3550249.881518945 -3550249.881518945 -8676632.141483739 0 0 0 0 0 124784442.3982594 -4245907.084946673 -4245907.084946673 -9019678.798324276 0 0 0 0 0 122813806.3795778 -5007734.059274954 -5007734.059274954 -10363340.09345267 0 0 0 0 0 121996687.4609581 -7218154.15023186 -7218154.15023186 -12873416.6811656 0 0 0 0 0 118902991.3428108 -8139700.412525469 -8139700.412525469 -13180922.42835284 0 0 0 0 0 84204414.81666549 -20926662.23497069 -20926662.23497069 -8187153.823575947 0 0 0 0 0 87066241.92194417 -21311164.33496847 -21311164.33496847 -9566705.478613973 0 0 0 0 0 90142029.69568066 -21430444.08378489 -21430444.08378489 -10912744.74300866 0 0 0 0 0 93386591.00620182 -21263359.19932005 -21263359.19932005 -12182530.74192789 0 0 0 0 0 81591781.01844519 -20302802.23151947 -20302802.23151947 -6811004.070862962 0 0 0 0 0 79256314.56151655 -19468999.57493191 -19468999.57493191 -5463305.461038564 0 0 0 0 0 96756049.52668914 -20795319.51066466 -20795319.51066466 -13330904.15260006 0 0 0 0 0 100168660.47657 -20016587.30636408 -20016587.30636408 -14309692.04484591 0 0 0 0 0 103582060.2589485 -18941196.47763599 -18941196.47763599 -15080606.72075517 0 0 0 0 0 77205631.7170029 -18465068.19043606 -18465068.19043606 -4182409.761147074 0 0 0 0 0 106902994.7664478 -17575250.31350379 -17575250.31350379 -15590087.704547 0 0 0 0 0 110096059.7177645 -15961582.29269092 -15961582.29269092 -15802811.03551487 0 0 0 0 0 75455105.30663063 -17319871.27303062 -17319871.27303062 -2984036.962102094 0 0 0 0 0 74002041.32928063 -16069940.49429579 -16069940.49429579 -1884643.310170687 0 0 0 0 0 72840954.98364797 -14744961.10111261 -14744961.10111261 -890075.0943474291 0 0 0 0 0 113074671.0397263 -14116628.02452849 -14116628.02452849 -15694720.29638458 0 0 0 0 0 115786607.613429 -12090643.05314392 -12090643.05314392 -15247171.57450124 0 0 0 0 0 118180739.809614 -9943606.945857091 -9943606.945857091 -14450400.7341835 0 0 0 0 0 72924757.23709999 -14671605.11254554 -14671605.11254554 -907550.8618581692 0 0 0 0 0 73607732.2045172 -12869505.76332819 -12869505.76332819 60470.86415445503 0 0 0 0 0 73888342.60236134 -12780040.25639953 -12780040.25639953 84950.1829104583 0 0 0 0 0 76144199.86654602 -9562334.505196327 -9562334.505196327 1410111.968500035 0 0 0 0 0 75582311.72240365 -9659176.156963088 -9659176.156963088 1326627.321393586 0 0 0 0 0 74542935.79849297 -11169511.08037716 -11169511.08037716 784950.5437616149 0 0 0 0 0 75948407.14579806 -10770137.46023204 -10770137.46023204 781658.3263328744 0 0 0 0 0 76689707.62727313 -7973757.738422587 -7973757.738422587 1620869.650165401 0 0 0 0 0 77552102.23538439 -9277441.057627842 -9277441.057627842 1373201.719460811 0 0 0 0 0 77908753.51483288 -8318377.224597371 -8318377.224597371 1970247.868228394 0 0 0 0 0 77194350.00760102 -7048639.626065067 -7048639.626065067 1923866.963630097 0 0 0 0 0 236217473.5936231 -371092.0913890298 -371092.0913890298 21015427.2321605 0 0 0 0 0 222601159.5844608 -7586962.898804172 -7586962.898804172 29107554.7817712 0 0 0 0 0 206376190.1757164 -6716998.459505255 -6716998.459505255 33859423.94100998 0 0 0 0 0 187406335.0255353 -3207644.734926281 -3207644.734926281 33465684.12510894 0 0 0 0 0 177986566.5494316 -5925246.746404165 -5925246.746404165 34751806.81143405 0 0 0 0 0 170411140.4663453 -5521028.659412109 -5521028.659412109 33342374.8946888 0 0 0 0 0 158499425.5602248 -3399369.614130312 -3399369.614130312 26561782.77541426 0 0 0 0 0 164532118.3126642 -4639350.258911142 -4639350.258911142 30345622.67132968 0 0 0 0 0 152989369.8315108 -1995369.29596294 -1995369.29596294 22355543.64439312 0 0 0 0 0 148315089.4774685 -856700.5777897917 -856700.5777897917 17927127.0769333 0 0 0 0 0 144306230.7713789 -40162.8723932436 -40162.8723932436 13465522.36542934 0 0 0 0 0 140852936.2809061 419166.8856771063 419166.8856771063 9198326.362971906 0 0 0 0 0 137840490.7542047 543937.9721290158 543937.9721290158 5271254.316966049 0 0 0 0 0 135175732.14299 386293.996496739 386293.996496739 1767653.080248616 0 0 0 0 0 132768359.6926305 -33.66562360665754 -33.66562360665754 -1279708.986477906 0 0 0 0 0 130567024.6200116 -551675.2147953853 -551675.2147953853 -3863714.69328217 0 0 0 0 0 128522303.5777826 -1212494.796590932 -1212494.796590932 -6002542.050694414 0 0 0 0 0 126358514.9074759 -1713532.261869855 -1713532.261869855 -6298533.840913707 0 0 0 0 0 125507592.1853965 -4225670.251820146 -4225670.251820146 -10086318.47562601 0 0 0 0 0 123615747.4700084 -4896450.234061304 -4896450.234061304 -11128994.16364123 0 0 0 0 0 120964373.3324182 -5727121.202588608 -5727121.202588608 -11374201.27484011 0 0 0 0 0 120206657.2530115 -7739173.459216087 -7739173.459216087 -13314043.42761997 0 0 0 0 0 84437714.62639357 -21606815.16179665 -21606815.16179665 -10092471.07799651 0 0 0 0 0 81974163.03978211 -21136725.12021625 -21136725.12021625 -8655196.5300407 0 0 0 0 0 87144974.57610719 -21819225.32078703 -21819225.32078703 -11484686.55081674 0 0 0 0 0 90062505.68388852 -21750740.55000355 -21750740.55000355 -12786928.85795525 0 0 0 0 0 93148670.97863972 -21384138.60106047 -21384138.60106047 -13953751.00029864 0 0 0 0 0 79768524.69446321 -20436244.50020763 -20436244.50020763 -7214166.772335987 0 0 0 0 0 77842428.16687664 -19541481.31191251 -19541481.31191251 -5794013.818585782 0 0 0 0 0 96358618.24196856 -20702326.83304972 -20702326.83304972 -14932442.44961276 0 0 0 0 0 99629993.78721088 -19714267.40073158 -19714267.40073158 -15678950.54746881 0 0 0 0 0 102915576.048132 -18425951.00538205 -18425951.00538205 -16155787.85552631 0 0 0 0 0 76200879.87172104 -18483169.62102222 -18483169.62102222 -4435399.559998059 0 0 0 0 0 106131379.1282673 -16875274.09108244 -16875274.09108244 -16339658.05542883 0 0 0 0 0 109226416.6928589 -15071945.55399302 -15071945.55399302 -16182018.98220786 0 0 0 0 0 74845885.99677828 -17297600.89684326 -17297600.89684326 -3155361.633887125 0 0 0 0 0 73753150.04579793 -16014897.30115569 -16014897.30115569 -1979385.487910347 0 0 0 0 0 112145221.5180747 -13063739.77303663 -13063739.77303663 -15673445.02989822 0 0 0 0 0 114820396.6915566 -10900266.75657268 -10900266.75657268 -14808192.66806359 0 0 0 0 0 117196044.5209386 -8655577.898557803 -8655577.898557803 -13607755.8314887 0 0 0 0 0 74450065.36288345 -14137596.25671539 -14137596.25671539 -759634.5667609421 0 0 0 0 0 74441706.82459451 -14056256.09140745 -14056256.09140745 -807694.4172071359 0 0 0 0 0 75103980.66314359 -12364433.63079752 -12364433.63079752 110971.7670425174 0 0 0 0 0 76863356.67465654 -9375428.764921518 -9375428.764921518 1263728.825622195 0 0 0 0 0 76318185.35614748 -10675387.45294703 -10675387.45294703 819407.9993352609 0 0 0 0 0 75332804.11908069 -12273550.31588969 -12273550.31588969 119552.1062840758 0 0 0 0 0 76665626.14269249 -11791561.84428895 -11791561.84428895 146037.2927816319 0 0 0 0 0 78522367.94477879 -7754821.866736315 -7754821.866736315 2219543.185647512 0 0 0 0 0 78357345.75506821 -9105089.376494529 -9105089.376494529 1483451.17863173 0 0 0 0 0 77539923.32083687 -8966151.182330007 -8966151.182330007 1219705.263211118 0 0 0 0 0 207673928.4476761 1222390.264269312 1222390.264269312 30305074.41504496 0 0 0 0 0 190917976.4843639 -2789740.471656821 -2789740.471656821 32160952.73191156 0 0 0 0 0 187204157.9761855 -5942982.381322448 -5942982.381322448 34939688.80243887 0 0 0 0 0 172728859.9658988 -218555.0508837322 -218555.0508837322 35282229.71206926 0 0 0 0 0 166168448.4555105 -209394.8362395493 -209394.8362395493 33297175.2602085 0 0 0 0 0 154209085.1332886 1589817.866862841 1589817.866862841 27441189.90229261 0 0 0 0 0 159705527.7755044 890267.1328665084 890267.1328665084 30991899.92169671 0 0 0 0 0 149343337.0242196 2385397.435586027 2385397.435586027 23760132.45706107 0 0 0 0 0 145219541.1711088 3007331.401500357 3007331.401500357 19804572.50288811 0 0 0 0 0 141706731.4072 3373230.274941226 3373230.274941226 15785870.52856932 0 0 0 0 0 138666348.3744171 3445500.401577615 3445500.401577615 11839175.3730737 0 0 0 0 0 135986064.5591329 3240871.556973566 3240871.556973566 8105485.639479103 0 0 0 0 0 133577131.1098272 2802245.215754338 2802245.215754338 4676255.998468248 0 0 0 0 0 131380282.078644 2183214.794246585 2183214.794246585 1603830.441722115 0 0 0 0 0 129337534.9026025 1432574.744967623 1432574.744967623 -1091779.447674179 0 0 0 0 0 127419632.4009213 602605.3005159661 602605.3005159661 -3402527.210983589 0 0 0 0 0 126605511.3272416 -1935328.01410985 -1935328.01410985 -7734258.551148037 0 0 0 0 0 124440824.4773326 -2553813.086151573 -2553813.086151573 -7958055.172996636 0 0 0 0 0 122624572.2737829 -3369715.140186646 -3369715.140186646 -9274472.068548042 0 0 0 0 0 121849526.2675647 -5534826.623171768 -5534826.623171768 -11859801.95532341 0 0 0 0 0 119234252.8214222 -6380558.169723754 -6380558.169723754 -12085091.78166115 0 0 0 0 0 87522762.7935361 -20331367.34374983 -20331367.34374983 -8880758.052461302 0 0 0 0 0 84904545.89066026 -19940161.03412293 -19940161.03412293 -7574719.304321785 0 0 0 0 0 90343295.56354728 -20481819.13518165 -20481819.13518165 -10159867.74768657 0 0 0 0 0 93320202.55907525 -20375663.34449158 -20375663.34449158 -11383039.35044745 0 0 0 0 0 96409822.35406774 -19997729.210323 -19997729.210323 -12508540.53259564 0 0 0 0 0 82512878.9853296 -19338059.7440537 -19338059.7440537 -6280216.933777249 0 0 0 0 0 80360527.8897399 -18546862.42537906 -18546862.42537906 -5019541.694992643 0 0 0 0 0 99561964.65792009 -19338517.24708252 -19338517.24708252 -13493195.98944331 0 0 0 0 0 102716726.5020713 -18400990.33534934 -18400990.33534934 -14294435.07841499 0 0 0 0 0 105815684.9076209 -17197530.73460568 -17197530.73460568 -14880222.95629511 0 0 0 0 0 78482450.0468801 -17601762.14375985 -17601762.14375985 -3827220.789792622 0 0 0 0 0 108810740.5986447 -15751082.19333456 -15751082.19333456 -15214853.91824116 0 0 0 0 0 111628772.7356837 -14084925.02872099 -14084925.02872099 -15259550.61167191 0 0 0 0 0 76869530.75131859 -16532364.27136125 -16532364.27136125 -2713192.184970616 0 0 0 0 0 75539763.99547343 -15365199.35318564 -15365199.35318564 -1683974.229262577 0 0 0 0 0 114216511.9245933 -12242457.04994659 -12242457.04994659 -15004092.02116342 0 0 0 0 0 116536258.3992869 -10254548.81303673 -10254548.81303673 -14421488.33127622 0 0 0 0 0 118532213.9570318 -8199552.498039497 -8199552.498039497 -13531288.23296643 0 0 0 0 0 75218173.96725288 -15303376.46931583 -15303376.46931583 -1801862.069977393 0 0 0 0 0 75895304.41991004 -13547985.04087788 -13547985.04087788 -651461.3186950345 0 0 0 0 0 75856011.26084085 -13463228.32184784 -13463228.32184784 -711814.5887432371 0 0 0 0 0 77583654.85329622 -10275261.29758392 -10275261.29758392 780973.3404768897 0 0 0 0 0 77264168.78830071 -10377572.9378339 -10377572.9378339 771023.7484089342 0 0 0 0 0 76483033.3511318 -11883622.84825454 -11883622.84825454 151445.1500206637 0 0 0 0 0 77746367.21824563 -11427244.59122486 -11427244.59122486 177406.371801938 0 0 0 0 0 78240989.96732634 -7935219.297810399 -7935219.297810399 1474115.943747765 0 0 0 0 0 78079645.88479641 -9749194.097553832 -9749194.097553832 612749.6531186315 0 0 0 0 0 78303601.28340977 -8809241.533501983 -8809241.533501983 1169596.354680678 0 0 0 0 0 200157123.8295392 -4868649.76719399 -4868649.76719399 34412610.89053337 0 0 0 0 0 179192693.9818799 -78118.41649985561 -78118.41649985561 35289194.4050044 0 0 0 0 0 165485019.5974571 -2928958.970345931 -2928958.970345931 34736507.36316235 0 0 0 0 0 170886267.490949 -3460959.149494557 -3460959.149494557 36448353.96815398 0 0 0 0 0 160333571.927818 -2235456.094075162 -2235456.094075162 32845901.18704588 0 0 0 0 0 150921829.1979218 74334.97118672621 74334.97118672621 25417286.11738912 0 0 0 0 0 155356533.5631176 -946892.6177993149 -946892.6177993149 29111369.79702576 0 0 0 0 0 146916809.9569879 1061565.597201008 1061565.597201008 21296808.96908091 0 0 0 0 0 143387297.0149515 1821087.814321381 1821087.814321381 17060662.47614636 0 0 0 0 0 140284761.2758768 2290357.978288107 2290357.978288107 12887440.49331263 0 0 0 0 0 137555575.2958473 2463036.909359854 2463036.909359854 8936726.535972798 0 0 0 0 0 135124469.6274212 2363926.997897342 2363926.997897342 5317330.01697626 0 0 0 0 0 132924221.0294218 2035814.777314175 2035814.777314175 2086637.86667676 0 0 0 0 0 130901187.2871651 1529137.587194903 1529137.587194903 -735738.8723469645 0 0 0 0 0 129015417.0753552 891579.2766683756 891579.2766683756 -3143149.334583777 0 0 0 0 0 127238772.0533765 170861.6494607275 170861.6494607275 -5163768.393959942 0 0 0 0 0 125601052.3845896 -266544.7430470897 -266544.7430470897 -5348248.450938856 0 0 0 0 0 124800237.9395112 -2672075.505083001 -2672075.505083001 -9095001.700880574 0 0 0 0 0 123098240.8400711 -3390593.319359756 -3390593.319359756 -10116774.00918443 0 0 0 0 0 120906514.3551068 -4139300.089108319 -4139300.089108319 -10282563.64243864 0 0 0 0 0 120183294.2701917 -6120488.566278759 -6120488.566278759 -12336743.5474962 0 0 0 0 0 87591363.40030301 -20808321.52132289 -20808321.52132289 -10701098.93959489 0 0 0 0 0 85102201.85011283 -20573193.45186299 -20573193.45186299 -9381108.826032339 0 0 0 0 0 82824236.91621278 -20108239.04946903 -20108239.04946903 -8027607.483845891 0 0 0 0 0 90268358.48711672 -20791074.2356676 -20791074.2356676 -11954567.70021985 0 0 0 0 0 93101621.22892347 -20505127.0647907 -20505127.0647907 -13095537.94372478 0 0 0 0 0 96048701.71706931 -19938135.57001052 -19938135.57001052 -14081894.56138241 0 0 0 0 0 80797680.97331679 -19438355.86084066 -19438355.86084066 -6671608.306553672 0 0 0 0 0 79023598.33042094 -18596579.72484146 -18596579.72484146 -5343023.169043405 0 0 0 0 0 99065879.27332969 -19086286.829022 -19086286.829022 -14872595.74725858 0 0 0 0 0 102102698.9725221 -17964166.71279297 -17964166.71279297 -15435136.0751613 0 0 0 0 0 105101266.936903 -16583386.99769472 -16583386.99769472 -15730249.73633347 0 0 0 0 0 77506958.53298026 -17601990.62473718 -17601990.62473718 -4080101.75113464 0 0 0 0 0 108007474.8086283 -14965680.5965696 -14965680.5965696 -15729824.47454885 0 0 0 0 0 110760070.1218365 -13149020.17242675 -13149020.17242675 -15412772.35455439 0 0 0 0 0 76247416.10498813 -16496817.46494969 -16496817.46494969 -2894290.110043674 0 0 0 0 0 113317583.7849078 -11171432.60201154 -11171432.60201154 -14772939.61503112 0 0 0 0 0 115615743.8683192 -9091843.808886625 -9091843.808886625 -13813873.90759207 0 0 0 0 0 117619483.7840201 -6963568.705261582 -6963568.705261582 -12552093.06995299 0 0 0 0 0 76905965.52135913 -14691854.98615664 -14691854.98615664 -1511433.023923433 0 0 0 0 0 76595015.16535078 -14618782.64265706 -14618782.64265706 -1633058.700240548 0 0 0 0 0 77220179.53040242 -12983561.94511521 -12983561.94511521 -563513.3781750909 0 0 0 0 0 78665872.81715135 -9923294.041849539 -9923294.041849539 889521.4728722653 0 0 0 0 0 77925393.93356904 -11338216.64851659 -11338216.64851659 178955.8802176173 0 0 0 0 0 77186423.69549976 -12895968.26340406 -12895968.26340406 -622573.5132639171 0 0 0 0 0 78419928.17457311 -12364111.02339133 -12364111.02339133 -552846.1643378448 0 0 0 0 0 79367796.14023347 -8659217.963626418 -8659217.963626418 1469064.06554109 0 0 0 0 0 79440903.85564001 -9603346.96049583 -9603346.96049583 1020005.292324678 0 0 0 0 0 187241309.2416668 1372903.36840679 1372903.36840679 34289033.53352305 0 0 0 0 0 181748078.0643063 -2955786.129824799 -2955786.129824799 36315745.00736954 0 0 0 0 0 161721760.6757242 1425799.390554595 1425799.390554595 35128933.91803256 0 0 0 0 0 167370256.9586319 754395.5664946528 754395.5664946528 36429251.70284727 0 0 0 0 0 156412530.5981053 2165649.293316363 2165649.293316363 32949882.16622209 0 0 0 0 0 147771394.635691 3876635.504079559 3876635.504079559 26689407.41442567 0 0 0 0 0 151909789.7778411 3127946.440347519 3127946.440347519 30133500.51760175 0 0 0 0 0 144154257.7793955 4516721.595057414 4516721.595057414 23015834.52052255 0 0 0 0 0 141009703.6224937 4932946.031084321 4932946.031084321 19193697.63007785 0 0 0 0 0 138266043.0827326 5094119.791668721 5094119.791668721 15364454.45947592 0 0 0 0 0 135828678.9861466 4990260.262123769 4990260.262123769 11656060.93172726 0 0 0 0 0 133633799.1095691 4651927.955556075 4651927.955556075 8167683.136902342 0 0 0 0 0 131622663.6640244 4117519.811826557 4117519.811826557 4971633.970847823 0 0 0 0 0 129751958.7583208 3433981.020764698 3433981.020764698 2103708.993932066 0 0 0 0 0 127987222.4514434 2645300.982336498 2645300.982336498 -422789.4919701773 0 0 0 0 0 126303859.6278069 1792907.978832341 1792907.978832341 -2607923.324101437 0 0 0 0 0 125555651.8292881 -592413.3160082861 -592413.3160082861 -6815612.470671065 0 0 0 0 0 123862006.2020561 -1139064.412930562 -1139064.412930562 -6951073.69712801 0 0 0 0 0 122204071.0774254 -1983813.51593039 -1983813.51593039 -8237818.493758887 0 0 0 0 0 121484445.5387825 -4068886.683464299 -4068886.683464299 -10857090.76538341 0 0 0 0 0 119299558.4585733 -4841187.44555511 -4841187.44555511 -11015669.49620574 0 0 0 0 0 90543462.847875 -19570244.61269666 -19570244.61269666 -9458708.906513836 0 0 0 0 0 87956326.29023296 -19399290.19956017 -19399290.19956017 -8242312.485104518 0 0 0 0 0 85546533.9629944 -18999077.87581507 -18999077.87581507 -7000716.916113404 0 0 0 0 0 93280530.2123839 -19515388.18897879 -19515388.18897879 -10631888.1063082 0 0 0 0 0 96125501.56959011 -19213031.81522128 -19213031.81522128 -11724154.55789547 0 0 0 0 0 99035738.00766745 -18655102.17779694 -18655102.17779694 -12698871.48170115 0 0 0 0 0 83341669.00587277 -18422452.78474822 -18422452.78474822 -5795122.623443924 0 0 0 0 0 81352694.79994765 -17671298.87631441 -17671298.87631441 -4628728.286918538 0 0 0 0 0 101964238.1596611 -17842137.37893674 -17842137.37893674 -13520196.91087503 0 0 0 0 0 104857494.1172422 -16782204.18167067 -16782204.18167067 -14155384.36489567 0 0 0 0 0 107660122.8157526 -15492299.68034413 -15492299.68034413 -14571775.80774929 0 0 0 0 0 79626849.98453571 -16780414.19327819 -16780414.19327819 -3512068.222741679 0 0 0 0 0 110322875.5887495 -13992828.68371398 -13992828.68371398 -14739284.05949268 0 0 0 0 0 112787174.7564473 -12318289.43721402 -12318289.43721402 -14635902.62227302 0 0 0 0 0 78145016.78899756 -15773499.26100451 -15773499.26100451 -2470790.650530223 0 0 0 0 0 115010933.744372 -10504060.93043799 -10504060.93043799 -14246063.22206542 0 0 0 0 0 116969410.1730652 -8593481.870362904 -8593481.870362904 -13568785.37758199 0 0 0 0 0 118623047.5761133 -6642532.074109902 -6642532.074109902 -12605386.81822952 0 0 0 0 0 77550256.48137622 -15727186.04835364 -15727186.04835364 -2650493.846364703 0 0 0 0 0 78163068.82450448 -14047728.11132512 -14047728.11132512 -1368436.706836334 0 0 0 0 0 77866785.17689165 -13970035.36743093 -13970035.36743093 -1488788.046281736 0 0 0 0 0 79082945.32275619 -10858566.61727939 -10858566.61727939 220846.598958725 0 0 0 0 0 78950891.80329295 -10961885.5960156 -10961885.5960156 240235.4879493474 0 0 0 0 0 78429634.94418393 -12452984.58433951 -12452984.58433951 -502455.2827991038 0 0 0 0 0 79581853.11784384 -11955871.86438958 -11955871.86438958 -432251.7549128525 0 0 0 0 0 79358739.67826614 -8684923.321597712 -8684923.321597712 978304.7074076579 0 0 0 0 0 79589635.26524064 -9539624.586930254 -9539624.586930254 660744.0492152119 0 0 0 0 0 172278541.914196 1171647.853901828 1171647.853901828 36538233.34990247 0 0 0 0 0 155793758.0602899 -703450.5294890108 -703450.5294890108 34337362.28453986 0 0 0 0 0 159155322.9312429 -1327826.675744131 -1327826.675744131 36093346.02162364 0 0 0 0 0 161863732.5208666 -1025676.700553644 -1025676.700553644 36992920.14094242 0 0 0 0 0 151810291.333696 357350.2258514283 357350.2258514283 31601997.24278731 0 0 0 0 0 148160522.3053907 1453738.986426795 1453738.986426795 28087333.78215825 0 0 0 0 0 144819443.5143795 2398438.229879551 2398438.229879551 24320288.97355137 0 0 0 0 0 141790310.8069354 3169430.546540185 3169430.546540185 20342844.2765533 0 0 0 0 0 139093306.4043643 3695089.537520263 3695089.537520263 16336520.13821686 0 0 0 0 0 136683104.1856288 3952463.090117684 3952463.090117684 12440704.41467134 0 0 0 0 0 134519789.5852987 3948007.01028718 3948007.01028718 8780753.164305614 0 0 0 0 0 132556145.4087538 3714475.840135938 3714475.840135938 5433643.416665251 0 0 0 0 0 130742298.8198226 3288166.864324411 3288166.864324411 2441178.471267671 0 0 0 0 0 129044228.9403387 2714696.349214296 2714696.349214296 -185428.9367448491 0 0 0 0 0 127438774.1520856 2034663.393257601 2034663.393257601 -2447547.628033055 0 0 0 0 0 125903981.806618 1289884.109759569 1289884.109759569 -4355229.520490228 0 0 0 0 0 124681292.2390934 907643.5870290991 907643.5870290991 -4462439.608835202 0 0 0 0 0 123951388.2253339 -1358181.162418935 -1358181.162418935 -8122835.635046668 0 0 0 0 0 122423225.3854033 -2101421.605098017 -2101421.605098017 -9130902.510069739 0 0 0 0 0 120641212.4864754 -2774359.683430809 -2774359.683430809 -9236446.088991703 0 0 0 0 0 119962041.6057914 -4695816.373058731 -4695816.373058731 -11367389.87091719 0 0 0 0 0 90474116.38251382 -19869378.49491781 -19869378.49491781 -11172718.22467211 0 0 0 0 0 87995294.70225599 -19844192.17147994 -19844192.17147994 -9974880.961588709 0 0 0 0 0 85698997.43758167 -19596002.56933097 -19596002.56933097 -8720272.922562804 0 0 0 0 0 83588009.92815498 -19134463.31361227 -19134463.31361227 -7429344.870339058 0 0 0 0 0 93079290.33749895 -19651217.4548097 -19651217.4548097 -12281846.43513707 0 0 0 0 0 95795557.09202203 -19178963.51300955 -19178963.51300955 -13263193.04284708 0 0 0 0 0 98583265.47217545 -18450040.26957767 -18450040.26957767 -14080553.71199196 0 0 0 0 0 81740330.85251051 -18493309.78268124 -18493309.78268124 -6157977.434838131 0 0 0 0 0 80117993.29630612 -17690676.57557236 -17690676.57557236 -4935404.029311436 0 0 0 0 0 101396953.4660375 -17468038.3065456 -17468038.3065456 -14697741.58966749 0 0 0 0 0 104187763.7378366 -16245301.21261667 -16245301.21261667 -15081280.84114659 0 0 0 0 0 106904074.4640692 -14801888.35428382 -14801888.35428382 -15206863.22262776 0 0 0 0 0 78713700.81449269 -16762498.23439007 -16762498.23439007 -3757439.295066543 0 0 0 0 0 109500934.3719916 -13161593.85409418 -13161593.85409418 -15046682.78113155 0 0 0 0 0 111924460.0284812 -11368742.32728789 -11368742.32728789 -14600134.6718442 0 0 0 0 0 114147092.3551701 -9448373.765790101 -9448373.765790101 -13847506.71065022 0 0 0 0 0 116109987.946825 -7467674.104756909 -7467674.104756909 -12818056.87458568 0 0 0 0 0 117784326.1754814 -5470816.762741896 -5470816.762741896 -11524092.96478407 0 0 0 0 0 79311552.08451484 -15060118.67617172 -15060118.67617172 -2259519.040076738 0 0 0 0 0 78758244.43819536 -15002353.68343564 -15002353.68343564 -2434617.078997587 0 0 0 0 0 79318488.13110615 -13446855.86359509 -13446855.86359509 -1248941.208115174 0 0 0 0 0 79977888.10631689 -10477836.0181043 -10477836.0181043 156596.4541730123 0 0 0 0 0 79538780.7186846 -11862629.41341922 -11862629.41341922 -494221.5572974214 0 0 0 0 0 79072443.92186102 -13364285.72020203 -13364285.72020203 -1357992.336874076 0 0 0 0 0 80167101.05467916 -12795011.33544325 -12795011.33544325 -1255363.004263242 0 0 0 0 0 80491144.94853736 -9404557.250085894 -9404557.250085894 931314.5590204009 0 0 0 0 0 80461472.60040349 -10379787.68461759 -10379787.68461759 297131.4072040355 0 0 0 0 0 169558417.1082101 -1583011.188137214 -1583011.188137214 36913625.52364505 0 0 0 0 0 152695743.8369621 2726089.765154395 2726089.765154395 34198310.98908533 0 0 0 0 0 156740734.9188825 1796495.754940333 1796495.754940333 35984970.58129722 0 0 0 0 0 160346300.5521867 1032072.379029381 1032072.379029381 37008357.77753993 0 0 0 0 0 148861039.8552529 3739378.250130254 3739378.250130254 31988341.40198636 0 0 0 0 0 145466230.0258965 4674251.004265889 4674251.004265889 29074674.58861974 0 0 0 0 0 142386457.2705219 5409225.397017224 5409225.397017224 25740969.15182966 0 0 0 0 0 139671370.2389939 5942497.018099139 5942497.018099139 22186735.95946339 0 0 0 0 0 137253669.0138013 6229345.869305317 6229345.869305317 18548704.79435024 0 0 0 0 0 135104229.2715123 6268509.329235831 6268509.329235831 14940777.63015718 0 0 0 0 0 133152980.9886835 6067103.701731627 6067103.701731627 11472803.16359144 0 0 0 0 0 131358413.5700471 5659046.29828429 5659046.29828429 8222389.452821787 0 0 0 0 0 129685384.0539689 5083162.501275143 5083162.501275143 5244571.90689143 0 0 0 0 0 128101649.4691749 4378556.942617137 4378556.942617137 2562684.806688449 0 0 0 0 0 126577014.9029156 3580521.927685995 3580521.927685995 187685.8721371365 0 0 0 0 0 125105375.8999768 2731962.088924258 2731962.088924258 -1875993.599124082 0 0 0 0 0 124430554.9087262 516598.9939561941 516598.9939561941 -5927846.623680093 0 0 0 0 0 123125835.1854629 32701.62913917986 32701.62913917986 -6004027.570379373 0 0 0 0 0 121643661.6693254 -810485.054114077 -810485.054114077 -7254392.246774426 0 0 0 0 0 120980637.3029916 -2796633.632553113 -2796633.632553113 -9878864.928326707 0 0 0 0 0 119156788.6850552 -3500627.312524466 -3500627.312524466 -9986932.249390174 0 0 0 0 0 93259496.03720996 -18686271.85331417 -18686271.85331417 -9930472.025688116 0 0 0 0 0 90740129.5921067 -18699325.48623991 -18699325.48623991 -8804490.791021291 0 0 0 0 0 88348302.07437855 -18503382.0087459 -18503382.0087459 -7648325.163360202 0 0 0 0 0 86100918.30922981 -18113480.90225489 -18113480.90225489 -6487219.957229541 0 0 0 0 0 95881564.19167496 -18450119.71383117 -18450119.71383117 -10984874.66829252 0 0 0 0 0 98571969.15256816 -17981577.58128257 -17981577.58128257 -11942750.23137053 0 0 0 0 0 101289818.8002167 -17279518.95814858 -17279518.95814858 -12772557.92879685 0 0 0 0 0 84069715.73755541 -17548500.59106784 -17548500.59106784 -5356278.080764413 0 0 0 0 0 82285989.45352417 -16835522.4309729 -16835522.4309729 -4263572.477047889 0 0 0 0 0 103984908.3121516 -16348063.98465256 -16348063.98465256 -13442399.24460098 0 0 0 0 0 106609588.2439466 -15199210.0661341 -15199210.0661341 -13921667.13791167 0 0 0 0 0 109120270.3229421 -13853249.72311874 -13853249.72311874 -14182482.8129084 0 0 0 0 0 80689667.3930496 -15997244.83660105 -15997244.83660105 -3223937.982413041 0 0 0 0 0 111465609.7093168 -12335257.09359963 -12335257.09359963 -14204037.47990733 0 0 0 0 0 113609189.2844918 -10678508.09790003 -10678508.09790003 -13968732.27255347 0 0 0 0 0 115510754.3210453 -8918493.107104626 -8918493.107104626 -13470219.42897739 0 0 0 0 0 117153297.1409852 -7098933.960482002 -7098933.960482002 -12707130.45181924 0 0 0 0 0 118513017.4947349 -5263535.82756961 -5263535.82756961 -11686565.58786408 0 0 0 0 0 79842569.87716357 -15966964.12598304 -15966964.12598304 -3459049.077958968 0 0 0 0 0 80388731.54392217 -14389125.12480187 -14389125.12480187 -2079639.672475545 0 0 0 0 0 79896084.09765004 -14324570.21191764 -14324570.21191764 -2243212.115774742 0 0 0 0 0 80644678.84964579 -11376388.68250143 -11376388.68250143 -434647.891547357 0 0 0 0 0 80626008.69286419 -11462211.97232488 -11462211.97232488 -403381.6244764347 0 0 0 0 0 80404320.18100677 -12880737.70334813 -12880737.70334813 -1146890.799666358 0 0 0 0 0 81414681.24153322 -12343044.81914514 -12343044.81914514 -1062981.786745623 0 0 0 0 0 80593734.45845646 -9353422.058392493 -9353422.058392493 464185.2929665965 0 0 0 0 0 80963708.79864725 -10155833.24574337 -10155833.24574337 77865.16141723242 0 0 0 0 0 162064989.6048755 541410.6773032986 541410.6773032986 36789730.79340826 0 0 0 0 0 148025064.1773129 1073298.46068704 1073298.46068704 33189485.11919134 0 0 0 0 0 150649391.1081109 135191.0075229164 135191.0075229164 35357491.36082574 0 0 0 0 0 153275732.0464474 -497243.4841385269 -497243.4841385269 36543129.24222454 0 0 0 0 0 156971388.852239 -860127.8672518946 -860127.8672518946 36869466.42537943 0 0 0 0 0 145049574.5718752 2122130.505926856 2122130.505926856 30312240.89420979 0 0 0 0 0 142268412.6188508 3155203.981082987 3155203.981082987 26894577.3826946 0 0 0 0 0 139716745.7993559 3996091.994843782 3996091.994843782 23236934.00461411 0 0 0 0 0 137424502.0042351 4621243.329038683 4621243.329038683 19453089.61540233 0 0 0 0 0 135343161.0804508 4994067.798868798 4994067.798868798 15694161.22659488 0 0 0 0 0 133468473.6512417 5119747.764493323 5119747.764493323 12067721.14491269 0 0 0 0 0 131751153.7488764 5011077.399449172 5011077.399449172 8675916.501996253 0 0 0 0 0 130163255.2760719 4701555.96427287 4701555.96427287 5576112.438326388 0 0 0 0 0 128666266.2715479 4224378.506371306 4224378.506371306 2794105.961266 0 0 0 0 0 127245895.3546984 3621583.277531901 3621583.277531901 338684.7973245371 0 0 0 0 0 125880947.0283196 2932141.225412789 2932141.225412789 -1785296.148943824 0 0 0 0 0 124560322.5206752 2188119.069404116 2188119.069404116 -3589113.895179132 0 0 0 0 0 123679972.8713738 1863125.250859862 1863125.250859862 -3639138.588041464 0 0 0 0 0 123017263.3341072 -253679.3675020381 -253679.3675020381 -7191967.570252894 0 0 0 0 0 121664136.3897962 -1001019.288356543 -1001019.288356543 -8183506.42107296 0 0 0 0 0 120212678.4457137 -1607355.375528476 -1607355.375528476 -8242256.176312622 0 0 0 0 0 119580954.5623816 -3451788.449477061 -3451788.449477061 -10424298.05938629 0 0 0 0 0 93076768.92980303 -18829405.44053483 -18829405.44053483 -11511425.48542202 0 0 0 0 0 90666328.18176603 -18989569.56125893 -18989569.56125893 -10443051.2126695 0 0 0 0 0 88355731.9130051 -18933523.45454166 -18933523.45454166 -9297677.171010109 0 0 0 0 0 86248312.08153604 -18670636.72927892 -18670636.72927892 -8095368.801235481 0 0 0 0 0 84351998.57017229 -18213521.49546499 -18213521.49546499 -6888456.478692668 0 0 0 0 0 95581706.81962834 -18440904.21362 -18440904.21362 -12475744.79882352 0 0 0 0 0 98160009.91778409 -17817647.66669545 -17817647.66669545 -13300554.42559418 0 0 0 0 0 100773202.1316649 -16960254.3943693 -16960254.3943693 -13951283.61507401 0 0 0 0 0 82637766.19659328 -17592794.13222388 -17592794.13222388 -5699675.245415851 0 0 0 0 0 81124527.43055409 -16841020.06111224 -16841020.06111224 -4558511.81446621 0 0 0 0 0 103376451.9317669 -15877731.19767638 -15877731.19767638 -14399203.97104808 0 0 0 0 0 105924014.9661076 -14588442.01642498 -14588442.01642498 -14621509.23188999 0 0 0 0 0 108373984.3381063 -13112152.68303864 -13112152.68303864 -14592894.96450778 0 0 0 0 0 110676953.9177705 -11481793.44857166 -11481793.44857166 -14304233.86756747 0 0 0 0 0 112799083.0012185 -9729469.23283208 -9729469.23283208 -13744674.35529547 0 0 0 0 0 114704664.9612995 -7895728.582383999 -7895728.582383999 -12918488.11457235 0 0 0 0 0 116361858.2648115 -6025966.867269563 -6025966.867269563 -11840562.23925718 0 0 0 0 0 117753083.4846188 -4159831.638732544 -4159831.638732544 -10525838.9000164 0 0 0 0 0 81651957.99625213 -15264056.57868496 -15264056.57868496 -2982138.40600171 0 0 0 0 0 80905177.57808079 -15222998.55440392 -15222998.55440392 -3199503.284819394 0 0 0 0 0 81403156.8382145 -13759974.67146829 -13759974.67146829 -1921204.239768971 0 0 0 0 0 81590849.70544918 -11014844.41279734 -11014844.41279734 -386239.6806609062 0 0 0 0 0 81186014.14570276 -12259391.82817691 -12259391.82817691 -1168107.068134388 0 0 0 0 0 80941106.23351771 -13689549.1796138 -13689549.1796138 -2079958.314051673 0 0 0 0 0 81910870.95858072 -13092348.60518759 -13092348.60518759 -1934200.921467831 0 0 0 0 0 81712212.89987125 -10020441.25568683 -10020441.25568683 303356.997544133 0 0 0 0 0 81791394.41701016 -10935328.78897986 -10935328.78897986 -350320.1350198943 0 0 0 0 0 145493040.6444603 3793469.932650107 3793469.932650107 33224869.84348183 0 0 0 0 0 148492880.9164461 2783814.856605154 2783814.856605154 35080018.61391316 0 0 0 0 0 151245513.6428952 1817143.746784257 1817143.746784257 36355366.94503149 0 0 0 0 0 153665024.4856751 938404.362752642 938404.362752642 36746173.61046024 0 0 0 0 0 142704566.4860487 4830101.21704888 4830101.21704888 30781394.02220968 0 0 0 0 0 140142564.3864995 5727792.706525582 5727792.706525582 27887345.56123224 0 0 0 0 0 137844228.4295563 6413382.705512205 6413382.705512205 24675955.1258536 0 0 0 0 0 135773225.7604591 6865516.64046614 6865516.64046614 21302292.36681082 0 0 0 0 0 133919818.4728093 7075296.026815894 7075296.026815894 17875406.37325923 0 0 0 0 0 132225524.6871231 7043480.020929922 7043480.020929922 14507873.73607839 0 0 0 0 0 130665784.9185033 6795007.61110239 6795007.61110239 11278883.79705704 0 0 0 0 0 129199924.2603545 6358813.984244386 6358813.984244386 8255100.429103806 0 0 0 0 0 127811530.9275431 5774419.793512003 5774419.793512003 5477686.826741957 0 0 0 0 0 126468942.3356771 5073612.402578166 5073612.402578166 2969518.352191026 0 0 0 0 0 125160747.9942958 4294756.428868176 4294756.428868176 738990.0073337727 0 0 0 0 0 123881598.3368824 3468258.794103017 3468258.794103017 -1208715.775918107 0 0 0 0 0 123277921.092434 1422541.915350264 1422541.915350264 -5091430.214158975 0 0 0 0 0 122301582.0012197 1002625.262868087 1002625.262868087 -5119587.566711423 0 0 0 0 0 120964698.5828905 171992.2879087436 171992.2879087436 -6330895.436510674 0 0 0 0 0 120355788.8213919 -1709159.062171011 -1709159.062171011 -8947629.604954394 0 0 0 0 0 118864493.0597219 -2339480.0066643 -2339480.0066643 -8999352.443086244 0 0 0 0 0 95676278.81675495 -17712364.56723488 -17712364.56723488 -10290376.70211359 0 0 0 0 0 93254680.1277997 -17890959.52659241 -17890959.52659241 -9272700.68441047 0 0 0 0 0 90917476.0701728 -17871090.98421891 -17871090.98421891 -8191977.399741954 0 0 0 0 0 88682657.36521424 -17659931.49229409 -17659931.49229409 -7107730.831670221 0 0 0 0 0 86650791.78252497 -17270637.33949392 -17270637.33949392 -6030372.345468045 0 0 0 0 0 98165564.10875845 -17322636.57936228 -17322636.57936228 -11223839.27297857 0 0 0 0 0 100686257.323549 -16717997.12192567 -16717997.12192567 -12049400.84741225 0 0 0 0 0 103196096.2979075 -15903179.25851889 -15903179.25851889 -12738093.91277651 0 0 0 0 0 84792033.29941277 -16727401.68271773 -16727401.68271773 -4967141.938393058 0 0 0 0 0 83129015.77024506 -16052292.7293827 -16052292.7293827 -3944541.195313047 0 0 0 0 0 105653747.5317793 -14884948.78559432 -14884948.78559432 -13262109.85149732 0 0 0 0 0 108019702.9196613 -13678935.67861825 -13678935.67861825 -13596215.60975786 0 0 0 0 0 110249537.0247179 -12307543.69299908 -12307543.69299908 -13717492.49458245 0 0 0 0 0 112306648.3578125 -10796663.90498213 -10796663.90498213 -13611089.85173074 0 0 0 0 0 114157230.0893201 -9178824.055966813 -9178824.055966813 -13264037.16668145 0 0 0 0 0 115776273.3227827 -7489797.35906017 -7489797.35906017 -12675318.70324174 0 0 0 0 0 117147881.7903126 -5766290.129449937 -5766290.129449937 -11844571.67379318 0 0 0 0 0 118252837.6111965 -4048995.750436369 -4048995.750436369 -10786150.33734583 0 0 0 0 0 82100573.42613305 -16040349.67524245 -16040349.67524245 -4219205.586596107 0 0 0 0 0 82580544.63523415 -14578185.77017532 -14578185.77017532 -2763415.157226347 0 0 0 0 0 81880461.88630427 -14529046.67136551 -14529046.67136551 -2972644.102279112 0 0 0 0 0 82095657.5821723 -11768605.26603204 -11768605.26603204 -1068853.313669858 0 0 0 0 0 82352963.47330827 -11832476.49716177 -11832476.49716177 -969286.548156045 0 0 0 0 0 82345951.63065167 -13163417.01667217 -13163417.01667217 -1782125.959257324 0 0 0 0 0 83218816.00912279 -12602685.78632017 -12602685.78632017 -1658723.597612194 0 0 0 0 0 81933161.82077636 -9911501.398016011 -9911501.398016011 -57933.12771415454 0 0 0 0 0 82363412.11648382 -10674737.08888493 -10674737.08888493 -489146.8900817565 0 0 0 0 0 141785047.3808152 2305680.069596562 2305680.069596562 31862407.36633156 0 0 0 0 0 143824391.2660148 1177485.159795541 1177485.159795541 34054459.20426291 0 0 0 0 0 146049946.9969845 135065.1978401288 135065.1978401288 35602000.28734661 0 0 0 0 0 148867563.0881639 -685951.0798554212 -685951.0798554212 36435436.76814906 0 0 0 0 0 139480915.1427241 3377594.587606606 3377594.587606606 28963856.83917627 0 0 0 0 0 137359902.998034 4337851.218932815 4337851.218932815 25667408.54192236 0 0 0 0 0 135429491.9721301 5085087.09850707 5085087.09850707 22171717.29540498 0 0 0 0 0 133674074.2425417 5601972.504575937 5601972.504575937 18611044.2202984 0 0 0 0 0 132075570.3700238 5877908.876837574 5877908.876837574 15097088.56578672 0 0 0 0 0 130604402.2653377 5921007.02213038 5921007.02213038 11736051.92462852 0 0 0 0 0 129239391.9693621 5754442.186877979 5754442.186877979 8592602.069739001 0 0 0 0 0 127949931.5157981 5406238.825772057 5406238.825772057 5715335.89747237 0 0 0 0 0 126720652.9977958 4913270.884062618 4913270.884062618 3122892.655879372 0 0 0 0 0 125530864.3547878 4308017.336885895 4308017.336885895 827575.3205500485 0 0 0 0 0 124372881.3660666 3628470.0739919 3628470.0739919 -1168226.236157847 0 0 0 0 0 123238969.4652961 2903152.814791129 2903152.814791129 -2873877.485030984 0 0 0 0 0 122635966.6971438 2628324.4991444 2628324.4991444 -2881876.947275667 0 0 0 0 0 122040309.2796663 662329.7605854645 662329.7605854645 -6312978.188440142 0 0 0 0 0 120836839.2550465 -74457.29744041309 -74457.29744041309 -7291581.848546111 0 0 0 0 0 119681375.7836881 -614691.0955432055 -614691.0955432055 -7305688.668531112 0 0 0 0 0 119086588.1504427 -2376006.526183249 -2376006.526183249 -9519329.644383857 0 0 0 0 0 95403937.83472654 -17724410.71041074 -17724410.71041074 -11728413.06921316 0 0 0 0 0 93083933.95253351 -18042732.12462771 -18042732.12462771 -10789519.53403391 0 0 0 0 0 90829898.76603161 -18158186.96857157 -18158186.96857157 -9760719.312973471 0 0 0 0 0 88729323.27545305 -18068463.13341722 -18068463.13341722 -8657568.063315984 0 0 0 0 0 86806855.81458293 -17787016.81605171 -17787016.81605171 -7522478.991682463 0 0 0 0 0 85052320.2362221 -17347007.90527198 -17347007.90527198 -6404613.701531721 0 0 0 0 0 97789825.23863791 -17193374.38377735 -17193374.38377735 -12548705.58897676 0 0 0 0 0 100216134.5757414 -16449121.70735384 -16449121.70735384 -13221760.57926852 0 0 0 0 0 102639903.8683606 -15495485.82065236 -15495485.82065236 -13719257.8086705 0 0 0 0 0 83481289.97803061 -16755889.75453296 -16755889.75453296 -5292711.529239305 0 0 0 0 0 105025293.0356527 -14346220.87319018 -14346220.87319018 -14016263.95037417 0 0 0 0 0 107334350.0740405 -13020965.27110436 -13020965.27110436 -14093188.28485856 0 0 0 0 0 109523152.1586658 -11540982.0393561 -11540982.0393561 -13935090.81366407 0 0 0 0 0 111553913.4687133 -9939433.580933215 -9939433.580933215 -13533484.74450876 0 0 0 0 0 113398493.7830468 -8248603.192208922 -8248603.192208922 -12886750.2250716 0 0 0 0 0 115029082.2910944 -6506683.648076252 -6506683.648076252 -12002295.72838445 0 0 0 0 0 116422349.4384573 -4750545.156327276 -4750545.156327276 -10891071.95093719 0 0 0 0 0 117566198.1141554 -3017448.276766581 -3017448.276766581 -9571312.699008336 0 0 0 0 0 83938597.64653203 -15316577.68812726 -15316577.68812726 -3665215.634370748 0 0 0 0 0 82990772.04262595 -15294980.43021976 -15294980.43021976 -3924093.041042664 0 0 0 0 0 83440277.21061987 -13928963.72705176 -13928963.72705176 -2567679.230433222 0 0 0 0 0 83105559.84143375 -11399950.25740747 -11399950.25740747 -934351.3516357737 0 0 0 0 0 82753954.3456452 -12526949.44424452 -12526949.44424452 -1821104.123398905 0 0 0 0 0 82785646.63160756 -13874651.95681423 -13874651.95681423 -2767881.451512705 0 0 0 0 0 83624850.45886964 -13261268.54851235 -13261268.54851235 -2578157.978812051 0 0 0 0 0 82927234.76423934 -10552390.51726167 -10552390.51726167 -330932.2999866459 0 0 0 0 0 83179973.43135278 -11316667.86668071 -11316667.86668071 -938675.9881069299 0 0 0 0 0 139709757.7672145 4524900.776527593 4524900.776527593 31947566.20125018 0 0 0 0 0 142089560.037543 3425530.7766269 3425530.7766269 33844888.6792924 0 0 0 0 0 144069143.9417558 2291365.858807504 2291365.858807504 35275813.79399703 0 0 0 0 0 146236758.2997845 1260636.215042329 1260636.215042329 36014012.45202176 0 0 0 0 0 137626410.2647866 5555517.075864963 5555517.075864963 29439562.43610923 0 0 0 0 0 135692169.6872285 6404942.582306654 6404942.582306654 26632965.80236022 0 0 0 0 0 133958775.0557128 7040418.229450594 7040418.229450594 23578788.81112947 0 0 0 0 0 132386531.4195201 7436786.087920867 7436786.087920867 20399666.24253216 0 0 0 0 0 130952743.72913 7596768.965227182 7596768.965227182 17200498.32378193 0 0 0 0 0 129624884.8481016 7530138.845662857 7530138.845662857 14066181.33528041 0 0 0 0 0 128373763.3143438 7262805.243581779 7262805.243581779 11067776.32256724 0 0 0 0 0 127180416.0131458 6825406.960005044 6825406.960005044 8256398.108800164 0 0 0 0 0 126023665.4224545 6252421.764105912 6252421.764105912 5669281.685409038 0 0 0 0 0 124889277.7835064 5575013.772233695 5575013.772233695 3325079.493498856 0 0 0 0 0 123771085.2095287 4827775.873568716 4827775.873568716 1234452.15388186 0 0 0 0 0 122668284.4697975 4040289.185952243 4040289.185952243 -601312.0890116612 0 0 0 0 0 122123930.3100229 2154611.000512452 2154611.000512452 -4314486.209551274 0 0 0 0 0 121413282.4691428 1795691.862057629 1795691.862057629 -4301944.236461355 0 0 0 0 0 120221536.4555838 988430.526152363 988430.526152363 -5478580.762661914 0 0 0 0 0 119657754.0401879 -783185.6254292877 -783185.6254292877 -8064967.670263917 0 0 0 0 0 118450563.1443661 -1347855.359243524 -1347855.359243524 -8074893.033089565 0 0 0 0 0 97806303.62979707 -16681165.41456154 -16681165.41456154 -10545101.38993992 0 0 0 0 0 95497811.88917816 -17003611.75722341 -17003611.75722341 -9639591.778233128 0 0 0 0 0 93245947.10035366 -17136741.95090152 -17136741.95090152 -8653816.699259978 0 0 0 0 0 91079422.84245773 -17084210.86050932 -17084210.86050932 -7644543.440751762 0 0 0 0 0 89043707.84506077 -16857236.2772803 -16857236.2772803 -6623737.617081815 0 0 0 0 0 87182748.36769451 -16475599.00234238 -16475599.00234238 -5608355.544355745 0 0 0 0 0 100145531.4576463 -16164032.37839075 -16164032.37839075 -11358256.14467706 0 0 0 0 0 102482406.9920551 -15452752.80540861 -15452752.80540861 -12056922.01153596 0 0 0 0 0 104784670.1087732 -14552803.92115748 -14552803.92115748 -12611231.95487871 0 0 0 0 0 85472266.86428794 -15955798.21653695 -15955798.21653695 -4616045.884650605 0 0 0 0 0 107014743.9553539 -13474522.14505214 -13474522.14505214 -12997658.10424961 0 0 0 0 0 109132551.2993357 -12236125.04087463 -12236125.04087463 -13197493.7595717 0 0 0 0 0 111101060.8638187 -10864962.95059934 -10864962.95059934 -13199710.31157051 0 0 0 0 0 112897248.4960204 -9378018.072363792 -9378018.072363792 -12978334.60078297 0 0 0 0 0 114487803.144681 -7814787.233336332 -7814787.233336332 -12538169.6883827 0 0 0 0 0 115855652.3040649 -6206064.432106107 -6206064.432106107 -11876220.46032756 0 0 0 0 0 116987968.0305316 -4586032.838008447 -4586032.838008447 -10999367.37339589 0 0 0 0 0 117874431.4499282 -2989255.155588123 -2989255.155588123 -9920043.662525905 0 0 0 0 0 84272309.77509822 -15967608.45820462 -15967608.45820462 -4922606.533382064 0 0 0 0 0 84697738.63967773 -14623173.69894771 -14623173.69894771 -3410865.42280894 0 0 0 0 0 83817800.05805334 -14592942.73494785 -14592942.73494785 -3656731.721265581 0 0 0 0 0 83604673.44124849 -12032568.71357861 -12032568.71357861 -1667954.389673874 0 0 0 0 0 84024737.95454651 -12091466.02383421 -12091466.02383421 -1526495.013425242 0 0 0 0 0 84238164.91111372 -13315301.49488455 -13315301.49488455 -2388883.362307902 0 0 0 0 0 84973201.45943275 -12744764.73488381 -12744764.73488381 -2240001.181270728 0 0 0 0 0 83266521.12630662 -10376631.83661064 -10376631.83661064 -607165.8549640451 0 0 0 0 0 83774091.61349981 -11079931.25123589 -11079931.25123589 -1082754.039102976 0 0 0 0 0 136588576.7717697 3174553.087164329 3174553.087164329 30445724.36049493 0 0 0 0 0 138223537.2967244 2040648.460591197 2040648.460591197 32695979.30411577 0 0 0 0 0 139735621.6839947 765289.5259297718 765289.5259297718 34358779.18716582 0 0 0 0 0 142129816.4617397 -368567.8464463187 -368567.8464463187 35428014.22019926 0 0 0 0 0 134850570.6994292 4242918.741039502 4242918.741039502 27574138.90125505 0 0 0 0 0 133253517.5880655 5131814.790991766 5131814.790991766 24427037.56222631 0 0 0 0 0 131788857.9942446 5804489.254347529 5804489.254347529 21128816.15039148 0 0 0 0 0 130446165.0954556 6245306.936953744 6245306.936953744 17800931.45419515 0 0 0 0 0 129207572.3478827 6456429.642081609 6456429.642081609 14538806.31956126 0 0 0 0 0 128055458.3957041 6452030.208478319 6452030.208478319 11423374.87338201 0 0 0 0 0 126965125.7331692 6255339.63147121 6255339.63147121 8510234.890600389 0 0 0 0 0 125921234.9677405 5895858.11345297 5895858.11345297 5837165.751885451 0 0 0 0 0 124907506.8930695 5406107.073607297 5406107.073607297 3422211.770952995 0 0 0 0 0 123913633.9951219 4818931.655519847 4818931.655519847 1276459.042109906 0 0 0 0 0 122932642.1828538 4162187.296104554 4162187.296104554 -598496.3704279251 0 0 0 0 0 121958175.1974375 3462626.597963497 3462626.597963497 -2220095.027986906 0 0 0 0 0 121578354.6401021 3234625.262340552 3234625.262340552 -2194421.488899091 0 0 0 0 0 121040886.7959616 1416776.529918222 1416776.529918222 -5496811.375600645 0 0 0 0 0 119975938.7533441 698801.2919238467 698801.2919238467 -6457749.642048337 0 0 0 0 0 119071573.3496937 220852.4589544049 220852.4589544049 -6437677.926067013 0 0 0 0 0 118515495.9470832 -1449686.945133404 -1449686.945133404 -8657512.738518007 0 0 0 0 0 97463360.47087808 -16583656.12774359 -16583656.12774359 -11827494.03248114 0 0 0 0 0 95243517.34364972 -17035056.27879993 -17035056.27879993 -11016298.75744577 0 0 0 0 0 93077130.4519701 -17295384.36144241 -17295384.36144241 -10106669.5933559 0 0 0 0 0 91027671.31718297 -17360696.82479068 -17360696.82479068 -9112560.87924787 0 0 0 0 0 89109365.54175241 -17244062.74300556 -17244062.74300556 -8073624.201174463 0 0 0 0 0 87337764.52193967 -16958836.0258219 -16958836.0258219 -7013903.773963223 0 0 0 0 0 85720278.77179632 -16530327.08108146 -16530327.08108146 -5960163.406341737 0 0 0 0 0 99717057.85164094 -15938026.36340327 -15938026.36340327 -12510717.69735353 0 0 0 0 0 101977129.2025653 -15100736.45572834 -15100736.45572834 -13041222.67318379 0 0 0 0 0 104212192.4763407 -14079420.86502292 -14079420.86502292 -13399246.84199939 0 0 0 0 0 106387827.7282674 -12890146.84648904 -12890146.84648904 -13564078.27703498 0 0 0 0 0 108465014.741908 -11551253.47409391 -11551253.47409391 -13513497.83897317 0 0 0 0 0 110406546.0794632 -10088180.50172776 -10088180.50172776 -13244386.39624616 0 0 0 0 0 112188982.3309743 -8531833.032929076 -8531833.032929076 -12750606.19180212 0 0 0 0 0 113781742.4426959 -6915516.268587421 -6915516.268587421 -12035951.07476771 0 0 0 0 0 115170218.4802521 -5268870.893811761 -5268870.893811761 -11105174.83383171 0 0 0 0 0 116333792.4997512 -3628695.253072442 -3628695.253072442 -9976449.590410631 0 0 0 0 0 117261713.9411523 -2029865.298455454 -2029865.298455454 -8670821.386124577 0 0 0 0 0 86113974.46308869 -15228158.66154154 -15228158.66154154 -4301141.237281742 0 0 0 0 0 85006241.13441601 -15228882.9411371 -15228882.9411371 -4589659.099473097 0 0 0 0 0 85405938.1891087 -13968008.45399361 -13968008.45399361 -3179690.646226695 0 0 0 0 0 84739632.39026989 -11661300.11486838 -11661300.11486838 -1471653.609648161 0 0 0 0 0 84332603.25705761 -12675801.79721355 -12675801.79721355 -2444642.751187544 0 0 0 0 0 84584601.69278176 -13930150.93998541 -13930150.93998541 -3414402.468345745 0 0 0 0 0 85293090.5570005 -13316187.80873984 -13316187.80873984 -3175778.341906033 0 0 0 0 0 84222630.57026196 -10935010.91031856 -10935010.91031856 -951591.3849374801 0 0 0 0 0 84592893.97605477 -11578043.32067172 -11578043.32067172 -1541051.910884766 0 0 0 0 0 134972972.2994144 4962732.398641682 4962732.398641682 30375069.92183039 0 0 0 0 0 136827036.6905681 3920943.155333495 3920943.155333495 32428508.23248252 0 0 0 0 0 138202052.3256227 2597847.442732223 2597847.442732223 33694033.7226558 0 0 0 0 0 139821926.3256316 1448864.441058209 1448864.441058209 34832466.45957226 0 0 0 0 0 133379321.9023963 5985530.343538462 5985530.343538462 28024312.53010795 0 0 0 0 0 131936002.2908583 6806706.118018279 6806706.118018279 25346500.92688515 0 0 0 0 0 130626789.5301427 7399879.797853035 7399879.797853035 22474158.38623828 0 0 0 0 0 129428750.0664048 7757359.800994965 7757359.800994965 19504930.20558068 0 0 0 0 0 128320957.5248807 7886933.373599608 7886933.373599608 16529388.80771997 0 0 0 0 0 127275849.2066738 7805173.994581564 7805173.994581564 13621704.7639859 0 0 0 0 0 126274976.6024587 7537763.058263288 7537763.058263288 10840859.22092551 0 0 0 0 0 125300330.8424531 7114523.225997652 7114523.225997652 8231407.84699023 0 0 0 0 0 124340297.7285585 6566886.001449085 6566886.001449085 5823695.662617093 0 0 0 0 0 123386078.9974246 5926190.707998749 5926190.707998749 3635811.823544642 0 0 0 0 0 122432795.6754986 5219278.349513688 5219278.349513688 1673871.504695237 0 0 0 0 0 121481482.3100426 4473242.12388344 4473242.12388344 -61403.96484568263 0 0 0 0 0 120991809.5406002 2743015.336277993 2743015.336277993 -3599883.27974954 0 0 0 0 0 120495917.9616592 2434378.649584222 2434378.649584222 -3560396.329442567 0 0 0 0 0 119437860.2625569 1659957.643449887 1659957.643449887 -4697527.439865654 0 0 0 0 0 118920053.0739839 2118.613992614122 2118.613992614122 -7234707.691123325 0 0 0 0 0 117952678.5897135 -504176.9040398945 -504176.9040398945 -7213713.87740717 0 0 0 0 0 99659531.43736069 -15621217.90464929 -15621217.90464929 -10702987.28294783 0 0 0 0 0 97481930.98673472 -16060262.60242754 -16060262.60242754 -9901394.986151073 0 0 0 0 0 95337308.39859158 -16323686.41992355 -16323686.41992355 -9018562.14824936 0 0 0 0 0 93256489.65345673 -16410514.8921817 -16410514.8921817 -8094648.409652558 0 0 0 0 0 91275934.72047378 -16332803.65487378 -16332803.65487378 -7142404.422692954 0 0 0 0 0 89412850.94594596 -16097918.51701274 -16097918.51701274 -6179714.068710597 0 0 0 0 0 87689976.57154709 -15725109.91748927 -15725109.91748927 -5227060.637081207 0 0 0 0 0 101841691.8683278 -15001147.06416763 -15001147.06416763 -11398255.51759988 0 0 0 0 0 103997342.42419 -14206744.34316092 -14206744.34316092 -11971233.14768337 0 0 0 0 0 106097054.2129637 -13245419.82792662 -13245419.82792662 -12400478.17333173 0 0 0 0 0 108102951.1499542 -12132279.68282679 -12132279.68282679 -12667532.92892803 0 0 0 0 0 109986126.758379 -10890318.01094298 -10890318.01094298 -12755932.72628254 0 0 0 0 0 111723800.7818601 -9525582.145610854 -9525582.145610854 -12637521.98819589 0 0 0 0 0 113282332.3593821 -8081167.161730685 -8081167.161730685 -12322619.9383822 0 0 0 0 0 114642273.3742134 -6581801.718229136 -6581801.718229136 -11803817.24829008 0 0 0 0 0 115788556.4604375 -5060089.139724451 -5060089.139724451 -11086178.47339159 0 0 0 0 0 116713800.5496462 -3545145.851214824 -3545145.851214824 -10176587.67835948 0 0 0 0 0 117414841.2126082 -2067778.166473536 -2067778.166473536 -9088809.175237425 0 0 0 0 0 86345052.42150347 -15762686.00656659 -15762686.00656659 -5557613.29140136 0 0 0 0 0 86714130.63361634 -14543713.05235424 -14543713.05235424 -4014711.015963953 0 0 0 0 0 85693215.23703459 -14534204.4702892 -14534204.4702892 -4286077.135122628 0 0 0 0 0 84927830.9513427 -12106908.69398161 -12106908.69398161 -2320063.678323593 0 0 0 0 0 85727371.19670759 -12200337.81384674 -12200337.81384674 -2092957.687247223 0 0 0 0 0 86072808.66820692 -13342333.3669649 -13342333.3669649 -2957649.583542421 0 0 0 0 0 86666871.96820924 -12769518.05143543 -12769518.05143543 -2742101.865031827 0 0 0 0 0 84594166.93519537 -10734168.69529133 -10734168.69529133 -1169817.262207411 0 0 0 0 0 84995628.54036115 -11427055.60451607 -11427055.60451607 -1729862.633458744 0 0 0 0 0 132346114.4622899 3793758.379032154 3793758.379032154 28938288.06105863 0 0 0 0 0 133719176.2005454 2659263.929881345 2659263.929881345 31326264.59527699 0 0 0 0 0 134673325.3238 1511247.533836511 1511247.533836511 33136354.7221516 0 0 0 0 0 136547600.5729668 -164371.6725653158 -164371.6725653158 34108223.1733567 0 0 0 0 0 131027156.8080372 4818399.51570937 4818399.51570937 26184429.16848073 0 0 0 0 0 129802960.6130557 5648785.556759528 5648785.556759528 23207460.87518576 0 0 0 0 0 128681886.0359553 6258862.903378858 6258862.903378858 20120976.07473396 0 0 0 0 0 127647980.6374984 6644170.637273571 6644170.637273571 17026047.95453075 0 0 0 0 0 126687346.0259669 6812543.717159506 6812543.717159506 14004750.47948392 0 0 0 0 0 125780586.4552476 6781565.594475441 6781565.594475441 11120515.99594019 0 0 0 0 0 124910779.6606441 6574772.461014732 6574772.461014732 8421392.330821961 0 0 0 0 0 124064217.0291282 6220723.748242898 6220723.748242898 5938577.795414784 0 0 0 0 0 123229524.5918528 5748425.115301757 5748425.115301757 3690965.619327648 0 0 0 0 0 122398426.2891871 5186276.025840519 5186276.025840519 1682776.67834894 0 0 0 0 0 121566548.2018234 4560035.988962914 4560035.988962914 -86541.65732677413 0 0 0 0 0 120733674.9958788 3894925.759558538 3894925.759558538 -1625469.554403361 0 0 0 0 0 120529229.8631653 3709011.956154655 3709011.956154655 -1577735.247590134 0 0 0 0 0 120047041.3540101 2033740.133500264 2033740.133500264 -4740783.852897529 0 0 0 0 0 119103464.208488 1339426.726228277 1339426.726228277 -5683815.342386914 0 0 0 0 0 118410171.7486529 918987.3881605773 918987.3881605773 -5637262.050863587 0 0 0 0 0 117895039.5687034 -656076.4502784535 -656076.4502784535 -7841627.180169323 0 0 0 0 0 97170901.31161426 -15989968.72722492 -15989968.72722492 -11141825.00609509 0 0 0 0 0 99267809.83610915 -15430229.83135486 -15430229.83135486 -11823220.4385822 0 0 0 0 0 95107790.31329611 -16371686.85816127 -16371686.85816127 -10349076.33078718 0 0 0 0 0 93123435.08974794 -16570301.51184513 -16570301.51184513 -9461304.328561928 0 0 0 0 0 91241013.73383833 -16596575.64917388 -16596575.64917388 -8519700.020995865 0 0 0 0 0 89472499.98535052 -16463415.00577853 -16463415.00577853 -7542522.507225777 0 0 0 0 0 87837167.30546039 -16178845.32844952 -16178845.32844952 -6547106.447591051 0 0 0 0 0 101378576.1132765 -14695591.95911662 -14695591.95911662 -12378239.13625961 0 0 0 0 0 103470938.30954 -13790213.5209567 -13790213.5209567 -12780280.70719624 0 0 0 0 0 105519552.0075917 -12724774.01288098 -12724774.01288098 -13009159.95631159 0 0 0 0 0 107487460.4585775 -11516129.2829485 -11516129.2829485 -13046939.96718305 0 0 0 0 0 109345701.5756045 -10184617.56322346 -10184617.56322346 -12894228.57518996 0 0 0 0 0 111066019.5240963 -8754262.89842888 -8754262.89842888 -12533654.59465684 0 0 0 0 0 112620338.7237551 -7255205.546264729 -7255205.546264729 -11967082.8076624 0 0 0 0 0 113990097.2187921 -5719426.569828582 -5719426.569828582 -11200117.12855657 0 0 0 0 0 115162503.4233884 -4173749.121993377 -4173749.121993377 -10241910.68109471 0 0 0 0 0 116123696.4014951 -2650260.534878725 -2650260.534878725 -9110044.353492266 0 0 0 0 0 116868358.5134171 -1179597.282302611 -1179597.282302611 -7826377.583541014 0 0 0 0 0 88170475.85374692 -15016876.56641695 -15016876.56641695 -4879771.884310945 0 0 0 0 0 86927201.68730737 -15041792.95899179 -15041792.95899179 -5190497.068454072 0 0 0 0 0 87273886.07713656 -13900941.13831048 -13900941.13831048 -3758305.485428283 0 0 0 0 0 86230361.57991867 -11829841.29810822 -11829841.29810822 -1864463.877214729 0 0 0 0 0 86029249.55456522 -12754419.94805231 -12754419.94805231 -2919530.724129914 0 0 0 0 0 86334827.23603304 -13877608.25309319 -13877608.25309319 -4015798.194950867 0 0 0 0 0 86949483.22741818 -13284031.45980392 -13284031.45980392 -3720118.975268509 0 0 0 0 0 85547407.50437789 -11261042.90219188 -11261042.90219188 -1548533.012991449 0 0 0 0 0 131024067.6675857 5240772.48757331 5240772.48757331 28864849.69622582 0 0 0 0 0 132366218.3105369 4048532.765864083 4048532.765864083 30721201.4780434 0 0 0 0 0 133991939.4782633 2399260.724859775 2399260.724859775 31549954.40454239 0 0 0 0 0 134318220.4395438 1493395.940783651 1493395.940783651 33575841.87625765 0 0 0 0 0 129832937.58935 6243636.766479974 6243636.766479974 26599313.08986335 0 0 0 0 0 128744728.6421663 7023145.930639455 7023145.930639455 24079775.81848383 0 0 0 0 0 127753016.4608324 7575750.51129647 7575750.51129647 21391541.70030295 0 0 0 0 0 126838707.7930633 7901146.338616426 7901146.338616426 18629766.04111556 0 0 0 0 0 125980414.6808771 8011583.179011679 8011583.179011679 15870232.33631786 0 0 0 0 0 125159086.787017 7926249.769394543 7926249.769394543 13177321.276533 0 0 0 0 0 124357703.7397935 7670025.303123265 7670025.303123265 10601813.50766282 0 0 0 0 0 123563428.5926585 7270597.095115499 7270597.095115499 8181094.842643531 0 0 0 0 0 122767831.6848976 6756884.948842882 6756884.948842882 5940574.013997539 0 0 0 0 0 121965676.5880188 6156343.384786378 6156343.384786378 3896102.636440012 0 0 0 0 0 121154198.5037165 5493760.542947991 5493760.542947991 2054113.081492913 0 0 0 0 0 120331893.7239316 4792838.47655116 4792838.47655116 415882.2152508006 0 0 0 0 0 119897661.901011 3210805.261839523 3210805.261839523 -2944381.423801258 0 0 0 0 0 119573010.0634545 2946919.789305914 2946919.789305914 -2886210.77664927 0 0 0 0 0 118636896.8316524 2209387.004616477 2209387.004616477 -3984054.565070738 0 0 0 0 0 118164135.1900073 663784.5099878107 663784.5099878107 -6458840.833349184 0 0 0 0 0 117398189.1399348 211762.9476390153 211762.9476390153 -6414648.071167833 0 0 0 0 0 99235497.23122405 -15083468.87582853 -15083468.87582853 -10074137.93110714 0 0 0 0 0 101267895.7391948 -14544672.18321896 -14544672.18321896 -10763333.44765051 0 0 0 0 0 97206962.03821422 -15458092.39785231 -15458092.39785231 -9295240.491849538 0 0 0 0 0 95217842.49293314 -15665710.20080463 -15665710.20080463 -8455711.589620834 0 0 0 0 0 93304127.2905516 -15716339.31167836 -15716339.31167836 -7578708.686687468 0 0 0 0 0 91480639.37047397 -15617802.48841675 -15617802.48841675 -6678033.565529875 0 0 0 0 0 89763416.10127312 -15379151.12986657 -15379151.12986657 -5772227.364577834 0 0 0 0 0 103287838.1499897 -13847786.18666013 -13847786.18666013 -11348809.22709396 0 0 0 0 0 105266730.9047662 -12990871.1399971 -12990871.1399971 -11804706.96221053 0 0 0 0 0 107167885.3264645 -11991324.93758506 -11991324.93758506 -12119493.39059294 0 0 0 0 0 108965159.3238588 -10863659.98454288 -10863659.98454288 -12272951.36657212 0 0 0 0 0 110636661.9626602 -9623106.571510581 -9623106.571510581 -12249466.19660808 0 0 0 0 0 112157726.8381271 -8290749.570927926 -8290749.570927926 -12043366.41273495 0 0 0 0 0 113500787.7608952 -6898390.982432139 -6898390.982432139 -11650763.83980983 0 0 0 0 0 114653856.5332946 -5472613.804687872 -5472613.804687872 -11071874.70975648 0 0 0 0 0 115605827.3862605 -4042377.129054196 -4042377.129054196 -10314571.10905004 0 0 0 0 0 116354433.2393425 -2632173.61070137 -2632173.61070137 -9384700.38801942 0 0 0 0 0 116898907.237474 -1269440.133575072 -1269440.133575072 -8298450.299025699 0 0 0 0 0 88306866.5685996 -15442248.20557921 -15442248.20557921 -6117931.064985509 0 0 0 0 0 88621388.57989955 -14349783.70610552 -14349783.70610552 -4562140.812953473 0 0 0 0 0 87471382.00665286 -14364112.71633925 -14364112.71633925 -4854221.350541339 0 0 0 0 0 86236547.33978313 -11675288.32437374 -11675288.32437374 -2306156.748973774 0 0 0 0 0 87066150.93298988 -12256946.75336901 -12256946.75336901 -2792032.90498846 0 0 0 0 0 87808118.6948981 -13286295.29744364 -13286295.29744364 -3490601.349248249 0 0 0 0 0 88263077.25531268 -12745658.94139534 -12745658.94139534 -3340076.732235888 0 0 0 0 0 85997087.33643012 -10994992.00855662 -10994992.00855662 -1708733.183841625 0 0 0 0 0 128862159.5654923 4223528.866409508 4223528.866409508 27436729.54839885 0 0 0 0 0 130051737.4533966 3094560.922411499 3094560.922411499 29734442.3355242 0 0 0 0 0 131450673.269426 2118970.981096284 2118970.981096284 31706796.48990038 0 0 0 0 0 131353308.854041 2232452.589124549 2232452.589124549 32926726.7842696 0 0 0 0 0 132272277.8826309 130721.0142483495 130721.0142483495 32319380.64151949 0 0 0 0 0 127813376.6592194 5199847.722240205 5199847.722240205 24822578.90527033 0 0 0 0 0 126869498.023292 5969421.680564252 5969421.680564252 22030376.23292056 0 0 0 0 0 126005015.9771909 6524940.208458952 6524940.208458952 19157037.08672317 0 0 0 0 0 125208466.4080395 6866558.438180086 6866558.438180086 16287609.27821066 0 0 0 0 0 124461774.7924007 7006273.443372074 7006273.443372074 13492117.72294035 0 0 0 0 0 123748957.7392664 6962306.987113111 6962306.987113111 10824347.07443232 0 0 0 0 0 123054678.1129313 6757593.802847307 6757593.802847307 8324544.51936355 0 0 0 0 0 122367284.7321957 6417748.213751663 6417748.213751663 6018979.592673724 0 0 0 0 0 121679970.4021006 5970178.998018459 5970178.998018459 3922100.566385664 0 0 0 0 0 120985797.8174367 5439461.591139602 5439461.591139602 2039567.603236425 0 0 0 0 0 120282653.1096021 4849561.63443507 4849561.63443507 372327.9057439858 0 0 0 0 0 119568776.7710753 4222424.210722355 4222424.210722355 -1086820.556369667 0 0 0 0 0 119502499.5178775 4074426.798034973 4074426.798034973 -1024013.717020624 0 0 0 0 0 119070548.4028629 2533117.379172323 2533117.379172323 -4045993.101044657 0 0 0 0 0 118238647.787468 1868293.180545933 1868293.180545933 -4967348.566896794 0 0 0 0 0 117717658.9917239 1498297.437761736 1498297.437761736 -4904331.38566629 0 0 0 0 0 117244728.4991946 21267.39512900381 21267.39512900381 -7075246.153961472 0 0 0 0 0 96921909.76624422 -15408752.57388602 -15408752.57388602 -10490252.87032163 0 0 0 0 0 98878071.60687107 -14926529.92142572 -14926529.92142572 -11171494.56821139 0 0 0 0 0 100844952.3753301 -14284741.17997381 -14284741.17997381 -11738113.61127043 0 0 0 0 0 95019514.04912417 -15724916.97370509 -15724916.97370509 -9716062.356852237 0 0 0 0 0 93192615.16218656 -15875398.79708783 -15875398.79708783 -8870372.568131797 0 0 0 0 0 91453617.24110281 -15873108.92488186 -15873108.92488186 -7976357.528515473 0 0 0 0 0 89821065.37173329 -15725160.62879714 -15725160.62879714 -7052737.735826154 0 0 0 0 0 102803294.2034448 -13481909.2030547 -13481909.2030547 -12171829.17138524 0 0 0 0 0 104731757.4195696 -12528912.84710851 -12528912.84710851 -12453778.29651603 0 0 0 0 0 106593210.1083854 -11439385.75649086 -11439385.75649086 -12567880.73289483 0 0 0 0 0 108360500.2561466 -10234715.66711937 -10234715.66711937 -12511343.12366413 0 0 0 0 0 110019303.6006209 -8921531.200395189 -8921531.200395189 -12259722.34808092 0 0 0 0 0 111533861.8217806 -7534863.153326471 -7534863.153326471 -11819090.32253699 0 0 0 0 0 112882395.5064269 -6102468.219150933 -6102468.219150933 -11193383.52944828 0 0 0 0 0 114054962.3282862 -4652063.868226008 -4652063.868226008 -10387955.26899247 0 0 0 0 0 115037675.7494386 -3208552.179295053 -3208552.179295053 -9415543.330867283 0 0 0 0 0 115824292.3902277 -1799178.663824012 -1799178.663824012 -8291989.676476618 0 0 0 0 0 116413152.7754185 -449981.3624604772 -449981.3624604772 -7037546.182032327 0 0 0 0 0 90098561.90006137 -14698499.04906379 -14698499.04906379 -5397649.065493537 0 0 0 0 0 88747009.79881075 -14746911.55477155 -14746911.55477155 -5723794.573007488 0 0 0 0 0 89042515.47463594 -13725104.48560739 -13725104.48560739 -4285198.047092281 0 0 0 0 0 86915497.4031235 -11537569.50271149 -11537569.50271149 -2071738.524651716 0 0 0 0 0 87353574.03838235 -12122438.0709099 -12122438.0709099 -2693890.36714177 0 0 0 0 0 87803857.16957515 -12757697.22612209 -12757697.22612209 -3470400.205621041 0 0 0 0 0 87925819.88195629 -13705850.53363582 -13705850.53363582 -4586810.339101494 0 0 0 0 0 88239301.07424217 -13087971.33359188 -13087971.33359188 -4263516.62009656 0 0 0 0 0 127754047.9313115 5445457.97013331 5445457.97013331 27364497.86848553 0 0 0 0 0 128788632.8643205 4323852.170775411 4323852.170775411 29202264.19039394 0 0 0 0 0 129805943.9359044 3182339.833070716 3182339.833070716 30882930.64207153 0 0 0 0 0 129892656.8586103 1301122.134952668 1301122.134952668 31226557.77226724 0 0 0 0 0 130061584.4197889 1231374.502173876 1231374.502173876 32170171.60854164 0 0 0 0 0 126835658.5090453 6380792.988507098 6380792.988507098 25227350.81480479 0 0 0 0 0 126009521.218131 7110722.612194801 7110722.612194801 22853201.06373997 0 0 0 0 0 125257467.9716271 7621544.150219485 7621544.150219485 20349130.40712856 0 0 0 0 0 124559507.1508562 7919562.466187873 7919562.466187873 17784873.16142308 0 0 0 0 0 123896642.863927 8018038.098077023 8018038.098077023 15228378.51645835 0 0 0 0 0 123250568.7379699 7935934.545426522 7935934.545426522 12736643.00833927 0 0 0 0 0 122609206.7234691 7696835.463873528 7696835.463873528 10352476.21184011 0 0 0 0 0 121963021.1143108 7326001.167108029 7326001.167108029 8106722.087861518 0 0 0 0 0 121304454.619552 6849109.423963907 6849109.423963907 6020867.339930765 0 0 0 0 0 120630968.8473537 6291129.308041301 6291129.308041301 4110059.275116384 0 0 0 0 0 119939506.0434181 5674779.070610466 5674779.070610466 2381603.833603535 0 0 0 0 0 119231735.0384198 5021127.653617249 5021127.653617249 836021.1795641034 0 0 0 0 0 118846015.1126248 3577122.844939304 3577122.844939304 -2347508.165559877 0 0 0 0 0 118662438.0700145 3354068.495661666 3354068.495661666 -2275196.129787223 0 0 0 0 0 117833012.6189719 2654558.686311723 2654558.686311723 -3334531.13226829 0 0 0 0 0 117402503.7281663 1217875.768936819 1217875.768936819 -5737131.313585755 0 0 0 0 0 116807843.1969005 815965.0889793546 815965.0889793546 -5675310.689978128 0 0 0 0 0 98862515.23938972 -14555814.77534258 -14555814.77534258 -9479513.967420008 0 0 0 0 0 100766008.3070332 -14089730.22782544 -14089730.22782544 -10159782.03289478 0 0 0 0 0 102658803.0793991 -13474726.88405371 -13474726.88405371 -10746148.91770541 0 0 0 0 0 96980718.46599177 -14869024.29494611 -14869024.29494611 -8731717.549629219 0 0 0 0 0 95143632.85773009 -15032657.70314458 -15032657.70314458 -7934001.501895017 0 0 0 0 0 93372161.30976388 -15054063.06223393 -15054063.06223393 -7100599.254476052 0 0 0 0 0 91684672.38417995 -14940335.67146779 -14940335.67146779 -6251186.928713573 0 0 0 0 0 104518516.3654105 -12714805.56697926 -12714805.56697926 -11220951.84748924 0 0 0 0 0 106318766.3097256 -11817812.09921166 -11817812.09921166 -11571679.72212737 0 0 0 0 0 108030948.4498078 -10796932.94072028 -10796932.94072028 -11778924.31433848 0 0 0 0 0 109636507.276787 -9669261.423861036 -9669261.423861036 -11832364.44679372 0 0 0 0 0 111106231.2624435 -8449706.862833627 -8449706.862833627 -11721933.9320851 0 0 0 0 0 112428039.4952925 -7160145.694857083 -7160145.694857083 -11437947.99527709 0 0 0 0 0 113582513.9234782 -5825770.107929676 -5825770.107929676 -10977693.28233019 0 0 0 0 0 114552131.9412298 -4480320.227531154 -4480320.227531154 -10352787.00351329 0 0 0 0 0 115336469.530516 -3141350.545662949 -3141350.545662949 -9565288.91372329 0 0 0 0 0 115933625.3685225 -1833916.454310264 -1833916.454310264 -8626790.861813324 0 0 0 0 0 116346178.8988758 -580933.4091434377 -580933.4091434377 -7551762.74610958 0 0 0 0 0 90155601.46555346 -15028096.25371714 -15028096.25371714 -6602324.188693228 0 0 0 0 0 90421728.01465504 -14051876.36813985 -14051876.36813985 -5051611.742433418 0 0 0 0 0 89160616.57835431 -14094012.78679543 -14094012.78679543 -5357513.198436072 0 0 0 0 0 87336974.98605002 -11184811.34394025 -11184811.34394025 -2253516.95780026 0 0 0 0 0 87792826.20030691 -11754704.99547702 -11754704.99547702 -2843464.074214878 0 0 0 0 0 88251815.83391258 -12420923.46708154 -12420923.46708154 -3478768.017211923 0 0 0 0 0 89507850.08216858 -13102945.81781653 -13102945.81781653 -4019953.698263838 0 0 0 0 0 89530350.74409138 -12722633.70596094 -12722633.70596094 -3719591.519910392 0 0 0 0 0 125878884.2937932 4531502.189855507 4531502.189855507 25976277.94394357 0 0 0 0 0 126802254.974618 3469714.884863278 3469714.884863278 28182476.3848459 0 0 0 0 0 128001308.515761 2408978.253940034 2408978.253940034 30030677.4375676 0 0 0 0 0 127971225.1601421 2233251.429904851 2233251.429904851 30950440.18219087 0 0 0 0 0 128430368.2528481 149025.606089319 149025.606089319 31017934.08640156 0 0 0 0 0 125078308.6940098 5437127.944378689 5437127.944378689 23514015.11807188 0 0 0 0 0 124344621.7579519 6148336.73243928 6148336.73243928 20906743.20282963 0 0 0 0 0 123681589.1818129 6654096.091618474 6654096.091618474 18239439.03294178 0 0 0 0 0 123068602.2361585 6960808.260434594 6960808.260434594 15583357.16720289 0 0 0 0 0 122490221.8132262 7081185.089117556 7081185.089117556 12998625.07001279 0 0 0 0 0 121929408.8777388 7032561.501953511 7032561.501953511 10531939.72828612 0 0 0 0 0 121374921.2067723 6836886.374086921 6836886.374086921 8215939.941248288 0 0 0 0 0 120817901.7649703 6517319.419306532 6517319.419306532 6072722.900931072 0 0 0 0 0 120251963.2122323 6098011.016671794 6098011.016671794 4115534.504457322 0 0 0 0 0 119673317.3868441 5602380.228350908 5602380.228350908 2351250.604951199 0 0 0 0 0 119078191.8493247 5051050.048828591 5051050.048828591 779742.18513408 0 0 0 0 0 118467197.8254328 4463454.151008294 4463454.151008294 -604397.4811688678 0 0 0 0 0 118510534.0924145 4349134.116247503 4349134.116247503 -531173.1775232669 0 0 0 0 0 118122990.9524156 2933895.78395215 2933895.78395215 -3409736.275157715 0 0 0 0 0 117389114.4681964 2299999.567248991 2299999.567248991 -4310353.077585989 0 0 0 0 0 117015137.3167649 1977487.876775635 1977487.876775635 -4233196.262086119 0 0 0 0 0 116580657.1426919 596191.6402820703 596191.6402820703 -6359167.195576785 0 0 0 0 0 98539451.69819857 -14431058.62781535 -14431058.62781535 -10554984.61162554 0 0 0 0 0 96730162.50737056 -14841014.62858768 -14841014.62858768 -9882134.204495087 0 0 0 0 0 100377569.5674067 -13866795.25884492 -13866795.25884492 -11125231.86455679 0 0 0 0 0 102212263.2082238 -13158388.21470048 -13158388.21470048 -11582559.12434928 0 0 0 0 0 94969528.60158843 -15100104.59297332 -15100104.59297332 -9131553.097345294 0 0 0 0 0 93274477.13665456 -15213390.94151365 -15213390.94151365 -8323643.040323754 0 0 0 0 0 91664271.62268777 -15186614.80832939 -15186614.80832939 -7474171.521471799 0 0 0 0 0 104021936.3675922 -12307294.76588221 -12307294.76588221 -11904168.88603044 0 0 0 0 0 105781999.6810787 -11326034.62023558 -11326034.62023558 -12077764.21692354 0 0 0 0 0 107464718.5010326 -10232097.17811317 -10232097.17811317 -12094234.4592866 0 0 0 0 0 109052984.385417 -9035731.327040307 -9035731.327040307 -11938323.08465849 0 0 0 0 0 110521747.8888013 -7757395.479452054 -7757395.479452054 -11607786.35759505 0 0 0 0 0 111848091.2136228 -6424800.458622416 -6424800.458622416 -11106266.38144751 0 0 0 0 0 113010985.34196 -5067134.582815082 -5067134.582815082 -10437038.87139735 0 0 0 0 0 114004777.4727552 -3704953.488845536 -3704953.488845536 -9608270.235151771 0 0 0 0 0 114822365.9669954 -2361407.901595667 -2361407.901595667 -8631263.078489421 0 0 0 0 0 115459179.919543 -1061249.646587149 -1061249.646587149 -7523522.908367905 0 0 0 0 0 115915793.0244636 173431.7940445396 173431.7940445396 -6304295.260239253 0 0 0 0 0 91886505.32458942 -14299697.88289339 -14299697.88289339 -5860225.164801068 0 0 0 0 0 90482881.11995021 -14370729.61489801 -14370729.61489801 -6187710.313934766 0 0 0 0 0 90730149.21670237 -13438574.35917171 -13438574.35917171 -4708283.648806264 0 0 0 0 0 88207832.46012209 -11682745.77020739 -11682745.77020739 -2714781.823370082 0 0 0 0 0 88810574.13405478 -12290285.74746763 -12290285.74746763 -3269594.935106648 0 0 0 0 0 89554245.27574727 -13484477.33932355 -13484477.33932355 -4995750.724553309 0 0 0 0 0 89485811.94073404 -12538742.87862456 -12538742.87862456 -4167567.588408693 0 0 0 0 0 124967949.2943298 5547117.915295508 5547117.915295508 25970813.2176714 0 0 0 0 0 125736790.860349 4506614.410211739 4506614.410211739 27734482.60439697 0 0 0 0 0 126614348.0355178 3357576.466403551 3357576.466403551 29485132.40644426 0 0 0 0 0 126516911.8483335 1346663.91948486 1346663.91948486 29903695.45320141 0 0 0 0 0 126619393.5548804 1066876.06922674 1066876.06922674 30595649.34592467 0 0 0 0 0 124267966.0698806 6426559.601989859 6426559.601989859 23900502.3649908 0 0 0 0 0 123643943.4429742 7101483.07079431 7101483.07079431 21684969.70515056 0 0 0 0 0 123076526.404509 7573589.00393268 7573589.00393268 19352051.08717189 0 0 0 0 0 122546140.0661439 7848818.21845961 7848818.21845961 16973288.7317311 0 0 0 0 0 122034448.2155291 7939644.367864632 7939644.367864632 14607897.7950641 0 0 0 0 0 121527978.7092035 7864992.75044531 7864992.75044531 12302365.82914023 0 0 0 0 0 121016428.3122708 7646304.898086688 7646304.898086688 10094204.7541978 0 0 0 0 0 120491495.8314442 7305630.938988541 7305630.938988541 8009694.384256953 0 0 0 0 0 119947801.8418956 6866267.075295187 6866267.075295187 6067336.006551769 0 0 0 0 0 119381867.2922953 6351574.459526342 6351574.459526342 4281531.085166664 0 0 0 0 0 118793751.8755406 5781072.376679418 5781072.376679418 2660804.683608243 0 0 0 0 0 118185380.9039601 5174370.442260689 5174370.442260689 1202044.47851387 0 0 0 0 0 117842683.7475272 3857799.065002143 3857799.065002143 -1807646.881297527 0 0 0 0 0 117773496.7373171 3671963.745621444 3671963.745621444 -1725329.992942213 0 0 0 0 0 117040227.5070589 3011078.020176864 3011078.020176864 -2747601.346195265 0 0 0 0 0 116648567.4173881 1679097.437472903 1679097.437472903 -5070254.646266232 0 0 0 0 0 116197281.9681829 1322870.561299547 1322870.561299547 -4995540.33434748 0 0 0 0 0 100325141.9461119 -13637610.83355477 -13637610.83355477 -9590663.289681533 0 0 0 0 0 98551376.80003917 -14038922.51628077 -14038922.51628077 -8931434.627392193 0 0 0 0 0 102096813.8024046 -13097507.11536655 -13097507.11536655 -10173788.67003416 0 0 0 0 0 103848665.5438195 -12422679.63757229 -12422679.63757229 -10661038.30549305 0 0 0 0 0 96800267.67652245 -14300648.81238258 -14300648.81238258 -8212502.167666528 0 0 0 0 0 95094679.5962074 -14427220.25442145 -14427220.25442145 -7449157.145888655 0 0 0 0 0 93450394.60961133 -14424151.51350596 -14424151.51350596 -6659153.855897698 0 0 0 0 0 105549329.9320986 -11618941.03328778 -11618941.03328778 -11036188.01551339 0 0 0 0 0 107179635.4622164 -10696676.64977995 -10696676.64977995 -11285978.76278867 0 0 0 0 0 108717498.5212586 -9670673.570291162 -9670673.570291162 -11398187.70531628 0 0 0 0 0 110139401.7608981 -8555142.089172965 -8555142.089172965 -11362980.26104581 0 0 0 0 0 111429563.8728472 -7365912.162319432 -7365912.162319432 -11170812.38873926 0 0 0 0 0 112571135.5952776 -6126327.274042285 -6126327.274042285 -10819302.23611367 0 0 0 0 0 113551861.416995 -4861743.351707938 -4861743.351707938 -10311199.55950847 0 0 0 0 0 114362397.6242759 -3595816.225332081 -3595816.225332081 -9651030.820237162 0 0 0 0 0 115001765.1605656 -2347522.325799695 -2347522.325799695 -8845855.441385278 0 0 0 0 0 115470103.2744063 -1138917.578453622 -1138917.578453622 -7907451.765603935 0 0 0 0 0 115772055.2068981 10360.66769266824 10360.66769266824 -6850402.079386176 0 0 0 0 0 91871789.37523776 -14536435.3814959 -14536435.3814959 -7009984.617760183 0 0 0 0 0 92083934.51229736 -13697353.62267636 -13697353.62267636 -5503843.343952417 0 0 0 0 0 90810952.85611692 -13744113.59441806 -13744113.59441806 -5810398.117640708 0 0 0 0 0 88708990.49822675 -11265049.36297745 -11265049.36297745 -2764885.453764268 0 0 0 0 0 89292357.63285755 -11796920.25640175 -11796920.25640175 -3371665.915215303 0 0 0 0 0 90931299.17476135 -12872881.31346338 -12872881.31346338 -4533050.229926684 0 0 0 0 0 90613388.36441424 -12265554.73935206 -12265554.73935206 -3742106.9107183 0 0 0 0 0 90549038.25743915 -12791237.97419864 -12791237.97419864 -4653634.452091368 0 0 0 0 0 124012029.8882687 3714700.965374176 3714700.965374176 26677631.10889343 0 0 0 0 0 123360067.4427463 4718832.18935956 4718832.18935956 24584195.74476545 0 0 0 0 0 125093486.4113585 2565737.295878825 2565737.295878825 28464287.35253276 0 0 0 0 0 125006799.0157594 2235250.543729026 2235250.543729026 29613328.68479439 0 0 0 0 0 125240582.8871736 167649.8342350028 167649.8342350028 29566750.70358513 0 0 0 0 0 122715709.046112 5568342.582175507 5568342.582175507 22270510.5988581 0 0 0 0 0 122158449.763185 6220602.674517049 6220602.674517049 19843239.95980778 0 0 0 0 0 121652902.3524036 6683442.737703915 6683442.737703915 17369650.40474023 0 0 0 0 0 121183300.3229303 6962104.602690945 6962104.602690945 14912463.84101368 0 0 0 0 0 120736092.8228885 7069431.951477201 7069431.951477201 12523569.21367947 0 0 0 0 0 120295979.6984946 7021528.207888136 7021528.207888136 10242079.49640892 0 0 0 0 0 119854181.047645 6838934.80412357 6838934.80412357 8095241.879118735 0 0 0 0 0 119402998.0049749 6541806.750695111 6541806.750695111 6100417.480411836 0 0 0 0 0 118938782.8775132 6152992.383802482 6152992.383802482 4272911.934681579 0 0 0 0 0 118456084.1072094 5694029.287017167 5694029.287017167 2619638.67499085 0 0 0 0 0 117952323.6102514 5180717.497595397 5180717.497595397 1137753.614536843 0 0 0 0 0 117429172.746133 4632789.818684027 4632789.818684027 -175438.8751488526 0 0 0 0 0 117559907.8241304 4548698.076115306 4548698.076115306 -95962.91098689089 0 0 0 0 0 117212348.9464685 3250986.291088257 3250986.291088257 -2831968.841182102 0 0 0 0 0 116566004.523068 2650069.782934278 2650069.782934278 -3708580.350791722 0 0 0 0 0 116310800.3941815 2369121.28517262 2369121.28517262 -3623540.873960217 0 0 0 0 0 115914948.4414074 1081981.28871206 1081981.28871206 -5692890.369213961 0 0 0 0 0 98258736.7764497 -13938678.4218828 -13938678.4218828 -9967522.441934656 0 0 0 0 0 99970289.38326506 -13448518.7825686 -13448518.7825686 -10538723.07764169 0 0 0 0 0 96575652.95405923 -14289750.77684027 -14289750.77684027 -9311635.687515413 0 0 0 0 0 101686967.2860008 -12822082.09438247 -12822082.09438247 -11008933.06017438 0 0 0 0 0 103389719.8996309 -12062288.67593237 -12062288.67593237 -11359651.55707504 0 0 0 0 0 94938900.01279669 -14502835.67509315 -14502835.67509315 -8588953.537123283 0 0 0 0 0 93365252.92379194 -14582784.82163746 -14582784.82163746 -7816047.70691665 0 0 0 0 0 105050633.1955748 -11180261.03356986 -11180261.03356986 -11580634.29648521 0 0 0 0 0 106650433.9747667 -10187347.49113206 -10187347.49113206 -11658703.87924675 0 0 0 0 0 108167068.0640865 -9097468.458173325 -9097468.458173325 -11584822.82862302 0 0 0 0 0 109580655.3303183 -7926363.940029929 -7926363.940029929 -11352741.03693868 0 0 0 0 0 110873435.5895007 -6694030.829822905 -6694030.829822905 -10959088.88934274 0 0 0 0 0 112027530.3915969 -5422327.315724955 -5422327.315724955 -10405394.68619388 0 0 0 0 0 113026187.6622965 -4140921.779780124 -4140921.779780124 -9704826.073107466 0 0 0 0 0 113864942.8428884 -2866226.403877193 -2866226.403877193 -8862067.812822865 0 0 0 0 0 114538847.1649785 -1620299.062516756 -1620299.062516756 -7890003.991225558 0 0 0 0 0 115046759.6303474 -424026.713178679 -424026.713178679 -6805098.272047826 0 0 0 0 0 115391204.3981518 703535.7842590149 703535.7842590149 -5625722.212886557 0 0 0 0 0 93536941.2378218 -13825886.29042196 -13825886.29042196 -6250233.628638597 0 0 0 0 0 92071581.23186332 -13920700.97413686 -13920700.97413686 -6580978.518004964 0 0 0 0 0 92284610.51571907 -13129152.44574243 -13129152.44574243 -5222127.279765383 0 0 0 0 0 89494839.63024561 -11729315.24776504 -11729315.24776504 -3312819.395600259 0 0 0 0 0 90075557.55320635 -12250105.66856513 -12250105.66856513 -3878327.097315633 0 0 0 0 0 91165524.51623328 -13195072.88424089 -13195072.88424089 -5471359.935714294 0 0 0 0 0 90494026.80787879 -12368698.14498747 -12368698.14498747 -4651419.509641428 0 0 0 0 0 91442830.10525045 -12372767.50285396 -12372767.50285396 -4443397.587062467 0 0 0 0 0 123182585.6586086 4577702.119387705 4577702.119387705 26409170.2028958 0 0 0 0 0 122578977.6706745 5582699.575894345 5582699.575894345 24569085.90609937 0 0 0 0 0 123857956.141094 3470055.36161125 3470055.36161125 27957662.39365514 0 0 0 0 0 123810890.6236261 1417494.515696675 1417494.515696675 28503906.50767952 0 0 0 0 0 123822459.4828274 951855.4511795583 951855.4511795583 29096553.23137613 0 0 0 0 0 122050313.1849383 6394766.651729895 6394766.651729895 22651375.14409442 0 0 0 0 0 121585103.841794 7020618.851043047 7020618.851043047 20572795.73017358 0 0 0 0 0 121161043.5606092 7458877.974759353 7458877.974759353 18405123.34554976 0 0 0 0 0 120760649.5249778 7715494.846791639 7715494.846791639 16202170.09730704 0 0 0 0 0 120367027.3107199 7802206.973423814 7802206.973423814 14013045.54700126 0 0 0 0 0 119972167.8153166 7737051.103744197 7737051.103744197 11879019.16908641 0 0 0 0 0 119565722.1721573 7539794.945974607 7539794.945974607 9830267.036837632 0 0 0 0 0 119140510.9759001 7228872.16370739 7228872.16370739 7895495.548094772 0 0 0 0 0 118691516.6438292 6826523.618863657 6826523.618863657 6086297.386299829 0 0 0 0 0 118217159.0825345 6354349.748847309 6354349.748847309 4416480.606394509 0 0 0 0 0 117716846.9345398 5828057.750823094 5828057.750823094 2896792.383948472 0 0 0 0 0 117196260.1112638 5267712.314432203 5267712.314432203 1520248.380020655 0 0 0 0 0 116898002.7046638 4071154.285977971 4071154.285977971 -1318700.613493932 0 0 0 0 0 116911647.278504 3915945.941477382 3915945.941477382 -1233949.582676934 0 0 0 0 0 116263675.2731712 3294410.112883708 3294410.112883708 -2214014.26642325 0 0 0 0 0 115911246.9826863 2061293.336880169 2061293.336880169 -4453865.258297818 0 0 0 0 0 115577897.0086738 1745636.764542161 1745636.764542161 -4372179.56392294 0 0 0 0 0 99937273.18698211 -13191894.30074726 -13191894.30074726 -9057820.799048696 0 0 0 0 0 101597601.6519571 -12718654.91871949 -12718654.91871949 -9630942.757392563 0 0 0 0 0 98281769.12250544 -13537290.45364416 -13537290.45364416 -8418726.997600636 0 0 0 0 0 103242996.828436 -12120122.16551958 -12120122.16551958 -10122142.29538672 0 0 0 0 0 104850873.6360529 -11400982.79189598 -11400982.79189598 -10516173.05019495 0 0 0 0 0 96651534.3353444 -13754980.38161127 -13754980.38161127 -7727659.738653565 0 0 0 0 0 95065005.20473032 -13848463.23512018 -13848463.23512018 -6999257.703305169 0 0 0 0 0 106402680.6215614 -10567960.38721271 -10567960.38721271 -10797370.02259881 0 0 0 0 0 107875286.0149244 -9633745.213123668 -9633745.213123668 -10955834.84128376 0 0 0 0 0 109247198.3138702 -8612597.530831765 -8612597.530831765 -10981753.15538065 0 0 0 0 0 110501495.5638027 -7520024.104847325 -7520024.104847325 -10867392.41243268 0 0 0 0 0 111623854.8988166 -6373148.153351418 -6373148.153351418 -10610000.76549614 0 0 0 0 0 112603660.6123513 -5190019.465019621 -5190019.465019621 -10205897.71590352 0 0 0 0 0 113432496.0074005 -3996774.261388023 -3996774.261388023 -9658535.95430073 0 0 0 0 0 114104325.118389 -2810785.483796858 -2810785.483796858 -8973730.839069176 0 0 0 0 0 114618750.8037345 -1651115.593604823 -1651115.593604823 -8159877.136791389 0 0 0 0 0 114978252.0004581 -536247.8972034595 -536247.8972034595 -7228330.898073895 0 0 0 0 0 115187447.7147462 515842.6192341109 515842.6192341109 -6194526.080425854 0 0 0 0 0 93461548.37302375 -13982353.20160696 -13982353.20160696 -7344882.424579611 0 0 0 0 0 93628955.26746742 -13257588.97692489 -13257588.97692489 -5878024.218938659 0 0 0 0 0 92288310.49459168 -13344518.05004307 -13344518.05004307 -6180475.305120043 0 0 0 0 0 90142152.25650106 -11255999.42892463 -11255999.42892463 -3224683.950844224 0 0 0 0 0 90596125.03515029 -11796430.13601051 -11796430.13601051 -3920422.80148746 0 0 0 0 0 92494749.8811833 -12609925.80415684 -12609925.80415684 -4886196.350514809 0 0 0 0 0 91757816.74467784 -12029349.98348008 -12029349.98348008 -4163465.990905619 0 0 0 0 0 91606330.07149141 -12565148.15249119 -12565148.15249119 -5132038.018051825 0 0 0 0 0 122423272.5374963 2692075.04396121 2692075.04396121 26970668.04937511 0 0 0 0 0 121771730.2949476 3852782.238185387 3852782.238185387 25280746.05694531 0 0 0 0 0 121155572.2344678 4832494.463864204 4832494.463864204 23261195.82036468 0 0 0 0 0 122464601.9774263 2247031.510808773 2247031.510808773 27897187.8717539 0 0 0 0 0 122577756.710701 226120.0358364757 226120.0358364757 28460652.70292651 0 0 0 0 0 120677652.5169746 5611876.54920208 5611876.54920208 21096562.14240916 0 0 0 0 0 120255816.899568 6213935.026094267 6213935.026094267 18837439.2681462 0 0 0 0 0 119872850.8865682 6639781.441432771 6639781.441432771 16544805.73097821 0 0 0 0 0 119514910.9256537 6896023.276864305 6896023.276864305 14273650.81292746 0 0 0 0 0 119168887.8521707 6994444.922224014 6994444.922224014 12065944.75656183 0 0 0 0 0 118825487.5883697 6950765.51115867 6950765.51115867 9953791.295758853 0 0 0 0 0 118476161.7396989 6784309.992880262 6784309.992880262 7962272.227981033 0 0 0 0 0 118110416.8310238 6509234.497005209 6509234.497005209 6104417.476981346 0 0 0 0 0 117730129.8783577 6152132.47668127 6152132.47668127 4398316.462994816 0 0 0 0 0 117329994.4617789 5729668.731062169 5729668.731062169 2848529.038975797 0 0 0 0 0 116902030.6087351 5253097.207183631 5253097.207183631 1451308.092330883 0 0 0 0 0 116457731.0586667 4745351.427404805 4745351.427404805 209762.7299307799 0 0 0 0 0 116647951.7872171 4686634.972790527 4686634.972790527 290984.4608020763 0 0 0 0 0 116344970.3239898 3502542.598873565 3502542.598873565 -2300432.111625077 0 0 0 0 0 115772656.8207229 2933623.236313143 2933623.236313143 -3153126.313887134 0 0 0 0 0 115614744.229719 2688231.670381593 2688231.670381593 -3064878.954605371 0 0 0 0 0 115254514.6870147 1490143.595491834 1490143.595491834 -5075030.925276289 0 0 0 0 0 98016761.66276534 -13459155.1987759 -13459155.1987759 -9414461.289017905 0 0 0 0 0 99613779.56138824 -13031968.4409547 -13031968.4409547 -9978779.444614122 0 0 0 0 0 101221567.6835075 -12478809.29063632 -12478809.29063632 -10455549.95632808 0 0 0 0 0 96448822.1073146 -13758514.39087464 -13758514.39087464 -8777072.336358238 0 0 0 0 0 102820095.756728 -11802264.33782323 -11802264.33782323 -10828818.73128604 0 0 0 0 0 104388703.8776047 -11008648.73401494 -11008648.73401494 -11085773.8813803 0 0 0 0 0 94926478.07818422 -13931259.55022765 -13931259.55022765 -8082139.860425654 0 0 0 0 0 105909323.8718594 -10108634.78960264 -10108634.78960264 -11215481.12927266 0 0 0 0 0 107356996.6813623 -9114753.410597712 -9114753.410597712 -11208145.57621573 0 0 0 0 0 108713944.6027699 -8042795.476695227 -8042795.476695227 -11057840.92342957 0 0 0 0 0 109967113.6268648 -6905957.35563697 -6905957.35563697 -10758228.14580699 0 0 0 0 0 111102737.9960771 -5723090.222932272 -5723090.222932272 -10310362.85233886 0 0 0 0 0 112100220.4992658 -4520189.967715876 -4520189.967715876 -9722646.176275795 0 0 0 0 0 112952623.5742401 -3315315.948340436 -3315315.948340436 -9000449.086242242 0 0 0 0 0 113654714.6936354 -2126970.360857097 -2126970.360857097 -8152784.998098723 0 0 0 0 0 114204107.9354669 -974711.3236047045 -974711.3236047045 -7193075.336577345 0 0 0 0 0 114602142.4075089 123749.5682495099 123749.5682495099 -6135537.049621196 0 0 0 0 0 114852318.4858652 1151977.256742265 1151977.256742265 -4997736.829426941 0 0 0 0 0 95053273.89119403 -13295267.64242077 -13295267.64242077 -6581983.490458793 0 0 0 0 0 93566059.97295712 -13413172.77189735 -13413172.77189735 -6905920.243170712 0 0 0 0 0 93723485.25182916 -12732725.48368968 -12732725.48368968 -5529238.565849526 0 0 0 0 0 90827128.58527081 -11704134.65959977 -11704134.65959977 -3823250.266835694 0 0 0 0 0 92547216.20157906 -12798628.6848493 -12798628.6848493 -5800351.468982178 0 0 0 0 0 91582752.90133584 -12019651.18961743 -12019651.18961743 -4746012.482809507 0 0 0 0 0 92824125.32062049 -12006349.08783254 -12006349.08783254 -4598219.326416263 0 0 0 0 0 121483728.10653 3492267.62665987 3492267.62665987 26651521.80387434 0 0 0 0 0 120990526.9963423 4611692.057859134 4611692.057859134 24815272.3076582 0 0 0 0 0 120516359.1891829 5543641.752128219 5543641.752128219 23264600.63092048 0 0 0 0 0 121335914.9820762 1481691.948963742 1481691.948963742 26823150.42376853 0 0 0 0 0 121365892.3842105 973916.2770154076 973916.2770154076 27717157.6715322 0 0 0 0 0 120127006.2398905 6305842.643768032 6305842.643768032 21457127.57375167 0 0 0 0 0 119784034.4783733 6890533.932896028 6890533.932896028 19522624.068438 0 0 0 0 0 119468659.9803025 7299131.980886364 7299131.980886364 17510239.73223901 0 0 0 0 0 119168742.7841053 7539161.623654082 7539161.623654082 15468984.64036471 0 0 0 0 0 118871089.0419354 7623684.858165807 7623684.858165807 13440337.92536815 0 0 0 0 0 118565485.2827889 7568558.215363893 7568558.215363893 11463019.57382839 0 0 0 0 0 118245692.7979502 7392824.475327004 7392824.475327004 9563120.572289294 0 0 0 0 0 117900303.4860584 7110770.100890201 7110770.100890201 7776452.26551354 0 0 0 0 0 117530311.5689947 6745234.387185708 6745234.387185708 6087351.17228028 0 0 0 0 0 117132861.8887218 6312553.618646841 6312553.618646841 4522814.349074154 0 0 0 0 0 116708306.3412953 5829797.686812096 5829797.686812096 3095133.028363313 0 0 0 0 0 116260954.1662661 5312649.101307208 5312649.101307208 1797942.589203433 0 0 0 0 0 115999588.0790724 4224759.38812316 4224759.38812316 -875757.17929183 0 0 0 0 0 116084559.0085323 4101088.001816364 4101088.001816364 -788033.1846692133 0 0 0 0 0 115514317.9811298 3519205.189735346 3519205.189735346 -1729120.149717422 0 0 0 0 0 115189529.8796217 2373593.674306968 2373593.674306968 -3887650.267745848 0 0 0 0 0 114962005.147143 2096676.240316577 2096676.240316577 -3797516.377411676 0 0 0 0 0 99594931.68441594 -12756191.73032813 -12756191.73032813 -8556482.984810926 0 0 0 0 0 101150993.5352389 -12341654.74753767 -12341654.74753767 -9117122.219636915 0 0 0 0 0 102699226.8281222 -11810932.23733964 -11810932.23733964 -9606846.37254959 0 0 0 0 0 98048232.65795745 -13052788.74695388 -13052788.74695388 -7938623.885533374 0 0 0 0 0 104218076.4221724 -11166732.06745205 -11166732.06745205 -10011374.00118802 0 0 0 0 0 105689211.0088846 -10416941.19408588 -10416941.19408588 -10317716.25515711 0 0 0 0 0 96529503.9904093 -13231321.42392982 -13231321.42392982 -7276510.413297064 0 0 0 0 0 107093407.4890792 -9569793.591872893 -9569793.591872893 -10515762.95963315 0 0 0 0 0 108413978.6480909 -8635744.494797869 -8635744.494797869 -10593964.59030471 0 0 0 0 0 109633509.3502879 -7630488.697780487 -7630488.697780487 -10544901.26313657 0 0 0 0 0 110736168.6082674 -6568461.232659463 -6568461.232659463 -10364161.01346559 0 0 0 0 0 111709079.7224908 -5467898.298464029 -5467898.298464029 -10049996.87359634 0 0 0 0 0 112547769.7604351 -4346653.136648004 -4346653.136648004 -9602021.907757875 0 0 0 0 0 113243732.0562669 -3224343.814108004 -3224343.814108004 -9024835.498497244 0 0 0 0 0 113795341.3131131 -2116809.166018472 -2116809.166018472 -8323501.428529446 0 0 0 0 0 114203405.4720818 -1041506.317261456 -1041506.317261456 -7507375.781099605 0 0 0 0 0 114470291.7267964 -15921.43229056174 -15921.43229056174 -6589570.100488604 0 0 0 0 0 114602248.8312586 945372.1189055861 945372.1189055861 -5583505.898538702 0 0 0 0 0 94931830.46336572 -13385334.61624384 -13385334.61624384 -7609792.178117305 0 0 0 0 0 95058718.27255519 -12767190.16210504 -12767190.16210504 -6184042.620343672 0 0 0 0 0 93663722.25523837 -12876869.71904254 -12876869.71904254 -6488503.472595406 0 0 0 0 0 91533542.43338783 -11179463.05891537 -11179463.05891537 -3655704.532715902 0 0 0 0 0 93843749.76814665 -12222368.71083485 -12222368.71083485 -5201777.109626626 0 0 0 0 0 92744697.5691966 -11558384.66649615 -11558384.66649615 -4232487.954289013 0 0 0 0 0 92766617.41496873 -12239968.28763247 -12239968.28763247 -5461770.336179943 0 0 0 0 0 120249262.9188482 2831286.213297815 2831286.213297815 25789498.55071234 0 0 0 0 0 119681133.4489608 3993344.604215924 3993344.604215924 23916987.21289738 0 0 0 0 0 119279612.5575241 4869092.789633576 4869092.789633576 22009687.94555509 0 0 0 0 0 120235312.4779156 2019371.4786464 2019371.4786464 27223187.42875779 0 0 0 0 0 120234814.4964672 241048.2675928433 241048.2675928433 26528181.01359652 0 0 0 0 0 118914297.1260774 5593636.224555491 5593636.224555491 19986044.93119454 0 0 0 0 0 118592065.5584762 6151382.159488125 6151382.159488125 17891048.06990883 0 0 0 0 0 118299067.2060022 6544562.82835319 6544562.82835319 15771107.82771402 0 0 0 0 0 118028530.7186833 6781960.13653613 6781960.13653613 13669839.47887109 0 0 0 0 0 117765758.6509916 6874535.597208573 6874535.597208573 11625996.70132443 0 0 0 0 0 117498953.6042421 6836101.184895624 6836101.184895624 9666537.283687875 0 0 0 0 0 117230094.0906913 6689273.458160705 6689273.458160705 7818287.234024228 0 0 0 0 0 116928999.9368968 6435584.599071991 6435584.599071991 6092261.449549825 0 0 0 0 0 116616156.0355809 6107976.003637848 6107976.003637848 4496588.931862708 0 0 0 0 0 116288228.9231395 5721107.265304017 5721107.265304017 3042848.017921528 0 0 0 0 0 115923063.2760267 5280502.60099521 5280502.60099521 1726475.544843811 0 0 0 0 0 115544656.0142795 4810775.039651873 4810775.039651873 549970.8371481749 0 0 0 0 0 115783461.9609461 4774556.526415052 4774556.526415052 631916.3146785607 0 0 0 0 0 115516839.5427266 3693877.405608057 3693877.405608057 -1820186.246379466 0 0 0 0 0 115006767.3200523 3155999.137257248 3155999.137257248 -2652879.104609857 0 0 0 0 0 114939228.4084964 2945210.003724834 2945210.003724834 -2556601.436455946 0 0 0 0 0 114606963.6332184 1829607.16001528 1829607.16001528 -4505089.945630527 0 0 0 0 0 97808013.50770286 -12993761.25301852 -12993761.25301852 -8893938.428288946 0 0 0 0 0 99299847.67405711 -12621696.14709212 -12621696.14709212 -9448279.576892937 0 0 0 0 0 100806145.5147702 -12133356.79886128 -12133356.79886128 -9926492.938434551 0 0 0 0 0 102309314.5098249 -11529975.71587472 -11529975.71587472 -10313931.99180093 0 0 0 0 0 96347893.98861055 -13247795.48270959 -13247795.48270959 -8276469.095825672 0 0 0 0 0 103789944.3304128 -10818541.64194363 -10818541.64194363 -10599083.7221485 0 0 0 0 0 105229948.0571114 -10004608.27903695 -10004608.27903695 -10768814.80408608 0 0 0 0 0 106613396.6917331 -9098241.740724711 -9098241.740724711 -10814476.7312495 0 0 0 0 0 107920441.4343431 -8114414.87777094 -8114414.87777094 -10731550.8577628 0 0 0 0 0 109134028.6919228 -7066226.742981098 -7066226.742981098 -10514261.80797176 0 0 0 0 0 110239764.9995725 -5971689.239254075 -5971689.239254075 -10162229.1989527 0 0 0 0 0 111227209.577971 -4846636.629816629 -4846636.629816629 -9675994.78596748 0 0 0 0 0 112085262.4996187 -3711387.49067573 -3711387.49067573 -9062231.029730085 0 0 0 0 0 112807369.8366324 -2582702.620389835 -2582702.620389835 -8328083.30390456 0 0 0 0 0 113389751.4591706 -1478023.893627851 -1478023.893627851 -7483550.785697172 0 0 0 0 0 113832211.8897431 -414215.2982550031 -414215.2982550031 -6540565.757980234 0 0 0 0 0 114136748.5335445 592695.7090268512 592695.7090268512 -5514321.964511921 0 0 0 0 0 114307906.5051412 1528975.984553287 1528975.984553287 -4420859.885916579 0 0 0 0 0 96432392.38704602 -12729829.7133113 -12729829.7133113 -6854562.091207832 0 0 0 0 0 94951574.55913 -12863578.6429793 -12863578.6429793 -7168160.74630929 0 0 0 0 0 95074099.12327754 -12263582.18935738 -12263582.18935738 -5793206.549021752 0 0 0 0 0 91901058.3209603 -11580710.10994164 -11580710.10994164 -4448891.781108681 0 0 0 0 0 93794946.01284146 -12370744.99020295 -12370744.99020295 -6089947.408629184 0 0 0 0 0 92738741.5488953 -11799957.71307947 -11799957.71307947 -5106405.724197814 0 0 0 0 0 93970357.30904076 -11697408.26895041 -11697408.26895041 -4860850.172544668 0 0 0 0 0 119507180.3078782 3461577.209642259 3461577.209642259 24674152.58135448 0 0 0 0 0 119067932.449737 4602702.12773964 4602702.12773964 23573517.24158089 0 0 0 0 0 118738568.0232901 5477016.124315355 5477016.124315355 22022980.1787645 0 0 0 0 0 119443581.6049974 1555359.039771215 1555359.039771215 25219730.64814192 0 0 0 0 0 119456557.9386493 783757.7001289526 783757.7001289526 26376790.19993381 0 0 0 0 0 118449629.0028744 6185650.704419963 6185650.704419963 20332854.48811056 0 0 0 0 0 118196846.5194043 6727891.605805783 6727891.605805783 18530671.3679121 0 0 0 0 0 117967056.1699776 7108342.271045382 7108342.271045382 16663940.93798237 0 0 0 0 0 117746085.3613791 7334708.593530144 7334708.593530144 14772391.50716894 0 0 0 0 0 117524236.1599766 7418078.972329353 7418078.972329353 12891871.93405572 0 0 0 0 0 117294407.5142403 7373262.32432361 7373262.32432361 11058391.19863365 0 0 0 0 0 117042902.8767349 7215834.021218133 7215834.021218133 9307754.110042237 0 0 0 0 0 116759624.2255503 6965110.004927213 6965110.004927213 7657089.426928127 0 0 0 0 0 116458480.1622952 6636925.963073727 6636925.963073727 6089784.354989305 0 0 0 0 0 116121010.3740966 6241257.900400628 6241257.900400628 4625042.487834084 0 0 0 0 0 115766609.8533301 5801886.906299156 5801886.906299156 3284018.169309965 0 0 0 0 0 115379555.2960584 5324012.564856056 5324012.564856056 2056379.60095765 0 0 0 0 0 115149717.5765183 4327279.640388051 4327279.640388051 -483048.515579558 0 0 0 0 0 115290273.5880817 4230727.772794391 4230727.772794391 -394279.7655539921 0 0 0 0 0 114795719.618183 3688343.242861582 3688343.242861582 -1298565.324712686 0 0 0 0 0 114495660.6739668 2626306.00878039 2626306.00878039 -3370751.730085922 0 0 0 0 0 114352856.7583631 2383154.32283317 2383154.32283317 -3276731.562366543 0 0 0 0 0 99292422.88845016 -12332128.67489231 -12332128.67489231 -8084809.239171321 0 0 0 0 0 100751669.7972791 -11969143.54799531 -11969143.54799531 -8631181.434666565 0 0 0 0 0 102207131.6037923 -11498954.27423158 -11498954.27423158 -9116502.693832496 0 0 0 0 0 103641124.4307439 -10923694.83940244 -10923694.83940244 -9527528.932837481 0 0 0 0 0 97847201.43623556 -12586047.49750584 -12586047.49750584 -7489704.59997664 0 0 0 0 0 105038047.3425349 -10248190.61480466 -10248190.61480466 -9852133.911901977 0 0 0 0 0 106377489.8174541 -9479353.20497782 -9479353.20497782 -10079290.77447319 0 0 0 0 0 107643654.0233033 -8627884.588491907 -8627884.588491907 -10199656.71238095 0 0 0 0 0 108823607.450496 -7704871.861165042 -7704871.861165042 -10205872.73583145 0 0 0 0 0 109901939.0090298 -6723069.691602386 -6723069.691602386 -10091323.32899122 0 0 0 0 0 110866630.2965674 -5699236.109587171 -5699236.109587171 -9853835.012255672 0 0 0 0 0 111708101.0258657 -4648903.069226135 -4648903.069226135 -9493147.499608971 0 0 0 0 0 112420593.9379464 -3589931.746742276 -3589931.746742276 -9011996.33476368 0 0 0 0 0 113000847.9841402 -2536895.582937726 -2536895.582937726 -8413118.105668828 0 0 0 0 0 113448900.6797846 -1505076.836190472 -1505076.836190472 -7702996.606574222 0 0 0 0 0 113765951.1714355 -510513.715880683 -510513.715880683 -6891698.144856166 0 0 0 0 0 113955200.1074131 431649.9941910921 431649.9941910921 -5991639.871223045 0 0 0 0 0 114023478.6378036 1309101.833692538 1309101.833692538 -5015980.164751692 0 0 0 0 0 96269751.91357552 -12757336.89420906 -12757336.89420906 -7808224.460161665 0 0 0 0 0 96356954.21927865 -12249861.28117703 -12249861.28117703 -6461401.472276117 0 0 0 0 0 94987347.63215673 -12364640.10263595 -12364640.10263595 -6760432.679610403 0 0 0 0 0 92875759.94012432 -11032324.11175711 -11032324.11175711 -4053482.458750478 0 0 0 0 0 95087596.20117687 -11801535.85874627 -11801535.85874627 -5444704.16681298 0 0 0 0 0 93835576.10915084 -11274959.43789747 -11274959.43789747 -4618325.619863043 0 0 0 0 0 93848922.73498988 -11920787.12476762 -11920787.12476762 -5784652.741783692 0 0 0 0 0 118433978.3961122 3017192.819622266 3017192.819622266 24261490.11786446 0 0 0 0 0 118697317.6321968 2088314.212147964 2088314.212147964 26133824.46702748 0 0 0 0 0 117985287.3592014 4038854.085111004 4038854.085111004 22601017.70334136 0 0 0 0 0 117650177.9423372 4864246.465759494 4864246.465759494 20827991.97971663 0 0 0 0 0 118586049.9072716 1717448.705619955 1717448.705619955 25842978.15925838 0 0 0 0 0 118399912.0577736 249378.4069109667 249378.4069109667 25645914.9584428 0 0 0 0 0 117366163.0427011 5534449.854467172 5534449.854467172 18948584.02194223 0 0 0 0 0 117120690.2259872 6048625.439380618 6048625.439380618 17001471.23130604 0 0 0 0 0 116903322.133047 6412945.12665594 6412945.12665594 15039532.40783941 0 0 0 0 0 116700810.7226743 6634608.654052318 6634608.654052318 13096056.95076923 0 0 0 0 0 116503272.0402716 6723032.511926814 6723032.511926814 11202351.42323873 0 0 0 0 0 116297338.2869213 6688305.082020742 6688305.082020742 9382139.270394489 0 0 0 0 0 116099364.6762409 6560935.039065645 6560935.039065645 7671266.811148352 0 0 0 0 0 115844509.6276368 6331009.282398996 6331009.282398996 6068926.261409557 0 0 0 0 0 115588205.7182676 6033995.056381785 6033995.056381785 4579012.771998628 0 0 0 0 0 115313347.429829 5681186.471609153 5681186.471609153 3217545.733839588 0 0 0 0 0 115010926.6390837 5279986.496601026 5279986.496601026 1977748.893026723 0 0 0 0 0 114686031.2396056 4845091.433611448 4845091.433611448 861446.1881581161 0 0 0 0 0 114962941.6091761 4823947.157506811 4823947.157506811 945977.7942673401 0 0 0 0 0 114723137.9893001 3829405.747466607 3829405.747466607 -1394480.144608015 0 0 0 0 0 114281448.2249813 3327207.772032372 3327207.772032372 -2200458.630787225 0 0 0 0 0 114280112.2769882 3145442.459652282 3145442.459652282 -2102863.478915807 0 0 0 0 0 113977855.8558116 2110431.367465449 2110431.367465449 -3979668.782094824 0 0 0 0 0 99023027.98619427 -12219761.2163169 -12219761.2163169 -8946413.917244574 0 0 0 0 0 97629417.66230942 -12543145.17231125 -12543145.17231125 -8404264.835258216 0 0 0 0 0 100435640.0469997 -11788958.50591788 -11788958.50591788 -9421809.930772873 0 0 0 0 0 101849076.9984026 -11252178.96233516 -11252178.96233516 -9817571.292015787 0 0 0 0 0 103246851.0080307 -10612972.07020164 -10612972.07020164 -10122280.6482447 0 0 0 0 0 104613576.887651 -9876391.967291471 -9876391.967291471 -10324366.13091822 0 0 0 0 0 105930122.0839728 -9053474.295322414 -9053474.295322414 -10416984.21344602 0 0 0 0 0 107182043.385047 -8153222.955090175 -8153222.955090175 -10391853.20256856 0 0 0 0 0 108355168.8494706 -7187650.047045777 -7187650.047045777 -10243964.12340592 0 0 0 0 0 109433646.4420825 -6172748.184730208 -6172748.184730208 -9971904.066818099 0 0 0 0 0 110406062.9224402 -5123904.517282044 -5123904.517282044 -9576189.727111269 0 0 0 0 0 111262994.3812472 -4057154.121287361 -4057154.121287361 -9059173.600945901 0 0 0 0 0 111997710.8540783 -2988896.72465286 -2988896.72465286 -8427726.85490991 0 0 0 0 0 112605772.5046209 -1934316.440712555 -1934316.440712555 -7688722.352748043 0 0 0 0 0 113084697.2414335 -909448.4162988854 -909448.4162988854 -6852858.567615609 0 0 0 0 0 113434946.1350353 70470.57366341437 70470.57366341437 -5931949.525273465 0 0 0 0 0 113659832.2098043 992183.0329221052 992183.0329221052 -4940377.865020161 0 0 0 0 0 113765016.0996022 1843653.952872199 1843653.952872199 -3892346.903289007 0 0 0 0 0 97674782.27068205 -12137259.02657857 -12137259.02657857 -7071779.113057383 0 0 0 0 0 96212458.31435943 -12286054.18522459 -12286054.18522459 -7372268.690558677 0 0 0 0 0 96311977.67565015 -11800358.71873447 -11800358.71873447 -6112325.445873137 0 0 0 0 0 93148048.31010592 -11305893.69593303 -11305893.69593303 -4815625.652575763 0 0 0 0 0 95023384.7405445 -11878829.04724407 -11878829.04724407 -6407980.464934141 0 0 0 0 0 93952062.09230229 -11488422.78506563 -11488422.78506563 -5511888.19420238 0 0 0 0 0 95161358.92152992 -11348256.75577933 -11348256.75577933 -5165827.808751944 0 0 0 0 0 117755969.9799571 3603204.770579079 3603204.770579079 23512948.32459117 0 0 0 0 0 118000898.6444562 2510104.502976242 2510104.502976242 24396766.68310624 0 0 0 0 0 117442900.5340604 4579800.349720703 4579800.349720703 22301418.86347917 0 0 0 0 0 117185280.1097113 5386522.316961311 5386522.316961311 20858311.7819361 0 0 0 0 0 117586899.4858452 1189178.48416817 1189178.48416817 24989597.72683082 0 0 0 0 0 117601512.8514056 732180.5577709887 732180.5577709887 25082294.07301974 0 0 0 0 0 116972553.1418957 6041215.954910914 6041215.954910914 19275851.24377983 0 0 0 0 0 116788103.2114441 6543182.110956189 6543182.110956189 17600052.14030013 0 0 0 0 0 116627645.5252419 6897952.018217877 6897952.018217877 15861192.63736196 0 0 0 0 0 116472259.7523086 7111470.582561642 7111470.582561642 14103358.04517043 0 0 0 0 0 116311574.0804092 7193937.740622868 7193937.740622868 12364835.32627883 0 0 0 0 0 116132721.7376385 7161044.918547335 7161044.918547335 10683337.88769912 0 0 0 0 0 115913686.7564948 7018363.457120076 7018363.457120076 9070371.366256798 0 0 0 0 0 115706155.7313051 6801109.820910948 6801109.820910948 7524315.258188113 0 0 0 0 0 115459957.7097165 6502332.605061074 6502332.605061074 6056048.784391164 0 0 0 0 0 115181291.5240877 6143045.518520154 6143045.518520154 4686129.380895627 0 0 0 0 0 114884689.6641195 5742461.143675501 5742461.143675501 3423393.323333026 0 0 0 0 0 114556617.2818714 5304333.132494557 5304333.132494557 2262059.42013349 0 0 0 0 0 114342336.0147161 4392883.515835071 4392883.515835071 -127732.5846944393 0 0 0 0 0 114538472.5712984 4317741.490922745 4317741.490922745 -37269.50894139955 0 0 0 0 0 114101294.8654587 3809621.452689324 3809621.452689324 -910517.2629892777 0 0 0 0 0 113832694.4935249 2829858.11323816 2829858.11323816 -2896281.568949771 0 0 0 0 0 113757355.6194208 2615906.842955623 2615906.842955623 -2802857.178425841 0 0 0 0 0 100395279.8833485 -11602499.02685334 -11602499.02685334 -8172122.549754568 0 0 0 0 0 99025699.7284577 -11920561.32758048 -11920561.32758048 -7642278.609224957 0 0 0 0 0 101764682.7436011 -11186652.73830657 -11186652.73830657 -8650583.622777112 0 0 0 0 0 103118727.6173918 -10673120.55298998 -10673120.55298998 -9063593.562794538 0 0 0 0 0 104442107.2097289 -10065183.25884439 -10065183.25884439 -9400073.428555574 0 0 0 0 0 105718437.9695939 -9368581.471357433 -9368581.471357433 -9650058.856279146 0 0 0 0 0 106933795.1780943 -8592139.660199046 -8592139.660199046 -9804520.699212335 0 0 0 0 0 108072684.6989412 -7745346.382459844 -7745346.382459844 -9855881.466604017 0 0 0 0 0 109122630.7824649 -6840048.285020567 -6840048.285020567 -9798539.758844193 0 0 0 0 0 110072481.9585055 -5888810.43750862 -5888810.43750862 -9627811.345895516 0 0 0 0 0 110912434.1495695 -4907196.982882683 -4907196.982882683 -9343442.121857565 0 0 0 0 0 111636110.2054539 -3909862.079136082 -3909862.079136082 -8946090.28309737 0 0 0 0 0 112238563.8892547 -2911664.047751084 -2911664.047751084 -8438363.59484777 0 0 0 0 0 112718602.0472774 -1925995.352670335 -1925995.352670335 -7824412.910068833 0 0 0 0 0 113077136.6993425 -966811.5243849457 -966811.5243849457 -7111840.124876807 0 0 0 0 0 113316042.6602189 -49100.18624380486 -49100.18624380486 -6311069.972270238 0 0 0 0 0 113440979.2772639 815908.3448465673 815908.3448465673 -5432349.107297727 0 0 0 0 0 113457517.8173355 1615942.151105395 1615942.151105395 -4489725.91681483 0 0 0 0 0 97477384.61027698 -12107985.33495441 -12107985.33495441 -7944472.656327344 0 0 0 0 0 97530015.87336253 -11706577.68235605 -11706577.68235605 -6681779.881301065 0 0 0 0 0 96186435.35820661 -11834895.7999707 -11834895.7999707 -6956714.962910967 0 0 0 0 0 93964502.28474614 -10833975.7116519 -10833975.7116519 -4474011.15494218 0 0 0 0 0 96321258.96708734 -11363832.97115568 -11363832.97115568 -5802299.054432655 0 0 0 0 0 94972429.33000314 -10991923.66324138 -10991923.66324138 -5000348.579071548 0 0 0 0 0 94984500.8980938 -11485343.30722018 -11485343.30722018 -6028800.69072851 0 0 0 0 0 116784203.3202882 3156033.709379747 3156033.709379747 22897598.37777089 0 0 0 0 0 117115064.8381739 2198449.56265522 2198449.56265522 24130901.49159703 0 0 0 0 0 116471229.862337 4063198.716293814 4063198.716293814 21378214.81309054 0 0 0 0 0 116213382.2088209 4825134.821309979 4825134.821309979 19724007.11103946 0 0 0 0 0 116893311.7036128 1670580.173689442 1670580.173689442 24236251.12409658 0 0 0 0 0 116673115.5707239 261383.9741084766 261383.9741084766 24474694.40312592 0 0 0 0 0 116000079.4453896 5443878.227153033 5443878.227153033 17972234.1605413 0 0 0 0 0 115815516.1159559 5919642.911405697 5919642.911405697 16174104.76409522 0 0 0 0 0 115659312.4538985 6258485.581125201 6258485.581125201 14353066.78429775 0 0 0 0 0 115514336.288276 6465642.707913822 6465642.707913822 12547637.22947413 0 0 0 0 0 115372177.9981842 6550570.092065375 6550570.092065375 10788708.33600382 0 0 0 0 0 115215367.8240611 6525667.598408498 6525667.598408498 9129650.388950652 0 0 0 0 0 115039107.7929316 6407818.336849416 6407818.336849416 7556099.769910699 0 0 0 0 0 114851032.4217311 6207601.821945364 6207601.821945364 6052160.299656736 0 0 0 0 0 114645949.0354217 5937561.170415438 5937561.170415438 4654273.485119381 0 0 0 0 0 114416995.398292 5612138.223164502 5612138.223164502 3371670.57323061 0 0 0 0 0 114164477.0813087 5244057.685539156 5244057.685539156 2191559.608246746 0 0 0 0 0 113891082.559871 4845428.860002983 4845428.860002983 1127689.191038196 0 0 0 0 0 114197463.2974466 4841475.914889092 4841475.914889092 1210544.97595444 0 0 0 0 0 113973702.155083 3926083.000862852 3926083.000862852 -1006122.773672258 0 0 0 0 0 113590871.8269684 3455613.201394208 3455613.201394208 -1785899.332400679 0 0 0 0 0 113644636.0922734 3301674.217751065 3301674.217751065 -1690259.542936425 0 0 0 0 0 113374652.2357353 2343518.864673066 2343518.864673066 -3493761.062102544 0 0 0 0 0 100105548.7246485 -11447271.55323837 -11447271.55323837 -8942319.00434814 0 0 0 0 0 98778940.66230236 -11826639.29140504 -11826639.29140504 -8472341.720636375 0 0 0 0 0 101435347.017782 -10969815.35965008 -10969815.35965008 -9342162.464398921 0 0 0 0 0 102754345.2698157 -10396423.41265342 -10396423.41265342 -9661228.254205968 0 0 0 0 0 104048214.0021782 -9731639.130432516 -9731639.130432516 -9889444.304423247 0 0 0 0 0 105301765.7670914 -8983132.285747219 -8983132.285747219 -10018794.12016457 0 0 0 0 0 106500616.4651771 -8159803.85912509 -8159803.85912509 -10042051.17381595 0 0 0 0 0 107630339.7658308 -7272691.891437691 -7272691.891437691 -9954145.602091221 0 0 0 0 0 108679092.1059447 -6333072.457468655 -6333072.457468655 -9751390.511400934 0 0 0 0 0 109634103.7714276 -5356007.076751373 -5356007.076751373 -9433914.401309423 0 0 0 0 0 110485978.4347801 -4355708.517762944 -4355708.517762944 -9003380.369909633 0 0 0 0 0 111226696.0823752 -3347697.67951831 -3347697.67951831 -8464320.10689857 0 0 0 0 0 111851816.3283179 -2345280.776788644 -2345280.776788644 -7822952.200588227 0 0 0 0 0 112360467.4740505 -1362264.152124764 -1362264.152124764 -7084909.19252197 0 0 0 0 0 112749625.1467654 -413158.0426452696 -413158.0426452696 -6262248.557686202 0 0 0 0 0 113021387.5481147 488550.6761256041 488550.6761256041 -5365711.598521488 0 0 0 0 0 113178506.0503266 1331627.68151394 1331627.68151394 -4410615.893495732 0 0 0 0 0 113227872.7591818 2106438.002054878 2106438.002054878 -3407873.161610865 0 0 0 0 0 98789587.79184313 -11522259.34346218 -11522259.34346218 -7226515.930444713 0 0 0 0 0 97349074.86542994 -11686485.44919846 -11686485.44919846 -7513220.330892999 0 0 0 0 0 97416687.89281085 -11303741.41612434 -11303741.41612434 -6309742.463221529 0 0 0 0 0 94306410.28585343 -11039861.16483137 -11039861.16483137 -5195864.292454146 0 0 0 0 0 96272767.06220406 -11399944.25988097 -11399944.25988097 -6574724.728013112 0 0 0 0 0 95043121.7587775 -11119907.51411868 -11119907.51411868 -5719193.733833273 0 0 0 0 0 96168302.34446213 -11079433.25583532 -11079433.25583532 -5459840.192588063 0 0 0 0 0 116237139.0912671 3632530.024117741 3632530.024117741 22278713.02372007 0 0 0 0 0 116539644.5271216 2661688.760785502 2661688.760785502 23296995.27013865 0 0 0 0 0 116004953.4136242 4524330.909695012 4524330.909695012 21115376.87630623 0 0 0 0 0 115816427.5975065 5272553.552318499 5272553.552318499 19761138.05961421 0 0 0 0 0 116063654.8339806 1277299.745507655 1277299.745507655 23762081.1813973 0 0 0 0 0 115957934.5183092 727031.2910826351 727031.2910826351 23809056.02788428 0 0 0 0 0 115663167.6255826 5877801.210304329 5877801.210304329 18284123.88698849 0 0 0 0 0 115541081.2598515 6344616.198047934 6344616.198047934 16715894.9957246 0 0 0 0 0 115432966.2289809 6676470.503337841 6676470.503337841 15102963.03013314 0 0 0 0 0 115328643.364687 6879725.86156096 6879725.86156096 13476843.30903701 0 0 0 0 0 115202495.4555049 6958326.092153705 6958326.092153705 11887622.37915444 0 0 0 0 0 115070018.8650897 6934633.652701734 6934633.652701734 10322484.4094209 0 0 0 0 0 114906294.3271355 6810626.270202384 6810626.270202384 8811998.102021907 0 0 0 0 0 114742518.9812752 6616341.600521616 6616341.600521616 7367163.76175122 0 0 0 0 0 114542955.7689913 6347088.619252582 6347088.619252582 5992658.720128935 0 0 0 0 0 114313030.0978489 6020365.07732163 6020365.07732163 4709341.035494485 0 0 0 0 0 114061039.4990931 5653110.601480076 5653110.601480076 3523709.45358036 0 0 0 0 0 113781267.6833451 5253612.321055171 5253612.321055171 2428342.316264419 0 0 0 0 0 113592636.3737487 4424635.134008932 4424635.134008932 184181.3395988422 0 0 0 0 0 113825563.0441248 4369169.830123102 4369169.830123102 274846.8640393597 0 0 0 0 0 113438174.57215 3892406.707370929 3892406.707370929 -565735.7962670961 0 0 0 0 0 113203456.6493454 2993630.326129197 2993630.326129197 -2457823.058107974 0 0 0 0 0 113174378.0442431 2804812.490368933 2804812.490368933 -2368599.146659565 0 0 0 0 0 101366821.5531704 -10875265.26387489 -10875265.26387489 -8208832.68974077 0 0 0 0 0 100077481.7888158 -11242314.5086535 -11242314.5086535 -7738810.583915395 0 0 0 0 0 102644996.9349894 -10417464.64241203 -10417464.64241203 -8620886.314239997 0 0 0 0 0 103898419.2772341 -9870936.138793478 -9870936.138793478 -8964860.528637679 0 0 0 0 0 105113971.7899655 -9240217.93426515 -9240217.93426515 -9231498.383297672 0 0 0 0 0 106277346.9611973 -8532561.415861754 -8532561.415861754 -9413281.664168021 0 0 0 0 0 107375298.3264308 -7756471.304589371 -7756471.304589371 -9502200.60026969 0 0 0 0 0 108395802.3226932 -6922023.791320665 -6922023.791320665 -9492370.10354794 0 0 0 0 0 109327412.3067655 -6040106.850873652 -6040106.850873652 -9379530.663945325 0 0 0 0 0 110161999.5727131 -5123653.818188645 -5123653.818188645 -9160932.408751778 0 0 0 0 0 110891363.2216543 -4186374.254947989 -4186374.254947989 -8836789.914314931 0 0 0 0 0 111509991.7053871 -3242654.358546523 -3242654.358546523 -8409613.049054665 0 0 0 0 0 112016763.1276256 -2303056.817787587 -2303056.817787587 -7880765.501938816 0 0 0 0 0 112408117.4793111 -1383768.956533815 -1383768.956533815 -7260037.640121303 0 0 0 0 0 112689837.3099952 -493969.7820168312 -493969.7820168312 -6550862.154773491 0 0 0 0 0 112861434.2322574 351038.329203312 351038.329203312 -5765274.98356508 0 0 0 0 0 112933348.3850028 1145382.35546669 1145382.35546669 -4909591.946620596 0 0 0 0 0 112905102.0565265 1874757.164234617 1874757.164234617 -3999524.131824787 0 0 0 0 0 98560941.00750004 -11441983.70195562 -11441983.70195562 -8026283.494954656 0 0 0 0 0 98579651.11070895 -11138213.39582173 -11138213.39582173 -6850078.926718281 0 0 0 0 0 97231829.53878611 -11260054.50773434 -11260054.50773434 -7131413.277718112 0 0 0 0 0 95151440.78132966 -10549609.00655319 -10549609.00655319 -4807832.771298656 0 0 0 0 0 97335791.99482395 -10900019.94869225 -10900019.94869225 -6142549.472447453 0 0 0 0 0 95978438.26806611 -10675440.83638921 -10675440.83638921 -5284777.717155666 0 0 0 0 0 96063526.14663428 -10850499.82978 -10850499.82978 -5871150.134076859 0 0 0 0 0 115390941.8598791 3223427.384976709 3223427.384976709 21652253.95809029 0 0 0 0 0 115700725.907188 2286937.635707626 2286937.635707626 22848218.79467134 0 0 0 0 0 115149928.7139651 4055650.574447587 4055650.574447587 20236560.96207236 0 0 0 0 0 114950012.8882687 4759778.237623466 4759778.237623466 18691737.36106538 0 0 0 0 0 115468932.469216 1736057.34251864 1736057.34251864 23031242.26652197 0 0 0 0 0 115217009.9236107 318474.3161997278 318474.3161997278 23246542.0479271 0 0 0 0 0 114789122.4392716 5331003.552077329 5331003.552077329 17065086.44730137 0 0 0 0 0 114660385.3016744 5772649.882740088 5772649.882740088 15388869.83657789 0 0 0 0 0 114550236.286629 6087376.708833999 6087376.708833999 13698201.36029505 0 0 0 0 0 114452269.1793927 6283361.285053491 6283361.285053491 12026645.16622312 0 0 0 0 0 114338827.8715064 6363204.690742684 6363204.690742684 10416946.34737211 0 0 0 0 0 114221040.9893622 6345482.891166317 6345482.891166317 8868192.406215649 0 0 0 0 0 114085213.9357814 6238974.63826948 6238974.63826948 7399136.79489102 0 0 0 0 0 113942540.8404243 6060688.79697896 6060688.79697896 5990615.733727968 0 0 0 0 0 113778953.8248065 5816816.595357185 5816816.595357185 4679197.2087028 0 0 0 0 0 113590220.853177 5519765.837107722 5519765.837107722 3472782.136943745 0 0 0 0 0 113377629.2240079 5181229.562705657 5181229.562705657 2361859.668418413 0 0 0 0 0 113146724.1493296 4816691.357685826 4816691.357685826 1355269.929498147 0 0 0 0 0 113473823.1308616 4829646.739332072 4829646.739332072 1433796.344357465 0 0 0 0 0 113270669.6513764 3987458.697607497 3987458.697607497 -660289.081191379 0 0 0 0 0 112940652.1465201 3549111.479168651 3549111.479168651 -1407616.913120034 0 0 0 0 0 113026310.0280372 3418362.627834101 3418362.627834101 -1316319.593875699 0 0 0 0 0 112785141.559363 2533117.387222389 2533117.387222389 -3045902.083750022 0 0 0 0 0 101064013.3133664 -10685438.52085212 -10685438.52085212 -8888308.531695386 0 0 0 0 0 99811846.23530194 -11109385.02438257 -11109385.02438257 -8487749.980805863 0 0 0 0 0 102308722.9185587 -10171792.41638519 -10171792.41638519 -9216781.117325317 0 0 0 0 0 103533101.0024727 -9571792.022126665 -9571792.022126665 -9464785.540556747 0 0 0 0 0 104725629.7154643 -8891519.720107248 -8891519.720107248 -9623955.564278267 0 0 0 0 0 105872092.5433616 -8139151.813608753 -8139151.813608753 -9687412.096197864 0 0 0 0 0 106959512.8701784 -7323688.285970461 -7323688.285970461 -9649915.229311222 0 0 0 0 0 107975857.4220499 -6455631.596064551 -6455631.596064551 -9507733.074203167 0 0 0 0 0 108909983.5180247 -5546882.842105431 -5546882.842105431 -9259297.993487636 0 0 0 0 0 109751822.6688009 -4610942.071572013 -4610942.071572013 -8905484.090726072 0 0 0 0 0 110493559.9334365 -3661410.508859532 -3661410.508859532 -8448894.760091051 0 0 0 0 0 111130863.8208563 -2711157.129107662 -2711157.129107662 -7894502.302256209 0 0 0 0 0 111660191.8890855 -1772177.459123123 -1772177.459123123 -7247903.992358354 0 0 0 0 0 112083283.7430738 -857630.55682443 -857630.55682443 -6515669.759750044 0 0 0 0 0 112394278.0473729 19758.25620470318 19758.25620470318 -5709348.449469165 0 0 0 0 0 112598372.0033764 848243.8470572338 848243.8470572338 -4839624.246044389 0 0 0 0 0 112697528.6422726 1619432.491594278 1619432.491594278 -3919949.364746779 0 0 0 0 0 112703041.1282333 2325122.620767612 2325122.620767612 -2958140.740228244 0 0 0 0 0 99794076.62702166 -10887264.00857959 -10887264.00857959 -7330550.389777681 0 0 0 0 0 98368585.38960147 -11064916.66536581 -11064916.66536581 -7600980.726430373 0 0 0 0 0 98426717.13691466 -10778091.47245145 -10778091.47245145 -6579364.9088249 0 0 0 0 0 95460658.39559694 -10700236.70229282 -10700236.70229282 -5439783.83050859 0 0 0 0 0 97271110.11535476 -10861798.44591839 -10861798.44591839 -6819907.421643664 0 0 0 0 0 97007187.98632877 -10934222.642396 -10934222.642396 -6245318.609580797 0 0 0 0 0 96324346.84459618 -10746479.53231122 -10746479.53231122 -5751120.585576588 0 0 0 0 0 114923129.4141302 3635846.65937695 3635846.65937695 21125436.23896127 0 0 0 0 0 115161826.6749312 2710198.373343436 2710198.373343436 22081859.33796353 0 0 0 0 0 114744517.0658476 4454403.425912716 4454403.425912716 20003211.34855273 0 0 0 0 0 114608404.6978969 5144099.525065726 5144099.525065726 18734483.07202055 0 0 0 0 0 114670834.2459678 1355394.862146798 1355394.862146798 22634932.60257409 0 0 0 0 0 114628548.2682975 723870.9817687913 723870.9817687913 22590166.45039888 0 0 0 0 0 114505450.0815772 5705215.065783718 5705215.065783718 17350346.98688261 0 0 0 0 0 114428983.2606094 6141106.787576936 6141106.787576936 15890754.94311067 0 0 0 0 0 114363302.0301011 6451585.286742431 6451585.286742431 14393199.97688189 0 0 0 0 0 114291363.5078114 6639977.854398297 6639977.854398297 12904626.77733397 0 0 0 0 0 114199017.8874163 6717892.405755218 6717892.405755218 11421877.03879414 0 0 0 0 0 114100304.0916032 6701911.042964614 6701911.042964614 9967026.560688959 0 0 0 0 0 113991871.2617325 6598825.410019774 6598825.410019774 8552363.797678171 0 0 0 0 0 113856594.1490618 6421078.836278192 6421078.836278192 7200373.322609823 0 0 0 0 0 113696086.2503237 6179702.563289084 6179702.563289084 5915114.486896084 0 0 0 0 0 113506741.0032671 5884903.436765253 5884903.436765253 4714294.551987692 0 0 0 0 0 113293904.6076831 5545869.176752161 5545869.176752161 3602970.11217827 0 0 0 0 0 113056723.7553516 5181496.206423737 5181496.206423737 2559514.174217752 0 0 0 0 0 112892693.2410418 4431783.210684428 4431783.210684428 461744.4016220502 0 0 0 0 0 113147178.2507381 4388516.955910373 4388516.955910373 551514.9048086173 0 0 0 0 0 112800725.2183533 3943041.367882306 3943041.367882306 -255611.4319977864 0 0 0 0 0 112590241.0184705 3115768.708261651 3115768.708261651 -2062411.959071507 0 0 0 0 0 112618221.0558252 2956918.507782174 2956918.507782174 -1970231.697726783 0 0 0 0 0 102214738.6485472 -10159478.70837662 -10159478.70837662 -8199833.953401203 0 0 0 0 0 101008540.0331448 -10566035.20114257 -10566035.20114257 -7790250.280298523 0 0 0 0 0 103401674.7007347 -9669125.18892877 -9669125.18892877 -8547822.138640057 0 0 0 0 0 104558636.1507632 -9097547.044834202 -9097547.044834202 -8826344.631366782 0 0 0 0 0 105671776.4217988 -8453110.095630424 -8453110.095630424 -9029461.432724563 0 0 0 0 0 106728546.3829192 -7742073.446287785 -7742073.446287785 -9148738.664415034 0 0 0 0 0 107717269.905459 -6973668.528332622 -6973668.528332622 -9179214.226282177 0 0 0 0 0 108627896.9242051 -6157097.384101015 -6157097.384101015 -9115501.231111653 0 0 0 0 0 109451884.8751682 -5303258.431350729 -5303258.431350729 -8954742.806493897 0 0 0 0 0 110182095.4370229 -4424307.032003702 -4424307.032003702 -8695791.723482922 0 0 0 0 0 110812775.7181948 -3532754.242908124 -3532754.242908124 -8339689.098414921 0 0 0 0 0 111340379.3078947 -2640585.778931431 -2640585.778931431 -7888300.222026495 0 0 0 0 0 111765724.0717525 -1757524.754082813 -1757524.754082813 -7344395.795473668 0 0 0 0 0 112079453.0365754 -902633.4982489038 -902633.4982489038 -6721786.969790878 0 0 0 0 0 112293261.4726386 -79870.64668910205 -79870.64668910205 -6021077.895148124 0 0 0 0 0 112406841.8047632 697427.1701783215 697427.1701783215 -5253158.409066092 0 0 0 0 0 112434205.5430586 1426493.901295399 1426493.901295399 -4421768.830290867 0 0 0 0 0 112369821.340631 2090648.39846966 2090648.39846966 -3546702.773168681 0 0 0 0 0 99551675.21926007 -10774381.51668871 -10774381.51668871 -8056439.006433253 0 0 0 0 0 99551048.42804776 -10536120.51496902 -10536120.51496902 -6953747.096990322 0 0 0 0 0 98244302.14364426 -10700175.98434526 -10700175.98434526 -7219946.605929776 0 0 0 0 0 96253833.80242257 -10241471.87803566 -10241471.87803566 -5107077.727711299 0 0 0 0 0 98359970.85156079 -10497818.50075313 -10497818.50075313 -6302571.408683003 0 0 0 0 0 97245232.00458957 -10489293.797478 -10489293.797478 -6204835.679045029 0 0 0 0 0 96811572.19761619 -10339082.9748913 -10339082.9748913 -5615833.950115845 0 0 0 0 0 114181046.3025424 3258535.042214105 3258535.042214105 20501370.18666724 0 0 0 0 0 114440064.2734605 2377288.529758295 2377288.529758295 21657008.88464374 0 0 0 0 0 113982632.3380572 4026051.208974916 4026051.208974916 19169384.04372768 0 0 0 0 0 113831508.9147698 4673561.03098864 4673561.03098864 17725106.84321111 0 0 0 0 0 114167214.8827169 1769454.274623018 1769454.274623018 21962877.34636618 0 0 0 0 0 113891474.858391 289740.3472304735 289740.3472304735 21882922.98114284 0 0 0 0 0 113716786.255684 5203150.753335426 5203150.753335426 16209959.36744071 0 0 0 0 0 113629366.9392942 5614644.054555086 5614644.054555086 14652667.86650636 0 0 0 0 0 113552709.6289659 5905578.536984066 5905578.536984066 13082857.24569302 0 0 0 0 0 113488545.9968973 6088767.189501709 6088767.189501709 11548075.35953412 0 0 0 0 0 113402442.4637557 6165788.570099353 6165788.570099353 10054515.8272664 0 0 0 0 0 113313501.8433885 6155148.311477046 6155148.311477046 8612393.310353765 0 0 0 0 0 113222108.6917084 6064116.42668599 6064116.42668599 7227118.590890528 0 0 0 0 0 113110225.7408803 5901825.403976979 5901825.403976979 5912142.380072975 0 0 0 0 0 112981186.5124597 5683320.419513701 5683320.419513701 4685899.721631136 0 0 0 0 0 112822637.1574245 5412793.2302887 5412793.2302887 3551856.283203204 0 0 0 0 0 112641705.0830848 5096338.985942951 5096338.985942951 2497152.800386732 0 0 0 0 0 112453988.8520458 4768769.341220339 4768769.341220339 1550948.157143662 0 0 0 0 0 112790694.7709676 4794245.437147925 4794245.437147925 1625110.895494133 0 0 0 0 0 112610347.1847328 4020444.756133427 4020444.756133427 -346347.4282532297 0 0 0 0 0 112317363.5228065 3610100.31056952 3610100.31056952 -1071427.35499825 0 0 0 0 0 112443126.0424184 3504937.894662318 3504937.894662318 -983245.4287091921 0 0 0 0 0 112221659.8729264 2684285.974115751 2684285.974115751 -2638869.06508264 0 0 0 0 0 101905315.6254561 -9942174.575858809 -9942174.575858809 -8789667.429387774 0 0 0 0 0 100730214.7569294 -10400540.23797815 -10400540.23797815 -8455429.397445625 0 0 0 0 0 103063464.3654365 -9400214.798785841 -9400214.798785841 -9052327.030090915 0 0 0 0 0 104197821.8226917 -8782450.100778649 -8782450.100778649 -9235330.287234528 0 0 0 0 0 105293527.815536 -8095140.042078239 -8095140.042078239 -9332394.202673599 0 0 0 0 0 106338084.0051289 -7346159.136974345 -7346159.136974345 -9337322.941953482 0 0 0 0 0 107320976.0545034 -6544711.47942611 -6544711.47942611 -9246636.848976368 0 0 0 0 0 108231663.8889788 -5700991.810114063 -5700991.810114063 -9058231.565942023 0 0 0 0 0 109061200.3707386 -4826290.447130292 -4826290.447130292 -8771535.449980497 0 0 0 0 0 109801303.2613935 -3932692.145626792 -3932692.145626792 -8387914.077967846 0 0 0 0 0 110445108.2920963 -3033502.112377121 -3033502.112377121 -7912287.199436129 0 0 0 0 0 110991290.448417 -2138587.431549211 -2138587.431549211 -7347333.990587731 0 0 0 0 0 111433812.2175269 -1262724.949874958 -1262724.949874958 -6700231.009842156 0 0 0 0 0 111779704.1006172 -413155.8634887015 -413155.8634887015 -5978160.505862535 0 0 0 0 0 112023837.2412582 395547.137137282 395547.137137282 -5191480.834867097 0 0 0 0 0 112171757.2152979 1158104.162394202 1158104.162394202 -4350530.857587401 0 0 0 0 0 112223831.8052461 1862910.389904479 1862910.389904479 -3466196.702429414 0 0 0 0 0 112190422.2657914 2501513.115583873 2501513.115583873 -2550225.903236757 0 0 0 0 0 100688841.6467824 -10254228.24788648 -10254228.24788648 -7400717.850062723 0 0 0 0 0 99337383.71021357 -10445448.38264419 -10445448.38264419 -7650969.258681171 0 0 0 0 0 99370081.71534351 -10187642.93302309 -10187642.93302309 -6570232.799772266 0 0 0 0 0 96508091.35151263 -10356806.74640636 -10356806.74640636 -5708430.709335455 0 0 0 0 0 98122235.82099745 -10317873.17009775 -10317873.17009775 -6807097.308864308 0 0 0 0 0 97417845.37865537 -10432264.22178271 -10432264.22178271 -6126903.499185045 0 0 0 0 0 113763929.2080954 3628791.523459072 3628791.523459072 20064451.36399684 0 0 0 0 0 113953942.8660775 2780705.179332122 2780705.179332122 21022502.55178445 0 0 0 0 0 113631314.0988664 4371614.872765715 4371614.872765715 18982001.68095512 0 0 0 0 0 113537141.1417538 5006985.418984209 5006985.418984209 17773720.71264691 0 0 0 0 0 113470850.1340215 1402797.172328952 1402797.172328952 21455351.23725731 0 0 0 0 0 113321381.9008682 639795.8583159556 639795.8583159556 21548450.21393461 0 0 0 0 0 113475638.6857604 5528664.269179937 5528664.269179937 16477134.66924035 0 0 0 0 0 113435972.3289634 5934493.378352863 5934493.378352863 15119933.88258276 0 0 0 0 0 113396716.6250614 6223521.204589326 6223521.204589326 13747518.93381869 0 0 0 0 0 113342562.3943708 6398491.376921924 6398491.376921924 12360757.47046403 0 0 0 0 0 113289430.8573643 6478130.3680548 6478130.3680548 10978665.97893525 0 0 0 0 0 113229519.4604331 6471593.391756474 6471593.391756474 9611569.136202767 0 0 0 0 0 113146034.5610929 6381631.316458417 6381631.316458417 8295865.663728747 0 0 0 0 0 113043327.4380258 6221470.114448523 6221470.114448523 7032829.537931832 0 0 0 0 0 112913053.3179346 6008034.166086428 6008034.166086428 5822531.342759043 0 0 0 0 0 112755704.3361634 5740561.777153834 5740561.777153834 4706148.951489979 0 0 0 0 0 112576493.4182181 5424319.301314614 5424319.301314614 3669178.574364386 0 0 0 0 0 112384324.7607407 5089197.47440906 5089197.47440906 2658839.050237307 0 0 0 0 0 112249502.2900798 4422813.994122201 4422813.994122201 717032.9581702374 0 0 0 0 0 112501410.3492219 4382928.612972471 4382928.612972471 804270.5287199833 0 0 0 0 0 112198039.0733189 3974659.301972504 3974659.301972504 18624.43471651052 0 0 0 0 0 112009647.3001004 3209435.600068592 3209435.600068592 -1702534.755494479 0 0 0 0 0 112076491.8348531 3069546.776322125 3069546.776322125 -1610532.249864678 0 0 0 0 0 102947319.7159734 -9462012.257655615 -9462012.257655615 -8150110.906074848 0 0 0 0 0 101826026.9906199 -9898868.140227413 -9898868.140227413 -7801316.10907048 0 0 0 0 0 104048775.4274939 -8944097.833974883 -8944097.833974883 -8435527.129509335 0 0 0 0 0 105113201.227203 -8357105.683200968 -8357105.683200968 -8654731.312233726 0 0 0 0 0 106128589.0256129 -7706488.736962255 -7706488.736962255 -8799435.282036768 0 0 0 0 0 107085277.082886 -6998912.6954641 -6998912.6954641 -8862800.980497967 0 0 0 0 0 107972560.4313666 -6243526.498796863 -6243526.498796863 -8840929.376308164 0 0 0 0 0 108782936.1109676 -5449297.782601973 -5449297.782601973 -8730055.882150954 0 0 0 0 0 109508878.7534641 -4626876.007942192 -4626876.007942192 -8528790.157906519 0 0 0 0 0 110144598.5874894 -3787265.909185418 -3787265.909185418 -8236592.718694493 0 0 0 0 0 110686705.5314147 -2941336.295763998 -2941336.295763998 -7854283.206402428 0 0 0 0 0 111131448.0539235 -2100429.260905939 -2100429.260905939 -7386312.926718677 0 0 0 0 0 111481868.4418941 -1275706.860576745 -1275706.860576745 -6837159.729016238 0 0 0 0 0 111733757.1268032 -478132.7632467613 -478132.7632467613 -6212765.168730566 0 0 0 0 0 111889245.5296222 280382.7519264846 280382.7519264846 -5523959.602446003 0 0 0 0 0 111957129.4261043 998280.583628485 998280.583628485 -4771781.254645542 0 0 0 0 0 111942582.2039527 1663372.839250135 1663372.839250135 -3970495.787642791 0 0 0 0 0 111849248.8466526 2264991.783009242 2264991.783009242 -3135133.684153392 0 0 0 0 0 100440499.5451245 -10116964.5428883 -10116964.5428883 -8043121.573638237 0 0 0 0 0 100424250.2663273 -9951147.773018599 -9951147.773018599 -7015458.410626794 0 0 0 0 0 99177314.85476241 -10119465.76145799 -10119465.76145799 -7261694.480683465 0 0 0 0 0 97253371.41425264 -9902473.33115791 -9902473.33115791 -5375712.190990511 0 0 0 0 0 99159956.77415913 -9867059.790228238 -9867059.790228238 -6263274.47106428 0 0 0 0 0 97981325.07328889 -9910629.064875666 -9910629.064875666 -5871127.11576541 0 0 0 0 0 113251685.6609661 2441437.605773977 2441437.605773977 20541646.97894289 0 0 0 0 0 113068627.251857 3264291.254887489 3264291.254887489 19428404.63609268 0 0 0 0 0 112943069.7653439 3971925.624431334 3971925.624431334 18168574.29005732 0 0 0 0 0 112836724.1356933 4573458.746416896 4573458.746416896 16820750.45431654 0 0 0 0 0 113021422.9989902 1678731.571685343 1678731.571685343 20310669.11765081 0 0 0 0 0 112779639.2651852 292893.6728210222 292893.6728210222 20682362.27318711 0 0 0 0 0 112758898.9247301 5065502.099206396 5065502.099206396 15408654.26756113 0 0 0 0 0 112702230.6487881 5445002.528187677 5445002.528187677 13950605.00871257 0 0 0 0 0 112650788.360278 5714321.538738282 5714321.538738282 12517399.33689222 0 0 0 0 0 112602612.8782757 5886677.705370104 5886677.705370104 11095376.75193482 0 0 0 0 0 112550998.5517476 5965919.85491538 5965919.85491538 9703424.535180097 0 0 0 0 0 112499102.6831522 5963687.914455393 5963687.914455393 8351701.983040008 0 0 0 0 0 112429134.2616473 5882275.25035488 5882275.25035488 7055455.351361366 0 0 0 0 0 112347021.8130049 5735164.848155533 5735164.848155533 5822201.220014169 0 0 0 0 0 112243837.025375 5544671.274295157 5544671.274295157 4678373.707796568 0 0 0 0 0 112113683.9361845 5297901.287371418 5297901.287371418 3617039.370332303 0 0 0 0 0 111929629.7499773 4984537.78295255 4984537.78295255 2599850.801514809 0 0 0 0 0 111829922.3946179 4708215.734094436 4708215.734094436 1715458.758926191 0 0 0 0 0 112147808.9844117 4738027.798604387 4738027.798604387 1781453.714846023 0 0 0 0 0 111987456.1538474 4027822.899414675 4027822.899414675 -63546.39613114968 0 0 0 0 0 111717168.5991063 3648272.497299288 3648272.497299288 -764003.1064776925 0 0 0 0 0 111886753.8000652 3569231.615407875 3569231.615407875 -677518.4986497917 0 0 0 0 0 111676508.8508781 2798022.304980411 2798022.304980411 -2271746.104797268 0 0 0 0 0 102633700.4717204 -9220284.680550801 -9220284.680550801 -8653708.253605565 0 0 0 0 0 101542760.2996576 -9709220.416913075 -9709220.416913075 -8380993.747594691 0 0 0 0 0 103713088.322446 -8659041.019944597 -8659041.019944597 -8855730.635922192 0 0 0 0 0 104759600.554796 -8031640.213496849 -8031640.213496849 -8979823.96426212 0 0 0 0 0 105762365.0424184 -7343836.947289891 -7343836.947289891 -9020431.645837395 0 0 0 0 0 106711396.1886308 -6604396.977888821 -6604396.977888821 -8974101.620555094 0 0 0 0 0 107596874.436794 -5821982.486071764 -5821982.486071764 -8837813.994905841 0 0 0 0 0 108410676.3885346 -5006246.342135804 -5006246.342135804 -8610136.62845101 0 0 0 0 0 109144980.3627556 -4167790.866753187 -4167790.866753187 -8291601.766198923 0 0 0 0 0 109793116.0025773 -3318079.29892843 -3318079.29892843 -7885178.579223477 0 0 0 0 0 110351096.0095451 -2467865.34716483 -2467865.34716483 -7393670.124583291 0 0 0 0 0 110818271.9584103 -1626384.371965223 -1626384.371965223 -6820955.15938983 0 0 0 0 0 111186098.2440084 -810491.1479270634 -810491.1479270634 -6180347.195454016 0 0 0 0 0 111462478.4197894 -23786.7963562746 -23786.7963562746 -5471665.821022181 0 0 0 0 0 111646632.2729383 720672.7867600697 720672.7867600697 -4708730.154761729 0 0 0 0 0 111748384.2737507 1423160.900220697 1423160.900220697 -3893709.84114613 0 0 0 0 0 111762483.7742212 2065933.084665155 2065933.084665155 -3050569.527050125 0 0 0 0 0 111699808.5823592 2640111.990210112 2640111.990210112 -2184554.56307191 0 0 0 0 0 101481503.2536763 -9634372.209106432 -9634372.209106432 -7419332.600111675 0 0 0 0 0 100191887.5019859 -9831182.206092181 -9831182.206092181 -7658793.973740377 0 0 0 0 0 100180680.4098952 -9651995.774864502 -9651995.774864502 -6674897.282576733 0 0 0 0 0 97426589.21240669 -9991460.246921953 -9991460.246921953 -6040632.278559324 0 0 0 0 0 98204329.99529578 -9990546.825535744 -9990546.825535744 -6505190.339477106 0 0 0 0 0 99013679.4626312 -9808488.8127582 -9808488.8127582 -6932006.905944835 0 0 0 0 0 112852784.5949477 2739356.080857879 2739356.080857879 19820207.25582508 0 0 0 0 0 112728659.4331484 3559854.312067087 3559854.312067087 19023977.38013392 0 0 0 0 0 112638697.994415 4269000.393319137 4269000.393319137 18010099.29243836 0 0 0 0 0 112583596.7779006 4864515.723020193 4864515.723020193 16873344.58636537 0 0 0 0 0 112521553.8961121 995811.431326912 995811.431326912 21231496.51285382 0 0 0 0 0 112515682.9262181 1646662.37163822 1646662.37163822 20541322.65218998 0 0 0 0 0 112284945.7867738 495636.675979748 495636.675979748 20527859.11084554 0 0 0 0 0 112555559.6703086 5350655.943084759 5350655.943084759 15662568.80850279 0 0 0 0 0 112531493.1712157 5723561.454085361 5723561.454085361 14422183.19481927 0 0 0 0 0 112515180.6267282 5992385.00568603 5992385.00568603 13130904.29590519 0 0 0 0 0 112487572.910549 6159069.201182031 6159069.201182031 11833571.01546631 0 0 0 0 0 112466674.7010888 6242023.678847598 6242023.678847598 10536815.41228688 0 0 0 0 0 112428265.9229572 6242683.689470905 6242683.689470905 9266753.948391391 0 0 0 0 0 112372147.2725125 6162664.851893447 6162664.851893447 8048175.663656171 0 0 0 0 0 112292322.5335335 6023230.195314575 6023230.195314575 6860105.636525678 0 0 0 0 0 112188977.1341281 5833768.268941836 5833768.268941836 5718092.662409692 0 0 0 0 0 112073205.8985326 5584645.190259426 5584645.190259426 4709205.185960186 0 0 0 0 0 111884130.3298081 5306299.388983656 5306299.388983656 3738312.865099811 0 0 0 0 0 111765777.4928103 5013937.319986495 5013937.319986495 2734781.835447117 0 0 0 0 0 111712600.4820225 4428568.09099103 4428568.09099103 974059.4818848436 0 0 0 0 0 111865099.6390249 4365594.799795635 4365594.799795635 1042670.792113745 0 0 0 0 0 111643479.2322383 4005898.617436361 4005898.617436361 275299.7965498362 0 0 0 0 0 111450805.4970882 3278291.937907145 3278291.937907145 -1371643.626837293 0 0 0 0 0 111570194.0444531 3151496.99507851 3151496.99507851 -1275029.051103029 0 0 0 0 0 103580953.043874 -8781376.4164703 -8781376.4164703 -8058907.390214709 0 0 0 0 0 102533760.8848741 -9250910.262327783 -9250910.262327783 -7772483.044247885 0 0 0 0 0 104597845.8292419 -8247319.669064897 -8247319.669064897 -8291000.431311092 0 0 0 0 0 105572957.5738215 -7652053.450448141 -7652053.450448141 -8455524.024899153 0 0 0 0 0 106496591.3494712 -7000974.884374997 -7000974.884374997 -8546388.90901481 0 0 0 0 0 107359643.1303909 -6302595.786849526 -6302595.786849526 -8560076.874536833 0 0 0 0 0 108154037.5266864 -5564669.740308379 -5564669.740308379 -8492086.279252091 0 0 0 0 0 108872610.461291 -4796559.18989116 -4796559.18989116 -8340893.279426067 0 0 0 0 0 109509616.7537214 -4007816.539782437 -4007816.539782437 -8105327.286210623 0 0 0 0 0 110060985.1914549 -3208503.209009795 -3208503.209009795 -7785849.521988985 0 0 0 0 0 110523892.265411 -2408814.863973271 -2408814.863973271 -7384572.565361273 0 0 0 0 0 110896097.5269607 -1618563.118707389 -1618563.118707389 -6905605.628833164 0 0 0 0 0 111180037.4381648 -848922.4150807355 -848922.4150807355 -6352567.000358202 0 0 0 0 0 111374927.1991476 -108816.0283200028 -108816.0283200028 -5734758.476632987 0 0 0 0 0 111484569.3473951 593974.4737448696 593974.4737448696 -5055448.312822217 0 0 0 0 0 111512622.5511466 1253879.818835766 1253879.818835766 -4326077.439540641 0 0 0 0 0 111467466.6412586 1861618.268721542 1861618.268721542 -3555331.75405927 0 0 0 0 0 111362442.474566 2410608.596256269 2410608.596256269 -2757475.072822969 0 0 0 0 0 101225066.8691695 -9474155.776769293 -9474155.776769293 -7991930.18041849 0 0 0 0 0 101178142.5177779 -9381669.526038283 -9381669.526038283 -7061984.15148334 0 0 0 0 0 99979579.36110644 -9547603.577217905 -9547603.577217905 -7291376.611375147 0 0 0 0 0 98172222.39016049 -9510505.569561247 -9510505.569561247 -5606608.884241238 0 0 0 0 0 99085035.44259639 -9472057.842300156 -9472057.842300156 -6028027.739169488 0 0 0 0 0 100034957.2703315 -9335423.341626577 -9335423.341626577 -6389319.866258806 0 0 0 0 0 112298865.4395476 2490376.2321574 2490376.2321574 19490331.98938515 0 0 0 0 0 112149458.631674 3238341.221626921 3238341.221626921 18409496.071795 0 0 0 0 0 112029348.6443716 3903583.857212864 3903583.857212864 17234824.08178108 0 0 0 0 0 111951566.7394767 4465980.570160186 4465980.570160186 15977364.78407305 0 0 0 0 0 112042009.3468297 1032785.82142561 1032785.82142561 19637408.9003279 0 0 0 0 0 112056700.7366767 1898205.33374742 1898205.33374742 19318770.60865089 0 0 0 0 0 111796552.9816068 264454.0856389049 264454.0856389049 20217126.34151628 0 0 0 0 0 111900381.0257791 4920363.894156281 4920363.894156281 14652156.90401346 0 0 0 0 0 111860388.1886857 5269826.497222564 5269826.497222564 13319888.98931781 0 0 0 0 0 111831262.8999322 5522632.385918069 5522632.385918069 11983838.24643502 0 0 0 0 0 111804516.9074593 5684165.431568277 5684165.431568277 10664401.49828362 0 0 0 0 0 111784231.1450024 5766553.784193926 5766553.784193926 9355229.956545785 0 0 0 0 0 111752501.1823768 5771895.348503518 5771895.348503518 8097058.150383613 0 0 0 0 0 111714168.1916203 5698940.356315401 5698940.356315401 6884283.190553945 0 0 0 0 0 111626357.7153475 5561559.20421601 5561559.20421601 5718790.444405288 0 0 0 0 0 111542673.6336979 5393129.005109511 5393129.005109511 4646619.963408903 0 0 0 0 0 111506922.7269152 5193201.722870444 5193201.722870444 3673807.537061008 0 0 0 0 0 111271520.7785681 4875882.732450889 4875882.732450889 2750055.831120133 0 0 0 0 0 111191823.8734553 4618384.642678962 4618384.642678962 1833922.784634457 0 0 0 0 0 111493869.7484938 4649441.353056427 4649441.353056427 1879143.201745554 0 0 0 0 0 111332278.0785562 3998894.325278794 3998894.325278794 192067.4311267119 0 0 0 0 0 111139747.8142193 3682440.475465518 3682440.475465518 -473315.4793571084 0 0 0 0 0 111369275.9088095 3604898.172333567 3604898.172333567 -371597.4713027794 0 0 0 0 0 111150311.7168323 2870727.657234604 2870727.657234604 -1949049.258048623 0 0 0 0 0 103267898.4312392 -8524004.942034947 -8524004.942034947 -8486672.996045901 0 0 0 0 0 102242176.6548838 -9033679.954703247 -9033679.954703247 -8270243.103647232 0 0 0 0 0 104267835.1665556 -7951367.044120461 -7951367.044120461 -8632736.988198392 0 0 0 0 0 105229177.1061456 -7320316.086913559 -7320316.086913559 -8703639.353733826 0 0 0 0 0 106144321.1788839 -6638247.641442807 -6638247.641442807 -8694722.221519236 0 0 0 0 0 107003666.0525419 -5913223.688054949 -5913223.688054949 -8603572.574978987 0 0 0 0 0 107799366.7168168 -5153535.29337235 -5153535.29337235 -8427841.117351333 0 0 0 0 0 108524082.6544488 -4368527.427612224 -4368527.427612224 -8167374.080207646 0 0 0 0 0 109171707.6389586 -3568062.294941275 -3568062.294941275 -7823488.895851355 0 0 0 0 0 109737678.8265289 -2762001.946170574 -2762001.946170574 -7398762.33822282 0 0 0 0 0 110218535.9495228 -1960605.867511548 -1960605.867511548 -6897563.294145077 0 0 0 0 0 110612189.4840311 -1174021.470816173 -1174021.470816173 -6325303.500372405 0 0 0 0 0 110918466.8551366 -412010.760105087 -412010.760105087 -5689643.518934964 0 0 0 0 0 111135782.0175999 314512.4755304295 314512.4755304295 -4999707.563934263 0 0 0 0 0 111272793.3678181 1002611.674567126 1002611.674567126 -4255429.731586168 0 0 0 0 0 111329262.1238119 1644704.741935562 1644704.741935562 -3474555.354556072 0 0 0 0 0 111310283.2420851 2230237.850126907 2230237.850126907 -2673586.955567359 0 0 0 0 0 111227062.5813265 2742217.879443301 2742217.879443301 -1850893.020668826 0 0 0 0 0 102159645.2899965 -9039052.70193946 -9039052.70193946 -7410630.228317689 0 0 0 0 0 100928501.7052388 -9226990.643475587 -9226990.643475587 -7620319.946158616 0 0 0 0 0 100933642.7153608 -9102181.502822135 -9102181.502822135 -6752796.919550073 0 0 0 0 0 98302319.9449435 -9563713.88799163 -9563713.88799163 -6258131.848391196 0 0 0 0 0 99087195.13753374 -9455788.872469092 -9455788.872469092 -6631235.893355507 0 0 0 0 0 99881968.60429116 -9259125.919909252 -9259125.919909252 -6958816.761441141 0 0 0 0 0 111927602.4740814 2772525.658921037 2772525.658921037 18921597.49445195 0 0 0 0 0 111827891.8300884 3516931.329490128 3516931.329490128 18053782.36899831 0 0 0 0 0 111762837.9701025 4168205.347546828 4168205.347546828 17090383.14798986 0 0 0 0 0 111734778.4838541 4721314.128573291 4721314.128573291 16030699.75664532 0 0 0 0 0 111649722.4941864 1292401.547686229 1292401.547686229 20032190.49970215 0 0 0 0 0 111614745.4389896 1803338.60946735 1803338.60946735 19327543.24041217 0 0 0 0 0 111340785.2196148 557454.5095292123 557454.5095292123 19511881.98902255 0 0 0 0 0 111720710.3228671 5169734.747108933 5169734.747108933 14918764.68063369 0 0 0 0 0 111712833.3421181 5514191.278713608 5514191.278713608 13748955.62433758 0 0 0 0 0 111714279.0882242 5765692.404360967 5765692.404360967 12550925.65271255 0 0 0 0 0 111718016.7049135 5927195.392557735 5927195.392557735 11333516.46691363 0 0 0 0 0 111714675.5849853 6010836.001988314 6010836.001988314 10119032.66900851 0 0 0 0 0 111698602.9001437 6015356.816241663 6015356.816241663 8936856.357868966 0 0 0 0 0 111658843.4638966 5959771.894340592 5959771.894340592 7795698.286431401 0 0 0 0 0 111578277.9978458 5827675.396350381 5827675.396350381 6688277.491334803 0 0 0 0 0 111501783.147119 5670155.029371005 5670155.029371005 5633690.527303819 0 0 0 0 0 111284669.3039076 5414114.730215499 5414114.730215499 4758540.862731105 0 0 0 0 0 111360908.2862348 5173074.602670209 5173074.602670209 3451450.860062897 0 0 0 0 0 111294522.9134078 4866396.848603377 4866396.848603377 2517737.664528606 0 0 0 0 0 111245095.7048092 4499451.504986264 4499451.504986264 1256084.089065047 0 0 0 0 0 111312441.6690414 4349580.608252073 4349580.608252073 1264323.650827885 0 0 0 0 0 111124845.1652083 4011739.328827246 4011739.328827246 565773.48320791 0 0 0 0 0 110968643.4640174 3320280.127252255 3320280.127252255 -1070201.486296883 0 0 0 0 0 111063857.5824327 3224611.154146301 3224611.154146301 -990161.9789016495 0 0 0 0 0 104125411.3323177 -8124391.426926513 -8124391.426926513 -7937373.218559963 0 0 0 0 0 103154532.7114664 -8610085.912501648 -8610085.912501648 -7694382.624091282 0 0 0 0 0 105058643.9629525 -7581355.799700443 -7581355.799700443 -8119111.065399821 0 0 0 0 0 105949374.2799268 -6982822.040663765 -6982822.040663765 -8232809.113156661 0 0 0 0 0 106786851.9182587 -6337395.926056141 -6337395.926056141 -8276201.883256206 0 0 0 0 0 107563427.5705242 -5652444.438570197 -5652444.438570197 -8245300.724588846 0 0 0 0 0 108272010.7382015 -4935899.129216224 -4935899.129216224 -8137684.594973334 0 0 0 0 0 108907027.051926 -4196337.307832742 -4196337.307832742 -7951890.07789025 0 0 0 0 0 109464068.4090962 -3442682.08985629 -3442682.08985629 -7687710.923960381 0 0 0 0 0 109939898.4238344 -2684087.902756216 -2684087.902756216 -7346453.107475901 0 0 0 0 0 110332563.3131555 -1929945.385325367 -1929945.385325367 -6930778.94699987 0 0 0 0 0 110642096.8788872 -1189367.190456927 -1189367.190456927 -6444590.007312486 0 0 0 0 0 110868999.5013953 -471494.0702801552 -471494.0702801552 -5893132.720401842 0 0 0 0 0 111015804.7118184 215057.286968049 215057.286968049 -5282179.286076898 0 0 0 0 0 111082301.6868045 862228.0783042947 862228.0783042947 -4621511.199311752 0 0 0 0 0 111076496.4906527 1468585.743132398 1468585.743132398 -3912028.045347395 0 0 0 0 0 111001229.8143299 2021645.667642291 2021645.667642291 -3176376.241321255 0 0 0 0 0 110865295.1593693 2497638.979368073 2497638.979368073 -2458435.30731569 0 0 0 0 0 101884316.300723 -8838327.264225608 -8838327.264225608 -7901351.614492288 0 0 0 0 0 101821704.5098886 -8812437.391354945 -8812437.391354945 -7075053.299719847 0 0 0 0 0 100729563.7260822 -8981033.543936063 -8981033.543936063 -7250253.827883932 0 0 0 0 0 99093051.92021199 -9080731.305496605 -9080731.305496605 -5775416.912691168 0 0 0 0 0 99880168.26226543 -9020134.9018899 -9020134.9018899 -6183505.294031074 0 0 0 0 0 100751108.8066077 -8871948.773628963 -8871948.773628963 -6474072.463949362 0 0 0 0 0 111442551.3706924 2518921.388169382 2518921.388169382 18479721.8418129 0 0 0 0 0 111299577.8791139 3219256.54814756 3219256.54814756 17472570.0986764 0 0 0 0 0 111209863.2922181 3832357.714039246 3832357.714039246 16367112.19238792 0 0 0 0 0 111157203.8428655 4349743.033660741 4349743.033660741 15177158.9414288 0 0 0 0 0 111246894.9877333 1180905.914380921 1180905.914380921 18749419.4068644 0 0 0 0 0 111215956.8559628 2075901.119539071 2075901.119539071 18862444.24058325 0 0 0 0 0 110862223.9978061 259808.8550574123 259808.8550574123 18868424.18653563 0 0 0 0 0 111118316.7174153 4767326.163028479 4767326.163028479 13965536.53158919 0 0 0 0 0 111093063.439436 5091405.995111434 5091405.995111434 12722350.03433404 0 0 0 0 0 111086151.926115 5332085.11016526 5332085.11016526 11479931.61617666 0 0 0 0 0 111084566.8318449 5486002.153104327 5486002.153104327 10237342.31959679 0 0 0 0 0 111074138.8658017 5565844.062919166 5565844.062919166 9016250.060815254 0 0 0 0 0 111123848.5172733 5599341.741391331 5599341.741391331 7868170.005381195 0 0 0 0 0 111040520.8423264 5530851.00487027 5530851.00487027 6710649.775919371 0 0 0 0 0 110948594.4842503 5395284.108123131 5395284.108123131 5624953.035376717 0 0 0 0 0 110957835.1531644 5288778.634639288 5288778.634639288 4683693.17504502 0 0 0 0 0 111135166.2360406 5342886.420380047 5342886.420380047 4300575.258437754 0 0 0 0 0 110671926.9772387 4978097.389467157 4978097.389467157 3806682.97758003 0 0 0 0 0 110738984.5226088 4747972.70002538 4747972.70002538 2687751.451617137 0 0 0 0 0 110739948.8377223 4487786.119789279 4487786.119789279 1900746.116594046 0 0 0 0 0 110805337.3835951 4027477.51078529 4027477.51078529 475601.3285057039 0 0 0 0 0 110692431.5021184 3713329.691697542 3713329.691697542 -198379.1844812144 0 0 0 0 0 110731093.9463626 3595942.037852827 3595942.037852827 -151086.7950078573 0 0 0 0 0 110562964.517923 2888583.926046493 2888583.926046493 -1688486.519162333 0 0 0 0 0 102861246.6506141 -8377399.753289296 -8377399.753289296 -8130221.414394829 0 0 0 0 0 103816481.1073029 -7856867.419625767 -7856867.419625767 -8294191.929807574 0 0 0 0 0 104735050.4876395 -7278186.29607929 -7278186.29607929 -8389390.605199426 0 0 0 0 0 105616910.1148246 -6649318.435862699 -6649318.435862699 -8412184.386592457 0 0 0 0 0 106449552.9884911 -5977965.088790283 -5977965.088790283 -8359804.695177552 0 0 0 0 0 107225792.8783794 -5271062.592271361 -5271062.592271361 -8229388.340471119 0 0 0 0 0 107938510.8579307 -4537097.725563288 -4537097.725563288 -8020335.080489128 0 0 0 0 0 108581893.5751593 -3784724.102270921 -3784724.102270921 -7733057.774755176 0 0 0 0 0 109151104.5598144 -3022814.183494321 -3022814.183494321 -7369205.119632581 0 0 0 0 0 109642553.0625105 -2260636.760524439 -2260636.760524439 -6931903.171289867 0 0 0 0 0 110053775.1406249 -1507544.485067957 -1507544.485067957 -6426127.551678147 0 0 0 0 0 110384220.9754522 -772292.5885457274 -772292.5885457274 -5857039.532225951 0 0 0 0 0 110633445.8779177 -64083.36929985655 -64083.36929985655 -5231804.471332639 0 0 0 0 0 110804248.1995558 609315.8443825104 609315.8443825104 -4558097.327259887 0 0 0 0 0 110899196.5639113 1239295.026598822 1239295.026598822 -3834433.060687319 0 0 0 0 0 110921702.6219146 1824204.508157853 1824204.508157853 -3076608.896042724 0 0 0 0 0 110893702.8820137 2355519.250906743 2355519.250906743 -2340038.661670547 0 0 0 0 0 110823602.5309562 2823261.493539647 2823261.493539647 -1578649.156732355 0 0 0 0 0 102763116.8845637 -8431340.539290344 -8431340.539290344 -7351069.358765127 0 0 0 0 0 101552914.8688348 -8625492.228897735 -8625492.228897735 -7561417.954930178 0 0 0 0 0 101542099.2746151 -8609332.186041234 -8609332.186041234 -6825189.097756253 0 0 0 0 0 99154531.61577742 -9102319.09595002 -9102319.09595002 -6394479.580580859 0 0 0 0 0 99873096.838094 -8995811.143922601 -8995811.143922601 -6702436.144648959 0 0 0 0 0 100536113.2503582 -8728527.148474535 -8728527.148474535 -6938306.898107128 0 0 0 0 0 111094525.2218093 2789241.113327906 2789241.113327906 17982189.56533507 0 0 0 0 0 111013748.3092393 3468182.419119073 3468182.419119073 17159322.82967765 0 0 0 0 0 110976246.2439244 4067017.701018032 4067017.701018032 16240007.18738478 0 0 0 0 0 110960705.3814543 4574649.152781005 4574649.152781005 15258996.41364493 0 0 0 0 0 110803909.4738792 1208514.909124745 1208514.909124745 19052188.08143578 0 0 0 0 0 110769430.6679188 1817922.205058882 1817922.205058882 18351675.70157396 0 0 0 0 0 110466079.2693711 472851.732826839 472851.732826839 18628593.43647226 0 0 0 0 0 110959611.9109441 4987000.479734072 4987000.479734072 14206315.36839646 0 0 0 0 0 110971127.8091087 5307026.527878108 5307026.527878108 13121771.48827322 0 0 0 0 0 110994918.9498045 5546594.124223867 5546594.124223867 11987139.59473724 0 0 0 0 0 111013321.968786 5700992.237030415 5700992.237030415 10858729.3473922 0 0 0 0 0 110982575.4226814 5795798.056585132 5795798.056585132 9601429.134328062 0 0 0 0 0 111088479.728713 5811729.318957296 5811729.318957296 8504949.552996682 0 0 0 0 0 111020584.4083933 5711815.7375936 5711815.7375936 7586579.87756723 0 0 0 0 0 110971000.9248897 5628019.070790919 5628019.070790919 6599131.754447785 0 0 0 0 0 111074676.0131972 5541440.924651132 5541440.924651132 5562211.983517132 0 0 0 0 0 110455677.3747248 5143540.170540295 5143540.170540295 4841046.536193447 0 0 0 0 0 110764982.87993 5151855.877508868 5151855.877508868 4037281.709866378 0 0 0 0 0 110849827.560345 4947676.578379872 4947676.578379872 3123140.44356747 0 0 0 0 0 110854253.4591142 4660326.728403983 4660326.728403983 2185017.004499381 0 0 0 0 0 110868782.4298369 4347629.433670809 4347629.433670809 1384219.308524207 0 0 0 0 0 110554795.5044014 3955531.348967982 3955531.348967982 665465.9068483182 0 0 0 0 0 110597324.6504887 3495823.95908171 3495823.95908171 -525770.0371018759 0 0 0 0 0 110742244.1452739 3221482.339872268 3221482.339872268 -935632.4016959035 0 0 0 0 0 103692637.1369997 -7990020.7965062 -7990020.7965062 -7598084.120963602 0 0 0 0 0 104583259.89448 -7497579.774243096 -7497579.774243096 -7793717.540360261 0 0 0 0 0 105441208.2170514 -6946281.116226467 -6946281.116226467 -7923691.94713505 0 0 0 0 0 106251923.0393798 -6350749.363593532 -6350749.363593532 -7992700.442323593 0 0 0 0 0 107009186.6036576 -5715497.482494798 -5715497.482494798 -7993444.373369862 0 0 0 0 0 107705769.9961535 -5047704.43831269 -5047704.43831269 -7923591.225691121 0 0 0 0 0 108336077.8417426 -4355074.671569852 -4355074.671569852 -7781267.002910004 0 0 0 0 0 108895320.2041491 -3645792.95710324 -3645792.95710324 -7566195.377273336 0 0 0 0 0 109380269.0058451 -2927878.709084693 -2927878.709084693 -7278520.446813608 0 0 0 0 0 109788461.4322726 -2210000.118816698 -2210000.118816698 -6920359.193934991 0 0 0 0 0 110119585.5987435 -1500248.086031346 -1500248.086031346 -6494410.818674625 0 0 0 0 0 110373744.8102732 -807095.8056827179 -807095.8056827179 -6005120.346907519 0 0 0 0 0 110552373.5119222 -138717.3066758711 -138717.3066758711 -5457726.221154244 0 0 0 0 0 110658798.4928854 497524.833195856 497524.833195856 -4859054.694441425 0 0 0 0 0 110692435.961965 1089470.11290451 1089470.11290451 -4219387.306834473 0 0 0 0 0 110665006.4011277 1641845.643508969 1641845.643508969 -3532926.546160608 0 0 0 0 0 110600650.5790196 2156771.041282253 2156771.041282253 -2830461.547638491 0 0 0 0 0 110405463.4387318 2551291.775854193 2551291.775854193 -2217019.249670175 0 0 0 0 0 102490424.3988183 -8221566.469299667 -8221566.469299667 -7786388.477271731 0 0 0 0 0 102401458.6908253 -8233256.406570649 -8233256.406570649 -7064346.28668643 0 0 0 0 0 101313178.6272516 -8397428.139298521 -8397428.139298521 -7096001.349230352 0 0 0 0 0 99903929.38054927 -8641313.293363197 -8641313.293363197 -5916960.265148701 0 0 0 0 0 100476212.5588131 -8578674.040414955 -8578674.040414955 -6302142.756041989 0 0 0 0 0 100988730.1042751 -8547391.20685154 -8547391.20685154 -6655708.116083556 0 0 0 0 0 110615632.4159154 2538472.760626806 2538472.760626806 17545531.24367655 0 0 0 0 0 110524842.8817921 3187546.349175375 3187546.349175375 16597089.47360155 0 0 0 0 0 110469895.512192 3752847.432666917 3752847.432666917 15548438.31976359 0 0 0 0 0 110433837.6404565 4229804.588553254 4229804.588553254 14451674.20074363 0 0 0 0 0 110403627.0315987 1024459.986732573 1024459.986732573 17903349.46685699 0 0 0 0 0 110435877.2569693 2045343.486911906 2045343.486911906 17751746.04521425 0 0 0 0 0 110099274.8727042 241059.0689847963 241059.0689847963 18103794.3317102 0 0 0 0 0 110410464.7077094 4617632.556885588 4617632.556885588 13317736.52385883 0 0 0 0 0 110402029.6521842 4916853.694562683 4916853.694562683 12167428.59012997 0 0 0 0 0 110423881.1224475 5149492.38014547 5149492.38014547 11001855.58426746 0 0 0 0 0 110438145.8176132 5291460.842391233 5291460.842391233 9821293.426113913 0 0 0 0 0 110494632.7601152 5419035.07812233 5419035.07812233 8820140.499034835 0 0 0 0 0 110513636.7119822 5433338.776305005 5433338.776305005 7519837.673558745 0 0 0 0 0 110505766.2130406 5370892.440590098 5370892.440590098 6532670.285408464 0 0 0 0 0 110402641.8708158 5228030.524789888 5228030.524789888 5625027.037462698 0 0 0 0 0 110525713.0522406 5289713.794995132 5289713.794995132 4970020.923954198 0 0 0 0 0 110107250.7291007 4969308.617681921 4969308.617681921 4442198.332755771 0 0 0 0 0 110223842.2630015 4783297.076764189 4783297.076764189 3454366.991241496 0 0 0 0 0 110272137.2475261 4542825.389015933 4542825.389015933 2472712.420538091 0 0 0 0 0 110308777.4834367 4250659.805016893 4250659.805016893 1495212.947577763 0 0 0 0 0 110354182.025274 4003975.409152396 4003975.409152396 587549.6789331598 0 0 0 0 0 110404576.7359246 3855425.946309372 3855425.946309372 301595.4753387694 0 0 0 0 0 110127372.6874519 3197215.652953959 3197215.652953959 -805500.8240253411 0 0 0 0 0 110165972.7801718 3637562.451292797 3637562.451292797 177570.7802320046 0 0 0 0 0 110118716.5069969 2847296.937940851 2847296.937940851 -1556132.758197518 0 0 0 0 0 103407327.3722446 -7750866.792706158 -7750866.792706158 -7963462.469631626 0 0 0 0 0 104278640.1020641 -7219217.548981419 -7219217.548981419 -8079295.665413818 0 0 0 0 0 105127581.4416589 -6640315.944822542 -6640315.944822542 -8129304.410264118 0 0 0 0 0 105932763.0763674 -6019041.883354995 -6019041.883354995 -8109961.176747233 0 0 0 0 0 106688413.3526206 -5361897.913621331 -5361897.913621331 -8019018.642307879 0 0 0 0 0 107387199.0982765 -4676380.023351196 -4676380.023351196 -7855334.820526171 0 0 0 0 0 108023446.2292089 -3970204.000382061 -3970204.000382061 -7618426.714512459 0 0 0 0 0 108592607.4026266 -3251476.067166803 -3251476.067166803 -7309324.886643207 0 0 0 0 0 109090807.1061227 -2528376.889074334 -2528376.889074334 -6930190.087325862 0 0 0 0 0 109515497.3768861 -1809380.365740381 -1809380.365740381 -6484760.548740936 0 0 0 0 0 109865278.3725502 -1102718.055191538 -1102718.055191538 -5978264.56369471 0 0 0 0 0 110140143.4535686 -416325.7834795544 -416325.7834795544 -5415227.000894093 0 0 0 0 0 110340366.1200415 241760.2040140704 241760.2040140704 -4803507.995385525 0 0 0 0 0 110469882.9594976 865814.7685881678 865814.7685881678 -4156561.633350421 0 0 0 0 0 110528339.2543729 1439377.961882642 1439377.961882642 -3459209.726121891 0 0 0 0 0 110511838.6544156 1953252.140817613 1953252.140817613 -2746733.732927592 0 0 0 0 0 110423733.5156772 2431936.747763657 2431936.747763657 -2133088.18313181 0 0 0 0 0 110469123.2529984 2805118.187765633 2805118.187765633 -1491459.774691321 0 0 0 0 0 103296979.4849336 -7841775.096770238 -7841775.096770238 -7250860.796395621 0 0 0 0 0 102173388.6596634 -8063234.855373915 -8063234.855373915 -7412789.966170679 0 0 0 0 0 101820477.6964919 -8212146.597724489 -8212146.597724489 -6825954.683328792 0 0 0 0 0 99992135.2596176 -8658845.389372416 -8658845.389372416 -6468418.466622464 0 0 0 0 0 100944933.8987023 -8253399.579459684 -8253399.579459684 -6730936.16465418 0 0 0 0 0 110325506.2159688 2759904.568418622 2759904.568418622 17074748.62972338 0 0 0 0 0 110278986.2315432 3399480.312961629 3399480.312961629 16308934.71952659 0 0 0 0 0 110263766.9950709 3957501.912940491 3957501.912940491 15451544.68730107 0 0 0 0 0 110260509.3830034 4428015.739275551 4428015.739275551 14514935.43473045 0 0 0 0 0 110202387.0537801 1240701.01212257 1240701.01212257 18249838.17031436 0 0 0 0 0 110193915.8026925 1078732.750514235 1078732.750514235 18108403.4867337 0 0 0 0 0 110043811.9277239 1862763.624987589 1862763.624987589 17485883.51614004 0 0 0 0 0 109762403.9167365 445115.8124687226 445115.8124687226 17735033.02098086 0 0 0 0 0 110271940.2416679 4810035.924430548 4810035.924430548 13542251.50039701 0 0 0 0 0 110297151.5633706 5113113.076782267 5113113.076782267 12520640.37644819 0 0 0 0 0 110343715.7768068 5336663.367660461 5336663.367660461 11450383.63186813 0 0 0 0 0 110284495.0584455 5474818.843770249 5474818.843770249 10379904.29004543 0 0 0 0 0 110391491.4384157 5466028.340988032 5466028.340988032 8470512.075418631 0 0 0 0 0 110419796.297307 5527968.315098517 5527968.315098517 8505318.604151888 0 0 0 0 0 110339190.4423204 5509079.550117503 5509079.550117503 7608162.903752317 0 0 0 0 0 110449504.5661077 5427958.319628269 5427958.319628269 6030104.202722655 0 0 0 0 0 109967852.7796332 5096660.042325192 5096660.042325192 5451457.554284273 0 0 0 0 0 110175882.1080366 5127927.674663909 5127927.674663909 4632511.863807578 0 0 0 0 0 110309196.8891934 4977671.070567658 4977671.070567658 3740658.50199726 0 0 0 0 0 110383769.836566 4761145.033057766 4761145.033057766 2856752.095151131 0 0 0 0 0 110479216.793505 4482409.085946129 4482409.085946129 2048688.643656669 0 0 0 0 0 110445101.9146371 4197973.738720915 4197973.738720915 1265814.2934789 0 0 0 0 0 109921975.661416 3827290.9234721 3827290.9234721 708668.5415173507 0 0 0 0 0 110430468.7388498 3465544.889601286 3465544.889601286 -232613.7616427296 0 0 0 0 0 109808152.4601721 3413960.07826893 3413960.07826893 -309950.5234542473 0 0 0 0 0 110284290.4578614 3119794.171334254 3119794.171334254 -876617.1840041433 0 0 0 0 0 104140959.2761561 -7405156.723281058 -7405156.723281058 -7475690.195723998 0 0 0 0 0 104969388.3059052 -6893706.761937223 -6893706.761937223 -7619829.08824931 0 0 0 0 0 105753164.6140369 -6345225.59761104 -6345225.59761104 -7711796.076410143 0 0 0 0 0 106489771.1188843 -5756509.601703195 -5756509.601703195 -7739262.454316043 0 0 0 0 0 107172230.5496237 -5134922.259228774 -5134922.259228774 -7702118.813222352 0 0 0 0 0 107795303.5641873 -4487019.4978542 -4487019.4978542 -7598026.37980037 0 0 0 0 0 108354180.7951631 -3820159.081000048 -3820159.081000048 -7426022.471843221 0 0 0 0 0 108844909.9799305 -3142016.222225104 -3142016.222225104 -7186255.135028691 0 0 0 0 0 109265226.6519202 -2460062.457617471 -2460062.457617471 -6879738.866837139 0 0 0 0 0 109613596.1388494 -1782054.460154036 -1782054.460154036 -6508615.923349597 0 0 0 0 0 109890910.3493176 -1114824.197250608 -1114824.197250608 -6075759.576741357 0 0 0 0 0 110096439.7537367 -467156.9147849755 -467156.9147849755 -5586902.04204879 0 0 0 0 0 110231866.4369675 154584.5482733083 154584.5482733083 -5046432.25144424 0 0 0 0 0 110299979.0744981 744768.7870017785 744768.7870017785 -4462342.000083457 0 0 0 0 0 110271874.7976046 1267771.769284469 1267771.769284469 -3869381.219123104 0 0 0 0 0 110275101.9544577 1781930.713691374 1781930.713691374 -3208396.150737069 0 0 0 0 0 110375721.3467051 2397385.470591641 2397385.470591641 -2344680.300366214 0 0 0 0 0 109913536.1244671 2447463.586323206 2447463.586323206 -2056714.266417548 0 0 0 0 0 103024044.4470966 -7628222.222023424 -7628222.222023424 -7646289.925739845 0 0 0 0 0 102924182.3879298 -7643221.013500825 -7643221.013500825 -6919252.203015761 0 0 0 0 0 101918672.1559516 -7803141.509437566 -7803141.509437566 -6651714.445106976 0 0 0 0 0 100691913.839525 -8191600.843906345 -8191600.843906345 -6007033.332221202 0 0 0 0 0 101547729.1340686 -7994480.342132808 -7994480.342132808 -6348911.227181667 0 0 0 0 0 109910316.7827742 2538668.78017451 2538668.78017451 16677972.47949138 0 0 0 0 0 109844962.5085374 3141678.794715804 3141678.794715804 15768980.34846747 0 0 0 0 0 109806620.908622 3666941.451612954 3666941.451612954 14794724.46821203 0 0 0 0 0 109779341.2032866 4110585.160519832 4110585.160519832 13769624.42045489 0 0 0 0 0 109830472.8617484 1484930.224668276 1484930.224668276 17446526.67245196 0 0 0 0 0 109773130.9217234 834864.2765428815 834864.2765428815 17617084.34532666 0 0 0 0 0 109720759.4226405 2072452.952709266 2072452.952709266 16810553.9605389 0 0 0 0 0 109410111.3451506 228539.0758738579 228539.0758738579 17281647.91279786 0 0 0 0 0 109781941.514632 4474716.798933389 4474716.798933389 12725959.49771045 0 0 0 0 0 109779500.664804 4759362.542728364 4759362.542728364 11657951.0875338 0 0 0 0 0 109864800.9484391 4989463.835031489 4989463.835031489 10531658.99258045 0 0 0 0 0 109810936.1164447 5159058.803832105 5159058.803832105 9350328.753856637 0 0 0 0 0 109895558.8938783 5293982.481071837 5293982.481071837 9417768.592827655 0 0 0 0 0 110023710.9787909 5273153.835710507 5273153.835710507 7519810.066992049 0 0 0 0 0 110060711.3232515 5362552.578103953 5362552.578103953 6853392.353614033 0 0 0 0 0 109836747.4512617 5173231.707407421 5173231.707407421 6582464.860451593 0 0 0 0 0 110000748.6008598 5242062.290031831 5242062.290031831 5564993.392870797 0 0 0 0 0 109696806.0181416 4786994.843500922 4786994.843500922 4081681.576499906 0 0 0 0 0 109569687.8308157 4919424.760416581 4919424.760416581 5030686.555363552 0 0 0 0 0 109790149.0141349 4606592.577153392 4606592.577153392 3143253.36642311 0 0 0 0 0 109855328.1424955 4384446.34328136 4384446.34328136 2249520.86595155 0 0 0 0 0 109900933.4620796 4105124.112553819 4105124.112553819 1440832.644300365 0 0 0 0 0 109790473.211691 3091754.807567898 3091754.807567898 -843451.9872795948 0 0 0 0 0 109677964.4062861 2725494.387008229 2725494.387008229 -1529711.047736197 0 0 0 0 0 103848511.6550145 -7143404.06536588 -7143404.06536588 -7777263.713233015 0 0 0 0 0 104673825.2162186 -6613026.946918598 -6613026.946918598 -7848533.148947624 0 0 0 0 0 105451264.8636891 -6039227.471423406 -6039227.471423406 -7857322.219705366 0 0 0 0 0 106185261.7603646 -5429085.66497511 -5429085.66497511 -7800506.100417081 0 0 0 0 0 106868530.992661 -4789394.946697675 -4789394.946697675 -7676370.208087045 0 0 0 0 0 107495934.4723295 -4127216.243977351 -4127216.243977351 -7484244.970254677 0 0 0 0 0 108062166.5340996 -3450133.000210552 -3450133.000210552 -7224515.601586584 0 0 0 0 0 108563899.154861 -2765412.592581961 -2765412.592581961 -6898055.297136616 0 0 0 0 0 108998037.8684915 -2080916.005430706 -2080916.005430706 -6507931.443218339 0 0 0 0 0 109362999.6622039 -1403903.077408773 -1403903.077408773 -6058142.701719284 0 0 0 0 0 109658659.5950821 -741441.9452942313 -741441.9452942313 -5553944.608568367 0 0 0 0 0 109884440.7089922 -102330.524548098 -102330.524548098 -4998651.868083359 0 0 0 0 0 110043221.3194405 506385.4590415487 506385.4590415487 -4397596.307602077 0 0 0 0 0 110148981.7586439 1078726.09720944 1078726.09720944 -3781565.144902838 0 0 0 0 0 110192958.4384466 1622723.513822158 1622723.513822158 -3106596.033945381 0 0 0 0 0 110065809.2968371 2091747.999504083 2091747.999504083 -2485176.681705225 0 0 0 0 0 110115237.8011746 2702409.293400441 2702409.293400441 -1515453.931938213 0 0 0 0 0 103729892.4816357 -7295205.093293344 -7295205.093293344 -7215501.504734868 0 0 0 0 0 102367893.7760039 -7782696.221910432 -7782696.221910432 -7116671.277781699 0 0 0 0 0 102705911.7684462 -7506210.354117758 -7506210.354117758 -7381918.500229298 0 0 0 0 0 101397606.6849602 -7916644.895316118 -7916644.895316118 -6844191.520338375 0 0 0 0 0 100634212.6658906 -8171099.175364961 -8171099.175364961 -6547998.951689969 0 0 0 0 0 109650685.1447704 2734138.339723828 2734138.339723828 16245279.53968816 0 0 0 0 0 109623565.5692829 3331881.599415736 3331881.599415736 15513786.62454461 0 0 0 0 0 109616378.5531974 3850892.542977559 3850892.542977559 14686014.76037118 0 0 0 0 0 109634554.0273435 4280333.669052131 4280333.669052131 13855353.8670236 0 0 0 0 0 109520709.2602962 1351087.429575996 1351087.429575996 17244296.56993041 0 0 0 0 0 109454780.1398307 1024861.595566942 1024861.595566942 17245348.22288652 0 0 0 0 0 109378441.9429319 1925023.050791749 1925023.050791749 16611156.32608057 0 0 0 0 0 109094152.3365868 423219.888504426 423219.888504426 16918630.27921414 0 0 0 0 0 109672992.6314568 4638301.55768488 4638301.55768488 12932731.28224116 0 0 0 0 0 109696171.8937751 4938169.222822413 4938169.222822413 11911393.51543411 0 0 0 0 0 109784147.1748769 5139378.756122103 5139378.756122103 10969241.52581801 0 0 0 0 0 109663221.9851424 5218896.00670668 5218896.00670668 10133393.0927373 0 0 0 0 0 109758653.1515137 5320429.588100086 5320429.588100086 8927999.130828219 0 0 0 0 0 109987791.7143575 5428816.084904317 5428816.084904317 8095129.936780389 0 0 0 0 0 109610196.0767158 5179919.883064081 5179919.883064081 7608456.752804904 0 0 0 0 0 109817422.1436425 5268492.426151536 5268492.426151536 6496377.64796156 0 0 0 0 0 109425637.9357341 4986184.595963613 4986184.595963613 6027315.543627848 0 0 0 0 0 104533023.9168697 -6823794.91691188 -6823794.91691188 -7335147.147889074 0 0 0 0 0 105287942.001959 -6323552.69249529 -6323552.69249529 -7439687.293828624 0 0 0 0 0 106003452.4403204 -5778201.381716928 -5778201.381716928 -7486345.724951119 0 0 0 0 0 106670334.8655404 -5200224.202898885 -5200224.202898885 -7476602.673331053 0 0 0 0 0 107283983.7111951 -4594723.999037499 -4594723.999037499 -7405417.276661634 0 0 0 0 0 107839588.5615813 -3968610.323049985 -3968610.323049985 -7271646.293332167 0 0 0 0 0 108333728.3564797 -3328575.786488779 -3328575.786488779 -7074424.584603875 0 0 0 0 0 108762871.4526601 -2681904.94863098 -2681904.94863098 -6814217.770268391 0 0 0 0 0 109125097.0455448 -2035800.906004833 -2035800.906004833 -6492996.254983702 0 0 0 0 0 109421276.9254393 -1395987.672921629 -1395987.672921629 -6111944.067694365 0 0 0 0 0 109651540.2983762 -769468.9088931476 -769468.9088931476 -5675333.798110891 0 0 0 0 0 109814892.9734726 -165827.2401205198 -165827.2401205198 -5190286.076948374 0 0 0 0 0 109906397.4512685 405483.8152665391 405483.8152665391 -4662218.11681696 0 0 0 0 0 109957454.7111348 948324.1874309207 948324.1874309207 -4109532.005631866 0 0 0 0 0 109796973.1919347 1375902.280288036 1375902.280288036 -3603027.485799183 0 0 0 0 0 109928062.0885288 2005417.301785885 2005417.301785885 -2678872.549981611 0 0 0 0 0 109554991.8956111 2348731.886813441 2348731.886813441 -2091292.714094935 0 0 0 0 0 103466135.6746959 -7062558.301845219 -7062558.301845219 -7484561.741739088 0 0 0 0 0 102577786.2224922 -7325246.130483638 -7325246.130483638 -6878847.159391559 0 0 0 0 0 103387575.3209665 -7196670.750605317 -7196670.750605317 -6945968.713166914 0 0 0 0 0 102071131.3712409 -7521532.009098529 -7521532.009098529 -6416781.855337738 0 0 0 0 0 101357175.2842524 -7753036.563527427 -7753036.563527427 -6078039.821805519 0 0 0 0 0 109291773.1899949 2533828.82937341 2533828.82937341 15859497.24404492 0 0 0 0 0 109238513.8684728 3098272.627731804 3098272.627731804 15012602.33018357 0 0 0 0 0 109194864.3023554 3585309.687912843 3585309.687912843 14094170.99742527 0 0 0 0 0 109215055.8002443 4001292.837501965 4001292.837501965 13160143.594897 0 0 0 0 0 109216205.1272565 1546074.000892171 1546074.000892171 16700205.22796313 0 0 0 0 0 109098114.2659986 820859.8557133861 820859.8557133861 16838608.03888027 0 0 0 0 0 109094158.278332 2119793.058163556 2119793.058163556 16098824.45079202 0 0 0 0 0 108767146.8514784 218567.015232385 218567.015232385 16444360.37611287 0 0 0 0 0 109241288.1927892 4344704.499875102 4344704.499875102 12145689.01526085 0 0 0 0 0 109303433.8832041 4656709.994304631 4656709.994304631 11239417.70080478 0 0 0 0 0 109340492.312401 4845020.591932047 4845020.591932047 10062615.06311305 0 0 0 0 0 109234101.9019017 4915709.288601982 4915709.288601982 9390598.998257665 0 0 0 0 0 109444296.1533501 5066336.034958467 5066336.034958467 8478106.787398476 0 0 0 0 0 109556324.7462965 5238062.028271951 5238062.028271951 7419274.83720308 0 0 0 0 0 109254198.2865772 5000208.656764698 5000208.656764698 7014071.335701469 0 0 0 0 0 104261253.9251614 -6573573.417413561 -6573573.417413561 -7571935.936257998 0 0 0 0 0 105004858.700929 -6042202.017694052 -6042202.017694052 -7604000.755781658 0 0 0 0 0 105715605.8586188 -5475514.701857667 -5475514.701857667 -7576532.042281291 0 0 0 0 0 106381474.7795227 -4878978.429634171 -4878978.429634171 -7487086.400179667 0 0 0 0 0 106997628.771706 -4258757.172167119 -4258757.172167119 -7334494.651824502 0 0 0 0 0 107559046.9458406 -3621249.193645678 -3621249.193645678 -7118752.606020533 0 0 0 0 0 108061520.022948 -2973830.888178925 -2973830.888178925 -6840489.629547821 0 0 0 0 0 108501909.3294291 -2323267.684719167 -2323267.684719167 -6500359.780579532 0 0 0 0 0 108878484.2623646 -1676416.410772889 -1676416.410772889 -6103218.68810068 0 0 0 0 0 109191010.1079559 -1039829.663524782 -1039829.663524782 -5650982.814610559 0 0 0 0 0 109438613.3610091 -419164.4485619735 -419164.4485619735 -5153464.271039117 0 0 0 0 0 109623431.5082245 168671.4142625998 168671.4142625998 -4614213.91749226 0 0 0 0 0 109772286.5823814 727175.7175267813 727175.7175267813 -4022601.976683978 0 0 0 0 0 109855450.0037728 1245812.078781399 1245812.078781399 -3452636.153020831 0 0 0 0 0 109993158.7517775 1656738.502855188 1656738.502855188 -3016323.860197776 0 0 0 0 0 109887033.8364449 2302742.509136285 2302742.509136285 -2014122.036048882 0 0 0 0 0 109619936.3433167 1715572.033588316 1715572.033588316 -2865952.244512428 0 0 0 0 0 104138523.6211333 -6745602.176455917 -6745602.176455917 -7036049.739525733 0 0 0 0 0 102745750.0912405 -7240777.950359287 -7240777.950359287 -6747886.666667186 0 0 0 0 0 103141033.6032434 -6958364.255931661 -6958364.255931661 -7177470.294127664 0 0 0 0 0 101259369.6534303 -7689061.033469299 -7689061.033469299 -6652494.553585091 0 0 0 0 0 101911457.3130748 -7419162.007020513 -7419162.007020513 -6732535.494669423 0 0 0 0 0 109051375.2533957 2714264.147728456 2714264.147728456 15456504.79060936 0 0 0 0 0 109024581.8885285 3274611.308548766 3274611.308548766 14724559.31019963 0 0 0 0 0 109041634.7440684 3741882.687730902 3741882.687730902 13986502.58793747 0 0 0 0 0 109093781.8678269 4154155.736662521 4154155.736662521 13182763.78427186 0 0 0 0 0 108883434.9064699 1359896.538601409 1359896.538601409 16340685.36527932 0 0 0 0 0 108808793.8171774 997090.1307025916 997090.1307025916 16512202.66352704 0 0 0 0 0 108791151.1770139 1967413.443197111 1967413.443197111 15847566.46923804 0 0 0 0 0 108492709.2786081 384023.7348030356 384023.7348030356 16156087.23623437 0 0 0 0 0 109121644.0729653 4475657.046107944 4475657.046107944 12390423.52881658 0 0 0 0 0 109174366.2970334 4730094.339300546 4730094.339300546 10857162.0367166 0 0 0 0 0 109118284.8586923 4769321.856161974 4769321.856161974 10896050.00548642 0 0 0 0 0 109171473.1979634 5043254.662601662 5043254.662601662 9337625.493211435 0 0 0 0 0 109408425.165086 5155643.46661383 5155643.46661383 8400316.858407304 0 0 0 0 0 109072527.2403029 4933412.534681807 4933412.534681807 8022255.168415613 0 0 0 0 0 104855857.5111515 -6291126.976849076 -6291126.976849076 -7169924.195869328 0 0 0 0 0 105548308.2475813 -5784293.362347599 -5784293.362347599 -7234054.763250533 0 0 0 0 0 106198561.2302704 -5246531.171197233 -5246531.171197233 -7248647.181896019 0 0 0 0 0 106801159.9571247 -4680840.487133344 -4680840.487133344 -7206207.194602763 0 0 0 0 0 107351083.8218593 -4093528.052007366 -4093528.052007366 -7105869.568709179 0 0 0 0 0 107845074.1454676 -3490252.278056215 -3490252.278056215 -6946633.001256847 0 0 0 0 0 108280038.807807 -2877954.831811388 -2877954.831811388 -6728902.220254873 0 0 0 0 0 108653367.655237 -2263245.20365087 -2263245.20365087 -6452917.499350121 0 0 0 0 0 108965464.6360938 -1650959.842543531 -1650959.842543531 -6118941.460000813 0 0 0 0 0 109214583.3532932 -1049214.025196164 -1049214.025196164 -5732305.85317699 0 0 0 0 0 109401711.1327801 -460857.0124182803 -460857.0124182803 -5292939.275064113 0 0 0 0 0 109552229.7299172 106486.896421008 106486.896421008 -4815254.947168884 0 0 0 0 0 109634195.0631226 622262.2081825808 622262.2081825808 -4314956.324482506 0 0 0 0 0 109727523.7437647 1156412.673423603 1156412.673423603 -3748227.330982331 0 0 0 0 0 109377450.0375469 1289513.838207499 1289513.838207499 -3445469.660362076 0 0 0 0 0 109398333.4869601 1985934.376835027 1985934.376835027 -2611508.018811169 0 0 0 0 0 109794482.2092257 1905759.090570407 1905759.090570407 -2557365.910170459 0 0 0 0 0 103884080.9584891 -6523574.903414818 -6523574.903414818 -7296498.27256796 0 0 0 0 0 102895533.6884015 -6856225.462650828 -6856225.462650828 -6577636.431988862 0 0 0 0 0 103756950.8742302 -6656881.929315816 -6656881.929315816 -6756165.944978519 0 0 0 0 0 101959418.5575477 -7271688.184537104 -7271688.184537104 -6114947.892228398 0 0 0 0 0 102586763.4979868 -7105973.646990452 -7105973.646990452 -6376692.122182451 0 0 0 0 0 108756336.5140322 2546548.982477346 2546548.982477346 15126566.99244355 0 0 0 0 0 108658664.8282426 3060986.671485704 3060986.671485704 14287008.33374061 0 0 0 0 0 108709777.1807189 3530628.099343499 3530628.099343499 13529637.17878967 0 0 0 0 0 108777230.5105275 3947970.255795203 3947970.255795203 12682472.65678576 0 0 0 0 0 108618382.1871443 1539562.77477184 1539562.77477184 15968531.55765958 0 0 0 0 0 108485509.3020692 794388.2801926319 794388.2801926319 16028298.90626914 0 0 0 0 0 108543625.660402 2124131.842890231 2124131.842890231 15283753.10873226 0 0 0 0 0 108178309.0995271 188922.8697514434 188922.8697514434 15716046.28479799 0 0 0 0 0 108813965.4261114 4297951.644848151 4297951.644848151 11572623.48043903 0 0 0 0 0 108804606.1939756 4423440.446466074 4423440.446466074 11682651.54969549 0 0 0 0 0 108875824.2017634 4714001.275141865 4714001.275141865 10103988.40313295 0 0 0 0 0 108858367.0121693 4813934.133364284 4813934.133364284 8948953.474275408 0 0 0 0 0 108669479.9082368 4614780.212580728 4614780.212580728 9955731.948525501 0 0 0 0 0 104586730.6434043 -6031044.924789722 -6031044.924789722 -7350842.042473951 0 0 0 0 0 105275519.6786786 -5503908.623991041 -5503908.623991041 -7349374.569527935 0 0 0 0 0 105924251.9549264 -4947789.582571218 -4947789.582571218 -7290423.852127326 0 0 0 0 0 106527714.9777163 -4367328.655895102 -4367328.655895102 -7172526.904812218 0 0 0 0 0 107081713.4068651 -3768003.190328361 -3768003.190328361 -6995724.408897288 0 0 0 0 0 107582804.3741661 -3155974.563434813 -3155974.563434813 -6760520.048888272 0 0 0 0 0 108027554.5759227 -2538261.793508013 -2538261.793508013 -6467234.739610073 0 0 0 0 0 108412480.0260102 -1921698.618591238 -1921698.618591238 -6117815.716030102 0 0 0 0 0 108739404.0991196 -1311184.753730139 -1311184.753730139 -5716046.96863898 0 0 0 0 0 109007400.7350865 -716054.7234915583 -716054.7234915583 -5259732.629682687 0 0 0 0 0 109198721.3641956 -128154.0687135574 -128154.0687135574 -4797887.395221035 0 0 0 0 0 109383269.4345937 413034.5065821782 413034.5065821782 -4285216.378971247 0 0 0 0 0 109468106.9991594 910560.7628425595 910560.7628425595 -3702543.565615907 0 0 0 0 0 109597864.4161405 1518010.813453155 1518010.813453155 -3019423.619704566 0 0 0 0 0 109231864.5910864 1577953.730729242 1577953.730729242 -3018423.567121829 0 0 0 0 0 104448450.9250641 -6250190.873043636 -6250190.873043636 -6898813.42513756 0 0 0 0 0 102901755.2760225 -6808226.975691005 -6808226.975691005 -6940239.146200962 0 0 0 0 0 102519653.6968792 -7013667.685485413 -7013667.685485413 -6758567.542216016 0 0 0 0 0 103496330.4457065 -6460062.884940511 -6460062.884940511 -7031060.813290274 0 0 0 0 0 101863324.607715 -7199070.644681649 -7199070.644681649 -6601462.461330763 0 0 0 0 0 108536661.3866847 2695821.184589988 2695821.184589988 14699194.33461964 0 0 0 0 0 108471129.7484327 3214768.192464035 3214768.192464035 14060253.16702048 0 0 0 0 0 108542000.6896025 3669483.858115594 3669483.858115594 13168513.3077882 0 0 0 0 0 108642843.6739775 4054240.297838073 4054240.297838073 12378652.90831451 0 0 0 0 0 108258356.1095735 1342083.72840347 1342083.72840347 15602066.95513052 0 0 0 0 0 108253547.8142121 935757.3463448579 935757.3463448579 15772800.87819237 0 0 0 0 0 108358081.4979759 2075233.505332319 2075233.505332319 15287699.64084776 0 0 0 0 0 107923874.8355764 343632.8624620623 343632.8624620623 15453835.77584313 0 0 0 0 0 108565631.8962629 4042562.569682994 4042562.569682994 12391163.67877363 0 0 0 0 0 108582027.6518853 4401175.808309222 4401175.808309222 10944855.10592081 0 0 0 0 0 108473483.2570004 4374811.391864432 4374811.391864432 10902127.99596713 0 0 0 0 0 105122741.2860285 -5774911.147767046 -5774911.147767046 -6980247.576146853 0 0 0 0 0 105755910.2134321 -5275026.887679636 -5275026.887679636 -7018619.164720574 0 0 0 0 0 106345653.0870552 -4747718.0150202 -4747718.0150202 -7002791.910414481 0 0 0 0 0 106888095.3906621 -4197273.986125593 -4197273.986125593 -6931846.033835991 0 0 0 0 0 107379656.2072068 -3629319.039952526 -3629319.039952526 -6805820.031716342 0 0 0 0 0 107817604.2808861 -3049688.701594923 -3049688.701594923 -6625095.44728708 0 0 0 0 0 108198899.5895208 -2465454.082579641 -2465454.082579641 -6390786.864256248 0 0 0 0 0 108524212.5929346 -1881412.183075963 -1881412.183075963 -6101966.162766526 0 0 0 0 0 108794905.274513 -1302027.083039064 -1302027.083039064 -5759533.424260693 0 0 0 0 0 108999068.9612861 -742850.6047684774 -742850.6047684774 -5373334.204332764 0 0 0 0 0 109194368.0418559 -145044.8960166531 -145044.8960166531 -4891792.092556508 0 0 0 0 0 109265239.5927739 338357.4461419639 338357.4461419639 -4460176.906882052 0 0 0 0 0 109196331.0368613 745728.3115087778 745728.3115087778 -4042933.353923346 0 0 0 0 0 108997213.374613 1156088.217841628 1156088.217841628 -3515648.547566843 0 0 0 0 0 104189771.4730035 -6002800.133718945 -6002800.133718945 -7099741.247159752 0 0 0 0 0 103462910.3072763 -6556010.372630487 -6556010.372630487 -6623273.840105485 0 0 0 0 0 102807446.3199863 -6670099.293574739 -6670099.293574739 -6425699.4836043 0 0 0 0 0 104077700.5387725 -6156447.761636874 -6156447.761636874 -6623871.201700645 0 0 0 0 0 102503268.5849984 -6804687.476519162 -6804687.476519162 -6119566.040388495 0 0 0 0 0 108263598.8846601 2523274.200425576 2523274.200425576 14270641.53677692 0 0 0 0 0 108226858.9889725 3064746.810742822 3064746.810742822 13736753.96593275 0 0 0 0 0 108348641.9755142 3595500.555863917 3595500.555863917 13064645.52907441 0 0 0 0 0 108053310.4765139 1494897.701301147 1494897.701301147 15297547.87964488 0 0 0 0 0 107927222.3055678 726559.6631540323 726559.6631540323 15177488.71362868 0 0 0 0 0 108061007.1085048 2086637.956164916 2086637.956164916 14298243.15211524 0 0 0 0 0 107654624.1806034 179996.2690625672 179996.2690625672 15102992.79308259 0 0 0 0 0 108355984.7413381 4032353.046759808 4032353.046759808 11692943.71132695 0 0 0 0 0 108257691.1242003 4039394.377577825 4039394.377577825 11712617.98699526 0 0 0 0 0 104864555.8715884 -5515798.716012742 -5515798.716012742 -7120956.426992579 0 0 0 0 0 105494766.5946967 -4997968.945271554 -4997968.945271554 -7089366.706003033 0 0 0 0 0 106084992.9299939 -4455212.870048242 -4455212.870048242 -7001684.719351146 0 0 0 0 0 106630080.3147603 -3892480.768697983 -3892480.768697983 -6859046.775914017 0 0 0 0 0 107126932.0785609 -3314961.364436692 -3314961.364436692 -6661824.109056802 0 0 0 0 0 107572500.4972637 -2728674.847878905 -2728674.847878905 -6411882.560175168 0 0 0 0 0 107962744.3418842 -2139736.996757769 -2139736.996757769 -6109081.130176049 0 0 0 0 0 108300839.2010043 -1555767.832462983 -1555767.832462983 -5751920.48569143 0 0 0 0 0 108590042.4520574 -983885.6233581213 -983885.6233581213 -5350196.213744144 0 0 0 0 0 108806040.1355905 -413155.6051222611 -413155.6051222611 -4853982.135959264 0 0 0 0 0 108882240.9053928 89769.77844785294 89769.77844785294 -4480172.838551391 0 0 0 0 0 109234943.154517 611499.2181992672 611499.2181992672 -3869933.963942214 0 0 0 0 0 109278457.2856313 1082683.541209853 1082683.541209853 -3404811.832757547 0 0 0 0 0 104724845.1021125 -5749476.757405962 -5749476.757405962 -6741248.025593862 0 0 0 0 0 103248483.5006834 -6324074.36724312 -6324074.36724312 -6732836.401723567 0 0 0 0 0 102443166.4607826 -6758615.02985339 -6758615.02985339 -6571603.966372372 0 0 0 0 0 103854154.7808568 -5962224.910393347 -5962224.910393347 -6857953.525824901 0 0 0 0 0 108098695.2061557 2546220.770373117 2546220.770373117 14638328.38644512 0 0 0 0 0 108004631.9962985 3145259.794747845 3145259.794747845 13054318.46850061 0 0 0 0 0 108148188.793866 3628518.269906355 3628518.269906355 12406235.31385337 0 0 0 0 0 107761361.154937 1298625.159743875 1298625.159743875 14747361.8005013 0 0 0 0 0 107709131.5923755 805215.6909911569 805215.6909911569 15227865.91402065 0 0 0 0 0 107849296.2267123 1970383.753737536 1970383.753737536 14893228.66985995 0 0 0 0 0 107454067.5667965 317542.4487722593 317542.4487722593 14740962.10753713 0 0 0 0 0 108052319.3161771 3647508.377023695 3647508.377023695 12454888.64943104 0 0 0 0 0 105340517.8533075 -5288980.741762462 -5288980.741762462 -6793129.429069261 0 0 0 0 0 105917190.877569 -4796597.96248871 -4796597.96248871 -6796935.464143577 0 0 0 0 0 106450138.6332878 -4281752.043655565 -4281752.043655565 -6752186.686116987 0 0 0 0 0 106937025.9882881 -3747959.034843853 -3747959.034843853 -6655572.60445985 0 0 0 0 0 107374622.3574195 -3200367.507234685 -3200367.507234685 -6507246.279890892 0 0 0 0 0 107758492.9086633 -2645322.97223089 -2645322.97223089 -6308548.899873712 0 0 0 0 0 108077007.1624303 -2092167.271122087 -2092167.271122087 -6062779.926587353 0 0 0 0 0 108337833.4160825 -1550275.569844366 -1550275.569844366 -5783708.801909728 0 0 0 0 0 108530099.980139 -1030341.355690611 -1030341.355690611 -5476033.754248025 0 0 0 0 0 108610936.4904554 -539462.9448982936 -539462.9448982936 -5112959.835137467 0 0 0 0 0 109091577.3545244 255429.7094858747 255429.7094858747 -4236478.410543538 0 0 0 0 0 108798962.5668546 351380.9483300849 351380.9483300849 -4358493.261457086 0 0 0 0 0 108757796.0054573 773104.3082565591 773104.3082565591 -3901873.630022026 0 0 0 0 0 104489907.2712373 -5517525.122144399 -5517525.122144399 -6893917.037327809 0 0 0 0 0 103710371.7993371 -6065717.180580266 -6065717.180580266 -6389404.62903802 0 0 0 0 0 103004361.4232523 -6350100.87430212 -6350100.87430212 -6090617.77145168 0 0 0 0 0 104356498.1507284 -5711429.610219776 -5711429.610219776 -6485680.967286676 0 0 0 0 0 107741438.5964606 2434050.375654421 2434050.375654421 13514637.81918045 0 0 0 0 0 107736025.6994206 2708587.552802541 2708587.552802541 13820200.18365813 0 0 0 0 0 107873532.1725464 3192671.272388901 3192671.272388901 13150974.07345792 0 0 0 0 0 107555254.9068788 1404422.12061512 1404422.12061512 14185064.62018135 0 0 0 0 0 107458472.5576756 731819.0843914818 731819.0843914818 14409446.72956197 0 0 0 0 0 107502732.9257781 1833094.868632382 1833094.868632382 13849864.63172103 0 0 0 0 0 107319856.6997058 306213.8351911834 306213.8351911834 14834293.95566736 0 0 0 0 0 105095898.9503895 -5032852.494352343 -5032852.494352343 -6882846.702545801 0 0 0 0 0 105668190.7692682 -4524093.063835909 -4524093.063835909 -6825036.023060555 0 0 0 0 0 106203278.7302169 -3996682.142204798 -3996682.142204798 -6712446.02318732 0 0 0 0 0 106694516.6895189 -3453042.642663733 -3453042.642663733 -6548025.203555422 0 0 0 0 0 107139991.3190778 -2899476.942377831 -2899476.942377831 -6332290.156247823 0 0 0 0 0 107536855.0380154 -2343606.498479577 -2343606.498479577 -6066124.422684872 0 0 0 0 0 107865862.208682 -1783838.463886169 -1783838.463886169 -5755844.692020724 0 0 0 0 0 108230184.5077597 -1246563.923914885 -1246563.923914885 -5366269.571077961 0 0 0 0 0 108496952.6622773 -706137.2125326244 -706137.2125326244 -4906382.074785196 0 0 0 0 0 108703272.9702206 -152971.7951598222 -152971.7951598222 -4476290.126720968 0 0 0 0 0 108588197.5065205 -51025.55987649554 -51025.55987649554 -4648088.403128234 0 0 0 0 0 108979442.6106573 681264.5610559195 681264.5610559195 -3756902.844376042 0 0 0 0 0 104947834.3058537 -5296676.766157904 -5296676.766157904 -6563959.499562126 0 0 0 0 0 103495108.8102764 -5900436.892730681 -5900436.892730681 -6611507.440152016 0 0 0 0 0 102860871.2859939 -6268604.470547891 -6268604.470547891 -6498415.975018642 0 0 0 0 0 104117743.692717 -5503533.113448906 -5503533.113448906 -6682440.396158114 0 0 0 0 0 107585096.1739202 2168203.079619873 2168203.079619873 14253722.71420317 0 0 0 0 0 107386701.9018985 955688.6278172162 955688.6278172162 14807901.26215351 0 0 0 0 0 107454007.1385667 1549491.791410735 1549491.791410735 14539988.86204002 0 0 0 0 0 105514000.9148851 -4832900.095752069 -4832900.095752069 -6586918.056132252 0 0 0 0 0 106036836.7955504 -4348177.306826803 -4348177.306826803 -6569539.867858029 0 0 0 0 0 106517722.1421163 -3847571.557745751 -3847571.557745751 -6498984.392798963 0 0 0 0 0 106955682.5939373 -3331013.646120636 -3331013.646120636 -6379404.686009441 0 0 0 0 0 107346652.3402969 -2805764.830062244 -2805764.830062244 -6212384.642062438 0 0 0 0 0 107693514.6234895 -2277604.361242692 -2277604.361242692 -5999731.762981316 0 0 0 0 0 107991042.1714658 -1730342.011233532 -1730342.011233532 -5719762.379240195 0 0 0 0 0 108144986.4516089 -1304440.298025269 -1304440.298025269 -5504872.39957163 0 0 0 0 0 108208929.7105928 -886602.7445318375 -886602.7445318375 -5257487.492812511 0 0 0 0 0 108235115.0079098 -409864.9275811128 -409864.9275811128 -4895048.207348644 0 0 0 0 0 108726577.3825621 294620.34224585 294620.34224585 -4012397.650041621 0 0 0 0 0 108511647.8935598 408543.1888075421 408543.1888075421 -4194449.302970449 0 0 0 0 0 104721706.0602789 -5057703.836424961 -5057703.836424961 -6684360.268207744 0 0 0 0 0 104037453.3580001 -5592999.00376913 -5592999.00376913 -6211514.549167863 0 0 0 0 0 103418197.4958136 -5917790.601158158 -5917790.601158158 -6044998.898575915 0 0 0 0 0 104612049.9002184 -5247831.979411459 -5247831.979411459 -6322318.590585823 0 0 0 0 0 105286113.3223151 -4576153.469167572 -4576153.469167572 -6642040.285454956 0 0 0 0 0 105800793.2859618 -4081781.060066587 -4081781.060066587 -6559331.347450001 0 0 0 0 0 106283887.0069079 -3569840.930241911 -3569840.930241911 -6425552.648414268 0 0 0 0 0 106728031.8734833 -3046817.628767679 -3046817.628767679 -6243607.909377676 0 0 0 0 0 107125089.8689637 -2516150.358875048 -2516150.358875048 -6017567.259871729 0 0 0 0 0 107476447.3716485 -1975273.045889742 -1975273.045889742 -5730528.369386116 0 0 0 0 0 107700422.9864461 -1520205.001118322 -1520205.001118322 -5464850.228664427 0 0 0 0 0 108156058.1275147 -1013495.366290603 -1013495.366290603 -5054262.551053473 0 0 0 0 0 108310259.5472597 -548980.7978368418 -548980.7978368418 -4687168.543452515 0 0 0 0 0 108447823.140598 -68695.03894007792 -68695.03894007792 -4259635.713920722 0 0 0 0 0 108250012.4982069 37046.32258672445 37046.32258672445 -4433803.333688218 0 0 0 0 0 105147045.1986196 -4853936.919208673 -4853936.919208673 -6381077.739064381 0 0 0 0 0 103239975.344208 -5803443.176058972 -5803443.176058972 -6431299.531101418 0 0 0 0 0 103821324.9402897 -5452960.38876959 -5452960.38876959 -6519476.034105148 0 0 0 0 0 104366565.2961628 -5066709.947765612 -5066709.947765612 -6545007.312577468 0 0 0 0 0 105646355.6649851 -4406918.476227669 -4406918.476227669 -6385446.844882248 0 0 0 0 0 106119777.173155 -3929817.688696906 -3929817.688696906 -6339502.235150109 0 0 0 0 0 106555690.9466186 -3441911.623057173 -3441911.623057173 -6245613.004625333 0 0 0 0 0 106946102.294255 -2945801.735206189 -2945801.735206189 -6106921.080845143 0 0 0 0 0 107289738.1307086 -2441410.016049834 -2441410.016049834 -5922500.19602988 0 0 0 0 0 107563572.666581 -1943897.493824151 -1943897.493824151 -5697388.550711236 0 0 0 0 0 107949473.7168269 -1317910.408878015 -1317910.408878015 -5211124.519562593 0 0 0 0 0 107797867.8435118 -1213151.018344656 -1213151.018344656 -5403428.134283405 0 0 0 0 0 107915560.1984845 -767124.3107622311 -767124.3107622311 -5065774.180345313 0 0 0 0 0 107955339.6563722 -335177.3427025707 -335177.3427025707 -4689860.38552518 0 0 0 0 0 104932275.4616246 -4629783.165973131 -4629783.165973131 -6478486.520049721 0 0 0 0 0 103804324.4589764 -5468692.812279913 -5468692.812279913 -5968447.475838894 0 0 0 0 0 104348191.7127767 -5142576.137939882 -5142576.137939882 -6089075.297808202 0 0 0 0 0 104849666.2261861 -4811723.111940525 -4811723.111940525 -6172814.899251775 0 0 0 0 0 105438611.979257 -4147950.817565511 -4147950.817565511 -6405867.252823289 0 0 0 0 0 105898658.8573462 -3667348.482197543 -3667348.482197543 -6295075.495454196 0 0 0 0 0 106338186.1357295 -3175708.078037395 -3175708.078037395 -6141259.042546497 0 0 0 0 0 106735656.2814336 -2674212.536477547 -2674212.536477547 -5941330.306655142 0 0 0 0 0 107087096.5880152 -2171516.021927486 -2171516.021927486 -5700940.265110582 0 0 0 0 0 107434779.2024916 -1600392.287075523 -1600392.287075523 -5369619.434936046 0 0 0 0 0 107544273.3867946 -1533302.394570902 -1533302.394570902 -5487768.307446214 0 0 0 0 0 107985663.7262225 -887026.1889642203 -887026.1889642203 -4862892.613188304 0 0 0 0 0 108098486.3292103 -452146.0186540712 -452146.0186540712 -4493515.698352506 0 0 0 0 0 105282194.6285402 -4472084.458007446 -4472084.458007446 -6245553.594639637 0 0 0 0 0 103611368.9128387 -5345363.728760761 -5345363.728760761 -6302306.522785325 0 0 0 0 0 104137813.4349316 -5009045.606153245 -5009045.606153245 -6376410.783375293 0 0 0 0 0 104590554.4925966 -4642276.977399913 -4642276.977399913 -6382127.044314309 0 0 0 0 0 105697292.7568123 -4034902.965485067 -4034902.965485067 -6242520.008816974 0 0 0 0 0 106177403.6072292 -3535968.342439412 -3535968.342439412 -6102675.942962859 0 0 0 0 0 106567963.7868964 -3068377.421846191 -3068377.421846191 -5993014.730379477 0 0 0 0 0 106921489.2910407 -2590711.477098574 -2590711.477098574 -5837031.092088129 0 0 0 0 0 107240854.3830186 -2108511.323629384 -2108511.323629384 -5643451.777242701 0 0 0 0 0 107458058.9633685 -1619505.059223589 -1619505.059223589 -5399975.101248638 0 0 0 0 0 107671039.0936144 -1204750.406352269 -1204750.406352269 -4952220.854843416 0 0 0 0 0 107616710.5321591 -1090387.788394979 -1090387.788394979 -5178462.602745826 0 0 0 0 0 107657356.8710935 -685595.5055539851 -685595.5055539851 -4874920.146953688 0 0 0 0 0 105141759.6136607 -4205981.513102225 -4205981.513102225 -6131073.118101076 0 0 0 0 0 104124377.1525778 -5039531.519969139 -5039531.519969139 -5876067.946488493 0 0 0 0 0 104637182.0248441 -4710102.291588714 -4710102.291588714 -5951531.688217719 0 0 0 0 0 105075571.1838064 -4372134.273888077 -4372134.273888077 -5964372.08091304 0 0 0 0 0 105520648.9755241 -3757811.482674826 -3757811.482674826 -6147242.348287085 0 0 0 0 0 105963617.9563876 -3281898.622958562 -3281898.622958562 -6035188.305656383 0 0 0 0 0 106360855.3428199 -2808693.078828279 -2808693.078828279 -5865447.763145261 0 0 0 0 0 106718286.1817209 -2321258.872660162 -2321258.872660162 -5644590.635891498 0 0 0 0 0 107018654.9428003 -1823811.473683462 -1823811.473683462 -5362755.705142193 0 0 0 0 0 107125029.5689177 -1442774.698468832 -1442774.698468832 -5298269.124652923 0 0 0 0 0 107785541.530864 -806840.6506463065 -806840.6506463065 -4680648.549711127 0 0 0 0 0 104946983.9017377 -4272517.688085732 -4272517.688085732 -6234793.452423969 0 0 0 0 0 103931166.6944529 -4916909.696448522 -4916909.696448522 -6170597.384098514 0 0 0 0 0 104430219.6755144 -4583146.341809785 -4583146.341809785 -6191534.98696517 0 0 0 0 0 105798063.0413243 -3609976.095592685 -3609976.095592685 -5917172.056946962 0 0 0 0 0 106194783.5820388 -3172294.819028161 -3172294.819028161 -5878353.632125742 0 0 0 0 0 106540823.9307766 -2724676.643696847 -2724676.643696847 -5749556.975484814 0 0 0 0 0 106837670.6047565 -2274483.842715056 -2274483.842715056 -5593518.033776949 0 0 0 0 0 107075776.9358492 -1821053.743360833 -1821053.743360833 -5387037.223282075 0 0 0 0 0 107478179.6341508 -1140162.432647311 -1140162.432647311 -4834238.875596546 0 0 0 0 0 107349009.1102042 -1024163.906988851 -1024163.906988851 -5023675.2126638 0 0 0 0 0 105305131.9999307 -3931194.188701589 -3931194.188701589 -5850766.587586322 0 0 0 0 0 104416091.84581 -4622692.380979024 -4622692.380979024 -5760073.843629028 0 0 0 0 0 104880866.5392691 -4299002.338696351 -4299002.338696351 -5824999.104713403 0 0 0 0 0 105587977.0385152 -3376796.588257438 -3376796.588257438 -5926025.870726688 0 0 0 0 0 105172089.6424051 -3845858.275985098 -3845858.275985098 -6072495.347247534 0 0 0 0 0 105997285.3217205 -2929817.242100412 -2929817.242100412 -5780257.327479059 0 0 0 0 0 106375672.1601269 -2468842.691854151 -2468842.691854151 -5577224.339717735 0 0 0 0 0 106687080.8388265 -1992315.924175984 -1992315.924175984 -5313998.340024048 0 0 0 0 0 106943214.8034016 -1482517.236872558 -1482517.236872558 -4981169.59845249 0 0 0 0 0 107036256.0616536 -1344555.142925469 -1344555.142925469 -5127070.875457359 0 0 0 0 0 104645561.6346976 -4156228.991298652 -4156228.991298652 -6066960.702984248 0 0 0 0 0 104206446.0626081 -4490271.188684314 -4490271.188684314 -6034463.590020108 0 0 0 0 0 105844162.2803801 -3254949.046042876 -3254949.046042876 -5750410.760454576 0 0 0 0 0 105520649.1196422 -3574365.557331884 -3574365.557331884 -5689806.735166142 0 0 0 0 0 106177762.3512804 -2840851.10250738 -2840851.10250738 -5654157.764481025 0 0 0 0 0 106431973.0309897 -2449908.949052779 -2449908.949052779 -5564523.90796432 0 0 0 0 0 106631101.7798302 -2036488.522437531 -2036488.522437531 -5401995.642680391 0 0 0 0 0 106727587.8554324 -1599566.576295507 -1599566.576295507 -5167134.637224872 0 0 0 0 0 105066475.5824575 -3864690.116647838 -3864690.116647838 -5649891.401873167 0 0 0 0 0 104661012.4712358 -4214599.373069744 -4214599.373069744 -5629433.006760377 0 0 0 0 0 105633827.350218 -3036344.142623923 -3036344.142623923 -5686913.815628423 0 0 0 0 0 105294367.1773517 -3437386.040977008 -3437386.040977008 -5807642.59907297 0 0 0 0 0 104945458.766633 -3775979.309902624 -3775979.309902624 -5897266.082874055 0 0 0 0 0 106032382.9466145 -2616636.589628473 -2616636.589628473 -5489322.836434991 0 0 0 0 0 106380791.792855 -2180991.795124627 -2180991.795124627 -5262089.602984643 0 0 0 0 0 106660826.9505121 -1725651.491234024 -1725651.491234024 -4991593.921443588 0 0 0 0 0 104421581.9321715 -4061192.764964878 -4061192.764964878 -5869697.741058933 0 0 0 0 0 105846984.3228395 -2927212.95922077 -2927212.95922077 -5546922.09699492 0 0 0 0 0 105534353.3692536 -3322115.984657875 -3322115.984657875 -5665121.119281674 0 0 0 0 0 105178314.5444378 -3467288.883455356 -3467288.883455356 -5566013.582243402 0 0 0 0 0 106106369.43878 -2590344.248397808 -2590344.248397808 -5477338.765236292 0 0 0 0 0 106273527.3033953 -2246145.953812461 -2246145.953812461 -5388864.795892961 0 0 0 0 0 106405695.3624907 -1858537.837246116 -1858537.837246116 -5211319.03397744 0 0 0 0 0 104844039.336819 -3819776.161307618 -3819776.161307618 -5491969.287689134 0 0 0 0 0 105391263.2934289 -3107733.939758885 -3107733.939758885 -5553563.480727959 0 0 0 0 0 105655941.9201592 -2753397.630147595 -2753397.630147595 -5454002.455328732 0 0 0 0 0 105033965.9497815 -3502928.259503846 -3502928.259503846 -5618961.795187595 0 0 0 0 0 106068665.6857039 -2379249.428869701 -2379249.428869701 -5232492.839666143 0 0 0 0 0 106333266.0703797 -1970325.08138009 -1970325.08138009 -5021953.207632031 0 0 0 0 0 104646052.9964865 -3648652.273877683 -3648652.273877683 -5580624.12955344 0 0 0 0 0 105510417.8675491 -3038677.497675242 -3038677.497675242 -5414380.209071181 0 0 0 0 0 105909367.5599082 -2572899.65439077 -2572899.65439077 -5186200.765856965 0 0 0 0 0 105176714.7072247 -3216911.573435635 -3216911.573435635 -5341042.11796796 0 0 0 0 0 105876190.9551877 -2481168.312244008 -2481168.312244008 -5414620.079929186 0 0 0 0 0 106076013.640133 -2106499.012665534 -2106499.012665534 -5250626.182261647 0 0 0 0 0 104965512.4916176 -3486486.838519368 -3486486.838519368 -5350712.127988528 0 0 0 0 0 105510152.2521542 -2786649.205271722 -2786649.205271722 -5252432.521164626 0 0 0 0 0 105278724.0248705 -3175301.12650365 -3175301.12650365 -5497754.868303328 0 0 0 0 0 105524824.899037 -2739280.417296206 -2739280.417296206 -5405434.314008292 0 0 0 0 0 104760083.301649 -3372068.965836011 -3372068.965836011 -5538063.302682385 0 0 0 0 0 106019586.9520689 -2210187.491273029 -2210187.491273029 -5037199.329144318 0 0 0 0 0 105273270.2846454 -2921778.432236805 -2921778.432236805 -5326086.339858918 0 0 0 0 0 105725597.0990078 -2453747.719195976 -2453747.719195976 -5025157.485605735 0 0 0 0 0 105109368.5262234 -3126486.987027225 -3126486.987027225 -5183431.37587056 0 0 0 0 0 105751642.880772 -2343020.646570054 -2343020.646570054 -5249829.686646058 0 0 0 0 0 105357095.5728716 -2874967.450478039 -2874967.450478039 -5235905.857294426 0 0 0 0 0 105433484.9044775 -2576951.265459513 -2576951.265459513 -5213663.937935477 0 0 0 0 0 104911317.3339111 -3021583.009781357 -3021583.009781357 -5305849.952179951 0 0 0 0 0 105266316.7522689 -2662029.281643879 -2662029.281643879 -5059245.024632249 0 0 0 0 0 105176504.3488958 -2807613.907607507 -2807613.907607507 -5022616.290864009 0 0 0 0 0 105114027.7600371 -2749981.608411155 -2749981.608411155 -5174202.527591865 0 0 0 0 0 </DataArray>
      </CellData>
      <PointData>
        <DataArray type="Int64" IdType="1" Name="vtkOriginalPointIds" format="ascii" RangeMin="0" RangeMax="1811">154 0 1771 5 214 1214 153 6 1102 1213 209 7 152 1731 1211 8 185 1098 975 1212 181 151 1757 9 1591 1766 766 749 1050 1263 1714 150 1166 10 1768 1065 673 1173 672 1421 1783 1047 11 149 1071 999 1088 171 165 1806 757 571 1415 1191 668 681 1027 12 148 1131 659 1722 1320 13 1101 1700 756 565 514 1414 570 669 682 1077 1389 203 147 1129 625 1761 14 188 1797 984 1130 513 1538 464 480 504 1018 1310 914 1070 1394 1704 15 146 983 1464 160 16 1112 1128 755 1484 418 1323 1565 441 481 509 1577 913 689 1371 1082 1730 145 1079 692 1161 1794 17 155 219 1526 560 763 414 413 454 776 1500 1003 1160 1163 676 675 951 1066 204 1275 144 221 629 1388 18 217 218 220 223 225 916 394 1522 412 703 1007 1198 1193 773 1278 615 670 952 1274 1441 1133 143 222 1509 1672 19 1799 189 1109 500 1668 224 226 1669 391 393 634 1448 1524 1561 636 696 765 614 546 1427 1276 1039 1737 1068 1038 20 21 168 142 1458 229 988 1456 22 1111 1699 1132 1695 992 227 228 1417 390 389 423 635 1301 786 1332 695 764 769 543 544 582 1418 702 1248 974 1791 207 23 25 26 1696 176 24 1472 141 1457 230 1134 1726 1759 1764 27 28 190 166 1069 904 1692 940 941 1471 231 233 388 1331 387 1468 705 392 521 540 1277 1533 1292 542 545 583 600 683 1393 1067 1150 1245 1254 1749 29 30 216 140 1798 1010 232 1293 1042 1255 1253 1244 1777 1 1118 1756 1242 881 859 857 858 1009 1550 1557 234 385 1322 1251 386 1250 1252 520 539 541 986 611 534 1465 586 587 601 684 743 1149 1697 1205 704 1702 31 139 1505 235 237 744 778 680 1202 1201 1116 985 962 882 860 841 840 1513 1442 994 1425 236 384 383 1365 889 1487 890 1335 1469 709 900 700 610 243 1537 708 1470 685 686 1151 1204 1773 630 211 32 138 853 1568 238 1493 777 574 1203 1200 186 1043 963 884 883 1529 822 821 1367 839 879 987 239 376 1373 382 469 487 1566 1190 993 1022 1016 1017 701 1651 1508 1604 1608 929 771 1625 631 573 1701 1199 33 137 1753 851 1156 240 1159 1222 486 1732 1075 1103 1139 1044 1045 1519 1154 1155 1532 815 816 820 838 901 1138 241 375 365 642 445 470 488 1579 1189 1031 1221 1586 1273 1653 1424 537 1272 1631 1021 459 1688 572 1074 34 184 136 1478 475 242 1620 458 484 1788 1073 215 1104 1140 1246 1763 824 1188 1562 811 812 817 825 850 1543 1157 244 364 1370 324 1368 1511 612 613 1572 1656 1652 345 1303 1271 953 1423 1639 378 1614 442 1479 1684 1054 35 1284 135 1141 856 1192 245 401 457 485 1072 1770 1781 1685 1136 837 823 818 813 808 809 1536 1489 852 854 1544 1636 246 321 1299 1558 323 329 711 706 707 334 894 896 344 354 366 927 1144 1385 377 440 1053 1346 1052 36 4 1262 1747 1488 1547 247 399 1680 1682 1712 1746 134 210 1808 1095 835 819 1336 814 807 805 1329 1582 923 855 880 1183 1184 248 320 319 1279 1280 325 332 1580 892 893 340 895 897 350 362 374 1143 536 250 1679 1041 1040 174 1051 37 133 1135 1142 262 249 400 1220 1325 1800 132 1175 1094 877 836 848 1525 1396 804 803 1300 1594 1451 885 995 368 266 256 318 1507 317 781 1587 548 1665 1261 1152 1482 361 1146 1549 1670 1673 1145 252 251 1219 967 736 38 1283 1265 182 1182 263 1503 1675 768 734 131 878 1096 870 869 849 1606 1209 802 801 826 1602 1187 1186 1623 270 267 538 316 907 1662 315 1288 518 1185 1667 1260 395 1289 1270 517 1576 1033 254 253 915 1218 966 735 39 194 130 1809 280 1616 1601 958 733 1097 627 1474 1137 1769 887 1611 1206 1207 810 800 799 1362 1599 1605 289 282 271 1624 1309 314 1447 1257 1177 304 302 300 1005 961 298 296 294 770 292 257 255 1516 1411 1330 973 1514 40 1282 129 281 1298 1006 661 597 1706 626 1196 1728 172 128 1194 998 1000 1208 1210 798 797 1285 886 1290 287 283 369 1637 780 313 331 1258 1256 1176 303 301 299 1004 662 297 295 293 261 258 259 647 1341 595 1556 910 41 164 1540 1297 779 594 596 1736 909 1195 1197 1691 127 866 865 1461 1486 1439 796 794 792 790 306 288 1521 1548 1644 652 322 1658 1181 1343 699 1180 1646 1643 398 1467 1634 1632 535 1498 260 264 1490 1008 551 1046 911 42 1296 1012 653 633 550 1515 1776 1552 1443 1328 206 126 864 862 861 1312 806 795 793 791 789 307 308 1302 955 1647 621 1648 1178 1002 926 698 585 1243 1268 1267 1638 1026 1311 1628 908 265 268 1387 1386 533 1087 1686 43 195 714 1337 499 531 580 1014 876 1058 1792 125 863 834 831 828 827 1485 912 1535 1438 309 310 476 945 1650 620 1030 1338 1174 1001 784 584 530 772 1266 946 947 996 1259 1483 269 272 402 404 532 1355 1356 1744 44 1395 555 950 439 529 1013 1551 888 1056 1750 124 1426 832 830 829 868 1570 1363 516 326 311 312 552 1422 1654 891 715 716 718 1179 1520 1333 528 720 722 724 948 1148 645 274 273 284 403 405 1499 45 1357 1358 161 618 957 1455 527 1531 1774 1495 1057 1113 123 842 833 1466 905 1019 1585 1264 333 330 1569 1542 619 739 1655 1546 589 588 717 719 1249 524 525 721 723 1459 1153 1364 276 275 1491 1492 424 425 568 46 158 741 1359 1718 738 1409 1342 526 632 1786 1234 1501 1224 122 843 844 1527 1020 1589 353 341 339 1564 1172 990 989 1657 1307 640 515 1384 489 1510 787 490 523 1428 1318 1462 446 278 277 644 1563 918 426 427 569 47 1360 740 205 991 1306 431 1477 666 976 1076 875 846 121 845 867 1613 1232 1233 352 346 347 1596 1171 1170 1164 1660 463 433 461 1287 1011 462 1321 1314 522 1315 1317 1440 285 279 1497 1588 1291 1480 428 429 920 48 964 1361 1775 1165 435 432 1541 1574 1733 959 871 847 1081 120 1619 1229 1228 1231 363 357 1663 1286 960 1223 650 649 1659 437 434 451 422 420 419 1450 1313 519 1316 1319 290 286 305 1600 933 732 549 430 1463 1567 49 1727 180 1738 1241 436 1593 1437 924 1375 1326 1689 872 873 119 1618 1227 411 379 367 1664 1032 783 782 1366 556 507 448 447 438 450 467 421 397 371 360 351 348 327 291 1539 1607 934 928 731 726 785 1168 725 50 925 1374 169 466 1640 1635 566 742 1767 968 1710 874 1626 118 1230 1226 410 380 381 1666 956 660 590 557 508 506 465 547 1345 1506 468 1419 396 370 359 349 335 328 1410 1340 1603 1609 1612 1621 942 1167 944 674 51 1810 1376 1377 1240 505 1642 1344 567 752 969 1083 970 1641 117 512 443 417 1671 1216 1215 1327 591 559 558 1453 602 1512 1645 949 1598 648 1597 1590 616 1554 1502 336 337 1339 1334 637 932 1392 1633 1169 654 655 1380 52 1378 156 208 603 1372 657 651 1379 971 1238 1147 1622 116 477 444 1674 1217 767 727 593 592 1504 1553 898 697 943 1649 694 1029 1610 1025 1444 1573 1434 1435 338 342 471 473 491 1391 617 1627 606 607 656 1693 53 1683 1381 1239 1785 737 751 693 1617 1719 1237 1236 577 553 115 478 479 1676 1324 728 623 622 624 1023 1575 972 1715 1630 954 750 712 1369 906 1305 1308 713 355 343 358 472 474 492 496 498 503 605 1481 902 938 54 197 1398 177 1742 1784 939 1724 935 1739 1086 1235 576 554 114 1678 1162 1034 730 729 1517 748 758 1024 1790 1350 1352 1354 1629 1105 638 639 1304 788 1433 372 356 1460 641 1475 493 494 497 502 604 687 1518 1725 936 55 1397 1780 1085 1705 1349 1106 1107 667 997 762 658 578 581 113 1681 1035 754 753 965 1741 1080 1496 1729 159 1351 1353 179 1740 1793 157 609 562 483 455 406 373 1429 1534 1560 917 495 1452 564 1476 688 977 1117 1796 937 56 1399 1811 1048 1530 1348 89 1158 1584 1760 759 663 1555 1687 112 1037 1036 1523 1055 1295 1807 1347 94 93 92 91 90 88 87 608 561 482 449 407 408 903 1413 1581 1015 1247 1592 1595 1028 980 1084 196 1716 1403 57 163 1782 1225 191 1754 192 95 86 1431 760 761 1063 1690 111 1093 1108 1765 1281 167 1294 96 1571 563 1545 1449 409 415 1412 710 1578 1583 930 931 1615 1110 1803 1734 85 1126 1402 58 1743 1061 1709 97 1401 1125 1752 1060 1062 1064 1755 110 1805 193 99 98 1420 1559 1383 1430 416 452 598 646 665 746 922 1049 1721 162 84 1804 1124 59 200 1092 1078 1711 1707 100 83 1123 1789 1269 1703 175 109 101 1390 919 1382 456 453 501 599 664 745 921 1446 1772 1400 82 1127 1122 60 212 187 1779 102 775 104 103 1723 3 678 643 510 460 1445 1494 671 1454 1059 1119 198 81 173 61 1120 105 107 108 106 1720 774 677 628 511 575 1416 1528 1677 1801 1735 170 80 1713 62 1121 79 1748 899 1436 579 679 979 1090 1405 1404 78 63 1717 1408 1762 1787 1473 691 690 978 1089 1115 199 77 64 183 1407 981 747 1432 1114 178 76 1661 65 1406 75 982 1758 1091 1745 1694 74 202 66 1099 1100 1802 201 73 67 1751 1795 1698 1708 72 68 213 71 69 1778 70 2 </DataArray>
        <DataArray type="UInt8" Name="vtkGhostType" format="ascii" RangeMin="0" RangeMax="0">0 0 0 0 0 0 0 0 0 0 0 0 0 0 0 0 0 0 0 0 0 0 0 0 0 0 0 0 0 0 0 0 0 0 0 0 0 0 0 0 0 0 0 0 0 0 0 0 0 0 0 0 0 0 0 0 0 0 0 0 0 0 0 0 0 0 0 0 0 0 0 0 0 0 0 0 0 0 0 0 0 0 0 0 0 0 0 0 0 0 0 0 0 0 0 0 0 0 0 0 0 0 0 0 0 0 0 0 0 0 0 0 0 0 0 0 0 0 0 0 0 0 0 0 0 0 0 0 0 0 0 0 0 0 0 0 0 0 0 0 0 0 0 0 0 0 0 0 0 0 0 0 0 0 0 0 0 0 0 0 0 0 0 0 0 0 0 0 0 0 0 0 0 0 0 0 0 0 0 0 0 0 0 0 0 0 0 0 0 0 0 0 0 0 0 0 0 0 0 0 0 0 0 0 0 0 0 0 0 0 0 0 0 0 0 0 0 0 0 0 0 0 0 0 0 0 0 0 0 0 0 0 0 0 0 0 0 0 0 0 0 0 0 0 0 0 0 0 0 0 0 0 0 0 0 0 0 0 0 0 0 0 0 0 0 0 0 0 0 0 0 0 0 0 0 0 0 0 0 0 0 0 0 0 0 0 0 0 0 0 0 0 0 0 0 0 0 0 0 0 0 0 0 0 0 0 0 0 0 0 0 0 0 0 0 0 0 0 0 0 0 0 0 0 0 0 0 0 0 0 0 0 0 0 0 0 0 0 0 0 0 0 0 0 0 0 0 0 0 0 0 0 0 0 0 0 0 0 0 0 0 0 0 0 0 0 0 0 0 0 0 0 0 0 0 0 0 0 0 0 0 0 0 0 0 0 0 0 0 0 0 0 0 0 0 0 0 0 0 0 0 0 0 0 0 0 0 0 0 0 0 0 0 0 0 0 0 0 0 0 0 0 0 0 0 0 0 0 0 0 0 0 0 0 0 0 0 0 0 0 0 0 0 0 0 0 0 0 0 0 0 0 0 0 0 0 0 0 0 0 0 0 0 0 0 0 0 0 0 0 0 0 0 0 0 0 0 0 0 0 0 0 0 0 0 0 0 0 0 0 0 0 0 0 0 0 0 0 0 0 0 0 0 0 0 0 0 0 0 0 0 0 0 0 0 0 0 0 0 0 0 0 0 0 0 0 0 0 0 0 0 0 0 0 0 0 0 0 0 0 0 0 0 0 0 0 0 0 0 0 0 0 0 0 0 0 0 0 0 0 0 0 0 0 0 0 0 0 0 0 0 0 0 0 0 0 0 0 0 0 0 0 0 0 0 0 0 0 0 0 0 0 0 0 0 0 0 0 0 0 0 0 0 0 0 0 0 0 0 0 0 0 0 0 0 0 0 0 0 0 0 0 0 0 0 0 0 0 0 0 0 0 0 0 0 0 0 0 0 0 0 0 0 0 0 0 0 0 0 0 0 0 0 0 0 0 0 0 0 0 0 0 0 0 0 0 0 0 0 0 0 0 0 0 0 0 0 0 0 0 0 0 0 0 0 0 0 0 0 0 0 0 0 0 0 0 0 0 0 0 0 0 0 0 0 0 0 0 0 0 0 0 0 0 0 0 0 0 0 0 0 0 0 0 0 0 0 0 0 0 0 0 0 0 0 0 0 0 0 0 0 0 0 0 0 0 0 0 0 0 0 0 0 0 0 0 0 0 0 0 0 0 0 0 0 0 0 0 0 0 0 0 0 0 0 0 0 0 0 0 0 0 0 0 0 0 0 0 0 0 0 0 0 0 0 0 0 0 0 0 0 0 0 0 0 0 0 0 0 0 0 0 0 0 0 0 0 0 0 0 0 0 0 0 0 0 0 0 0 0 0 0 0 0 0 0 0 0 0 0 0 0 0 0 0 0 0 0 0 0 0 0 0 0 0 0 0 0 0 0 0 0 0 0 0 0 0 0 0 0 0 0 0 0 0 0 0 0 0 0 0 0 0 0 0 0 0 0 0 0 0 0 0 0 0 0 0 0 0 0 0 0 0 0 0 0 0 0 0 0 0 0 0 0 0 0 0 0 0 0 0 0 0 0 0 0 0 0 0 0 0 0 0 0 0 0 0 0 0 0 0 0 0 0 0 0 0 0 0 0 0 0 0 0 0 0 0 0 0 0 0 0 0 0 0 0 0 0 0 0 0 0 0 0 0 0 0 0 0 0 0 0 0 0 0 0 0 0 0 0 0 0 0 0 0 0 0 0 0 0 0 0 0 0 0 0 0 0 0 0 0 0 0 0 0 0 0 0 0 0 0 0 0 0 0 0 0 0 0 0 0 0 0 0 0 0 0 0 0 0 0 0 0 0 0 0 0 0 0 0 0 0 0 0 0 0 0 0 0 0 0 0 0 0 0 0 0 0 0 0 0 0 0 0 0 0 0 0 0 0 0 0 0 0 0 0 0 0 0 0 0 0 0 0 0 0 0 0 0 0 0 0 0 0 0 0 0 0 0 0 0 0 0 0 0 0 0 0 0 0 0 0 0 0 0 0 0 0 0 0 0 0 0 0 0 0 0 0 0 0 0 0 0 0 0 0 0 0 0 0 0 0 0 0 0 0 0 0 0 0 0 0 0 0 0 0 0 0 0 0 0 0 0 0 0 0 0 0 0 0 0 0 0 0 0 0 0 0 0 0 0 0 0 0 0 0 0 0 0 0 0 0 0 0 0 0 0 0 0 0 0 0 0 0 0 0 0 0 0 0 0 0 0 0 0 0 0 0 0 0 0 0 0 0 0 0 0 0 0 0 0 0 0 0 0 0 0 0 0 0 0 0 0 0 0 0 0 0 0 0 0 0 0 0 0 0 0 0 0 0 0 0 0 0 0 0 0 0 0 0 0 0 0 0 0 0 0 0 0 0 0 0 0 0 0 0 0 0 0 0 0 0 0 0 0 0 0 0 0 0 0 0 0 0 0 0 0 0 0 0 0 0 0 0 0 0 0 0 0 0 0 0 0 0 0 0 0 0 0 0 0 0 0 0 0 0 0 0 0 0 0 0 0 0 0 0 0 0 0 0 0 0 0 0 0 0 0 0 0 0 0 0 0 0 0 0 0 0 0 0 0 0 0 0 0 0 0 0 0 0 0 0 0 0 0 0 0 0 0 0 0 0 0 0 0 0 0 0 0 0 0 0 0 0 0 0 0 0 0 0 0 0 0 0 0 0 0 0 0 0 0 0 0 0 0 0 0 0 0 0 0 0 0 0 0 0 0 0 0 0 0 0 0 0 0 0 0 0 0 0 0 0 0 0 0 0 0 0 0 0 0 0 0 0 0 0 0 0 0 0 0 0 0 0 0 0 0 0 0 0 0 0 0 0 0 0 0 0 0 0 0 0 0 0 0 0 0 0 0 0 0 0 0 0 0 0 0 0 0 0 0 0 0 0 0 0 0 0 0 0 0 0 0 0 0 0 0 0 0 0 0 0 0 0 0 0 0 0 0 0 0 0 0 0 0 0 0 0 0 0 0 0 0 0 0 0 0 0 0 0 0 0 0 0 0 0 0 0 0 0 0 0 0 0 0 0 0 0 0 0 0 0 0 0 0 0 0 0 0 0 0 0 0 0 0 0 0 0 0 0 0 0 0 0 0 0 0 0 0 0 0 0 0 0 0 0 0 0 0 0 0 0 0 0 0 0 0 0 0 0 0 0 0 0 0 0 0 0 0 0 0 0 0 0 0 0 0 0 0 0 0 0 0 0 0 0 0 0 0 0 0 0 0 0 0 0 0 0 0 0 0 0 0 0 0 0 0 0 0 0 0 0 0 0 0 0 0 0 0 0 0 0 0 0 0 0 0 0 0 0 0 0 0 0 0 0 0 0 0 0 0 0 0 0 0 0 0 0 0 0 0 0 0 0 0 0 0 0 0 0 0 0 0 0 0 0 0 0 0 0 0 0 0 0 0 0 0 0 0 0 0 0 0 0 0 0 0 0 0 0 0 0 0 0 0 0 0 0 0 0 0 0 0 0 0 0 0 0 0 0 0 0 0 0 0 0 0 0 0 0 0 0 0 0 0 0 0 0 0 0 0 0 </DataArray>
      </PointData>
    </Piece>
  </UnstructuredGrid>
</VTKFile>
