<?xml version="1.0"?>
<VTKFile type="UnstructuredGrid" version="2.2">
  <UnstructuredGrid>
    <Piece NumberOfPoints="750" NumberOfCells="250">
      <Points>
        <DataArray type="Float64" NumberOfComponents="3" format="ascii">0.100000000000416 1 0 -1.064075955782027e-17 0.9999999999999998 0 0.07242270094929615 0.9287161546587116 0 -6.099109172739477e-18 1 0 -1.011093273645573e-17 0.9042857142860052 0 0.07242270094929615 0.9287161546587116 0 0.1504496488130522 0.920529655141281 0 0.100000000000416 0.9999999999999998 0 0.07242270094929612 0.9287161546587116 0 -2.001852325829878e-18 0.9042857142860056 0 0.08949214017397381 0.8499193320747831 0 0.07242270094929615 0.9287161546587116 0 0.2000000000008322 1 0 0.100000000000416 0.9999999999999998 0 0.1504496488130522 0.9205296551412806 0 0.08949214017397382 0.8499193320747834 0 0.1504496488130522 0.9205296551412808 0 0.07242270094929612 0.9287161546587116 0 -7.536619400667012e-18 0.9042857142860056 0 -1.249399701861451e-17 0.8085714285720077 0 0.08949214017397379 0.8499193320747829 0 0.2000000000008322 1 0 0.1504496488130521 0.9205296551412809 0 0.2499721953899354 0.9185928771799154 0 0.1985034546041365 0.8442209309262435 0 0.1504496488130522 0.9205296551412808 0 0.08949214017397376 0.8499193320747829 0 -3.882225198495419e-18 0.808571428572008 0 0.07981914983884167 0.7551853746230648 0 0.08949214017397379 0.8499193320747829 0 0.3000000000012484 1 0 0.2000000000008322 0.9999999999999998 0 0.2499721953899354 0.9185928771799154 0 0.2499721953899356 0.918592877179916 0 0.1504496488130522 0.9205296551412808 0 0.1985034546041364 0.844220930926243 0 0.1985034546041365 0.8442209309262436 0 0.08949214017397378 0.8499193320747832 0 0.1647172437488297 0.7772037251192004 0 -6.722004324074814e-18 0.8085714285720081 0 -1.114355091046149e-17 0.7128571428580414 0 0.07981914983884165 0.7551853746230646 0 0.08949214017397381 0.8499193320747835 0 0.07981914983884164 0.7551853746230649 0 0.1647172437488297 0.7772037251192004 0 0.3498228780409012 0.9196059643157829 0 0.3000000000012483 0.9999999999999998 0 0.2499721953899354 0.9185928771799154 0 0.2499721953899355 0.918592877179916 0 0.1985034546041364 0.8442209309262432 0 0.2982782210027111 0.8494663949677285 0 0.1985034546041365 0.8442209309262436 0 0.1647172437488297 0.7772037251192008 0 0.2569918719072125 0.7888812511490496 0 0.07981914983884168 0.7551853746230651 0 -1.149125912433027e-17 0.7128571428580414 0 0.07928054189815227 0.6639934880868404 0 0.07981914983884167 0.7551853746230651 0 0.1576018681684929 0.6958879033414607 0 0.1647172437488297 0.7772037251192004 0 0.4000000000016645 1 0 0.3000000000012483 0.9999999999999998 0 0.349822878040901 0.9196059643157823 0 0.3498228780409012 0.9196059643157829 0 0.2499721953899355 0.9185928771799157 0 0.2982782210027111 0.8494663949677285 0 0.2982782210027112 0.8494663949677291 0 0.1985034546041365 0.8442209309262433 0 0.2569918719072125 0.7888812511490496 0 0.1647172437488297 0.777203725119201 0 0.2419461962682327 0.7223495853541092 0 0.2569918719072125 0.7888812511490496 0 -6.676645222736288e-18 0.7128571428580416 0 -1.10683558599007e-17 0.6171428571437528 0 0.07928054189815227 0.6639934880868407 0 0.07981914983884167 0.7551853746230651 0 0.07928054189815226 0.6639934880868407 0 0.1576018681684929 0.6958879033414604 0 0.1576018681684929 0.6958879033414609 0 0.2419461962682328 0.7223495853541092 0 0.1647172437488296 0.7772037251192004 0 0.4000000000016644 1 0 0.349822878040901 0.9196059643157826 0 0.4518775995084197 0.9201756490083459 0 0.3498228780409012 0.9196059643157829 0 0.2982782210027111 0.8494663949677287 0 0.3974942312260538 0.8548415168737085 0 0.334473259867368 0.7636851317483531 0 0.2982782210027111 0.8494663949677288 0 0.2569918719072125 0.7888812511490496 0 0.2419461962682328 0.7223495853541094 0 0.3344732598673679 0.7636851317483527 0 0.2569918719072125 0.7888812511490496 0 -3.037839351284387e-18 0.6171428571437531 0 0.07947867006665031 0.5692879274259948 0 0.07928054189815227 0.6639934880868407 0 0.1576018681684929 0.6958879033414609 0 0.07928054189815227 0.6639934880868407 0 0.1512795608247463 0.6093594627734517 0 0.1576018681684929 0.6958879033414609 0 0.2341354436318248 0.6391200624061723 0 0.2419461962682327 0.7223495853541091 0 0.5000000000020588 1 0 0.4000000000016644 0.9999999999999998 0 0.4518775995084197 0.9201756490083459 0 0.45187759950842 0.9201756490083465 0 0.3498228780409011 0.9196059643157826 0 0.3974942312260537 0.8548415168737085 0 0.2982782210027112 0.849466394967729 0 0.3344732598673679 0.7636851317483526 0 0.3974942312260538 0.8548415168737085 0 0.3187788313139661 0.6664952828410463 0 0.3344732598673679 0.7636851317483527 0 0.2419461962682327 0.722349585354109 0 -6.693330672381564e-18 0.6171428571437531 0 -1.109601653201901e-17 0.5214285714291633 0 0.0794786700666503 0.5692879274259948 0 0.07928054189815228 0.6639934880868409 0 0.07947867006665028 0.5692879274259948 0 0.1512795608247463 0.6093594627734519 0 0.2341354436318249 0.6391200624061725 0 0.1576018681684929 0.6958879033414607 0 0.1512795608247462 0.6093594627734517 0 0.2341354436318248 0.6391200624061725 0 0.3187788313139659 0.6664952828410461 0 0.2419461962682327 0.7223495853541092 0 0.5501260307078504 0.9157080124274183 0 0.5000000000020586 0.9999999999999998 0 0.4518775995084197 0.9201756490083459 0 0.4982783550718214 0.8283290710729981 0 0.4518775995084198 0.9201756490083461 0 0.3974942312260537 0.8548415168737085 0 0.3344732598673681 0.763685131748353 0 0.4270018182274791 0.7748455103032577 0 0.3974942312260537 0.8548415168737085 0 0.4034544631785332 0.6976365327000739 0 0.3344732598673679 0.7636851317483527 0 0.3187788313139658 0.6664952828410459 0 0.07947867006665033 0.569287927425995 0 -1.09471611924726e-17 0.5214285714291633 0 0.07539619258341244 0.4768398233222963 0 0.1512795608247463 0.6093594627734521 0 0.0794786700666503 0.5692879274259948 0 0.1430235002041239 0.5157881957117131 0 0.2175071670521009 0.5477913784569417 0 0.2341354436318248 0.6391200624061723 0 0.1512795608247462 0.6093594627734519 0 0.2341354436318248 0.6391200624061725 0 0.3009805024027953 0.5741244054537947 0 0.3187788313139659 0.6664952828410461 0 0.600000000001387 1 0 0.5000000000020586 0.9999999999999998 0 0.5501260307078502 0.9157080124274177 0 0.5501260307078504 0.9157080124274183 0 0.4518775995084198 0.9201756490083461 0 0.4982783550718211 0.8283290710729976 0 0.4270018182274793 0.774845510303258 0 0.4982783550718212 0.8283290710729978 0 0.3974942312260537 0.8548415168737085 0 0.4034544631785333 0.6976365327000739 0 0.4270018182274791 0.7748455103032578 0 0.3344732598673678 0.7636851317483524 0 0.3874961043363945 0.6045058593620659 0 0.4034544631785331 0.6976365327000736 0 0.3187788313139658 0.6664952828410461 0 -6.349523060415383e-18 0.5214285714291635 0 -1.052606188119741e-17 0.4257142857145926 0 0.07539619258341244 0.4768398233222963 0 0.07947867006665031 0.569287927425995 0 0.07539619258341243 0.4768398233222965 0 0.1430235002041239 0.5157881957117131 0 0.2175071670521008 0.5477913784569417 0 0.1512795608247463 0.6093594627734519 0 0.1430235002041238 0.5157881957117131 0 0.2175071670521008 0.5477913784569417 0 0.3009805024027954 0.5741244054537947 0 0.2341354436318247 0.6391200624061723 0 0.3009805024027954 0.574124405453795 0 0.3874961043363944 0.6045058593620657 0 0.3187788313139658 0.6664952828410461 0 0.600000000001387 1 0 0.5501260307078502 0.915708012427418 0 0.6547996067305861 0.9007657125087722 0 0.5501260307078504 0.9157080124274183 0 0.4982783550718212 0.8283290710729978 0 0.5904037090299777 0.8429143001748768 0 0.4270018182274792 0.774845510303258 0 0.4913158036241167 0.7286208351528233 0 0.4982783550718211 0.8283290710729976 0 0.4034544631785332 0.6976365327000739 0 0.4913158036241167 0.7286208351528234 0 0.427001818227479 0.7748455103032574 0 0.4745187976266662 0.6356120108154576 0 0.4034544631785331 0.6976365327000736 0 0.3874961043363942 0.6045058593620656 0 0.07539619258341247 0.4768398233222966 0 -1.159317591064528e-17 0.4257142857145926 0 0.08017840599731758 0.3963300372632156 0 0.1430235002041239 0.5157881957117133 0 0.07539619258341244 0.4768398233222965 0 0.1336105784902603 0.4361702689152493 0 0.2005261160939737 0.4579553459022219 0 0.2175071670521008 0.5477913784569415 0 0.1430235002041238 0.5157881957117131 0 0.2845914509445012 0.4848763822704991 0 0.3009805024027953 0.5741244054537947 0 0.2175071670521007 0.5477913784569415 0 0.3009805024027954 0.574124405453795 0 0.3706525465932459 0.5134749221234857 0 0.3874961043363942 0.6045058593620657 0 0.7000000000006935 1 0 0.6000000000013868 0.9999999999999998 0 0.6547996067305861 0.9007657125087722 0 0.6547996067305863 0.9007657125087728 0 0.5501260307078502 0.915708012427418 0 0.5904037090299777 0.8429143001748768 0 0.4982783550718213 0.8283290710729981 0 0.5766230053207845 0.7565871944151588 0 0.5904037090299777 0.8429143001748768 0 0.4982783550718213 0.8283290710729982 0 0.4913158036241167 0.7286208351528234 0 0.5766230053207845 0.7565871944151585 0 0.4745187976266662 0.6356120108154576 0 0.4913158036241167 0.7286208351528234 0 0.403454463178533 0.6976365327000734 0 0.4575639698313758 0.5427700263992948 0 0.474518797626666 0.6356120108154574 0 0.3874961043363942 0.6045058593620657 0 -6.752259237283005e-18 0.4257142857145928 0 -1.119370666005236e-17 0.33 0 0.08017840599731758 0.3963300372632156 0 0.07539619258341246 0.4768398233222966 0 0.08017840599731757 0.3963300372632157 0 0.1336105784902603 0.4361702689152493 0 0.2005261160939736 0.4579553459022219 0 0.1430235002041239 0.5157881957117132 0 0.1336105784902603 0.4361702689152493 0 0.2845914509445012 0.4848763822704991 0 0.2175071670521008 0.5477913784569415 0 0.2005261160939735 0.4579553459022217 0 0.2845914509445012 0.4848763822704991 0 0.3706525465932459 0.5134749221234857 0 0.3009805024027953 0.5741244054537947 0 0.3706525465932461 0.5134749221234859 0 0.4575639698313756 0.5427700263992946 0 0.3874961043363942 0.6045058593620657 0 0.7543567317552735 0.9205245603072644 0 0.7000000000006933 0.9999999999999998 0 0.6547996067305859 0.9007657125087722 0 0.6561937267356623 0.7952487042046711 0 0.6547996067305861 0.9007657125087725 0 0.5904037090299777 0.8429143001748768 0 0.5766230053207847 0.7565871944151591 0 0.6561937267356621 0.7952487042046708 0 0.5904037090299777 0.8429143001748768 0 0.4913158036241168 0.7286208351528236 0 0.5631276294601403 0.6660590632334465 0 0.5766230053207845 0.7565871944151585 0 0.4745187976266661 0.6356120108154576 0 0.5631276294601403 0.6660590632334465 0 0.4913158036241166 0.7286208351528234 0 0.5449520634050221 0.5736116874732445 0 0.474518797626666 0.6356120108154574 0 0.4575639698313755 0.5427700263992946 0 -2.760060049091618e-18 0.3300000000000001 0 0.08541028510984704 0.3187555226148319 0 0.08017840599731758 0.3963300372632157 0 0.0801784059973176 0.3963300372632159 0 0.1640593670304531 0.371944804504455 0 0.1336105784902603 0.4361702689152493 0 0.1640593670304531 0.3719448045044552 0 0.2005261160939736 0.4579553459022218 0 0.1336105784902602 0.4361702689152493 0 0.2845914509445012 0.4848763822704992 0 0.2005261160939736 0.4579553459022219 0 0.2643248175403595 0.3987638367146987 0 0.3539299266139261 0.4249789751401974 0 0.3706525465932459 0.5134749221234858 0 0.2845914509445009 0.4848763822704989 0 0.370652546593246 0.5134749221234859 0 0.4393289521925453 0.4527926137698596 0 0.4575639698313755 0.5427700263992946 0 0.8 1 0 0.7000000000006933 0.9999999999999998 0 0.754356731755273 0.9205245603072638 0 0.7543567317552735 0.9205245603072644 0 0.6547996067305861 0.9007657125087725 0 0.7337357535262904 0.8320636705966573 0 0.6547996067305863 0.9007657125087728 0 0.6561937267356621 0.7952487042046708 0 0.7337357535262906 0.8320636705966573 0 0.6531478674937995 0.7030485185958671 0 0.6561937267356621 0.7952487042046709 0 0.5766230053207845 0.7565871944151585 0 0.5631276294601405 0.6660590632334468 0 0.6531478674937993 0.7030485185958669 0 0.5766230053207845 0.7565871944151585 0 0.5449520634050221 0.5736116874732445 0 0.5631276294601403 0.6660590632334465 0 0.4745187976266659 0.6356120108154574 0 0.5264916765173425 0.482014321273292 0 0.5449520634050219 0.5736116874732443 0 0.4575639698313755 0.5427700263992946 0 0.08541028510984705 0.318755522614832 0 0.1640593670304531 0.3719448045044551 0 0.08017840599731756 0.3963300372632156 0 0.2005261160939736 0.457955345902222 0 0.164059367030453 0.3719448045044551 0 0.2643248175403595 0.3987638367146987 0 0.3539299266139261 0.4249789751401975 0 0.2845914509445011 0.4848763822704991 0 0.2643248175403595 0.3987638367146987 0 0.3539299266139262 0.4249789751401974 0 0.4393289521925454 0.4527926137698596 0 0.3706525465932458 0.5134749221234857 0 0.4393289521925454 0.4527926137698597 0 0.5264916765173424 0.4820143212732919 0 0.4575639698313755 0.5427700263992946 0 0.7999999999999999 1 0 0.7543567317552732 0.920524560307264 0 0.8469936203174666 0.9266230858766435 0 0.7543567317552734 0.9205245603072644 0 0.7337357535262905 0.8320636705966575 0 0.8112077680726288 0.8636996853073264 0 0.6561937267356623 0.7952487042046711 0 0.7394722959461434 0.743280875646573 0 0.7337357535262904 0.8320636705966573 0 0.6531478674937995 0.7030485185958671 0 0.7394722959461434 0.7432808756465731 0 0.6561937267356619 0.7952487042046705 0 0.5631276294601405 0.6660590632334468 0 0.6374023867008553 0.6062433927835129 0 0.6531478674937993 0.7030485185958669 0 0.5449520634050221 0.5736116874732445 0 0.6374023867008553 0.6062433927835129 0 0.5631276294601403 0.6660590632334465 0 0.5264916765173425 0.482014321273292 0 0.6148622751988869 0.5113105424968966 0 0.5449520634050219 0.5736116874732443 0 0.08541028510984704 0.318755522614832 0 0.1650000004123211 0.2857883830108111 0 0.1640593670304531 0.3719448045044551 0 0.1640593670304531 0.3719448045044552 0 0.2462583128866442 0.3160366088760195 0 0.2643248175403595 0.3987638367146987 0 0.336583731672659 0.3367909035948011 0 0.353929926613926 0.4249789751401973 0 0.2643248175403594 0.3987638367146987 0 0.3539299266139261 0.4249789751401974 0 0.4214663514838094 0.3644860395280297 0 0.4393289521925452 0.4527926137698595 0 0.4393289521925454 0.4527926137698597 0 0.5075735780009719 0.39211380404338 0 0.5264916765173423 0.4820143212732918 0 0.8999999999995837 1 0 0.7999999999999996 0.9999999999999998 0 0.8469936203174666 0.9266230858766435 0 0.8469936203174672 0.9266230858766441 0 0.7543567317552732 0.920524560307264 0 0.8112077680726288 0.8636996853073264 0 0.7337357535262908 0.8320636705966579 0 0.8192566252644848 0.7890860954018273 0 0.8112077680726288 0.8636996853073264 0 0.7394722959461437 0.7432808756465733 0 0.819256625264485 0.7890860954018273 0 0.7337357535262904 0.8320636705966573 0 0.6531478674937995 0.7030485185958671 0 0.7391175425538947 0.6347508717092357 0 0.7394722959461432 0.743280875646573 0 0.6531478674937995 0.7030485185958671 0 0.6374023867008553 0.6062433927835129 0 0.7391175425538947 0.6347508717092357 0 0.5449520634050221 0.5736116874732445 0 0.6148622751988869 0.5113105424968966 0 0.6374023867008553 0.6062433927835129 0 0.5264916765173425 0.4820143212732921 0 0.5953929619415561 0.4201954588069571 0 0.6148622751988869 0.5113105424968966 0 0.1640593670304531 0.3719448045044552 0 0.165000000412321 0.2857883830108111 0 0.2462583128866442 0.3160366088760195 0 0.2462583128866442 0.3160366088760196 0 0.3365837316726589 0.336790903594801 0 0.2643248175403595 0.3987638367146988 0 0.3365837316726591 0.336790903594801 0 0.4214663514838095 0.3644860395280297 0 0.3539299266139259 0.4249789751401972 0 0.4393289521925455 0.4527926137698598 0 0.4214663514838094 0.3644860395280298 0 0.5075735780009719 0.3921138040433799 0 0.5264916765173425 0.4820143212732921 0 0.5075735780009719 0.39211380404338 0 0.5953929619415561 0.420195458806957 0 0.8999999999995837 1 0 0.8469936203174668 0.9266230858766438 0 0.9267949192429041 0.9267949192429453 0 0.9016961094996304 0.8502010143542413 0 0.8469936203174668 0.9266230858766438 0 0.8112077680726288 0.8636996853073264 0 0.8192566252644852 0.7890860954018276 0 0.9016961094996301 0.850201014354241 0 0.8112077680726288 0.8636996853073264 0 0.7394722959461436 0.7432808756465733 0 0.8288651147231504 0.6986797578104889 0 0.8192566252644846 0.7890860954018271 0 0.7391175425538951 0.6347508717092359 0 0.8288651147231505 0.6986797578104889 0 0.7394722959461432 0.7432808756465729 0 0.6374023867008555 0.6062433927835131 0 0.7022966507855873 0.5383879929024821 0 0.7391175425538945 0.6347508717092357 0 0.6374023867008555 0.6062433927835131 0 0.6148622751988869 0.5113105424968966 0 0.7022966507855873 0.5383879929024821 0 0.6148622751988871 0.5113105424968968 0 0.5953929619415561 0.4201954588069571 0 0.6812846140658224 0.4460449155380937 0 0.1650000004123211 0.2857883830108112 0 0.2333452383332416 0.2333452372498797 0 0.2462583128866441 0.3160366088760195 0 0.2462583128866442 0.3160366088760196 0 0.3251853837111932 0.241899025735952 0 0.3365837316726589 0.336790903594801 0 0.336583731672659 0.3367909035948011 0 0.4070425547868017 0.2792204871458516 0 0.4214663514838093 0.3644860395280298 0 0.5075735780009721 0.3921138040433802 0 0.4214663514838095 0.3644860395280298 0 0.4889892423409981 0.3038076761812548 0 0.5953929619415563 0.4201954588069573 0 0.5075735780009719 0.39211380404338 0 0.5758076666280337 0.3296092559785408 0 1 1 0 0.8999999999995834 0.9999999999999998 0 0.9267949192429041 0.9267949192429453 0 0.8469936203174672 0.9266230858766441 0 0.9016961094996301 0.850201014354241 0 0.9267949192429041 0.9267949192429453 0 0.9016961094996304 0.8502010143542414 0 0.8192566252644848 0.7890860954018274 0 0.9105973158643602 0.7479451577286274 0 0.8192566252644852 0.7890860954018276 0 0.8288651147231504 0.6986797578104889 0 0.9105973158643602 0.7479451577286274 0 0.8337113423576484 0.5996960087510012 0 0.8288651147231505 0.6986797578104889 0 0.7391175425538945 0.6347508717092357 0 0.7391175425538949 0.6347508717092359 0 0.7022966507855873 0.5383879929024821 0 0.7760953731342625 0.5499323499660973 0 0.7022966507855876 0.5383879929024823 0 0.6148622751988869 0.5113105424968966 0 0.6812846140658224 0.4460449155380937 0 0.5953929619415563 0.4201954588069572 0 0.6649137530048488 0.3577436960937127 0 0.6812846140658224 0.4460449155380937 0 0.2333452383332417 0.2333452372498797 0 0.3251853837111932 0.241899025735952 0 0.2462583128866441 0.3160366088760195 0 0.336583731672659 0.3367909035948011 0 0.3251853837111931 0.241899025735952 0 0.4070425547868017 0.2792204871458516 0 0.4214663514838096 0.3644860395280299 0 0.4070425547868017 0.2792204871458516 0 0.4889892423409981 0.3038076761812549 0 0.575807666628034 0.3296092559785411 0 0.5075735780009719 0.39211380404338 0 0.4889892423409981 0.3038076761812548 0 0.5953929619415563 0.4201954588069572 0 0.5758076666280337 0.329609255978541 0 0.6649137530048488 0.3577436960937126 0 1 0.8999999999997369 0 0.9999999999999998 0.9999999999999998 0 0.9267949192429041 0.9267949192429453 0 0.9016961094996304 0.8502010143542413 0 0.9999999999999998 0.8999999999997366 0 0.9267949192429041 0.9267949192429453 0 1 0.7999999999994736 0 0.9016961094996301 0.8502010143542411 0 0.9105973158643602 0.7479451577286274 0 0.8288651147231507 0.6986797578104891 0 0.9137660456988986 0.6497040788065253 0 0.9105973158643602 0.7479451577286275 0 0.8337113423576483 0.5996960087510012 0 0.9137660456988986 0.6497040788065253 0 0.8288651147231502 0.6986797578104889 0 0.8337113423576484 0.5996960087510012 0 0.7391175425538947 0.6347508717092357 0 0.7760953731342625 0.5499323499660973 0 0.7022966507855876 0.5383879929024823 0 0.7640906286465546 0.4727193298261639 0 0.7760953731342625 0.5499323499660973 0 0.7022966507855876 0.5383879929024823 0 0.6812846140658224 0.4460449155380938 0 0.7640906286465543 0.4727193298261638 0 0.664913753004849 0.3577436960937128 0 0.750965887524523 0.3837908847455451 0 0.6812846140658222 0.4460449155380937 0 0.2333452383332417 0.2333452372498797 0 0.2857883835188695 0.1649999995323378 0 0.3251853837111932 0.2418990257359519 0 0.4070425547868018 0.2792204871458517 0 0.3251853837111931 0.241899025735952 0 0.4035780772005114 0.210704912516871 0 0.4889892423409983 0.303807676181255 0 0.4070425547868017 0.2792204871458516 0 0.4711446762158892 0.2206591250799016 0 0.553343199670507 0.2396037875864198 0 0.5758076666280337 0.329609255978541 0 0.4889892423409981 0.3038076761812549 0 0.664913753004849 0.3577436960937129 0 0.5758076666280337 0.329609255978541 0 0.6436084351024099 0.2642353864160774 0 1 0.7999999999994735 0 0.9999999999999998 0.8999999999997366 0 0.9016961094996299 0.8502010143542408 0 1 0.6999999999992101 0 0.9999999999999998 0.7999999999994732 0 0.9105973158643602 0.7479451577286274 0 0.9137660456988989 0.6497040788065255 0 0.9999999999999998 0.6999999999992099 0 0.9105973158643602 0.7479451577286274 0 0.914310416470179 0.550245774587809 0 0.9137660456988986 0.6497040788065253 0 0.8337113423576478 0.5996960087510009 0 0.8396680954092653 0.5041237029109571 0 0.8337113423576481 0.5996960087510009 0 0.7760953731342625 0.5499323499660973 0 0.764090628646555 0.472719329826164 0 0.839668095409265 0.5041237029109569 0 0.7760953731342625 0.5499323499660973 0 0.6812846140658226 0.4460449155380939 0 0.750965887524523 0.3837908847455451 0 0.7640906286465543 0.4727193298261638 0 0.664913753004849 0.3577436960937129 0 0.7333924436513714 0.2993780895277813 0 0.7509658875245226 0.3837908847455451 0 0.3251853837111933 0.2418990257359521 0 0.2857883835188695 0.1649999995323379 0 0.3648957752756741 0.1555527535917358 0 0.3251853837111932 0.241899025735952 0 0.3648957752756741 0.1555527535917358 0 0.4035780772005114 0.210704912516871 0 0.4711446762158895 0.2206591250799017 0 0.4070425547868017 0.2792204871458516 0 0.4035780772005114 0.210704912516871 0 0.553343199670507 0.2396037875864198 0 0.4889892423409982 0.3038076761812549 0 0.4711446762158892 0.2206591250799016 0 0.6436084351024102 0.2642353864160776 0 0.5758076666280337 0.329609255978541 0 0.5533431996705068 0.2396037875864197 0 0.664913753004849 0.3577436960937129 0 0.6436084351024099 0.2642353864160775 0 0.7333924436513714 0.2993780895277813 0 1 0.5999999999989469 0 0.9999999999999998 0.6999999999992099 0 0.9137660456988984 0.6497040788065253 0 1 0.5999999999989469 0 0.9137660456988987 0.6497040788065253 0 0.9143104164701784 0.5502457745878088 0 0.914310416470179 0.550245774587809 0 0.833711342357648 0.5996960087510009 0 0.8396680954092647 0.5041237029109569 0 0.8342331509598678 0.4140361328938087 0 0.839668095409265 0.504123702910957 0 0.7640906286465543 0.4727193298261638 0 0.7509658875245233 0.3837908847455452 0 0.8342331509598675 0.4140361328938086 0 0.7640906286465543 0.4727193298261638 0 0.7509658875245231 0.3837908847455452 0 0.7333924436513712 0.2993780895277813 0 0.8263642252375104 0.3235072126971759 0 0.2857883835188696 0.1649999995323379 0 0.3187555227447487 0.08541028462499074 0 0.3648957752756741 0.1555527535917359 0 0.3648957752756742 0.1555527535917359 0 0.4407949288198664 0.1503338094952049 0 0.4035780772005114 0.210704912516871 0 0.4407949288198665 0.150333809495205 0 0.4711446762158893 0.2206591250799017 0 0.4035780772005114 0.210704912516871 0 0.553343199670507 0.2396037875864198 0 0.4711446762158893 0.2206591250799017 0 0.5280186054746174 0.1570647193166023 0 0.6436084351024102 0.2642353864160776 0 0.5533431996705068 0.2396037875864198 0 0.6132366197634967 0.1702836711304233 0 0.7333924436513716 0.2993780895277814 0 0.6436084351024099 0.2642353864160775 0 0.7180649979298034 0.1971965142701443 0 1 0.4999999999986943 0 0.9999999999999998 0.5999999999989467 0 0.9143104164701784 0.5502457745878088 0 0.916368709794095 0.4515076337505133 0 0.9143104164701786 0.5502457745878088 0 0.8396680954092647 0.5041237029109569 0 0.916368709794095 0.4515076337505133 0 0.8396680954092649 0.504123702910957 0 0.8342331509598672 0.4140361328938085 0 0.7509658875245232 0.3837908847455452 0 0.8263642252375106 0.3235072126971759 0 0.8342331509598672 0.4140361328938085 0 0.8263642252375111 0.3235072126971761 0 0.7333924436513714 0.2993780895277813 0 0.7983682599879574 0.2535536781780329 0 0.3648957752756742 0.1555527535917359 0 0.3187555227447487 0.08541028462499076 0 0.3966376598987702 0.07841900855955962 0 0.3648957752756742 0.1555527535917359 0 0.3966376598987703 0.07841900855955965 0 0.4407949288198663 0.150333809495205 0 0.5280186054746177 0.1570647193166025 0 0.4711446762158893 0.2206591250799017 0 0.4407949288198663 0.1503338094952049 0 0.613236619763497 0.1702836711304234 0 0.5533431996705068 0.2396037875864198 0 0.5280186054746174 0.1570647193166023 0 0.7180649979298038 0.1971965142701444 0 0.6436084351024099 0.2642353864160775 0 0.6132366197634965 0.1702836711304233 0 0.7333924436513716 0.2993780895277814 0 0.7180649979298036 0.1971965142701444 0 0.7983682599879574 0.2535536781780329 0 0.916368709794095 0.4515076337505133 0 0.9999999999999998 0.4999999999986942 0 0.9143104164701784 0.5502457745878088 0 0.9127558318542789 0.3564464450756912 0 0.9163687097940947 0.4515076337505132 0 0.8342331509598672 0.4140361328938085 0 0.826364225237511 0.323507212697176 0 0.9127558318542786 0.356446445075691 0 0.8342331509598672 0.4140361328938085 0 0.8955554813341943 0.2551442917808648 0 0.8263642252375107 0.323507212697176 0 0.7983682599879574 0.2535536781780329 0 0.3187555227447488 0.08541028462499077 0 0.33 -1.140060379310527e-17 0 0.3966376598987703 0.07841900855955965 0 0.3966376598987705 0.07841900855955966 0 0.4804947788537358 0.0796023379065593 0 0.4407949288198663 0.150333809495205 0 0.4804947788537359 0.07960233790655932 0 0.5280186054746174 0.1570647193166024 0 0.4407949288198663 0.150333809495205 0 0.5713844804045299 0.08071061625978788 0 0.6132366197634967 0.1702836711304234 0 0.5280186054746174 0.1570647193166024 0 0.6649999999991137 0.08289100293350836 0 0.7180649979298036 0.1971965142701444 0 0.6132366197634965 0.1702836711304234 0 0.7180649979298039 0.1971965142701444 0 0.8239593393545864 0.1758659824302893 0 0.7983682599879574 0.2535536781780329 0 1 0.399999999998975 0 0.9999999999999998 0.4999999999986942 0 0.9163687097940945 0.4515076337505131 0 1 0.399999999998975 0 0.9163687097940947 0.4515076337505132 0 0.9127558318542783 0.356446445075691 0 0.826364225237511 0.3235072126971761 0 0.8955554813341938 0.2551442917808647 0 0.9127558318542783 0.3564464450756911 0 0.8239593393545868 0.1758659824302894 0 0.8955554813341939 0.2551442917808648 0 0.7983682599879574 0.2535536781780329 0 0.3300000000000001 -6.604090818949139e-18 0 0.42571428571403 -1.094807719696016e-17 0 0.3966376598987702 0.07841900855955965 0 0.4257142857140302 -2.959623010003906e-18 0 0.4804947788537359 0.07960233790655932 0 0.3966376598987702 0.07841900855955965 0 0.4804947788537359 0.07960233790655932 0 0.5713844804045297 0.08071061625978786 0 0.5280186054746174 0.1570647193166024 0 0.5713844804045299 0.08071061625978788 0 0.6649999999991135 0.08289100293350833 0 0.6132366197634967 0.1702836711304234 0 0.7180649979298038 0.1971965142701444 0 0.6649999999991135 0.08289100293350835 0 0.7614399244730011 0.1024449366002656 0 0.7180649979298037 0.1971965142701444 0 0.7614399244730014 0.1024449366002657 0 0.8239593393545861 0.1758659824302894 0 1 0.2999999999992665 0 0.9999999999999998 0.3999999999989748 0 0.9127558318542783 0.356446445075691 0 0.895555481334194 0.2551442917808648 0 0.9999999999999998 0.2999999999992664 0 0.9127558318542783 0.3564464450756911 0 0.8955554813341942 0.2551442917808648 0 0.8239593393545863 0.1758659824302894 0 0.9177753013165788 0.1474028499315247 0 0.4257142857140301 -6.70374541315863e-18 0 0.521428571427989 -1.111328179822136e-17 0 0.4804947788537357 0.07960233790655931 0 0.4804947788537359 0.07960233790655934 0 0.5214285714279889 -1.168976306746539e-17 0 0.5713844804045297 0.08071061625978787 0 0.6171428571420019 -3.002045391969725e-18 0 0.6649999999991135 0.08289100293350836 0 0.5713844804045297 0.08071061625978787 0 0.6649999999991137 0.08289100293350836 0 0.7128571428562254 -1.474151559659807e-17 0 0.7614399244730011 0.1024449366002657 0 0.7614399244730017 0.1024449366002657 0 0.8564285714281219 0.08289100293390844 0 0.8239593393545861 0.1758659824302894 0 1 0.1999999999995579 0 0.9999999999999998 0.2999999999992664 0 0.8955554813341936 0.2551442917808647 0 1 0.1999999999995579 0 0.8955554813341939 0.2551442917808648 0 0.9177753013165788 0.1474028499315247 0 0.8239593393545867 0.1758659824302894 0 0.8564285714281219 0.08289100293390846 0 0.9177753013165788 0.1474028499315248 0 0.5214285714279892 -6.79707955537541e-18 0 0.6171428571420017 -1.126800853080496e-17 0 0.5713844804045297 0.08071061625978787 0 0.6171428571420019 -6.980701764813827e-18 0 0.7128571428562254 -1.157241229797303e-17 0 0.6649999999991134 0.08289100293350835 0 0.7128571428562257 -8.627444769794477e-18 0 0.8085714285708149 -1.43023368305601e-17 0 0.7614399244730011 0.1024449366002657 0 0.8085714285708152 -4.832410606370475e-18 0 0.856428571428122 0.08289100293390846 0 0.7614399244730011 0.1024449366002657 0 1 0.09999999999981467 0 0.9999999999999998 0.1999999999995579 0 0.9177753013165788 0.1474028499315248 0 0.9177753013165794 0.1474028499315248 0 0.8564285714281219 0.08289100293390847 0 0.9307084157825721 0.07051582244471347 0 0.8085714285708151 -6.980701764847523e-18 0 0.9042857142854288 -1.157241229802888e-17 0 0.8564285714281217 0.08289100293390846 0 1 0.09999999999981468 0 0.917775301316579 0.1474028499315248 0 0.9307084157825721 0.07051582244471347 0 0.8564285714281222 0.08289100293390848 0 0.9042857142854288 -1.028389220877013e-17 0 0.9307084157825721 0.07051582244471349 0 1 -1.360177894551881e-18 0 0.9999999999999998 0.09999999999981467 0 0.9307084157825721 0.07051582244471349 0 0.9042857142854291 -5.938520572395197e-18 0 0.9999999999999998 -9.844713442730039e-18 0 0.9307084157825721 0.07051582244471349 0 </DataArray>
      </Points>
      <Cells>
        <DataArray type="Int32" Name="connectivity" format="ascii">0 1 2 3 4 5 6 7 8 9 10 11 12 13 14 15 16 17 18 19 20 21 22 23 24 25 26 27 28 29 30 31 32 33 34 35 36 37 38 39 40 41 42 43 44 45 46 47 48 49 50 51 52 53 54 55 56 57 58 59 60 61 62 63 64 65 66 67 68 69 70 71 72 73 74 75 76 77 78 79 80 81 82 83 84 85 86 87 88 89 90 91 92 93 94 95 96 97 98 99 100 101 102 103 104 105 106 107 108 109 110 111 112 113 114 115 116 117 118 119 120 121 122 123 124 125 126 127 128 129 130 131 132 133 134 135 136 137 138 139 140 141 142 143 144 145 146 147 148 149 150 151 152 153 154 155 156 157 158 159 160 161 162 163 164 165 166 167 168 169 170 171 172 173 174 175 176 177 178 179 180 181 182 183 184 185 186 187 188 189 190 191 192 193 194 195 196 197 198 199 200 201 202 203 204 205 206 207 208 209 210 211 212 213 214 215 216 217 218 219 220 221 222 223 224 225 226 227 228 229 230 231 232 233 234 235 236 237 238 239 240 241 242 243 244 245 246 247 248 249 250 251 252 253 254 255 256 257 258 259 260 261 262 263 264 265 266 267 268 269 270 271 272 273 274 275 276 277 278 279 280 281 282 283 284 285 286 287 288 289 290 291 292 293 294 295 296 297 298 299 300 301 302 303 304 305 306 307 308 309 310 311 312 313 314 315 316 317 318 319 320 321 322 323 324 325 326 327 328 329 330 331 332 333 334 335 336 337 338 339 340 341 342 343 344 345 346 347 348 349 350 351 352 353 354 355 356 357 358 359 360 361 362 363 364 365 366 367 368 369 370 371 372 373 374 375 376 377 378 379 380 381 382 383 384 385 386 387 388 389 390 391 392 393 394 395 396 397 398 399 400 401 402 403 404 405 406 407 408 409 410 411 412 413 414 415 416 417 418 419 420 421 422 423 424 425 426 427 428 429 430 431 432 433 434 435 436 437 438 439 440 441 442 443 444 445 446 447 448 449 450 451 452 453 454 455 456 457 458 459 460 461 462 463 464 465 466 467 468 469 470 471 472 473 474 475 476 477 478 479 480 481 482 483 484 485 486 487 488 489 490 491 492 493 494 495 496 497 498 499 500 501 502 503 504 505 506 507 508 509 510 511 512 513 514 515 516 517 518 519 520 521 522 523 524 525 526 527 528 529 530 531 532 533 534 535 536 537 538 539 540 541 542 543 544 545 546 547 548 549 550 551 552 553 554 555 556 557 558 559 560 561 562 563 564 565 566 567 568 569 570 571 572 573 574 575 576 577 578 579 580 581 582 583 584 585 586 587 588 589 590 591 592 593 594 595 596 597 598 599 600 601 602 603 604 605 606 607 608 609 610 611 612 613 614 615 616 617 618 619 620 621 622 623 624 625 626 627 628 629 630 631 632 633 634 635 636 637 638 639 640 641 642 643 644 645 646 647 648 649 650 651 652 653 654 655 656 657 658 659 660 661 662 663 664 665 666 667 668 669 670 671 672 673 674 675 676 677 678 679 680 681 682 683 684 685 686 687 688 689 690 691 692 693 694 695 696 697 698 699 700 701 702 703 704 705 706 707 708 709 710 711 712 713 714 715 716 717 718 719 720 721 722 723 724 725 726 727 728 729 730 731 732 733 734 735 736 737 738 739 740 741 742 743 744 745 746 747 748 749 </DataArray>
        <DataArray type="Int32" Name="offsets" format="ascii">3 6 9 12 15 18 21 24 27 30 33 36 39 42 45 48 51 54 57 60 63 66 69 72 75 78 81 84 87 90 93 96 99 102 105 108 111 114 117 120 123 126 129 132 135 138 141 144 147 150 153 156 159 162 165 168 171 174 177 180 183 186 189 192 195 198 201 204 207 210 213 216 219 222 225 228 231 234 237 240 243 246 249 252 255 258 261 264 267 270 273 276 279 282 285 288 291 294 297 300 303 306 309 312 315 318 321 324 327 330 333 336 339 342 345 348 351 354 357 360 363 366 369 372 375 378 381 384 387 390 393 396 399 402 405 408 411 414 417 420 423 426 429 432 435 438 441 444 447 450 453 456 459 462 465 468 471 474 477 480 483 486 489 492 495 498 501 504 507 510 513 516 519 522 525 528 531 534 537 540 543 546 549 552 555 558 561 564 567 570 573 576 579 582 585 588 591 594 597 600 603 606 609 612 615 618 621 624 627 630 633 636 639 642 645 648 651 654 657 660 663 666 669 672 675 678 681 684 687 690 693 696 699 702 705 708 711 714 717 720 723 726 729 732 735 738 741 744 747 750 </DataArray>
        <DataArray type="Int8" Name="types" format="ascii">69 69 69 69 69 69 69 69 69 69 69 69 69 69 69 69 69 69 69 69 69 69 69 69 69 69 69 69 69 69 69 69 69 69 69 69 69 69 69 69 69 69 69 69 69 69 69 69 69 69 69 69 69 69 69 69 69 69 69 69 69 69 69 69 69 69 69 69 69 69 69 69 69 69 69 69 69 69 69 69 69 69 69 69 69 69 69 69 69 69 69 69 69 69 69 69 69 69 69 69 69 69 69 69 69 69 69 69 69 69 69 69 69 69 69 69 69 69 69 69 69 69 69 69 69 69 69 69 69 69 69 69 69 69 69 69 69 69 69 69 69 69 69 69 69 69 69 69 69 69 69 69 69 69 69 69 69 69 69 69 69 69 69 69 69 69 69 69 69 69 69 69 69 69 69 69 69 69 69 69 69 69 69 69 69 69 69 69 69 69 69 69 69 69 69 69 69 69 69 69 69 69 69 69 69 69 69 69 69 69 69 69 69 69 69 69 69 69 69 69 69 69 69 69 69 69 69 69 69 69 69 69 69 69 69 69 69 69 69 69 69 69 69 69 69 69 69 69 69 69 </DataArray>
      </Cells>
      <CellData>
        <DataArray type="UInt8" Name="vtkGhostType" format="ascii" RangeMin="0" RangeMax="1">0 0 0 0 0 0 0 0 0 0 0 0 0 0 0 0 0 0 0 0 0 0 0 0 0 0 0 0 0 0 0 0 0 0 0 0 0 0 0 0 0 0 0 0 0 0 0 0 0 0 0 0 0 0 0 0 0 0 0 0 0 0 0 0 0 0 0 0 0 0 0 0 0 0 0 0 0 0 0 0 0 0 0 0 0 0 0 0 0 0 0 0 0 0 0 0 0 0 0 0 0 0 0 0 0 0 0 0 0 0 0 0 0 0 0 0 0 0 0 0 0 0 0 0 0 0 0 0 0 0 0 0 0 0 0 0 0 0 0 0 0 0 0 0 0 0 0 0 0 0 0 0 0 0 0 0 0 0 0 0 0 0 0 0 0 0 0 0 0 0 0 0 0 0 0 0 0 0 0 0 0 0 0 0 0 0 0 0 0 0 0 0 0 0 0 0 0 0 0 0 0 0 0 0 0 0 0 0 0 0 0 0 0 0 0 0 0 0 0 0 0 0 0 0 0 0 0 0 0 0 0 0 0 0 0 0 0 0 0 0 0 0 0 0 0 0 0 0 0 0 </DataArray>
        <DataArray type="Int64" IdType="1" Name="vtkOriginalCellIds" format="ascii" RangeMin="0" RangeMax="249">0 1 2 3 4 5 6 7 8 9 10 11 12 13 14 15 16 17 18 19 20 21 22 23 24 25 26 27 28 29 30 31 32 33 34 35 36 37 38 39 40 41 42 43 44 45 46 47 48 49 50 51 52 53 54 55 56 57 58 59 60 61 62 63 64 65 66 67 68 69 70 71 72 73 74 75 76 77 78 79 80 81 82 83 84 85 86 87 88 89 90 91 92 93 94 95 96 97 98 99 100 101 102 103 104 105 106 107 108 109 110 111 112 113 114 115 116 117 118 119 120 121 122 123 124 125 126 127 128 129 130 131 132 133 134 135 136 137 138 139 140 141 142 143 144 145 146 147 148 149 150 151 152 153 154 155 156 157 158 159 160 161 162 163 164 165 166 167 168 169 170 171 172 173 174 175 176 177 178 179 180 181 182 183 184 185 186 187 188 189 190 191 192 193 194 195 196 197 198 199 200 201 202 203 204 205 206 207 208 209 210 211 212 213 214 215 216 217 218 219 220 221 222 223 224 225 226 227 228 229 230 231 232 233 234 235 236 237 238 239 240 241 242 243 244 245 246 247 248 249 </DataArray>
      </CellData>
      <PointData Tensors="stress" Vectors="von_mises_stress">
        <DataArray type="Int64" IdType="1" Name="vtkOriginalPointIds" format="ascii" RangeMin="0" RangeMax="749">0 1 2 3 4 5 6 7 8 9 10 11 12 13 14 15 16 17 18 19 20 21 22 23 24 25 26 27 28 29 30 31 32 33 34 35 36 37 38 39 40 41 42 43 44 45 46 47 48 49 50 51 52 53 54 55 56 57 58 59 60 61 62 63 64 65 66 67 68 69 70 71 72 73 74 75 76 77 78 79 80 81 82 83 84 85 86 87 88 89 90 91 92 93 94 95 96 97 98 99 100 101 102 103 104 105 106 107 108 109 110 111 112 113 114 115 116 117 118 119 120 121 122 123 124 125 126 127 128 129 130 131 132 133 134 135 136 137 138 139 140 141 142 143 144 145 146 147 148 149 150 151 152 153 154 155 156 157 158 159 160 161 162 163 164 165 166 167 168 169 170 171 172 173 174 175 176 177 178 179 180 181 182 183 184 185 186 187 188 189 190 191 192 193 194 195 196 197 198 199 200 201 202 203 204 205 206 207 208 209 210 211 212 213 214 215 216 217 218 219 220 221 222 223 224 225 226 227 228 229 230 231 232 233 234 235 236 237 238 239 240 241 242 243 244 245 246 247 248 249 250 251 252 253 254 255 256 257 258 259 260 261 262 263 264 265 266 267 268 269 270 271 272 273 274 275 276 277 278 279 280 281 282 283 284 285 286 287 288 289 290 291 292 293 294 295 296 297 298 299 300 301 302 303 304 305 306 307 308 309 310 311 312 313 314 315 316 317 318 319 320 321 322 323 324 325 326 327 328 329 330 331 332 333 334 335 336 337 338 339 340 341 342 343 344 345 346 347 348 349 350 351 352 353 354 355 356 357 358 359 360 361 362 363 364 365 366 367 368 369 370 371 372 373 374 375 376 377 378 379 380 381 382 383 384 385 386 387 388 389 390 391 392 393 394 395 396 397 398 399 400 401 402 403 404 405 406 407 408 409 410 411 412 413 414 415 416 417 418 419 420 421 422 423 424 425 426 427 428 429 430 431 432 433 434 435 436 437 438 439 440 441 442 443 444 445 446 447 448 449 450 451 452 453 454 455 456 457 458 459 460 461 462 463 464 465 466 467 468 469 470 471 472 473 474 475 476 477 478 479 480 481 482 483 484 485 486 487 488 489 490 491 492 493 494 495 496 497 498 499 500 501 502 503 504 505 506 507 508 509 510 511 512 513 514 515 516 517 518 519 520 521 522 523 524 525 526 527 528 529 530 531 532 533 534 535 536 537 538 539 540 541 542 543 544 545 546 547 548 549 550 551 552 553 554 555 556 557 558 559 560 561 562 563 564 565 566 567 568 569 570 571 572 573 574 575 576 577 578 579 580 581 582 583 584 585 586 587 588 589 590 591 592 593 594 595 596 597 598 599 600 601 602 603 604 605 606 607 608 609 610 611 612 613 614 615 616 617 618 619 620 621 622 623 624 625 626 627 628 629 630 631 632 633 634 635 636 637 638 639 640 641 642 643 644 645 646 647 648 649 650 651 652 653 654 655 656 657 658 659 660 661 662 663 664 665 666 667 668 669 670 671 672 673 674 675 676 677 678 679 680 681 682 683 684 685 686 687 688 689 690 691 692 693 694 695 696 697 698 699 700 701 702 703 704 705 706 707 708 709 710 711 712 713 714 715 716 717 718 719 720 721 722 723 724 725 726 727 728 729 730 731 732 733 734 735 736 737 738 739 740 741 742 743 744 745 746 747 748 749 </DataArray>
        <DataArray type="UInt8" Name="vtkGhostType" format="ascii" RangeMin="0" RangeMax="0">0 0 0 0 0 0 0 0 0 0 0 0 0 0 0 0 0 0 0 0 0 0 0 0 0 0 0 0 0 0 0 0 0 0 0 0 0 0 0 0 0 0 0 0 0 0 0 0 0 0 0 0 0 0 0 0 0 0 0 0 0 0 0 0 0 0 0 0 0 0 0 0 0 0 0 0 0 0 0 0 0 0 0 0 0 0 0 0 0 0 0 0 0 0 0 0 0 0 0 0 0 0 0 0 0 0 0 0 0 0 0 0 0 0 0 0 0 0 0 0 0 0 0 0 0 0 0 0 0 0 0 0 0 0 0 0 0 0 0 0 0 0 0 0 0 0 0 0 0 0 0 0 0 0 0 0 0 0 0 0 0 0 0 0 0 0 0 0 0 0 0 0 0 0 0 0 0 0 0 0 0 0 0 0 0 0 0 0 0 0 0 0 0 0 0 0 0 0 0 0 0 0 0 0 0 0 0 0 0 0 0 0 0 0 0 0 0 0 0 0 0 0 0 0 0 0 0 0 0 0 0 0 0 0 0 0 0 0 0 0 0 0 0 0 0 0 0 0 0 0 0 0 0 0 0 0 0 0 0 0 0 0 0 0 0 0 0 0 0 0 0 0 0 0 0 0 0 0 0 0 0 0 0 0 0 0 0 0 0 0 0 0 0 0 0 0 0 0 0 0 0 0 0 0 0 0 0 0 0 0 0 0 0 0 0 0 0 0 0 0 0 0 0 0 0 0 0 0 0 0 0 0 0 0 0 0 0 0 0 0 0 0 0 0 0 0 0 0 0 0 0 0 0 0 0 0 0 0 0 0 0 0 0 0 0 0 0 0 0 0 0 0 0 0 0 0 0 0 0 0 0 0 0 0 0 0 0 0 0 0 0 0 0 0 0 0 0 0 0 0 0 0 0 0 0 0 0 0 0 0 0 0 0 0 0 0 0 0 0 0 0 0 0 0 0 0 0 0 0 0 0 0 0 0 0 0 0 0 0 0 0 0 0 0 0 0 0 0 0 0 0 0 0 0 0 0 0 0 0 0 0 0 0 0 0 0 0 0 0 0 0 0 0 0 0 0 0 0 0 0 0 0 0 0 0 0 0 0 0 0 0 0 0 0 0 0 0 0 0 0 0 0 0 0 0 0 0 0 0 0 0 0 0 0 0 0 0 0 0 0 0 0 0 0 0 0 0 0 0 0 0 0 0 0 0 0 0 0 0 0 0 0 0 0 0 0 0 0 0 0 0 0 0 0 0 0 0 0 0 0 0 0 0 0 0 0 0 0 0 0 0 0 0 0 0 0 0 0 0 0 0 0 0 0 0 0 0 0 0 0 0 0 0 0 0 0 0 0 0 0 0 0 0 0 0 0 0 0 0 0 0 0 0 0 0 0 0 0 0 0 0 0 0 0 0 0 0 0 0 0 0 0 0 0 0 0 0 0 0 0 0 0 0 0 0 0 0 0 0 0 0 0 0 0 0 0 0 0 0 0 0 0 0 0 0 0 0 0 0 0 0 0 0 0 0 0 0 0 0 0 0 0 0 0 0 0 0 0 0 0 0 0 0 0 0 0 0 0 0 0 0 0 0 0 0 0 0 0 0 0 0 0 0 0 0 0 0 0 0 0 0 0 0 0 0 0 0 0 0 0 0 0 0 0 0 0 0 0 0 0 0 0 0 0 0 0 0 0 0 0 </DataArray>
        <DataArray type="Float64" Name="stress" format="ascii" NumberOfComponents="9">107415322.5801702 2468890.800147762 2468890.800147762 13560184.03169168 0 0 0 0 0 107218771.3658126 25167.41226022152 25167.41226022152 14861979.32835245 0 0 0 0 0 108753774.6021406 2087537.517562766 2087537.517562766 15904369.94628126 0 0 0 0 0 107080898.5822303 -114863.2219182751 -114863.2219182751 14472394.92996981 0 0 0 0 0 109213954.0814084 27385.37276764527 27385.37276764527 17172541.8193331 0 0 0 0 0 108857246.9240621 2209112.926547145 2209112.926547145 16259823.36847315 0 0 0 0 0 109671126.1808521 4186840.81448249 4186840.81448249 14251825.05265047 0 0 0 0 0 107377509.1764117 2397310.50665885 2397310.50665885 13629615.99401747 0 0 0 0 0 108890416.6072185 2204358.597786239 2204358.597786239 15802849.04567084 0 0 0 0 0 109359309.9488069 4048.251178503726 4048.251178503726 17816584.53521243 0 0 0 0 0 111083935.1066574 3093509.94793747 3093509.94793747 17815898.66877428 0 0 0 0 0 108787856.6939764 2198522.985228116 2198522.985228116 15850015.05377209 0 0 0 0 0 108183681.8022048 4325599.188385537 4325599.188385537 10894714.54603013 0 0 0 0 0 107529786.8370206 2526096.330027649 2526096.330027649 13853574.17747249 0 0 0 0 0 109561337.7509375 4105363.931996333 4105363.931996333 14111712.79506847 0 0 0 0 0 111134022.2399362 3255540.08132847 3255540.08132847 17921318.31799635 0 0 0 0 0 109589761.1131458 4150690.121298516 4150690.121298516 14005330.86939611 0 0 0 0 0 108902204.4210236 2178489.73788596 2178489.73788596 15867922.2179123 0 0 0 0 0 109101336.9782571 -166229.801450936 -166229.801450936 17243959.46752935 0 0 0 0 0 112273934.1115369 170699.3313789228 170699.3313789228 20694265.86938527 0 0 0 0 0 111294780.0742749 3242219.877631098 3242219.877631098 18502105.15669913 0 0 0 0 0 108145740.3196877 4232734.745506966 4232734.745506966 11068947.10957392 0 0 0 0 0 109587189.2678475 4246488.80020392 4246488.80020392 13850129.91353479 0 0 0 0 0 110829174.824406 5712855.225790136 5712855.225790136 10297429.70087763 0 0 0 0 0 112697479.536732 6038787.161886 6038787.161886 13754645.03465443 0 0 0 0 0 109516918.6512432 4140345.60303226 4140345.60303226 14077011.52785037 0 0 0 0 0 111148462.0478435 3287421.483132856 3287421.483132856 17820870.16394142 0 0 0 0 0 112487451.964306 67278.29770942884 67278.29770942884 21568033.7346487 0 0 0 0 0 115042159.5890649 3410625.562595984 3410625.562595984 21457842.13408455 0 0 0 0 0 111082529.9773628 3350833.440260544 3350833.440260544 17714136.7870326 0 0 0 0 0 109103174.5250258 5133605.744872445 5133605.744872445 7316423.58577501 0 0 0 0 0 108354728.1346155 4390474.516096514 4390474.516096514 11334690.54365652 0 0 0 0 0 110598787.8953481 5519789.501947037 5519789.501947037 9969972.595016994 0 0 0 0 0 110658186.4113891 5650975.157416025 5650975.157416025 9737262.580900744 0 0 0 0 0 109757384.6728817 4330439.108111491 4330439.108111491 14403923.57559942 0 0 0 0 0 112447487.6772998 5782142.568512648 5782142.568512648 13305099.63343044 0 0 0 0 0 112493760.9073182 5961941.401631145 5961941.401631145 13105036.67651222 0 0 0 0 0 111391567.9580305 3370773.361514683 3370773.361514683 18599893.07855495 0 0 0 0 0 114771727.7477111 5932709.774844868 5932709.774844868 16499725.28615699 0 0 0 0 0 112154557.7009545 -172607.1883752115 -172607.1883752115 20692959.6565472 0 0 0 0 0 117307425.415511 211606.4369217041 211606.4369217041 25088441.65828703 0 0 0 0 0 115321011.9546533 3629225.659042626 3629225.659042626 22399254.12709259 0 0 0 0 0 110970463.1137957 3039330.346653828 3039330.346653828 17764539.9613106 0 0 0 0 0 115206349.5637265 3755745.46008937 3755745.46008937 21413627.30312749 0 0 0 0 0 115084004.8233509 6195105.075156284 6195105.075156284 17184992.03253024 0 0 0 0 0 111641195.1133394 5720572.460737669 5720572.460737669 5567345.326101551 0 0 0 0 0 109028159.7782917 5039892.79560041 5039892.79560041 7491860.048481885 0 0 0 0 0 110703336.0852137 5649234.359739447 5649234.359739447 9727562.243502036 0 0 0 0 0 110599904.410306 5551228.671089523 5551228.671089523 9959029.330766436 0 0 0 0 0 112534342.6355217 5926431.719777258 5926431.719777258 12983768.89373779 0 0 0 0 0 113529490.0596697 6487853.661994577 6487853.661994577 7968443.535385586 0 0 0 0 0 112428893.4766001 5812089.033811569 5812089.033811569 13314452.63769797 0 0 0 0 0 115046780.3752473 6182678.775835636 6182678.775835636 16158677.81306206 0 0 0 0 0 115566463.597192 7045013.005497651 7045013.005497651 10576312.85101644 0 0 0 0 0 115007605.4954577 3825166.730703546 3825166.730703546 21504417.53313483 0 0 0 0 0 117555327.0541327 62369.71440395925 62369.71440395925 26218462.7720409 0 0 0 0 0 121383410.4863071 4073642.978101939 4073642.978101939 25452554.53297493 0 0 0 0 0 115414462.5515741 3789330.138253731 3789330.138253731 22387085.11894663 0 0 0 0 0 119498817.4439362 6644216.680020351 6644216.680020351 18723055.62111609 0 0 0 0 0 114905385.7413687 6166328.792774828 6166328.792774828 16349634.53580343 0 0 0 0 0 109792282.4370838 4878967.54879409 4878967.54879409 3615166.398818836 0 0 0 0 0 109270103.9598117 5199267.951754668 5199267.951754668 7759115.644197655 0 0 0 0 0 111377649.0565195 5529956.347101934 5529956.347101934 5245248.114785838 0 0 0 0 0 111479218.3933883 5636053.350994055 5636053.350994055 5019819.773145277 0 0 0 0 0 110873525.2076036 5741234.27051833 5741234.27051833 10303129.05107496 0 0 0 0 0 113244468.9841088 6255469.092647327 6255469.092647327 7536644.802990104 0 0 0 0 0 113336398.02966 6419120.403074134 6419120.403074134 7287748.677628913 0 0 0 0 0 112759858.9645481 6024859.03064079 6024859.03064079 13787114.71738416 0 0 0 0 0 115326238.4298965 6833363.942307252 6833363.942307252 9996779.386806028 0 0 0 0 0 115256958.0193498 6252565.644373797 6252565.644373797 16976197.54962936 0 0 0 0 0 118603542.2742852 7397742.26574434 7397742.26574434 11174203.37788429 0 0 0 0 0 115406748.7987285 6981406.378082317 6981406.378082317 9942911.565112373 0 0 0 0 0 117132702.1492736 -223931.278719238 -223931.278719238 25162665.22522694 0 0 0 0 0 125989015.502986 334012.8051621449 334012.8051621449 30514698.82834143 0 0 0 0 0 121634194.4730425 4273856.681077717 4273856.681077717 26687440.99131567 0 0 0 0 0 114976238.8173033 3480990.575469423 3480990.575469423 21500293.89334201 0 0 0 0 0 121490951.6671354 4517465.90618798 4517465.90618798 25477997.87196923 0 0 0 0 0 119793439.2485999 6887107.324041088 6887107.324041088 19570149.23525774 0 0 0 0 0 119723880.1622748 6984264.914273011 6984264.914273011 18711460.95453676 0 0 0 0 0 118768724.9422757 7525288.284559341 7525288.284559341 11640519.45417907 0 0 0 0 0 114898765.5223088 6022007.776446952 6022007.776446952 16380604.44252472 0 0 0 0 0 109685497.2493071 4816720.477504325 4816720.477504325 3740373.731691396 0 0 0 0 0 111531711.6951754 5609962.16692751 5609962.16692751 5082615.043157257 0 0 0 0 0 111859164.4229168 4517738.079086071 4517738.079086071 1125548.547357216 0 0 0 0 0 111417112.7489119 5548720.275566119 5548720.275566119 5236741.838592301 0 0 0 0 0 113368392.9934601 6359743.73994699 6359743.73994699 7263384.540297405 0 0 0 0 0 113687356.9653187 5334671.948945729 5334671.948945729 2487722.029303503 0 0 0 0 0 117065509.0785019 6455096.496642162 6455096.496642162 4713120.155082186 0 0 0 0 0 113146530.2956734 6291570.803988582 6291570.803988582 7586585.249019854 0 0 0 0 0 115539935.9301804 6891790.409926292 6891790.409926292 9835687.679387955 0 0 0 0 0 118736991.847791 7543099.256885095 7543099.256885095 11121133.4964234 0 0 0 0 0 116812313.067242 6285053.761625853 6285053.761625853 4191149.977587789 0 0 0 0 0 115591297.8608034 6904742.814244675 6904742.814244675 10035332.28396937 0 0 0 0 0 126328530.2151844 89953.95975154659 89953.95975154659 31958093.59961223 0 0 0 0 0 133016869.6437653 4253661.267927554 4253661.267927554 30095537.97889596 0 0 0 0 0 121034571.5409269 4661273.987984564 4661273.987984564 25499899.50332033 0 0 0 0 0 119497189.1880684 7041198.672218064 7041198.672218064 18687954.29413609 0 0 0 0 0 121683475.799629 4463971.586718662 4463971.586718662 26419410.32310585 0 0 0 0 0 127334038.5791998 6947182.922963602 6947182.922963602 21328605.34559877 0 0 0 0 0 119853162.3886276 6967053.598594122 6967053.598594122 19264245.24653896 0 0 0 0 0 124378128.1642817 7628860.859520959 7628860.859520959 11533655.50007909 0 0 0 0 0 118623604.4437719 7567704.862497361 7567704.862497361 11113480.70520522 0 0 0 0 0 109989955.5055087 3827505.587963756 3827505.587963756 377742.1713625718 0 0 0 0 0 109910987.327622 4940990.228174815 4940990.228174815 3949227.847841689 0 0 0 0 0 111605839.6720097 4373575.312918894 4373575.312918894 882103.5850999861 0 0 0 0 0 111738279.8278348 4438433.170480672 4438433.170480672 718724.7453164983 0 0 0 0 0 111654610.6388331 5692308.715912201 5692308.715912201 5496301.140845045 0 0 0 0 0 113425608.0481168 5175554.871193847 5175554.871193847 2199678.270478453 0 0 0 0 0 113528880.5562072 6488679.041729003 6488679.041729003 7864289.303845388 0 0 0 0 0 116675895.194729 6165812.208619739 6165812.208619739 4327651.807930926 0 0 0 0 0 113529133.5221824 5253751.985846597 5253751.985846597 1917199.325444476 0 0 0 0 0 121916483.8964803 6178659.518751825 6178659.518751825 3378068.959855229 0 0 0 0 0 116719441.9846052 6370800.835431695 6370800.835431695 4313498.925199761 0 0 0 0 0 118794598.8926483 7498058.031408827 7498058.031408827 11139470.53267083 0 0 0 0 0 125853321.1054423 -231176.507347443 -231176.507347443 30691629.8842434 0 0 0 0 0 142863367.3032891 483912.7716606448 483912.7716606448 36305368.04907739 0 0 0 0 0 132966175.1617627 4282382.211261269 4282382.211261269 31536978.12128104 0 0 0 0 0 121442312.6139293 4251096.217309233 4251096.217309233 25619989.1128594 0 0 0 0 0 132568737.4474365 4816428.768384031 4816428.768384031 29964161.17769946 0 0 0 0 0 127380542.0789172 7073063.737893029 7073063.737893029 22089595.22348244 0 0 0 0 0 124372424.3265217 7678306.079243788 7678306.079243788 11933849.20423941 0 0 0 0 0 119726050.2935749 6850725.696474756 6850725.696474756 18791741.60899005 0 0 0 0 0 127198854.0321261 7347271.058984635 7347271.058984635 21212580.23424848 0 0 0 0 0 124285303.8015755 7727096.277190859 7727096.277190859 11482521.21143986 0 0 0 0 0 121702696.9411439 6068082.874286226 6068082.874286226 3250666.718446723 0 0 0 0 0 118900156.9923117 7552130.858480563 7552130.858480563 11198034.30368473 0 0 0 0 0 111404984.6304812 2678566.80262172 2678566.80262172 -2264181.25747441 0 0 0 0 0 109881709.0771376 3799336.772027528 3799336.772027528 435004.1205481726 0 0 0 0 0 111747536.5598644 4392715.789170435 4392715.789170435 838343.0393076895 0 0 0 0 0 113857473.7276266 3027393.070426644 3027393.070426644 -2489576.406413505 0 0 0 0 0 111590186.5850562 4391999.042486117 4391999.042486117 919036.3617481391 0 0 0 0 0 113572932.8228115 5228517.423419425 5228517.423419425 1981911.419702454 0 0 0 0 0 116967096.1753653 6284661.719755725 6284661.719755725 4017759.808488149 0 0 0 0 0 115913741.2256897 4218868.010372509 4218868.010372509 -851048.5362631175 0 0 0 0 0 113396014.2385758 5156693.257083472 5156693.257083472 2148523.36267382 0 0 0 0 0 118813318.8871998 3620817.48588736 3620817.48588736 -2362439.888274855 0 0 0 0 0 117081880.4776502 6434558.173790164 6434558.173790164 4386582.323380782 0 0 0 0 0 121640807.0332595 6103452.967913655 6103452.967913655 3333783.893171483 0 0 0 0 0 131693616.9423992 5069126.18475248 5069126.18475248 29977595.82236507 0 0 0 0 0 143311327.9418213 175451.3691848587 175451.3691848587 37642440.45849292 0 0 0 0 0 155630437.8647006 1377369.041618094 1377369.041618094 34252388.45755733 0 0 0 0 0 126534394.8103134 7609381.746627934 7609381.746627934 21118480.71020881 0 0 0 0 0 132969925.9176631 4559126.521224023 4559126.521224023 30806093.33188672 0 0 0 0 0 141563883.6809603 5012213.048546975 5012213.048546975 24253974.52855987 0 0 0 0 0 133610687.42488 6147270.770967475 6147270.770967475 12533737.13506404 0 0 0 0 0 123980692.0236645 7961224.749741686 7961224.749741686 11276730.29428448 0 0 0 0 0 127360749.113841 7293722.903111436 7293722.903111436 21830299.87178044 0 0 0 0 0 124353726.9539191 7646652.410313842 7646652.410313842 11475519.17559033 0 0 0 0 0 128189092.3375981 4573415.296647537 4573415.296647537 1932147.510474543 0 0 0 0 0 121549136.1455975 6232986.968263588 6232986.968263588 3199099.417891339 0 0 0 0 0 109627369.4483641 2347450.09633104 2347450.09633104 -2086373.39405536 0 0 0 0 0 110042582.0366154 3869304.977966381 3869304.977966381 546371.917987039 0 0 0 0 0 111224570.0901008 2595968.036941008 2595968.036941008 -2396222.941721919 0 0 0 0 0 111344335.0121284 2609967.325262099 2609967.325262099 -2440400.932318637 0 0 0 0 0 111834602.2036256 4501819.379940955 4501819.379940955 1087098.879635109 0 0 0 0 0 113520694.4215011 2872989.713839881 2872989.713839881 -2725533.503262855 0 0 0 0 0 115738188.0826412 4083419.563566827 4083419.563566827 -1016482.469865735 0 0 0 0 0 113589603.6062804 2820530.029306914 2820530.029306914 -3013075.724549156 0 0 0 0 0 113799390.3791692 5393392.811757646 5393392.811757646 2454132.567775978 0 0 0 0 0 119023784.4099742 3747641.403970566 3747641.403970566 -2097931.892707273 0 0 0 0 0 115866935.5893545 4161602.183719644 4161602.183719644 -1077216.016907773 0 0 0 0 0 117006364.0477421 6381473.082968163 6381473.082968163 4261081.235042119 0 0 0 0 0 123216887.651949 1733126.810092029 1733126.810092029 -4810452.809472917 0 0 0 0 0 118716751.8875694 3758060.222046735 3758060.222046735 -2128237.496619425 0 0 0 0 0 121695872.1779513 5972573.717387586 5972573.717387586 2894821.597767727 0 0 0 0 0 143095570.4688261 21627.02992004629 21627.02992004629 36769912.50994629 0 0 0 0 0 180316775.7461572 457498.5353802712 457498.5353802712 38489919.08461602 0 0 0 0 0 154299109.1230836 621313.7816754691 621313.7816754691 34837667.3094767 0 0 0 0 0 133509825.3825478 4707503.968611516 4707503.968611516 30560777.48738035 0 0 0 0 0 153069087.3156511 1905964.74958912 1905964.74958912 33427804.93431565 0 0 0 0 0 140680503.2640855 4802904.429424232 4802904.429424232 24834543.58941741 0 0 0 0 0 133109298.9708556 6064326.960582545 6064326.960582545 12836644.10145939 0 0 0 0 0 127815997.7918612 7367673.496095031 7367673.496095031 21549439.9746317 0 0 0 0 0 140100645.2523955 5460424.935908907 5460424.935908907 23722330.46085691 0 0 0 0 0 132752818.1264696 6414666.992866039 6414666.992866039 12174662.47903232 0 0 0 0 0 127618081.7972087 4357968.632432274 4357968.632432274 1722042.777199578 0 0 0 0 0 124818820.5123151 7804498.474366941 7804498.474366941 11577568.59466957 0 0 0 0 0 127424880.5138753 4514725.018642739 4514725.018642739 1758727.654756082 0 0 0 0 0 122536711.5820308 1361976.463041829 1361976.463041829 -5504122.589336388 0 0 0 0 0 122306069.051235 6275260.754464704 6275260.754464704 3378901.203444858 0 0 0 0 0 109549338.5516063 2352391.55952688 2352391.55952688 -2090500.343620597 0 0 0 0 0 111364415.989534 2593814.667935598 2593814.667935598 -2400347.868264214 0 0 0 0 0 110366913.8503215 382630.6857763418 382630.6857763418 -4851652.347645775 0 0 0 0 0 111273515.4351806 2593649.910576321 2593649.910576321 -2408130.128646952 0 0 0 0 0 113641064.7812413 2869024.070430064 2869024.070430064 -2725702.61104807 0 0 0 0 0 111924856.6228612 740652.6328658526 740652.6328658526 -4946670.364206564 0 0 0 0 0 115912173.0692226 4049613.156333094 4049613.156333094 -1315442.137457029 0 0 0 0 0 116208049.7351397 1395162.947164655 1395162.947164655 -5192895.999472314 0 0 0 0 0 113407984.3717867 2847955.786396965 2847955.786396965 -2642673.294018439 0 0 0 0 0 118810658.2840718 3678266.165052501 3678266.165052501 -2086721.861062084 0 0 0 0 0 115815788.9626243 1159728.726589225 1159728.726589225 -5693809.891595429 0 0 0 0 0 116107491.3309575 4170628.542484949 4170628.542484949 -1033358.022570197 0 0 0 0 0 118049144.6919716 -1400009.574550391 -1400009.574550391 -8879951.516025366 0 0 0 0 0 119430713.5355628 3934218.480723522 3934218.480723522 -2012475.206668441 0 0 0 0 0 122432604.9305847 1514268.340621003 1514268.340621003 -4926222.827635569 0 0 0 0 0 150919056.2858591 2369830.888044827 2369830.888044827 33780755.92508104 0 0 0 0 0 183149253.8662379 -830048.5760725574 -830048.5760725574 37415109.47967651 0 0 0 0 0 196616915.5297842 -10746061.53574018 -10746061.53574018 31745480.11208729 0 0 0 0 0 139035321.7092427 5820117.585074776 5820117.585074776 23518393.1234642 0 0 0 0 0 154433143.4490771 1065246.125402374 1065246.125402374 34392655.84056934 0 0 0 0 0 162755572.6376194 -3029428.76340554 -3029428.76340554 26437525.13117114 0 0 0 0 0 147182419.0329981 -365441.8605852537 -365441.8605852537 14212452.16766446 0 0 0 0 0 131952657.4948099 6933793.369839774 6933793.369839774 11785643.45324376 0 0 0 0 0 140808640.5822655 4916901.160055378 4916901.160055378 24256141.76885116 0 0 0 0 0 135419416.4816229 -155852.935365987 -155852.935365987 -98028.15972483793 0 0 0 0 0 127203350.7976293 4792737.007957174 4792737.007957174 1493859.184695978 0 0 0 0 0 133072002.7700797 6048169.376075549 6048169.376075549 12219800.16496421 0 0 0 0 0 127616471.436894 4175732.272199216 4175732.272199216 1051186.901574201 0 0 0 0 0 126949985.3178487 -2701264.026564649 -2701264.026564649 -8406284.104044903 0 0 0 0 0 122341696.0531674 1648688.504814993 1648688.504814993 -5085418.125577208 0 0 0 0 0 108787650.7054015 778004.1621979893 778004.1621979893 -3725848.103896098 0 0 0 0 0 109623003.7023749 2364957.446044676 2364957.446044676 -2071043.182260106 0 0 0 0 0 110275152.0054036 386253.9628041351 386253.9628041351 -4845426.095819796 0 0 0 0 0 110299561.966632 292332.8391379399 292332.8391379399 -4971191.424251689 0 0 0 0 0 111395958.2486571 2635190.879753978 2635190.879753978 -2343154.604185311 0 0 0 0 0 111875304.9886349 760607.1087416796 760607.1087416796 -4914724.504525449 0 0 0 0 0 113586613.2131968 2848235.995699998 2848235.995699998 -2953389.622509289 0 0 0 0 0 113584138.9165454 -603211.4747660938 -603211.4747660938 -6791859.940052249 0 0 0 0 0 111917485.4051948 784514.8557561247 784514.8557561247 -4907609.366672476 0 0 0 0 0 113923844.0836416 3050678.298303719 3050678.298303719 -2527067.162699374 0 0 0 0 0 115838950.068464 1276078.989481472 1276078.989481472 -5280333.617292986 0 0 0 0 0 113235240.1538958 -817853.427780721 -817853.427780721 -7255900.973435396 0 0 0 0 0 118701283.1775228 -1025894.653241809 -1025894.653241809 -8130960.898536935 0 0 0 0 0 115787878.0352943 1257810.364954563 1257810.364954563 -5334773.257621163 0 0 0 0 0 118793488.5157323 3597020.796849382 3597020.796849382 -2604959.772978133 0 0 0 0 0 120253999.1649236 -5390910.431004433 -5390910.431004433 -11745851.55611739 0 0 0 0 0 117932105.04263 -1173361.729769039 -1173361.729769039 -8310449.603197684 0 0 0 0 0 122532168.3406183 1256092.701502142 1256092.701502142 -5763431.493538144 0 0 0 0 0 185245612.703997 1054603.173584032 1054603.173584032 38719209.657347 0 0 0 0 0 277930755.8994768 -4156397.544702296 -4156397.544702296 10637104.50804737 0 0 0 0 0 189995469.8028069 -17865537.00519451 -17865537.00519451 34336138.94679184 0 0 0 0 0 157740359.810263 2772094.351231102 2772094.351231102 35867413.01911447 0 0 0 0 0 186469303.4298368 -11875885.37635339 -11875885.37635339 28559139.70598535 0 0 0 0 0 159564473.63785 -4400632.173814314 -4400632.173814314 27677518.09314585 0 0 0 0 0 145497836.7027162 -917906.8966496901 -917906.8966496901 13831194.5156947 0 0 0 0 0 142625820.7745067 5507108.820235291 5507108.820235291 24646301.6321131 0 0 0 0 0 158748004.9690302 -2521883.210809705 -2521883.210809705 25129773.18514276 0 0 0 0 0 133870182.1683828 -732376.2275252542 -732376.2275252542 -555891.4311717937 0 0 0 0 0 134773745.5894108 6669090.604798505 6669090.604798505 12670751.50446177 0 0 0 0 0 143879617.3333623 299614.2492118297 299614.2492118297 12999772.98880905 0 0 0 0 0 133280856.2997214 -270880.832645244 -270880.832645244 -617818.4912282854 0 0 0 0 0 125651720.9694534 -3365272.279531593 -3365272.279531593 -9497925.894383954 0 0 0 0 0 129005419.5246565 4833508.184128053 4833508.184128053 1958949.722315795 0 0 0 0 0 125362287.9668698 -3020979.112960347 -3020979.112960347 -8677209.903380692 0 0 0 0 0 119177851.8127812 -5979177.391647365 -5979177.391647365 -12841973.30034516 0 0 0 0 0 123702618.6062841 1845132.690260112 1845132.690260112 -4815467.518920313 0 0 0 0 0 108524274.033762 -1181208.111519011 -1181208.111519011 -5644581.967155149 0 0 0 0 0 108802087.7970186 800432.4744913549 800432.4744913549 -3752747.938342866 0 0 0 0 0 110234080.9947665 326872.757499618 326872.757499618 -4774487.032770971 0 0 0 0 0 111211542.1247681 -1681954.567373232 -1681954.567373232 -6966470.074294345 0 0 0 0 0 110137204.2604725 318168.8883140809 318168.8883140809 -4847538.954988868 0 0 0 0 0 111955302.2603133 764593.9813534614 764593.9813534614 -5052655.266612766 0 0 0 0 0 113148139.1925511 -753060.6650135409 -753060.6650135409 -6849797.75987612 0 0 0 0 0 110925271.0472837 -1846699.637387735 -1846699.637387735 -7273893.150678367 0 0 0 0 0 112186902.2977333 889171.2869613915 889171.2869613915 -4876852.046647689 0 0 0 0 0 115862252.1892065 1130238.743843748 1130238.743843748 -5808871.803404383 0 0 0 0 0 114679443.5962537 -3179385.609743558 -3179385.609743558 -9295477.729061542 0 0 0 0 0 113201534.7833112 -692139.1903915369 -692139.1903915369 -6868758.498193893 0 0 0 0 0 117956196.491735 -1237343.560419913 -1237343.560419913 -8231887.868657541 0 0 0 0 0 114136610.3530469 -3493908.223495051 -3493908.223495051 -9934271.816048725 0 0 0 0 0 116437294.8679785 1440363.966408493 1440363.966408493 -5245977.919913582 0 0 0 0 0 114082295.6354405 -7576926.515197887 -7576926.515197887 -13027207.01620456 0 0 0 0 0 118964941.9337275 -975890.8876771269 -975890.8876771269 -8126969.749373012 0 0 0 0 0 118972059.5255236 -5682862.567700903 -5682862.567700903 -11951111.61205515 0 0 0 0 0 306682046.6219007 -12612664.2336275 -12612664.2336275 3256210.773737709 0 0 0 0 0 266726464.4031513 -64889425.42671687 -64889425.42671687 23510028.04475442 0 0 0 0 0 170301432.5104706 -8679769.204676796 -8679769.204676796 29224181.27019711 0 0 0 0 0 194016371.2003434 -15698595.85324506 -15698595.85324506 32944532.18548951 0 0 0 0 0 169971916.5237013 -20585859.72301613 -20585859.72301613 21592237.89654076 0 0 0 0 0 157683761.6812036 -3452033.162810616 -3452033.162810616 26615073.16280336 0 0 0 0 0 168962001.5798746 -20526793.00036956 -20526793.00036956 21588833.73859497 0 0 0 0 0 143080573.2468913 1339436.355539656 1339436.355539656 11616592.31742071 0 0 0 0 0 159968083.6232446 -3570729.069781281 -3570729.069781281 26642476.34949687 0 0 0 0 0 132689590.9872391 448280.300751971 448280.300751971 -1372455.404178123 0 0 0 0 0 145106461.1228312 -963607.7363198226 -963607.7363198226 13695209.2748232 0 0 0 0 0 140783865.5605857 -11027033.82485812 -11027033.82485812 -512507.1712106089 0 0 0 0 0 127366859.548322 -10860852.73764061 -10860852.73764061 -12143247.10967928 0 0 0 0 0 125221540.1334014 -2771356.741185441 -2771356.741185441 -8985147.028403979 0 0 0 0 0 133855878.0037313 -1090044.108873853 -1090044.108873853 -1418453.98906612 0 0 0 0 0 125629792.5436359 -3538214.974931221 -3538214.974931221 -9722935.631631831 0 0 0 0 0 118880357.0887542 -12264265.73370333 -12264265.73370333 -15543052.98477407 0 0 0 0 0 118971397.6707986 -5590561.296080637 -5590561.296080637 -12084629.39510506 0 0 0 0 0 107625526.9251213 -669450.2538867075 -669450.2538867075 -4661790.148706176 0 0 0 0 0 108741309.040951 754514.964071368 754514.964071368 -3835868.081127369 0 0 0 0 0 108603872.7823215 -1115527.352033979 -1115527.352033979 -5524253.814001079 0 0 0 0 0 108536369.8655485 -1129862.851650496 -1129862.851650496 -5497052.170821552 0 0 0 0 0 110200263.8533997 261404.0543146655 261404.0543146655 -5032344.41543912 0 0 0 0 0 109317812.3888417 -2407228.979604045 -2407228.979604045 -6855868.81963233 0 0 0 0 0 110506333.9140215 426414.3954240824 426414.3954240824 -4733140.063597594 0 0 0 0 0 110866657.8466032 -1762590.582749045 -1762590.582749045 -7072650.715963407 0 0 0 0 0 109107478.5302362 -2526165.098751479 -2526165.098751479 -7088884.531945889 0 0 0 0 0 111304888.0608904 -4353638.666039759 -4353638.666039759 -9076964.353187671 0 0 0 0 0 110859796.1128359 -1790846.969288856 -1790846.969288856 -7121844.724789918 0 0 0 0 0 113218030.8376523 -821421.255173524 -821421.255173524 -7184828.982076286 0 0 0 0 0 114031881.553027 -3352539.402827709 -3352539.402827709 -9408999.38203367 0 0 0 0 0 110899134.2627315 -4592641.571688915 -4592641.571688915 -9544468.035763044 0 0 0 0 0 113650936.0545931 -577045.0910757217 -577045.0910757217 -6787996.280758901 0 0 0 0 0 114889640.6923068 -7135862.87684873 -7135862.87684873 -12206368.84664679 0 0 0 0 0 114048754.1552308 -3300842.122889918 -3300842.122889918 -9452004.705712099 0 0 0 0 0 118027702.3823191 -1450911.390545049 -1450911.390545049 -8901518.645574987 0 0 0 0 0 112529629.8716643 -12963280.42385926 -12963280.42385926 -15125848.33154347 0 0 0 0 0 113921689.7736578 -7295359.028986852 -7295359.028986852 -12435757.9575088 0 0 0 0 0 119169592.7081345 -6039793.347577205 -6039793.347577205 -12734115.39777828 0 0 0 0 0 231221127.8808703 -58818627.89358842 -58818627.89358842 13507524.42387336 0 0 0 0 0 167843506.7474294 -25772051.21892083 -25772051.21892083 30156810.21230007 0 0 0 0 0 199220029.3398334 -9925995.334707031 -9925995.334707031 36232404.51087288 0 0 0 0 0 148994703.4363366 225326.6981106702 225326.6981106702 13666390.49017778 0 0 0 0 0 160763022.6954965 -19684006.19202199 -19684006.19202199 19564783.90680425 0 0 0 0 0 136970825.0105954 -11795793.86604619 -11795793.86604619 1224236.935725338 0 0 0 0 0 125248988.9592111 -11829043.78541602 -11829043.78541602 -13332776.47631213 0 0 0 0 0 136542422.7790228 83027.8643211109 83027.8643211109 -186809.778151971 0 0 0 0 0 135922586.8394379 -11006669.6754731 -11006669.6754731 -1734390.21588517 0 0 0 0 0 124676830.140457 -11273973.68069421 -11273973.68069421 -12656731.94185279 0 0 0 0 0 117359530.8792928 -13062446.24362508 -13062446.24362508 -16934830.94249955 0 0 0 0 0 127506050.4349113 -2643939.301591367 -2643939.301591367 -8438109.786781657 0 0 0 0 0 117006334.4510855 -12614622.06568478 -12614622.06568478 -15847430.07832976 0 0 0 0 0 111473578.0702692 -13518309.42521344 -13518309.42521344 -16094695.21890961 0 0 0 0 0 120471031.1890925 -5407605.60605369 -5407605.60605369 -11789094.06806559 0 0 0 0 0 107650878.1705694 -652578.0979334628 -652578.0979334628 -4690589.424290022 0 0 0 0 0 108543287.1956635 -1138471.252197567 -1138471.252197567 -5484226.232642329 0 0 0 0 0 107005951.4946993 -2362043.154257802 -2362043.154257802 -5876470.646902257 0 0 0 0 0 108682809.2188803 -1076702.036716247 -1076702.036716247 -5493235.398047609 0 0 0 0 0 109027293.4118844 -2494548.696269964 -2494548.696269964 -6874620.63690455 0 0 0 0 0 107532834.2447768 -3048869.741216747 -3048869.741216747 -6668468.469984954 0 0 0 0 0 110975159.9784237 -1857469.033948714 -1857469.033948714 -7286546.755805533 0 0 0 0 0 108774332.8219028 -4811180.414614282 -4811180.414614282 -8378958.607225678 0 0 0 0 0 109032254.8437516 -2458781.043722817 -2458781.043722817 -6914020.890728838 0 0 0 0 0 110796248.277069 -4449826.96033731 -4449826.96033731 -9220786.502127392 0 0 0 0 0 108551047.248329 -4946377.328661448 -4946377.328661448 -8626715.707584152 0 0 0 0 0 111255031.243403 -1690011.989427532 -1690011.989427532 -7012330.554221818 0 0 0 0 0 114139613.2865155 -3502665.762447498 -3502665.762447498 -9852059.265793949 0 0 0 0 0 110552548.7709571 -7991666.852084097 -7991666.852084097 -11292585.89995601 0 0 0 0 0 110789592.6445079 -4459834.790351843 -4459834.790351843 -9255582.377607616 0 0 0 0 0 113902693.2686917 -7342091.841566394 -7342091.841566394 -12360675.23558964 0 0 0 0 0 109949169.1403852 -8318594.070285948 -8318594.070285948 -11862241.75424314 0 0 0 0 0 114802579.6307573 -3159995.884750828 -3159995.884750828 -9325524.849962177 0 0 0 0 0 111224052.567737 -13170525.47317294 -13170525.47317294 -15358733.34294104 0 0 0 0 0 107177147.0210174 -13168606.48762834 -13168606.48762834 -13912106.88270215 0 0 0 0 0 114966450.9552958 -7170258.215870591 -7170258.215870591 -12227784.00650439 0 0 0 0 0 254751743.6476845 -71226764.09186791 -71226764.09186791 28274315.21732375 0 0 0 0 0 165267439.3427204 -87661261.42467298 -87661261.42467298 47662452.94239044 0 0 0 0 0 151969026.6407383 -15270497.9896372 -15270497.9896372 14992149.68661156 0 0 0 0 0 166989836.2185959 -26321734.22572303 -26321734.22572303 26029811.1566866 0 0 0 0 0 129827505.5311902 -32221762.29094264 -32221762.29094264 7399105.689704946 0 0 0 0 0 133528206.9829264 -8615306.898823457 -8615306.898823457 -3839624.721819089 0 0 0 0 0 116885828.7393202 -23235201.10627769 -23235201.10627769 -13934240.71235906 0 0 0 0 0 124445809.1556016 -10781490.74199733 -10781490.74199733 -13266174.90250649 0 0 0 0 0 137524655.5301849 -12924574.53623649 -12924574.53623649 -1258425.380553443 0 0 0 0 0 125209705.530754 -12120876.94743268 -12120876.94743268 -13694424.15615828 0 0 0 0 0 110325673.4899846 -21746721.03570369 -21746721.03570369 -18541322.97452 0 0 0 0 0 117090386.3633302 -12546385.86531173 -12546385.86531173 -16025114.03652735 0 0 0 0 0 117325407.3575335 -13138170.57217734 -13138170.57217734 -16636554.65030774 0 0 0 0 0 105130529.9486729 -20485005.7941255 -20485005.7941255 -17283565.57409762 0 0 0 0 0 111290160.2427963 -13172804.5153203 -13172804.5153203 -15434101.16567119 0 0 0 0 0 106321071.8934646 -1848701.708324674 -1848701.708324674 -5021401.154791152 0 0 0 0 0 107582751.2018129 -694361.4476338988 -694361.4476338988 -4761369.057019141 0 0 0 0 0 107075237.2869984 -2310857.417617879 -2310857.417617879 -5787983.396554333 0 0 0 0 0 107038908.7545032 -2342701.615134279 -2342701.615134279 -5753950.675846281 0 0 0 0 0 108501223.6965635 -1165663.493032854 -1165663.493032854 -5642050.094423259 0 0 0 0 0 107626402.1169271 -2999511.397622043 -2999511.397622043 -6578708.626176251 0 0 0 0 0 109076156.5473772 -2554527.677973806 -2554527.677973806 -7004171.177524148 0 0 0 0 0 106996200.5153955 -4737328.872306867 -4737328.872306867 -7501775.915652798 0 0 0 0 0 107496099.7986335 -3003456.875582743 -3003456.875582743 -6568511.150399438 0 0 0 0 0 108441595.0513197 -4879091.41155761 -4879091.41155761 -8488937.21144435 0 0 0 0 0 106906716.2893061 -4797619.085491372 -4797619.085491372 -7584577.175921336 0 0 0 0 0 109260256.5447684 -2430204.371700002 -2430204.371700002 -6841680.934384667 0 0 0 0 0 110940961.2330019 -4578848.387292495 -4578848.387292495 -9475164.957924716 0 0 0 0 0 106902491.8108029 -8472353.287850017 -8472353.287850017 -9940157.619589224 0 0 0 0 0 108429665.775236 -4843073.495020956 -4843073.495020956 -8485304.189519238 0 0 0 0 0 111409786.04064 -4340394.884120808 -4340394.884120808 -9135489.066711312 0 0 0 0 0 109826177.1368168 -8123869.665198384 -8123869.665198384 -11436515.52006693 0 0 0 0 0 106430541.0816644 -8710582.090359969 -8710582.090359969 -10270779.17939836 0 0 0 0 0 114060345.6292529 -7602164.079903388 -7602164.079903388 -12856128.64714593 0 0 0 0 0 107911606.6089427 -12803001.46261351 -12803001.46261351 -13330039.86523697 0 0 0 0 0 109815895.5998681 -8102395.173131493 -8102395.173131493 -11462533.80903098 0 0 0 0 0 111460466.0104202 -13523929.53644532 -13523929.53644532 -15758499.12158131 0 0 0 0 0 101469829.5326946 -18618590.16925067 -18618590.16925067 -14476575.66953905 0 0 0 0 0 107033993.8853739 -12925781.48564406 -12925781.48564406 -13539311.99366467 0 0 0 0 0 177032615.2137885 -21819929.56868261 -21819929.56868261 21799098.65216785 0 0 0 0 0 142245582.7093905 -76044923.64965415 -76044923.64965415 40225052.29182915 0 0 0 0 0 125479416.5309165 -33730237.11693551 -33730237.11693551 14022434.64488837 0 0 0 0 0 122158581.4060815 -31247426.80315653 -31247426.80315653 4874830.553595262 0 0 0 0 0 114385110.4028476 -24197721.84143224 -24197721.84143224 -14387518.62789883 0 0 0 0 0 141990336.8554095 -11158757.27956504 -11158757.27956504 -208429.479470291 0 0 0 0 0 113677095.6602494 -23853469.36898103 -23853469.36898103 -14462663.37902493 0 0 0 0 0 108629895.6740269 -22648639.87039793 -22648639.87039793 -20159504.13137379 0 0 0 0 0 127696539.1133086 -11007139.49787587 -11007139.49787587 -12289994.87292096 0 0 0 0 0 118854043.2822852 -12420103.16114507 -12420103.16114507 -15629742.62586055 0 0 0 0 0 108245642.2281045 -22196255.55315502 -22196255.55315502 -18847560.8170475 0 0 0 0 0 104030371.6320837 -21059408.89145568 -21059408.89145568 -18279653.37313178 0 0 0 0 0 112415970.2181123 -13089818.30137413 -13089818.30137413 -15188351.00781963 0 0 0 0 0 103751727.4911601 -20691064.29470301 -20691064.29470301 -17526638.56410425 0 0 0 0 0 100796269.8056847 -18939228.05772974 -18939228.05772974 -14946031.49678303 0 0 0 0 0 106334644.9704779 -1835664.563491577 -1835664.563491577 -5054002.369913347 0 0 0 0 0 107042269.0966009 -2319239.631608559 -2319239.631608559 -5760646.622976108 0 0 0 0 0 105723748.0867155 -3197481.9401306 -3197481.9401306 -5782413.634569094 0 0 0 0 0 105665228.0528975 -4316752.633852907 -4316752.633852907 -6615893.341034334 0 0 0 0 0 107115667.2485518 -2313194.380679725 -2313194.380679725 -5804263.782567867 0 0 0 0 0 107534421.3465459 -3027377.339070238 -3027377.339070238 -6530688.045349982 0 0 0 0 0 106837975.6441704 -4768125.147747274 -4768125.147747274 -7556229.745536262 0 0 0 0 0 105710495.4277977 -4283949.499456424 -4283949.499456424 -6499808.237136127 0 0 0 0 0 107531180.2460299 -3013781.204795332 -3013781.204795332 -6561265.631133704 0 0 0 0 0 108536768.4446963 -4936751.428620362 -4936751.428620362 -8478592.473112402 0 0 0 0 0 105287018.6272622 -7225995.379186908 -7225995.379186908 -8354924.36413893 0 0 0 0 0 106830719.4766169 -4752390.98305808 -4752390.98305808 -7551799.372391118 0 0 0 0 0 106477576.4466833 -8490059.867079668 -8490059.867079668 -10067477.61486003 0 0 0 0 0 105247562.5551579 -7254831.719002957 -7254831.719002957 -8337341.842801643 0 0 0 0 0 108705003.3526748 -4819728.082000121 -4819728.082000121 -8402903.99856496 0 0 0 0 0 109917770.7489441 -8339391.690880133 -8339391.690880133 -11741843.46463836 0 0 0 0 0 104645690.8817418 -12174322.03461583 -12174322.03461583 -11315492.64138073 0 0 0 0 0 106323798.031312 -8457843.972749051 -8457843.972749051 -9909787.277946929 0 0 0 0 0 110617687.1695975 -8038587.423533445 -8038587.423533445 -11303903.80644071 0 0 0 0 0 106987872.1207359 -12898779.20851768 -12898779.20851768 -13498814.05676369 0 0 0 0 0 104095042.7601039 -12406523.58895724 -12406523.58895724 -11644780.50159589 0 0 0 0 0 107795563.7089678 -12910419.72876237 -12910419.72876237 -13351576.02187129 0 0 0 0 0 100588607.0104047 -18681066.28146029 -18681066.28146029 -14668628.41299887 0 0 0 0 0 98634438.75971235 -16809685.63310494 -16809685.63310494 -11926251.54488972 0 0 0 0 0 150605992.9258192 -81590739.5520604 -81590739.5520604 55713462.07022577 0 0 0 0 0 57133650.22426023 -57596283.65378233 -57596283.65378233 47687488.66128996 0 0 0 0 0 121102870.5404228 -29489702.9988982 -29489702.9988982 2375093.400457965 0 0 0 0 0 125507114.822012 -34785147.29443961 -34785147.29443961 9656429.25514311 0 0 0 0 0 72280121.82502161 -31871217.37278422 -31871217.37278422 -11965200.78886564 0 0 0 0 0 114161525.4258023 -23923491.07159666 -23923491.07159666 -14614925.09671687 0 0 0 0 0 114170772.6443826 -24668090.7786882 -24668090.7786882 -15563944.24678244 0 0 0 0 0 87436092.7810656 -30739653.56718286 -30739653.56718286 -19311504.59408121 0 0 0 0 0 108766364.8672388 -22492962.5412588 -22492962.5412588 -18794572.77282999 0 0 0 0 0 103998783.6265577 -20839144.11435483 -20839144.11435483 -17502521.76753568 0 0 0 0 0 108549299.0409291 -22705749.96794925 -22705749.96794925 -19511090.18400125 0 0 0 0 0 89103041.64977297 -28121383.43171216 -28121383.43171216 -17641903.30540311 0 0 0 0 0 100707826.2126451 -18764788.54808247 -18764788.54808247 -14646172.75711659 0 0 0 0 0 104005640.664013 -21028363.47580976 -21028363.47580976 -17700107.14822008 0 0 0 0 0 89267422.06511152 -24470192.71886725 -24470192.71886725 -14028590.16492527 0 0 0 0 0 105008118.9643531 -2719503.869952216 -2719503.869952216 -4984457.227991191 0 0 0 0 0 106290928.1151299 -1862490.012151451 -1862490.012151451 -5088162.316761918 0 0 0 0 0 105753242.2039061 -3162522.826062391 -3162522.826062391 -5742649.234009807 0 0 0 0 0 107005060.0689014 -2362752.116969165 -2362752.116969165 -5885490.48627456 0 0 0 0 0 105780388.6655602 -4249840.885812379 -4249840.885812379 -6497646.325259948 0 0 0 0 0 105740378.6000597 -3163898.496028828 -3163898.496028828 -5726351.078853142 0 0 0 0 0 105680714.0998473 -4263618.144943605 -4263618.144943605 -6557173.145588569 0 0 0 0 0 106892368.6610002 -4797815.69232226 -4797815.69232226 -7508939.975271054 0 0 0 0 0 104186680.1022942 -6493937.06955033 -6493937.06955033 -7203162.680644942 0 0 0 0 0 106932606.4922193 -4764169.385316587 -4764169.385316587 -7525549.937053991 0 0 0 0 0 105159571.837348 -7223501.866803067 -7223501.866803067 -8391152.534449134 0 0 0 0 0 104165701.5350663 -6514166.708715534 -6514166.708715534 -7162098.154803165 0 0 0 0 0 102032909.8183038 -10230142.13572313 -10230142.13572313 -8711538.047789946 0 0 0 0 0 105213733.632057 -7232681.585011589 -7232681.585011589 -8396856.298466025 0 0 0 0 0 106523776.745437 -8529282.675015509 -8529282.675015509 -9906077.594314931 0 0 0 0 0 106948869.0134251 -8402069.88712047 -8402069.88712047 -9867068.899628248 0 0 0 0 0 104002622.7859268 -12197897.41980347 -12197897.41980347 -11394563.44610353 0 0 0 0 0 101708291.421133 -11996757.43767444 -11996757.43767444 -9891787.8890459 0 0 0 0 0 103991871.9884404 -12229802.73484612 -12229802.73484612 -11438542.41888219 0 0 0 0 0 107173626.488331 -13163670.58922807 -13163670.58922807 -13659909.07791818 0 0 0 0 0 99080537.77241875 -16639848.94210932 -16639848.94210932 -11750443.53885908 0 0 0 0 0 100788069.6447345 -18899518.22290572 -18899518.22290572 -14558287.43177758 0 0 0 0 0 89746917.53307456 -20695404.57398624 -20695404.57398624 -10778734.53334691 0 0 0 0 0 98550139.11796249 -16685359.34217033 -16685359.34217033 -11853319.46316516 0 0 0 0 0 53611826.19701745 -47914672.57814255 -47914672.57814255 41994615.47549672 0 0 0 0 0 74292197.76738486 -31251876.30874477 -31251876.30874477 -11908390.52294634 0 0 0 0 0 127685514.3335031 -34841624.63277802 -34841624.63277802 6668852.84057885 0 0 0 0 0 114376018.0696227 -24390604.79449937 -24390604.79449937 -14406887.23471008 0 0 0 0 0 76589126.5956538 -34365082.19560118 -34365082.19560118 -9947077.335674923 0 0 0 0 0 87723642.77236548 -31115840.40727965 -31115840.40727965 -22110963.41806562 0 0 0 0 0 109288629.4391925 -22298056.40249836 -22298056.40249836 -18738078.10779102 0 0 0 0 0 87617155.98592176 -31359021.21719542 -31359021.21719542 -18987169.59064876 0 0 0 0 0 88581642.96744503 -28504749.06431612 -28504749.06431612 -18628284.4681445 0 0 0 0 0 89004856.4905311 -24602188.56021918 -24602188.56021918 -14247288.38741136 0 0 0 0 0 104553731.0511244 -20785607.99374397 -20785607.99374397 -17388393.95145958 0 0 0 0 0 88550907.1681453 -28347532.89871333 -28347532.89871333 -17659579.83207359 0 0 0 0 0 101043213.9361882 -18811340.65108747 -18811340.65108747 -14533485.28396785 0 0 0 0 0 88926228.20336369 -24476273.02528584 -24476273.02528584 -14112761.60214493 0 0 0 0 0 89730968.45535098 -20672717.11985723 -20672717.11985723 -10650370.49054151 0 0 0 0 0 104446238.1749285 -4130386.315837308 -4130386.315837308 -5682336.38836734 0 0 0 0 0 105006588.194509 -2709389.545882078 -2709389.545882078 -5020493.947553057 0 0 0 0 0 105750129.2444069 -3165115.55666659 -3165115.55666659 -5729906.132264036 0 0 0 0 0 105608496.5202634 -4294606.413013542 -4294606.413013542 -6492449.431043366 0 0 0 0 0 104419938.7872189 -4155406.351418674 -4155406.351418674 -5690959.371920704 0 0 0 0 0 105770524.262596 -3143003.9644775 -3143003.9644775 -5738745.488582585 0 0 0 0 0 103255793.8877432 -5827416.97214697 -5827416.97214697 -6141631.605855098 0 0 0 0 0 105752418.4173961 -4293251.292996831 -4293251.292996831 -6542879.436577741 0 0 0 0 0 104105732.4841364 -6480921.525957909 -6480921.525957909 -7223935.059245769 0 0 0 0 0 105243789.5093502 -7275279.896383169 -7275279.896383169 -8294700.74240597 0 0 0 0 0 101689606.2806058 -8805682.808658548 -8805682.808658548 -7409346.886522957 0 0 0 0 0 104119020.3551604 -6484877.616522782 -6484877.616522782 -7230135.617562233 0 0 0 0 0 102093243.3766188 -10146603.20373006 -10146603.20373006 -8682927.894440793 0 0 0 0 0 101714507.388767 -8788350.179590272 -8788350.179590272 -7300058.327615525 0 0 0 0 0 105235002.4536449 -7282786.385926348 -7282786.385926348 -8396904.78834185 0 0 0 0 0 102116678.9399045 -10175635.82886552 -10175635.82886552 -8540636.940670935 0 0 0 0 0 106383985.1119048 -8619693.385354845 -8619693.385354845 -10194518.23514239 0 0 0 0 0 101948096.6720376 -11907257.65226074 -11907257.65226074 -9756247.807787787 0 0 0 0 0 104071144.2914533 -12420855.55048171 -12420855.55048171 -11476815.18413506 0 0 0 0 0 97697094.26829615 -14707827.49344046 -14707827.49344046 -9547482.518162614 0 0 0 0 0 101676301.6487798 -11816070.23103555 -11816070.23103555 -9740319.733024249 0 0 0 0 0 104502918.8052637 -12261626.25131961 -12261626.25131961 -11290562.56123227 0 0 0 0 0 98500693.46849328 -16639485.17595292 -16639485.17595292 -11896864.40210168 0 0 0 0 0 97520023.32102579 -14753281.10716354 -14753281.10716354 -9557744.414501736 0 0 0 0 0 89673069.48793413 -20628183.2807283 -20628183.2807283 -10831295.59425225 0 0 0 0 0 90369578.71335259 -17503824.47304908 -17503824.47304908 -8103326.326176837 0 0 0 0 0 98673749.26588763 -16775371.44296248 -16775371.44296248 -11776302.07005659 0 0 0 0 0 53149694.81301187 -42928625.7028281 -42928625.7028281 45921090.78892313 0 0 0 0 0 -1842118.118300704 -7090072.378311141 -7090072.378311141 1849586.665871071 0 0 0 0 0 75345603.77875158 -33817039.29273007 -33817039.29273007 -14148376.90060387 0 0 0 0 0 89774973.73909922 -32464730.20144517 -32464730.20144517 -18589715.19489423 0 0 0 0 0 72264345.24900253 -31315081.42121154 -31315081.42121154 -14718016.86719826 0 0 0 0 0 57865893.32638853 -32581927.05983284 -32581927.05983284 -18938074.91253277 0 0 0 0 0 89105488.65397382 -28798511.47101896 -28798511.47101896 -17292260.73168503 0 0 0 0 0 87116094.06242679 -31092018.60105234 -31092018.60105234 -20317035.00927252 0 0 0 0 0 63842658.32970364 -31732171.31184137 -31732171.31184137 -16095219.9115562 0 0 0 0 0 70041399.21984561 -27921166.39090978 -27921166.39090978 -11605910.87209672 0 0 0 0 0 89155488.61822638 -24702325.40599068 -24702325.40599068 -13920066.35143649 0 0 0 0 0 88553539.91441897 -28360984.65185803 -28360984.65185803 -17696575.20095727 0 0 0 0 0 89804542.03071289 -20776629.72842723 -20776629.72842723 -10719920.76096515 0 0 0 0 0 89008342.34151857 -24477122.69043113 -24477122.69043113 -13718564.08367487 0 0 0 0 0 75451931.05559699 -23228553.57813237 -23228553.57813237 -8146871.682117201 0 0 0 0 0 103290979.2689345 -5802687.136971969 -5802687.136971969 -6151891.112295303 0 0 0 0 0 104386076.6657517 -4132397.994671097 -4132397.994671097 -5712874.132959066 0 0 0 0 0 105677962.9313471 -4344944.206061996 -4344944.206061996 -6542760.382777444 0 0 0 0 0 101260762.4878434 -7651281.444115353 -7651281.444115353 -6286165.223751694 0 0 0 0 0 103209859.639153 -5798900.872919311 -5798900.872919311 -6190500.348725305 0 0 0 0 0 104161564.4670961 -6516265.095677837 -6516265.095677837 -7138038.452469549 0 0 0 0 0 101676716.5944695 -8765544.780621545 -8765544.780621545 -7409834.47758787 0 0 0 0 0 101285789.081605 -7635692.841388003 -7635692.841388003 -6194913.86780273 0 0 0 0 0 104151322.2679156 -6522215.894093009 -6522215.894093009 -7223607.876265252 0 0 0 0 0 97841738.91196261 -11091012.39801277 -11091012.39801277 -6959605.932482692 0 0 0 0 0 101718014.815052 -8784333.602884235 -8784333.602884235 -7406693.774607511 0 0 0 0 0 102133253.9101573 -10176420.03334356 -10176420.03334356 -8537718.873039003 0 0 0 0 0 97263657.30759171 -12930709.0405945 -12930709.0405945 -8078812.647681945 0 0 0 0 0 102225627.0933805 -10184243.31360269 -10184243.31360269 -8686906.259220529 0 0 0 0 0 101716610.6448298 -11857561.33648195 -11857561.33648195 -9603604.922757644 0 0 0 0 0 97459433.46460244 -14693021.92881291 -14693021.92881291 -9619543.384924622 0 0 0 0 0 97364994.98787968 -12861791.186492 -12861791.186492 -7880092.621219745 0 0 0 0 0 101742742.90629 -11857642.15054367 -11857642.15054367 -9704931.89812867 0 0 0 0 0 98650936.10775283 -16759061.28886007 -16759061.28886007 -11665425.70535562 0 0 0 0 0 90282713.12299135 -17583875.84135703 -17583875.84135703 -8343967.87336296 0 0 0 0 0 97452486.2730099 -14683743.98759054 -14683743.98759054 -9594407.020063309 0 0 0 0 0 89748408.54637948 -20611613.60719926 -20611613.60719926 -10417104.0771693 0 0 0 0 0 80796892.82207094 -19110927.25146665 -19110927.25146665 -6127627.259502836 0 0 0 0 0 90371712.9283163 -17546898.35219543 -17546898.35219543 -8256045.790970859 0 0 0 0 0 72237820.98513715 -35575129.82994594 -35575129.82994594 -10745313.53889238 0 0 0 0 0 5266898.125614325 -5887843.49444704 -5887843.49444704 93164.71722701909 0 0 0 0 0 28400781.52657406 -24115828.94700148 -24115828.94700148 -27312468.65344943 0 0 0 0 0 69940772.95802943 -34207572.7611649 -34207572.7611649 -9216342.587520361 0 0 0 0 0 27783603.17753624 -22621419.51876808 -22621419.51876808 -25462808.36186207 0 0 0 0 0 58385704.88630482 -32051744.30300612 -32051744.30300612 -19315073.86356294 0 0 0 0 0 64282752.04496165 -31759870.90021693 -31759870.90021693 -16835396.37957489 0 0 0 0 0 86391045.34333976 -31196345.32243757 -31196345.32243757 -19763895.01845768 0 0 0 0 0 59599215.73060662 -33533127.02231836 -33533127.02231836 -18296965.33595715 0 0 0 0 0 70584830.17990829 -27757590.17643522 -27757590.17643522 -11543861.85326994 0 0 0 0 0 88018988.92164592 -28515123.79587717 -28515123.79587717 -17732377.0062188 0 0 0 0 0 64990769.76616848 -32069321.98315924 -32069321.98315924 -15608819.20203038 0 0 0 0 0 76070627.00454673 -22923143.833582 -22923143.833582 -7639472.624774018 0 0 0 0 0 88496074.34458201 -24713370.96148878 -24713370.96148878 -14072493.10117041 0 0 0 0 0 70854686.14813499 -27932991.39368899 -27932991.39368899 -11401087.14261491 0 0 0 0 0 89275579.87647618 -20853504.99179873 -20853504.99179873 -10806964.53803611 0 0 0 0 0 76358357.04548904 -23135948.19039618 -23135948.19039618 -7974168.40302757 0 0 0 0 0 81279066.47020298 -18849717.59160178 -18849717.59160178 -5654517.233286456 0 0 0 0 0 98237832.31407984 -9452263.050860569 -9452263.050860569 -5897304.009043477 0 0 0 0 0 101273069.4559064 -7625507.554650965 -7625507.554650965 -6295061.18958629 0 0 0 0 0 101713012.2685596 -8790752.093743999 -8790752.093743999 -7269614.612520712 0 0 0 0 0 98341626.31099243 -9386288.162354928 -9386288.162354928 -5729059.630098705 0 0 0 0 0 101616028.5261013 -8852644.109369617 -8852644.109369617 -7438258.997900438 0 0 0 0 0 97990012.43878226 -11012307.81232683 -11012307.81232683 -6914007.883061727 0 0 0 0 0 97962578.48010658 -11013361.64814892 -11013361.64814892 -6741427.126234496 0 0 0 0 0 101996650.455774 -10263399.10778396 -10263399.10778396 -8767631.077827454 0 0 0 0 0 97406674.57061818 -12865172.30284349 -12865172.30284349 -8025780.968077144 0 0 0 0 0 91265169.19761735 -14969910.40070181 -14969910.40070181 -6700461.21714513 0 0 0 0 0 97353663.04151408 -12864663.0736164 -12864663.0736164 -7988839.493236127 0 0 0 0 0 97512753.58829901 -14712188.96939425 -14712188.96939425 -9385122.522132006 0 0 0 0 0 90370412.14848323 -17504084.36860188 -17504084.36860188 -8350227.556497949 0 0 0 0 0 91465432.16803111 -14842492.98716016 -14842492.98716016 -6403042.440387191 0 0 0 0 0 97411537.60149752 -14782522.56258729 -14782522.56258729 -9567721.193862993 0 0 0 0 0 89941455.742229 -17645743.45166672 -17645743.45166672 -8313722.297693379 0 0 0 0 0 81433538.64137043 -19003346.41477976 -19003346.41477976 -6021072.16479318 0 0 0 0 0 84038266.31500156 -15629658.08910688 -15629658.08910688 -4003241.00532507 0 0 0 0 0 4121789.668040889 2396505.471095325 2396505.471095325 -10102288.02566788 0 0 0 0 0 -12989884.22142676 18307169.41976107 18307169.41976107 -68276743.8513281 0 0 0 0 0 30912952.24714109 -27596139.01998152 -27596139.01998152 -15936756.65513171 0 0 0 0 0 30211365.70976622 -24562625.34095366 -24562625.34095366 -21856637.66071233 0 0 0 0 0 36751745.34899459 -28715830.95596367 -28715830.95596367 -18740466.02597139 0 0 0 0 0 58275524.6011513 -32122335.30541689 -32122335.30541689 -19139252.22446405 0 0 0 0 0 36484818.32919493 -27720227.34442607 -27720227.34442607 -16915239.18925276 0 0 0 0 0 65101233.09515771 -32359128.41458546 -32359128.41458546 -14738309.37606547 0 0 0 0 0 58750841.30473796 -32588253.03403947 -32588253.03403947 -20025065.25922627 0 0 0 0 0 71014623.36960968 -28222136.53377801 -28222136.53377801 -10958267.64193261 0 0 0 0 0 64480093.70362028 -31385401.64165396 -31385401.64165396 -15984343.74706856 0 0 0 0 0 46948719.13600464 -25688257.00743716 -25688257.00743716 -8529018.900772629 0 0 0 0 0 76376171.47674216 -23352740.87528616 -23352740.87528616 -7666409.844511979 0 0 0 0 0 70625776.43325436 -27481324.23321737 -27481324.23321737 -10972523.78033452 0 0 0 0 0 56832093.67847737 -21732407.08299851 -21732407.08299851 -4321387.48794254 0 0 0 0 0 81723999.07231338 -19305578.06282282 -19305578.06282282 -5923159.428740614 0 0 0 0 0 76056059.00141051 -22764145.05884532 -22764145.05884532 -7361266.104809283 0 0 0 0 0 66949937.34914061 -17614238.93770827 -17614238.93770827 -2137432.95243513 0 0 0 0 0 94141802.22237483 -10868000.40036318 -10868000.40036318 -4857329.184755872 0 0 0 0 0 98383380.69348578 -9407968.519429587 -9407968.519429587 -5858361.985843203 0 0 0 0 0 97964658.33905692 -11001804.93260305 -11001804.93260305 -6727280.212861107 0 0 0 0 0 92584850.42516294 -12783639.60435697 -12783639.60435697 -5617619.938602706 0 0 0 0 0 98042972.79274173 -11050199.26574213 -11050199.26574213 -6888155.498960216 0 0 0 0 0 97334677.31361881 -12837047.53553556 -12837047.53553556 -7798836.431357369 0 0 0 0 0 92826416.49531461 -12637833.42902019 -12637833.42902019 -5309304.196658354 0 0 0 0 0 97114007.29855815 -12966743.47189043 -12966743.47189043 -8043912.071733398 0 0 0 0 0 91520754.81123176 -14885369.77349732 -14885369.77349732 -6637908.255062538 0 0 0 0 0 90360884.70037429 -17424870.88162225 -17424870.88162225 -7959547.813190239 0 0 0 0 0 83595066.07529132 -15869259.54720389 -15869259.54720389 -4415545.352168482 0 0 0 0 0 91501421.93384844 -14910429.82254643 -14910429.82254643 -6579132.833647924 0 0 0 0 0 84027355.10580614 -15703626.9846993 -15703626.9846993 -4263741.233553552 0 0 0 0 0 81411755.20966941 -18884930.01498914 -18884930.01498914 -5769347.548014718 0 0 0 0 0 76605791.36998446 -15848792.79005676 -15848792.79005676 -2283794.495806875 0 0 0 0 0 21228632.55878808 -21693911.80597425 -21693911.80597425 -24290001.49102535 0 0 0 0 0 -664996.4873988207 9791530.578038968 9791530.578038968 -52864174.83513316 0 0 0 0 0 3475524.650527402 -15102520.83517899 -15102520.83517899 -35573830.63068343 0 0 0 0 0 28717341.34182599 -24802962.73249233 -24802962.73249233 -26763768.67829385 0 0 0 0 0 3307435.71588247 -11361017.39383152 -11361017.39383152 -31379498.59868592 0 0 0 0 0 38310166.85743225 -29898764.0187997 -29898764.0187997 -12753793.67983629 0 0 0 0 0 48314237.98641775 -25445035.42180191 -25445035.42180191 -8682897.196008082 0 0 0 0 0 63042528.2840227 -31645443.24464118 -31645443.24464118 -15834545.06000577 0 0 0 0 0 38157128.07004602 -28748852.13080099 -28748852.13080099 -15491263.78034972 0 0 0 0 0 58292055.53188501 -21190708.62957683 -21190708.62957683 -3593348.728472864 0 0 0 0 0 69100123.59443584 -27986564.2806519 -27986564.2806519 -11557228.76505887 0 0 0 0 0 48875963.96755499 -25821112.15347261 -25821112.15347261 -8011679.766346178 0 0 0 0 0 68302021.98230283 -16998411.82868664 -16998411.82868664 -1318160.325600155 0 0 0 0 0 74757979.00586607 -23326558.32478089 -23326558.32478089 -8015718.05524087 0 0 0 0 0 58726863.27716889 -21770484.38073735 -21770484.38073735 -3905938.331735284 0 0 0 0 0 80544317.28660744 -19338067.52532311 -19338067.52532311 -6239987.986599636 0 0 0 0 0 68867863.6593222 -17473714.38214712 -17473714.38214712 -1656770.344928181 0 0 0 0 0 77020895.35584827 -15648575.30031438 -15648575.30031438 -2213037.580186204 0 0 0 0 0 92936217.2248489 -12687007.05497092 -12687007.05497092 -5507110.739627274 0 0 0 0 0 94350065.72792947 -10738410.25484711 -10738410.25484711 -4611221.916524003 0 0 0 0 0 97736168.49335903 -11143631.46918757 -11143631.46918757 -6985140.092237471 0 0 0 0 0 86418388.9195434 -13400078.81917386 -13400078.81917386 -3586991.274884927 0 0 0 0 0 92917068.12216944 -12721154.74107395 -12721154.74107395 -5459967.051170679 0 0 0 0 0 91451395.4565272 -14807878.51129199 -14807878.51129199 -6345221.216232203 0 0 0 0 0 84156969.15578954 -15751605.90608467 -15751605.90608467 -4277496.209485702 0 0 0 0 0 86809781.38257666 -13179191.42507956 -13179191.42507956 -3196185.537342476 0 0 0 0 0 91052003.06939781 -15025882.10316687 -15025882.10316687 -6684710.471434997 0 0 0 0 0 79536847.9105172 -12467815.78031772 -12467815.78031772 -602878.9907389302 0 0 0 0 0 83627011.74625143 -15732684.16688975 -15732684.16688975 -4290787.028296393 0 0 0 0 0 77017115.45594664 -15737983.05770775 -15737983.05770775 -2344496.364144247 0 0 0 0 0 -6879109.120187883 15664583.7935532 15664583.7935532 -77306037.31166391 0 0 0 0 0 -5493797.248219716 7922098.665100045 7922098.665100045 -103804468.7122752 0 0 0 0 0 9003733.910006624 -16952962.13449136 -16952962.13449136 -13996294.06485954 0 0 0 0 0 9509697.059024826 -14772902.56668787 -14772902.56668787 -25776555.29622849 0 0 0 0 0 22837333.52372113 -16964757.40275276 -16964757.40275276 -11149631.33629148 0 0 0 0 0 33919073.08813065 -27582501.86122335 -27582501.86122335 -16541846.71794863 0 0 0 0 0 21247448.76338469 -16444554.18802645 -16444554.18802645 -10284865.44728049 0 0 0 0 0 49067999.02291092 -26378890.72183101 -26378890.72183101 -6761260.334132483 0 0 0 0 0 37470030.59307745 -28042167.62402336 -28042167.62402336 -17341600.61149662 0 0 0 0 0 36628285.61044415 -13956773.58084146 -13956773.58084146 -1744148.610974368 0 0 0 0 0 58641796.57564279 -21938242.89288392 -21938242.89288392 -3427628.962904347 0 0 0 0 0 48579026.50899545 -25008074.3549055 -25008074.3549055 -7891680.861449803 0 0 0 0 0 49242916.14997404 -10901206.51984251 -10901206.51984251 1639756.074678854 0 0 0 0 0 68938940.53729059 -18003074.34114408 -18003074.34114408 -1515914.906299525 0 0 0 0 0 58325752.99296901 -20990722.93787504 -20990722.93787504 -3362062.055267873 0 0 0 0 0 67967308.09226565 -17055150.91645518 -17055150.91645518 -1637335.856555115 0 0 0 0 0 70992108.35273264 -12072879.24159012 -12072879.24159012 980597.0917037347 0 0 0 0 0 77394211.07422209 -15811177.26625454 -15811177.26625454 -2324484.357956285 0 0 0 0 0 89162968.4065616 -11438060.82431769 -11438060.82431769 -3143539.075643481 0 0 0 0 0 94471641.24564357 -10807648.61271604 -10807648.61271604 -4747412.614545723 0 0 0 0 0 92802161.99469064 -12612060.8139511 -12612060.8139511 -5298674.380951243 0 0 0 0 0 89479681.55056621 -11248419.68426198 -11248419.68426198 -2853544.92772592 0 0 0 0 0 92463132.7472768 -12813938.76426743 -12813938.76426743 -5586378.294178395 0 0 0 0 0 86991114.9160566 -13302154.26629227 -13302154.26629227 -3425607.238750335 0 0 0 0 0 83997741.80007359 -15555603.01130651 -15555603.01130651 -4005751.434580275 0 0 0 0 0 79066741.17190664 -12690378.89405562 -12690378.89405562 -956776.1282395178 0 0 0 0 0 86978167.62292631 -13367877.89724927 -13367877.89724927 -3364375.364262975 0 0 0 0 0 71265421.98567352 -12099774.33309776 -12099774.33309776 1010884.97572594 0 0 0 0 0 79466429.03963448 -12562886.82996164 -12562886.82996164 -851296.6572351719 0 0 0 0 0 77022917.01581444 -15727172.30263793 -15727172.30263793 -2323607.305071585 0 0 0 0 0 -6872394.550014286 956581.6697874054 956581.6697874054 -81903164.50808293 0 0 0 0 0 3014023.249845153 -126243.5030267795 -126243.5030267795 -23662341.07610344 0 0 0 0 0 1367702.85557167 -9557945.583728043 -9557945.583728043 -29142891.81256728 0 0 0 0 0 -574220.6725114811 456195.1488924693 456195.1488924693 -23684932.265075 0 0 0 0 0 24322696.82375061 -18248730.8987304 -18248730.8987304 -6352558.840220301 0 0 0 0 0 7472770.416771424 -13888187.7166865 -13888187.7166865 -32462144.31200536 0 0 0 0 0 24147357.1051541 -17426739.08181848 -17426739.08181848 -8768463.60350436 0 0 0 0 0 39027177.6830979 -13512784.91590759 -13512784.91590759 -1078228.884740942 0 0 0 0 0 46277309.97971808 -25343558.64877953 -25343558.64877953 -8382635.295645917 0 0 0 0 0 39275608.44640424 -14292569.60321347 -14292569.60321347 -1076219.319311886 0 0 0 0 0 51645261.79217366 -10243006.3283316 -10243006.3283316 2636145.18525402 0 0 0 0 0 55881420.63583223 -21545966.71199124 -21545966.71199124 -4178862.601098152 0 0 0 0 0 66699268.69132812 -17837713.75146987 -17837713.75146987 -1931598.171815739 0 0 0 0 0 51965265.48927552 -11151196.08691325 -11151196.08691325 2208245.84580033 0 0 0 0 0 61982693.46231853 -9050521.787176657 -9050521.787176657 2960571.278968156 0 0 0 0 0 67842406.16835468 -17446035.46539554 -17446035.46539554 -1323819.622466012 0 0 0 0 0 61266744.42809165 -9278665.74230301 -9278665.74230301 2601718.904216032 0 0 0 0 0 70971990.84888388 -12089883.82865886 -12089883.82865886 938323.159070189 0 0 0 0 0 83753933.44391511 -10720981.23734089 -10720981.23734089 -957716.9982701376 0 0 0 0 0 89652207.80465087 -11375744.51447785 -11375744.51447785 -2964500.019361184 0 0 0 0 0 86799616.32303166 -13157603.27158813 -13157603.27158813 -3220038.285249288 0 0 0 0 0 79856898.3228393 -12587206.17895972 -12587206.17895972 -786583.5455531036 0 0 0 0 0 84216007.64878571 -10460738.68284072 -10460738.68284072 -673325.658844801 0 0 0 0 0 86331715.3279926 -13421775.19646587 -13421775.19646587 -3517202.394055196 0 0 0 0 0 79594852.22785428 -12672354.19831608 -12672354.19831608 -598660.340481116 0 0 0 0 0 70951872.19362104 -11974403.33953754 -11974403.33953754 835177.6806900948 0 0 0 0 0 73675316.4100159 -8148489.042988813 -8148489.042988813 2310662.955541497 0 0 0 0 0 3315217.116409469 -1418496.699830295 -1418496.699830295 -20562098.29115912 0 0 0 0 0 24279351.86310246 596996.5967605897 596996.5967605897 -2717620.047155677 0 0 0 0 0 19775609.19292043 -16057124.76722703 -16057124.76722703 -10003274.54132094 0 0 0 0 0 23799090.25871148 -16010509.66758354 -16010509.66758354 -9780137.84204521 0 0 0 0 0 20563912.82001982 -130058.1388734577 -130058.1388734577 -3916987.503816982 0 0 0 0 0 39325213.5002481 -14533859.38838118 -14533859.38838118 -192286.9114757997 0 0 0 0 0 38385497.66253569 -108194.4032965171 -108194.4032965171 1944281.684929679 0 0 0 0 0 51637062.7974189 -10948858.87120128 -10948858.87120128 2466032.76006915 0 0 0 0 0 39292014.54005066 -13037058.81622753 -13037058.81622753 -767552.997192068 0 0 0 0 0 51390932.34756542 -9985061.083292741 -9985061.083292741 2391727.814849186 0 0 0 0 0 51434810.35817207 -173746.2691103143 -173746.2691103143 3683489.591811984 0 0 0 0 0 62435218.0788485 -9838093.748830883 -9838093.748830883 3083246.436362095 0 0 0 0 0 61844404.14894117 -9375850.141237343 -9375850.141237343 2562876.868123742 0 0 0 0 0 67898701.79253477 -5633131.566590168 -5633131.566590168 3683166.866323321 0 0 0 0 0 70776836.50628161 -12091823.98453391 -12091823.98453391 1049831.581962775 0 0 0 0 0 78856415.90292552 -8434709.634304272 -8434709.634304272 1305736.557092806 0 0 0 0 0 84462380.1037702 -10671334.0748607 -10671334.0748607 -694225.8088148196 0 0 0 0 0 79461398.44656105 -12237447.96106467 -12237447.96106467 -640062.522410515 0 0 0 0 0 79197290.50938895 -8209792.426386933 -8209792.426386933 1475938.561541273 0 0 0 0 0 78929758.59011582 -12590984.5858336 -12590984.5858336 -727919.1610879073 0 0 0 0 0 74059635.87527671 -8208993.333575085 -8208993.333575085 2378029.782893463 0 0 0 0 0 71038178.39050066 -11968078.74429516 -11968078.74429516 1214754.39512301 0 0 0 0 0 67501438.18954554 -5850327.863909051 -5850327.863909051 3405050.593449501 0 0 0 0 0 73731330.65528432 -8055894.755694985 -8055894.755694985 2221349.269571658 0 0 0 0 0 24494248.26819382 -925403.9955894856 -925403.9955894856 -2839879.005197394 0 0 0 0 0 41279926.55550262 571900.9618785962 571900.9618785962 2985131.717896034 0 0 0 0 0 35999671.38856815 -13591356.82516538 -13591356.82516538 -1593746.819600983 0 0 0 0 0 41326028.90345564 -597060.3246952993 -597060.3246952993 2650752.97092578 0 0 0 0 0 53847996.92389948 328800.2048454159 328800.2048454159 4432309.966325296 0 0 0 0 0 49123380.82690808 -10441952.22830743 -10441952.22830743 1713662.108431714 0 0 0 0 0 53638452.82931641 -524063.9064147544 -524063.9064147544 4324158.814158184 0 0 0 0 0 62738300.9074176 389234.167976714 389234.167976714 4677546.068957044 0 0 0 0 0 60196773.99635131 -9530582.913362069 -9530582.913362069 2496374.192835124 0 0 0 0 0 61298473.40601441 31717.00339005492 31717.00339005492 4085080.528652099 0 0 0 0 0 67716256.66706152 -5908808.668164276 -5908808.668164276 3556716.299129152 0 0 0 0 0 62132814.91661512 -9139916.692226661 -9139916.692226661 3177987.295766935 0 0 0 0 0 75547011.92696409 -4626528.22147276 -4626528.22147276 3087754.580522253 0 0 0 0 0 79548161.99170756 -8400915.938447606 -8400915.938447606 1568152.206629676 0 0 0 0 0 73713549.26701057 -8016497.317386508 -8016497.317386508 2226465.618854077 0 0 0 0 0 73745805.8053145 -8114799.704157157 -8114799.704157157 2409202.7438406 0 0 0 0 0 67698939.66352893 -5890351.931570292 -5890351.931570292 3377070.416439943 0 0 0 0 0 71857020.28310478 -3910160.909546803 -3910160.909546803 3584883.805180354 0 0 0 0 0 62913904.15700494 -173944.1890557184 -173944.1890557184 4368272.222910021 0 0 0 0 0 69561312.40158743 217911.5143237261 217911.5143237261 4184847.505941394 0 0 0 0 0 66870334.0452409 -5822775.396045727 -5822775.396045727 3444551.805132351 0 0 0 0 0 75748174.15103035 -4506069.722646275 -4506069.722646275 3070802.360834146 0 0 0 0 0 73617868.26824561 -8070355.295283847 -8070355.295283847 2393747.713857946 0 0 0 0 0 71900738.68299811 -4020493.221999436 -4020493.221999436 3548197.737642476 0 0 0 0 0 67906393.48317067 -5632827.182724822 -5632827.182724822 3722994.006070298 0 0 0 0 0 68742071.67574519 27666.35507205579 27666.35507205579 3897879.705984518 0 0 0 0 0 71831239.10061541 -4003640.068317383 -4003640.068317383 3639707.639525495 0 0 0 0 0 74172094.55596389 35093.42010729644 35093.42010729644 3718010.637522153 0 0 0 0 0 75910773.94894701 -4627614.288144297 -4627614.288144297 3233068.34234897 0 0 0 0 0 71759855.370764 -3896705.566551699 -3896705.566551699 3579458.285533853 0 0 0 0 0 69583464.88982427 -56392.4770165752 -56392.4770165752 4123561.332680134 0 0 0 0 0 74710056.28037564 180269.5870387795 180269.5870387795 3736099.319979389 0 0 0 0 0 71316947.34263104 -4015740.573024292 -4015740.573024292 3566326.87592914 0 0 0 0 0 </DataArray>
        <DataArray type="Float64" Name="von_mises_stress" format="ascii" NumberOfComponents="3">101393887.2351651 0 0 100592652.165651 0 0 101793113.6071315 0 0 100614656.8267772 0 0 101709632.6714737 0 0 101756960.5232178 0 0 103524867.5806961 0 0 101331501.0726549 0 0 101973214.247075 0 0 101598561.4292751 0 0 103453606.9929819 0 0 101852691.2090261 0 0 103424705.2143042 0 0 101395246.6998594 0 0 103468343.0669686 0 0 103487770.1207112 0 0 103533148.4712613 0 0 101957137.3379695 0 0 101558563.020516 0 0 103468932.716241 0 0 103402672.1475809 0 0 103312679.5081229 0 0 103607659.5611031 0 0 106502461.1959777 0 0 106972984.4874953 0 0 103439717.2722988 0 0 103521566.0275298 0 0 103354152.4468778 0 0 106099030.0269318 0 0 103502556.0453114 0 0 105996043.1290984 0 0 103422918.0423376 0 0 106391591.0808805 0 0 106555167.8282409 0 0 103564491.96137 0 0 106883248.7622625 0 0 107015086.7585091 0 0 103475025.8915882 0 0 107952164.4529035 0 0 103342717.9463598 0 0 106965991.5823677 0 0 106045983.2293487 0 0 103354946.2118284 0 0 106308352.710509 0 0 108023035.0260838 0 0 109402604.0101836 0 0 105838640.1459215 0 0 106612456.8784753 0 0 106401855.4675494 0 0 107111944.9351771 0 0 110319742.3186707 0 0 106866490.8606531 0 0 108388944.0355838 0 0 111305232.6788817 0 0 106076546.1772706 0 0 106816986.924629 0 0 111067818.6651244 0 0 106157865.0723374 0 0 111899194.3171562 0 0 108167272.7671002 0 0 108349723.0400852 0 0 105975217.6182909 0 0 109266818.4613333 0 0 109474837.3712989 0 0 106543877.0851894 0 0 110199206.9488917 0 0 110411121.9031111 0 0 107015874.8381548 0 0 111290021.7296859 0 0 108270348.7879753 0 0 114135449.2278121 0 0 111405848.4480756 0 0 106760463.7015546 0 0 113809819.1692384 0 0 110906339.0034446 0 0 106023940.5644632 0 0 111214851.2115043 0 0 111894639.4655483 0 0 112180766.3790168 0 0 114102988.4972156 0 0 108136923.2837185 0 0 108182459.216533 0 0 109499728.1660744 0 0 111561749.71615 0 0 109312067.9196688 0 0 110451552.6459481 0 0 112825980.1312417 0 0 115306805.331164 0 0 110086445.1236798 0 0 111573816.7132903 0 0 114311670.9999167 0 0 115245718.1247671 0 0 111543231.6509877 0 0 113677283.2669888 0 0 121012084.0867373 0 0 110756108.4373427 0 0 111964785.9534707 0 0 111059245.1700093 0 0 118713478.5407661 0 0 112058388.3990159 0 0 119735034.5111028 0 0 114204035.3392346 0 0 109993254.4203129 0 0 108314656.8957765 0 0 111420904.6676366 0 0 111630612.8023714 0 0 109434736.9855714 0 0 112693808.5725608 0 0 110354232.3118105 0 0 115063348.9016633 0 0 112927153.2764553 0 0 120708112.279041 0 0 115135420.6709794 0 0 114315246.0374909 0 0 113628129.9283622 0 0 128592840.7358669 0 0 120503056.9352342 0 0 111100406.9644357 0 0 120673230.5911895 0 0 118476682.8666322 0 0 119530655.4711665 0 0 112131291.5326053 0 0 118680274.62427 0 0 119682920.0870301 0 0 120497960.353203 0 0 114434290.3630409 0 0 112633722.9884708 0 0 109857391.5169621 0 0 111580821.681091 0 0 115214326.3442352 0 0 111386143.6923908 0 0 112940056.3932258 0 0 115503967.614936 0 0 116546467.9126337 0 0 112685640.1183336 0 0 120115279.5118443 0 0 115456842.9053777 0 0 120454749.8590026 0 0 119796178.535695 0 0 128618809.5357163 0 0 141629207.6104554 0 0 118078978.6099387 0 0 120729332.7498621 0 0 131378306.9639068 0 0 128197935.8509772 0 0 119493159.5988131 0 0 118540263.7724534 0 0 119669553.4900449 0 0 127419025.8972395 0 0 120437443.2097954 0 0 110753592.4948722 0 0 109959588.1787037 0 0 112525813.892066 0 0 112664837.0962336 0 0 111542835.6479363 0 0 115005831.908448 0 0 116456276.588576 0 0 115200387.9289617 0 0 112943967.0363066 0 0 120233427.2725367 0 0 116615724.9069211 0 0 115410226.4109879 0 0 125663674.1483933 0 0 119953141.2779271 0 0 120642891.8224429 0 0 128677828.0000943 0 0 164467866.5413213 0 0 140162104.9798794 0 0 121390572.0063505 0 0 139389777.5833126 0 0 130265095.8085648 0 0 127519995.6151453 0 0 119154397.400799 0 0 130172289.6529977 0 0 127545090.7223025 0 0 126872607.5449027 0 0 120148269.1002225 0 0 126765602.7442799 0 0 125289934.5866221 0 0 121062877.132865 0 0 110675767.2466553 0 0 112663600.0864949 0 0 112850385.8158043 0 0 112579162.5531429 0 0 115126764.7233577 0 0 114465881.8540632 0 0 116764890.8453536 0 0 118888827.456742 0 0 114851878.1128319 0 0 120024374.0754556 0 0 118739877.4723869 0 0 116827303.7644967 0 0 122667481.1533005 0 0 120563082.2851945 0 0 124975010.841781 0 0 136986559.9614366 0 0 167503545.2764165 0 0 183439953.25383 0 0 129100248.4876102 0 0 140339673.1563489 0 0 151208293.9926144 0 0 140447774.3806234 0 0 126898192.6076432 0 0 130514021.9720632 0 0 135311314.6468695 0 0 126667492.6317272 0 0 127660027.3899663 0 0 127167162.1187924 0 0 131299289.8302854 0 0 124955876.9016651 0 0 110701156.2767156 0 0 110731983.437116 0 0 112767517.2564728 0 0 112856628.0062687 0 0 112655464.0645092 0 0 114412265.2238771 0 0 115160836.3144945 0 0 117101806.4131013 0 0 114449507.98498 0 0 115285042.9377323 0 0 118576795.552987 0 0 116996243.1275206 0 0 122922962.2003759 0 0 118550391.5988263 0 0 120218240.719491 0 0 126764475.4426209 0 0 122287447.7237281 0 0 125437857.2089432 0 0 168428909.6670554 0 0 272096620.5581699 0 0 177019269.2796009 0 0 142860686.9683469 0 0 174850709.3349808 0 0 147781989.2018678 0 0 138969462.4787367 0 0 132162907.9352329 0 0 147745816.4385043 0 0 133938970.5531696 0 0 129204081.3983897 0 0 137738021.8763997 0 0 133532285.1873624 0 0 130592108.5442835 0 0 128112118.6457813 0 0 129982978.8281423 0 0 126372462.3248819 0 0 126052828.8846259 0 0 111459142.5119081 0 0 110725922.9139388 0 0 112694947.9493476 0 0 114868849.3315005 0 0 112633555.7586354 0 0 114561803.7366058 0 0 116725674.3746857 0 0 114762582.9663465 0 0 114691263.2630721 0 0 118847720.269274 0 0 119676344.716934 0 0 116781750.3936391 0 0 122283085.3675007 0 0 119507770.2620082 0 0 119107276.5344372 0 0 121744349.3101335 0 0 123114822.5901052 0 0 125729070.7484733 0 0 303461918.9716124 0 0 275591803.8745635 0 0 156508364.2759848 0 0 181745920.1114397 0 0 163798582.7589484 0 0 145828057.9326074 0 0 162301237.4681447 0 0 136980153.3024127 0 0 148224728.106364 0 0 133144631.9913024 0 0 138502622.2770672 0 0 141940283.5522462 0 0 134881745.9995311 0 0 129943083.4701785 0 0 134382421.7514361 0 0 130768252.2373561 0 0 128911230.9070548 0 0 125766661.5183899 0 0 110033349.8778685 0 0 110704915.6036511 0 0 111477820.5968912 0 0 111399308.0676928 0 0 112783874.8552848 0 0 112961365.9453224 0 0 112920213.9528043 0 0 114599132.8465484 0 0 112886273.0678118 0 0 116317531.2738678 0 0 114618730.7903949 0 0 116961347.8803481 0 0 119144686.0206882 0 0 116205947.3884808 0 0 117148643.4465749 0 0 121994928.5307335 0 0 119171975.7724003 0 0 122684646.5007962 0 0 122725274.7140799 0 0 121238810.3229378 0 0 126370003.3625652 0 0 244855254.5228432 0 0 160615732.7514118 0 0 182208859.7492637 0 0 141866226.2867153 0 0 155103971.2082335 0 0 137539333.1395126 0 0 133680746.3129787 0 0 136168978.7113697 0 0 137937939.7190819 0 0 132807798.8162827 0 0 128473494.0047449 0 0 131673118.7545234 0 0 127496626.9011729 0 0 122468224.69103 0 0 126900310.0209475 0 0 110070690.9121815 0 0 111401730.7959329 0 0 110128846.1056978 0 0 111534181.9227294 0 0 112701445.5080728 0 0 111135106.0733022 0 0 114821525.9650186 0 0 113475051.611202 0 0 112720622.4793788 0 0 115927032.77597 0 0 113416369.0133832 0 0 114922316.3086836 0 0 119489226.5618924 0 0 117366764.5474565 0 0 115935218.7502005 0 0 121202819.2001478 0 0 117174027.778062 0 0 119777515.7887664 0 0 121746296.8317891 0 0 116946740.3559114 0 0 122031938.0162754 0 0 269843731.0383798 0 0 205328761.4447489 0 0 141074984.5723309 0 0 161555029.0175287 0 0 136992978.0950885 0 0 134782712.4849392 0 0 130230646.9695661 0 0 132626139.9872849 0 0 139674631.007675 0 0 134063901.1762077 0 0 126042506.932493 0 0 127612486.2486523 0 0 128392468.9946508 0 0 119871644.8120095 0 0 121828382.8683085 0 0 108963500.6665244 0 0 110039343.9213542 0 0 110150632.9191965 0 0 110101156.504689 0 0 111438452.9780927 0 0 111176174.5070107 0 0 112819594.0326863 0 0 111225052.4637848 0 0 111043593.1520262 0 0 113231151.3454003 0 0 111195409.4958578 0 0 112891814.3768128 0 0 116214387.5291793 0 0 113102356.1671661 0 0 113202896.9034685 0 0 116423286.5186056 0 0 116796936.1496006 0 0 112896250.5040893 0 0 121667572.2803886 0 0 117174551.3921215 0 0 116787135.0380032 0 0 122323362.3363325 0 0 113936159.8003722 0 0 116519745.8946282 0 0 166645986.9519327 0 0 177442512.5687048 0 0 131044481.957277 0 0 130478232.4878242 0 0 128660280.4896452 0 0 142233980.2136194 0 0 128099390.1578871 0 0 125958049.0415727 0 0 134988243.2201015 0 0 128823111.4760849 0 0 124699092.1530872 0 0 119802613.0923731 0 0 122623393.1135249 0 0 118943443.5146158 0 0 113791943.6071775 0 0 108991862.2489852 0 0 110107633.26737 0 0 108865994.9739287 0 0 109368087.7615836 0 0 110196833.4039431 0 0 111064959.6113037 0 0 111110475.4756608 0 0 109354847.7446208 0 0 111070685.2724375 0 0 113328911.2316422 0 0 110391327.0241529 0 0 111094828.3264485 0 0 112786295.7160082 0 0 110361017.6854338 0 0 113409307.534582 0 0 117099887.6884608 0 0 112667178.4221789 0 0 112544814.0029792 0 0 117418765.4489014 0 0 116458850.2993644 0 0 112415416.0602087 0 0 117083619.0320591 0 0 113307685.5708113 0 0 109024461.5459006 0 0 191309175.3833605 0 0 105084040.3593275 0 0 121485286.2988472 0 0 134528020.1744771 0 0 95268110.98276754 0 0 128093685.2373063 0 0 129745699.4163898 0 0 111454084.167919 0 0 125262935.1116016 0 0 119210122.5307048 0 0 125696839.3589337 0 0 110079894.1687149 0 0 113427678.3479932 0 0 119514343.1804894 0 0 105697335.9025329 0 0 107688653.5008103 0 0 108967087.3117263 0 0 108872512.2559981 0 0 110133978.3483593 0 0 109412855.4954765 0 0 108852385.4915198 0 0 109347226.697409 0 0 111143833.0156544 0 0 108536421.848822 0 0 111174824.6749698 0 0 110295844.4180617 0 0 108507574.6886521 0 0 108089573.9129627 0 0 110345765.72962 0 0 112770419.7470305 0 0 113088026.1252308 0 0 112126000.9485531 0 0 108970818.5776316 0 0 112136812.1361333 0 0 116831024.9994605 0 0 109229823.9731655 0 0 113590108.169824 0 0 101997017.1711726 0 0 108828103.9630005 0 0 86691022.55858956 0 0 94215781.30708088 0 0 134722976.4360058 0 0 128471195.5540274 0 0 100449193.7244202 0 0 113826098.2017025 0 0 125358424.3241486 0 0 112171781.8973045 0 0 110667035.7041573 0 0 105789162.7999563 0 0 119504242.0751517 0 0 109913780.2653142 0 0 113659921.5222794 0 0 105499209.875024 0 0 101950298.0197895 0 0 107632209.2472975 0 0 107702684.2632182 0 0 108864830.8625343 0 0 109250783.0136664 0 0 107617658.096713 0 0 108884835.4166967 0 0 106932454.1225426 0 0 109409045.3432732 0 0 108471576.9766248 0 0 110343288.3486535 0 0 106667039.5512282 0 0 108487103.4121827 0 0 108116826.3262564 0 0 106639097.1881062 0 0 110374113.6087217 0 0 108081235.8559721 0 0 112790573.1641392 0 0 109096365.9124416 0 0 112321789.0904791 0 0 105871497.6054154 0 0 108803440.7516634 0 0 112534046.6007724 0 0 108790645.0548688 0 0 105745962.3010901 0 0 101936872.0619827 0 0 99392622.41601574 0 0 108935965.4029541 0 0 85136612.97999632 0 0 7279219.405421648 0 0 96941203.38846135 0 0 114804185.7756117 0 0 97098993.91411361 0 0 89038122.19351932 0 0 110573133.8333953 0 0 112471288.2938731 0 0 91164951.60760342 0 0 90279972.33455165 0 0 105752327.7451297 0 0 110100755.7496043 0 0 102072480.5521449 0 0 105461965.73545 0 0 89300476.83197911 0 0 106962909.7705545 0 0 107589837.9046279 0 0 109351949.5225549 0 0 105371117.9007046 0 0 106905159.7672123 0 0 108493147.3403407 0 0 106649631.6760749 0 0 105350031.6754922 0 0 108519777.5849638 0 0 103284266.2142877 0 0 106689906.6584697 0 0 108099859.9109892 0 0 103958594.8951587 0 0 108255670.1324281 0 0 108791418.0543951 0 0 105689789.9460148 0 0 103941112.3966037 0 0 108855012.4061256 0 0 108896001.0087298 0 0 99458416.44714007 0 0 105656205.5258676 0 0 101826911.5689745 0 0 90279037.40880032 0 0 99479499.57245815 0 0 99073012.66786543 0 0 10460886.70554054 0 0 63061226.75252964 0 0 95146644.10364291 0 0 59749803.12510231 0 0 89256646.29462773 0 0 92213808.86192399 0 0 111372519.6503971 0 0 91114872.82041383 0 0 90700196.43273842 0 0 109571973.1629854 0 0 92272386.80931726 0 0 89387434.09084101 0 0 105255773.3245011 0 0 90886258.45007132 0 0 101706394.493086 0 0 89926889.30025403 0 0 90300542.18588725 0 0 102618640.240898 0 0 105382970.0348426 0 0 106624883.9591803 0 0 102617723.8312709 0 0 106626295.3333872 0 0 103380321.3547381 0 0 103270173.4526902 0 0 108100888.9647822 0 0 104045364.8930552 0 0 98251437.47552122 0 0 103975627.2774628 0 0 105638733.5456266 0 0 99505444.17759256 0 0 98235906.31670775 0 0 105647205.5526437 0 0 99174864.57059325 0 0 90729491.92326757 0 0 90230748.06631944 0 0 8345962.659611956 0 0 60940119.55058496 0 0 50601623.45434427 0 0 61961875.16155872 0 0 69623367.4654358 0 0 89076198.02917695 0 0 67091636.64923622 0 0 92348948.45071857 0 0 90569422.64178637 0 0 91129561.34971972 0 0 91587521.78306301 0 0 68082218.49323972 0 0 89967417.89141239 0 0 90210488.23053387 0 0 70009284.86348043 0 0 91135731.12291393 0 0 89119760.00786449 0 0 74538029.32540207 0 0 98469229.34416191 0 0 102727186.1066885 0 0 103263665.7677994 0 0 98036230.21259974 0 0 103429662.731163 0 0 103860057.9900831 0 0 98053975.42017771 0 0 103817296.0906951 0 0 98422252.82365216 0 0 99274546.28259587 0 0 90162028.14274071 0 0 98384385.90711991 0 0 90392639.97765782 0 0 90521296.18112998 0 0 82459770.29009441 0 0 49750392.0224715 0 0 47558617.92652805 0 0 43032200.82534643 0 0 64083996.95521043 0 0 36308377.87758853 0 0 68190695.05131567 0 0 68975522.77846353 0 0 90570892.92781645 0 0 68752193.67630027 0 0 70340595.42927013 0 0 89681817.193488 0 0 69385605.28067248 0 0 74827435.76580194 0 0 88736253.81285693 0 0 71362421.82745343 0 0 90254376.72307089 0 0 75953803.94245335 0 0 82668062.23795412 0 0 98277034.61518101 0 0 98500606.44610374 0 0 103219156.6012163 0 0 91257659.69519258 0 0 98248904.99182397 0 0 98179905.70504476 0 0 90552685.50038637 0 0 91325489.4928447 0 0 98073467.27774242 0 0 82660012.35439111 0 0 90055998.77220687 0 0 82795980.34395079 0 0 76003871.47756739 0 0 100629741.5284119 0 0 21151591.72938772 0 0 39786905.34142002 0 0 41745551.30735043 0 0 65032016.63850875 0 0 39720765.49940877 0 0 69581733.32805067 0 0 68541646.03373966 0 0 44577326.56536438 0 0 71299837.55830629 0 0 68266744.06031767 0 0 51828507.58014368 0 0 76301397.54221077 0 0 70015146.22452116 0 0 74775487.9676442 0 0 73452615.51842229 0 0 83189355.27760674 0 0 92906138.52737813 0 0 98711267.79534499 0 0 98016908.04314719 0 0 92987215.565418 0 0 97918431.54438597 0 0 91678082.2340239 0 0 90163468.95901898 0 0 82516799.11799473 0 0 91663721.64646776 0 0 73783704.54962145 0 0 82775447.31549998 0 0 82772058.01647413 0 0 78106540.99138491 0 0 24805398.97592783 0 0 32314168.81525717 0 0 19240689.9924409 0 0 39456231.36103278 0 0 42964498.08641542 0 0 41882249.66846745 0 0 45520447.25428265 0 0 67177787.73330833 0 0 46752270.2604172 0 0 52948695.18965058 0 0 68832528.96726456 0 0 74229858.65471737 0 0 54378953.30770493 0 0 62335178.03422595 0 0 74681705.29653312 0 0 61999668.07624911 0 0 73482742.14386818 0 0 86248520.80694573 0 0 93265548.25013083 0 0 91322460.87477964 0 0 83143436.76566119 0 0 86439609.95828651 0 0 91138969.62520158 0 0 82827102.53134818 0 0 73481936.74039847 0 0 73823289.39542884 0 0 19799188.71471361 0 0 22997544.56090768 0 0 35963095.90676118 0 0 39846824.50494444 0 0 20605365.76720208 0 0 46300348.58476705 0 0 36240889.75270296 0 0 53648030.66395424 0 0 44962211.4628535 0 0 52812870.44315723 0 0 49015840.95810059 0 0 63109899.00008639 0 0 62693880.69803174 0 0 66682391.20905712 0 0 73217490.89954248 0 0 79524483.69692115 0 0 86790174.40390177 0 0 82506845.76520596 0 0 79704863.81462622 0 0 82156838.99812032 0 0 74241323.01417777 0 0 73291698.76998299 0 0 66546839.68369215 0 0 73936191.00228615 0 0 25429200.70243196 0 0 38831580.47035266 0 0 42208284.84248135 0 0 39778821.8721343 0 0 51342182.68167089 0 0 50747011.74742 0 0 51404751.33001024 0 0 60238016.12523694 0 0 60666893.66504261 0 0 58978915.52205689 0 0 66711381.23630902 0 0 62343560.9424429 0 0 74416932.41440815 0 0 80083792.80318333 0 0 73912729.44768055 0 0 73869121.08311799 0 0 66842815.46237582 0 0 70398456.40678769 0 0 60769049.70189619 0 0 67469240.81886546 0 0 65777555.88309784 0 0 74639458.20839526 0 0 73705892.84455229 0 0 70501585.07336181 0 0 66737620.10039899 0 0 66732420.58475861 0 0 70388222.61754861 0 0 72278008.13345625 0 0 74726933.65509664 0 0 70327230.26925884 0 0 67579328.62553707 0 0 72870664.94946836 0 0 69848972.72833008 0 0 </DataArray>
      </PointData>
    </Piece>
  </UnstructuredGrid>
</VTKFile>
