<?xml version="1.0"?>
<VTKFile type="UnstructuredGrid" version="2.2">
  <UnstructuredGrid>
    <Piece NumberOfPoints="499" NumberOfCells="917">
      <Points>
        <DataArray type="Float64" NumberOfComponents="3" format="ascii">0.05000000000020799 1 0 0 1 0 0.0351309289030932 0.9648212788283614 0 0 0.9521428571430245 0 0.07410899581881705 0.9521996145697518 0 0.03619501900775206 0.926345089326857 0 0.100000000000416 1 0 0 0.9042857142860055 0 0.1248529153442665 0.956120850011662 0 0.06687247752010168 0.9046953647350729 0 0.03995967849156585 0.8811195503969798 0 0.1500000000006241 1 0 0.1041851337259505 0.9107482218708778 0 0 0.8564285714290331 0 0.1748681729373526 0.9567842847419464 0 0.1499719704252519 0.9138026589040573 0 0.07966333293493724 0.8634453161374083 0 0.03840827855926977 0.8348464763491745 0 0.2000000000008322 1 0 0.1268034267604371 0.8708417799831528 0 0 0.8085714285720079 0 0.2246404670128038 0.956727521349138 0 0.1995360174741327 0.9144910843954965 0 0.1774405494969257 0.8724438877231054 0 0.1115930541346348 0.8340250335536372 0 0.07602048542013641 0.8117390862821087 0 0.03820291850737723 0.7868281736043907 0 0.2500000000010403 1 0 0.1536069854541921 0.8323862547732888 0 0 0.76071428571502 0 0.2745448495310301 0.9571412529838124 0 0.2492476249254674 0.9168579380103475 0 0.2272140590908039 0.8769016055535164 0 0.2081527951633738 0.8297369538662961 0 0.1255954212570858 0.7936705302805181 0 0.07758026506890398 0.76522136627175 0 0.03884761596553089 0.7397151781244318 0 0.3000000000012483 1 0 0.1752869397007605 0.8004655258336414 0 0 0.7128571428580415 0 0.3245071376295364 0.9562490784030173 0 0.2979885698787196 0.9139702903734142 0 0.273795967351426 0.8848766796418686 0 0.2626312742265792 0.8461018490988257 0 0.209732553405408 0.7805104206758753 0 0.1648182046189237 0.761183145811741 0 0.1196886593824928 0.7452361389390539 0 0.07859301758627171 0.7202362119479928 0 0.0387094946306324 0.6924338883493967 0 0.3500000000014564 1 0 0.2542904856410648 0.8006402831620031 0 0 0.6650000000010197 0 0.373284899006271 0.9562741347734394 0 0.3430309434764285 0.9129205905472558 0 0.3110404327093357 0.8694034880048852 0 0.3000150623980873 0.8184826618276755 0 0.2471551145158154 0.7522626095381879 0 0.2020763707794245 0.733897979317265 0 0.1568569203435874 0.7162228111855012 0 0.1138350600403664 0.6979878301221817 0 0.07568885218682128 0.6720574194224616 0 0.04144550146682792 0.6410714285723863 0 0.4000000000016644 1 0 0.292627422214226 0.7702113320186724 0 0 0.6171428571437529 0 0.4236036933992229 0.956837290899007 0 0.3944111608198446 0.907096064827361 0 0.3546636455807479 0.8744456910941218 0 0.3451575660533613 0.8350266534510349 0 0.3376980219858877 0.7880727075401645 0 0.2853363776661971 0.7218541730729764 0 0.2400287449018446 0.7039859303198291 0 0.1948470389101201 0.6860936010624592 0 0.1497949142072117 0.6682256799877614 0 0.1061321101669463 0.6502253568429579 0 0.0754179292298829 0.6303898006998543 0 0.04961450465350654 0.5940262792870892 0 0.4500000000018723 1 0 0.3305659936170309 0.7396188154750805 0 0 0.5692857142864644 0 0.47589649594346 0.9493846211632955 0 0.4410098504916174 0.9165864644513614 0 0.3892861754132652 0.8540509040872456 0 0.3821832291388431 0.8063475781717864 0 0.3752774914260535 0.7579586914411093 0 0.2781204190087191 0.6736713706705819 0 0.3234794389747653 0.6915195082123563 0 0.2328404555346584 0.6559009418012425 0 0.1876968612768292 0.6381499384065902 0 0.1427150118797226 0.6204077640030184 0 0.1005662486421979 0.6023721043900203 0 0.04206380347803432 0.5412212912316063 0 0.5000000000020587 1 0 0.4337520238025478 0.8750620751777793 0 0.3687912448725289 0.7092338757439479 0 0.09026619352078842 0.5557516064518678 0 0 0.5214285714291634 0 0.5266930262108331 0.9577040566899753 0 0.477385878493012 0.8945522701893638 0 0.4260364170382286 0.8262253126767269 0 0.4196437029162624 0.7767511998344379 0 0.413269745979751 0.7276259227565756 0 0.3162199338333269 0.6433692036755171 0 0.2708654961846108 0.6256844161481447 0 0.361567841256591 0.6611615782530339 0 0.2256000886991942 0.6080341801969041 0 0.1805010275780292 0.5903704404347114 0 0.1356440453482549 0.572703346485781 0 0.04103489330826546 0.4934411816160771 0 0.08562613746159464 0.5079272774530208 0 0.5500000000017335 1 0 0.5103030971526219 0.9186839226999343 0 0.4720833563444791 0.8442931671838469 0 0.4066678556268106 0.6789402177242839 0 0.1289803515372773 0.5250649098294138 0 0 0.473571428571878 0 0.5752752136824311 0.9569097132192158 0 0.5508603763897448 0.9141024127775241 0 0.521971927672843 0.8698575898280141 0 0.4649407444235568 0.7954119678800942 0 0.4582687990814067 0.7462771030520406 0 0.4513259014177868 0.6972795703766118 0 0.3542122389340754 0.6130615664570996 0 0.309028986495706 0.5953030792200162 0 0.2634314316910091 0.5778238959978853 0 0.3993930306029704 0.6307953934790256 0 0.2182652599300287 0.5602754483928511 0 0.1732704771760278 0.5427358396055855 0 0.0412274359694085 0.4491978857017348 0 0.0822487950053023 0.4631564886888364 0 0.1230752250392104 0.4783671031261084 0 0.6000000000013869 1 0 0.510677745839743 0.8134899011878206 0 0.4444333028804797 0.6487947763286764 0 0.1661483355579058 0.495202677573426 0 0 0.4257142857145927 0 0.6249375054763102 0.9567351874485195 0 0.5999875225848442 0.9141994721846636 0 0.575002517677427 0.874266463196732 0 0.5575814719076636 0.8290646915290993 0 0.5035108705458868 0.764655843089876 0 0.4959856968550059 0.7159111551267947 0 0.4893760546133826 0.6669555719251068 0 0.3466833799489177 0.5650698416634852 0 0.3921159577721292 0.5828026660372365 0 0.3013095311274238 0.5474891438496294 0 0.2555687064102061 0.5302390893244773 0 0.4373702267710396 0.6005328880545654 0 0.210863236839844 0.5127896670909449 0 0.04144550146695013 0.4017857142859501 0 0.07968521043128934 0.420087073706514 0 0.1203120634774109 0.4318770967205484 0 0.1606390864194546 0.4479506696228699 0 0.6500000000010401 1 0 0.5492263618895391 0.7827055685433861 0 0.4824859343051031 0.6186097350182178 0 0.2037594963878574 0.4654066320184769 0 0 0.3778571428573072 0 0.6748961106506012 0.9567722798522957 0 0.6498136263770087 0.9135985534028715 0 0.6244133933088377 0.8734554065086889 0 0.5993586871096956 0.8404454930356424 0 0.5958950501185725 0.8003389129634801 0 0.5418654878635092 0.7339642662237639 0 0.5345450928897006 0.6852995026496358 0 0.5275088250097377 0.6367047426371993 0 0.384270825611985 0.5349079857534838 0 0.3386578006015227 0.5175332676673144 0 0.4300883093021948 0.5525370011656221 0 0.2931918676269519 0.5001572922876616 0 0.2481671455770382 0.4828783156308525 0 0.4753196010943317 0.5702158748679913 0 0.03484605209167942 0.3625675767022785 0 0.07696784702137473 0.3675452770070216 0 0.110513728807242 0.3923336515936737 0 0.151127142136872 0.4006496260453608 0 0.1959208357725721 0.4180446626770965 0 0.7000000000006934 1 0 0.5877866252394939 0.7519475830338004 0 0.5203812286719101 0.5882834173693782 0 0.240961351240131 0.4357286053627399 0 0 0.33 0 0.7248910906525695 0.9566667631984673 0 0.6997344413959855 0.9136331750639164 0 0.6745484027728048 0.8714293350239629 0 0.6439010025359772 0.8251019909802119 0 0.6353628152963346 0.7713158724813569 0 0.5804292691226631 0.7032283140726827 0 0.5731606144727577 0.6545802369094652 0 0.56585498948834 0.6061218829985915 0 0.4224288196481268 0.5046972878653686 0 0.3762640332887282 0.48729042343277 0 0.3302271660051302 0.4702849190168573 0 0.4679696064877491 0.5222798239368871 0 0.285457530094599 0.452976689935633 0 0.5132459010418053 0.5399477846282053 0 0.04696389673674634 0.3266410758053865 0 0.1302180653568376 0.3481745399216107 0 0.1838323017312945 0.3691134770920672 0 0.23258949709086 0.3881240567758077 0 0.7500000000003466 1 0 0.6263195349768048 0.721182038500999 0 0.5585784610392337 0.5577741014510136 0 0.2781610924018978 0.4056319353920908 0 0.09297174401054652 0.3166326812185334 0 0.7749489766572917 0.9566683333612486 0 0.7497053230184649 0.9135266879840829 0 0.7245253772446403 0.8705665174432796 0 0.698902268966787 0.8302815594344528 0 0.6802594763770913 0.7877304592404653 0 0.6722697421956247 0.7391787025450012 0 0.6189601528755704 0.672430684278255 0 0.6115050319719331 0.6238849054839826 0 0.6040680548581197 0.5755422373386426 0 0.4607019326594874 0.4743921945753878 0 0.4152046039530451 0.4569226666796842 0 0.3692047515142087 0.4396887134776903 0 0.3235854898750015 0.4221968617331915 0 0.5059408225256339 0.4919411016069922 0 0.5512852581945651 0.5095109825963959 0 0.1370869546540424 0.3001785583010227 0 0.1786539191806633 0.3224186388456312 0 0.224683371120485 0.3419232673620562 0 0.2719780302787794 0.3583023927687961 0 0.7999999999999998 1 0 0.6648710702231926 0.690299526298916 0 0.5967514578036814 0.5271784302508373 0 0.3175980573874883 0.3747962689561226 0 0.8249972283074323 0.9567005096407425 0 0.8000000000214066 0.9134005586302668 0 0.7741320521388964 0.87022478020732 0 0.7472034036531345 0.8284835169844978 0 0.7213941584143081 0.7961634159734365 0 0.7173784426238883 0.7556635015890373 0 0.7108671960274227 0.7082792609811692 0 0.657339710633935 0.6416536719284605 0 0.6497028991022815 0.5932018614864036 0 0.6422373745407162 0.5448824761327948 0 0.4533351605891787 0.4267083735809134 0 0.498536530598744 0.4440797290929543 0 0.407805626525537 0.4093342566960479 0 0.3627464167149819 0.3915727269231314 0 0.5438686750558908 0.4613942305935778 0 0.5892946722201153 0.4789363753507681 0 0.1784114701979866 0.277613665553036 0 0.2204641878920361 0.2943740753117435 0 0.2659625704840459 0.3108145134272551 0 0.3127460580891538 0.3268616020237734 0 0.8499999999996529 1 0 0.7034124576013699 0.6593474731584852 0 0.6348399630380197 0.4965659507964716 0 0.3563712569651153 0.3442120948957527 0 0.8745941861226763 0.9569270797574694 0 0.8499623787951709 0.9134301182908626 0 0.8250166599577589 0.8701727223255193 0 0.7982413309944431 0.825483197162342 0 0.7657708633716571 0.777394831953568 0 0.7565703889865338 0.7257282066159868 0 0.7494218750840453 0.6772258673296832 0 0.6957508534226222 0.6107430094506441 0 0.6879788595900733 0.5625271759151612 0 0.680489882427082 0.5142673791825004 0 0.4460374276585437 0.3791980410123342 0 0.4909260544779941 0.3965594370951519 0 0.5360966458929554 0.4137834085389385 0 0.4006942839875543 0.3618441430081082 0 0.5816129685670349 0.4308977458097248 0 0.6274097106615009 0.4480709120576016 0 0.2161040427245728 0.2493973590840449 0 0.2595599133273894 0.2621759507547697 0 0.3041688674622482 0.2789735885371641 0 0.3493425418247905 0.2978135472764902 0 0.8999999999995836 1 0 0.7419130237876106 0.6284743760780174 0 0.6730773328993355 0.4658326051403583 0 0.3941764787583211 0.3144694740753445 0 0.9230154276308322 0.9578184332567639 0 0.8995900820033864 0.9136134173564466 0 0.8749110776040597 0.8701826134775527 0 0.8499579943011712 0.8269806590260211 0 0.8244404892174018 0.7841647116751531 0 0.8030229928104186 0.741853858631994 0 0.7953320648847764 0.6949122653166973 0 0.7880904034574974 0.6462364174953779 0 0.7341097318778264 0.5802784981465977 0 0.7262265931130696 0.5319273000321391 0 0.7188155576875227 0.4836232769203638 0 0.438828824965199 0.3317292600532593 0 0.4835987678606884 0.3490865807590474 0 0.5284374051723708 0.3663609598241502 0 0.5736938177734424 0.3834995146836461 0 0.6194516902082002 0.4003082970686044 0 0.6655847456921558 0.4173531151200212 0 0.2493973599862873 0.2161040416833295 0 0.3014779884314855 0.2250492180553197 0 0.345380406211679 0.2530802200839651 0 0.388354265380394 0.2707523338920971 0 0.9499999999997918 1 0 0.7803443787690812 0.5977343285258885 0 0.7112323206168236 0.4354168535736527 0 0.4326070323727387 0.2858030257288403 0 0.9633974596214028 0.9633974596214232 0 0.9537500969914545 0.918683856401696 0 0.9238250460633437 0.8709873182924674 0 0.8994599698226896 0.8274763618674849 0 0.8768841373821001 0.7792609990390587 0 0.8474927390378865 0.7506271314857494 0 0.8406001728842241 0.7100115169476445 0 0.8343035507715433 0.6642491583852055 0 0.8267590251469941 0.6154645340248002 0 0.7724441567570097 0.5496435572889271 0 0.7645843278503058 0.5013234366430628 0 0.7571480789009343 0.4529537315351969 0 0.4763840831981921 0.3016499741407587 0 0.5211898869603115 0.319002521447379 0 0.5660329580392307 0.3363516193702595 0 0.6111595149718462 0.3534009936356332 0 0.6570300144368858 0.3705221373656595 0 0.7031370481078543 0.3878193283167554 0 0.2776136661416138 0.1784114692821418 0 0.3541684505154917 0.209371146217116 0 0.3830606478856452 0.2356549943014152 0 0.4231612569842578 0.241670306804292 0 1 1 0 0.8188330618753492 0.5674912121256631 0 0.7495439219054807 0.4046734994723885 0 0.469777537077609 0.2548286626753635 0 0.3246874632198112 0.1751933095019345 0 1 0.9499999999998684 0 0.9664226636212172 0.874970366285166 0 0.9523733688018106 0.8268157568788354 0 0.9188081947836532 0.7906308244909749 0 0.8807632349905041 0.728619455458277 0 0.8781777704101704 0.6805724738168145 0 0.8731030341957553 0.6333277288819135 0 0.865247664404784 0.5847424726607767 0 0.8105668470564267 0.5191065682602117 0 0.8030716513297693 0.4708427381450162 0 0.7955547150771851 0.4221172223603029 0 0.5139263500332539 0.27146062943507 0 0.5588336206119737 0.2889189562363998 0 0.6036962677276254 0.3061923347209171 0 0.6488318350526887 0.3237233950186297 0 0.694667165790104 0.3403767102300181 0 0.7411216139213832 0.356881252165096 0 0.3001785586604848 0.1370869538669304 0 0.3733031203902586 0.1691858237249241 0 0.4042388603364034 0.203400964509606 0 0.4581070242568452 0.2035988882786036 0 1 0.8999999999997368 0 0.918906593019214 0.7488186799444337 0 0.8571044823149118 0.536899835650261 0 0.7878692847411635 0.373628495439419 0 0.5065924827861679 0.2238676634220057 0 0.3449223017648256 0.1289574236450335 0 1 0.8499999999996051 0 0.9571282477732512 0.7738267918157863 0 0.9200695247292671 0.7005040324166655 0 0.9186270957347094 0.6521663053382794 0 0.912437907782091 0.6037859103662553 0 0.9054635138169199 0.5545068126623202 0 0.849067641641281 0.4886677893010162 0 0.8416159619221973 0.4399555380637976 0 0.832868354851018 0.3920646683343344 0 0.5515680032135072 0.2401990669667881 0 0.596464506273146 0.258577026431262 0 0.6414834476278506 0.2762879537787524 0 0.6864317575281844 0.2937235633322568 0 0.7324421137554041 0.310334160021287 0 0.7784085558345608 0.3272982820950304 0 0.3166326813780361 0.09297174346733041 0 0.3929717676279044 0.1167887598125193 0 0.4216564449675401 0.1572836616673136 0 0.4983791934537086 0.1833212149645992 0 1 0.7999999999994734 0 0.9581862093014873 0.7255133309729376 0 0.8950759036360216 0.5068701536728638 0 0.8242196772470802 0.3450303172998108 0 0.544871376431859 0.1888762660187027 0 0.3617907924268685 0.08269967622446872 0 0.4699046351580797 0.1526098804415494 0 1 0.7499999999993417 0 0.9589460799882479 0.6762408094637845 0 0.9575626471971856 0.6255485147674903 0 0.9550643319206858 0.5757790102630667 0 0.9478507928430259 0.5189634933606978 0 0.8853219817828362 0.4582137098689685 0 0.8779444773721807 0.4094648871210685 0 0.8701345436860427 0.3627316700200581 0 0.5891053840695422 0.2110824214447267 0 0.6341330742316974 0.228430289696755 0 0.6792369990725265 0.2460079918747031 0 0.7242582844715899 0.2632610803446478 0 0.7698361082124615 0.2807553483883564 0 0.8154782568122065 0.2991579893383939 0 0.3266410758424048 0.04696389647927875 0 0.4142888058413819 0.07251518780661366 0 0.4406767312556925 0.1141340215540028 0 0.5168801218221244 0.1470041547863064 0 1 0.69999999999921 0 0.9219435005176688 0.4765167554463223 0 0.8612011696598473 0.3173646798776127 0 0.589264684008993 0.1727885503781989 0 0.3708225666113049 0.03939431506060818 0 0.4893278087572291 0.1106414583054395 0 0.5645396022622364 0.1435461792303806 0 1 0.6499999999990784 0 1 0.5999999999989468 0 1 0.5499999999988151 0 0.9616536935516879 0.4674872420114425 0 0.9250504407757548 0.427908229812347 0 0.9088165444676577 0.3819179640034869 0 0.9148670886562196 0.338105055693418 0 0.6267845149846868 0.1804506794090829 0 0.6718464940836029 0.1980937506468182 0 0.7169870838939164 0.2156550605807239 0 0.7623368785748079 0.2333292257647063 0 0.8078625121126572 0.2510625943188087 0 0.8536486638111022 0.2687313414077562 0 0.33 0 0 0.4094406882034005 0.03136644803376792 0 0.4676232430377477 0.07296848292476121 0 0.539251569021722 0.1093735579490662 0 1 0.4999999999986943 0 0.8992119805249075 0.287733346586961 0 0.614249855808232 0.1353150003763854 0 0.3778571428570112 0 0 0.44868685099975 0.0392813736625777 0 0.5152592613729319 0.07184651526434269 0 0.5838904184397796 0.1115969540731934 0 1 0.4499999999988292 0 0.968061334534704 0.4248777292836471 0 0.9536025383460769 0.3789931745966419 0 0.9466851718106355 0.3022038193110833 0 0.6644381730908484 0.1502741353861799 0 0.7095290995920087 0.1677635606234854 0 0.7548056712732266 0.1852538955665098 0 0.800308692714145 0.202775925515943 0 0.8457866934428073 0.2198966451821108 0 0.8901334485225938 0.2375309770367127 0 0.4257142857140301 0 0 0.4952039327300027 0.03684388381699238 0 0.5675803550849454 0.07702500874793217 0 0.9640319761842122 0.3377015553021835 0 0.9334617624864698 0.2570631968396787 0 0.6570475121898789 0.1026367880771272 0 0.6118050069035158 0.08596204952073851 0 0.4735714285710134 0 0 0.5446542409705846 0.03696693105027274 0 1 0.3999999999989749 0 1 0.3499999999991206 0 0.9701291647283437 0.2710504430892083 0 1 0.2999999999992664 0 0.7020254554712373 0.1199737239648616 0 0.7470817589578976 0.1383533083455916 0 0.7927531905500957 0.1546240694283499 0 0.8383219000130806 0.1721595172364429 0 0.882701173015732 0.1864836265849406 0 0.925231398176143 0.2064910300115851 0 0.521428571427989 0 0 0.5943085483453888 0.04303555207933427 0 0.964601799162629 0.2270273261279724 0 0.6955284414304047 0.07398882898125682 0 0.6471699691046346 0.04821649392223144 0 0.56928571428498 0 0 1 0.2499999999994121 0 0.7393222202376052 0.09316181824239983 0 0.784054916623212 0.1093427822479428 0 0.8303332536600704 0.1250364833676656 0 0.8762293302565711 0.1383647275228382 0 0.9193144157498003 0.1554588936502092 0 0.9611757901196327 0.175382159829997 0 0.6171428571420018 0 0 1 0.1999999999995579 0 0.7360489656711728 0.04426810506749618 0 0.6889285714275926 0.0324185698824585 0 0.6649999999989586 0 0 0.771163288866213 0.07405684609786942 0 0.8152290215831512 0.08084712185141289 0 0.8675338713872365 0.08916625888343346 0 0.9132662022530411 0.1072442210780973 0 0.9585164608996993 0.1254337829502501 0 1 0.1499999999997036 0 0.7128571428562255 0 0 0.7889359233900716 0.0406365286272023 0 0.8365568887666057 0.04307800364791498 0 0.9063550691865868 0.06835625666030257 0 0.9530928939879679 0.07351297874410272 0 1 0.09999999999981467 0 0.760714285713514 0 0 0.8803571428567869 0.04144550146694864 0 0.808571428570815 0 0 0.8564285714281437 0 0 0.9274581389734619 0.03691960757553556 0 1 0.04999999999989965 0 0.904285714285429 0 0 0.9656625612153068 0.03443237135395061 0 0.9521428571427146 0 0 1 0 0 </DataArray>
      </Points>
      <Cells>
        <DataArray type="Int32" Name="connectivity" format="ascii">0 1 2 1 3 2 4 0 2 3 5 2 6 0 4 5 4 2 3 7 5 6 4 8 4 5 9 7 10 5 11 6 8 8 4 12 12 4 9 5 10 9 7 13 10 14 11 8 15 8 12 16 12 9 10 16 9 10 13 17 18 11 14 14 8 15 19 15 12 19 12 16 10 17 16 13 20 17 18 14 21 14 15 22 23 15 19 24 19 16 16 17 25 20 26 17 27 18 21 14 22 21 22 15 23 23 19 28 28 19 24 24 16 25 17 26 25 20 29 26 27 21 30 21 22 31 22 23 32 23 28 33 28 24 34 34 24 25 26 35 25 26 29 36 37 27 30 21 31 30 31 22 32 23 33 32 33 28 38 28 34 38 35 34 25 35 26 36 29 39 36 40 37 30 30 31 41 31 32 42 33 43 32 44 33 38 34 45 38 46 34 35 47 35 36 39 48 36 49 37 40 40 30 41 41 31 42 32 43 42 50 43 33 44 50 33 45 44 38 46 45 34 47 46 35 48 47 36 39 51 48 49 40 52 40 41 53 54 41 42 43 54 42 50 55 43 56 50 44 57 44 45 46 58 45 59 46 47 47 48 60 51 61 48 62 49 52 40 53 52 53 41 54 43 55 54 50 63 55 56 63 50 56 44 57 58 57 45 59 58 46 59 47 60 48 61 60 51 64 61 65 62 52 52 53 66 53 54 67 55 68 54 55 63 69 56 70 63 71 56 57 58 72 57 73 58 59 74 59 60 60 61 75 61 64 76 77 62 65 65 52 66 66 53 67 54 68 67 55 69 68 69 63 78 71 70 56 63 70 78 72 71 57 73 72 58 73 59 74 74 60 75 61 76 75 64 79 76 77 65 80 65 66 81 82 66 67 68 82 67 68 69 83 69 78 84 85 70 71 70 86 78 87 71 72 88 72 73 89 73 74 90 74 75 76 90 75 76 79 91 92 77 80 80 65 81 66 93 81 93 66 82 82 68 83 69 84 83 78 94 84 85 86 70 85 71 87 86 94 78 87 72 88 88 73 89 89 74 90 95 90 76 79 96 91 95 76 91 97 92 80 98 80 81 93 98 81 99 93 82 99 82 83 84 100 83 94 101 84 102 86 85 85 87 103 86 104 94 87 88 105 88 89 106 107 89 90 95 107 90 96 108 91 109 95 91 110 92 97 97 80 111 80 98 111 93 112 98 99 112 93 100 99 83 101 100 84 94 113 101 102 104 86 102 85 103 103 87 105 94 104 113 88 106 105 106 89 107 114 107 95 96 115 108 108 109 91 114 95 109 110 97 116 117 97 111 98 118 111 98 112 118 119 112 99 119 99 100 100 101 120 101 113 121 102 122 104 123 102 103 124 103 105 113 104 125 106 126 105 106 107 127 127 107 114 108 115 128 109 108 129 130 114 109 131 110 116 116 97 117 118 117 111 112 132 118 119 132 112 119 100 120 120 101 121 113 133 121 123 122 102 104 122 125 124 123 103 126 124 105 113 125 133 106 127 126 127 114 134 115 135 128 108 128 129 130 109 129 134 114 130 136 131 116 137 116 117 117 118 138 132 139 118 140 132 119 140 119 120 141 120 121 133 142 121 143 122 123 122 144 125 145 123 124 124 126 146 125 147 133 126 127 148 127 134 148 135 149 128 128 150 129 130 129 151 134 130 152 153 131 136 136 116 137 137 117 138 118 139 138 132 154 139 140 154 132 141 140 120 142 141 121 155 142 133 143 144 122 143 123 145 144 147 125 145 124 146 126 148 146 147 155 133 134 156 148 135 157 149 128 149 150 129 150 151 152 130 151 134 152 156 153 136 158 136 137 159 160 137 138 138 139 161 139 154 162 163 154 140 163 140 141 164 141 142 165 142 155 166 144 143 143 145 167 144 168 147 145 146 169 148 170 146 147 171 155 156 170 148 149 157 172 149 173 150 150 174 151 175 152 151 156 152 176 177 153 158 136 159 158 159 137 160 160 138 161 139 162 161 154 178 162 163 178 154 163 141 164 165 164 142 179 165 155 166 168 144 166 143 167 145 169 167 147 168 171 146 170 169 171 179 155 156 180 170 157 181 172 173 149 172 150 173 174 174 175 151 176 152 175 156 176 180 182 177 158 159 183 158 159 160 184 185 160 161 162 185 161 162 178 186 187 178 163 187 163 164 165 188 164 189 165 179 190 168 166 191 166 167 169 192 167 168 193 171 170 194 169 195 179 171 170 180 194 181 196 172 196 173 172 173 197 174 197 175 174 176 175 198 180 176 199 200 177 182 183 182 158 159 184 183 184 160 185 162 186 185 178 201 186 187 201 178 188 187 164 189 188 165 202 189 179 190 193 168 190 166 191 192 191 167 194 192 169 193 195 171 195 202 179 194 180 203 196 204 173 173 204 197 175 197 198 199 176 198 203 180 199 200 182 205 182 183 206 183 184 207 184 185 208 186 209 185 201 210 186 187 211 201 188 211 187 189 212 188 202 213 189 190 214 193 215 190 191 192 216 191 194 217 192 193 218 195 195 219 202 194 203 217 204 220 197 197 221 198 222 199 198 223 203 199 224 200 205 205 182 206 183 207 206 207 184 208 185 209 208 210 209 186 201 225 210 201 211 225 188 212 211 189 213 212 202 226 213 215 214 190 193 214 218 216 215 191 217 216 192 195 218 219 202 219 226 217 203 227 220 221 197 221 222 198 222 223 199 203 223 227 228 224 205 229 205 206 207 230 206 231 207 208 208 209 232 210 233 209 210 225 234 225 211 235 211 212 235 212 213 236 213 226 237 215 238 214 218 214 239 240 215 216 216 217 241 219 218 242 226 219 243 241 217 227 220 244 221 221 245 222 246 223 222 223 247 227 248 224 228 228 205 229 230 229 206 207 231 230 231 208 232 209 233 232 210 234 233 234 225 249 249 225 235 235 212 236 213 237 236 237 226 250 240 238 215 214 238 239 242 218 239 240 216 241 219 242 243 250 226 243 251 241 227 221 244 245 245 246 222 246 247 223 247 251 227 248 228 252 228 229 253 254 229 230 231 255 230 256 231 232 233 256 232 233 234 257 258 234 249 259 249 235 259 235 236 236 237 260 237 250 261 240 262 238 239 238 263 264 242 239 265 240 241 242 266 243 267 250 243 251 265 241 244 268 245 245 269 246 246 270 247 247 271 251 272 248 252 228 253 252 253 229 254 255 254 230 256 255 231 233 257 256 257 234 258 273 258 249 273 249 259 259 236 260 237 261 260 261 250 274 265 262 240 238 262 263 264 239 263 266 242 264 266 267 243 274 250 267 251 275 265 268 269 245 246 269 270 247 270 271 251 271 275 276 272 252 253 277 252 253 254 278 279 254 255 255 256 280 256 257 281 257 258 282 283 258 273 273 259 284 259 260 284 261 285 260 261 274 286 265 287 262 262 288 263 264 263 289 266 264 290 291 267 266 292 274 267 265 275 287 268 293 269 270 269 294 271 270 295 275 271 296 297 272 276 277 276 252 253 278 277 278 254 279 279 255 280 280 256 281 257 282 281 282 258 283 283 273 298 298 273 284 260 285 284 261 286 285 286 274 299 262 287 288 263 288 289 264 289 290 291 266 290 292 267 291 299 274 292 287 275 300 269 293 294 270 294 295 296 271 295 275 296 300 297 276 301 276 277 302 277 278 303 278 279 304 279 280 305 280 281 306 282 307 281 282 283 308 309 283 298 298 284 310 284 285 310 285 286 311 286 299 312 288 287 313 288 314 289 289 315 290 291 290 316 292 291 317 299 292 318 313 287 300 293 319 294 294 320 295 296 295 321 300 296 322 323 297 301 276 302 301 277 303 302 303 278 304 279 305 304 305 280 306 281 307 306 282 308 307 308 283 309 309 298 324 298 310 324 285 311 310 286 312 311 312 299 325 288 313 314 314 315 289 290 315 316 291 316 317 318 292 317 325 299 318 326 313 300 319 327 294 327 320 294 295 320 321 322 296 321 326 300 322 328 323 301 302 328 301 302 303 329 330 303 304 304 305 331 332 305 306 307 332 306 307 308 333 308 309 334 335 309 324 310 336 324 311 336 310 312 337 311 312 325 338 314 313 339 314 340 315 315 341 316 316 342 317 343 318 317 344 325 318 339 313 326 319 345 327 327 346 320 320 347 321 347 322 321 348 326 322 349 328 302 303 330 329 349 302 329 330 304 331 305 350 331 350 305 332 307 333 332 308 334 333 334 309 335 335 324 351 324 336 351 337 336 311 312 338 337 338 325 352 314 339 340 315 340 341 341 342 316 342 343 317 343 344 318 352 325 344 353 339 326 327 345 354 327 354 346 346 347 320 347 348 322 353 326 348 330 355 329 355 349 329 356 330 331 350 356 331 357 350 332 333 357 332 334 358 333 334 335 359 335 351 360 336 361 351 337 361 336 337 338 362 338 352 363 340 339 364 340 365 341 366 342 341 342 367 343 344 343 368 352 344 369 364 339 353 345 370 354 354 371 346 346 372 347 347 372 348 353 348 373 374 355 330 374 330 356 375 356 350 375 350 357 333 358 357 334 359 358 359 335 360 351 376 360 361 376 351 337 362 361 362 338 363 363 352 377 340 364 365 365 366 341 366 367 342 343 367 368 344 368 369 352 369 377 364 353 378 370 379 354 354 379 371 346 371 372 372 380 348 378 353 373 348 380 373 381 374 356 375 381 356 382 375 357 358 382 357 358 359 383 384 359 360 376 385 360 361 386 376 361 362 386 387 362 363 363 377 388 365 364 389 365 390 366 366 391 367 367 392 368 368 393 369 369 394 377 389 364 378 370 395 379 371 379 396 372 371 397 372 397 380 398 378 373 380 398 373 399 381 375 399 375 382 358 383 382 359 384 383 385 384 360 385 376 400 376 386 400 386 362 387 387 363 388 377 401 388 365 389 390 366 390 391 367 391 392 392 393 368 393 394 369 394 401 377 389 378 402 379 395 403 396 379 403 397 371 396 380 397 404 398 405 378 380 404 398 406 399 382 383 406 382 384 407 383 408 384 385 409 385 400 386 410 400 386 387 410 387 388 411 401 412 388 390 389 413 391 390 414 391 415 392 416 393 392 393 417 394 394 418 401 413 389 402 378 405 402 395 419 403 396 403 420 397 396 421 404 397 421 398 422 405 398 404 422 407 406 383 408 407 384 423 408 385 409 423 385 410 409 400 410 387 411 388 412 411 401 424 412 414 390 413 391 414 415 415 416 392 416 417 393 394 417 418 401 418 424 425 413 402 405 425 402 419 426 403 427 396 420 403 426 420 396 427 421 428 404 421 405 422 429 422 404 428 430 423 409 409 410 431 432 410 411 412 432 411 412 424 433 434 414 413 415 414 435 415 436 416 416 437 417 418 417 438 424 418 439 425 434 413 425 405 429 440 427 420 426 440 420 421 427 441 428 421 441 422 442 429 422 428 442 430 409 431 410 432 431 432 412 443 433 424 444 412 433 443 435 414 434 415 435 436 416 436 437 417 437 438 418 438 439 424 439 444 445 434 425 446 425 429 440 447 427 427 447 441 448 428 441 442 446 429 428 448 442 449 430 431 432 449 431 450 432 443 433 444 451 433 452 443 435 434 453 436 435 454 437 436 455 437 456 438 438 457 439 444 439 458 453 434 445 445 425 446 447 459 441 459 448 441 460 446 442 448 460 442 450 449 432 452 450 443 452 433 451 444 461 451 435 453 454 455 436 454 437 455 456 456 457 438 439 457 458 461 444 458 453 445 462 463 445 446 459 464 448 460 463 446 464 460 448 465 452 451 461 465 451 453 466 454 467 455 454 456 455 468 456 469 457 457 470 458 471 461 458 453 462 466 462 445 463 460 472 463 464 472 460 473 465 461 466 467 454 468 455 467 456 468 469 457 469 470 470 471 458 473 461 471 462 474 466 462 463 475 472 476 463 467 466 477 468 467 478 469 468 479 469 480 470 481 471 470 482 473 471 474 462 475 466 474 477 463 476 475 478 467 477 479 468 478 469 479 480 480 481 470 481 482 471 483 474 475 474 484 477 476 483 475 484 478 477 485 479 478 480 479 486 487 481 480 488 482 481 483 489 474 474 489 484 484 485 478 479 485 490 479 490 486 487 480 486 488 481 487 489 491 484 491 485 484 485 492 490 490 493 486 493 487 486 494 488 487 491 492 485 492 495 490 495 493 490 487 493 496 494 487 496 495 497 493 493 497 496 498 494 496 497 498 496 </DataArray>
        <DataArray type="Int32" Name="offsets" format="ascii">3 6 9 12 15 18 21 24 27 30 33 36 39 42 45 48 51 54 57 60 63 66 69 72 75 78 81 84 87 90 93 96 99 102 105 108 111 114 117 120 123 126 129 132 135 138 141 144 147 150 153 156 159 162 165 168 171 174 177 180 183 186 189 192 195 198 201 204 207 210 213 216 219 222 225 228 231 234 237 240 243 246 249 252 255 258 261 264 267 270 273 276 279 282 285 288 291 294 297 300 303 306 309 312 315 318 321 324 327 330 333 336 339 342 345 348 351 354 357 360 363 366 369 372 375 378 381 384 387 390 393 396 399 402 405 408 411 414 417 420 423 426 429 432 435 438 441 444 447 450 453 456 459 462 465 468 471 474 477 480 483 486 489 492 495 498 501 504 507 510 513 516 519 522 525 528 531 534 537 540 543 546 549 552 555 558 561 564 567 570 573 576 579 582 585 588 591 594 597 600 603 606 609 612 615 618 621 624 627 630 633 636 639 642 645 648 651 654 657 660 663 666 669 672 675 678 681 684 687 690 693 696 699 702 705 708 711 714 717 720 723 726 729 732 735 738 741 744 747 750 753 756 759 762 765 768 771 774 777 780 783 786 789 792 795 798 801 804 807 810 813 816 819 822 825 828 831 834 837 840 843 846 849 852 855 858 861 864 867 870 873 876 879 882 885 888 891 894 897 900 903 906 909 912 915 918 921 924 927 930 933 936 939 942 945 948 951 954 957 960 963 966 969 972 975 978 981 984 987 990 993 996 999 1002 1005 1008 1011 1014 1017 1020 1023 1026 1029 1032 1035 1038 1041 1044 1047 1050 1053 1056 1059 1062 1065 1068 1071 1074 1077 1080 1083 1086 1089 1092 1095 1098 1101 1104 1107 1110 1113 1116 1119 1122 1125 1128 1131 1134 1137 1140 1143 1146 1149 1152 1155 1158 1161 1164 1167 1170 1173 1176 1179 1182 1185 1188 1191 1194 1197 1200 1203 1206 1209 1212 1215 1218 1221 1224 1227 1230 1233 1236 1239 1242 1245 1248 1251 1254 1257 1260 1263 1266 1269 1272 1275 1278 1281 1284 1287 1290 1293 1296 1299 1302 1305 1308 1311 1314 1317 1320 1323 1326 1329 1332 1335 1338 1341 1344 1347 1350 1353 1356 1359 1362 1365 1368 1371 1374 1377 1380 1383 1386 1389 1392 1395 1398 1401 1404 1407 1410 1413 1416 1419 1422 1425 1428 1431 1434 1437 1440 1443 1446 1449 1452 1455 1458 1461 1464 1467 1470 1473 1476 1479 1482 1485 1488 1491 1494 1497 1500 1503 1506 1509 1512 1515 1518 1521 1524 1527 1530 1533 1536 1539 1542 1545 1548 1551 1554 1557 1560 1563 1566 1569 1572 1575 1578 1581 1584 1587 1590 1593 1596 1599 1602 1605 1608 1611 1614 1617 1620 1623 1626 1629 1632 1635 1638 1641 1644 1647 1650 1653 1656 1659 1662 1665 1668 1671 1674 1677 1680 1683 1686 1689 1692 1695 1698 1701 1704 1707 1710 1713 1716 1719 1722 1725 1728 1731 1734 1737 1740 1743 1746 1749 1752 1755 1758 1761 1764 1767 1770 1773 1776 1779 1782 1785 1788 1791 1794 1797 1800 1803 1806 1809 1812 1815 1818 1821 1824 1827 1830 1833 1836 1839 1842 1845 1848 1851 1854 1857 1860 1863 1866 1869 1872 1875 1878 1881 1884 1887 1890 1893 1896 1899 1902 1905 1908 1911 1914 1917 1920 1923 1926 1929 1932 1935 1938 1941 1944 1947 1950 1953 1956 1959 1962 1965 1968 1971 1974 1977 1980 1983 1986 1989 1992 1995 1998 2001 2004 2007 2010 2013 2016 2019 2022 2025 2028 2031 2034 2037 2040 2043 2046 2049 2052 2055 2058 2061 2064 2067 2070 2073 2076 2079 2082 2085 2088 2091 2094 2097 2100 2103 2106 2109 2112 2115 2118 2121 2124 2127 2130 2133 2136 2139 2142 2145 2148 2151 2154 2157 2160 2163 2166 2169 2172 2175 2178 2181 2184 2187 2190 2193 2196 2199 2202 2205 2208 2211 2214 2217 2220 2223 2226 2229 2232 2235 2238 2241 2244 2247 2250 2253 2256 2259 2262 2265 2268 2271 2274 2277 2280 2283 2286 2289 2292 2295 2298 2301 2304 2307 2310 2313 2316 2319 2322 2325 2328 2331 2334 2337 2340 2343 2346 2349 2352 2355 2358 2361 2364 2367 2370 2373 2376 2379 2382 2385 2388 2391 2394 2397 2400 2403 2406 2409 2412 2415 2418 2421 2424 2427 2430 2433 2436 2439 2442 2445 2448 2451 2454 2457 2460 2463 2466 2469 2472 2475 2478 2481 2484 2487 2490 2493 2496 2499 2502 2505 2508 2511 2514 2517 2520 2523 2526 2529 2532 2535 2538 2541 2544 2547 2550 2553 2556 2559 2562 2565 2568 2571 2574 2577 2580 2583 2586 2589 2592 2595 2598 2601 2604 2607 2610 2613 2616 2619 2622 2625 2628 2631 2634 2637 2640 2643 2646 2649 2652 2655 2658 2661 2664 2667 2670 2673 2676 2679 2682 2685 2688 2691 2694 2697 2700 2703 2706 2709 2712 2715 2718 2721 2724 2727 2730 2733 2736 2739 2742 2745 2748 2751 </DataArray>
        <DataArray type="Int8" Name="types" format="ascii">69 69 69 69 69 69 69 69 69 69 69 69 69 69 69 69 69 69 69 69 69 69 69 69 69 69 69 69 69 69 69 69 69 69 69 69 69 69 69 69 69 69 69 69 69 69 69 69 69 69 69 69 69 69 69 69 69 69 69 69 69 69 69 69 69 69 69 69 69 69 69 69 69 69 69 69 69 69 69 69 69 69 69 69 69 69 69 69 69 69 69 69 69 69 69 69 69 69 69 69 69 69 69 69 69 69 69 69 69 69 69 69 69 69 69 69 69 69 69 69 69 69 69 69 69 69 69 69 69 69 69 69 69 69 69 69 69 69 69 69 69 69 69 69 69 69 69 69 69 69 69 69 69 69 69 69 69 69 69 69 69 69 69 69 69 69 69 69 69 69 69 69 69 69 69 69 69 69 69 69 69 69 69 69 69 69 69 69 69 69 69 69 69 69 69 69 69 69 69 69 69 69 69 69 69 69 69 69 69 69 69 69 69 69 69 69 69 69 69 69 69 69 69 69 69 69 69 69 69 69 69 69 69 69 69 69 69 69 69 69 69 69 69 69 69 69 69 69 69 69 69 69 69 69 69 69 69 69 69 69 69 69 69 69 69 69 69 69 69 69 69 69 69 69 69 69 69 69 69 69 69 69 69 69 69 69 69 69 69 69 69 69 69 69 69 69 69 69 69 69 69 69 69 69 69 69 69 69 69 69 69 69 69 69 69 69 69 69 69 69 69 69 69 69 69 69 69 69 69 69 69 69 69 69 69 69 69 69 69 69 69 69 69 69 69 69 69 69 69 69 69 69 69 69 69 69 69 69 69 69 69 69 69 69 69 69 69 69 69 69 69 69 69 69 69 69 69 69 69 69 69 69 69 69 69 69 69 69 69 69 69 69 69 69 69 69 69 69 69 69 69 69 69 69 69 69 69 69 69 69 69 69 69 69 69 69 69 69 69 69 69 69 69 69 69 69 69 69 69 69 69 69 69 69 69 69 69 69 69 69 69 69 69 69 69 69 69 69 69 69 69 69 69 69 69 69 69 69 69 69 69 69 69 69 69 69 69 69 69 69 69 69 69 69 69 69 69 69 69 69 69 69 69 69 69 69 69 69 69 69 69 69 69 69 69 69 69 69 69 69 69 69 69 69 69 69 69 69 69 69 69 69 69 69 69 69 69 69 69 69 69 69 69 69 69 69 69 69 69 69 69 69 69 69 69 69 69 69 69 69 69 69 69 69 69 69 69 69 69 69 69 69 69 69 69 69 69 69 69 69 69 69 69 69 69 69 69 69 69 69 69 69 69 69 69 69 69 69 69 69 69 69 69 69 69 69 69 69 69 69 69 69 69 69 69 69 69 69 69 69 69 69 69 69 69 69 69 69 69 69 69 69 69 69 69 69 69 69 69 69 69 69 69 69 69 69 69 69 69 69 69 69 69 69 69 69 69 69 69 69 69 69 69 69 69 69 69 69 69 69 69 69 69 69 69 69 69 69 69 69 69 69 69 69 69 69 69 69 69 69 69 69 69 69 69 69 69 69 69 69 69 69 69 69 69 69 69 69 69 69 69 69 69 69 69 69 69 69 69 69 69 69 69 69 69 69 69 69 69 69 69 69 69 69 69 69 69 69 69 69 69 69 69 69 69 69 69 69 69 69 69 69 69 69 69 69 69 69 69 69 69 69 69 69 69 69 69 69 69 69 69 69 69 69 69 69 69 69 69 69 69 69 69 69 69 69 69 69 69 69 69 69 69 69 69 69 69 69 69 69 69 69 69 69 69 69 69 69 69 69 69 69 69 69 69 69 69 69 69 69 69 69 69 69 69 69 69 69 69 69 69 69 69 69 69 69 69 69 69 69 69 69 69 69 69 69 69 69 69 69 69 69 69 69 69 69 69 69 69 69 69 69 69 69 69 69 69 69 69 69 69 69 69 69 69 69 69 69 69 69 69 69 69 69 69 69 69 69 69 69 69 69 69 69 69 69 69 69 69 69 69 69 69 69 69 69 69 69 69 69 69 69 69 69 69 69 69 69 69 69 69 69 69 69 69 69 69 69 69 69 69 69 69 69 69 69 69 </DataArray>
      </Cells>
      <CellData Tensors="stress" Vectors="von_mises_stress">
        <DataArray type="UInt8" Name="vtkGhostType" format="ascii" RangeMin="0" RangeMax="1">0 0 0 0 0 0 0 0 0 0 0 0 0 0 0 0 0 0 0 0 0 0 0 0 0 0 0 0 0 0 0 0 0 0 0 0 0 0 0 0 0 0 0 0 0 0 0 0 0 0 0 0 0 0 0 0 0 0 0 0 0 0 0 0 0 0 0 0 0 0 0 0 0 0 0 0 0 0 0 0 0 0 0 0 0 0 0 0 0 0 0 0 0 0 0 0 0 0 0 0 0 0 0 0 0 0 0 0 0 0 0 0 0 0 0 0 0 0 0 0 0 0 0 0 0 0 0 0 0 0 0 0 0 0 0 0 0 0 0 0 0 0 0 0 0 0 0 0 0 0 0 0 0 0 0 0 0 0 0 0 0 0 0 0 0 0 0 0 0 0 0 0 0 0 0 0 0 0 0 0 0 0 0 0 0 0 0 0 0 0 0 0 0 0 0 0 0 0 0 0 0 0 0 0 0 0 0 0 0 0 0 0 0 0 0 0 0 0 0 0 0 0 0 0 0 0 0 0 0 0 0 0 0 0 0 0 0 0 0 0 0 0 0 0 0 0 0 0 0 0 0 0 0 0 0 0 0 0 0 0 0 0 0 0 0 0 0 0 0 0 0 0 0 0 0 0 0 0 0 0 0 0 0 0 0 0 0 0 0 0 0 0 0 0 0 0 0 0 0 0 0 0 0 0 0 0 0 0 0 0 0 0 0 0 0 0 0 0 0 0 0 0 0 0 0 0 0 0 0 0 0 0 0 0 0 0 0 0 0 0 0 0 0 0 0 0 0 0 0 0 0 0 0 0 0 0 0 0 0 0 0 0 0 0 0 0 0 0 0 0 0 0 0 0 0 0 0 0 0 0 0 0 0 0 0 0 0 0 0 0 0 0 0 0 0 0 0 0 0 0 0 0 0 0 0 0 0 0 0 0 0 0 0 0 0 0 0 0 0 0 0 0 0 0 0 0 0 0 0 0 0 0 0 0 0 0 0 0 0 0 0 0 0 0 0 0 0 0 0 0 0 0 0 0 0 0 0 0 0 0 0 0 0 0 0 0 0 0 0 0 0 0 0 0 0 0 0 0 0 0 0 0 0 0 0 0 0 0 0 0 0 0 0 0 0 0 0 0 0 0 0 0 0 0 0 0 0 0 0 0 0 0 0 0 0 0 0 0 0 0 0 0 0 0 0 0 0 0 0 0 0 0 0 0 0 0 0 0 0 0 0 0 0 0 0 0 0 0 0 0 0 0 0 0 0 0 0 0 0 0 0 0 0 0 0 0 0 0 0 0 0 0 0 0 0 0 0 0 0 0 0 0 0 0 0 0 0 0 0 0 0 0 0 0 0 0 0 0 0 0 0 0 0 0 0 0 0 0 0 0 0 0 0 0 0 0 0 0 0 0 0 0 0 0 0 0 0 0 0 0 0 0 0 0 0 0 0 0 0 0 0 0 0 0 0 0 0 0 0 0 0 0 0 0 0 0 0 0 0 0 0 0 0 0 0 0 0 0 0 0 0 0 0 0 0 0 0 0 0 0 0 0 0 0 0 0 0 0 0 0 0 0 0 0 0 0 0 0 0 0 0 0 0 0 0 0 0 0 0 0 0 0 0 0 0 0 0 0 0 0 0 0 0 0 0 0 0 0 0 0 0 0 0 0 0 0 0 0 0 0 0 0 0 0 0 0 0 0 0 0 0 0 0 0 0 0 0 0 0 0 0 0 0 0 0 0 0 0 0 0 0 0 0 0 0 0 0 0 0 0 0 0 0 0 0 0 0 0 0 0 0 0 0 0 0 0 0 0 0 0 0 0 0 0 0 0 0 0 0 0 0 0 0 0 0 0 0 0 0 0 0 0 0 0 0 0 0 0 0 0 0 0 0 0 0 0 0 0 0 0 0 0 0 0 0 0 0 0 0 0 0 0 0 0 0 0 0 0 0 0 0 0 0 0 0 0 0 0 0 0 0 0 0 0 0 0 0 0 0 0 0 0 0 0 0 0 0 0 0 0 0 0 0 0 0 0 0 0 0 0 0 0 0 0 0 0 0 0 0 0 0 0 0 0 0 0 0 </DataArray>
        <DataArray type="Int64" IdType="1" Name="vtkOriginalCellIds" format="ascii" RangeMin="0" RangeMax="916">0 1 2 3 4 5 6 7 8 9 10 11 12 13 14 15 16 17 18 19 20 21 22 23 24 25 26 27 28 29 30 31 32 33 34 35 36 37 38 39 40 41 42 43 44 45 46 47 48 49 50 51 52 53 54 55 56 57 58 59 60 61 62 63 64 65 66 67 68 69 70 71 72 73 74 75 76 77 78 79 80 81 82 83 84 85 86 87 88 89 90 91 92 93 94 95 96 97 98 99 100 101 102 103 104 105 106 107 108 109 110 111 112 113 114 115 116 117 118 119 120 121 122 123 124 125 126 127 128 129 130 131 132 133 134 135 136 137 138 139 140 141 142 143 144 145 146 147 148 149 150 151 152 153 154 155 156 157 158 159 160 161 162 163 164 165 166 167 168 169 170 171 172 173 174 175 176 177 178 179 180 181 182 183 184 185 186 187 188 189 190 191 192 193 194 195 196 197 198 199 200 201 202 203 204 205 206 207 208 209 210 211 212 213 214 215 216 217 218 219 220 221 222 223 224 225 226 227 228 229 230 231 232 233 234 235 236 237 238 239 240 241 242 243 244 245 246 247 248 249 250 251 252 253 254 255 256 257 258 259 260 261 262 263 264 265 266 267 268 269 270 271 272 273 274 275 276 277 278 279 280 281 282 283 284 285 286 287 288 289 290 291 292 293 294 295 296 297 298 299 300 301 302 303 304 305 306 307 308 309 310 311 312 313 314 315 316 317 318 319 320 321 322 323 324 325 326 327 328 329 330 331 332 333 334 335 336 337 338 339 340 341 342 343 344 345 346 347 348 349 350 351 352 353 354 355 356 357 358 359 360 361 362 363 364 365 366 367 368 369 370 371 372 373 374 375 376 377 378 379 380 381 382 383 384 385 386 387 388 389 390 391 392 393 394 395 396 397 398 399 400 401 402 403 404 405 406 407 408 409 410 411 412 413 414 415 416 417 418 419 420 421 422 423 424 425 426 427 428 429 430 431 432 433 434 435 436 437 438 439 440 441 442 443 444 445 446 447 448 449 450 451 452 453 454 455 456 457 458 459 460 461 462 463 464 465 466 467 468 469 470 471 472 473 474 475 476 477 478 479 480 481 482 483 484 485 486 487 488 489 490 491 492 493 494 495 496 497 498 499 500 501 502 503 504 505 506 507 508 509 510 511 512 513 514 515 516 517 518 519 520 521 522 523 524 525 526 527 528 529 530 531 532 533 534 535 536 537 538 539 540 541 542 543 544 545 546 547 548 549 550 551 552 553 554 555 556 557 558 559 560 561 562 563 564 565 566 567 568 569 570 571 572 573 574 575 576 577 578 579 580 581 582 583 584 585 586 587 588 589 590 591 592 593 594 595 596 597 598 599 600 601 602 603 604 605 606 607 608 609 610 611 612 613 614 615 616 617 618 619 620 621 622 623 624 625 626 627 628 629 630 631 632 633 634 635 636 637 638 639 640 641 642 643 644 645 646 647 648 649 650 651 652 653 654 655 656 657 658 659 660 661 662 663 664 665 666 667 668 669 670 671 672 673 674 675 676 677 678 679 680 681 682 683 684 685 686 687 688 689 690 691 692 693 694 695 696 697 698 699 700 701 702 703 704 705 706 707 708 709 710 711 712 713 714 715 716 717 718 719 720 721 722 723 724 725 726 727 728 729 730 731 732 733 734 735 736 737 738 739 740 741 742 743 744 745 746 747 748 749 750 751 752 753 754 755 756 757 758 759 760 761 762 763 764 765 766 767 768 769 770 771 772 773 774 775 776 777 778 779 780 781 782 783 784 785 786 787 788 789 790 791 792 793 794 795 796 797 798 799 800 801 802 803 804 805 806 807 808 809 810 811 812 813 814 815 816 817 818 819 820 821 822 823 824 825 826 827 828 829 830 831 832 833 834 835 836 837 838 839 840 841 842 843 844 845 846 847 848 849 850 851 852 853 854 855 856 857 858 859 860 861 862 863 864 865 866 867 868 869 870 871 872 873 874 875 876 877 878 879 880 881 882 883 884 885 886 887 888 889 890 891 892 893 894 895 896 897 898 899 900 901 902 903 904 905 906 907 908 909 910 911 912 913 914 915 916 </DataArray>
        <DataArray type="Float64" Name="stress" format="ascii" NumberOfComponents="9">107374411.3707649 591066.8971526001 591066.8971526001 14891537.84212182 0 0 0 0 0 107712012.8277911 647353.4211978759 647353.4211978759 14764174.34281685 0 0 0 0 0 107818091.4527858 1398685.483137762 1398685.483137762 14010634.24359028 0 0 0 0 0 108139438.672078 335211.5115675101 335211.5115675101 15458324.91293606 0 0 0 0 0 107584993.8928648 1832489.346966793 1832489.346966793 14614996.57686038 0 0 0 0 0 108318901.3310354 1605635.86327803 1605635.86327803 15603409.73055987 0 0 0 0 0 108797581.0570426 720521.3395458232 720521.3395458232 16209224.45706389 0 0 0 0 0 108116623.3186368 2699092.413556217 2699092.413556217 13280646.75590562 0 0 0 0 0 108723839.5302696 1399895.590068219 1399895.590068219 15702380.92675904 0 0 0 0 0 109289222.8363384 427097.1997787997 427097.1997787997 16602570.91672335 0 0 0 0 0 107841152.4443241 2895382.872157907 2895382.872157907 13606832.15636418 0 0 0 0 0 108670102.6422018 2592512.360466671 2592512.360466671 15086846.29137556 0 0 0 0 0 109145499.3999337 2738484.935421837 2738484.935421837 15286022.04051691 0 0 0 0 0 109494535.1698773 1895197.886509928 1895197.886509928 16981268.63674349 0 0 0 0 0 109983242.2727944 868133.9549724956 868133.9549724956 17731244.60993598 0 0 0 0 0 108483508.9422647 3767209.039256407 3767209.039256407 12145503.15866688 0 0 0 0 0 109384284.725836 3729446.551286791 3729446.551286791 13721412.72883544 0 0 0 0 0 109703637.7842613 2524121.05289278 2524121.05289278 16978917.09000292 0 0 0 0 0 110032549.1292729 1819681.834748014 1819681.834748014 16463162.29299745 0 0 0 0 0 110692151.344846 448025.2433829553 448025.2433829553 18308371.31468073 0 0 0 0 0 108179557.8666829 3772979.172220167 3772979.172220167 12165595.4731963 0 0 0 0 0 108963614.1932551 3727171.458925347 3727171.458925347 13742103.19969337 0 0 0 0 0 109971511.5657589 3521561.288891889 3521561.288891889 15583657.43299118 0 0 0 0 0 110494001.0096501 3512564.421911372 3512564.421911372 15556702.3594033 0 0 0 0 0 110780167.2587664 2276584.395128517 2276584.395128517 18175236.1257496 0 0 0 0 0 111517687.5834469 971713.8689131518 971713.8689131518 19436067.50794356 0 0 0 0 0 109005334.176855 4599058.422729257 4599058.422729257 10740417.89262407 0 0 0 0 0 109865836.8205145 4649072.930783858 4649072.930783858 12162721.75126065 0 0 0 0 0 110777433.2841585 4672742.356270261 4672742.356270261 13823302.8058376 0 0 0 0 0 111000218.486518 3252556.149187082 3252556.149187082 16996191.95889126 0 0 0 0 0 111524775.4996528 1904957.267645624 1904957.267645624 18355512.94464182 0 0 0 0 0 112412182.9184931 486972.0106574987 486972.0106574987 19991326.85688344 0 0 0 0 0 108573858.6609665 4406896.603017528 4406896.603017528 10436853.56674206 0 0 0 0 0 109368951.7687869 4511925.318287764 4511925.318287764 11953342.54179435 0 0 0 0 0 110290161.1137341 4500668.285426228 4500668.285426228 13560088.35208934 0 0 0 0 0 111300364.5657631 4498467.750037391 4498467.750037391 15523770.74781775 0 0 0 0 0 111902916.281655 4595589.812040165 4595589.812040165 15598741.41032281 0 0 0 0 0 112032426.4260686 3838282.459716335 3838282.459716335 18150842.54164547 0 0 0 0 0 112510928.1892321 2532061.738114314 2532061.738114314 19998208.43862798 0 0 0 0 0 113430451.0398291 1130462.949842419 1130462.949842419 21366860.96699626 0 0 0 0 0 109543063.3920474 5171567.669504615 5171567.669504615 9090931.140670262 0 0 0 0 0 110424389.2949945 5364268.415310253 5364268.415310253 10417081.63274144 0 0 0 0 0 111419921.26988 5600498.873338562 5600498.873338562 11951071.34533527 0 0 0 0 0 112602222.6589877 5676364.667491753 5676364.667491753 13406453.89425593 0 0 0 0 0 112607364.9118621 4539745.127729725 4539745.127729725 17976770.02277955 0 0 0 0 0 112607110.5158552 3587511.157570907 3587511.157570907 17085465.07512371 0 0 0 0 0 113449833.2186438 2076466.208119222 2076466.208119222 19726294.27155871 0 0 0 0 0 114607684.192001 512693.7251542949 512693.7251542949 21879358.92951381 0 0 0 0 0 108957469.8726111 4777931.265504408 4777931.265504408 8459013.475930925 0 0 0 0 0 109767334.9570251 5005272.606033735 5005272.606033735 9826707.733133543 0 0 0 0 0 110682486.8298173 5182030.734155715 5182030.734155715 11207597.42382275 0 0 0 0 0 111709384.9612096 5227531.706589765 5227531.706589765 12642626.10920662 0 0 0 0 0 113163794.6429673 5545699.004155419 5545699.004155419 15347300.29288219 0 0 0 0 0 113716402.0245576 5591013.101295955 5591013.101295955 15336727.69927016 0 0 0 0 0 113747958.2451104 4228760.462213815 4228760.462213815 20003127.54662931 0 0 0 0 0 114747171.3424486 2905420.753532602 2905420.753532602 22006315.91266159 0 0 0 0 0 115923794.259822 1357671.010231024 1357671.010231024 23568521.51061569 0 0 0 0 0 110094187.5075252 5425855.130066937 5425855.130066937 7272997.068768788 0 0 0 0 0 110921930.4316541 5730542.067078902 5730542.067078902 8360052.057611865 0 0 0 0 0 111869148.5514315 6065506.753399954 6065506.753399954 9808424.856947815 0 0 0 0 0 113144949.4832419 6543477.053684434 6543477.053684434 11394927.63179588 0 0 0 0 0 114081085.3066742 5847981.046284724 5847981.046284724 12510917.39107396 0 0 0 0 0 114164837.2154158 5126434.443636409 5126434.443636409 16334755.65252993 0 0 0 0 0 114651139.0405382 3741903.823153014 3741903.823153014 18866210.48051739 0 0 0 0 0 115909751.6000664 2348539.969401649 2348539.969401649 21573295.09981708 0 0 0 0 0 117518346.7086729 541187.6633677031 541187.6633677031 24140344.03927272 0 0 0 0 0 109296759.5692204 4860905.601297407 4860905.601297407 6376831.633216161 0 0 0 0 0 110161615.4670292 5199384.789383495 5199384.789383495 7533060.477664812 0 0 0 0 0 111056923.5781139 5571956.099849915 5571956.099849915 8897267.468470717 0 0 0 0 0 111890667.9232083 5683641.775134379 5683641.775134379 9259266.554142358 0 0 0 0 0 113324283.6642933 5915061.978740009 5915061.978740009 9886930.181699354 0 0 0 0 0 114780143.3406337 6870937.115045159 6870937.115045159 12805359.40668976 0 0 0 0 0 115471993.9091593 6748921.728308165 6748921.728308165 15491887.76699567 0 0 0 0 0 115657736.4665894 6050648.624031093 6050648.624031093 18419167.21404302 0 0 0 0 0 116116482.6536377 4673176.950001746 4673176.950001746 21771309.81492748 0 0 0 0 0 117344523.0751373 3276318.696509262 3276318.696509262 24067424.11150214 0 0 0 0 0 119198466.563726 1632453.194454969 1632453.194454969 26120957.00587475 0 0 0 0 0 110492582.0513021 5394534.664797356 5394534.664797356 5424101.033239022 0 0 0 0 0 111448924.2250158 5784058.597261093 5784058.597261093 6315626.874700571 0 0 0 0 0 112083094.750789 6015845.364425254 6015845.364425254 7179538.881545878 0 0 0 0 0 112739590.0129035 6388373.237851879 6388373.237851879 8907218.184696512 0 0 0 0 0 114596360.7152474 6908757.358350934 6908757.358350934 9750342.765676174 0 0 0 0 0 115316556.8913846 6229041.215272399 6229041.215272399 10194456.83874241 0 0 0 0 0 116054656.607473 6088672.652995616 6088672.652995616 13851178.26257019 0 0 0 0 0 116303363.5978879 5195556.776964644 5195556.776964644 17481824.43500116 0 0 0 0 0 117352043.8244587 4020428.004965551 4020428.004965551 20830091.81023951 0 0 0 0 0 119101858.7509726 2458703.172120678 2458703.172120678 23963717.45144773 0 0 0 0 0 121412190.5041459 575088.0362174717 575088.0362174717 26458123.52013112 0 0 0 0 0 109582570.2138732 4720174.024865991 4720174.024865991 4387261.697249559 0 0 0 0 0 110483329.4949493 5100477.386640063 5100477.386640063 5391950.030286146 0 0 0 0 0 111560829.1386955 5586590.413867424 5586590.413867424 6729214.70571845 0 0 0 0 0 113194723.6461754 5945377.639446445 5945377.639446445 6990606.500236447 0 0 0 0 0 114929511.0563751 6217389.486620906 6217389.486620906 7154441.061674139 0 0 0 0 0 116536535.8541224 7322212.636100586 7322212.636100586 10114175.40513171 0 0 0 0 0 117132848.2311047 7458682.199208922 7458682.199208922 13558106.15277622 0 0 0 0 0 117750523.3272496 7218635.263844276 7218635.263844276 16934036.46375765 0 0 0 0 0 118236524.3780288 6405196.215388725 6405196.215388725 20311303.40092299 0 0 0 0 0 118996925.2543182 5064457.318395375 5064457.318395375 23523751.79901795 0 0 0 0 0 120804731.4106876 3545943.434974608 3545943.434974608 26689264.92413694 0 0 0 0 0 123856580.0148354 2094181.147383311 2094181.147383311 28869414.43074917 0 0 0 0 0 110880476.9621786 5086010.526764668 5086010.526764668 3625731.825664354 0 0 0 0 0 111767097.4655113 5521138.640616397 5521138.640616397 4217007.726103751 0 0 0 0 0 112809389.8566408 6037631.219678888 6037631.219678888 5342077.860118902 0 0 0 0 0 114107768.2291891 6529252.362609393 6529252.362609393 6891630.306246984 0 0 0 0 0 115917511.72508 6824978.614560791 6824978.614560791 7186154.117976456 0 0 0 0 0 117074262.0039856 6415116.764638291 6415116.764638291 7213101.043690472 0 0 0 0 0 117780518.2534436 6531938.071075654 6531938.071075654 10825966.7634666 0 0 0 0 0 118493178.0980121 6226441.12986622 6226441.12986622 14898069.73512574 0 0 0 0 0 119334250.0828682 5323771.821450164 5323771.821450164 19038425.29513809 0 0 0 0 0 120946202.8643177 4153275.321236944 4153275.321236944 23100183.25024981 0 0 0 0 0 123441339.9196581 2873268.713815474 2873268.713815474 25905988.67201179 0 0 0 0 0 126492380.2613877 513619.6592892645 513619.6592892645 28880740.62256318 0 0 0 0 0 109735711.7368746 4306063.38835499 4306063.38835499 2406297.644721128 0 0 0 0 0 110747188.7771109 4720604.657748093 4720604.657748093 3145811.543948166 0 0 0 0 0 111806384.8455803 5326990.048738883 5326990.048738883 4552579.338503526 0 0 0 0 0 112750453.5880031 5550538.210400575 5550538.210400575 4626608.580592906 0 0 0 0 0 114418180.3436126 5790046.294282671 5790046.294282671 4438529.855357339 0 0 0 0 0 116410845.5326689 5947269.835175478 5947269.835175478 4148141.251547302 0 0 0 0 0 118948161.8364045 7710417.604337681 7710417.604337681 10697678.22992047 0 0 0 0 0 118047122.5150551 7088460.072097115 7088460.072097115 7218922.342741797 0 0 0 0 0 119831082.532516 7936755.203782391 7936755.203782391 14594278.75667349 0 0 0 0 0 120706312.0104034 7674678.763783582 7674678.763783582 18517623.37358537 0 0 0 0 0 121711476.8168777 6768259.500275798 6768259.500275798 22206376.06790671 0 0 0 0 0 122787540.9294255 5283695.951427272 5283695.951427272 25669124.84129345 0 0 0 0 0 125088786.2893223 3820209.21481821 3820209.21481821 30004973.42617403 0 0 0 0 0 129453107.9904369 2607681.405482386 2607681.405482386 31668638.42250581 0 0 0 0 0 110946712.4416199 4593224.924660733 4593224.924660733 1791058.926162951 0 0 0 0 0 111956704.9934091 5074183.820591868 5074183.820591868 2484165.123484986 0 0 0 0 0 112760045.4043647 5305085.273457577 5305085.273457577 2647878.094294694 0 0 0 0 0 113662516.3459139 5893874.783162145 5893874.783162145 4632007.485735952 0 0 0 0 0 115228328.1275045 6086348.384196368 6086348.384196368 4539500.363029901 0 0 0 0 0 117048543.4617831 6202426.999640875 6202426.999640875 4228508.457287795 0 0 0 0 0 119724382.2370129 6496283.211262531 6496283.211262531 7202471.587719162 0 0 0 0 0 118736063.500531 5940283.403836737 5940283.403836737 3682023.02291696 0 0 0 0 0 120728977.0199272 6658664.763477338 6658664.763477338 11379401.36954244 0 0 0 0 0 121851588.768505 6275414.100061794 6275414.100061794 16053410.01727771 0 0 0 0 0 123281506.7104332 5226251.474999856 5226251.474999856 20954082.3237858 0 0 0 0 0 125465925.5486651 3908165.529366684 3908165.529366684 25382155.99768446 0 0 0 0 0 128552522.5948833 4986003.246058519 4986003.246058519 26641025.07015882 0 0 0 0 0 133326111.7384031 -128749.2714257406 -128749.2714257406 32375485.80474228 0 0 0 0 0 109744392.4983467 3745838.955531854 3745838.955531854 517877.048241069 0 0 0 0 0 110675878.3307001 4223868.520386671 4223868.520386671 1317961.713844219 0 0 0 0 0 111887329.4093572 4491088.42743328 4491088.42743328 1024812.455264811 0 0 0 0 0 112826697.6749813 5135510.761427001 5135510.761427001 2710022.807995845 0 0 0 0 0 114097282.8298604 5285603.922484679 5285603.922484679 2255415.823508882 0 0 0 0 0 115742896.0785718 5276628.771937482 5276628.771937482 1671818.184080375 0 0 0 0 0 117781307.6582616 5138891.347471785 5138891.347471785 900577.8191717697 0 0 0 0 0 120489739.6962908 7184543.025228487 7184543.025228487 7146540.874556374 0 0 0 0 0 121792117.7216181 7945396.413771287 7945396.413771287 11173077.99853241 0 0 0 0 0 119169902.9930523 6137345.45741451 6137345.45741451 3727567.167654109 0 0 0 0 0 123101461.7714413 8270441.880729199 8270441.880729199 15624123.1841813 0 0 0 0 0 124506146.1299631 7985991.325078229 7985991.325078229 20227473.82977247 0 0 0 0 0 126022448.3799758 6894775.624897373 6894775.624897373 24635376.39200199 0 0 0 0 0 129959518.7038888 3030394.782763647 3030394.782763647 28701367.28974985 0 0 0 0 0 138739467.0969801 2718829.742490347 2718829.742490347 34092525.470128 0 0 0 0 0 135483389.5629432 5231982.298944918 5231982.298944918 30976970.0352107 0 0 0 0 0 110854351.3530691 3910018.362384153 3910018.362384153 386970.0379210968 0 0 0 0 0 111878515.7912681 4152029.932970245 4152029.932970245 105069.0755180187 0 0 0 0 0 112312594.4814082 4442255.277667327 4442255.277667327 1162857.174794859 0 0 0 0 0 113400006.9187202 4556518.623781679 4556518.623781679 410520.5512604859 0 0 0 0 0 114362180.6066059 5230590.441418667 5230590.441418667 2350945.251962125 0 0 0 0 0 115999102.4514824 5195238.212877249 5195238.212877249 1774288.364134944 0 0 0 0 0 117761144.9907616 4949509.461588764 4949509.461588764 960753.5652436088 0 0 0 0 0 121470942.5639626 5691632.156958357 5691632.156958357 3070485.98559349 0 0 0 0 0 122891628.960283 6333273.026651021 6333273.026651021 7088314.11466986 0 0 0 0 0 120070120.6178894 4741082.524332139 4741082.524332139 -79742.64518035694 0 0 0 0 0 124423888.5265166 6507085.983464743 6507085.983464743 11898255.81081129 0 0 0 0 0 126175082.1977057 6026387.651413741 6026387.651413741 17329336.86429181 0 0 0 0 0 128195461.7580718 4873586.944374184 4873586.944374184 22966986.08107845 0 0 0 0 0 132208535.9727334 7055095.19760159 7055095.19760159 26928428.97729532 0 0 0 0 0 143829573.7996246 -1146635.476279902 -1146635.476279902 34384914.01975198 0 0 0 0 0 138647917.0894175 1221758.913596778 1221758.913596778 30667269.98320628 0 0 0 0 0 109692031.813803 3131377.655218684 3131377.655218684 -934304.6624587501 0 0 0 0 0 110717023.4979782 3262361.440898457 3262361.440898457 -1121259.738743765 0 0 0 0 0 111295684.4313804 3669897.97338585 3669897.97338585 -103445.8092870887 0 0 0 0 0 112799608.8237477 3863105.511915303 3863105.511915303 -974235.360103933 0 0 0 0 0 113591393.8662453 4415970.225785768 4415970.225785768 521725.0794808919 0 0 0 0 0 115030166.380802 4487713.789414135 4487713.789414135 -279606.1263796145 0 0 0 0 0 116767085.9964987 4207297.313515279 4207297.313515279 -1222605.755040259 0 0 0 0 0 118738159.1211783 3683647.115939801 3683647.115939801 -2403563.56128919 0 0 0 0 0 121467041.6254226 5789918.003968045 5789918.003968045 3030604.783965237 0 0 0 0 0 123286535.8443047 7022996.67669181 7022996.67669181 6925525.710583873 0 0 0 0 0 125135653.38276 7926966.659979669 7926966.659979669 11534595.94040812 0 0 0 0 0 119689071.2954344 4435045.97210271 4435045.97210271 -65797.34981528194 0 0 0 0 0 127109181.1640539 8328068.584819951 8328068.584819951 16682702.96082086 0 0 0 0 0 129343391.2540444 8029088.850267929 8029088.850267929 22064113.81512003 0 0 0 0 0 135279078.2439083 3742622.081537787 3742622.081537787 25212327.15536952 0 0 0 0 0 151546172.9781666 2742243.980475188 2742243.980475188 35937367.31949645 0 0 0 0 0 145838988.7704478 4776622.066916849 4776622.066916849 34655206.30113111 0 0 0 0 0 140124199.5131624 6380092.438883291 6380092.438883291 29792548.44638404 0 0 0 0 0 110763763.2354653 3132249.799742525 3132249.799742525 -939984.1905506912 0 0 0 0 0 111681583.2820966 3261100.070616968 3261100.070616968 -993955.0152480954 0 0 0 0 0 112390659.069872 3365549.716373208 3365549.716373208 -1528341.827497176 0 0 0 0 0 112451029.1623675 3406333.691997067 3406333.691997067 -949549.8500298101 0 0 0 0 0 114100458.2344044 3600246.935241329 3600246.935241329 -1851876.294855697 0 0 0 0 0 114941817.4385141 4193615.514017534 4193615.514017534 -205460.6724649206 0 0 0 0 0 116399443.0454321 3768908.671317489 3768908.671317489 -1178597.881590899 0 0 0 0 0 117923266.1660079 3077075.091516084 3077075.091516084 -2419277.351736275 0 0 0 0 0 122716235.7347723 4009482.659526182 4009482.659526182 -1246758.453285655 0 0 0 0 0 124653321.2352327 5055246.712851688 5055246.712851688 2258923.240666737 0 0 0 0 0 126735849.721411 5737355.6532543 5737355.6532543 6853166.135896735 0 0 0 0 0 120863290.0199672 2815849.743724293 2815849.743724293 -3800784.835343553 0 0 0 0 0 129094541.1540134 5853121.142915967 5853121.142915967 12410343.95562569 0 0 0 0 0 131846794.4964397 5219348.826490302 5219348.826490302 18679737.8377361 0 0 0 0 0 135635183.0409446 7546886.988805463 7546886.988805463 23921039.434023 0 0 0 0 0 159369387.6932669 -3036336.057944879 -3036336.057944879 35905667.13648631 0 0 0 0 0 150625058.5889933 -1206272.653711931 -1206272.653711931 32501100.38015734 0 0 0 0 0 145099463.2826365 1400529.369898514 1400529.369898514 27178364.37206518 0 0 0 0 0 109507901.0698452 2371258.653923298 2371258.653923298 -2172425.484591085 0 0 0 0 0 110332228.2266741 2443028.132768597 2443028.132768597 -2281848.882320404 0 0 0 0 0 111091878.0622645 2581961.864690495 2581961.864690495 -2344678.108973189 0 0 0 0 0 113322814.9591286 2744668.523201389 2744668.523201389 -3045998.859567739 0 0 0 0 0 113903671.9072859 3182026.740121061 3182026.740121061 -1747150.776247353 0 0 0 0 0 115678095.6944494 3217377.60788861 3217377.60788861 -2867805.955119428 0 0 0 0 0 117352538.5750579 2583819.900263206 2583819.900263206 -4088986.790422737 0 0 0 0 0 119117134.9308882 1631528.55771194 1631528.55771194 -5540334.636610701 0 0 0 0 0 123940543.4712835 5025218.584208637 5025218.584208637 2071464.583404202 0 0 0 0 0 121638991.5437726 3519973.69489714 3519973.69489714 -1350841.277757079 0 0 0 0 0 126425524.3115979 6430127.181111676 6430127.181111676 6485114.498343424 0 0 0 0 0 129038381.3744585 7432201.760535777 7432201.760535777 11759673.24142806 0 0 0 0 0 119437716.7408063 2025250.781056691 2025250.781056691 -3885890.150139867 0 0 0 0 0 132033533.6582989 7854273.525147649 7854273.525147649 17684681.75726913 0 0 0 0 0 139680958.8358768 3306779.802478521 3306779.802478521 20044193.5473753 0 0 0 0 0 168958985.9263053 2551045.829142776 2551045.829142776 35993455.51967967 0 0 0 0 0 159967002.6237235 3350577.906696017 3350577.906696017 36157209.37303951 0 0 0 0 0 150983745.8977493 4412528.82084321 4412528.82084321 31502921.25295987 0 0 0 0 0 143740750.1631946 5751980.253499922 5751980.253499922 25353048.46717425 0 0 0 0 0 110397346.9807231 2290779.541316609 2290779.541316609 -2068056.981698315 0 0 0 0 0 111248548.7111947 2404514.841434351 2404514.841434351 -2244242.57711241 0 0 0 0 0 112241103.5750831 2543544.71383727 2543544.71383727 -2436340.539336409 0 0 0 0 0 112941991.1629806 2247657.353881513 2247657.353881513 -2884088.080593374 0 0 0 0 0 114562269.9286159 2246723.362931262 2246723.362931262 -4066498.890462491 0 0 0 0 0 115081868.6541447 2649056.394308125 2649056.394308125 -2834852.522003762 0 0 0 0 0 116256596.462121 1843354.499380071 1843354.499380071 -4123170.171856204 0 0 0 0 0 117386513.0432091 679956.7730847903 679956.7730847903 -5673638.288200239 0 0 0 0 0 125654337.3511747 2752315.399488699 2752315.399488699 -2658100.057346646 0 0 0 0 0 123176276.058273 1502687.273137444 1502687.273137444 -5410460.540483002 0 0 0 0 0 128326397.2107909 3805469.684465445 3805469.684465445 1265687.305735036 0 0 0 0 0 131418084.9336905 4417014.490576662 4417014.490576662 6566921.745841854 0 0 0 0 0 120892601.5427882 245339.7163922139 245339.7163922139 -7194650.709303214 0 0 0 0 0 135107486.547223 4274165.566348985 4274165.566348985 12992327.71267022 0 0 0 0 0 137914812.1473334 6244835.977136358 6244835.977136358 18398332.27674895 0 0 0 0 0 184639681.4537166 -7013105.343338236 -7013105.343338236 36402936.56345624 0 0 0 0 0 167502339.295908 -5587240.376889006 -5587240.376889006 32716227.67160251 0 0 0 0 0 158548919.8310145 -3520543.388102589 -3520543.388102589 28807802.76577412 0 0 0 0 0 149919117.4801215 -644982.5375623581 -644982.5375623581 21239514.31314317 0 0 0 0 0 109195151.9957969 1575999.457687846 1575999.457687846 -3214789.270385696 0 0 0 0 0 109947380.8592553 1595528.364097993 1595528.364097993 -3546824.215200062 0 0 0 0 0 110749721.5605842 1641981.003250486 1641981.003250486 -3920076.119212302 0 0 0 0 0 111936178.4502164 1607609.918132689 1607609.918132689 -4164845.562958942 0 0 0 0 0 113397733.1191607 1265737.134905164 1265737.134905164 -5029567.551188168 0 0 0 0 0 113818222.9982936 1593075.911000339 1593075.911000339 -4023996.943701012 0 0 0 0 0 115967550.5156025 1539023.213863032 1539023.213863032 -5284053.667781777 0 0 0 0 0 117418704.34288 534233.9385475671 534233.9385475671 -6652388.151904752 0 0 0 0 0 118762790.7453619 -901421.351528861 -901421.351528861 -8252602.961031713 0 0 0 0 0 123511598.1285343 2032115.237610636 2032115.237610636 -2956633.684366527 0 0 0 0 0 126488390.503175 3649525.190421726 3649525.190421726 824201.3497729728 0 0 0 0 0 120791049.7559122 453884.1246809115 453884.1246809115 -5659431.951947487 0 0 0 0 0 129809400.8120303 5126834.02138771 5126834.02138771 5817148.820731379 0 0 0 0 0 133442396.970255 6066318.746544566 6066318.746544566 11798222.86830552 0 0 0 0 0 118289712.8812695 -961345.3967257665 -961345.3967257665 -7462336.173520687 0 0 0 0 0 142774985.0598758 1052857.126017845 1052857.126017845 13754405.92201017 0 0 0 0 0 198534108.5138404 1178610.503745522 1178610.503745522 30153575.19633102 0 0 0 0 0 178705443.3879932 -598251.1854506455 -598251.1854506455 34699490.79629421 0 0 0 0 0 166447113.784912 -90890.98376560262 -90890.98376560262 31551558.75930227 0 0 0 0 0 153490642.4722542 1608680.709259429 1608680.709259429 26513124.3647909 0 0 0 0 0 144545912.1261855 2541235.855704753 2541235.855704753 18724463.51161994 0 0 0 0 0 109890985.9479619 1425755.918173581 1425755.918173581 -2990691.403910815 0 0 0 0 0 110687718.8033322 1416927.304657472 1416927.304657472 -3279467.726730953 0 0 0 0 0 111459624.1776527 1418217.626675725 1418217.626675725 -3581204.447257897 0 0 0 0 0 112192473.2560403 1315824.825248585 1315824.825248585 -3818194.287011993 0 0 0 0 0 112614386.2577021 645658.1189971387 645658.1189971387 -4947769.365240652 0 0 0 0 0 114611855.5654657 566453.4610861782 566453.4610861782 -6087423.776376625 0 0 0 0 0 114731288.8912815 740782.6956818528 740782.6956818528 -5305216.827693201 0 0 0 0 0 115499787.4856856 -489663.798250882 -489663.798250882 -6834658.118303415 0 0 0 0 0 116060584.2624388 -2135222.527765478 -2135222.527765478 -8553031.509793144 0 0 0 0 0 125494885.5634441 -457736.9165870664 -457736.9165870664 -7250869.449609973 0 0 0 0 0 128753990.6678322 747204.9293084008 747204.9293084008 -4248444.445302295 0 0 0 0 0 122568953.844679 -1699575.241697002 -1699575.241697002 -9056060.045220409 0 0 0 0 0 132456387.9059457 1640928.737683032 1640928.737683032 214401.9997474301 0 0 0 0 0 137033501.7904865 1896482.195252498 1896482.195252498 6348156.395185406 0 0 0 0 0 119953608.4211691 -2821279.353932902 -2821279.353932902 -9999664.010510551 0 0 0 0 0 138114777.5085502 3181767.822277333 3181767.822277333 11616833.99905589 0 0 0 0 0 222939332.5620905 -13453748.57239701 -13453748.57239701 30156249.10981535 0 0 0 0 0 197519135.7450628 -14883393.19989544 -14883393.19989544 31107882.73220184 0 0 0 0 0 176847432.3625776 -13259594.30902434 -13259594.30902434 32484946.41236117 0 0 0 0 0 163910744.6426042 -8454133.104572399 -8454133.104572399 22936988.67271132 0 0 0 0 0 152672003.6585152 -5230972.949020133 -5230972.949020133 15389983.1821791 0 0 0 0 0 108787104.1087883 789357.9065381809 789357.9065381809 -4010096.359614111 0 0 0 0 0 109469922.6166683 718433.6477248609 718433.6477248609 -4398789.587340661 0 0 0 0 0 110194570.195009 647451.519103862 647451.519103862 -4843555.274179042 0 0 0 0 0 110943483.5607282 555722.211950695 555722.211950695 -5180272.245215902 0 0 0 0 0 112409564.618696 486991.472548314 486991.472548314 -5478105.860318989 0 0 0 0 0 113307483.0376378 -290050.162223076 -290050.162223076 -6574718.652220712 0 0 0 0 0 113240494.0126271 -247085.0994740421 -247085.0994740421 -6148538.091211237 0 0 0 0 0 115731448.178418 -485138.290372309 -485138.290372309 -7375212.680893347 0 0 0 0 0 116778809.3156832 -1893449.42022025 -1893449.42022025 -8807934.531006357 0 0 0 0 0 117572184.4225848 -3752562.030715114 -3752562.030715114 -10370753.28487296 0 0 0 0 0 121772732.6377218 -1791686.060393708 -1791686.060393708 -7703188.437185349 0 0 0 0 0 125106821.1040215 -207816.3331188729 -207816.3331188729 -4824349.922765304 0 0 0 0 0 128828453.4199394 1367906.557679713 1367906.557679713 -653177.390175499 0 0 0 0 0 118812005.9480409 -3186468.136698707 -3186468.136698707 -9513285.138864459 0 0 0 0 0 133056360.7441291 2645067.770227804 2645067.770227804 4937643.048069888 0 0 0 0 0 116205702.9646165 -4300271.830625025 -4300271.830625025 -10475541.98791897 0 0 0 0 0 143578071.8122299 -2642894.691741333 -2642894.691741333 6460757.193927262 0 0 0 0 0 237075300.1109528 -393120.6603081804 -393120.6603081804 15453226.09532977 0 0 0 0 0 222205515.8895536 -8605239.492314635 -8605239.492314635 27815699.37636533 0 0 0 0 0 182188764.2154855 -12886205.53114524 -12886205.53114524 26277344.14204393 0 0 0 0 0 168716049.6327123 -6353794.137453207 -6353794.137453207 25975862.13033903 0 0 0 0 0 151578130.5190847 -5136032.035376361 -5136032.035376361 17940454.86827063 0 0 0 0 0 142268129.0609156 -2370711.434304881 -2370711.434304881 11289295.68074861 0 0 0 0 0 109307787.3351862 594934.5839271296 594934.5839271296 -3705070.217748559 0 0 0 0 0 110019818.7469804 505694.0502616478 505694.0502616478 -4064197.236292221 0 0 0 0 0 110882566.6739944 390664.4975346408 390664.4975346408 -4441916.045154805 0 0 0 0 0 111830183.4888725 309596.4542635467 309596.4542635467 -4889039.792679217 0 0 0 0 0 111142346.0284068 -271107.5366341966 -271107.5366341966 -5679047.750570433 0 0 0 0 0 111782328.3468049 -1093215.205969115 -1093215.205969115 -6640092.658449466 0 0 0 0 0 114177831.4035335 -1353689.100996888 -1353689.100996888 -7734234.875485322 0 0 0 0 0 113781884.014455 -1475271.547056915 -1475271.547056915 -7529771.071784141 0 0 0 0 0 114068917.7405957 -3082331.279932118 -3082331.279932118 -9118466.705926053 0 0 0 0 0 113959634.4681336 -5144885.379202803 -5144885.379202803 -10846466.60888519 0 0 0 0 0 123914316.4123773 -4346658.391014222 -4346658.391014222 -11056187.52583726 0 0 0 0 0 127554420.0073882 -3257029.632199679 -3257029.632199679 -9206603.70710198 0 0 0 0 0 131797436.9273743 -2298985.550411359 -2298985.550411359 -5880755.314384757 0 0 0 0 0 120743638.0815674 -5339651.984993572 -5339651.984993572 -11856584.92658769 0 0 0 0 0 136922607.5591347 -1921084.395235724 -1921084.395235724 -697703.5637355966 0 0 0 0 0 117973189.0095861 -6117237.464413474 -6117237.464413474 -11997389.23026028 0 0 0 0 0 135552911.0477242 -1703353.426371314 -1703353.426371314 3849018.221111129 0 0 0 0 0 304559757.4314111 -22875958.33964325 -22875958.33964325 23880472.89837876 0 0 0 0 0 221100462.2429113 -27994282.66597839 -27994282.66597839 3141252.371362181 0 0 0 0 0 211579056.5599921 -25915645.98819739 -25915645.98819739 28134138.51642564 0 0 0 0 0 178546331.8357884 -24280550.9694014 -24280550.9694014 26607057.52678432 0 0 0 0 0 165755513.625044 -18088262.38488168 -18088262.38488168 21013123.62873687 0 0 0 0 0 150682353.575952 -10691094.51504272 -10691094.51504272 8076957.735871442 0 0 0 0 0 108292648.4139963 29797.65559288399 29797.65559288399 -4608065.591283862 0 0 0 0 0 108893912.2059299 -123977.7404445882 -123977.7404445882 -5071522.52190841 0 0 0 0 0 109565477.2479013 -318744.9722887879 -318744.9722887879 -5583626.496323979 0 0 0 0 0 110297526.4198829 -558896.0125396735 -558896.0125396735 -6067369.404689506 0 0 0 0 0 112105923.4638212 -957802.5251696993 -957802.5251696993 -6690761.502239291 0 0 0 0 0 112710145.6877106 -2079552.935504299 -2079552.935504299 -7848957.154931283 0 0 0 0 0 112177217.427543 -2298574.654000736 -2298574.654000736 -7919058.606167488 0 0 0 0 0 114899545.6533419 -2740997.673654806 -2740997.673654806 -9019128.213124502 0 0 0 0 0 115396872.9241951 -4508892.745922092 -4508892.745922092 -10382799.71043301 0 0 0 0 0 115489669.2972421 -6707536.654760184 -6707536.654760184 -11766235.0869325 0 0 0 0 0 118627800.9818508 -6148120.724548516 -6148120.724548516 -11762143.58893889 0 0 0 0 0 122029772.9407844 -4920283.281130468 -4920283.281130468 -9987268.531221977 0 0 0 0 0 125956303.7527006 -3491181.822376232 -3491181.822376232 -6903807.606492496 0 0 0 0 0 130271337.0756971 -2297319.975783905 -2297319.975783905 -2367446.406470102 0 0 0 0 0 115729453.0606499 -7082189.405304511 -7082189.405304511 -12553198.26731947 0 0 0 0 0 113249048.4121473 -7731401.996466886 -7731401.996466886 -12696718.20587574 0 0 0 0 0 140970008.4921873 -7576116.287086301 -7576116.287086301 -1132165.434205296 0 0 0 0 0 269548374.5598779 -45473678.78455345 -45473678.78455345 29140774.85077702 0 0 0 0 0 192922878.7246162 -42642596.62969883 -42642596.62969883 15638034.22266814 0 0 0 0 0 160466971.7099912 -20037148.03866793 -20037148.03866793 19309996.06675146 0 0 0 0 0 144279138.7035211 -12417135.20638937 -12417135.20638937 12074583.60970992 0 0 0 0 0 135600347.8901211 -8904654.29891073 -8904654.29891073 3156315.032806134 0 0 0 0 0 108634687.6191457 -196290.9017534854 -196290.9017534854 -4242900.822888079 0 0 0 0 0 109256089.126938 -380304.1840082945 -380304.1840082945 -4654267.174380988 0 0 0 0 0 109922692.9089956 -600238.9903768888 -600238.9903768888 -5117063.584512489 0 0 0 0 0 110615948.9680065 -822244.4699176742 -822244.4699176742 -5596401.410980758 0 0 0 0 0 110635198.7282758 -1775036.848748358 -1775036.848748358 -6758127.472335297 0 0 0 0 0 110743981.7010761 -2952123.341739735 -2952123.341739735 -7966749.875616928 0 0 0 0 0 113212075.7651829 -3418556.786585644 -3418556.786585644 -8952893.09804613 0 0 0 0 0 112259473.7704939 -3849537.138298378 -3849537.138298378 -9323612.884081746 0 0 0 0 0 111965358.6306199 -5777530.438290472 -5777530.438290472 -10840099.3053465 0 0 0 0 0 111123942.0143286 -8143279.74207895 -8143279.74207895 -12419683.08914659 0 0 0 0 0 120835167.1619819 -8540994.152338244 -8540994.152338244 -13705627.38852562 0 0 0 0 0 124509972.7354938 -7834350.897878702 -7834350.897878702 -13043824.58051488 0 0 0 0 0 128868170.907504 -7111890.405910833 -7111890.405910833 -11090225.9216354 0 0 0 0 0 134219415.112545 -6781972.587829623 -6781972.587829623 -7262104.421819682 0 0 0 0 0 117674692.8679303 -9066829.067971949 -9066829.067971949 -13617424.39543907 0 0 0 0 0 114957258.5265014 -9382099.22506888 -9382099.22506888 -13100673.05167535 0 0 0 0 0 129800219.6310879 -7944493.744346201 -7944493.744346201 -4091288.788885042 0 0 0 0 0 236593944.7609021 -62868746.6255694 -62868746.6255694 40229813.07946215 0 0 0 0 0 181617795.8334826 -38569577.11088897 -38569577.11088897 28563980.95943037 0 0 0 0 0 155304215.5641167 -22751367.1406013 -22751367.1406013 12385081.78541019 0 0 0 0 0 142113425.6491856 -15653270.08562971 -15653270.08562971 -231835.1337472096 0 0 0 0 0 107737328.9127625 -678118.6387570986 -678118.6387570986 -5012454.769471448 0 0 0 0 0 108254801.0888973 -915994.6161496454 -915994.6161496454 -5509384.909999569 0 0 0 0 0 108825329.8685 -1199665.68216747 -1199665.68216747 -6075018.527997273 0 0 0 0 0 109403059.9947719 -1511939.173105549 -1511939.173105549 -6714193.016291908 0 0 0 0 0 110439535.1607568 -1931300.228022848 -1931300.228022848 -7133482.851678802 0 0 0 0 0 111373531.4900846 -2698812.04330899 -2698812.04330899 -7776571.018364161 0 0 0 0 0 111684925.0825841 -3941269.340875566 -3941269.340875566 -8714398.170651291 0 0 0 0 0 110653961.8953934 -4431563.700814757 -4431563.700814757 -9266582.509581838 0 0 0 0 0 113447258.8402567 -5085799.607362835 -5085799.607362835 -10127945.73144129 0 0 0 0 0 113307951.1568974 -7110093.699289972 -7110093.699289972 -11287887.88374251 0 0 0 0 0 112597638.4429822 -9520270.782887615 -9520270.782887615 -12366532.5911908 0 0 0 0 0 117254556.2248619 -10031415.513898 -10031415.513898 -14198677.53874661 0 0 0 0 0 114231525.7605094 -10588691.0109856 -10588691.0109856 -14733724.78112333 0 0 0 0 0 120860380.0871502 -9224934.012376973 -9224934.012376973 -12511084.41404108 0 0 0 0 0 124919866.6088596 -8411668.485022614 -8411668.485022614 -9301019.882564593 0 0 0 0 0 111678320.8170096 -10894337.20960021 -10894337.20960021 -14561014.94988268 0 0 0 0 0 109528613.7836669 -10975177.67644738 -10975177.67644738 -13985451.03415495 0 0 0 0 0 134052331.8253966 -12982242.28993327 -12982242.28993327 -8246777.109803105 0 0 0 0 0 158922639.1618727 -53509210.19850745 -53509210.19850745 21889204.40641385 0 0 0 0 0 139555862.8002185 -30501818.93634452 -30501818.93634452 14083046.15780873 0 0 0 0 0 131070144.129354 -19658674.54804507 -19658674.54804507 4378166.99080973 0 0 0 0 0 125418163.1296372 -15935305.8490465 -15935305.8490465 -4883505.30752888 0 0 0 0 0 107905055.0292792 -917631.6196974997 -917631.6196974997 -4618697.635516662 0 0 0 0 0 108404835.7527842 -1189579.882005894 -1189579.882005894 -5052607.274758617 0 0 0 0 0 108942719.4017619 -1516660.608753303 -1516660.608753303 -5542134.708346341 0 0 0 0 0 109525824.0424806 -1860695.204478746 -1860695.204478746 -6072390.038832199 0 0 0 0 0 109811089.5196056 -2381263.841233167 -2381263.841233167 -6661644.079240421 0 0 0 0 0 109518444.852142 -3466948.543502011 -3466948.543502011 -7955661.348522592 0 0 0 0 0 109233592.261419 -4853638.48303338 -4853638.48303338 -9036783.802511608 0 0 0 0 0 111716429.5875136 -5499063.746592714 -5499063.746592714 -9711372.058247657 0 0 0 0 0 110220980.6524278 -6219272.935230956 -6219272.935230956 -10570300.04290937 0 0 0 0 0 109304311.113942 -8362267.957152417 -8362267.957152417 -11897712.26930723 0 0 0 0 0 107728675.1052876 -10886017.81490322 -10886017.81490322 -13184207.29765798 0 0 0 0 0 119625877.7005386 -12491751.03917959 -12491751.03917959 -15442424.28324765 0 0 0 0 0 116294354.9759902 -12594173.51401001 -12594173.51401001 -15088119.5481851 0 0 0 0 0 123577790.7834686 -12294107.37478158 -12294107.37478158 -14933398.02688817 0 0 0 0 0 128328217.0249536 -12216091.62252845 -12216091.62252845 -12796161.49911861 0 0 0 0 0 113455285.2994806 -12538791.02305775 -12538791.02305775 -14292481.4935526 0 0 0 0 0 111061117.7529944 -12320715.99225312 -12320715.99225312 -13289759.00688036 0 0 0 0 0 121118158.5432573 -14884043.98730281 -14884043.98730281 -11310731.92992029 0 0 0 0 0 184929346.2022499 -70350503.12054971 -70350503.12054971 47026947.40624184 0 0 0 0 0 152863378.7311254 -41001975.98259233 -41001975.98259233 22571226.21664565 0 0 0 0 0 137405357.2031752 -26619004.3065083 -26619004.3065083 3489275.016759606 0 0 0 0 0 129342356.2296334 -20521006.90180436 -20521006.90180436 -8075689.188378274 0 0 0 0 0 107137406.1363098 -1318861.702505617 -1318861.702505617 -5259461.209455168 0 0 0 0 0 107569052.262183 -1621417.516931588 -1621417.516931588 -5742629.654563726 0 0 0 0 0 108032267.0392804 -1981374.35142482 -1981374.35142482 -6277317.196067534 0 0 0 0 0 108520072.2725958 -2392292.624557258 -2392292.624557258 -6898874.202980795 0 0 0 0 0 109001219.9170268 -2870752.773384985 -2870752.773384985 -7501075.493072881 0 0 0 0 0 110024751.6100141 -3214456.683092573 -3214456.683092573 -7565394.658246007 0 0 0 0 0 110301001.7416992 -4331264.00080155 -4331264.00080155 -8376416.461748849 0 0 0 0 0 110186547.2942572 -5772905.782194419 -5772905.782194419 -9206680.701576032 0 0 0 0 0 108705198.3231814 -6499747.864558542 -6499747.864558542 -10142859.27694552 0 0 0 0 0 111399294.7961417 -7350536.699764623 -7350536.699764623 -10670911.22351773 0 0 0 0 0 110574978.2747978 -9513681.408705 -9513681.408705 -11530991.58096445 0 0 0 0 0 109033523.368486 -11974960.45105768 -11974960.45105768 -12217486.35598606 0 0 0 0 0 114090191.3842423 -14845726.67330333 -14845726.67330333 -16530432.95637123 0 0 0 0 0 111271848.72726 -14825502.25608045 -14825502.25608045 -16821697.02531285 0 0 0 0 0 108910489.1314592 -14624203.88307331 -14624203.88307331 -16318864.01692913 0 0 0 0 0 117355426.2145122 -14784216.43153093 -14784216.43153093 -15006022.72462137 0 0 0 0 0 106927363.6316159 -14265676.32015896 -14265676.32015896 -15411681.79234113 0 0 0 0 0 105289629.6782385 -13765796.82150845 -13765796.82150845 -14309872.19499976 0 0 0 0 0 124233547.2492892 -18427716.36391411 -18427716.36391411 -14011226.39063892 0 0 0 0 0 119444744.383178 -57180193.91124725 -57180193.91124725 27198015.2428809 0 0 0 0 0 115683682.9584466 -34888695.11286046 -34888695.11286046 10270629.19614587 0 0 0 0 0 114339604.5030913 -25967163.16698314 -25967163.16698314 -3307737.790551138 0 0 0 0 0 112721956.4857843 -22727907.48929769 -22727907.48929769 -12323778.02865125 0 0 0 0 0 107159334.3713108 -1560871.030761596 -1560871.030761596 -4856553.334662474 0 0 0 0 0 107551716.0884001 -1887567.392993995 -1887567.392993995 -5298120.656551876 0 0 0 0 0 107978821.3035192 -2268588.250283476 -2268588.250283476 -5772386.738993005 0 0 0 0 0 108542440.2561597 -2708243.504594216 -2708243.504594216 -6296274.913793534 0 0 0 0 0 109287042.2184368 -3175567.149299388 -3175567.149299388 -6837848.925332547 0 0 0 0 0 108226626.7431649 -3971943.786546851 -3971943.786546851 -7892839.856391575 0 0 0 0 0 107962209.8773487 -5123895.123957841 -5123895.123957841 -8752836.119047476 0 0 0 0 0 107392148.1580954 -6641696.384030838 -6641696.384030838 -9639015.971897675 0 0 0 0 0 109733328.933954 -7460344.59588036 -7460344.59588036 -9988912.585240381 0 0 0 0 0 107748429.1522973 -8431970.321448507 -8431970.321448507 -11236512.78990365 0 0 0 0 0 106229756.5352159 -10667177.76092416 -10667177.76092416 -12272773.16665251 0 0 0 0 0 103977492.833729 -13173223.4281454 -13173223.4281454 -13145313.59093616 0 0 0 0 0 116339159.6401093 -17067602.14121635 -17067602.14121635 -16878544.02540023 0 0 0 0 0 113253578.4309139 -16638448.61159026 -16638448.61159026 -16280587.98508248 0 0 0 0 0 110604495.6578278 -16083627.3880773 -16083627.3880773 -15212116.1916732 0 0 0 0 0 120086487.6291204 -17521585.88086773 -17521585.88086773 -16400710.28395322 0 0 0 0 0 108373994.2444252 -15420556.42965893 -15420556.42965893 -13937833.84708213 0 0 0 0 0 106519891.3727854 -14685086.32584151 -14685086.32584151 -12646514.22230639 0 0 0 0 0 110538504.0510334 -21414064.55766847 -21414064.55766847 -16841807.06075759 0 0 0 0 0 128981160.4373616 -63505894.79449164 -63505894.79449164 45100435.55428085 0 0 0 0 0 120041351.0262735 -38876363.8682001 -38876363.8682001 12871157.79797914 0 0 0 0 0 116406256.9977323 -28737002.84559911 -28737002.84559911 -5920848.512612762 0 0 0 0 0 114408884.1288738 -24571626.0683932 -24571626.0683932 -14436636.64532446 0 0 0 0 0 106510172.5275899 -1888811.779809273 -1888811.779809273 -5377457.106834901 0 0 0 0 0 106866874.3095083 -2238729.328702722 -2238729.328702722 -5858321.075689041 0 0 0 0 0 107227578.5291469 -2650756.972063792 -2650756.972063792 -6382493.618602733 0 0 0 0 0 107613210.9219258 -3149498.075635741 -3149498.075635741 -6983281.267083006 0 0 0 0 0 107970420.0290135 -3785377.740203842 -3785377.740203842 -7668056.553829034 0 0 0 0 0 108985115.6254657 -4590970.873259401 -4590970.873259401 -7996097.255329202 0 0 0 0 0 108815261.0203215 -5929969.842521784 -5929969.842521784 -8651702.999742663 0 0 0 0 0 108306286.4385753 -7452125.837647965 -7452125.837647965 -9276992.209152263 0 0 0 0 0 106418407.1694403 -8388233.203022293 -8388233.203022293 -10524726.78370402 0 0 0 0 0 108836328.7688511 -9393795.539388128 -9393795.539388128 -10668849.013032 0 0 0 0 0 107329593.6282768 -11548243.81639514 -11548243.81639514 -11167743.88105 0 0 0 0 0 105009201.0745699 -13895041.78412838 -13895041.78412838 -11424896.41034802 0 0 0 0 0 108398693.8631018 -20475497.43563404 -20475497.43563404 -18509097.55119128 0 0 0 0 0 106320280.7621815 -19704644.89217012 -19704644.89217012 -18606906.43568084 0 0 0 0 0 104554227.1762566 -18832311.10891369 -18832311.10891369 -17765175.01067128 0 0 0 0 0 103044365.05018 -17894492.88977783 -17894492.88977783 -16520577.9248048 0 0 0 0 0 101797532.652974 -16907018.78897621 -16907018.78897621 -15133776.97567835 0 0 0 0 0 100819550.698691 -15896025.6320155 -15896025.6320155 -13748163.19427937 0 0 0 0 0 112200904.2895482 -23004493.02224785 -23004493.02224785 -17275698.0035903 0 0 0 0 0 82304198.25293468 -50216800.71259919 -50216800.71259919 28138671.85137109 0 0 0 0 0 92290122.46801443 -35757165.13495745 -35757165.13495745 3912533.710540489 0 0 0 0 0 98018586.0966453 -30326745.13658925 -30326745.13658925 -10147631.16156125 0 0 0 0 0 99503588.24862386 -28049880.98723355 -28049880.98723355 -17215354.73896743 0 0 0 0 0 106407709.6158475 -2120616.998214687 -2120616.998214687 -4975062.287967042 0 0 0 0 0 106695363.6597506 -2501886.745302419 -2501886.745302419 -5425693.602804742 0 0 0 0 0 106971026.0602832 -2940136.198545246 -2940136.198545246 -5891241.963107245 0 0 0 0 0 107233046.9520898 -3467129.181647006 -3467129.181647006 -6403646.370197312 0 0 0 0 0 107472911.4036627 -4078111.572015754 -4078111.572015754 -6982838.232695703 0 0 0 0 0 106990593.066474 -5329600.986283825 -5329600.986283825 -8191082.216293485 0 0 0 0 0 106276721.9362226 -6695808.388350923 -6695808.388350923 -9067360.527779827 0 0 0 0 0 105290457.103234 -8249367.966114086 -8249367.966114086 -9794616.68517394 0 0 0 0 0 107355299.2345357 -9175469.080997316 -9175469.080997316 -9808332.040102649 0 0 0 0 0 104964104.9474902 -10358230.97993472 -10358230.97993472 -11330871.94055387 0 0 0 0 0 102900473.9077452 -12535391.04071883 -12535391.04071883 -11997533.44433977 0 0 0 0 0 100094865.4367964 -14868275.31881698 -14868275.31881698 -12403713.80956983 0 0 0 0 0 110034634.4431162 -21942057.48431199 -21942057.48431199 -17827080.99540004 0 0 0 0 0 107868053.3227153 -20931256.77223039 -20931256.77223039 -16979088.49471742 0 0 0 0 0 105922130.1442239 -19829110.6694207 -19829110.6694207 -15695328.26141785 0 0 0 0 0 104225364.3596653 -18677763.82570862 -18677763.82570862 -14218393.86889719 0 0 0 0 0 102797854.3317134 -17499102.09986113 -17499102.09986113 -12744198.87333201 0 0 0 0 0 101642344.7722524 -16323565.2953776 -16323565.2953776 -11373969.01784759 0 0 0 0 0 99395102.94794312 -26443134.96656948 -26443134.96656948 -19658548.59035328 0 0 0 0 0 79830621.75099446 -46016471.42114317 -46016471.42114317 31894445.19675718 0 0 0 0 0 86824724.04253185 -31488507.12155078 -31488507.12155078 -2747915.711050934 0 0 0 0 0 94400892.01741511 -27682387.24780886 -27682387.24780886 -14601880.33275192 0 0 0 0 0 98643054.49954313 -27274329.04177196 -27274329.04177196 -17683253.8075594 0 0 0 0 0 105873928.7793396 -2381774.972553488 -2381774.972553488 -5383226.20482758 0 0 0 0 0 106180760.3246873 -2758263.068765079 -2758263.068765079 -5834182.690353042 0 0 0 0 0 106430524.1274935 -3216109.894918581 -3216109.894918581 -6331392.029637063 0 0 0 0 0 106683168.0336661 -3748230.069396971 -3748230.069396971 -6852157.214587107 0 0 0 0 0 106974100.5988203 -4384815.500984965 -4384815.500984965 -7499935.706832658 0 0 0 0 0 107513002.7665724 -5110890.359831141 -5110890.359831141 -7924346.578305436 0 0 0 0 0 107639693.7015194 -6011925.141096524 -6011925.141096524 -8136543.3297276 0 0 0 0 0 107056231.2770379 -7364957.606882633 -7364957.606882633 -8575449.755600207 0 0 0 0 0 106100623.1348213 -8900027.330621269 -8900027.330621269 -8982420.242823269 0 0 0 0 0 103906119.1810704 -9986919.551542388 -9986919.551542388 -10415857.87443816 0 0 0 0 0 105896844.2046224 -11073933.05006757 -11073933.05006757 -10177333.07450087 0 0 0 0 0 103761524.3619407 -13100936.0450547 -13100936.0450547 -10309252.92822234 0 0 0 0 0 100772908.7425992 -15179846.61856867 -15179846.61856867 -10169946.83221833 0 0 0 0 0 98775246.48322217 -24914010.44876264 -24914010.44876264 -19785355.11489385 0 0 0 0 0 98203020.30394167 -23301221.13548958 -23301221.13548958 -18709645.75829125 0 0 0 0 0 97609687.23872884 -21716983.47756556 -21716983.47756556 -17191159.59141825 0 0 0 0 0 97070207.28804488 -20158887.29846165 -20158887.29846165 -15532814.37603819 0 0 0 0 0 96661550.69445032 -18664675.05340185 -18664675.05340185 -13919601.22514554 0 0 0 0 0 96451171.02471347 -17236247.84695564 -17236247.84695564 -12448274.68302501 0 0 0 0 0 99328594.12290633 -26163089.15154917 -26163089.15154917 -18211449.7446764 0 0 0 0 0 52627000.08596031 -37997665.54788855 -37997665.54788855 20288708.55715557 0 0 0 0 0 77601648.04819857 -36184405.54173805 -36184405.54173805 -4884210.086931604 0 0 0 0 0 85223569.4433274 -33467187.60794908 -33467187.60794908 -15954092.27299039 0 0 0 0 0 87223955.03595355 -31525570.43048323 -31525570.43048323 -19443754.26323517 0 0 0 0 0 105644522.2196383 -2533142.635567642 -2533142.635567642 -5067652.63634999 0 0 0 0 0 105741189.7466874 -2997847.832798817 -2997847.832798817 -5482919.72275114 0 0 0 0 0 106026141.1399443 -3490423.132549583 -3490423.132549583 -5872397.197231002 0 0 0 0 0 106140066.0450246 -4030102.239314944 -4030102.239314944 -6361497.325041186 0 0 0 0 0 106291351.1161199 -4722790.643714255 -4722790.643714255 -6871586.640051406 0 0 0 0 0 106122699.1437195 -5514530.462484373 -5514530.462484373 -7414795.541986332 0 0 0 0 0 105357670.0839243 -6679823.706162952 -6679823.706162952 -8478128.613677235 0 0 0 0 0 104345096.2893288 -8056973.762805295 -8056973.762805295 -9064350.783231894 0 0 0 0 0 103030478.3378099 -9583920.467293648 -9583920.467293648 -9545491.062998328 0 0 0 0 0 104698233.9767677 -10570785.5137562 -10570785.5137562 -9240277.707609221 0 0 0 0 0 102019777.3862875 -11883402.62789316 -11883402.62789316 -10900021.30297569 0 0 0 0 0 99497998.50028908 -13894597.04222569 -13894597.04222569 -11177487.13283334 0 0 0 0 0 96274314.32797669 -15914256.21711671 -15914256.21711671 -11114845.65332121 0 0 0 0 0 99264239.51941635 -24981824.19597065 -24981824.19597065 -17122591.70859376 0 0 0 0 0 98811179.26900868 -23418249.21539818 -23418249.21539818 -15649450.26051039 0 0 0 0 0 98234588.22326919 -21818082.0511087 -21818082.0511087 -14007807.57218152 0 0 0 0 0 97658831.38653918 -20216935.85005506 -20216935.85005506 -12446942.36166059 0 0 0 0 0 97149221.77407233 -18654053.08215156 -18654053.08215156 -10996489.28572351 0 0 0 0 0 96784725.2843111 -17160829.52828122 -17160829.52828122 -9690474.041543011 0 0 0 0 0 88375201.93754379 -29687102.20095672 -29687102.20095672 -20065378.35204521 0 0 0 0 0 44039274.01993842 -25344804.42624721 -25344804.42624721 9710579.442449084 0 0 0 0 0 60470698.62544011 -26560399.73871912 -26560399.73871912 -13620431.06443133 0 0 0 0 0 79806835.72323598 -28857793.2121763 -28857793.2121763 -17585833.66143956 0 0 0 0 0 85301439.75586544 -29225449.98013741 -29225449.98013741 -18477275.04041821 0 0 0 0 0 105217670.3689321 -2774588.618430617 -2774588.618430617 -5380886.443844568 0 0 0 0 0 105686379.2718853 -3040323.688336822 -3040323.688336822 -5568039.484767558 0 0 0 0 0 105713132.4973685 -3648133.304237543 -3648133.304237543 -6122505.807377182 0 0 0 0 0 105819931.9826336 -4219152.483143272 -4219152.483143272 -6664321.247958138 0 0 0 0 0 105935332.866502 -4879081.997528204 -4879081.997528204 -7117853.316134353 0 0 0 0 0 105801751.9841157 -5698625.187610144 -5698625.187610144 -7733637.80989477 0 0 0 0 0 106384577.0135037 -6167794.383495767 -6167794.383495767 -7706922.934621185 0 0 0 0 0 105962391.5836353 -7240694.079776622 -7240694.079776622 -7958207.121317148 0 0 0 0 0 105036657.469721 -8583914.595879912 -8583914.595879912 -8213219.241840414 0 0 0 0 0 103698860.4999076 -10047414.60338044 -10047414.60338044 -8385142.846147032 0 0 0 0 0 101307499.2519267 -11234580.72209837 -11234580.72209837 -9887713.111276481 0 0 0 0 0 102737800.0880219 -12324763.22549768 -12324763.22549768 -9289617.328260155 0 0 0 0 0 100057312.5161785 -14110381.95741806 -14110381.95741806 -9068688.536714924 0 0 0 0 0 96565433.21415414 -15798525.91032626 -15798525.91032626 -8563001.381770354 0 0 0 0 0 89606483.91214243 -27508941.06836919 -27508941.06836919 -18808905.29059798 0 0 0 0 0 90420713.9220046 -25381998.63248533 -25381998.63248533 -17199617.59499095 0 0 0 0 0 91013830.07327387 -23267634.44705308 -23267634.44705308 -15381896.76152982 0 0 0 0 0 91508754.33103186 -21292452.69767278 -21292452.69767278 -13616404.96060632 0 0 0 0 0 91926628.75596477 -19458235.97453635 -19458235.97453635 -12017266.57432645 0 0 0 0 0 92324306.98392028 -17779992.75071268 -17779992.75071268 -10633968.25247093 0 0 0 0 0 87350530.89791879 -28023548.36785177 -28023548.36785177 -16624875.39462052 0 0 0 0 0 24200143.54996394 -19136749.63607711 -19136749.63607711 -74497.25316638532 0 0 0 0 0 57112806.12690816 -31067720.1676105 -31067720.1676105 -12588103.01204757 0 0 0 0 0 71671905.02974758 -35351151.00538239 -35351151.00538239 -15328953.04496743 0 0 0 0 0 72986699.58235262 -33552874.89049945 -33552874.89049945 -17635892.74992601 0 0 0 0 0 74865348.60773572 -33022508.21471303 -33022508.21471303 -19024562.93764038 0 0 0 0 0 105362048.8190689 -2905966.44248713 -2905966.44248713 -5037290.118914133 0 0 0 0 0 104809684.3968147 -3363195.970942272 -3363195.970942272 -5609695.068661501 0 0 0 0 0 105115325.3019048 -3837372.83185826 -3837372.83185826 -5708999.861278516 0 0 0 0 0 105115862.2463578 -4493151.679413503 -4493151.679413503 -6213422.772997139 0 0 0 0 0 104919059.5016002 -5246766.72219889 -5246766.72219889 -6726576.569113367 0 0 0 0 0 105770175.2097497 -5891387.708287512 -5891387.708287512 -6946643.662361387 0 0 0 0 0 104406454.2948853 -6666569.638229165 -6666569.638229165 -8026076.68906342 0 0 0 0 0 103520341.5632923 -7823822.932339922 -7823822.932339922 -8438707.133543979 0 0 0 0 0 102288540.2329493 -9157230.450907337 -9157230.450907337 -8745222.047758762 0 0 0 0 0 100722507.1401538 -10592883.66417856 -10592883.66417856 -8967259.529447038 0 0 0 0 0 101898823.1684237 -11569357.40478875 -11569357.40478875 -8373126.307412344 0 0 0 0 0 99038678.9496159 -12952107.42416591 -12952107.42416591 -10042136.04669186 0 0 0 0 0 96210451.86979581 -14686578.64995319 -14686578.64995319 -9907456.158432018 0 0 0 0 0 92736746.69798005 -16281572.20029326 -16281572.20029326 -9425240.191353582 0 0 0 0 0 88945476.41825463 -26327919.10488248 -26327919.10488248 -15089521.99170154 0 0 0 0 0 90081577.00365542 -24460338.18832288 -24460338.18832288 -13186916.9208212 0 0 0 0 0 90857690.51343481 -22510035.1112753 -22510035.1112753 -11599915.52459749 0 0 0 0 0 91424674.69929752 -20634183.30525849 -20634183.30525849 -10142203.69047489 0 0 0 0 0 91867078.2960822 -18886020.12119754 -18886020.12119754 -8870832.070897443 0 0 0 0 0 92320950.73835909 -17262054.5663489 -17262054.5663489 -7743680.932446465 0 0 0 0 0 78704444.18542351 -30766541.4667877 -30766541.4667877 -18048762.8219847 0 0 0 0 0 20457890.53371188 -7016655.005190266 -7016655.005190266 -20022984.13794427 0 0 0 0 0 33973878.85627624 -25367645.70721736 -25367645.70721736 -15818056.12889253 0 0 0 0 0 57018963.18468726 -30552048.39702083 -30552048.39702083 -15966298.37197198 0 0 0 0 0 71568622.01385956 -31157823.15687274 -31157823.15687274 -19345453.66247732 0 0 0 0 0 72762681.89783618 -29464509.44272855 -29464509.44272855 -16488246.64627404 0 0 0 0 0 105172903.9562771 -3565333.163073667 -3565333.163073667 -5340902.295221067 0 0 0 0 0 105128053.7567068 -4491056.592955426 -4491056.592955426 -6211038.49203794 0 0 0 0 0 104473386.7270422 -4105271.863996957 -4105271.863996957 -6058366.512462092 0 0 0 0 0 104926700.8540982 -5269501.709903182 -5269501.709903182 -6760214.080326862 0 0 0 0 0 105308381.9091917 -5768017.999636118 -5768017.999636118 -6668344.539293634 0 0 0 0 0 104096224.6108352 -6414802.304854662 -6414802.304854662 -7544301.127291708 0 0 0 0 0 104987311.1900948 -7070908.143110393 -7070908.143110393 -7365418.608044059 0 0 0 0 0 104104781.0593926 -8252413.541029911 -8252413.541029911 -7537707.427342673 0 0 0 0 0 102866580.4340604 -9537110.424653593 -9537110.424653593 -7612195.269195852 0 0 0 0 0 101226860.1099801 -10851180.45219482 -10851180.45219482 -7522499.425673671 0 0 0 0 0 98711018.67536075 -12073604.2850696 -12073604.2850696 -9018087.440195376 0 0 0 0 0 99502036.63309547 -13103024.66227859 -13103024.66227859 -8108955.447198051 0 0 0 0 0 96428243.78257729 -14555518.68070179 -14555518.68070179 -7610032.694331243 0 0 0 0 0 92666059.60356717 -15802597.14815341 -15802597.14815341 -6836737.929935383 0 0 0 0 0 81273241.74803783 -28410055.28344174 -28410055.28344174 -16394148.12955705 0 0 0 0 0 83446032.82353295 -25857540.80984535 -25857540.80984535 -14482292.37358781 0 0 0 0 0 85160833.06928308 -23531979.59112768 -23531979.59112768 -12755199.63361369 0 0 0 0 0 86481906.40909998 -21349224.19929459 -21349224.19929459 -11157016.6916091 0 0 0 0 0 87625470.55945982 -19388137.91694108 -19388137.91694108 -9783782.056707194 0 0 0 0 0 88655383.78978977 -17625294.64770673 -17625294.64770673 -8570785.179213887 0 0 0 0 0 76523371.0898788 -27986077.23258856 -27986077.23258856 -14030413.80762331 0 0 0 0 0 8407645.149216531 -7815517.827931101 -7815517.827931101 -16934006.46588394 0 0 0 0 0 32349057.84147649 -19429181.17863745 -19429181.17863745 -28199303.59148734 0 0 0 0 0 55273533.27915268 -30973680.90905098 -30973680.90905098 -21590407.46057583 0 0 0 0 0 57281483.02578143 -33241433.23510011 -33241433.23510011 -17310739.62198957 0 0 0 0 0 65315537.5456261 -32492312.32469482 -32492312.32469482 -16543406.76099484 0 0 0 0 0 103979397.9743874 -4792625.786697047 -4792625.786697047 -6229576.279476884 0 0 0 0 0 104857825.0656744 -4331163.166639463 -4331163.166639463 -5598971.553048942 0 0 0 0 0 104697466.5955458 -5395770.330317264 -5395770.330317264 -6176547.870891543 0 0 0 0 0 103626380.7813882 -6186639.23068046 -6186639.23068046 -7175497.817125424 0 0 0 0 0 104567115.2641636 -6716912.33499476 -6716912.33499476 -6761703.202189154 0 0 0 0 0 102984691.6473522 -7565772.054902812 -7565772.054902812 -7891626.770139939 0 0 0 0 0 101748497.7950755 -8738924.013754163 -8738924.013754163 -8083424.569761572 0 0 0 0 0 100226938.9949885 -9959767.475032875 -9959767.475032875 -8161720.177267504 0 0 0 0 0 98473053.14143829 -11247175.76077999 -11247175.76077999 -8098625.486133186 0 0 0 0 0 99073446.70613289 -12154342.12111868 -12154342.12111868 -7286962.01406969 0 0 0 0 0 96166265.39323941 -13551185.72408641 -13551185.72408641 -8853672.07987975 0 0 0 0 0 93217587.22856629 -14909644.44257675 -14909644.44257675 -8360131.553999269 0 0 0 0 0 89696192.67122748 -16034522.57530898 -16034522.57530898 -7562986.299981257 0 0 0 0 0 79628336.54895222 -26183074.46364965 -26183074.46364965 -11821621.15770405 0 0 0 0 0 82232278.48730923 -24062448.95592539 -24062448.95592539 -10283083.78089185 0 0 0 0 0 84208050.28004903 -22053275.29564869 -22053275.29564869 -8841869.386774862 0 0 0 0 0 85879122.1372647 -20118303.87492381 -20118303.87492381 -7681350.318107517 0 0 0 0 0 87166459.31658594 -18324974.4680605 -18324974.4680605 -6673651.041395856 0 0 0 0 0 88257277.40570758 -16710240.6545101 -16710240.6545101 -5835454.289409539 0 0 0 0 0 69942141.99320854 -30301207.01539154 -30301207.01539154 -14927344.15671307 0 0 0 0 0 4382219.911297378 4376959.079805755 4376959.079805755 -53434617.21477029 0 0 0 0 0 16201440.06811141 -20279543.10238093 -20279543.10238093 -22612631.53758852 0 0 0 0 0 36942344.67128216 -27944172.54616744 -27944172.54616744 -18457580.93777683 0 0 0 0 0 57091658.1345588 -30589626.66962086 -30589626.66962086 -17859069.13751741 0 0 0 0 0 59856874.65924216 -27299050.5277421 -27299050.5277421 -12774202.56771908 0 0 0 0 0 104431680.2815185 -5102283.541728809 -5102283.541728809 -5782058.868441048 0 0 0 0 0 103363658.8101052 -5772614.013718538 -5772614.013718538 -6655026.293943227 0 0 0 0 0 103955827.1412271 -6412667.751450237 -6412667.751450237 -6415339.170107697 0 0 0 0 0 102703919.1915662 -7169960.355825 -7169960.355825 -7348037.073052878 0 0 0 0 0 103419420.3300951 -7834727.038722374 -7834727.038722374 -6906988.812641784 0 0 0 0 0 102165580.8322003 -8970398.880170591 -8970398.880170591 -6944782.712074307 0 0 0 0 0 100635529.4627938 -10148755.36340135 -10148755.36340135 -6773909.502167744 0 0 0 0 0 98770472.04108086 -11257800.36247514 -11257800.36247514 -6453054.064816485 0 0 0 0 0 96189883.27197661 -12510020.55661578 -12510020.55661578 -7923175.79819179 0 0 0 0 0 96364939.23265301 -13436846.92540085 -13436846.92540085 -6818322.950541324 0 0 0 0 0 93115560.33015054 -14479104.96854649 -14479104.96854649 -6119887.763123821 0 0 0 0 0 89189240.21635458 -15282893.25450384 -15282893.25450384 -5147238.422685686 0 0 0 0 0 74469445.53874096 -27457956.73516691 -27457956.73516691 -12766538.10543131 0 0 0 0 0 77636189.18595421 -25018601.22231399 -25018601.22231399 -11184559.63005174 0 0 0 0 0 80283799.33789381 -22627920.33202455 -22627920.33202455 -9699693.048523556 0 0 0 0 0 82348771.81521975 -20500384.21730903 -20500384.21730903 -8462387.565058595 0 0 0 0 0 84166911.95730059 -18562402.40882625 -18562402.40882625 -7361285.299040704 0 0 0 0 0 85759914.38164739 -16845897.52485625 -16845897.52485625 -6415762.561556293 0 0 0 0 0 66775320.97713549 -26210759.46900288 -26210759.46900288 -10049060.23445247 0 0 0 0 0 3301243.246039949 -3145699.279669749 -3145699.279669749 -34137088.1352538 0 0 0 0 0 16911261.73044777 -12598470.84872782 -12598470.84872782 -41104276.83573941 0 0 0 0 0 37631999.40810315 -24901553.26919103 -24901553.26919103 -23762806.78155612 0 0 0 0 0 41136547.31673466 -28948755.28155701 -28948755.28155701 -15724122.4104827 0 0 0 0 0 57165235.01536986 -29722534.80808296 -29722534.80808296 -12187655.60912698 0 0 0 0 0 55621864.89430814 -30283083.40159134 -30283083.40159134 -12911522.58451504 0 0 0 0 0 103684752.2985595 -5985690.12970087 -5985690.12970087 -5925766.483305426 0 0 0 0 0 102470947.7722997 -6753716.643906718 -6753716.643906718 -6879575.168089591 0 0 0 0 0 102986888.4302629 -7384515.367997634 -7384515.367997634 -6431629.869546915 0 0 0 0 0 101478384.3209077 -8261947.72867609 -8261947.72867609 -7454571.265797407 0 0 0 0 0 99986559.88285127 -9358155.10546788 -9358155.10546788 -7436269.029701574 0 0 0 0 0 98217049.62625563 -10497239.81847688 -10497239.81847688 -7326095.509564941 0 0 0 0 0 96103622.23119438 -11501907.20612964 -11501907.20612964 -6995643.526958341 0 0 0 0 0 96364866.92343569 -12442227.51377928 -12442227.51377928 -6274791.496630155 0 0 0 0 0 93577581.04812518 -13675662.34127193 -13675662.34127193 -7499098.7605455 0 0 0 0 0 90542838.9181516 -14683198.18611804 -14683198.18611804 -6714898.826664086 0 0 0 0 0 87133688.95203902 -15338997.50846765 -15338997.50846765 -5672911.20242237 0 0 0 0 0 71549302.02260444 -24340171.12354024 -24340171.12354024 -8652535.17812421 0 0 0 0 0 75569035.45132968 -22506780.57046307 -22506780.57046307 -7066300.106253859 0 0 0 0 0 78666162.84913091 -20561085.86089012 -20561085.86089012 -6089138.374682586 0 0 0 0 0 81217349.9042055 -18765181.17422511 -18765181.17422511 -5270444.145214343 0 0 0 0 0 83212668.46605748 -17138345.11083191 -17138345.11083191 -4606749.577241283 0 0 0 0 0 84901758.55655257 -15684502.90033178 -15684502.90033178 -4090410.056587685 0 0 0 0 0 64561115.13445237 -27421167.22856556 -27421167.22856556 -10266103.20055344 0 0 0 0 0 -1547252.578003117 7846991.342907142 7846991.342907142 -79551649.26087452 0 0 0 0 0 7291288.893840438 -15496193.76329953 -15496193.76329953 -25010860.19673322 0 0 0 0 0 22329474.27862059 -25555328.69065507 -25555328.69065507 -18710763.68942131 0 0 0 0 0 41741575.63699278 -25582701.3602556 -25582701.3602556 -16565273.38929867 0 0 0 0 0 56931502.35485225 -25562661.49696967 -25562661.49696967 -8479306.6776316 0 0 0 0 0 41896069.74915181 -27431481.33442996 -27431481.33442996 -11823636.32434124 0 0 0 0 0 102686085.2795134 -6905823.785613466 -6905823.785613466 -5980834.453836099 0 0 0 0 0 101338725.5888546 -7703914.682186332 -7703914.682186332 -6938529.750884707 0 0 0 0 0 101698859.0601803 -8428606.019000944 -8428606.019000944 -6360670.307579952 0 0 0 0 0 100159726.545297 -9419382.362059491 -9419382.362059491 -6185558.293235973 0 0 0 0 0 98365885.45050327 -10467627.11057209 -10467627.11057209 -5830104.700203527 0 0 0 0 0 96521846.67097758 -11635973.76847315 -11635973.76847315 -5655144.142991045 0 0 0 0 0 93986107.77749592 -12561657.32756726 -12561657.32756726 -6837360.075020051 0 0 0 0 0 93501356.64114806 -13360661.17020557 -13360661.17020557 -5348213.341724511 0 0 0 0 0 90135792.86912887 -13988381.85874202 -13988381.85874202 -4671704.23754225 0 0 0 0 0 86429716.67851172 -14349824.43229835 -14349824.43229835 -3565949.584683979 0 0 0 0 0 69205162.44720495 -25281185.31688239 -25281185.31688239 -8922343.484914452 0 0 0 0 0 73240159.42616904 -22902345.56314077 -22902345.56314077 -7555527.710866042 0 0 0 0 0 76504980.34296419 -20798975.10634559 -20798975.10634559 -6598569.50980483 0 0 0 0 0 79214530.15640736 -18899244.42411828 -18899244.42411828 -5754545.000958253 0 0 0 0 0 81608393.3841603 -17193549.4559875 -17193549.4559875 -5011290.211577442 0 0 0 0 0 83592846.86517389 -15680331.38081858 -15680331.38081858 -4441443.950894644 0 0 0 0 0 58824727.6231236 -23219329.09360725 -23219329.09360725 -6478627.122788139 0 0 0 0 0 3521417.968144044 -3173051.510797536 -3173051.510797536 -44611578.58616573 0 0 0 0 0 5887226.418863339 -7217037.314124047 -7217037.314124047 -46218590.19938868 0 0 0 0 0 21885487.46473988 -16131982.44481547 -16131982.44481547 -24796977.53161561 0 0 0 0 0 28427076.29497797 -25033741.21388809 -25033741.21388809 -13415323.53724289 0 0 0 0 0 47076241.48227841 -24925591.37752156 -24925591.37752156 -8086320.240437694 0 0 0 0 0 43628804.50555173 -23502353.92061806 -23502353.92061806 -10052012.8292315 0 0 0 0 0 101512959.9847638 -7832274.106921803 -7832274.106921803 -5896011.950150519 0 0 0 0 0 100000136.2607521 -8693352.933640203 -8693352.933640203 -6850345.97492734 0 0 0 0 0 98438016.1702825 -9671695.671238044 -9671695.671238044 -6665165.145176103 0 0 0 0 0 96498243.62317137 -10671212.68514186 -10671212.68514186 -6295335.83040776 0 0 0 0 0 93916497.00640696 -11537490.53105381 -11537490.53105381 -5618364.355141739 0 0 0 0 0 93759155.50327626 -12336170.34701452 -12336170.34701452 -5183039.888710844 0 0 0 0 0 91438983.18931302 -13404585.97426583 -13404585.97426583 -5906241.789909485 0 0 0 0 0 88424192.31261992 -14014211.51272507 -14014211.51272507 -5129999.127908822 0 0 0 0 0 85519588.27422453 -14300252.88605696 -14300252.88605696 -3832174.187877999 0 0 0 0 0 66011413.98248787 -21639200.68988049 -21639200.68988049 -4985690.329742453 0 0 0 0 0 70605391.20718415 -19933968.90539117 -19933968.90539117 -4227051.401807138 0 0 0 0 0 74422911.40245937 -18340638.95096029 -18340638.95096029 -3600804.282808274 0 0 0 0 0 77509896.70482956 -16862482.00220148 -16862482.00220148 -3112761.756515925 0 0 0 0 0 80084493.58682913 -15512346.18490168 -15512346.18490168 -2735057.896132263 0 0 0 0 0 82350819.99505942 -14259916.66633595 -14259916.66633595 -2407902.133770663 0 0 0 0 0 60515129.61488643 -23893514.70063214 -23893514.70063214 -5978825.057160679 0 0 0 0 0 58881786.82776725 -23441330.47190026 -23441330.47190026 -4913562.262850316 0 0 0 0 0 -6093824.888401325 5443992.796941425 5443992.796941425 -94008466.03508767 0 0 0 0 0 439940.1519345785 -7466481.743466698 -7466481.743466698 -28427820.27855784 0 0 0 0 0 15690077.05037418 -20242904.16631804 -20242904.16631804 -16372120.10366764 0 0 0 0 0 30028567.37346501 -17357658.60445114 -17357658.60445114 -12851356.82527911 0 0 0 0 0 48711771.14065333 -20899743.40040691 -20899743.40040691 -5122683.440226075 0 0 0 0 0 35390129.62636705 -23136629.47512697 -23136629.47512697 -8194106.099341086 0 0 0 0 0 100021627.0255315 -8731057.669799613 -8731057.669799613 -5689247.67637438 0 0 0 0 0 98292627.73100616 -9567893.76229078 -9567893.76229078 -5317211.288975979 0 0 0 0 0 95832906.11222161 -10335158.52124613 -10335158.52124613 -4918374.603401163 0 0 0 0 0 94789789.90340981 -11332511.92904791 -11332511.92904791 -5268719.850926194 0 0 0 0 0 93554998.86080979 -12299460.71177064 -12299460.71177064 -5237418.838104002 0 0 0 0 0 91160345.45486833 -12856133.78689098 -12856133.78689098 -3912535.901786355 0 0 0 0 0 87317221.89606084 -13158226.42136875 -13158226.42136875 -3673828.404319347 0 0 0 0 0 84433169.42419358 -12995412.07207229 -12995412.07207229 -2017235.799853461 0 0 0 0 0 65936539.30256541 -21848427.57832052 -21848427.57832052 -4922635.05957372 0 0 0 0 0 70260889.17589039 -20056857.79534108 -20056857.79534108 -4273252.791685207 0 0 0 0 0 73919995.67267187 -18388164.47677097 -18388164.47677097 -3721921.176379237 0 0 0 0 0 76971371.495426 -16846653.57762543 -16846653.57762543 -3268530.24758172 0 0 0 0 0 79562519.44553553 -15430651.2424261 -15430651.2424261 -2913538.799714296 0 0 0 0 0 81838718.34020938 -14130973.46851359 -14130973.46851359 -2602654.511979959 0 0 0 0 0 59200311.1059865 -19722916.00567662 -19722916.00567662 -2432300.920219036 0 0 0 0 0 50203145.85617894 -21765931.65519777 -21765931.65519777 -5018316.621266766 0 0 0 0 0 -3925251.887131339 -5652565.68991168 -5652565.68991168 -52378526.46221427 0 0 0 0 0 10782675.97488585 -12162745.40932362 -12162745.40932362 -24011572.19455115 0 0 0 0 0 133919.919424228 1286340.461958414 1286340.461958414 -48027002.90595782 0 0 0 0 0 15137491.799289 -9248486.11494709 -9248486.11494709 -17404442.49690091 0 0 0 0 0 24352548.69800972 -19076229.00261446 -19076229.00261446 -9791087.955229023 0 0 0 0 0 42221729.38524146 -20128395.9864499 -20128395.9864499 -4975591.416251881 0 0 0 0 0 36455161.62139805 -16243461.1492763 -16243461.1492763 -6157528.671492388 0 0 0 0 0 93211272.8906951 -10949942.88994247 -10949942.88994247 -4326404.273368157 0 0 0 0 0 91039093.57111242 -11893582.02488596 -11893582.02488596 -4670986.010605073 0 0 0 0 0 88434520.60868448 -12760312.73994326 -12760312.73994326 -4500570.430385018 0 0 0 0 0 88829638.43283193 -12828122.86012165 -12828122.86012165 -3127293.893596719 0 0 0 0 0 83332635.44756173 -12885540.47033898 -12885540.47033898 -2339206.349469849 0 0 0 0 0 62370664.04211282 -18122945.25708907 -18122945.25708907 -2260400.730004692 0 0 0 0 0 67308342.84948817 -16909654.62683635 -16909654.62683635 -1818590.81377306 0 0 0 0 0 71456559.66357958 -15744528.49704448 -15744528.49704448 -1510032.76802042 0 0 0 0 0 74945219.38173383 -14640080.52110694 -14640080.52110694 -1239698.496853608 0 0 0 0 0 77887280.72042982 -13558054.84167518 -13558054.84167518 -1070584.566087046 0 0 0 0 0 80336636.96527512 -12621878.87416267 -12621878.87416267 -916038.1647436016 0 0 0 0 0 57832041.5911108 -19935151.2720251 -19935151.2720251 -2587605.730032199 0 0 0 0 0 52446460.45873707 -18246855.30431578 -18246855.30431578 -2414172.057556824 0 0 0 0 0 4721194.955069485 -624495.9480631922 -624495.9480631922 -23770239.06000555 0 0 0 0 0 3125072.216151644 -4464527.834035596 -4464527.834035596 -29458762.13903726 0 0 0 0 0 15519183.07313614 -12987157.97904624 -12987157.97904624 -11374789.50181172 0 0 0 0 0 25594269.50172881 -9945725.37350663 -9945725.37350663 -7512260.988358197 0 0 0 0 0 42320047.84923214 -15001517.74271738 -15001517.74271738 -2413781.568965237 0 0 0 0 0 34651766.32873213 -17170468.56052089 -17170468.56052089 -4177704.182902894 0 0 0 0 0 92429677.43514723 -11580956.97389448 -11580956.97389448 -4159555.168678049 0 0 0 0 0 91355587.50496827 -12080466.69949489 -12080466.69949489 -3483811.889104981 0 0 0 0 0 85979817.03633174 -12236952.76272603 -12236952.76272603 -2789862.909879284 0 0 0 0 0 82693354.39726542 -11696806.69311108 -11696806.69311108 -790944.327472904 0 0 0 0 0 86417704.86796813 -11908542.53044709 -11908542.53044709 -1353302.946169007 0 0 0 0 0 63971729.77681331 -18189169.85863481 -18189169.85863481 -1788434.614594962 0 0 0 0 0 68480536.83152305 -16890833.98080078 -16890833.98080078 -1500666.564126459 0 0 0 0 0 72290470.93090425 -15673863.02212473 -15673863.02212473 -1307615.950427667 0 0 0 0 0 75442945.09670228 -14486745.63638875 -14486745.63638875 -1164375.210095694 0 0 0 0 0 78186246.10249756 -13403460.1590382 -13403460.1590382 -1053218.496594125 0 0 0 0 0 80612856.70079924 -12408189.31005956 -12408189.31005956 -942942.0070075183 0 0 0 0 0 54158672.77422448 -14758959.67933975 -14758959.67933975 -523505.6631177565 0 0 0 0 0 45442225.82965266 -15487112.10205339 -15487112.10205339 -2040116.703217939 0 0 0 0 0 11075368.94899824 -5390917.187307903 -5390917.187307903 -15991579.58075785 0 0 0 0 0 17084312.72063765 -2349843.630313513 -2349843.630313513 -10989207.73771451 0 0 0 0 0 25948398.04781102 -11510111.08133096 -11510111.08133096 -4938291.81400621 0 0 0 0 0 43886582.04100541 -15792638.19164284 -15792638.19164284 -1243980.921631725 0 0 0 0 0 33070800.45519907 -9370109.092223914 -9370109.092223914 -2692572.690386104 0 0 0 0 0 91129248.85833786 -11188836.27411325 -11188836.27411325 -3352773.78776189 0 0 0 0 0 89304370.81731965 -12018009.72825206 -12018009.72825206 -3960881.365343057 0 0 0 0 0 87119299.9131154 -11977303.76910623 -11977303.76910623 -2341620.765504005 0 0 0 0 0 82054566.54290099 -11451506.3357768 -11451506.3357768 -1123147.062703009 0 0 0 0 0 83942169.21883459 -11567260.37942794 -11567260.37942794 -1983570.348809789 0 0 0 0 0 60127796.84844871 -14304022.86695874 -14304022.86695874 -133009.1568476394 0 0 0 0 0 65332315.80228564 -13663285.30295424 -13663285.30295424 54020.54258166085 0 0 0 0 0 69682856.05404501 -12953294.28862716 -12953294.28862716 222831.5313144566 0 0 0 0 0 73332998.16765797 -12184010.15177811 -12184010.15177811 312022.7185032565 0 0 0 0 0 76307706.44583677 -11478854.96930026 -11478854.96930026 359163.0582921499 0 0 0 0 0 78814755.57080875 -10870555.11919349 -10870555.11919349 232194.6354974528 0 0 0 0 0 58208762.455327 -14908273.66225638 -14908273.66225638 662832.6273902779 0 0 0 0 0 52314555.17209436 -15450560.66843162 -15450560.66843162 1512.550671912041 0 0 0 0 0 20403729.94030273 -4773706.291345799 -4773706.291345799 -7027830.769607973 0 0 0 0 0 26178746.4650796 -2732831.271198596 -2732831.271198596 -3981161.000807318 0 0 0 0 0 40903274.82213742 -9577475.208185369 -9577475.208185369 -13929.25118772328 0 0 0 0 0 36391781.23990273 -10587325.39254298 -10587325.39254298 -785401.1619843617 0 0 0 0 0 88485295.43921189 -11236639.5055797 -11236639.5055797 -2370507.396660062 0 0 0 0 0 86225811.94354379 -10764216.72952903 -10764216.72952903 -1160219.780705001 0 0 0 0 0 84483699.83755094 -10828954.94541799 -10828954.94541799 -435068.2124793691 0 0 0 0 0 81124168.6518224 -10347466.16805767 -10347466.16805767 205179.9094237867 0 0 0 0 0 63487017.67725908 -14289081.4855903 -14289081.4855903 792688.3673398524 0 0 0 0 0 67759897.32082444 -13610707.93253672 -13610707.93253672 699191.2399470304 0 0 0 0 0 71596640.96170443 -12789475.06018193 -12789475.06018193 686439.941686812 0 0 0 0 0 74494790.01356673 -12014426.63600376 -12014426.63600376 565060.2982954723 0 0 0 0 0 77542518.40321423 -11215770.50863923 -11215770.50863923 605406.6098025347 0 0 0 0 0 79926337.06674078 -10633399.73254745 -10633399.73254745 437510.0377571128 0 0 0 0 0 53411533.04518924 -10281350.89450941 -10281350.89450941 1016858.26300867 0 0 0 0 0 46754219.02185041 -9743753.235780301 -9743753.235780301 823220.7223536897 0 0 0 0 0 29613435.97368702 -4114142.785782785 -4114142.785782785 -1790747.255405238 0 0 0 0 0 44553640.68815584 -10165161.51364575 -10165161.51364575 1155836.342501006 0 0 0 0 0 34109576.72066592 -2985247.724416305 -2985247.724416305 -281306.6692832325 0 0 0 0 0 82279150.33326453 -10202194.90576324 -10202194.90576324 -428756.8334220019 0 0 0 0 0 82127992.9090105 -10179519.64816616 -10179519.64816616 436772.4710760048 0 0 0 0 0 59619043.52075174 -10745274.7474191 -10745274.7474191 1419165.354609957 0 0 0 0 0 64877768.85895219 -10466400.37746227 -10466400.37746227 1508532.092808118 0 0 0 0 0 68992464.10986727 -10168845.90993553 -10168845.90993553 1565134.70264303 0 0 0 0 0 72657597.30306485 -9661289.439781126 -9661289.439781126 1560642.157765241 0 0 0 0 0 75206269.86082759 -9387137.226592591 -9387137.226592591 1310394.27072409 0 0 0 0 0 77769974.07707059 -9159465.520017359 -9159465.520017359 1104157.077770002 0 0 0 0 0 59885383.38226565 -10452648.08570474 -10452648.08570474 2904010.471415622 0 0 0 0 0 53804282.2198899 -9879363.941359935 -9879363.941359935 2789411.141957458 0 0 0 0 0 43057998.71616253 -3143651.060593782 -3143651.060593782 2181785.315176509 0 0 0 0 0 37955605.04983743 -3851237.602799729 -3851237.602799729 1012645.418866482 0 0 0 0 0 79912120.6598285 -9051265.752562471 -9051265.752562471 702010.0776274442 0 0 0 0 0 63810398.78575654 -10730804.94911561 -10730804.94911561 2556602.430106524 0 0 0 0 0 68025718.24093936 -10433834.10103863 -10433834.10103863 2329580.963537404 0 0 0 0 0 71345087.02952081 -9972761.15117263 -9972761.15117263 2121678.173206879 0 0 0 0 0 74625569.82282273 -9454416.485035785 -9454416.485035785 2045725.095058883 0 0 0 0 0 77367122.46286085 -9147515.416806173 -9147515.416806173 1859579.054107836 0 0 0 0 0 79945896.36550537 -8894620.787061714 -8894620.787061714 1702468.434531027 0 0 0 0 0 55569441.30780242 -6923243.13687828 -6923243.13687828 2439646.935525605 0 0 0 0 0 47929174.69753284 -6010191.660555284 -6010191.660555284 1965008.34686172 0 0 0 0 0 45198397.62420211 -3378576.216495314 -3378576.216495314 2399520.317594667 0 0 0 0 0 60669855.73605335 -7537012.582873723 -7537012.582873723 2476521.545998075 0 0 0 0 0 65591096.47089336 -7661605.500669569 -7661605.500669569 2835778.70582849 0 0 0 0 0 69419254.73126416 -7343734.287769626 -7343734.287769626 2622053.409387498 0 0 0 0 0 72283722.45278037 -7270593.280111113 -7270593.280111113 2196425.478488713 0 0 0 0 0 75017793.78051108 -7366484.130258655 -7366484.130258655 2053057.595080148 0 0 0 0 0 77360166.482307 -7508526.756881852 -7508526.756881852 1591740.402142076 0 0 0 0 0 56483833.9981593 -6271232.985075672 -6271232.985075672 4442263.7462356 0 0 0 0 0 61779685.36383418 -6833755.223014137 -6833755.223014137 4261760.616950971 0 0 0 0 0 51430346.32716818 -2916018.477177825 -2916018.477177825 3924191.066325441 0 0 0 0 0 64429631.82238248 -7884350.432881536 -7884350.432881536 3472420.897722738 0 0 0 0 0 68149488.78151673 -7557381.748191847 -7557381.748191847 3225427.877887358 0 0 0 0 0 72003956.1688692 -7176510.381490731 -7176510.381490731 3245723.363580026 0 0 0 0 0 75227727.18697487 -7143932.364853559 -7143932.364853559 2995762.585886858 0 0 0 0 0 77942101.05371949 -7112928.820728782 -7112928.820728782 2887670.940575996 0 0 0 0 0 53392439.03470253 -2035311.736291362 -2035311.736291362 3330730.229977286 0 0 0 0 0 58996635.97274263 -5648282.005405484 -5648282.005405484 3230999.096051036 0 0 0 0 0 50871211.41632279 -2471464.728839443 -2471464.728839443 3067993.14976376 0 0 0 0 0 63492894.68670111 -5100978.360608469 -5100978.360608469 4142381.41434615 0 0 0 0 0 67134067.67887317 -4633665.848854343 -4633665.848854343 3958353.431063715 0 0 0 0 0 69714042.99840906 -5078303.817080528 -5078303.817080528 3064323.395552755 0 0 0 0 0 73012575.79647133 -5152201.524502104 -5152201.524502104 2806962.42582563 0 0 0 0 0 75406992.94363804 -5622473.722629076 -5622473.722629076 2365762.03719914 0 0 0 0 0 56353493.90364102 -2342218.54303296 -2342218.54303296 3868679.331668436 0 0 0 0 0 59960738.42927349 -2040063.333929653 -2040063.333929653 4309789.341411478 0 0 0 0 0 64203349.20588498 -4883399.258937521 -4883399.258937521 3614080.684577709 0 0 0 0 0 67223716.74644512 -4365866.379011345 -4365866.379011345 3401264.92026933 0 0 0 0 0 71098407.43864347 -4183078.541591097 -4183078.541591097 4433966.877896403 0 0 0 0 0 72831486.3415464 -5013590.249812146 -5013590.249812146 3878911.07726209 0 0 0 0 0 76480121.98309976 -4958808.229329473 -4958808.229329473 3759985.539365337 0 0 0 0 0 60940922.75002619 -1899829.254546556 -1899829.254546556 3804800.563637581 0 0 0 0 0 63975125.85525091 -1719488.510285934 -1719488.510285934 4265465.519705364 0 0 0 0 0 67787519.0943774 -1535611.657115882 -1535611.657115882 4370080.515601647 0 0 0 0 0 69630213.07137001 -3532358.299396709 -3532358.299396709 3455279.428293492 0 0 0 0 0 72292222.39724788 -3045983.452351494 -3045983.452351494 3973218.865478223 0 0 0 0 0 74124040.371263 -3497093.356145862 -3497093.356145862 2948684.797314075 0 0 0 0 0 65016592.30002259 -1643735.030716465 -1643735.030716465 3973436.747993083 0 0 0 0 0 68411269.34215817 -1335506.987546471 -1335506.987546471 4013223.920584676 0 0 0 0 0 70399402.68256128 -1230179.953917954 -1230179.953917954 4115264.393719094 0 0 0 0 0 72361185.35633621 -2796713.095368508 -2796713.095368508 3425397.404154982 0 0 0 0 0 75457516.08119699 -2598758.744862174 -2598758.744862174 4224318.712031483 0 0 0 0 0 71374026.78604954 -1153849.402352352 -1153849.402352352 3870183.047197379 0 0 0 0 0 72838219.49633531 -969944.8595251278 -969944.8595251278 3990761.046477431 0 0 0 0 0 73725366.13631776 -1291384.405079636 -1291384.405079636 3332355.583364442 0 0 0 0 0 74084725.04108793 -966405.5306077063 -966405.5306077063 4177565.34785829 0 0 0 0 0 </DataArray>
        <DataArray type="Float64" Name="von_mises_stress" format="ascii" NumberOfComponents="3">100762592.6946554 0 0 101147599.1538597 0 0 101569226.8134607 0 0 101300446.8243007 0 0 101122938.8913509 0 0 101459552.4400064 0 0 101674409.969403 0 0 102232951.7959537 0 0 101814016.8534669 0 0 102009042.5045543 0 0 101846125.6353023 0 0 102066049.0333239 0 0 102471946.8872241 0 0 102121672.164594 0 0 102287984.7010984 0 0 103156065.0214928 0 0 103411886.6969502 0 0 102370095.0449295 0 0 102842829.5637724 0 0 102771387.0732528 0 0 102846758.9643698 0 0 102986410.794847 0 0 103247419.1113363 0 0 103773923.9292179 0 0 102979014.7440406 0 0 103195555.8319257 0 0 104356171.973959 0 0 104627950.0649823 0 0 104866186.0874701 0 0 103706679.5765506 0 0 103626697.9689665 0 0 103872974.1164546 0 0 104030300.6142613 0 0 104202676.9100911 0 0 104465397.8625833 0 0 104697974.6859008 0 0 105277714.1134259 0 0 104362023.5573636 0 0 104056976.3117421 0 0 104418346.7276379 0 0 105672676.9631779 0 0 106009846.6666121 0 0 106394249.3586489 0 0 106986262.6453025 0 0 105076610.3775129 0 0 105294540.7442909 0 0 105047521.073257 0 0 105389152.8055436 0 0 105309535.7771785 0 0 105555382.3864736 0 0 105907028.5872482 0 0 106341449.866104 0 0 106757152.6312966 0 0 107314379.7244227 0 0 105437448.0190641 0 0 105599967.6977226 0 0 106146967.243069 0 0 107057141.8353355 0 0 107446588.3381085 0 0 107814760.4688051 0 0 108493302.7144569 0 0 108840960.5411134 0 0 107305268.1322789 0 0 106676101.320227 0 0 106847878.8802183 0 0 107504713.1769643 0 0 106585007.435265 0 0 106974647.5451058 0 0 107321193.4991244 0 0 108009913.5157717 0 0 109200179.7187168 0 0 109591454.3982306 0 0 109185826.1293777 0 0 108145686.8496038 0 0 107212570.6475514 0 0 107503490.1186299 0 0 108558719.2079265 0 0 108286710.3787991 0 0 108890982.3369751 0 0 109169740.1164111 0 0 109122827.6010455 0 0 110694327.141296 0 0 111097472.720508 0 0 110291706.5181898 0 0 108994830.2297331 0 0 108671213.261136 0 0 109194894.042005 0 0 110587547.8919817 0 0 107766694.6480599 0 0 108249541.5155053 0 0 108784254.9912604 0 0 110347889.9457921 0 0 112043250.2275241 0 0 112539922.5250077 0 0 111726105.3081732 0 0 110969733.5509286 0 0 110063465.5042292 0 0 109504918.4646255 0 0 110089198.6401128 0 0 112300424.523491 0 0 109467829.6930213 0 0 110135341.4311573 0 0 110730387.2654611 0 0 111398304.2692381 0 0 113116091.8286176 0 0 114181453.5653927 0 0 113324148.8179413 0 0 112310158.9999325 0 0 111428076.8676623 0 0 111442685.2314057 0 0 112852920.7239394 0 0 114812966.3126197 0 0 108808485.2379299 0 0 109513919.1719139 0 0 109988711.7037413 0 0 110927199.092458 0 0 112711782.6105123 0 0 114856055.3844215 0 0 114756211.0794177 0 0 115264052.3417245 0 0 114072824.7245722 0 0 113377353.0839272 0 0 112878093.1404672 0 0 112550378.8943502 0 0 113304894.7418099 0 0 116969253.0763443 0 0 110349272.4926588 0 0 111083742.9680533 0 0 111837811.2855161 0 0 111885435.9099074 0 0 113517516.4421821 0 0 115493339.0131853 0 0 116833629.2523251 0 0 117390297.9399815 0 0 116035195.6548545 0 0 115184767.2620643 0 0 114612799.179043 0 0 115096385.2413215 0 0 117835924.022021 0 0 120447400.3186069 0 0 109678437.7526529 0 0 110265786.5926584 0 0 111649768.5620106 0 0 111850638.8902345 0 0 113356750.3903337 0 0 115278967.3962425 0 0 117670730.6586976 0 0 117739621.8114 0 0 117417003.6778473 0 0 117831013.5167495 0 0 116961238.6193728 0 0 116549622.399701 0 0 116303751.4817556 0 0 118367136.4211635 0 0 125312159.4781429 0 0 123290622.2613704 0 0 110868410.1895381 0 0 112057023.0759142 0 0 112000305.8276966 0 0 113470095.8351679 0 0 113566955.1422072 0 0 115473354.1181016 0 0 117596614.7845351 0 0 120369543.3845128 0 0 120007638.2529732 0 0 120390400.4628972 0 0 119454894.3188298 0 0 118923836.2349849 0 0 118695202.2125232 0 0 121628089.703187 0 0 130106285.0198873 0 0 126159626.4261882 0 0 110295589.7733889 0 0 111425257.7426168 0 0 111528729.9292708 0 0 113487290.0612132 0 0 113589241.8217804 0 0 115432227.8290882 0 0 117609146.329431 0 0 120127557.3301228 0 0 120398827.3224563 0 0 120588872.6212369 0 0 120569896.1300661 0 0 119968171.7743165 0 0 120509758.8595321 0 0 120648619.8718288 0 0 124769434.2909523 0 0 137237480.7993423 0 0 132228446.5683652 0 0 128334901.5981783 0 0 111368954.2426968 0 0 112323972.427056 0 0 113312612.6909908 0 0 113082813.8584014 0 0 115206463.7202841 0 0 115273756.1915118 0 0 117175174.798091 0 0 119270465.18983 0 0 123539687.0540066 0 0 123849253.1378375 0 0 123851327.8364636 0 0 122904610.2837913 0 0 123774337.4681851 0 0 123900650.0194868 0 0 126077162.6967259 0 0 144890346.4346511 0 0 137306645.6258985 0 0 133621989.5792275 0 0 110686341.4657325 0 0 111570937.3036729 0 0 112371603.0081675 0 0 114974428.8107085 0 0 114919457.8002888 0 0 117270810.6146413 0 0 119533340.4488877 0 0 122014431.8792018 0 0 123225684.4196291 0 0 122471852.4851488 0 0 123812864.8951354 0 0 124247565.1711005 0 0 121477961.3416888 0 0 124882744.1760544 0 0 130941025.5056509 0 0 154210160.2533734 0 0 145418377.2029766 0 0 138168403.5772178 0 0 133263535.7064014 0 0 111516375.9138851 0 0 112464616.7450885 0 0 113564376.0029079 0 0 114477516.8894243 0 0 116713584.2375916 0 0 116615459.9814411 0 0 118415101.8724716 0 0 120329461.2903627 0 0 127093687.9336323 0 0 125995566.0136637 0 0 127868252.0881369 0 0 128488736.0048991 0 0 124646478.9826848 0 0 129314648.1753342 0 0 130148320.8864867 0 0 169832594.299171 0 0 154081122.5290694 0 0 146415115.8378032 0 0 140512979.8992432 0 0 110871127.0589611 0 0 111797172.0793287 0 0 112796735.1747005 0 0 114109614.4490095 0 0 116015043.234379 0 0 115915479.0869168 0 0 118727749.6365399 0 0 120885803.1903256 0 0 123106643.8547635 0 0 125065677.0799313 0 0 126236672.3266734 0 0 123720384.8605709 0 0 127310849.6475296 0 0 128382588.0011982 0 0 122203243.7908442 0 0 136431009.9115158 0 0 185317793.3673832 0 0 164133409.1017873 0 0 153129035.2613802 0 0 142128709.8312749 0 0 136223915.7705111 0 0 111443803.7512407 0 0 112390150.1599551 0 0 113319312.4432953 0 0 114172223.0153415 0 0 115173438.9845231 0 0 117777704.6286222 0 0 117480784.0361102 0 0 119067352.0867074 0 0 120621560.7895913 0 0 129275353.4569754 0 0 130936314.7304042 0 0 127372752.7527985 0 0 132379831.1383874 0 0 134012534.9957451 0 0 125348458.6511581 0 0 132802699.8772586 0 0 210787431.7088974 0 0 185746207.0160837 0 0 164659822.7768638 0 0 154426797.7558024 0 0 145870017.3056116 0 0 110854999.5312038 0 0 111741205.0408657 0 0 112700019.521824 0 0 113626298.4318855 0 0 115249394.0910678 0 0 116734869.8852832 0 0 116437367.9233873 0 0 119592692.0059425 0 0 121466890.8594989 0 0 123257163.5110403 0 0 125839605.2480826 0 0 127587929.2274408 0 0 129178010.4712615 0 0 123965917.0078349 0 0 130737828.4554228 0 0 122009414.0447147 0 0 140533752.9049181 0 0 229739821.3997296 0 0 210215016.1951931 0 0 172028981.9896459 0 0 157728938.6018648 0 0 143727330.1712374 0 0 137034384.6874184 0 0 111211396.8365373 0 0 112110604.4894958 0 0 113170946.4423228 0 0 114354372.090631 0 0 114088894.5171544 0 0 115261485.9239867 0 0 118258070.1741656 0 0 117755235.1253658 0 0 119010505.2360264 0 0 120082942.3054043 0 0 130014219.727878 0 0 132518147.2003482 0 0 134892817.2476535 0 0 127423497.0188612 0 0 137313110.583318 0 0 124856888.9701526 0 0 133702525.2151832 0 0 296013209.5179603 0 0 224837250.2614011 0 0 204008564.9216743 0 0 172060370.4111759 0 0 159420689.5923609 0 0 147973823.4616833 0 0 110668668.8257221 0 0 111516404.60441 0 0 112462652.4065954 0 0 113457085.4433921 0 0 115608522.6921976 0 0 116888039.5721842 0 0 116407164.2743682 0 0 119758436.8789413 0 0 121174971.7172433 0 0 122352604.1631137 0 0 125377903.0839003 0 0 127602439.9866927 0 0 129687301.4369345 0 0 131531249.1844304 0 0 123102136.7906033 0 0 120846053.3270402 0 0 142146470.5074263 0 0 268056391.2294126 0 0 199754909.3561425 0 0 155654650.6529121 0 0 140295084.2017155 0 0 134934420.5922202 0 0 110817594.9808965 0 0 111657942.5624789 0 0 112573287.3537332 0 0 113526593.2970417 0 0 114205772.7435592 0 0 115048308.4869388 0 0 118092182.6249709 0 0 117389266.5152341 0 0 118184620.2618763 0 0 118666938.0035847 0 0 129088920.380722 0 0 132216081.0005365 0 0 135317820.9584671 0 0 138492925.5172125 0 0 126023077.2126925 0 0 123113312.5978483 0 0 132609316.3626375 0 0 244815114.507417 0 0 181868178.4840888 0 0 154603390.4276865 0 0 144790541.7333589 0 0 110335238.1014169 0 0 111123308.9268309 0 0 112005766.6355479 0 0 112940342.9499267 0 0 114222527.5330929 0 0 115552990.0517962 0 0 116487471.1935153 0 0 115820849.4744059 0 0 119161401.3720923 0 0 119986565.7250156 0 0 120397293.7573777 0 0 126162517.9075056 0 0 123633899.5476619 0 0 128573525.0672052 0 0 130635495.5882712 0 0 121104417.5312418 0 0 118681425.3284798 0 0 140175434.8905757 0 0 175631885.2102425 0 0 143177799.4273718 0 0 133357018.9556557 0 0 130873398.5564409 0 0 110298414.4700754 0 0 111036523.7995661 0 0 111847697.2154593 0 0 112730874.811697 0 0 113363956.044676 0 0 113863660.4259428 0 0 114330376.1764011 0 0 117262569.9276893 0 0 116367962.6144093 0 0 116615787.1170401 0 0 116426475.0737459 0 0 129862481.7803441 0 0 126422035.6620701 0 0 133391710.0761259 0 0 136827191.4037937 0 0 123164922.7502635 0 0 120177224.0845278 0 0 129738507.4103922 0 0 206303936.2187755 0 0 159592747.3661278 0 0 143313210.5530628 0 0 138211887.0122806 0 0 109885344.5462903 0 0 110587951.4850533 0 0 111356660.2112498 0 0 112205329.9555308 0 0 113048140.7226372 0 0 114131766.0714492 0 0 114963829.1300071 0 0 115500085.9576649 0 0 114669173.8566521 0 0 117790043.6449268 0 0 117925226.8715363 0 0 117472936.4939757 0 0 125845039.8102769 0 0 123270279.0139019 0 0 120609690.5122111 0 0 128118047.6713461 0 0 118023048.9975379 0 0 115610774.5435755 0 0 135608610.6193101 0 0 146856537.9636962 0 0 126300115.816411 0 0 124441039.8815764 0 0 125685912.8386902 0 0 109701609.0629487 0 0 110344698.1811815 0 0 111047202.9944669 0 0 111921942.4726867 0 0 112995374.8572272 0 0 112591492.1413457 0 0 112943301.4195981 0 0 113108245.2292584 0 0 115776805.5719256 0 0 114717017.8187722 0 0 114369934.3550841 0 0 113452794.066759 0 0 129062891.9194065 0 0 125561854.6271864 0 0 122161125.5182893 0 0 132590608.3283491 0 0 119008677.1952528 0 0 116191575.3505465 0 0 125458208.1155488 0 0 157962269.3616416 0 0 132531643.3564822 0 0 129430069.6383153 0 0 129463443.324143 0 0 109347110.6651665 0 0 109981566.362696 0 0 110652377.7209112 0 0 111402965.4743945 0 0 112193231.6736868 0 0 113474136.3651413 0 0 113853168.3481114 0 0 113963473.8877185 0 0 112990084.9073608 0 0 115693817.2151797 0 0 115078561.8177003 0 0 113738280.1490555 0 0 123923216.1793335 0 0 121627832.6526954 0 0 119031843.7754556 0 0 116421912.6858632 0 0 113973206.8015097 0 0 111793239.1657164 0 0 128115033.0787591 0 0 113203428.827994 0 0 109578332.6454507 0 0 116036237.9129984 0 0 119460075.1415898 0 0 109042321.7979046 0 0 109594769.2249704 0 0 110152769.1364073 0 0 110736978.9710297 0 0 111353247.1554987 0 0 111694509.7880214 0 0 111692029.9568272 0 0 111433615.917601 0 0 113696560.0661318 0 0 112503625.1192684 0 0 111527612.2848705 0 0 109898039.5668364 0 0 125822826.2053352 0 0 122758544.0083825 0 0 119615653.1399891 0 0 116591522.7034023 0 0 113835607.269371 0 0 111427046.3317534 0 0 119655867.5712872 0 0 105813880.6549396 0 0 103726799.8703944 0 0 113146442.9078173 0 0 118402478.4762856 0 0 108743872.3948051 0 0 109319227.7241175 0 0 109874594.2055097 0 0 110459983.3680467 0 0 111174124.3826709 0 0 112036489.2746349 0 0 112413307.7576712 0 0 112318111.3077813 0 0 111931666.4197218 0 0 110844299.6035101 0 0 112975055.4574261 0 0 111612463.4997663 0 0 109429179.4227866 0 0 118171217.6166372 0 0 116017535.2380541 0 0 113648989.5952624 0 0 111314011.6426025 0 0 109214519.2039092 0 0 107469546.0331097 0 0 118575992.1492135 0 0 80280550.11801429 0 0 101748845.9558937 0 0 110622838.86615 0 0 112532767.816542 0 0 108356201.2744865 0 0 108710594.4578826 0 0 109248361.218215 0 0 109681890.8784026 0 0 110192443.0608453 0 0 110431493.3416066 0 0 110450048.9902482 0 0 110048292.1660802 0 0 109386594.109662 0 0 111129510.9615031 0 0 109829453.9877087 0 0 108240958.0659988 0 0 105934641.1245449 0 0 117126034.9333889 0 0 114891854.6550824 0 0 112473953.9551505 0 0 110153987.9115146 0 0 108032937.2619715 0 0 106219397.5401436 0 0 112383493.8992276 0 0 59440587.77104331 0 0 82354253.19628121 0 0 102859997.0786906 0 0 108426307.973112 0 0 108115546.7956966 0 0 108705153.8082821 0 0 109086696.5180228 0 0 109548587.1506456 0 0 109992759.1667834 0 0 110315344.7769939 0 0 110955386.018926 0 0 110868909.5385756 0 0 110380687.8413205 0 0 109526917.5519911 0 0 108357386.3466537 0 0 109779081.662631 0 0 107695887.2924998 0 0 104756279.4555213 0 0 111079801.3266306 0 0 109360283.5468249 0 0 107444096.1101759 0 0 105666382.9480702 0 0 104093685.7600747 0 0 102795997.5723777 0 0 108234242.323041 0 0 41062159.00073921 0 0 83874218.66821294 0 0 101092065.3222021 0 0 101501994.4398604 0 0 103259348.7289876 0 0 108086117.3019616 0 0 107881519.516778 0 0 108287136.6370919 0 0 108635379.3507376 0 0 108819059.2196462 0 0 109883842.7010483 0 0 109253966.8235288 0 0 108834219.6007916 0 0 108099606.740837 0 0 107075989.8530834 0 0 108204626.5947749 0 0 106805128.9617846 0 0 104665640.7219115 0 0 101775607.2589266 0 0 107520296.4321791 0 0 106166887.4849748 0 0 104707805.5469663 0 0 103275803.917143 0 0 101996247.130725 0 0 100955248.051158 0 0 103828731.2913061 0 0 37104899.12283288 0 0 62228517.68348023 0 0 84951454.42656334 0 0 98960959.60959099 0 0 96801193.95085935 0 0 108118999.1155564 0 0 108645974.8092949 0 0 107865148.114857 0 0 108848256.5403112 0 0 109253671.7351197 0 0 108635734.3982087 0 0 109543843.3849683 0 0 109012113.2803785 0 0 108145220.9286568 0 0 106855924.2812167 0 0 105606304.111208 0 0 106246580.1823409 0 0 103565101.5382889 0 0 100082163.157899 0 0 103091741.6912729 0 0 101918125.3818235 0 0 100809564.1491567 0 0 99678720.66129722 0 0 98787416.52826568 0 0 98107261.28682649 0 0 97344722.26845686 0 0 26135629.81865102 0 0 62340696.28311349 0 0 87136639.87052187 0 0 88810998.71234858 0 0 93742180.14416294 0 0 107550816.8295682 0 0 108027241.2993172 0 0 108322302.3291506 0 0 107927331.7875415 0 0 108730882.2595346 0 0 107947042.3710557 0 0 107096597.714853 0 0 105960691.3498043 0 0 104592175.5936428 0 0 105041783.1035327 0 0 103579276.843901 0 0 101022839.7586651 0 0 97735840.71605934 0 0 97357171.80339834 0 0 97213657.4546365 0 0 96813076.70923504 0 0 96478665.18736626 0 0 96081537.4969119 0 0 95792052.26967153 0 0 94410109.06958142 0 0 56268087.97275771 0 0 48723244.60971225 0 0 68774383.15650505 0 0 86053375.46065754 0 0 82136252.75315236 0 0 107802310.1158688 0 0 107313523.9494933 0 0 107880718.3243407 0 0 107289262.5867775 0 0 107896935.1669202 0 0 106943713.4264534 0 0 105660225.7983703 0 0 103994391.469319 0 0 102698108.8275622 0 0 102622535.9453676 0 0 99532662.08698834 0 0 95608542.48741594 0 0 94452199.51073936 0 0 94332338.32678621 0 0 94097656.86438191 0 0 93864778.82867053 0 0 93763119.56681256 0 0 93794951.6883488 0 0 85393021.1533415 0 0 36312808.99137289 0 0 56096719.46284842 0 0 68813823.91629252 0 0 71417021.45377646 0 0 82239895.83556388 0 0 82035709.63592641 0 0 107273201.0178466 0 0 106721217.8768133 0 0 107115040.0307381 0 0 106370533.0710109 0 0 105161125.9632871 0 0 103684059.1911366 0 0 101754771.5108562 0 0 101954191.2309478 0 0 100378378.6505299 0 0 97457018.60483667 0 0 93939437.32937726 0 0 87123955.53819297 0 0 88398363.75417884 0 0 89290126.49717985 0 0 90047115.92686848 0 0 90609485.59395128 0 0 91161033.12896051 0 0 84806148.18261944 0 0 79953100.10042782 0 0 39767618.63804497 0 0 56795458.35187425 0 0 68349483.23076001 0 0 75869514.68557672 0 0 68175519.3093006 0 0 106477331.7379751 0 0 105824728.517409 0 0 106033547.3909725 0 0 104670674.3670654 0 0 103014730.0358521 0 0 101491281.1651699 0 0 99980700.70432898 0 0 99028753.82158667 0 0 95678619.46750939 0 0 91699336.51655158 0 0 86045627.11706933 0 0 86879959.15476441 0 0 87744906.76908554 0 0 88518046.03577134 0 0 89335662.93459506 0 0 90090963.98683718 0 0 74167623.63641098 0 0 46796304.4539537 0 0 50982091.98307604 0 0 49165853.69953266 0 0 57004320.84935472 0 0 67276221.41610004 0 0 64032450.88661294 0 0 105461837.5527744 0 0 104683872.581968 0 0 103301491.662816 0 0 101492144.8524048 0 0 98888182.25847124 0 0 98793440.48352864 0 0 97340027.00811395 0 0 94276004.79237288 0 0 90936808.79686236 0 0 78206402.3713364 0 0 80582449.68920848 0 0 82636886.33175191 0 0 84331329.36805975 0 0 85801754.2581571 0 0 87153794.70637469 0 0 75975895.97298224 0 0 73681850.97258459 0 0 91601126.79828309 0 0 31433836.88919237 0 0 44726168.71251473 0 0 48545288.1514544 0 0 62920674.97462991 0 0 56705431.81366447 0 0 104088593.6363824 0 0 102406004.9269165 0 0 99999624.69541378 0 0 99486491.5774769 0 0 98609255.56338724 0 0 95802010.27579974 0 0 92076052.87177737 0 0 88374165.66006862 0 0 78284752.24551471 0 0 80386120.76654252 0 0 82264917.39020546 0 0 83894503.90872124 0 0 85351079.01814955 0 0 86697178.57648638 0 0 69437498.09212135 0 0 64951843.54053566 0 0 51470119.71547806 0 0 37356764.18978248 0 0 48145682.36493556 0 0 32436420.40091068 0 0 44933923.89445579 0 0 56859176.84501383 0 0 48815138.64995467 0 0 97314092.32521075 0 0 95705532.13476188 0 0 93420565.73167868 0 0 93123376.36377405 0 0 87423359.04423286 0 0 70862650.76484455 0 0 74255881.130623 0 0 77200339.35987559 0 0 79713412.35542923 0 0 81868321.85430199 0 0 83703890.40683308 0 0 68506335.68456465 0 0 62305035.15945169 0 0 26470887.12287374 0 0 32084911.22858374 0 0 32446219.15236285 0 0 34648577.00401762 0 0 50735596.44544816 0 0 47407150.54547072 0 0 96681793.55894698 0 0 95467581.00305769 0 0 89941165.29129715 0 0 85525833.25773065 0 0 89511120.16788049 0 0 72128549.58569098 0 0 75169829.01728386 0 0 77840607.43498789 0 0 80065192.35561368 0 0 82070115.03635822 0 0 83888166.86424293 0 0 60127106.52607705 0 0 53678835.0492732 0 0 25351390.95078494 0 0 24838373.22859786 0 0 34975631.80655549 0 0 52253190.38782538 0 0 38123092.18565588 0 0 94851921.53000475 0 0 93690879.59863943 0 0 90717271.69423608 0 0 84969310.26751281 0 0 87281911.4159735 0 0 65093643.34081691 0 0 69461076.97819424 0 0 73099836.13526477 0 0 76159666.01243877 0 0 78682148.45901693 0 0 80919874.89110307 0 0 63378912.71932173 0 0 58761322.58240107 0 0 26028088.23483564 0 0 28771571.28390083 0 0 44145576.57658302 0 0 41107604.17457383 0 0 91781305.63329116 0 0 88791231.17339903 0 0 86753903.60377197 0 0 82980346.81155406 0 0 67774906.10186033 0 0 71416171.40372841 0 0 74619805.81381245 0 0 77076185.20798327 0 0 79646998.99306537 0 0 81808616.70269194 0 0 55826807.47540127 0 0 49325123.70084801 0 0 31368312.95557391 0 0 47379928.9247816 0 0 34639178.98639528 0 0 84365718.76434906 0 0 83786601.57715423 0 0 61791729.93035515 0 0 66649583.45962241 0 0 70460226.5977734 0 0 73811862.74091394 0 0 76311895.07743114 0 0 78836572.66347006 0 0 61225470.15126101 0 0 55185186.69955536 0 0 42361016.95279611 0 0 38048836.10689331 0 0 81093260.92618814 0 0 65273393.60833838 0 0 69289599.17303813 0 0 72399029.9834155 0 0 75423174.38853578 0 0 78078745.55175291 0 0 80594554.50747913 0 0 55696846.89309499 0 0 48117076.26239191 0 0 44434701.57298277 0 0 60886238.38850269 0 0 65576919.25519252 0 0 69323000.49657878 0 0 72315832.19995631 0 0 75104353.02444746 0 0 77673197.53523847 0 0 55472751.97575497 0 0 60923743.55326133 0 0 49841416.35768512 0 0 64233926.4636027 0 0 67869632.39816141 0 0 71525564.69599363 0 0 74805938.46454759 0 0 77524318.04985625 0 0 51927237.36909047 0 0 58276355.43338972 0 0 49593796.16951536 0 0 62157502.79162927 0 0 65736776.73460515 0 0 68798103.20840022 0 0 72203928.19832778 0 0 74888270.4157206 0 0 54672912.13111524 0 0 58033885.45483393 0 0 63044732.60442809 0 0 66023733.56909227 0 0 69367788.32561168 0 0 71500858.43050779 0 0 75163500.0134141 0 0 59221892.65225416 0 0 62024165.87953135 0 0 65765361.26086833 0 0 68243287.95526141 0 0 70587202.17579137 0 0 72946478.03603065 0 0 63187908.26872716 0 0 66535770.33011575 0 0 68467796.60577704 0 0 70876466.4009337 0 0 73574354.53758124 0 0 69548497.99475813 0 0 70946986.14569344 0 0 72151632.63040686 0 0 72106217.31488028 0 0 </DataArray>
      </CellData>
      <PointData>
        <DataArray type="Int64" IdType="1" Name="vtkOriginalPointIds" format="ascii" RangeMin="0" RangeMax="498">55 3 484 56 108 439 54 57 309 498 102 53 316 58 94 310 456 397 52 313 59 317 311 312 315 488 91 51 314 60 320 318 449 382 448 450 465 50 486 61 85 321 491 209 187 399 250 272 383 49 184 62 323 322 426 206 167 376 233 234 478 83 48 173 63 96 324 483 251 240 157 166 185 227 337 495 339 47 402 64 330 459 427 438 420 156 150 168 186 228 338 446 46 268 151 255 65 81 271 226 306 265 148 348 149 373 229 230 93 431 45 476 225 236 242 66 340 347 393 203 417 424 140 147 308 395 261 231 327 464 244 44 202 414 243 67 98 341 444 208 201 217 354 139 136 152 400 196 392 294 328 466 245 43 182 409 246 68 355 342 343 475 388 181 353 235 135 416 128 408 262 396 474 104 451 257 247 42 170 377 248 4 86 345 344 404 389 153 141 133 124 326 305 125 263 127 69 291 440 423 41 154 130 303 70 356 367 346 442 183 163 142 134 132 122 121 197 304 126 129 71 89 292 169 40 155 131 433 99 357 366 365 479 165 164 381 407 137 120 380 119 325 219 378 72 109 110 112 39 349 138 114 375 358 359 362 178 177 198 350 411 145 118 405 379 116 336 334 73 79 111 113 38 237 146 115 105 368 360 361 363 437 199 200 413 162 160 117 123 412 418 335 218 74 289 452 207 37 352 161 385 485 384 369 374 364 477 210 204 205 415 398 175 143 144 188 421 429 428 75 288 494 454 2 419 176 332 90 36 468 100 473 471 391 232 239 238 195 193 158 159 394 241 266 307 76 279 286 333 35 371 422 194 174 277 34 370 458 302 301 425 222 221 387 171 172 189 220 430 443 77 278 280 463 33 88 275 445 299 106 282 32 441 432 80 351 273 274 447 179 180 190 401 249 252 78 300 281 284 31 493 254 480 461 283 295 30 29 28 97 293 462 290 331 191 192 213 215 253 0 492 469 285 27 256 260 5 95 287 482 26 472 82 298 216 211 212 214 406 410 6 481 455 489 460 259 390 7 436 25 24 490 23 258 372 223 224 270 470 8 84 92 296 297 9 22 329 267 264 269 453 319 10 21 87 467 11 496 457 276 435 103 20 12 386 101 497 434 19 13 403 14 15 107 18 16 487 17 1 </DataArray>
        <DataArray type="UInt8" Name="vtkGhostType" format="ascii" RangeMin="0" RangeMax="0">0 0 0 0 0 0 0 0 0 0 0 0 0 0 0 0 0 0 0 0 0 0 0 0 0 0 0 0 0 0 0 0 0 0 0 0 0 0 0 0 0 0 0 0 0 0 0 0 0 0 0 0 0 0 0 0 0 0 0 0 0 0 0 0 0 0 0 0 0 0 0 0 0 0 0 0 0 0 0 0 0 0 0 0 0 0 0 0 0 0 0 0 0 0 0 0 0 0 0 0 0 0 0 0 0 0 0 0 0 0 0 0 0 0 0 0 0 0 0 0 0 0 0 0 0 0 0 0 0 0 0 0 0 0 0 0 0 0 0 0 0 0 0 0 0 0 0 0 0 0 0 0 0 0 0 0 0 0 0 0 0 0 0 0 0 0 0 0 0 0 0 0 0 0 0 0 0 0 0 0 0 0 0 0 0 0 0 0 0 0 0 0 0 0 0 0 0 0 0 0 0 0 0 0 0 0 0 0 0 0 0 0 0 0 0 0 0 0 0 0 0 0 0 0 0 0 0 0 0 0 0 0 0 0 0 0 0 0 0 0 0 0 0 0 0 0 0 0 0 0 0 0 0 0 0 0 0 0 0 0 0 0 0 0 0 0 0 0 0 0 0 0 0 0 0 0 0 0 0 0 0 0 0 0 0 0 0 0 0 0 0 0 0 0 0 0 0 0 0 0 0 0 0 0 0 0 0 0 0 0 0 0 0 0 0 0 0 0 0 0 0 0 0 0 0 0 0 0 0 0 0 0 0 0 0 0 0 0 0 0 0 0 0 0 0 0 0 0 0 0 0 0 0 0 0 0 0 0 0 0 0 0 0 0 0 0 0 0 0 0 0 0 0 0 0 0 0 0 0 0 0 0 0 0 0 0 0 0 0 0 0 0 0 0 0 0 0 0 0 0 0 0 0 0 0 0 0 0 0 0 0 0 0 0 0 0 0 0 0 0 0 0 0 0 0 0 0 0 0 0 0 0 0 0 0 0 0 0 0 0 0 0 0 0 0 0 0 0 0 0 0 0 0 0 0 0 0 0 0 0 0 0 0 0 0 0 0 0 0 0 0 0 0 0 0 0 0 0 0 0 0 0 0 0 0 0 0 0 0 0 0 0 0 0 0 0 0 0 0 </DataArray>
      </PointData>
    </Piece>
  </UnstructuredGrid>
</VTKFile>
