<?xml version="1.0"?>
<VTKFile type="UnstructuredGrid" version="2.2">
  <UnstructuredGrid>
    <Piece NumberOfPoints="1812" NumberOfCells="3467">
      <Points>
        <DataArray type="Float64" NumberOfComponents="3" format="ascii">0.3290772530756401 0.02466093080544896 0 0.33 0 0 0.3477603422905586 0.01839861105341754 0 0.3548148148147337 0 0 0.3507861334052509 0.04005222258411303 0 0.3672204995160676 0.0214932438341765 0 0.3263141726786753 0.049183947676368 0 0.3796296296294943 0 0 0.3448127603585294 0.06610442189858874 0 0.3780611605573652 0.0425232455597328 0 0.3919769333065202 0.02151903925177228 0 0.404444444444236 0 0 0.3217262110736951 0.07343190797033793 0 0.3650109033840933 0.05964178392983693 0 0.4165442445722782 0.02058052294532029 0 0.429259259258989 0 0 0.3391261126044723 0.09007757257192724 0 0.3649055898503318 0.08365216733339799 0 0.3864888727489889 0.06587686227335215 0 0.4058761818286128 0.04596939215959448 0 0.4405772947657787 0.02080084709985549 0 0.3153390260015787 0.09726920725684815 0 0.4285630946167989 0.03820887713581589 0 0.4540740740737054 0 0 0.331389782007059 0.1159582995615523 0 0.3533509462037517 0.1047617729990905 0 0.3914107554151015 0.09134599131653218 0 0.4098477245426514 0.07378689454961446 0 0.4284315989202339 0.05863137714667976 0 0.4668525492439451 0.02196851156224951 0 0.4480127478803628 0.04291429821036039 0 0.3071883371964377 0.1205625376743858 0 0.3729245579637736 0.1079930397932544 0 0.4788888888884407 0 0 0.316989419971821 0.1387378323742147 0 0.3551548351400844 0.1251882976242687 0 0.4149291095989798 0.09936475714925143 0 0.3964254772509267 0.1158107081002692 0 0.4334400653383186 0.08289615664424299 0 0.4522340780300758 0.06660495341394826 0 0.4912962962958274 0.01450852355969636 0 0.4708385766176657 0.04956002347906797 0 0.5037037037032137 0 0 0.297319726619258 0.1431816334696936 0 0.3381281364473843 0.1417027333316622 0 0.3779400200285454 0.1323558881973517 0 0.4916193393547786 0.03491121915192943 0 0.5155147264493944 0.02209116480758801 0 0.3076477269636628 0.1624242386286197 0 0.3256145625129711 0.1581321093557302 0 0.3593233659322229 0.1490653393899266 0 0.4384446285536586 0.1071604122177423 0 0.4199361642825134 0.1236123261958419 0 0.4014488670649475 0.1400839342300094 0 0.4569596620756636 0.09069448160533503 0 0.4754804443950108 0.07422038363777612 0 0.4938730199048005 0.0581428547956639 0 0.528518518517892 0 0 0.2857883835153974 0.164999999538352 0 0.3427596712612405 0.165791343527768 0 0.382932978999989 0.156603801948471 0 0.5105263283628497 0.04530514595357993 0 0.5409271608251781 0.02148954704998107 0 0.5533333333326754 0 0 0.2973950200830063 0.1848972762637482 0 0.3225478579207471 0.1820043989163864 0 0.3642198883290629 0.173633414191809 0 0.4619603416931678 0.1149647770553633 0 0.4434483566177251 0.1314306902588108 0 0.4249419354473413 0.1478986675760378 0 0.406433913964339 0.1643630990332189 0 0.4804826420516641 0.09849633850217543 0 0.4990134146757 0.08202294354339053 0 0.5342389869493429 0.04587637116373335 0 0.5173855691559318 0.06550411984898497 0 0.5657407600236528 0.0203200943508097 0 0.2726587958555121 0.1858956186751646 0 0.3457277194962421 0.190697135196451 0 0.3878720693808646 0.1810194001096686 0 0.5538405116648929 0.0374116160697384 0 0.5781481481473866 0 0 0.2855771411838927 0.2101435945636222 0 0.3090199521256669 0.2016582935559767 0 0.3271293505021492 0.2071132266495216 0 0.3691115430207552 0.1983427621748444 0 0.4669690804670152 0.1392322812528209 0 0.4854920779879626 0.122765886163247 0 0.448451079291724 0.1557030613108026 0 0.4299341026991274 0.1721686521936192 0 0.4114213047943107 0.1886231928901923 0 0.5040115358579571 0.1062970267608967 0 0.5225520835271635 0.0898153757609518 0 0.5411581918168266 0.0731569899800829 0 0.5594640016454442 0.05772361831126684 0 0.5905647037920246 0.02124064458802897 0 0.5760353844308249 0.04099873564183429 0 0.6029629629621371 0 0 0.2580043896129065 0.2057516341137332 0 0.3505024454469452 0.2147945080109271 0 0.3928197339843233 0.2054138279563803 0 0.6147850966795247 0.0207394917559048 0 0.6277777777768812 0 0 0.2660354752083496 0.2294035904898122 0 0.3095105846892885 0.2225772540929119 0 0.3315470401577503 0.2306871043840231 0 0.3741128864144216 0.2225193637513387 0 0.4719761752458378 0.1635070506703933 0 0.4905031301309139 0.1470339805126678 0 0.5090257377270575 0.1305709128955582 0 0.4534471286896889 0.1799734770973241 0 0.4349250294854342 0.196430402345225 0 0.4164118842229841 0.2128829309449493 0 0.5275762672643628 0.1140632179156658 0 0.5461520790886206 0.09748538663253746 0 0.5647167515539725 0.08095681941184017 0 0.5835061993874543 0.06435055757990225 0 0.6036031497470141 0.04490015421878021 0 0.6389935515711938 0.01969725786343581 0 0.241907118200752 0.2244570029288625 0 0.2895171280496962 0.237776273081605 0 0.3555897160792275 0.2391239874341718 0 0.397780528194028 0.2297465081110407 0 0.6254137307624507 0.0371588052115315 0 0.6525925925915987 0 0 0.2477497814038131 0.2484777948331383 0 0.2714181047242128 0.2559296731647976 0 0.3135612023329354 0.2471120632699129 0 0.3371029200933782 0.2555550241059145 0 0.3791268859013064 0.2467270796406775 0 0.4769763191459779 0.187794118611364 0 0.4955154421270967 0.1713139111474323 0 0.5140502559661635 0.1548365952468509 0 0.5325803252316177 0.1383587982966326 0 0.4584475874640624 0.2042510512426852 0 0.4399137625501233 0.2206934587113098 0 0.4213175571010657 0.237392427432306 0 0.5511358421537609 0.1218518071474183 0 0.5697111576517748 0.1052963081152184 0 0.5882762940738013 0.08876926695240489 0 0.6068288941120608 0.07226935938244233 0 0.6262219233571705 0.05670904074539614 0 0.6649854432336192 0.02343654994834422 0 0.6455467477117767 0.04131957653036501 0 0.22445700400432 0.2419071172028733 0 0.2950911061181822 0.2641090809555035 0 0.3605777547330665 0.2633520910735562 0 0.4026083956222111 0.2543695373376331 0 0.6774074074063781 0 0 0.2286900013370919 0.2656901975130597 0 0.2525403453415387 0.2732222059223987 0 0.2764973199697249 0.2805542187655542 0 0.3185984348893173 0.2719676429995195 0 0.342063182728248 0.279783547045302 0 0.3840658430999134 0.2711555390534485 0 0.5005211120907932 0.1956065047283605 0 0.4819830695232344 0.2120751411741752 0 0.5190604087612074 0.1791261434602389 0 0.537599929523483 0.1626421992328058 0 0.5561391558405526 0.1461554053229105 0 0.4634382223477083 0.2285453859970476 0 0.4448804873974853 0.2450512934300566 0 0.4262158747236889 0.2617756206105378 0 0.5747044892585571 0.1296314418938163 0 0.593277218748149 0.1131002279582561 0 0.6118395046641179 0.09658709893633116 0 0.6303914673611982 0.08008502031252557 0 0.6490641336929408 0.06403846605012915 0 0.691186411328102 0.01996498724632402 0 0.667410070040239 0.04874020447399106 0 0.2057516351193665 0.2580043888109407 0 0.3000337548840351 0.288383010769096 0 0.3655091041552007 0.2875162156121827 0 0.4075142723438999 0.2785055672440707 0 0.7022222222212797 0 0 0.6835601627090981 0.03819146930941938 0 0.2088575852771715 0.2817950579402375 0 0.2336318670569428 0.2897585344184831 0 0.2577718962753719 0.2974210870654899 0 0.2814416487476838 0.3044737257683682 0 0.3234471018979397 0.2962310105124547 0 0.3470489792382188 0.3040158051398565 0 0.3889369708215286 0.295102155425485 0 0.5240670025708896 0.2034284760041239 0 0.5055237693597227 0.2199092667798214 0 0.4869799268080236 0.2363772162124963 0 0.5426060692224079 0.186939742013663 0 0.5611553769548023 0.1704500373351951 0 0.5797070956114483 0.1539476626527791 0 0.4684397526265293 0.2528396654522703 0 0.449908763620242 0.2693251419679204 0 0.4312779870997517 0.285912713956552 0 0.5982797686920621 0.1374259440782351 0 0.61685316215776 0.1209017554752988 0 0.6354105645313255 0.1044028453174096 0 0.653979972430027 0.08800438322933586 0 0.672469472363607 0.07158917043242669 0 0.7146296296287241 0.01749517124036163 0 0.7044116995835511 0.04041201738612531 0 0.6906625935783905 0.05618246751530409 0 0.7270370370361676 0 0 0.7518518518510555 0 0 0.7394444444436117 0.02149026001989936 0 0.1858956196144319 0.2726587952151305 0 0.3048127041679842 0.3125861474902573 0 0.3705578259618474 0.3117405798810805 0 0.4126385077882504 0.3024926943503115 0 0.7642592592585037 0.02026348918001098 0 0.7766666666659507 0 0 0.1873547267769993 0.2997702288298769 0 0.2143655087014811 0.3063187914065137 0 0.2392090145395759 0.3140144268447695 0 0.2626455874324279 0.3214602668243733 0 0.2861547377859904 0.3289637576199155 0 0.3282831037804361 0.320500934692416 0 0.3520102570076687 0.3282610642755303 0 0.394080651332255 0.3192343444103095 0 0.5290733926024476 0.2277363574680981 0 0.5476239879106712 0.2112457213506971 0 0.5105240240917285 0.2442165355698687 0 0.4919788374860541 0.2606874598003157 0 0.5661743507078075 0.1947531631545617 0 0.5847289639695197 0.1782507555463701 0 0.6032907465045674 0.1617452811287552 0 0.4734411955162263 0.2771618106630103 0 0.4549050335438354 0.2936317920572637 0 0.436375671209584 0.3100956176552973 0 0.6218646104236433 0.1452246915548477 0 0.6404252634698819 0.1287226467197892 0 0.6589894526036082 0.1122124484045718 0 0.6775417642535717 0.09575913774475453 0 0.6961153987166329 0.07919135904457507 0 0.7323344480306977 0.04475924833636961 0 0.7146736259056637 0.06268348218682314 0 0.7518518518510563 0.03574711576688991 0 0.7890740740734019 0.0214902600199008 0 0.8014814814808531 0 0 0.8511111111106724 0 0 0.875925925925582 0 0 0.864234925262936 0.02239881074473123 0 0.8389068005443951 0.01668091821077354 0 0.826296296295737 0 0 0.8164218827675217 0.02530198897405149 0 0.1650000004140786 0.2857883830097964 0 0.3095158779118201 0.3369644455792935 0 0.3755935416461844 0.3359022887252775 0 0.4177896573070337 0.3266821528570411 0 0.7734607443995032 0.039959841486588 0 0.8883333333330139 0.01608823996309471 0 0.8410148017596475 0.03957286496020976 0 0.9007407407404482 0 0 0.9255555555553578 0 0 0.9132565455101189 0.0221396046113784 0 0.1624140856898295 0.3096297665071095 0 0.1968718679678434 0.3222749352005131 0 0.2202679905903537 0.3302995652052025 0 0.2438297294324619 0.338240930807274 0 0.2674664978134838 0.345647672840423 0 0.2908134622526127 0.3534667924596016 0 0.3333240663104564 0.3447242420918695 0 0.3570454161774325 0.3524713822106874 0 0.3991633361203042 0.343538619168294 0 0.5526311324398021 0.2355617326658616 0 0.5340758390222057 0.252049776491689 0 0.5711905053629152 0.2190648905508976 0 0.515522275977881 0.2685402160668147 0 0.4969744511151041 0.2849983315997202 0 0.589750323911194 0.2025639229100756 0 0.6083121105811378 0.1860582823807501 0 0.6268752328959983 0.169553054471469 0 0.4784002353656192 0.3015672815762395 0 0.4598747471597245 0.3179686431459853 0 0.4413689760614288 0.3343696468387066 0 0.6454378078729972 0.1530495528787476 0 0.6640004471696335 0.1365447067959722 0 0.6825656536645762 0.1200343787773243 0 0.7011306357429794 0.1035230865802935 0 0.7196929184340475 0.08701246763238235 0 0.7381502718698443 0.07051363686482595 0 0.7570779941622764 0.05547599946377331 0 0.7978753307413605 0.04457410093641026 0 0.8895138849828448 0.03586285761335464 0 0.8661342330349007 0.0465512781477089 0 0.9371185286786125 0.01643406614311053 0 0.950370370370224 0 0 0.9751851851851336 0 0 0.9604164173529302 0.02261974492386779 0 0.1431816342877394 0.2973197262253079 0 0.1784327828897505 0.3207063683733316 0 0.3145508252903744 0.361220303478173 0 0.3805495922406977 0.3602796834535357 0 0.4227922470941286 0.3510075419151114 0 0.7806259563104214 0.06220808355254275 0 0.8216000083277615 0.05276026237308903 0 0.8462536963992724 0.0620193573193563 0 0.935993754604431 0.03741098118030646 0 0.9818661039166057 0.01818407024132333 0 1 0 0 0.1410187125783315 0.3219593476917742 0 0.1596306368966954 0.3330196511129248 0 0.178959913450931 0.3393369983281462 0 0.2018359521341633 0.3465257614711665 0 0.2252646310084213 0.3544542196516381 0 0.2487551675487775 0.3622349892112589 0 0.272279588662502 0.369929030259873 0 0.2957816799690199 0.377708647561572 0 0.3383752937541185 0.3689584763094209 0 0.3618192501938983 0.3767697661262163 0 0.4041162520852193 0.3679293325438314 0 0.5761995634131735 0.2433877884755007 0 0.5576370559023731 0.2598862606506355 0 0.5390737389911614 0.2763877423346089 0 0.5947611299773874 0.2268873939250825 0 0.5205067651610331 0.2929014506046859 0 0.5019280852997953 0.3094479827899598 0 0.6133212509537825 0.2103859093990888 0 0.6318847795260223 0.1938836883507083 0 0.6504500346294679 0.1773794881146775 0 0.4832614789736361 0.3262548350041869 0 0.4646571233915241 0.3429106457977369 0 0.4461248050584989 0.3593817130233749 0 0.6690153472674223 0.1608740104460699 0 0.6875786117838114 0.1443679846993359 0 0.7061454570424637 0.1278583620524827 0 0.7247112723663174 0.11134611739911 0 0.7432774208189061 0.09483335653366799 0 0.7618452238674751 0.0783172670359394 0 0.8040671634502812 0.06960899402962981 0 0.8932358480385251 0.06255374085947414 0 0.9136335572235775 0.05004009695940603 0 0.8704897227459739 0.07136754625234717 0 0.9795377420586799 0.03825381024092724 0 1 0.02499999999995287 0 0.1205625383695983 0.3071883369235869 0 0.3194844102349649 0.3854794295319147 0 0.385442677220333 0.3845463616812941 0 0.4276267785630697 0.3757597408431024 0 0.7854337321723612 0.08613779333238081 0 0.8277957825782165 0.07726048065504425 0 0.8514827428287817 0.08509226346071952 0 0.9352152905893345 0.06248766295456605 0 0.957567131541738 0.04977783338120937 0 0.1153279426828525 0.336012413988859 0 0.1391935554434067 0.3467590619949619 0 0.1604506364155789 0.3557439817754399 0 0.1833470876569236 0.3629246773030032 0 0.2068093876131531 0.3707497792482791 0 0.23029519428879 0.3785361892531146 0 0.2537851983676759 0.3863481420036806 0 0.2772824732849912 0.394159541562299 0 0.300807931511865 0.4019637278999418 0 0.3428812062822164 0.3932915994965436 0 0.3666213154885916 0.4010710936058159 0 0.4090402226555248 0.3923546989329605 0 0.5997742890855455 0.2512140630295613 0 0.5812074644438787 0.2677190747529451 0 0.5626399474279102 0.2842284720898995 0 0.5440677086981822 0.3007476626081341 0 0.6183333872847133 0.2347106244003826 0 0.5254613583802259 0.317339572168488 0 0.5068553731736789 0.3339334709279783 0 0.636895913886359 0.2182115885330546 0 0.6554636701263493 0.2017129918884271 0 0.6740317110256113 0.1852061092194791 0 0.4882093364445975 0.3506780717540457 0 0.469609825833974 0.3672229639900663 0 0.4510822947229439 0.3836823812930407 0 0.6925890704452877 0.1686884078633445 0 0.7111567354111019 0.1521905368282127 0 0.729719931231585 0.1356678617566468 0 0.7482970399607967 0.1191718262514591 0 0.7668658715475087 0.1026549753048071 0 0.8090892638827476 0.09388108384668306 0 0.913144803251791 0.07932733074366774 0 0.8917698944093132 0.08219160458757216 0 0.8748190929372101 0.09375067264496985 0 0.9784800336079593 0.06272122387550884 0 1 0.04999999999989965 0 0.09726920781918051 0.3153390258281221 0 0.3243459006613066 0.4097649764401416 0 0.3902779269933121 0.4088644186376985 0 0.4325735458286236 0.4001780082744086 0 0.7904610277625698 0.1104393685277462 0 0.8328141761228973 0.1015850698028329 0 0.8565482073811164 0.1092957859343451 0 0.9383777816389591 0.08867376418390693 0 0.9571684556330188 0.0743942333130789 0 0.0908820227038411 0.3391763252588054 0 0.1192670609572117 0.3629810116835155 0 0.141484165168862 0.3716276840463262 0 0.1648510897141037 0.3793361378455522 0 0.1883185800095777 0.3871526458207753 0 0.2117905148634212 0.394966152519339 0 0.2352688712691891 0.4027926232200001 0 0.2587777669153802 0.4106073483746669 0 0.2822935346856642 0.4184193635240298 0 0.3058225000716859 0.4262264574571056 0 0.3478770096022575 0.4175707853482769 0 0.3715046898472574 0.4253680048038152 0 0.4139424361930027 0.4166701156320396 0 0.6047859649576532 0.2755467427788354 0 0.6233507879895808 0.2590395124505624 0 0.5862139185890767 0.292054324791441 0 0.567643268683414 0.3085572488410246 0 0.5490374285679154 0.3251508317255638 0 0.6419109692513969 0.2425358611010147 0 0.5303493505868031 0.3419302267732081 0 0.5117620136695128 0.3584792365212613 0 0.6604731690572219 0.2260511388694739 0 0.6790428907185287 0.2095389724661914 0 0.6976183741856941 0.1929953453139312 0 0.4931648628487288 0.3749983121768699 0 0.4745994341886961 0.3914140839202028 0 0.4560848446483141 0.4079188649836823 0 0.7161489248686774 0.1764744061788924 0 0.7347385472628793 0.1599630373107981 0 0.7533154524979635 0.1434816431502765 0 0.7718882531467617 0.1269980628228628 0 0.8141139211321768 0.1181781283419987 0 0.8987758629632715 0.1005957105551913 0 0.8801553088625974 0.117097954368688 0 0.920994590809072 0.1066346801336122 0 0.9789285260356273 0.08687397750644051 0 1 0.07499999999985282 0 0.07343190839507768 0.321726210976751 0 0.09856833527558084 0.3581691150677636 0 0.329348929467324 0.4340366488424355 0 0.3951162205551634 0.4331762371702663 0 0.4375585056697874 0.4244992664884041 0 0.7955185746908847 0.1347458817535492 0 0.8378519743358006 0.1259022094951245 0 0.8615497790705159 0.1336715981771326 0 0.9598465399105121 0.09913205665393421 0 0.9446335831732777 0.1147517096691806 0 0.06406863068888002 0.3456731966763421 0 0.0790726933584589 0.3639882737073946 0 0.1240002052495442 0.3876435943803863 0 0.0982758092096533 0.3817528354042412 0 0.146507645473521 0.3957468924386381 0 0.169819616045836 0.4035689498087319 0 0.1932908737484338 0.4113975068222208 0 0.2167699420100017 0.4192362505321509 0 0.2402614232974457 0.4270593853240712 0 0.2637713864643558 0.4348761564099787 0 0.2872935207330393 0.4426901059067519 0 0.3108188327590737 0.4505049042838594 0 0.3528767787269951 0.4418491570785931 0 0.3764638734203427 0.449665157959188 0 0.4189120243359719 0.4409778255552058 0 0.6097944638527725 0.2998879753456527 0 0.628370821011916 0.2833749233078766 0 0.6469410392275915 0.2668655428964726 0 0.591219313093129 0.3163907928819155 0 0.5726470790682173 0.3328872786529942 0 0.5540566647229483 0.3494367958719987 0 0.6655052316144523 0.2503665675585153 0 0.5352948954089146 0.36635332588274 0 0.516737680312525 0.3827687495734698 0 0.6840689761179155 0.233867206957901 0 0.702667024183766 0.2173179655306673 0 0.7212838763670747 0.2007374452006669 0 0.4982327290317946 0.3991602769419902 0 0.4797062171258888 0.4155664865267416 0 0.4611160500209806 0.4321986011143346 0 0.7398222890460222 0.1842414539724053 0 0.7583865402886641 0.1677446126051957 0 0.7769498695938802 0.1512840584184919 0 0.8192927899910123 0.1424184707919865 0 0.903606013336135 0.1245981076152737 0 0.8851075257055716 0.1411197837412661 0 0.9274295004909987 0.1318614580344534 0 1 0.09999999999981467 0 0.9797511356289614 0.1118027676995142 0 0.04918394795157357 0.3263141726371947 0 0.3343560053762801 0.4583184011639614 0 0.4003538050365805 0.4574620361275121 0 0.4425182873018102 0.4487745096171368 0 0.8006422164690581 0.1590173929780209 0 0.8429364223141067 0.1502239181582554 0 0.866500882310541 0.157983455440999 0 0.9629779202881751 0.1232702243959762 0 0.9515738227516191 0.1392571593621231 0 0.03839907693726518 0.351936187631331 0 0.05469448199863473 0.3699390237956708 0 0.07073102724879157 0.3883578467501009 0 0.1276699542868539 0.4122573012806752 0 0.1097924908798322 0.4031345907384097 0 0.1512208423759261 0.4200476872701573 0 0.1747435115760374 0.4278555505413203 0 0.1982393390795901 0.435685440453167 0 0.221739147960874 0.4435104480863048 0 0.2452442282124253 0.4513348375264268 0 0.2687607906830984 0.4591544995014732 0 0.2922847931602404 0.4669750747755249 0 0.3158169243074882 0.4747928331116292 0 0.3579873038273714 0.4661206811986364 0 0.3816433454252693 0.4739326556440995 0 0.4239774044135646 0.465275889968002 0 0.6333814948899742 0.3077263502701703 0 0.6148020521007626 0.3242311698600224 0 0.6519660865974358 0.2912095449212653 0 0.6705426410688288 0.2746975446842513 0 0.5962217832093133 0.3407264756884943 0 0.5776475433039879 0.3572262171495246 0 0.5589750485558675 0.3738757606252139 0 0.6891172266578215 0.2581917026817414 0 0.5403753418020059 0.3904664586643635 0 0.5218346211614495 0.4069887956573577 0 0.7076958581340058 0.2416600577187316 0 0.7262921695793786 0.2251087655265817 0 0.7449173306921848 0.2085503048466248 0 0.5033535585534797 0.4232252337972989 0 0.4847443318701203 0.439799534592894 0 0.4661319647283493 0.4564509160121381 0 0.7635117250657314 0.1920179553020634 0 0.7820435006125145 0.1755477531849621 0 0.8243122323384033 0.1667927203023511 0 0.9090868195129675 0.148223415014632 0 0.8903434502373557 0.1652217953182105 0 0.9327932446176901 0.1559121501855273 0 1 0.1249999999997738 0 0.9760818880138178 0.1395466186140394 0 0.0246609309410076 0.3290772530654814 0 0.08981445595792484 0.4050596014309591 0 0.3393996715587021 0.4825993537465607 0 0.4053241753922234 0.4817553074065661 0 0.4475437313226527 0.473014887360181 0 0.8057363315876531 0.1833154734167846 0 0.8479000304776806 0.1745446567126481 0 0.8716579911047823 0.1819588569840351 0 0.9579564497087876 0.1641613808417229 0 0.01840467357416554 0.3477661511690116 0 0.0368681824275823 0.3760889201784264 0 0.04723601827855266 0.3933675051415201 0 0.06209613988623114 0.4130185081326868 0 0.1069688165291733 0.4257523976790194 0 0.1326480233007362 0.4365162404567949 0 0.156175300575115 0.4443231987278488 0 0.1796955550125701 0.4521392662176059 0 0.2031970041696235 0.4599736205193997 0 0.2267153892320009 0.4677998681105761 0 0.2502348127180882 0.4756195118726351 0 0.2737485883460608 0.4834419806455224 0 0.2972750455414594 0.4912678239594332 0 0.3208161074897887 0.4990900286640176 0 0.3630593261672364 0.4903921712098093 0 0.3866957976961297 0.4982304333671038 0 0.4289836983067584 0.4895778093888185 0 0.6569786557194911 0.3155651813803206 0 0.6383934661402707 0.3320771095746967 0 0.6198079475337974 0.3485814293166021 0 0.6755659962197759 0.2990428360271801 0 0.6941509010468223 0.2825255395105168 0 0.6012184369631388 0.3650753336362814 0 0.5826322925652181 0.3815804581769059 0 0.5639972723186633 0.3981409760705126 0 0.7127425477604943 0.2659897671929058 0 0.5454125330546156 0.4146711441768869 0 0.5269096882632823 0.4310912219344191 0 0.7313275680845164 0.2494496660638966 0 0.7499215086720742 0.2329133610630104 0 0.7685248661662825 0.2163839893744327 0 0.5083523634421144 0.4475555895671607 0 0.48974657928413 0.4641349946529017 0 0.4711228085704017 0.4807829687353807 0 0.7871315193001452 0.1998557308804348 0 0.8293279175988092 0.1911193659878628 0 0.9141003436236392 0.1726171638622248 0 0.8956071391666339 0.1894280968661062 0 0.9373017375337755 0.1804484831962166 0 1 0.1499999999997036 0 0 0.33 0 0.01961697483078856 0.3676233253709071 0 0.08324458500125047 0.4253954162437077 0 0.3444411951983682 0.5068898863163388 0 0.4104188363894256 0.5060849854145028 0 0.4525718370532545 0.4973376279754878 0 0.8106852661622574 0.2076180155142064 0 0.8531448667322521 0.1985881930665873 0 0.8769720503581013 0.2060642525660208 0 0.9816340229511493 0.1630391404180838 0 0.9551537078556818 0.1895113718309231 0 0 0.3548148148148881 0 0.02366547199876628 0.3934299386512741 0 0.03946641553820806 0.4109628226661957 0 0.06675850705545067 0.4380193197495474 0 0.1141103619768384 0.4529622438142493 0 0.1376267912104174 0.4607838857856335 0 0.09058500557747234 0.4451272542263262 0 0.1611370083275241 0.4686082794343558 0 0.1846466193002904 0.4764411947884737 0 0.2081773995062988 0.4842694373648354 0 0.2317070107661483 0.4920885720199666 0 0.2552289802128822 0.4999054358205581 0 0.2787225652067487 0.507739086506318 0 0.3022669212154292 0.5155702459598286 0 0.3258172564422751 0.5233957055230349 0 0.3680169047173962 0.5146907255217028 0 0.3917121980852275 0.5225267550059425 0 0.4339897431838469 0.513890252819179 0 0.6805811231964261 0.32340166587542 0 0.6619913436712916 0.3399256815421926 0 0.6434016558123773 0.3564408489542836 0 0.6248102909769229 0.3729376381858339 0 0.6991700225969415 0.3068785490846949 0 0.7177123314800804 0.2903018714600639 0 0.6062216744079317 0.3894094465814316 0 0.5876385711105234 0.4059107198553349 0 0.5690824653555113 0.4223944508551398 0 0.7362982463825978 0.2737655536649066 0 0.5504887005961514 0.4389135520265802 0 0.5319267152922534 0.4553926915181561 0 0.7548873050131768 0.2572281183219418 0 0.7735171981369354 0.2407324007857291 0 0.7920911522194383 0.2241662235230579 0 0.5133631185334727 0.4719266182625534 0 0.4947531339376178 0.4885624100378834 0 0.4761447617730177 0.50516510979209 0 0.8342860278121946 0.2151238423619227 0 0.9196171270837242 0.1968635406397503 0 0.9010085212086844 0.2135372750333493 0 0.9771947152846163 0.1875659834721558 0 0.9430558036989721 0.2047400567236996 0 1 0.1749999999996307 0 0 0.3796296296297976 0 0.04348039372306706 0.4299211580966209 0 0.3494130825254077 0.5312041428433014 0 0.4153873491178693 0.5303538448525936 0 0.4575577331997529 0.5217185536852725 0 0.8158282555344891 0.2316416965434485 0 0.8582276804855523 0.2226309149195793 0 0.8821861034507039 0.230242178526468 0 0.9616395598737416 0.20455621946396 0 0 0.4044444444446639 0 0.02148279520369024 0.4191625659714191 0 0.04809908011042541 0.4537166734689868 0 0.07205009078900823 0.461579545239191 0 0.1190910212784755 0.4772386238602664 0 0.09557109104249639 0.4694116330158209 0 0.1425897024413112 0.485051627375087 0 0.1661071006513714 0.492892308696283 0 0.1896127201496366 0.5007376405041146 0 0.2131762606468171 0.5085653678754557 0 0.236709891733869 0.516390291775255 0 0.2602209172974992 0.5242170463461419 0 0.283723891435523 0.5320481884892264 0 0.3072612340071453 0.5398819798871085 0 0.3308254908866375 0.5476932662161684 0 0.3730763178943322 0.538996721961866 0 0.3968058176106002 0.546835784388528 0 0.4389884445912844 0.5382210931038973 0 0.6855989708005521 0.347764203153933 0 0.7041376353251456 0.3311200307109858 0 0.6670053716359622 0.3642913702073436 0 0.6484130946674908 0.3808048244579846 0 0.6298304974460733 0.3972719722516866 0 0.7227331355390032 0.3144652778377005 0 0.7412026679735653 0.2978760864104022 0 0.6112513721788508 0.4137237458300841 0 0.592667772667439 0.4302332368044096 0 0.5740812582573308 0.4467332424883904 0 0.759942064410709 0.2813080440587959 0 0.5555039812914796 0.4632332270088725 0 0.5369286078397852 0.4797788314417522 0 0.7785534859770593 0.2647888799409276 0 0.797322496562004 0.2482483868163189 0 0.5183972702741497 0.496325454487629 0 0.4997281145066586 0.5130061449320679 0 0.4811285206919571 0.5295526495991241 0 0.8396991390470105 0.23915412967954 0 0.9256495817562214 0.2210819367510612 0 0.9057840375161944 0.2379309600792439 0 1 0.1999999999995579 0 0.9544360273899093 0.2278712338834097 0 0.9783575451395288 0.2130924514096117 0 0.02241547775361405 0.4457255982648826 0 0.3544929234157252 0.5555076971490536 0 0.420401405655734 0.554701299209581 0 0.4625401922116554 0.5460452665908497 0 0.8210769406332866 0.255770504654629 0 0.8634759150475422 0.2466816630039632 0 0.8871509135317562 0.2545207366891967 0 0 0.4292592592595735 0 0.05350969879468399 0.4780341553108907 0 0.03117837424801704 0.4716251531571973 0 0.07702974174530888 0.4858647390415279 0 0.1240227372404373 0.5015112577278066 0 0.1005436545860326 0.4936852161913819 0 0.1475181496827587 0.5093706765473316 0 0.1710529167628759 0.5171977391986127 0 0.1946011430714606 0.525046639001413 0 0.2181720997698946 0.5328778225435995 0 0.2417196191953195 0.5407058452307174 0 0.2652253062202882 0.5485386961200407 0 0.2887302582461857 0.5563581777308553 0 0.3122950084835824 0.5641693757672958 0 0.3359367884996381 0.5720143961982156 0 0.3782091694143944 0.5633695962481244 0 0.4018429288953189 0.5712148344703981 0 0.4439357847821788 0.5625426428886247 0 0.690618385826852 0.3721310410513988 0 0.7092175522740416 0.3554253806231332 0 0.7279031377864202 0.3386443704541965 0 0.6720173024296745 0.3886630024976299 0 0.6534254411829561 0.4051717093636942 0 0.6348302935024946 0.4216857305330098 0 0.7466133189901567 0.3218564495334593 0 0.765145382130562 0.3054926412598749 0 0.6162311162040709 0.438225858500162 0 0.5976325096608426 0.4547706042203195 0 0.5790482843371216 0.471275463973257 0 0.78372445334852 0.2889181845301052 0 0.5604622938184521 0.4878018264892038 0 0.541907794285134 0.504318959948526 0 0.8024101399449531 0.2723043579662009 0 0.5233209919065851 0.5208363392619575 0 0.5047068872232431 0.5373916561815187 0 0.4861079137346033 0.5538983097053295 0 0.8449183787024126 0.2633511564286316 0 0.9305265643014905 0.2455559707625413 0 0.9108327183427698 0.2623644192024103 0 1 0.224999999999485 0 0.9783493649054522 0.2374999999994485 0 0 0.454074074074455 0 0.01265633469797602 0.4664814814819019 0 0.3595795821704133 0.5798548466969164 0 0.4253508506926837 0.5789975465989979 0 0.4674844071790886 0.5704109193665747 0 0.8262832340088506 0.2799233004936346 0 0.8685200952689911 0.2711060889572628 0 0.954878904464971 0.2534816535021241 0 0.8921968589228046 0.2789495630451255 0 0.0594065613627475 0.5023671740394664 0 0.03681559108962285 0.4956722502853239 0 0.01627669664467032 0.4890828888974428 0 0.08194846435399185 0.5101678537652242 0 0.1054241643666082 0.5180187449207544 0 0.1288898268141743 0.5258796468518273 0 0.1524466141863824 0.5336914794343737 0 0.1759963665787632 0.5415429588093155 0 0.1996074171702327 0.5493610244371214 0 0.2231688021141407 0.5571983709670784 0 0.2467236727160513 0.5650313624364798 0 0.2702334784311506 0.5728715564868236 0 0.2938006997319548 0.5806870290777006 0 0.3173889939954087 0.5885064514685286 0 0.3410387320460618 0.5963547398913315 0 0.3832441340939856 0.5877013273515739 0 0.4067757641642384 0.595518065254654 0 0.4488272797836301 0.5869353325432844 0 0.6956300929661641 0.3964988570600397 0 0.7142761198742451 0.3798430592683468 0 0.733066240988437 0.3627830839267371 0 0.7516509436017379 0.3462160000931636 0 0.6770307788698662 0.4130332375277856 0 0.6584306801821374 0.429571488914069 0 0.639828197140267 0.4460998818076379 0 0.7703381682778933 0.3296454947967 0 0.7889589940639473 0.3130702053432369 0 0.6212322891162607 0.4626312871049095 0 0.602639943395888 0.4791617802848994 0 0.5840459106701786 0.4956840124977444 0 0.8076018241491716 0.2964304573393658 0 0.5654621349794287 0.5122088740850828 0 0.5468868887241904 0.5287164340017172 0 0.5282937438246087 0.5452320360795568 0 0.5096868087796789 0.5617501686361694 0 0.4910714853220879 0.5782565423657824 0 0.8498886459295709 0.2876983069602642 0 0.9345194777485991 0.2702151213417461 0 0.9158814000780666 0.2867976679274566 0 1 0.2499999999994121 0 0.9782803882529871 0.2631802189185795 0 0 0.4788888888893493 0 0.3646638306366188 0.6042123497539433 0 0.4302775659102084 0.6034021462547108 0 0.4724237872403761 0.5947874221055778 0 0.8312622700746785 0.30427320549251 0 0.8735634203386861 0.2955345608695979 0 0.9574466490171454 0.2775247331808742 0 0.8972434240563516 0.3033806937563711 0 0.06389556877225333 0.5265231357510568 0 0.04099107311904938 0.5200679840750897 0 0.0190502886292451 0.5128136781082064 0 0 0.5037037037042373 0 0.08679963481994654 0.5345199903933056 0 0.110340668385067 0.5423485045949812 0 0.1338657588989269 0.5502014820286014 0 0.1574265495312374 0.5580284091486784 0 0.1810083957513302 0.5658598353624222 0 0.2045895348301391 0.573693244280312 0 0.2281698323036109 0.5815232064281389 0 0.2517259396390925 0.5893631815382987 0 0.2752900119035217 0.5971918917205852 0 0.2988664473318794 0.6050247212921157 0 0.3225153188647178 0.6128792472419983 0 0.346087438344956 0.6207179956631808 0 0.3882365916310755 0.6120345960092011 0 0.4117502981503186 0.6198924221768081 0 0.4538012514709782 0.6113214063583159 0 0.7006184103527595 0.4208433247414493 0 0.7192898293899483 0.4042101690385272 0 0.7380781092423282 0.3872693207882335 0 0.756782725504198 0.3705049409137441 0 0.7753908214372119 0.3539800961765073 0 0.6820245809121561 0.4373891721689543 0 0.6634334018090879 0.4539337087516126 0 0.6448215061414201 0.4704483112863773 0 0.7940120218039454 0.3374112321240085 0 0.8126381387144195 0.3208394021630566 0 0.6262304832485388 0.4869828650288552 0 0.6076522706792746 0.503527806132116 0 0.5890436962870513 0.5200305511581854 0 0.5704677989547996 0.5365706217217467 0 0.5518830807274954 0.5530827664410282 0 0.5332905129777327 0.5695984544352163 0 0.5146503095957985 0.5861240130496133 0 0.4960211723091589 0.6026480998374006 0 0.8549311942495411 0.3121155451040616 0 0.9387444297120943 0.2939171881517417 0 0.920931516695279 0.3112313990808915 0 1 0.2749999999993392 0 0.9790846051735232 0.2878207790717968 0 0.3696849538685768 0.6285601831739576 0 0.435232132165836 0.6278117203973526 0 0.4774116478877088 0.619170185856651 0 0.8363009966088302 0.3286893589891072 0 0.8786061207988342 0.3199621939968615 0 0.9603158273593373 0.3018016466823144 0 0.9022882485031691 0.3278131821066076 0 0.06822075955823491 0.5510095643476172 0 0.04511196868381368 0.5448387735916178 0 0.02166646017661383 0.5381928926748674 0 0 0.5285185185191252 0 0.09175879248643939 0.5588491222944362 0 0.1153057155716078 0.5666842044756281 0 0.1388603362264167 0.5745163882254714 0 0.1624346389646312 0.5823511690607924 0 0.1860165166400862 0.5901890665581355 0 0.2095923717648717 0.5980173841843811 0 0.2331702494407522 0.605858952295967 0 0.256750370710937 0.613699935189394 0 0.2803348035260436 0.6215434435860034 0 0.3039252896708921 0.6293865285206608 0 0.3275156694648217 0.6372292771399769 0 0.3511056181234446 0.6450723876236384 0 0.3933174989802973 0.6363930910178786 0 0.416765728270366 0.644270801224227 0 0.4588056491022949 0.6356933648336646 0 0.7056733573641646 0.44505582983184 0 0.7243645772440819 0.4284263093068877 0 0.7430783298766991 0.411666347073474 0 0.761790395240725 0.394998660072213 0 0.7804169156839806 0.37840782738368 0 0.7990430589076037 0.3618273053632355 0 0.687051301618494 0.4616359429351972 0 0.6684696306067571 0.4781649983992496 0 0.6498659372721041 0.4946973936934139 0 0.8176721370312985 0.3452562734455698 0 0.6312426367938165 0.5112531780854381 0 0.6126008152888998 0.5277728876676777 0 0.5940610821959522 0.5443210060637034 0 0.5754645160841024 0.560889434780584 0 0.5568874390333315 0.5774474966715086 0 0.5382789556046588 0.5939695578431663 0 0.5196513875430735 0.610495446087958 0 0.5010273338374925 0.6270200750039683 0 0.8599718367689305 0.3365398539376921 0 0.9433299950925365 0.3183333261875484 0 0.9259045111512834 0.335584568548027 0 1 0.2999999999992664 0 0.9793053585062567 0.3125293719473917 0 0.3747346193364651 0.6529071752675326 0 0.4402085177590328 0.6522064627881019 0 0.4824219054696667 0.6435476141322658 0 0.8413379607019837 0.3531183416933104 0 0.8836498532996081 0.3443905237040605 0 0.9631816573173332 0.3244480856044329 0 0.9072424377726559 0.3521364418539099 0 0.07332786377828848 0.5752983796537241 0 0.04965995951471774 0.567480242832343 0 0.0249834466136083 0.5651528626093364 0 0 0.5533333333340349 0 0.09674629113333985 0.5831635492489901 0 0.1202995322314759 0.5910010870880075 0 0.1438619260270901 0.5988369531349076 0 0.1674341096116265 0.60667636193514 0 0.1910142718493342 0.6145146190024782 0 0.2145897866820808 0.6223551487168084 0 0.2381669067264795 0.6301995848411021 0 0.2617472225305263 0.6380451383868861 0 0.2853302738534718 0.6458941109732877 0 0.3089227236655345 0.653742750957645 0 0.3325253064840016 0.6615852543130244 0 0.3561435024972865 0.6694202961884091 0 0.3983658381531882 0.66073590919907 0 0.4217755321705908 0.6686470060548894 0 0.4638097301798896 0.6600735695466979 0 0.7108010400063446 0.4693270578475873 0 0.7294117247240506 0.4527426002303832 0 0.7481158117568694 0.4360395849256525 0 0.766816542352655 0.4194143902773143 0 0.7854405115607854 0.4028493619330692 0 0.8040719568823037 0.3862715395702241 0 0.8227040856730496 0.369696059772778 0 0.6921935356161347 0.4858525897164934 0 0.6735805317196341 0.5024224975442961 0 0.6549639428832413 0.5189835335225863 0 0.6363420309394155 0.5355144200056596 0 0.6177833071746502 0.5519918237477426 0 0.5991257405618409 0.5686369536155571 0 0.5804981324914821 0.5852355905919382 0 0.5618973407954218 0.6018174714202145 0 0.5432757029603912 0.6183425451920801 0 0.5246548509509411 0.6348683856015194 0 0.5060449438615435 0.651399990000793 0 0.8650133327288214 0.3609698315237279 0 0.9531236649677879 0.3442266817912836 0 0.9305828502323457 0.3600532203643892 0 1 0.3249999999991935 0 0.9783493649054522 0.337499999999157 0 0.3797615314556299 0.6772665981490398 0 0.4452184102284131 0.676582708033471 0 0.4874325970471131 0.6679314364763977 0 0.8463760247410617 0.3775511812289831 0 0.8886951414929454 0.3688217870948846 0 0.9118292369950951 0.3759890111440765 0 0.07818058966719027 0.5996435249157955 0 0.05540079030980872 0.5916442742831634 0 0.03838623718898841 0.5824496453057707 0 0 0.5781481481489228 0 0.1017345219090115 0.6074844702252005 0 0.1252947759976517 0.6153252171622717 0 0.1488627021432321 0.6231658900264534 0 0.1724352512524938 0.6310073339478939 0 0.1960101373004101 0.6388506250090222 0 0.2195821933944969 0.6466922125729971 0 0.2431523941232186 0.6545439789138249 0 0.2667318254315694 0.6624017651405385 0 0.2903236403605666 0.6702533133055605 0 0.3139230764078482 0.678105302628867 0 0.3375365177192305 0.6859505507139364 0 0.3611532981919824 0.6937965450147709 0 0.4033793584280094 0.6851146518424077 0 0.4267869831139907 0.6930374461193747 0 0.4688143396576477 0.6844621815144964 0 0.7345649575848197 0.4770313415892311 0 0.7159113631304042 0.4936440427823794 0 0.7532121197396529 0.4603950180364969 0 0.7718438659668441 0.4438247237915236 0 0.7904723633719652 0.4272681592662371 0 0.8091054078411366 0.4107042650678926 0 0.827739458268675 0.3941301941491444 0 0.6973216157707715 0.5101406465108458 0 0.6786861027901734 0.5267336425537019 0 0.6600664177843052 0.5432800692530084 0 0.6414579396281882 0.5598002138991411 0 0.6228064378481597 0.5763694828691406 0 0.604140967576699 0.5930143836402343 0 0.5855204742135041 0.6096386096011654 0 0.5669079556584624 0.6261935447424414 0 0.5483026600023247 0.642721271150267 0 0.5296780944562514 0.6592536045050564 0 0.5110614215785023 0.6757887281097951 0 0.8700545744599018 0.3854010696095286 0 0.9759124781737945 0.360856907644136 0 0.9521705116159291 0.3714799610271255 0 0.9326759828065196 0.3807850395286783 0 1 0.3499999999991206 0 0.02075322665498634 0.5921571194528482 0 0.3847730366458322 0.7016477224027957 0 0.4502085299801141 0.7009834057249427 0 0.4924417505775523 0.6923227999562013 0 0.8514155483601388 0.4019802006026212 0 0.8937386311899412 0.393253745964711 0 0.9205253414277578 0.4004712168232333 0 0.08316705355004717 0.623964923039969 0 0.06038843474089779 0.6159643402682691 0 0.03988365789851508 0.6055145682335541 0 0 0.6029629629638107 0 0.1067245716698605 0.6318118969259948 0 0.1302861626406518 0.6396565226927227 0 0.1538560798783825 0.6475000906546176 0 0.177429803313966 0.6553446647663955 0 0.2010041757305205 0.663188532484287 0 0.2245677744624026 0.6710469287795713 0 0.2481291040693195 0.6789077388401683 0 0.2717083176523139 0.686766310423504 0 0.2953166513230287 0.6946232392850149 0 0.3189273278311548 0.7024714852203654 0 0.3425418151169876 0.710321757154695 0 0.3661632670696052 0.7181777851752489 0 0.4083741369504623 0.7095025923552655 0 0.431792832847068 0.7174315091860419 0 0.4738192410578559 0.7088551908740551 0 0.7582329148794615 0.4848457527928729 0 0.7395977487247378 0.5014290582719352 0 0.7209687843961012 0.5179901733861971 0 0.7768680722122886 0.4682572252873384 0 0.7955036770030258 0.4516974437779702 0 0.8141385724700803 0.4351276641694067 0 0.8327767604527332 0.4185595385116759 0 0.7023420748730158 0.5345451230923752 0 0.6837181060577385 0.5510980167532773 0 0.6650954260860554 0.5676496129576578 0 0.6464756228838012 0.5841892860205143 0 0.6278437904717107 0.6007553090477934 0 0.609196881877285 0.6173828206069083 0 0.5905361402522431 0.6340417618833771 0 0.5719244862549815 0.6505749868762685 0 0.5533107356452442 0.667109201283317 0 0.5346929400415402 0.6836440951755386 0 0.516072680020112 0.7001824456824616 0 0.87509801406924 0.4098353720027987 0 1 0.3749999999990478 0 0.9753264527031407 0.3858473132848911 0 0.9482719737614708 0.3959317882845669 0 0.02043278371159229 0.6169019114365835 0 0.3897881576540717 0.726033836684578 0 0.4552264080966278 0.7253703513636245 0 0.4974493922164514 0.7167186024500983 0 0.8564543810865806 0.4264138926801548 0 0.8985890910720431 0.4179891175995043 0 0.9374829460293036 0.4154585788044615 0 0.08798693052857361 0.6482029125836933 0 0.06472843152490766 0.6404172100294032 0 0.04194071194350339 0.6296198354088209 0 0 0.6277777777786986 0 0.1117082054575221 0.6561448476330706 0 0.135277269657037 0.6639911897003148 0 0.1588494412395862 0.6718370785008786 0 0.1824246205872022 0.6796871404430678 0 0.2059893219874037 0.6875358339623556 0 0.2295494574694565 0.695413275903795 0 0.2531118814613222 0.703283799211555 0 0.2767075885434211 0.71114249448416 0 0.3003184907848835 0.7189921806593647 0 0.3239217094384719 0.7268428569863401 0 0.3475443955216395 0.7347018222577463 0 0.3711721311472348 0.7425684700838106 0 0.4133750153884546 0.7338794850891992 0 0.4367859235527586 0.7418157744638462 0 0.4788276550908764 0.733252090167551 0 0.7632519454924658 0.509290897812643 0 0.7818916095477958 0.4927127363170701 0 0.7446199854045628 0.5258478994415462 0 0.7259893538767104 0.542400212867584 0 0.8005288092243439 0.4761416799589275 0 0.8191703787726332 0.4595652101943882 0 0.8378125250940235 0.4429933581209849 0 0.7073634266680984 0.5589540464797527 0 0.6887315236904954 0.5755230955312325 0 0.6701082738607773 0.5920676642980007 0 0.6514871861597038 0.6085975262734278 0 0.6328412578748752 0.6252085009794541 0 0.6141836362346645 0.641855181241164 0 0.5955529026734456 0.6584310605833048 0 0.5769368974438647 0.6749619895603549 0 0.5583215900635801 0.6915002606135722 0 0.5397078453491169 0.7080421403757224 0 0.5210804196182607 0.7245844938642947 0 0.8801389300647814 0.4342712322213127 0 1 0.3999999999989749 0 0.9756037526676504 0.4118152227554959 0 0.9213103396682538 0.4273419196628802 0 0.9548932158404102 0.4205568438126591 0 0.01992242291882586 0.6404324285070513 0 0.3947719414038556 0.7503947984605071 0 0.4602296618279889 0.749768292783265 0 0.502447373934589 0.7411263537713157 0 0.8614914529695862 0.4508500196970016 0 0.9038321410407987 0.4421283793861039 0 0.944099459167388 0.4375111603718729 0 0.0684543395299238 0.6642452437147811 0 0.09291860411778397 0.6725280948757519 0 0.04453978177836573 0.6544745428854659 0 0 0.6525925925936003 0 0.1166986267346086 0.6804814578836577 0 0.1402684416348842 0.6883266958876694 0 0.1638159760556962 0.6961666426686376 0 0.18736998309911 0.7040338177617562 0 0.2109353118360714 0.711917021255781 0 0.2345043389913581 0.7197926524340628 0 0.25809664260701 0.7276655325376629 0 0.2817107237837704 0.7355175210339724 0 0.3052826078436244 0.7433540757615269 0 0.3289156195325418 0.7512158208643421 0 0.3525284888161149 0.759101344111881 0 0.3761808199352289 0.766967126995684 0 0.4182320584903965 0.7583209355123095 0 0.4416067571987429 0.7662785430898098 0 0.4837938534117457 0.7576737497629483 0 0.7869161514642252 0.51715232075046 0 0.76827922407676 0.5337144185791693 0 0.8055599728586709 0.500580460615708 0 0.7496433710053343 0.5502765145847827 0 0.7310104436712931 0.5668089734082304 0 0.8242034525305253 0.4840049923478297 0 0.8428475675109481 0.4674283565715801 0 0.712373674559213 0.5834003810915359 0 0.6937218748340861 0.6000043330977102 0 0.6750900570785531 0.6165768555725248 0 0.6564536625284823 0.6331457147102526 0 0.6378267252152967 0.6497001678135366 0 0.6191902190074561 0.666281988194575 0 0.6005696847183914 0.6828148294302177 0 0.5819615507483388 0.6993513698347169 0 0.5633539621017442 0.7158977489795554 0 0.5447245278097892 0.7324470084791914 0 0.5260894349271272 0.7489948521171799 0 0.8851786503831663 0.4587131670692922 0 1 0.4249999999989021 0 0.9721633022313162 0.4381861634066376 0 0.9271590142243278 0.451108985530584 0 0.02244024296208421 0.665443310663175 0 0.3997265930613652 0.774802437498046 0 0.4651437450243828 0.7742284140094992 0 0.5074490618191403 0.7655436525360297 0 0.8665279863862101 0.475287070416319 0 0.9088681796689149 0.4665741416420401 0 0.9524085324875774 0.4573430387231406 0 0.04561500420768735 0.6805406386002657 0 0.07455133293969705 0.6891220499865387 0 0.09811218951637864 0.6969720574527707 0 0 0.6774074074084013 0 0.1216762774909054 0.704808063294498 0 0.1451988305909639 0.7126692140983959 0 0.1687467165260395 0.7205563307052554 0 0.192308325507287 0.7284210671335973 0 0.2158904439618135 0.7363054803391196 0 0.2394737538904325 0.7441820301941526 0 0.2630566931569376 0.7519940352114607 0 0.2865177321578201 0.7598723949557622 0 0.3101677546954226 0.7677594600137491 0 0.3338621832517872 0.7756089142815432 0 0.3574806568656952 0.7835754204179021 0 0.3811272793178246 0.7913948670530759 0 0.4231440460496554 0.782770229559548 0 0.4464961582565884 0.790778283799753 0 0.4888030824154309 0.7820951077212417 0 0.810590309825615 0.5250136577723966 0 0.7919471164465174 0.5415861891717244 0 0.7733031098549398 0.558153202625448 0 0.8292360251007387 0.5084394077429238 0 0.7546581091477402 0.5747343805867186 0 0.7360083295012038 0.5913167217330416 0 0.8478806698429093 0.4918638187725178 0 0.7173775266858647 0.6078665582170002 0 0.6987358150779457 0.6244462521140954 0 0.6800972842288611 0.641020840751795 0 0.6614619652784738 0.6575891317054205 0 0.6428329521985653 0.6741390916992703 0 0.6242063078846973 0.690676706328708 0 0.6056020970979394 0.7072031767195669 0 0.5869934170714213 0.7237479104428988 0 0.5683704554477221 0.7403067140391728 0 0.5497423325785558 0.7568597420329263 0 0.5311042163470272 0.7734121165826411 0 0.8902115685512562 0.4831489113903306 0 1 0.4499999999988292 0 0.9324695774718121 0.4742446667017044 0 0.9769746177691516 0.4644829463040774 0 0.01920752478402035 0.687098564925689 0 0.4047482662064574 0.7992619088998196 0 0.470155676210311 0.7986491679287873 0 0.5124561952776021 0.7899581500538182 0 0.8715669057127868 0.4997267902566472 0 0.9132246291525836 0.4911070958070679 0 0.9575096759645638 0.4793607368097575 0 0.0560043950991018 0.7054972211460016 0 0.07952918660092168 0.713463624235109 0 0.1030902758670643 0.7212975498540821 0 0.0342430373884291 0.7002669988051548 0 0 0.7022222222231429 0 0.1266137128192611 0.7291784913538568 0 0.1501358400701763 0.7370644787605134 0 0.1736513438330034 0.7449827638086323 0 0.1972289207864246 0.7528590340323063 0 0.2208571900011832 0.7607099998745748 0 0.24446339770714 0.7685412864815584 0 0.2678110478606905 0.7762711723743245 0 0.2909796950856129 0.7844945896198503 0 0.3146118714856876 0.7923850526857834 0 0.3382973205720157 0.8002490927239122 0 0.3618507668528468 0.8081511455525046 0 0.3855735786733273 0.8159967617893589 0 0.4281576951881152 0.8072694418592353 0 0.4515566133224416 0.8151919123999953 0 0.4938112534122743 0.8065125246291013 0 0.83426855647877 0.5328770022959974 0 0.8156205247949728 0.5494513648405532 0 0.7969737944509402 0.5660264612768638 0 0.7783278462280757 0.5825999788037879 0 0.8529169721495444 0.5163021415565918 0 0.7596814273026053 0.5991723225201177 0 0.7410359198801615 0.6157423146129217 0 0.7223957630335885 0.632304202915198 0 0.7037528084324721 0.6488619825818602 0 0.6851141026949554 0.6654480257434606 0 0.6664774111177661 0.6820077548062392 0 0.6478471061784008 0.6985494919997649 0 0.6292496820490878 0.715065403897033 0 0.6106556356179553 0.7315964000636211 0 0.5920447108625293 0.7481595210178895 0 0.5734027054423609 0.7647223725945206 0 0.5547619683471777 0.7812798746693133 0 0.5360976646213483 0.7978257982629859 0 0.8951345925181619 0.5076178808337953 0 1 0.4749999999987564 0 0.9344644825163591 0.4994541646129635 0 0.9786587875276578 0.4880466552356785 0 0.01824729960442715 0.7130198012370443 0 0.4093588874913375 0.823832749744825 0 0.4751498669913934 0.8230531698288421 0 0.5174246461383223 0.8143545225399788 0 0.8766092129826444 0.5241687347953812 0 0.9181993741889981 0.5156028096615742 0 0.9584941364775128 0.5034641699499567 0 0.06120311468429579 0.7300545946532699 0 0.03875993627916079 0.7226541127315291 0 0.08451646271688336 0.7377999303313882 0 0.1080367636121987 0.7456703326862879 0 0 0.7270370370379062 0 0.1315442892842583 0.7535613094293636 0 0.1550372283086403 0.7615347716791003 0 0.1786296655991145 0.7693882904378202 0 0.2022409763752517 0.77723259541663 0 0.2258231275649372 0.7850408332957983 0 0.249164123129814 0.793052410620681 0 0.2724963639488193 0.8009699366641132 0 0.2958799727690006 0.808965328152835 0 0.3195319206837415 0.8168377857861093 0 0.3432162183245427 0.8247018948854157 0 0.3668636627996443 0.832576878694042 0 0.3905374462838021 0.8404333611852459 0 0.4329186131879578 0.831731634009669 0 0.4565070260104145 0.8396077996741664 0 0.4987181643009094 0.8309170916362549 0 0.8393002811114627 0.5573161561756499 0 0.8579525158363205 0.5407400881843989 0 0.8206499262342155 0.5738906153957655 0 0.8020018884510544 0.5904640483077561 0 0.783352732964978 0.6070343279509478 0 0.7647056260934725 0.6236062114332885 0 0.7460598568504843 0.6401738308274227 0 0.7274167069680619 0.6567387052467183 0 0.7087743267228468 0.673306484181728 0 0.6901301982844008 0.689871754404158 0 0.6714983775377144 0.7064131643983119 0 0.6528842825992741 0.7229380124443738 0 0.6342996548109008 0.739468509254694 0 0.6156867287809997 0.756008896546335 0 0.5970632894379271 0.7725776872402388 0 0.5784130568579197 0.7891345073406894 0 0.5597598116343698 0.8057104590854673 0 0.541063299503563 0.822248463849883 0 0.9003357758240813 0.5320548118415827 0 1 0.4999999999986943 0 0.941462293721084 0.525690772951228 0 0.9793957259705779 0.5125897029775612 0 0.02029393072515113 0.737807705322381 0 0.4142177254083659 0.8483033907256221 0 0.4800588805719308 0.8474528052946391 0 0.5223159902521997 0.8388581040249475 0 0.8816431454430991 0.5486040544089792 0 0.9225799748982122 0.5402247952566366 0 0.9633995159833473 0.5250178219964825 0 0.06610757633098412 0.7544983380538742 0 0.04265447259993951 0.7463623280155633 0 0.08947675622208813 0.7621529959990545 0 0.1129826351942807 0.7700428983926999 0 0 0.7518518518526134 0 0.1364804826172271 0.7779872886551386 0 0.160021501878905 0.7859072220446174 0 0.1836247468971111 0.793760154955781 0 0.2071979186769334 0.801558091379807 0 0.2304967436195755 0.8095092405862745 0 0.2538762321404401 0.8175542563805906 0 0.277280456919011 0.82556798950204 0 0.300885877193884 0.8333842211374886 0 0.3245440389970305 0.8412602420303608 0 0.3482096000419775 0.8491362245255656 0 0.3718768600851677 0.8570088430743198 0 0.3955441224192577 0.8648892755768016 0 0.4378797834827166 0.8561892706731925 0 0.4614529046791603 0.8640556177025999 0 0.5035167285428321 0.8555021672854815 0 0.8443283558103336 0.5817492196838934 0 0.8629848927083482 0.5651851272873862 0 0.8256769759826138 0.5983244506244128 0 0.8070289631178847 0.6149013778067599 0 0.788373326995407 0.6314647203958539 0 0.7697294095763465 0.6480382673175346 0 0.751082743096648 0.6646049036565875 0 0.7324391445286654 0.6811733832681364 0 0.7137921114620467 0.697738835622616 0 0.6951424081394644 0.7143005552224285 0 0.6765058508016208 0.7308512909414374 0 0.6578978047650572 0.7473759104034738 0 0.6392687950684351 0.763921532385609 0 0.6206529963020714 0.7804240694515227 0 0.6020157040789255 0.7969951635706324 0 0.5834030811425338 0.8135701803478554 0 0.5646986480563805 0.8301761899742912 0 0.5459599122729117 0.8467606740132776 0 0.9055301699603683 0.5566836017761458 0 1 0.5249999999987492 0 0.940057283483531 0.5496719522413978 0 0.979518080540148 0.5375133733632371 0 0.9596026851425439 0.5458749112855853 0 0.02221978533889611 0.7623746137307323 0 0.4192221615995876 0.8727592505238185 0 0.4849723353401566 0.8720428716040762 0 0.5272131907546604 0.8633657048248093 0 0.8868388326962633 0.5732390061060307 0 0.9283628037946519 0.5655574414550555 0 0.07091407349463492 0.7786560941324794 0 0.04734249224114913 0.7707846036015937 0 0.09446689132203293 0.7865006414425409 0 0.1179496127037743 0.7944597721022589 0 0 0.7766666666673896 0 0.1414377216460096 0.8024059942450911 0 0.16501227617352 0.8102963409389146 0 0.1886138733221236 0.8181237027457824 0 0.2119167330060564 0.8259054708720135 0 0.2351887974729961 0.8341006697819511 0 0.2586309077524249 0.8421252911284842 0 0.2822364376434488 0.8499256851824561 0 0.3058904459925652 0.8578139056250199 0 0.3295549585847791 0.8656920861909639 0 0.3532214787128272 0.8735683324632829 0 0.3768932545164256 0.8814396398733241 0 0.4005611535211024 0.8893313962134479 0 0.4428109949514724 0.8806792491963701 0 0.466351811043652 0.888641267494948 0 0.5084868954132657 0.8799978631164953 0 0.8493752657065122 0.6061599122562435 0 0.8680410149164179 0.5896389722201565 0 0.8307093562215317 0.6227172745560059 0 0.8120528158134981 0.6392986500132216 0 0.7934018709161819 0.6558755268961528 0 0.7747473200976156 0.6724617571942348 0 0.7561091837761297 0.6890342785870996 0 0.73746441410959 0.7056032873133604 0 0.7188106746601314 0.7221718217396396 0 0.7001537421765504 0.7387367648395847 0 0.6815202438292804 0.7552993372562165 0 0.6628776156406854 0.7718532385103485 0 0.6441793787482816 0.788446423495423 0 0.625593751810023 0.8049318513785757 0 0.6069747136613555 0.8214927375399401 0 0.5883914843363351 0.838054436325876 0 0.5695760710580791 0.8547059114298869 0 0.5508361366267366 0.8713141493690585 0 0.9102562874764708 0.581486255584615 0 1 0.5499999999988151 0 0.9537171211769888 0.5715497880180289 0 0.9783491899070614 0.5624967757087331 0 0.02223927511815234 0.7894683281085733 0 0.424241147336498 0.8972083794211473 0 0.4898457555301258 0.8965456696992797 0 0.532151586502237 0.8878954370762224 0 0.8918635378306612 0.5977937202602777 0 0.9338331342610152 0.5896571831857453 0 0.07571908381766404 0.803148465116764 0 0.05123146156818962 0.7955465057843925 0 0.09943387229372865 0.8108903724188359 0 0.1228960731493669 0.8189314374592472 0 0 0.8014814814820662 0 0.1464012202999251 0.8268327195613123 0 0.169966895026147 0.8346232232003677 0 0.1932724058338706 0.8426661455121671 0 0.216595510167095 0.8505605624778427 0 0.2399059307342791 0.8586062571695949 0 0.2635674892062141 0.8664868653527269 0 0.2872336489884993 0.8743672071684112 0 0.3108995669194621 0.8822490424288623 0 0.3345708876925642 0.8901275427232611 0 0.3582368398719147 0.8979978433056797 0 0.381921265465493 0.9058432698490482 0 0.405682812146422 0.9134674252303387 0 0.447677422323644 0.905411758330343 0 0.4708996786245623 0.9136339471497605 0 0.5134245705105318 0.9044137094260006 0 0.8544234127768138 0.6305252915863269 0 0.873101712410141 0.614064145024754 0 0.8357569257294363 0.6471138809053253 0 0.8170911677922632 0.6637157557091111 0 0.7984405092075355 0.6803042672939856 0 0.7797862026540342 0.6968915778019867 0 0.7611429382888388 0.7134641039952303 0 0.7424893362109248 0.7300379597207696 0 0.7238335834782543 0.7466083791996178 0 0.7051770863473839 0.7631774450196511 0 0.6865181826361677 0.7797494137703052 0 0.6678589912101677 0.7963210384113789 0 0.649196759517588 0.8128932509847175 0 0.6305355730224208 0.8294612647810589 0 0.6119919165383002 0.846015215384045 0 0.593260838958741 0.862592836189126 0 0.5745237613258167 0.8791956813971381 0 0.5558414498135194 0.8957762757511711 0 0.914929403502017 0.6057434780682289 0 1 0.574999999998881 0 0.956753021951478 0.5997636235423952 0 0.9779770871774343 0.5869246431328138 0 0.03453677871100044 0.8142782483806649 0 0.01444291401754058 0.8138888888894578 0 0.4292653241025681 0.9211623317885358 0 0.4947709213156178 0.9209622113367711 0 0.5368535930004315 0.9119985546957926 0 0.89664968576155 0.6221692495730523 0 0.9379484251366037 0.6153801054361767 0 0.05781575895378591 0.8195138932547881 0 0.08072759981536903 0.8275282007425231 0 0.1042281190618504 0.8354561758516006 0 0.1277931649850329 0.8433479157969132 0 0 0.8262962962968513 0 0.15133907904844 0.8511441445906384 0 0.1745903301871124 0.859107445849558 0 0.197963662484356 0.86718924723984 0 0.2213737964823002 0.8752077854296597 0 0.2449070072859731 0.8830388471007271 0 0.2685725614202968 0.8909232706941538 0 0.2922408057353049 0.8988073809847688 0 0.3159141022921216 0.9066908614293596 0 0.3396005727514894 0.9145682117640527 0 0.3621924985248927 0.9218671453691407 0 0.3857970190597724 0.933291061652153 0 0.4131655322028427 0.9371121600396994 0 0.4519250213486328 0.9319023912755366 0 0.4748271401857017 0.9383403847616858 0 0.5181192030649282 0.928509483449354 0 0.8594774965766856 0.6549552251390944 0 0.8781325450993689 0.6383939863723916 0 0.8408124725566882 0.6715436307845799 0 0.8221393138887136 0.6881404404218185 0 0.8034771798964049 0.7047405457406102 0 0.7848247810121526 0.7213230051470744 0 0.7661694937674391 0.7379046545876131 0 0.7475131054610534 0.7544782968380916 0 0.72885726640589 0.7710498634842095 0 0.7101995962950485 0.7876221136561596 0 0.6915407348334135 0.8041954135062129 0 0.6728798764755566 0.820769666232427 0 0.6542123676236612 0.8373450127390759 0 0.6355667209699229 0.8539185029520038 0 0.6169004977811127 0.8704969407396069 0 0.5982067713468127 0.8870809044645964 0 0.5795306453549851 0.9036580357518997 0 0.560863124361125 0.920236819994811 0 0.9198497274124585 0.6305276821852721 0 1 0.5999999999989468 0 0.9784557823649038 0.6124992939669998 0 0.9594109584585798 0.6251240553303727 0 0.02181265509110281 0.8378756231687815 0 0.04384351282362328 0.8349390219703411 0 0.4345791820109262 0.9400937638509882 0 0.499760883370395 0.9454096159774545 0 0.5424231033335517 0.9359521525833703 0 0.9018413455008069 0.6462493828711837 0 0.9425566432143245 0.6402696075306213 0 0.06248246201662784 0.8438214249614961 0 0.08563495422851908 0.85197542529012 0 0.1091548177688167 0.8598817827073867 0 0.1327208300654305 0.8676732528934444 0 0 0.8511111111115715 0 0.1560150997907191 0.8757968784042576 0 0.1793103561032236 0.8838205794361029 0 0.202639576132534 0.8917729647337104 0 0.2262436612792308 0.899591613168645 0 0.2499117804644401 0.907479030325667 0 0.2735809603648098 0.9153629157058939 0 0.2974706958558073 0.9225925868942311 0 0.3209676028307907 0.9310309865829796 0 0.344090555849324 0.9379920905025212 0 0.3635087381513626 0.9415103951413895 0 0.3994783974698983 0.9568717541487702 0 0.4241904584274694 0.9577866235674117 0 0.4511897328101531 0.9559718867111326 0 0.4801575592588382 0.9619372430611695 0 0.5242545733282515 0.9562820574071762 0 0.8645097117710607 0.6794144134777497 0 0.8831784134776564 0.6628252906237679 0 0.8458420761227297 0.6960064009334147 0 0.827176716978915 0.7125956677747608 0 0.8085137414276613 0.7291882129998557 0 0.7898520901122557 0.7457735000650115 0 0.7711943005462094 0.7623504110337262 0 0.7525365661371987 0.7789226132489636 0 0.7338780980965969 0.7954942957668927 0 0.7152208512014255 0.812068124203865 0 0.6965665549639088 0.8286451546882919 0 0.6779022469543394 0.8452229798142257 0 0.659235059215852 0.8618007602952629 0 0.6405703391466653 0.8783805487270523 0 0.6219014714662046 0.8949619265509742 0 0.6032270540718856 0.9115448113482429 0 0.5850837543923901 0.9278457600983311 0 0.5675850982587946 0.9429716913281467 0 0.9253349210229851 0.654765754137428 0 1 0.6249999999990126 0 0.9791624950327835 0.6369927481993429 0 0.9612545521109084 0.6458555409306758 0 0.04256990934559939 0.8592059200859747 0 0.01963700141769538 0.86464028082295 0 0.3748873527725707 0.9582037673789146 0 0.5027808157689178 0.9709878500224216 0 0.5507472810296752 0.9576505965832123 0 0.9068777487804405 0.6706923418367947 0 0.9492670037874444 0.6619779313286484 0 0.06692423260257788 0.8685844704677095 0 0.09054087698637316 0.8764288296151315 0 0.1141581955774513 0.884275594200141 0 0.137486642373028 0.8922163649418167 0 0 0.8759259259263067 0 0.1607478272240353 0.9002724519886751 0 0.1839848821007641 0.9083443650197829 0 0.2075761341408545 0.9161467584904612 0 0.2312467797982391 0.924036981863202 0 0.2571609727803095 0.9352949370182568 0 0.2811050320636451 0.9349644365081815 0 0.2998803480387805 0.9445451268025382 0 0.3236114093603473 0.9568552917250711 0 0.3500032715461974 0.9603064656119203 0 0.3874964233593979 0.9783511625950547 0 0.4124060183900434 0.9783774111508965 0 0.4373436754803635 0.9785340529903613 0 0.4625000000019244 0.9783493649053084 0 0.484087675006743 0.9822548915977798 0 0.519121807285684 0.9821724671233009 0 0.5382556730213008 0.9779206683339866 0 0.8882115913502903 0.6872887432954029 0 0.869541050708827 0.7038771987281804 0 0.8508731908321734 0.7204670544133999 0 0.8322079223661323 0.7370553254639158 0 0.8135437582001082 0.7536412338077616 0 0.7948797379448196 0.770224180736245 0 0.776215208252424 0.7868036649251241 0 0.7575585730956064 0.8033765025512213 0 0.7388977635330474 0.8199492723903578 0 0.7202461892391409 0.8365202795627453 0 0.7015937985248251 0.8531002318594458 0 0.6829172568378301 0.8696715821573207 0 0.6642578481745881 0.8862564922861097 0 0.6455962163112289 0.9027973878940141 0 0.6269254442254897 0.9194273030371678 0 0.6082488003150458 0.9360151305645555 0 0.5898183772274659 0.9515220972580846 0 0.5723240506240188 0.9618223826123091 0 0.9347371044583986 0.6808016589989362 0 1 0.6499999999990784 0 0.9754473838149881 0.6627066425554569 0 0.03354440102899791 0.8754414881034992 0 0.04924277192258593 0.8849435585390604 0 0.01989504304047218 0.8882816165415662 0 0.3625307347020076 0.9790578192477486 0 0.5000000000020587 1 0 0.5626423181334286 0.9791804535727198 0 0.9122714216724934 0.6955943195494296 0 0.9594290170792118 0.6797290205651726 0 0.07192628478819102 0.8929635237824806 0 0.09554863698749463 0.9008236890294989 0 0.1190274714835802 0.9087119103589989 0 0.1423686509877073 0.916699852945162 0 0 0.900740740741054 0 0.1655237437958775 0.9248133694171156 0 0.1889217108111295 0.9327165290978361 0 0.212981660270099 0.9397370674064545 0 0.2362495505842276 0.9484885495408351 0 0.2774321832785184 0.957026616119988 0 0.3000872697982291 0.9648181346211779 0 0.3376847128802752 0.9789813219941272 0 0.3750000000015603 1 0 0.4000000000016644 1 0 0.4250000000017684 1 0 0.4500000000018723 1 0 0.4750000000019764 1 0 0.5250000000019071 1 0 0.5500000000017335 1 0 0.8932406709046274 0.7117279148668422 0 0.8745694405640756 0.7283380902582782 0 0.8559025396082043 0.7449269894723246 0 0.8372353482705543 0.7615118766853956 0 0.8185714391542853 0.7780967280360604 0 0.7999049109318248 0.7946792791911768 0 0.7812345205678694 0.8112613824160921 0 0.7625707610246441 0.8278343260174148 0 0.7439137920895358 0.8444079945066441 0 0.7252655030153858 0.8609837249631657 0 0.7065944882621773 0.8775549054226603 0 0.6879136268060299 0.8941394164444021 0 0.6692620619964416 0.9106863572572965 0 0.6506773243796974 0.9270817877193716 0 0.6323996959369196 0.9425581346322853 0 0.6154416680341184 0.9613802606361771 0 0.5882266297738361 0.9775910734942395 0 0.9323631007981741 0.7052440085464925 0 0.9556622308036888 0.7024818394703988 0 1 0.6749999999991443 0 0.9788044805713576 0.6882878970116679 0 0.03616082104049125 0.8991606485023307 0 0.05535260422683484 0.9091817809710846 0 0.02048860481464835 0.9130243964959712 0 0.2542360000413355 0.9591454860263976 0 0.3126563798688131 0.979632749887113 0 0.3500000000014564 1 0 0.5750000000015603 1 0 0.9168947122386144 0.7197372547015397 0 0.07693002838461571 0.9173595258390898 0 0.1005687385971405 0.9252283173114215 0 0.124236376185767 0.9330843419581414 0 0.1469305956324177 0.9401602037103639 0 0 0.9255555555557314 0 0.170176042527425 0.94732249024473 0 0.1944669341670477 0.9575483269906147 0 0.2188233490548079 0.9597407040405768 0 0.236954073527519 0.9750043147693193 0 0.2632059999294323 0.9787595090595334 0 0.2876432289732964 0.9800998404135708 0 0.3250000000013522 1 0 0.8982868144407045 0.7362927081396095 0 0.8796045826646286 0.7527848205292678 0 0.8609312289461013 0.7693769141948021 0 0.8422681643370393 0.785964559249039 0 0.8236003283720883 0.802554369614515 0 0.8049301797223809 0.8191381336013086 0 0.7862515568984838 0.8357253501669796 0 0.7675738732645875 0.8523091266873013 0 0.748938359700717 0.8688851538347071 0 0.7302624242561706 0.8854625528532387 0 0.7115802214744847 0.9020429637834596 0 0.6928870756123707 0.9186342859734526 0 0.6739181690305398 0.9343119036105173 0 0.6558464245426534 0.949693874805984 0 0.6396385027933389 0.9606977949876527 0 0.6125011624060365 0.9837659019660306 0 0.6000000000013869 1 0 0.9422500348176752 0.7276049700121578 0 0.9792287127594379 0.7126313223766563 0 1 0.69999999999921 0 0.03844150120940828 0.9240910503628027 0 0.05904548219314176 0.9336156757783443 0 0.01980868685398895 0.9378827813624289 0 0.3000000000012483 1 0 0.6338375142196278 0.9798581756997367 0 0.9220723260219985 0.7444493038705119 0 0.9637160826460018 0.7254588490087359 0 0.08231180189519796 0.9406370426715723 0 0.1063478899167181 0.9490329276208429 0 0.1295789816093158 0.9572013610980437 0 0.1526392646455855 0.9617809366015292 0 0 0.9503703703705487 0 0.1751676162932621 0.9660941309604019 0 0.2105581120165657 0.9791514003026911 0 0.2500000000010403 1 0 0.2750000000011442 1 0 0.903339154250282 0.7607188646112171 0 0.8846485810014852 0.7772462152269275 0 0.8659768495771519 0.7938192233234206 0 0.8473014205781961 0.8104276816687435 0 0.8286302923204169 0.8270156527221314 0 0.8099554018921405 0.843603384955278 0 0.7912783901284277 0.860191237157817 0 0.7726082678081153 0.8767781441606158 0 0.7539413171872982 0.893358597157714 0 0.735254655896961 0.9099499719577256 0 0.7165598700763787 0.9265518468660422 0 0.6971582986876022 0.9420148489593562 0 0.6780589084151947 0.9575839248341529 0 0.6604280840244138 0.9752242958469346 0 0.6250000000012135 1 0 0.9605575770566323 0.7414900853882154 0 0.9460736412248638 0.754386607921498 0 1 0.724999999999276 0 0.9783493649053321 0.7374999999993094 0 0.03977368987228719 0.9501009268279407 0 0.06391854305734312 0.9590290071227729 0 0.01938134302196487 0.9621452986061629 0 0.1869379492708169 0.9802561058473664 0 0.2250000000009362 1 0 0.6500000000010401 1 0 0.9270939104230749 0.7685397490501532 0 0.08921000612503392 0.9593765230410201 0 0.1101981146222572 0.9749888975639492 0 0.1378394971664275 0.9790826025462105 0 0.162560108077434 0.9804655500162791 0 0 0.9751851851852422 0 0.2000000000008322 1 0 0.9083672062549225 0.7850937274081223 0 0.8896724643158258 0.8016837412947362 0 0.8710095687742473 0.8182918049647825 0 0.852334637272113 0.8348908429205856 0 0.8336594740691472 0.8514815193834984 0 0.8149841850439553 0.8680699418256793 0 0.7963067583992217 0.8846602522985898 0 0.7776287284027171 0.9012506570572817 0 0.7589526774761994 0.9178416417849347 0 0.7402709404409575 0.9344356505022697 0 0.7221320089538443 0.9545919696811659 0 0.6999998737602793 0.9629026133046579 0 0.6874998526486903 0.9783494499793083 0 0.6750000000008667 1 0 0.9723987616892878 0.7624999999993752 0 0.9511512253247011 0.7767767886416391 0 1 0.7499999999993417 0 0.03865046828365465 0.9773366052343824 0 0.08374992470322454 0.9795104246889742 0 0.01805521312185844 0.9819959226564355 0 0.1750000000007281 1 0 0.9319664786096837 0.7928416311113626 0 0.1250000000005201 1 0 0.1500000000006241 1 0 0.0622637872089485 0.9831752074092259 0 0 1 0 0.9133158575646576 0.8094761078874024 0 0.8947214721783716 0.8261708052299941 0 0.876043183424229 0.8427669110357976 0 0.8573655959810456 0.8593607298265238 0 0.8386885927769918 0.8759484860071625 0 0.8200156942169483 0.892528590855739 0 0.8013621073053289 0.9090453521589961 0 0.7829865157510035 0.9240238959056106 0 0.7655672888102396 0.9397820229816847 0 0.7509350797106531 0.9572692101527505 0 0.7125000000006065 0.9783493649055393 0 0.7000000000006934 1 0 0.9776291594915305 0.7875380515327299 0 1 0.7749999999994076 0 0.9561619376771519 0.8016247214649639 0 0.100000000000416 1 0 0.05000000000020799 1 0 0.02500000000010405 1 0 0.07500000000031215 1 0 0.7373728002791757 0.9797457966891426 0 0.9365017685241022 0.8167601470604585 0 0.9179198228630394 0.8334700926153805 0 0.8997545627560775 0.8506461505404254 0 0.8810748357278673 0.8672409378034107 0 0.862394975574633 0.8838346162085495 0 0.8437145735056659 0.9004276213796638 0 0.8250690498714734 0.9169161840249754 0 0.8066312769116598 0.9360687629880353 0 0.7878775674057313 0.9431430579496005 0 0.7763840591915299 0.9592015607858526 0 0.7623386951258467 0.9791139237471456 0 0.7250000000005199 1 0 0.9785045479276824 0.8132727312725351 0 1 0.7999999999994734 0 0.9578471191845154 0.8261727904892775 0 0.7500000000003466 1 0 0.9391128526801986 0.8403434994928256 0 0.9220365279740232 0.8571983503085738 0 0.9045500207496133 0.8749002583057601 0 0.8861067887336109 0.8917166464217032 0 0.8674239964535654 0.9083123153680097 0 0.8487409038783109 0.9249085077009044 0 0.8300502952167822 0.9415063885533833 0 0.7988740897650844 0.9585094594757773 0 0.7879965183055392 0.9787583886863396 0 0.7750000000001732 1 0 1 0.8249999999995392 0 0.9788637985969766 0.8379581758234063 0 0.9583083698165701 0.8505032137944166 0 0.820199313066216 0.9593370028479036 0 0.9420106582883645 0.8619845925818463 0 0.9322728957351556 0.882381968439512 0 0.9098224078178099 0.8995969187914389 0 0.8911388418834251 0.9161948069605781 0 0.8724544056893323 0.9327926566545816 0 0.8545858659163292 0.9502129052165713 0 0.837499999999744 0.970091485033424 0 0.81229172383815 0.9781055606997104 0 0.7999999999999998 1 0 1 0.8499999999996051 0 0.9785227546530915 0.8628003193850639 0 0.9566987308811586 0.8749999999996694 0 0.9335409902090506 0.9074780711570531 0 0.9148558428489935 0.9240777970694657 0 0.8959904604035898 0.9397747407914325 0 0.878485370162244 0.9569978691712365 0 0.8632446788373009 0.9766771819693658 0 0.8249999999998263 1 0 0.9559309084930709 0.8987111038573347 0 1 0.8749999999996708 0 0.9781530512139307 0.8880930545424779 0 0.8499999999996529 1 0 0.9382926456304728 0.9328115065901348 0 0.9544298725978175 0.9196756121711618 0 0.9196554759229494 0.9469137389489963 0 0.9033970037247694 0.9616579055397857 0 0.8880972945619894 0.9794009325121695 0 0.8749999999995011 1 0 0.9766321162336684 0.9157580083414927 0 1 0.8999999999997368 0 0.9438287412639099 0.9571755573708816 0 0.9622966325024225 0.9398438882854082 0 0.9250191183198891 0.9656866693686141 0 0.9125008924587128 0.9810589679886786 0 0.8999999999995836 1 0 1 0.9249999999998024 0 0.9835192958457386 0.9381043860998908 0 0.9615520967251762 0.9584733172028391 0 0.9367139815717119 0.980000155581342 0 0.9786677304926018 0.9599200338728818 0 0.9249999999996876 1 0 1 0.9499999999998684 0 0.9614152826417707 0.9769537892821853 0 0.9499999999997918 1 0 1 0.9749999999999343 0 0.9818260183860713 0.9818260183860811 0 0.9749999999998958 1 0 1 1 0 </DataArray>
      </Points>
      <Cells>
        <DataArray type="Int32" Name="connectivity" format="ascii">0 1 2 1 3 2 4 0 2 3 5 2 6 0 4 5 4 2 3 7 5 6 4 8 9 4 5 7 10 5 7 11 10 12 6 8 8 4 13 4 9 13 10 9 5 10 11 14 11 15 14 16 12 8 17 8 13 9 18 13 10 19 9 10 14 19 15 20 14 21 12 16 17 16 8 18 17 13 19 18 9 19 14 22 15 23 20 14 20 22 21 16 24 16 17 25 18 26 17 27 18 19 28 19 22 20 23 29 20 30 22 31 21 24 24 16 25 17 32 25 27 26 18 17 26 32 28 27 19 30 28 22 23 33 29 20 29 30 31 24 34 35 24 25 32 35 25 27 36 26 32 26 37 38 27 28 39 28 30 29 33 40 29 41 30 33 42 40 43 31 34 24 44 34 35 44 24 45 35 32 38 36 27 26 36 37 45 32 37 38 28 39 41 39 30 46 29 40 46 41 29 42 47 40 48 43 34 34 44 49 35 50 44 45 50 35 38 51 36 37 36 52 45 37 53 54 38 39 41 55 39 47 46 40 56 41 46 42 57 47 58 43 48 48 34 49 44 59 49 44 50 59 60 50 45 54 51 38 36 51 52 53 37 52 60 45 53 55 54 39 56 55 41 46 47 61 56 46 61 47 57 62 57 63 62 58 48 64 65 48 49 59 65 49 50 66 59 60 66 50 67 51 54 51 68 52 69 53 52 70 60 53 71 54 55 72 55 56 47 73 61 74 56 61 73 47 62 63 75 62 76 58 64 64 48 65 59 77 65 66 77 59 60 78 66 67 68 51 67 54 71 68 69 52 70 53 69 70 78 60 71 55 72 72 56 74 73 74 61 73 62 79 63 80 75 62 75 79 81 76 64 64 65 82 77 83 65 77 66 84 66 78 84 85 68 67 67 71 86 68 87 69 88 70 69 70 89 78 71 72 90 91 72 74 73 92 74 93 73 79 75 80 94 75 95 79 80 96 94 97 76 81 81 64 82 65 83 82 98 83 77 98 77 84 84 78 99 85 87 68 85 67 86 71 90 86 87 88 69 88 89 70 78 89 99 90 72 91 92 91 74 93 92 73 95 93 79 75 94 95 96 100 94 96 101 100 97 81 102 103 81 82 83 103 82 98 104 83 98 84 105 84 99 105 106 87 85 107 85 86 86 90 108 87 109 88 88 110 89 89 111 99 90 91 112 92 113 91 114 92 93 115 93 95 94 116 95 100 116 94 100 101 117 118 97 102 81 119 102 119 81 103 83 104 103 120 104 98 120 98 105 99 121 105 106 109 87 106 85 107 107 86 108 108 90 112 88 109 110 89 110 111 111 121 99 91 113 112 114 113 92 114 93 115 116 115 95 116 100 122 101 123 117 100 117 122 124 118 102 119 125 102 119 103 126 103 104 126 120 127 104 128 120 105 121 128 105 106 129 109 130 106 107 131 107 108 132 108 112 110 109 133 111 110 134 111 135 121 113 136 112 114 137 113 138 114 115 116 139 115 140 116 122 123 141 117 117 142 122 143 118 124 125 124 102 144 125 119 144 119 126 104 127 126 145 127 120 145 120 128 128 121 146 130 129 106 109 129 133 131 130 107 132 131 108 136 132 112 134 110 133 111 134 135 121 135 146 113 137 136 138 137 114 139 138 115 140 139 116 142 140 122 123 147 141 141 142 117 143 124 148 149 124 125 150 125 144 151 144 126 127 151 126 152 127 145 145 128 153 153 128 146 130 154 129 133 129 155 156 130 131 157 131 132 158 132 136 159 134 133 135 134 160 135 161 146 136 137 162 138 163 137 164 138 139 165 139 140 166 140 142 141 147 167 141 168 142 169 143 148 148 124 149 149 125 150 150 144 170 170 144 151 152 151 127 152 145 171 145 153 171 153 146 172 156 154 130 129 154 155 159 133 155 156 131 157 157 132 158 158 136 162 160 134 159 161 135 160 146 161 172 137 163 162 164 163 138 164 139 165 165 140 166 168 166 142 147 173 167 141 167 174 168 141 174 175 169 148 148 149 176 149 150 177 150 170 178 170 151 179 179 151 152 180 152 171 171 153 181 181 153 172 182 154 156 154 183 155 184 159 155 156 157 185 157 158 186 158 162 187 188 160 159 189 161 160 161 190 172 163 191 162 192 163 164 164 165 193 165 166 194 168 195 166 167 173 196 167 197 174 198 168 174 173 199 196 199 200 201 202 169 175 175 148 176 149 177 176 177 150 178 170 203 178 170 179 203 179 152 180 204 180 171 204 171 181 205 181 172 182 183 154 182 156 185 183 184 155 184 188 159 185 157 186 186 158 187 162 191 187 188 189 160 189 190 161 190 205 172 192 191 163 192 164 193 165 194 193 166 195 194 198 195 168 197 167 196 197 198 174 199 201 196 201 200 206 200 207 206 202 175 208 175 176 209 176 177 210 177 178 211 203 212 178 179 213 203 179 180 213 214 180 204 215 204 181 205 215 181 182 216 183 217 182 185 183 218 184 184 219 188 220 185 186 221 186 187 191 222 187 188 223 189 189 224 190 190 225 205 192 226 191 227 192 193 194 228 193 194 195 229 198 230 195 231 197 196 232 198 197 201 231 196 201 206 233 207 234 206 207 235 234 236 237 238 239 236 238 240 236 239 235 240 241 242 202 208 208 175 209 176 210 209 210 177 211 178 212 211 243 212 203 213 243 203 213 180 214 214 204 244 244 204 215 205 245 215 217 216 182 183 216 218 220 217 185 184 218 219 188 219 223 221 220 186 222 221 187 191 226 222 189 223 224 190 224 225 205 225 245 227 226 192 228 227 193 228 194 229 195 230 229 232 230 198 232 197 231 231 201 233 206 246 233 206 234 246 234 235 241 238 237 247 239 238 248 240 239 241 237 249 247 249 250 251 252 242 208 253 208 209 210 254 209 255 210 211 212 256 211 257 212 243 243 213 258 213 214 258 214 244 259 260 244 215 245 260 215 217 261 216 218 216 262 263 217 220 219 218 264 223 219 265 221 266 220 267 221 222 226 268 222 224 223 269 225 224 270 245 225 271 272 226 227 273 227 228 274 228 229 230 275 229 276 230 232 232 231 277 278 231 233 246 278 233 234 279 246 279 234 241 280 238 247 241 239 248 238 281 248 249 251 247 251 250 282 250 283 282 283 284 285 286 242 252 252 208 287 208 253 287 254 253 209 254 210 255 256 255 211 257 256 212 288 257 243 288 243 258 214 259 258 259 244 289 289 244 260 260 245 290 263 261 217 216 261 262 218 262 264 266 263 220 265 219 264 223 265 269 267 266 221 268 267 222 272 268 226 224 269 270 271 225 270 245 271 290 272 227 273 273 228 274 275 274 229 276 275 230 276 232 277 231 278 277 291 278 246 279 291 246 292 279 241 280 281 238 251 280 247 292 241 248 281 293 248 294 251 282 283 285 282 285 284 295 284 296 295 286 252 297 298 252 287 253 299 287 254 300 253 301 254 255 256 302 255 303 256 257 304 257 288 288 258 305 258 259 305 259 289 306 289 260 307 307 260 290 263 308 261 261 309 262 262 310 264 311 263 266 312 265 264 265 313 269 314 266 267 315 267 268 316 268 272 269 317 270 318 271 270 271 319 290 272 273 320 273 274 321 322 274 275 323 275 276 324 276 277 278 325 277 291 325 278 326 291 279 326 279 292 281 280 327 251 328 280 293 292 248 329 293 281 328 251 294 285 294 282 330 285 295 296 331 295 332 286 297 297 252 298 299 298 287 253 300 299 301 300 254 302 301 255 303 302 256 303 257 304 304 288 333 333 288 305 305 259 306 289 334 306 289 307 334 335 307 290 311 308 263 261 308 309 309 310 262 310 312 264 311 266 314 265 312 313 313 317 269 314 267 315 315 268 316 316 272 320 317 318 270 318 319 271 319 335 290 273 321 320 321 274 322 322 275 323 323 276 324 325 324 277 336 325 291 336 291 326 337 326 292 280 328 327 329 281 327 293 337 292 329 338 293 339 328 294 285 340 294 340 285 330 331 330 295 341 332 297 342 297 298 299 343 298 300 344 299 301 345 300 302 346 301 347 302 303 303 304 348 349 304 333 350 333 305 350 305 306 334 351 306 334 307 352 352 307 335 353 308 311 308 354 309 310 309 355 356 312 310 311 314 357 312 358 313 317 313 359 314 315 360 315 316 361 362 316 320 363 318 317 364 319 318 365 335 319 320 321 366 321 322 367 322 323 368 323 324 369 370 324 325 370 325 336 336 326 371 326 337 371 328 372 327 329 327 373 338 337 293 374 338 329 339 372 328 340 339 294 375 340 330 331 376 330 377 332 341 342 341 297 343 342 298 344 343 299 300 345 344 301 346 345 347 346 302 347 303 348 304 349 348 378 349 333 350 378 333 351 350 306 351 334 379 334 352 379 352 335 380 353 354 308 353 311 357 309 354 355 356 310 355 356 358 312 314 360 357 313 358 359 363 317 359 315 361 360 361 316 362 362 320 366 364 318 363 365 319 364 380 335 365 321 367 366 367 322 368 323 369 368 369 324 370 370 336 381 336 371 381 337 382 371 327 372 373 374 329 373 338 382 337 374 383 338 339 384 372 340 385 339 375 385 340 376 375 330 386 377 341 342 387 341 343 388 342 344 389 343 344 345 390 345 346 391 347 392 346 393 347 348 349 394 348 378 395 349 396 378 350 396 350 351 397 351 379 352 398 379 352 380 398 399 354 353 400 353 357 354 401 355 402 356 355 356 403 358 357 360 404 358 405 359 406 363 359 361 407 360 361 362 408 409 362 366 364 363 410 365 364 411 380 365 412 366 367 413 367 368 414 369 415 368 369 370 416 416 370 381 381 371 417 371 382 417 372 418 373 418 374 373 338 383 382 419 383 374 339 385 384 372 384 420 375 421 385 376 422 375 423 377 386 386 341 424 342 388 387 341 387 424 343 389 388 344 390 389 390 345 391 346 392 391 393 392 347 394 393 348 395 394 349 425 395 378 425 378 396 397 396 351 426 397 379 398 426 379 398 380 427 399 401 354 399 353 400 400 357 404 401 402 355 402 403 356 358 403 405 360 407 404 405 406 359 410 363 406 361 408 407 408 362 409 409 366 413 364 410 411 412 365 411 427 380 412 413 367 414 368 415 414 369 416 415 428 416 381 428 381 417 382 429 417 418 372 420 419 374 418 382 383 429 419 430 383 384 385 431 384 432 420 375 422 421 385 421 431 423 386 433 434 386 424 387 388 435 387 436 424 388 389 437 389 390 438 439 390 391 391 392 440 393 441 392 442 393 394 395 443 394 444 395 425 425 396 445 445 396 397 446 397 426 398 447 426 398 427 447 399 448 401 449 399 400 450 400 404 401 451 402 402 452 403 403 453 405 404 407 454 455 406 405 410 406 456 407 408 457 408 409 458 459 409 413 411 410 460 461 412 411 462 427 412 463 413 414 414 415 464 415 416 465 465 416 428 466 428 417 429 466 417 467 418 420 419 418 467 383 430 429 468 430 419 432 384 431 432 469 420 422 470 421 421 471 431 472 423 433 433 386 434 436 434 424 435 388 437 387 435 436 389 438 437 438 390 439 439 391 440 392 441 440 442 441 393 443 442 394 444 443 395 444 425 473 425 445 473 445 397 446 474 446 426 447 474 426 447 427 475 449 448 399 401 448 451 450 449 400 450 404 454 402 451 452 403 452 453 453 455 405 407 457 454 456 406 455 410 456 460 457 408 458 409 459 458 463 459 413 461 411 460 461 462 412 475 427 462 463 414 464 415 465 464 465 428 476 428 466 476 477 466 429 469 467 420 468 419 467 430 477 429 478 430 468 432 431 479 480 469 432 470 471 421 431 471 479 481 472 433 482 433 434 434 436 483 484 435 437 436 435 485 438 486 437 438 439 487 439 440 488 441 489 440 490 441 442 491 442 443 492 443 444 493 444 473 473 445 494 445 446 494 446 474 495 447 496 474 447 475 496 449 497 448 451 448 498 499 449 450 500 450 454 452 451 501 453 452 502 453 503 455 457 504 454 456 455 505 456 506 460 507 457 458 459 508 458 463 509 459 510 461 460 511 462 461 475 462 512 513 463 464 465 514 464 514 465 476 466 515 476 477 515 466 469 516 467 516 468 467 478 477 430 478 468 517 480 432 479 480 518 469 470 519 471 471 520 479 521 472 481 481 433 482 482 434 483 483 436 522 435 484 485 486 484 437 522 436 485 486 438 487 487 439 488 440 489 488 490 489 441 490 442 491 491 443 492 492 444 493 523 493 473 523 473 494 446 495 494 495 474 524 474 496 524 496 475 525 499 497 449 448 497 498 451 498 501 499 450 500 504 500 454 502 452 501 453 502 503 455 503 505 457 507 504 506 456 505 506 510 460 508 507 458 459 509 508 513 509 463 510 511 461 462 511 512 525 475 512 514 513 464 526 514 476 515 526 476 527 515 477 469 518 516 468 516 517 527 477 478 528 478 517 520 480 479 529 518 480 471 519 520 521 481 530 481 482 531 482 483 532 533 483 522 484 534 485 486 535 484 534 522 485 536 486 487 537 487 488 489 538 488 539 489 490 490 491 540 491 492 541 492 493 542 543 493 523 523 494 544 494 495 544 495 524 545 496 546 524 496 525 546 499 547 497 497 548 498 501 498 549 550 499 500 551 500 504 552 502 501 503 502 553 503 554 505 507 555 504 556 506 505 557 510 506 558 507 508 509 559 508 513 560 509 510 561 511 511 562 512 563 525 512 564 513 514 526 564 514 565 526 515 565 515 527 518 566 516 516 566 517 527 478 528 567 528 517 529 480 520 568 518 529 519 569 520 570 521 530 481 571 530 571 481 531 482 532 531 483 533 532 533 522 572 535 534 484 536 535 486 522 534 572 537 536 487 538 537 488 539 538 489 539 490 540 491 541 540 492 542 541 542 493 543 543 523 573 573 523 544 544 495 545 524 574 545 524 546 574 546 525 575 550 547 499 497 547 548 498 548 549 552 501 549 551 550 500 555 551 504 553 502 552 503 553 554 554 556 505 558 555 507 556 557 506 557 561 510 559 558 508 560 559 509 564 560 513 561 562 511 562 563 512 575 525 563 576 564 526 576 526 565 565 527 577 568 566 518 566 567 517 527 528 577 528 567 578 529 520 579 568 529 580 520 569 579 581 570 530 571 581 530 582 571 531 532 582 531 532 533 583 584 533 572 535 585 534 536 586 535 534 587 572 537 588 536 538 589 537 590 538 539 591 539 540 540 541 592 542 593 541 542 543 594 595 543 573 596 573 544 596 544 545 574 597 545 546 598 574 546 575 598 599 547 550 547 600 548 548 601 549 602 552 549 603 550 551 604 551 555 553 552 605 554 553 606 554 607 556 608 555 558 556 609 557 557 610 561 611 558 559 612 559 560 613 560 564 561 614 562 562 615 563 616 575 563 613 564 576 576 565 617 617 565 577 568 618 566 566 618 567 577 528 578 567 619 578 620 529 579 621 568 580 529 620 580 569 622 579 623 581 571 582 623 571 582 532 583 533 624 583 584 624 533 587 584 572 535 586 585 534 585 587 536 588 586 537 589 588 590 589 538 590 539 591 591 540 592 541 593 592 542 594 593 594 543 595 625 595 573 596 625 573 597 596 545 626 597 574 598 626 574 598 575 627 599 600 547 599 550 603 600 601 548 601 602 549 552 602 605 603 551 604 604 555 608 606 553 605 554 606 607 556 607 609 608 558 611 557 609 610 561 610 614 611 559 612 612 560 613 614 615 562 615 616 563 627 575 616 613 576 628 628 576 617 629 617 577 621 618 568 618 619 567 629 577 578 619 630 578 622 620 579 621 580 631 580 620 631 632 623 582 633 582 583 624 633 583 584 634 624 635 584 587 585 586 636 585 637 587 586 588 638 588 589 639 590 640 589 641 590 591 642 591 592 592 593 643 593 594 644 594 595 645 646 595 625 647 625 596 647 596 597 626 648 597 598 649 626 598 627 649 650 600 599 599 603 651 600 652 601 601 653 602 605 602 654 603 604 655 604 608 656 657 606 605 607 606 658 609 607 659 608 611 660 610 609 661 614 610 662 611 612 663 612 613 664 615 614 665 666 616 615 627 616 667 613 628 664 668 628 617 629 668 617 669 618 621 669 619 618 630 629 578 619 670 630 622 671 620 672 621 631 620 673 631 632 582 633 624 674 633 635 634 584 634 674 624 637 635 587 636 586 638 585 636 637 588 639 638 589 640 639 641 640 590 642 641 591 642 592 643 593 644 643 594 645 644 645 595 646 646 625 675 625 647 675 648 647 597 626 676 648 626 649 676 649 627 677 650 652 600 650 599 651 603 655 651 652 653 601 602 653 654 657 605 654 655 604 656 608 660 656 658 606 657 607 658 659 661 609 659 660 611 663 610 661 662 665 614 662 663 612 664 666 615 665 667 616 666 627 667 677 664 628 678 628 668 678 679 668 629 669 621 672 669 670 619 679 629 630 670 680 630 620 671 673 673 672 631 681 632 633 674 681 633 635 682 634 674 634 683 637 684 635 685 636 638 637 636 686 638 639 687 640 688 639 641 689 640 690 641 642 691 642 643 643 644 692 645 693 644 645 646 694 646 675 695 647 696 675 648 696 647 648 676 697 676 649 698 698 649 677 699 652 650 700 650 651 651 655 701 652 702 653 653 703 654 704 657 654 705 655 656 656 660 706 707 658 657 658 708 659 709 661 659 710 660 663 661 711 662 665 662 712 713 663 664 714 666 665 667 666 715 667 716 677 713 664 678 668 717 678 679 717 668 718 669 672 718 670 669 680 679 630 719 680 670 671 720 673 673 721 672 722 681 674 635 684 682 634 682 683 674 683 723 637 686 684 686 636 685 685 638 687 639 688 687 640 689 688 690 689 641 691 690 642 691 643 692 644 693 692 645 694 693 694 646 695 675 724 695 696 724 675 648 697 696 697 676 725 676 698 725 698 677 726 699 702 652 699 650 700 700 651 701 655 705 701 653 702 703 703 704 654 704 707 657 705 656 706 660 710 706 708 658 707 708 709 659 711 661 709 713 710 663 662 711 712 714 665 712 715 666 714 667 715 716 677 716 726 727 713 678 717 727 678 679 728 717 729 718 672 719 670 718 680 728 679 730 680 719 720 721 673 721 729 672 722 674 723 682 684 731 683 682 732 683 733 723 684 686 734 686 685 735 736 685 687 688 737 687 689 738 688 690 739 689 740 690 691 741 691 692 693 742 692 693 694 743 744 694 695 724 745 695 696 746 724 696 697 746 697 725 747 698 748 725 748 698 726 749 702 699 699 700 750 751 700 701 705 752 701 702 753 703 754 704 703 704 755 707 756 705 706 710 757 706 758 708 707 708 759 709 760 711 709 713 761 710 711 762 712 763 714 712 715 714 764 716 715 765 716 766 726 727 761 713 727 717 767 717 728 767 768 718 729 719 718 768 730 728 680 730 719 769 720 770 721 729 721 771 772 722 723 684 734 731 732 682 731 683 732 733 733 772 723 734 686 735 685 736 735 737 736 687 738 737 688 689 739 738 740 739 690 740 691 741 742 741 692 742 693 743 694 744 743 745 744 695 724 773 745 724 746 773 746 697 747 725 774 747 748 774 725 775 748 726 749 753 702 749 699 750 700 751 750 752 751 701 756 752 705 753 754 703 754 755 704 755 758 707 757 756 706 761 757 710 758 759 708 759 760 709 760 762 711 762 763 712 764 714 763 715 764 765 766 716 765 766 775 726 776 761 727 776 727 767 728 777 767 768 729 778 719 768 769 730 777 728 779 730 769 721 770 771 729 771 778 734 780 731 732 731 781 732 782 733 783 772 733 784 734 735 736 785 735 786 736 737 737 738 787 738 739 788 740 789 739 790 740 741 791 741 742 792 742 743 744 793 743 745 794 744 745 773 795 773 746 796 796 746 747 747 774 797 798 774 748 775 798 748 799 753 749 800 749 750 751 801 750 752 802 751 756 803 752 804 754 753 805 755 754 806 758 755 757 807 756 761 808 757 809 759 758 810 760 759 811 762 760 812 763 762 764 763 813 764 814 765 815 766 765 816 775 766 776 808 761 817 776 767 777 817 767 818 768 778 769 768 818 779 777 730 819 779 769 770 820 771 771 821 778 734 784 780 731 780 781 782 732 781 782 783 733 785 784 735 786 785 736 786 737 787 787 738 788 739 789 788 790 789 740 791 790 741 792 791 742 793 792 743 744 794 793 745 795 794 795 773 822 773 796 822 796 747 797 774 823 797 798 823 774 824 798 775 804 753 799 799 749 800 801 800 750 751 802 801 752 803 802 756 807 803 805 754 804 806 755 805 809 758 806 757 808 807 810 759 809 811 760 810 812 762 811 813 763 812 764 813 814 814 815 765 815 816 766 824 775 816 776 825 808 817 825 776 826 817 777 818 778 827 819 769 818 826 777 779 828 779 819 820 821 771 778 821 827 784 829 780 780 830 781 831 782 781 832 783 782 785 833 784 834 785 786 786 787 835 787 788 836 788 789 837 790 838 789 839 790 791 792 840 791 841 792 793 794 842 793 794 795 843 844 795 822 822 796 845 845 796 797 797 823 846 798 847 823 824 847 798 804 799 848 799 800 849 850 800 801 801 802 851 803 852 802 803 807 853 805 804 854 806 805 855 809 806 856 807 808 857 810 809 858 811 810 859 812 811 860 813 812 861 814 813 862 814 863 815 816 815 864 865 824 816 808 825 857 866 825 817 866 817 826 867 818 827 867 819 818 826 779 828 828 819 868 820 869 821 821 870 827 784 833 829 780 829 830 830 831 781 832 782 831 834 833 785 834 786 835 835 787 836 788 837 836 789 838 837 839 838 790 840 839 791 841 840 792 842 841 793 794 843 842 843 795 844 871 844 822 871 822 845 845 797 846 823 872 846 847 872 823 873 847 824 804 848 854 848 799 849 800 850 849 850 801 851 802 852 851 852 803 853 853 807 857 855 805 854 856 806 855 809 856 858 859 810 858 860 811 859 812 860 861 862 813 861 814 862 863 815 863 864 865 816 864 873 824 865 825 874 857 866 874 825 866 826 875 867 827 876 868 819 867 826 828 875 828 868 877 821 869 870 827 870 876 829 833 878 830 829 879 830 880 831 881 832 831 834 882 833 883 834 835 884 835 836 837 885 836 838 886 837 839 887 838 840 888 839 841 889 840 842 890 841 842 843 891 892 843 844 871 893 844 894 871 845 894 845 846 846 872 895 847 896 872 873 896 847 854 848 897 898 848 849 850 899 849 900 850 851 852 901 851 902 852 853 903 853 857 904 855 854 905 856 855 858 856 906 907 859 858 908 860 859 861 860 909 910 862 861 863 862 911 863 912 864 913 865 864 873 865 914 874 903 857 915 874 866 915 866 875 916 867 876 868 867 916 875 828 877 877 868 917 869 918 870 870 919 876 833 882 878 879 829 878 880 830 879 880 881 831 883 882 834 884 883 835 885 884 836 886 885 837 838 887 886 839 888 887 840 889 888 841 890 889 842 891 890 891 843 892 893 892 844 871 920 893 894 920 871 894 846 895 872 921 895 872 896 921 922 896 873 848 898 897 904 854 897 899 898 849 900 899 850 901 900 851 902 901 852 902 853 903 904 905 855 856 905 906 907 858 906 907 908 859 860 908 909 910 861 909 911 862 910 863 911 912 912 913 864 914 865 913 922 873 914 874 923 903 915 923 874 924 915 875 919 916 876 868 916 917 924 875 877 925 877 917 918 919 870 882 926 878 927 879 878 880 879 928 929 881 880 883 930 882 884 931 883 932 884 885 886 933 885 886 887 934 887 888 935 888 889 936 889 890 937 890 891 938 891 892 939 940 892 893 920 941 893 942 920 894 942 894 895 895 921 943 896 944 921 922 944 896 898 945 897 946 904 897 899 947 898 900 948 899 901 949 900 902 950 901 951 902 903 952 905 904 905 953 906 954 907 906 907 955 908 908 956 909 957 910 909 911 910 958 912 911 959 912 960 913 961 914 913 962 922 914 923 951 903 963 923 915 963 915 924 916 919 964 916 965 917 925 924 877 925 917 966 918 967 919 882 930 926 926 927 878 879 927 928 968 880 928 929 880 968 883 931 930 932 931 884 933 932 885 886 934 933 934 887 935 888 936 935 936 889 937 890 938 937 891 939 938 939 892 940 941 940 893 969 941 920 969 920 942 942 895 943 921 970 943 944 970 921 922 971 944 947 945 898 945 946 897 952 904 946 899 948 947 900 949 948 901 950 949 951 950 902 952 953 905 953 954 906 954 955 907 955 956 908 956 957 909 910 957 958 959 911 958 912 959 960 960 961 913 961 962 914 962 971 922 972 951 923 972 923 963 963 924 973 919 967 964 916 964 965 917 965 966 973 924 925 974 925 966 926 930 975 926 976 927 927 977 928 977 968 928 978 929 968 930 931 979 932 980 931 933 981 932 933 934 982 983 934 935 935 936 984 985 936 937 938 986 937 939 987 938 939 940 988 989 940 941 990 941 969 969 942 991 991 942 943 943 970 992 944 993 970 944 971 993 994 945 947 945 995 946 996 952 946 947 948 997 948 949 998 949 950 999 951 1000 950 952 1001 953 1002 954 953 954 1003 955 955 1004 956 956 1005 957 957 1006 958 1007 959 958 960 959 1008 960 1009 961 961 1010 962 962 1011 971 972 1000 951 972 963 1012 963 973 1012 967 1013 964 965 964 1014 965 1015 966 973 925 974 1015 974 966 975 930 979 926 975 976 927 976 977 1016 968 977 1016 978 968 931 980 979 932 981 980 933 982 981 982 934 983 983 935 984 936 985 984 986 985 937 987 986 938 939 988 987 988 940 989 989 941 990 990 969 1017 1017 969 991 991 943 992 970 1018 992 970 993 1018 993 971 1019 994 995 945 994 947 997 995 996 946 996 1001 952 997 948 998 949 999 998 950 1000 999 1001 1002 953 1002 1003 954 955 1003 1004 956 1004 1005 1005 1006 957 1006 1007 958 1008 959 1007 960 1008 1009 961 1009 1010 962 1010 1011 971 1011 1019 1020 1000 972 1020 972 1012 1012 973 1021 964 1013 1014 965 1014 1015 1021 973 974 974 1015 1022 975 979 1023 976 975 1024 976 1025 977 1025 1016 977 1026 978 1016 980 1027 979 980 981 1028 981 982 1029 982 983 1030 1031 983 984 984 985 1032 986 1033 985 987 1034 986 987 988 1035 988 989 1036 989 990 1037 990 1017 1038 1039 1017 991 1039 991 992 992 1018 1040 1018 993 1041 993 1019 1041 994 1042 995 1043 994 997 995 1044 996 996 1045 1001 1046 997 998 999 1047 998 1000 1048 999 1001 1049 1002 1002 1050 1003 1004 1003 1051 1005 1004 1052 1006 1005 1053 1054 1007 1006 1008 1007 1055 1009 1008 1056 1010 1009 1057 1011 1010 1058 1011 1059 1019 1020 1048 1000 1060 1020 1012 1060 1012 1021 1013 1061 1014 1014 1062 1015 1063 1021 974 1015 1064 1022 1063 974 1022 1024 975 1023 979 1027 1023 976 1024 1025 1016 1025 1065 1026 1016 1065 980 1028 1027 1028 981 1029 982 1030 1029 1030 983 1031 1031 984 1032 985 1033 1032 986 1034 1033 987 1035 1034 1035 988 1036 989 1037 1036 990 1038 1037 1038 1017 1066 1066 1017 1039 1039 992 1040 1018 1067 1040 1067 1018 1041 1019 1068 1041 1043 1042 994 995 1042 1044 1043 997 1046 996 1044 1045 1001 1045 1049 1047 1046 998 1048 1047 999 1002 1049 1050 1003 1050 1051 1052 1004 1051 1005 1052 1053 1054 1006 1053 1055 1007 1054 1008 1055 1056 1009 1056 1057 1058 1010 1057 1011 1058 1059 1059 1068 1019 1069 1048 1020 1069 1020 1060 1070 1060 1021 1061 1062 1014 1015 1062 1064 1063 1070 1021 1022 1064 1071 1063 1022 1071 1072 1024 1023 1023 1027 1073 1025 1024 1074 1025 1074 1065 1075 1026 1065 1027 1028 1076 1077 1028 1029 1029 1030 1078 1030 1031 1079 1031 1032 1080 1033 1081 1032 1034 1082 1033 1034 1035 1083 1084 1035 1036 1037 1085 1036 1038 1086 1037 1038 1066 1087 1066 1039 1088 1039 1040 1088 1067 1089 1040 1090 1067 1041 1068 1090 1041 1043 1091 1042 1044 1042 1092 1093 1043 1046 1045 1044 1094 1049 1045 1095 1047 1096 1046 1097 1047 1048 1050 1049 1098 1050 1099 1051 1052 1051 1100 1052 1101 1053 1102 1054 1053 1055 1054 1103 1055 1104 1056 1057 1056 1105 1106 1058 1057 1059 1058 1107 1059 1108 1068 1097 1048 1069 1069 1060 1109 1109 1060 1070 1061 1110 1062 1064 1062 1111 1112 1070 1063 1064 1111 1071 1112 1063 1071 1074 1024 1072 1072 1023 1073 1027 1076 1073 1074 1113 1065 1113 1075 1065 1076 1028 1077 1077 1029 1078 1030 1079 1078 1079 1031 1080 1032 1081 1080 1082 1081 1033 1034 1083 1082 1083 1035 1084 1085 1084 1036 1086 1085 1037 1038 1087 1086 1087 1066 1114 1114 1066 1088 1040 1089 1088 1115 1089 1067 1090 1115 1067 1116 1090 1068 1093 1091 1043 1042 1091 1092 1044 1092 1094 1096 1093 1046 1095 1045 1094 1049 1095 1098 1097 1096 1047 1099 1050 1098 1051 1099 1100 1101 1052 1100 1101 1102 1053 1103 1054 1102 1055 1103 1104 1056 1104 1105 1106 1057 1105 1107 1058 1106 1059 1107 1108 1108 1116 1068 1097 1069 1117 1069 1109 1117 1109 1070 1118 1062 1110 1111 1118 1070 1112 1111 1119 1071 1119 1112 1071 1120 1074 1072 1121 1072 1073 1076 1122 1073 1120 1113 1074 1123 1075 1113 1076 1077 1124 1125 1077 1078 1078 1079 1126 1127 1079 1080 1081 1128 1080 1082 1129 1081 1082 1083 1130 1131 1083 1084 1084 1085 1132 1086 1133 1085 1086 1087 1134 1087 1114 1135 1114 1088 1136 1088 1089 1136 1115 1137 1089 1090 1138 1115 1116 1138 1090 1093 1139 1091 1091 1140 1092 1092 1141 1094 1142 1093 1096 1143 1095 1094 1095 1144 1098 1145 1096 1097 1146 1099 1098 1099 1147 1100 1148 1101 1100 1149 1102 1101 1103 1102 1150 1104 1103 1151 1105 1104 1152 1153 1106 1105 1107 1106 1154 1108 1107 1155 1108 1156 1116 1145 1097 1117 1109 1157 1117 1109 1118 1157 1110 1158 1111 1118 1112 1159 1119 1111 1160 1159 1112 1119 1121 1120 1072 1122 1121 1073 1076 1124 1122 1113 1120 1161 1123 1113 1161 1124 1077 1125 1125 1078 1126 1079 1127 1126 1128 1127 1080 1081 1129 1128 1082 1130 1129 1130 1083 1131 1131 1084 1132 1085 1133 1132 1086 1134 1133 1087 1135 1134 1135 1114 1162 1162 1114 1136 1089 1137 1136 1163 1137 1115 1138 1163 1115 1116 1164 1138 1142 1139 1093 1091 1139 1140 1140 1141 1092 1141 1143 1094 1142 1096 1145 1144 1095 1143 1144 1146 1098 1146 1147 1099 1147 1148 1100 1149 1101 1148 1150 1102 1149 1103 1150 1151 1104 1151 1152 1153 1105 1152 1106 1153 1154 1155 1107 1154 1108 1155 1156 1116 1156 1164 1145 1117 1165 1117 1157 1165 1157 1118 1166 1111 1158 1160 1118 1159 1166 1119 1160 1167 1159 1119 1167 1121 1168 1120 1122 1169 1121 1122 1124 1170 1120 1171 1161 1172 1123 1161 1124 1125 1173 1174 1125 1126 1127 1175 1126 1176 1127 1128 1129 1177 1128 1129 1130 1178 1130 1131 1179 1180 1131 1132 1133 1181 1132 1133 1134 1182 1135 1183 1134 1184 1135 1162 1185 1162 1136 1137 1185 1136 1163 1186 1137 1138 1187 1163 1138 1164 1187 1188 1139 1142 1139 1189 1140 1190 1141 1140 1141 1191 1143 1142 1145 1192 1193 1144 1143 1144 1194 1146 1146 1195 1147 1147 1196 1148 1197 1149 1148 1150 1149 1198 1150 1199 1151 1152 1151 1200 1201 1153 1152 1153 1202 1154 1203 1155 1154 1156 1155 1204 1164 1156 1205 1192 1145 1165 1165 1157 1206 1206 1157 1166 1158 1207 1160 1166 1159 1208 1160 1209 1167 1208 1159 1167 1121 1169 1168 1120 1168 1171 1122 1170 1169 1170 1124 1173 1171 1210 1161 1210 1172 1161 1125 1174 1173 1175 1174 1126 1176 1175 1127 1177 1176 1128 1129 1178 1177 1178 1130 1179 1131 1180 1179 1181 1180 1132 1181 1133 1182 1134 1183 1182 1184 1183 1135 1184 1162 1211 1211 1162 1185 1137 1186 1185 1163 1212 1186 1163 1187 1212 1187 1164 1213 1188 1189 1139 1188 1142 1192 1189 1190 1140 1190 1191 1141 1191 1193 1143 1193 1194 1144 1146 1194 1195 1147 1195 1196 1196 1197 1148 1198 1149 1197 1150 1198 1199 1151 1199 1200 1201 1152 1200 1201 1202 1153 1202 1203 1154 1204 1155 1203 1156 1204 1205 1164 1205 1213 1214 1192 1165 1214 1165 1206 1215 1206 1166 1207 1209 1160 1215 1166 1208 1209 1216 1167 1216 1208 1167 1168 1169 1217 1171 1168 1218 1169 1170 1219 1220 1170 1173 1171 1218 1210 1221 1172 1210 1174 1222 1173 1175 1223 1174 1224 1175 1176 1177 1225 1176 1177 1178 1226 1178 1179 1227 1180 1228 1179 1181 1229 1180 1230 1181 1182 1182 1183 1231 1184 1232 1183 1233 1184 1211 1234 1211 1185 1186 1234 1185 1186 1212 1235 1212 1187 1236 1236 1187 1213 1237 1189 1188 1238 1188 1192 1239 1190 1189 1240 1191 1190 1191 1241 1193 1242 1194 1193 1194 1243 1195 1195 1244 1196 1245 1197 1196 1198 1197 1246 1199 1198 1247 1200 1199 1248 1249 1201 1200 1250 1202 1201 1251 1203 1202 1204 1203 1252 1204 1253 1205 1205 1254 1213 1214 1238 1192 1255 1214 1206 1215 1255 1206 1207 1256 1209 1257 1215 1208 1209 1258 1216 1216 1257 1208 1169 1219 1217 1168 1217 1218 1219 1170 1220 1222 1220 1173 1218 1259 1210 1259 1221 1210 1174 1223 1222 1224 1223 1175 1225 1224 1176 1177 1226 1225 1226 1178 1227 1179 1228 1227 1229 1228 1180 1230 1229 1181 1230 1182 1231 1183 1232 1231 1233 1232 1184 1260 1233 1211 1234 1260 1211 1186 1235 1234 1235 1212 1261 1212 1236 1261 1236 1213 1262 1239 1189 1237 1237 1188 1238 1240 1190 1239 1240 1241 1191 1241 1242 1193 1242 1243 1194 1243 1244 1195 1244 1245 1196 1246 1197 1245 1198 1246 1247 1199 1247 1248 1249 1200 1248 1250 1201 1249 1251 1202 1250 1252 1203 1251 1204 1252 1253 1253 1254 1205 1213 1254 1262 1263 1238 1214 1255 1263 1214 1264 1255 1215 1209 1256 1258 1264 1215 1257 1216 1258 1265 1257 1216 1265 1219 1266 1217 1218 1217 1267 1219 1220 1268 1220 1222 1269 1259 1218 1267 1270 1221 1259 1223 1271 1222 1224 1272 1223 1225 1273 1224 1225 1226 1274 1275 1226 1227 1227 1228 1276 1229 1277 1228 1230 1278 1229 1279 1230 1231 1232 1280 1231 1233 1281 1232 1260 1282 1233 1234 1283 1260 1234 1235 1283 1284 1235 1261 1236 1285 1261 1285 1236 1262 1239 1237 1286 1237 1238 1287 1240 1239 1288 1289 1241 1240 1290 1242 1241 1291 1243 1242 1292 1244 1243 1293 1245 1244 1246 1245 1294 1246 1295 1247 1247 1296 1248 1297 1249 1248 1250 1249 1298 1251 1250 1299 1252 1251 1300 1253 1252 1301 1253 1302 1254 1254 1303 1262 1287 1238 1263 1304 1263 1255 1304 1255 1264 1256 1305 1258 1264 1257 1306 1258 1307 1265 1308 1257 1265 1219 1268 1266 1217 1266 1267 1268 1220 1269 1222 1271 1269 1309 1259 1267 1270 1259 1309 1223 1272 1271 1224 1273 1272 1225 1274 1273 1274 1226 1275 1275 1227 1276 1228 1277 1276 1229 1278 1277 1279 1278 1230 1280 1279 1231 1232 1281 1280 1233 1282 1281 1260 1310 1282 1260 1283 1310 1283 1235 1284 1284 1261 1311 1261 1285 1311 1312 1285 1262 1288 1239 1286 1237 1287 1286 1289 1240 1288 1290 1241 1289 1291 1242 1290 1292 1243 1291 1293 1244 1292 1294 1245 1293 1246 1294 1295 1295 1296 1247 1296 1297 1248 1249 1297 1298 1250 1298 1299 1251 1299 1300 1301 1252 1300 1253 1301 1302 1302 1303 1254 1303 1312 1262 1287 1263 1313 1313 1263 1304 1304 1264 1314 1258 1305 1307 1314 1264 1306 1257 1308 1306 1307 1308 1265 1266 1268 1315 1266 1316 1267 1317 1268 1269 1269 1271 1318 1316 1309 1267 1319 1270 1309 1272 1320 1271 1273 1321 1272 1273 1274 1322 1274 1275 1323 1324 1275 1276 1277 1325 1276 1277 1278 1326 1279 1327 1278 1280 1328 1279 1280 1281 1329 1281 1282 1330 1282 1310 1331 1310 1283 1332 1283 1284 1332 1284 1311 1333 1285 1334 1311 1312 1334 1285 1288 1286 1335 1287 1336 1286 1289 1288 1337 1290 1289 1338 1291 1290 1339 1292 1291 1340 1293 1292 1341 1294 1293 1342 1294 1343 1295 1344 1296 1295 1296 1345 1297 1297 1346 1298 1298 1347 1299 1299 1348 1300 1301 1300 1349 1302 1301 1350 1351 1303 1302 1303 1352 1312 1287 1313 1336 1313 1304 1353 1304 1314 1353 1305 1354 1307 1355 1314 1306 1308 1355 1306 1307 1356 1308 1315 1268 1317 1266 1315 1316 1317 1269 1318 1271 1320 1318 1316 1357 1309 1357 1319 1309 1321 1320 1272 1273 1322 1321 1322 1274 1323 1275 1324 1323 1325 1324 1276 1325 1277 1326 1278 1327 1326 1279 1328 1327 1280 1329 1328 1329 1281 1330 1282 1331 1330 1331 1310 1358 1358 1310 1332 1332 1284 1333 1311 1359 1333 1334 1359 1311 1360 1334 1312 1337 1288 1335 1286 1336 1335 1338 1289 1337 1339 1290 1338 1291 1339 1340 1341 1292 1340 1342 1293 1341 1294 1342 1343 1343 1344 1295 1344 1345 1296 1345 1346 1297 1346 1347 1298 1347 1348 1299 1300 1348 1349 1350 1301 1349 1351 1302 1350 1351 1352 1303 1352 1360 1312 1336 1313 1361 1361 1313 1353 1314 1362 1353 1354 1356 1307 1314 1355 1362 1308 1356 1355 1315 1317 1363 1316 1315 1364 1365 1317 1318 1320 1366 1318 1357 1316 1364 1367 1319 1357 1321 1368 1320 1321 1322 1369 1322 1323 1370 1324 1371 1323 1325 1372 1324 1373 1325 1326 1327 1374 1326 1327 1328 1375 1328 1329 1376 1329 1330 1377 1331 1378 1330 1331 1358 1379 1380 1358 1332 1380 1332 1333 1333 1359 1381 1334 1382 1359 1360 1382 1334 1383 1337 1335 1335 1336 1384 1385 1338 1337 1386 1339 1338 1340 1339 1387 1388 1341 1340 1389 1342 1341 1343 1342 1390 1343 1391 1344 1392 1345 1344 1393 1346 1345 1346 1394 1347 1347 1395 1348 1348 1396 1349 1397 1350 1349 1398 1351 1350 1351 1399 1352 1352 1400 1360 1336 1361 1384 1361 1353 1401 1353 1362 1401 1354 1402 1356 1362 1355 1403 1355 1356 1404 1315 1363 1364 1363 1317 1365 1366 1365 1318 1320 1368 1366 1357 1364 1405 1367 1357 1406 1321 1369 1368 1369 1322 1370 1323 1371 1370 1324 1372 1371 1373 1372 1325 1374 1373 1326 1327 1375 1374 1375 1328 1376 1376 1329 1377 1330 1378 1377 1331 1379 1378 1379 1358 1407 1407 1358 1380 1380 1333 1381 1359 1408 1381 1382 1408 1359 1360 1409 1382 1383 1385 1337 1383 1335 1384 1385 1386 1338 1339 1386 1387 1388 1340 1387 1388 1389 1341 1390 1342 1389 1343 1390 1391 1391 1392 1344 1392 1393 1345 1393 1394 1346 1347 1394 1395 1395 1396 1348 1396 1397 1349 1398 1350 1397 1398 1399 1351 1352 1399 1400 1360 1400 1409 1384 1361 1410 1410 1361 1401 1401 1362 1411 1356 1402 1404 1355 1404 1403 1362 1403 1411 1363 1412 1364 1363 1365 1413 1414 1365 1366 1368 1415 1366 1357 1405 1406 1364 1412 1405 1416 1367 1406 1368 1369 1417 1418 1369 1370 1370 1371 1419 1371 1372 1420 1373 1421 1372 1374 1422 1373 1374 1375 1423 1424 1375 1376 1425 1376 1377 1377 1378 1426 1378 1379 1427 1379 1407 1428 1407 1380 1429 1429 1380 1381 1408 1430 1381 1382 1431 1408 1382 1409 1431 1432 1385 1383 1433 1383 1384 1385 1434 1386 1386 1435 1387 1436 1388 1387 1388 1437 1389 1438 1390 1389 1391 1390 1439 1391 1440 1392 1392 1441 1393 1393 1442 1394 1394 1443 1395 1444 1396 1395 1396 1445 1397 1446 1398 1397 1398 1447 1399 1400 1399 1448 1409 1400 1449 1433 1384 1410 1450 1410 1401 1450 1401 1411 1402 1451 1404 1404 1452 1403 1403 1453 1411 1363 1413 1412 1365 1414 1413 1415 1414 1366 1368 1417 1415 1405 1454 1406 1405 1412 1455 1454 1416 1406 1417 1369 1418 1418 1370 1419 1371 1420 1419 1372 1421 1420 1373 1422 1421 1374 1423 1422 1423 1375 1424 1425 1424 1376 1425 1377 1426 1378 1427 1426 1427 1379 1428 1428 1407 1456 1407 1429 1456 1430 1429 1381 1408 1457 1430 1408 1431 1457 1431 1409 1458 1432 1434 1385 1432 1383 1433 1434 1435 1386 1435 1436 1387 1436 1437 1388 1437 1438 1389 1439 1390 1438 1391 1439 1440 1392 1440 1441 1393 1441 1442 1394 1442 1443 1443 1444 1395 1444 1445 1396 1445 1446 1397 1446 1447 1398 1399 1447 1448 1449 1400 1448 1409 1449 1458 1459 1433 1410 1450 1459 1410 1450 1411 1460 1451 1452 1404 1452 1453 1403 1411 1453 1460 1413 1461 1412 1414 1462 1413 1415 1463 1414 1415 1417 1464 1454 1405 1455 1412 1461 1455 1465 1416 1454 1417 1418 1466 1467 1418 1419 1420 1468 1419 1421 1469 1420 1421 1422 1470 1422 1423 1471 1423 1424 1472 1473 1424 1425 1474 1425 1426 1426 1427 1475 1476 1427 1428 1477 1428 1456 1429 1478 1456 1430 1478 1429 1430 1457 1479 1457 1431 1480 1480 1431 1458 1432 1481 1434 1482 1432 1433 1434 1483 1435 1435 1484 1436 1437 1436 1485 1486 1438 1437 1439 1438 1487 1440 1439 1488 1441 1440 1489 1442 1441 1490 1443 1442 1491 1443 1492 1444 1444 1493 1445 1445 1494 1446 1446 1495 1447 1447 1496 1448 1449 1448 1497 1458 1449 1498 1459 1482 1433 1499 1459 1450 1499 1450 1460 1451 1500 1452 1452 1501 1453 1460 1453 1502 1462 1461 1413 1414 1463 1462 1415 1464 1463 1464 1417 1466 1503 1454 1455 1461 1503 1455 1465 1454 1504 1418 1467 1466 1468 1467 1419 1469 1468 1420 1421 1470 1469 1470 1422 1471 1423 1472 1471 1472 1424 1473 1473 1425 1474 1474 1426 1475 1427 1505 1475 1505 1427 1476 1477 1476 1428 1478 1477 1456 1478 1430 1479 1457 1506 1479 1457 1480 1506 1507 1480 1458 1482 1481 1432 1434 1481 1483 1483 1484 1435 1436 1484 1485 1486 1437 1485 1487 1438 1486 1439 1487 1488 1489 1440 1488 1441 1489 1490 1491 1442 1490 1443 1491 1492 1444 1492 1493 1445 1493 1494 1446 1494 1495 1447 1495 1496 1448 1496 1497 1449 1497 1498 1507 1458 1498 1508 1482 1459 1508 1459 1499 1509 1499 1460 1452 1500 1501 1453 1501 1502 1509 1460 1502 1510 1461 1462 1463 1511 1462 1463 1464 1512 1513 1464 1466 1454 1503 1504 1510 1503 1461 1514 1465 1504 1466 1467 1515 1468 1516 1467 1469 1517 1468 1469 1470 1518 1519 1470 1471 1471 1472 1520 1472 1473 1521 1473 1474 1522 1523 1474 1475 1505 1523 1475 1524 1505 1476 1525 1476 1477 1526 1477 1478 1527 1478 1479 1479 1506 1528 1506 1480 1529 1530 1480 1507 1531 1481 1482 1481 1532 1483 1533 1484 1483 1484 1534 1485 1535 1486 1485 1487 1486 1536 1487 1537 1488 1489 1488 1538 1490 1489 1539 1540 1491 1490 1492 1491 1541 1493 1492 1542 1494 1493 1543 1495 1494 1544 1496 1495 1545 1496 1546 1497 1497 1547 1498 1507 1498 1548 1531 1482 1508 1508 1499 1549 1549 1499 1509 1500 1550 1501 1501 1551 1502 1551 1509 1502 1511 1510 1462 1463 1512 1511 1512 1464 1513 1513 1466 1515 1504 1503 1552 1510 1553 1503 1554 1514 1504 1467 1516 1515 1468 1517 1516 1469 1518 1517 1518 1470 1519 1519 1471 1520 1472 1521 1520 1521 1473 1522 1522 1474 1523 1505 1555 1523 1524 1555 1505 1524 1476 1525 1525 1477 1526 1527 1526 1478 1527 1479 1528 1506 1556 1528 1480 1530 1529 1556 1506 1529 1530 1507 1557 1531 1532 1481 1532 1533 1483 1533 1534 1484 1534 1535 1485 1536 1486 1535 1487 1536 1537 1488 1537 1538 1489 1538 1539 1540 1490 1539 1541 1491 1540 1492 1541 1542 1543 1493 1542 1494 1543 1544 1545 1495 1544 1496 1545 1546 1546 1547 1497 1498 1547 1548 1557 1507 1548 1531 1508 1558 1508 1549 1558 1549 1509 1559 1501 1550 1551 1509 1551 1559 1511 1560 1510 1511 1512 1561 1512 1513 1562 1513 1515 1563 1503 1553 1552 1554 1504 1552 1510 1560 1553 1564 1514 1554 1516 1565 1515 1516 1517 1566 1517 1518 1567 1518 1519 1568 1569 1519 1520 1521 1569 1520 1521 1522 1570 1571 1522 1523 1555 1571 1523 1524 1572 1555 1573 1524 1525 1574 1525 1526 1527 1575 1526 1576 1527 1528 1556 1576 1528 1530 1577 1529 1577 1556 1529 1578 1530 1557 1579 1532 1531 1580 1533 1532 1581 1534 1533 1582 1535 1534 1536 1535 1583 1536 1584 1537 1537 1585 1538 1538 1586 1539 1540 1539 1587 1541 1540 1588 1541 1589 1542 1543 1542 1590 1544 1543 1591 1592 1545 1544 1546 1545 1593 1546 1594 1547 1547 1595 1548 1595 1557 1548 1579 1531 1558 1558 1549 1596 1597 1549 1559 1550 1598 1551 1551 1599 1559 1511 1561 1560 1561 1512 1562 1562 1513 1563 1515 1565 1563 1553 1600 1552 1600 1554 1552 1553 1560 1601 1602 1564 1554 1516 1566 1565 1566 1517 1567 1518 1568 1567 1568 1519 1603 1519 1569 1603 1569 1521 1570 1522 1604 1570 1571 1604 1522 1605 1571 1555 1573 1572 1524 1572 1605 1555 1574 1573 1525 1575 1574 1526 1576 1575 1527 1578 1577 1530 1606 1578 1557 1580 1532 1579 1581 1533 1580 1582 1534 1581 1583 1535 1582 1536 1583 1584 1584 1585 1537 1585 1586 1538 1539 1586 1587 1588 1540 1587 1541 1588 1589 1542 1589 1590 1543 1590 1591 1592 1544 1591 1593 1545 1592 1546 1593 1594 1594 1595 1547 1595 1606 1557 1607 1579 1558 1549 1597 1596 1607 1558 1596 1599 1597 1559 1598 1599 1551 1560 1561 1608 1609 1561 1562 1610 1562 1563 1563 1565 1611 1553 1601 1600 1602 1554 1600 1560 1608 1601 1612 1564 1602 1565 1566 1613 1614 1566 1567 1567 1568 1615 1616 1568 1603 1569 1617 1603 1618 1569 1570 1604 1618 1570 1619 1604 1571 1605 1619 1571 1580 1579 1620 1581 1580 1621 1582 1581 1622 1583 1582 1623 1584 1583 1624 1584 1625 1585 1585 1626 1586 1586 1627 1587 1628 1588 1587 1589 1588 1629 1589 1630 1590 1590 1631 1591 1592 1591 1632 1593 1592 1633 1594 1593 1634 1595 1594 1635 1636 1606 1595 1579 1607 1620 1597 1637 1596 1637 1607 1596 1599 1638 1597 1598 1639 1599 1608 1561 1609 1610 1609 1562 1610 1563 1611 1565 1613 1611 1601 1640 1600 1640 1602 1600 1608 1641 1601 1612 1602 1642 1613 1566 1614 1614 1567 1615 1568 1616 1615 1617 1616 1603 1618 1617 1569 1604 1643 1618 1619 1643 1604 1621 1580 1620 1581 1621 1622 1623 1582 1622 1624 1583 1623 1584 1624 1625 1585 1625 1626 1626 1627 1586 1627 1628 1587 1588 1628 1629 1630 1589 1629 1630 1631 1590 1591 1631 1632 1633 1592 1632 1593 1633 1634 1644 1594 1634 1636 1595 1635 1594 1644 1635 1607 1645 1620 1637 1597 1646 1637 1645 1607 1599 1639 1638 1597 1638 1646 1608 1609 1647 1648 1609 1610 1649 1610 1611 1611 1613 1650 1601 1641 1640 1642 1602 1640 1608 1647 1641 1651 1612 1642 1613 1614 1652 1653 1614 1615 1616 1653 1615 1617 1654 1616 1655 1617 1618 1643 1655 1618 1656 1621 1620 1622 1621 1657 1658 1623 1622 1659 1624 1623 1625 1624 1660 1625 1661 1626 1662 1627 1626 1627 1663 1628 1628 1664 1629 1665 1630 1629 1630 1666 1631 1631 1667 1632 1633 1632 1668 1633 1669 1634 1669 1644 1634 1670 1636 1635 1644 1670 1635 1645 1656 1620 1637 1646 1671 1672 1645 1637 1639 1673 1638 1638 1674 1646 1647 1609 1648 1648 1610 1649 1649 1611 1650 1650 1613 1652 1641 1675 1640 1675 1642 1640 1641 1647 1676 1651 1642 1677 1614 1678 1652 1614 1653 1678 1679 1653 1616 1655 1654 1617 1654 1679 1616 1621 1656 1657 1658 1622 1657 1658 1659 1623 1660 1624 1659 1625 1660 1661 1661 1662 1626 1662 1663 1627 1663 1664 1628 1664 1665 1629 1665 1666 1630 1631 1666 1667 1632 1667 1668 1669 1633 1668 1669 1680 1644 1680 1670 1644 1645 1681 1656 1672 1637 1671 1646 1674 1671 1672 1681 1645 1673 1674 1638 1647 1648 1682 1648 1649 1683 1684 1649 1650 1685 1650 1652 1641 1676 1675 1642 1675 1677 1676 1647 1682 1686 1651 1677 1678 1685 1652 1653 1687 1678 1679 1687 1653 1656 1688 1657 1689 1658 1657 1658 1690 1659 1691 1660 1659 1661 1660 1692 1661 1693 1662 1662 1694 1663 1663 1695 1664 1664 1696 1665 1665 1697 1666 1667 1666 1698 1668 1667 1699 1700 1669 1668 1701 1680 1669 1681 1688 1656 1702 1672 1671 1674 1702 1671 1703 1681 1672 1673 1704 1674 1648 1683 1682 1683 1649 1684 1685 1684 1650 1676 1705 1675 1675 1705 1677 1706 1676 1682 1686 1677 1707 1708 1685 1678 1687 1708 1678 1688 1689 1657 1689 1690 1658 1690 1691 1659 1692 1660 1691 1661 1692 1693 1662 1693 1694 1663 1694 1695 1664 1695 1696 1665 1696 1697 1666 1697 1698 1667 1698 1699 1700 1668 1699 1701 1669 1700 1681 1709 1688 1703 1672 1702 1674 1704 1702 1703 1709 1681 1683 1706 1682 1710 1683 1684 1685 1711 1684 1705 1676 1712 1677 1705 1707 1676 1706 1712 1713 1686 1707 1708 1711 1685 1714 1689 1688 1689 1715 1690 1716 1691 1690 1692 1691 1717 1693 1692 1718 1694 1693 1719 1695 1694 1720 1696 1695 1721 1697 1696 1722 1697 1723 1698 1698 1724 1699 1724 1700 1699 1725 1701 1700 1709 1714 1688 1726 1703 1702 1704 1727 1702 1728 1709 1703 1729 1706 1683 1710 1729 1683 1711 1710 1684 1730 1705 1712 1705 1731 1707 1706 1732 1712 1731 1713 1707 1714 1715 1689 1715 1716 1690 1717 1691 1716 1692 1717 1718 1693 1718 1719 1720 1694 1719 1695 1720 1721 1722 1696 1721 1697 1722 1723 1698 1723 1733 1724 1698 1733 1724 1725 1700 1734 1714 1709 1726 1728 1703 1727 1726 1702 1734 1709 1728 1729 1732 1706 1730 1731 1705 1732 1730 1712 1735 1715 1714 1736 1716 1715 1717 1716 1737 1717 1738 1718 1718 1739 1719 1720 1719 1740 1721 1720 1741 1722 1721 1742 1723 1722 1743 1723 1744 1733 1745 1724 1733 1745 1725 1724 1735 1714 1734 1728 1726 1746 1727 1747 1726 1734 1728 1748 1736 1715 1735 1737 1716 1736 1717 1737 1738 1738 1739 1718 1719 1739 1740 1720 1740 1741 1721 1741 1742 1743 1722 1742 1744 1723 1743 1744 1749 1733 1749 1745 1733 1735 1734 1750 1726 1747 1746 1748 1728 1746 1734 1748 1750 1736 1735 1751 1737 1736 1752 1738 1737 1753 1738 1754 1739 1739 1755 1740 1740 1756 1741 1741 1757 1742 1757 1743 1742 1758 1744 1743 1759 1749 1744 1751 1735 1750 1747 1760 1746 1748 1746 1761 1748 1762 1750 1736 1751 1752 1753 1737 1752 1738 1753 1754 1754 1755 1739 1755 1756 1740 1741 1756 1763 1757 1741 1763 1757 1758 1743 1759 1744 1758 1751 1750 1764 1746 1760 1761 1762 1748 1761 1750 1762 1764 1752 1751 1765 1766 1753 1752 1754 1753 1767 1754 1768 1755 1755 1769 1756 1756 1770 1763 1771 1757 1763 1771 1758 1757 1772 1759 1758 1765 1751 1764 1760 1773 1761 1774 1762 1761 1762 1775 1764 1766 1752 1765 1767 1753 1766 1754 1767 1768 1755 1768 1769 1756 1769 1770 1770 1771 1763 1771 1772 1758 1775 1765 1764 1773 1774 1761 1774 1775 1762 1776 1766 1765 1767 1766 1777 1768 1767 1778 1769 1768 1779 1769 1780 1770 1781 1771 1770 1781 1772 1771 1765 1775 1782 1773 1783 1774 1774 1784 1775 1777 1766 1776 1776 1765 1782 1767 1777 1778 1779 1768 1778 1780 1769 1779 1780 1785 1770 1785 1781 1770 1775 1784 1782 1774 1783 1784 1777 1776 1786 1776 1782 1787 1777 1788 1778 1779 1778 1789 1780 1779 1790 1791 1785 1780 1784 1792 1782 1783 1793 1784 1777 1786 1788 1786 1776 1787 1782 1792 1787 1778 1788 1789 1790 1779 1789 1791 1780 1790 1793 1792 1784 1788 1786 1794 1795 1786 1787 1792 1795 1787 1789 1788 1796 1797 1790 1789 1798 1791 1790 1793 1799 1792 1794 1786 1795 1788 1794 1796 1795 1792 1800 1797 1789 1796 1797 1798 1790 1792 1799 1800 1794 1795 1801 1794 1802 1796 1803 1795 1800 1802 1797 1796 1804 1798 1797 1799 1805 1800 1806 1794 1801 1795 1803 1801 1794 1806 1802 1805 1803 1800 1804 1797 1802 1803 1806 1801 1806 1807 1802 1805 1808 1803 1807 1804 1802 1806 1803 1809 1810 1807 1806 1803 1808 1809 1810 1806 1809 1808 1811 1809 1811 1810 1809 </DataArray>
        <DataArray type="Int32" Name="offsets" format="ascii">3 6 9 12 15 18 21 24 27 30 33 36 39 42 45 48 51 54 57 60 63 66 69 72 75 78 81 84 87 90 93 96 99 102 105 108 111 114 117 120 123 126 129 132 135 138 141 144 147 150 153 156 159 162 165 168 171 174 177 180 183 186 189 192 195 198 201 204 207 210 213 216 219 222 225 228 231 234 237 240 243 246 249 252 255 258 261 264 267 270 273 276 279 282 285 288 291 294 297 300 303 306 309 312 315 318 321 324 327 330 333 336 339 342 345 348 351 354 357 360 363 366 369 372 375 378 381 384 387 390 393 396 399 402 405 408 411 414 417 420 423 426 429 432 435 438 441 444 447 450 453 456 459 462 465 468 471 474 477 480 483 486 489 492 495 498 501 504 507 510 513 516 519 522 525 528 531 534 537 540 543 546 549 552 555 558 561 564 567 570 573 576 579 582 585 588 591 594 597 600 603 606 609 612 615 618 621 624 627 630 633 636 639 642 645 648 651 654 657 660 663 666 669 672 675 678 681 684 687 690 693 696 699 702 705 708 711 714 717 720 723 726 729 732 735 738 741 744 747 750 753 756 759 762 765 768 771 774 777 780 783 786 789 792 795 798 801 804 807 810 813 816 819 822 825 828 831 834 837 840 843 846 849 852 855 858 861 864 867 870 873 876 879 882 885 888 891 894 897 900 903 906 909 912 915 918 921 924 927 930 933 936 939 942 945 948 951 954 957 960 963 966 969 972 975 978 981 984 987 990 993 996 999 1002 1005 1008 1011 1014 1017 1020 1023 1026 1029 1032 1035 1038 1041 1044 1047 1050 1053 1056 1059 1062 1065 1068 1071 1074 1077 1080 1083 1086 1089 1092 1095 1098 1101 1104 1107 1110 1113 1116 1119 1122 1125 1128 1131 1134 1137 1140 1143 1146 1149 1152 1155 1158 1161 1164 1167 1170 1173 1176 1179 1182 1185 1188 1191 1194 1197 1200 1203 1206 1209 1212 1215 1218 1221 1224 1227 1230 1233 1236 1239 1242 1245 1248 1251 1254 1257 1260 1263 1266 1269 1272 1275 1278 1281 1284 1287 1290 1293 1296 1299 1302 1305 1308 1311 1314 1317 1320 1323 1326 1329 1332 1335 1338 1341 1344 1347 1350 1353 1356 1359 1362 1365 1368 1371 1374 1377 1380 1383 1386 1389 1392 1395 1398 1401 1404 1407 1410 1413 1416 1419 1422 1425 1428 1431 1434 1437 1440 1443 1446 1449 1452 1455 1458 1461 1464 1467 1470 1473 1476 1479 1482 1485 1488 1491 1494 1497 1500 1503 1506 1509 1512 1515 1518 1521 1524 1527 1530 1533 1536 1539 1542 1545 1548 1551 1554 1557 1560 1563 1566 1569 1572 1575 1578 1581 1584 1587 1590 1593 1596 1599 1602 1605 1608 1611 1614 1617 1620 1623 1626 1629 1632 1635 1638 1641 1644 1647 1650 1653 1656 1659 1662 1665 1668 1671 1674 1677 1680 1683 1686 1689 1692 1695 1698 1701 1704 1707 1710 1713 1716 1719 1722 1725 1728 1731 1734 1737 1740 1743 1746 1749 1752 1755 1758 1761 1764 1767 1770 1773 1776 1779 1782 1785 1788 1791 1794 1797 1800 1803 1806 1809 1812 1815 1818 1821 1824 1827 1830 1833 1836 1839 1842 1845 1848 1851 1854 1857 1860 1863 1866 1869 1872 1875 1878 1881 1884 1887 1890 1893 1896 1899 1902 1905 1908 1911 1914 1917 1920 1923 1926 1929 1932 1935 1938 1941 1944 1947 1950 1953 1956 1959 1962 1965 1968 1971 1974 1977 1980 1983 1986 1989 1992 1995 1998 2001 2004 2007 2010 2013 2016 2019 2022 2025 2028 2031 2034 2037 2040 2043 2046 2049 2052 2055 2058 2061 2064 2067 2070 2073 2076 2079 2082 2085 2088 2091 2094 2097 2100 2103 2106 2109 2112 2115 2118 2121 2124 2127 2130 2133 2136 2139 2142 2145 2148 2151 2154 2157 2160 2163 2166 2169 2172 2175 2178 2181 2184 2187 2190 2193 2196 2199 2202 2205 2208 2211 2214 2217 2220 2223 2226 2229 2232 2235 2238 2241 2244 2247 2250 2253 2256 2259 2262 2265 2268 2271 2274 2277 2280 2283 2286 2289 2292 2295 2298 2301 2304 2307 2310 2313 2316 2319 2322 2325 2328 2331 2334 2337 2340 2343 2346 2349 2352 2355 2358 2361 2364 2367 2370 2373 2376 2379 2382 2385 2388 2391 2394 2397 2400 2403 2406 2409 2412 2415 2418 2421 2424 2427 2430 2433 2436 2439 2442 2445 2448 2451 2454 2457 2460 2463 2466 2469 2472 2475 2478 2481 2484 2487 2490 2493 2496 2499 2502 2505 2508 2511 2514 2517 2520 2523 2526 2529 2532 2535 2538 2541 2544 2547 2550 2553 2556 2559 2562 2565 2568 2571 2574 2577 2580 2583 2586 2589 2592 2595 2598 2601 2604 2607 2610 2613 2616 2619 2622 2625 2628 2631 2634 2637 2640 2643 2646 2649 2652 2655 2658 2661 2664 2667 2670 2673 2676 2679 2682 2685 2688 2691 2694 2697 2700 2703 2706 2709 2712 2715 2718 2721 2724 2727 2730 2733 2736 2739 2742 2745 2748 2751 2754 2757 2760 2763 2766 2769 2772 2775 2778 2781 2784 2787 2790 2793 2796 2799 2802 2805 2808 2811 2814 2817 2820 2823 2826 2829 2832 2835 2838 2841 2844 2847 2850 2853 2856 2859 2862 2865 2868 2871 2874 2877 2880 2883 2886 2889 2892 2895 2898 2901 2904 2907 2910 2913 2916 2919 2922 2925 2928 2931 2934 2937 2940 2943 2946 2949 2952 2955 2958 2961 2964 2967 2970 2973 2976 2979 2982 2985 2988 2991 2994 2997 3000 3003 3006 3009 3012 3015 3018 3021 3024 3027 3030 3033 3036 3039 3042 3045 3048 3051 3054 3057 3060 3063 3066 3069 3072 3075 3078 3081 3084 3087 3090 3093 3096 3099 3102 3105 3108 3111 3114 3117 3120 3123 3126 3129 3132 3135 3138 3141 3144 3147 3150 3153 3156 3159 3162 3165 3168 3171 3174 3177 3180 3183 3186 3189 3192 3195 3198 3201 3204 3207 3210 3213 3216 3219 3222 3225 3228 3231 3234 3237 3240 3243 3246 3249 3252 3255 3258 3261 3264 3267 3270 3273 3276 3279 3282 3285 3288 3291 3294 3297 3300 3303 3306 3309 3312 3315 3318 3321 3324 3327 3330 3333 3336 3339 3342 3345 3348 3351 3354 3357 3360 3363 3366 3369 3372 3375 3378 3381 3384 3387 3390 3393 3396 3399 3402 3405 3408 3411 3414 3417 3420 3423 3426 3429 3432 3435 3438 3441 3444 3447 3450 3453 3456 3459 3462 3465 3468 3471 3474 3477 3480 3483 3486 3489 3492 3495 3498 3501 3504 3507 3510 3513 3516 3519 3522 3525 3528 3531 3534 3537 3540 3543 3546 3549 3552 3555 3558 3561 3564 3567 3570 3573 3576 3579 3582 3585 3588 3591 3594 3597 3600 3603 3606 3609 3612 3615 3618 3621 3624 3627 3630 3633 3636 3639 3642 3645 3648 3651 3654 3657 3660 3663 3666 3669 3672 3675 3678 3681 3684 3687 3690 3693 3696 3699 3702 3705 3708 3711 3714 3717 3720 3723 3726 3729 3732 3735 3738 3741 3744 3747 3750 3753 3756 3759 3762 3765 3768 3771 3774 3777 3780 3783 3786 3789 3792 3795 3798 3801 3804 3807 3810 3813 3816 3819 3822 3825 3828 3831 3834 3837 3840 3843 3846 3849 3852 3855 3858 3861 3864 3867 3870 3873 3876 3879 3882 3885 3888 3891 3894 3897 3900 3903 3906 3909 3912 3915 3918 3921 3924 3927 3930 3933 3936 3939 3942 3945 3948 3951 3954 3957 3960 3963 3966 3969 3972 3975 3978 3981 3984 3987 3990 3993 3996 3999 4002 4005 4008 4011 4014 4017 4020 4023 4026 4029 4032 4035 4038 4041 4044 4047 4050 4053 4056 4059 4062 4065 4068 4071 4074 4077 4080 4083 4086 4089 4092 4095 4098 4101 4104 4107 4110 4113 4116 4119 4122 4125 4128 4131 4134 4137 4140 4143 4146 4149 4152 4155 4158 4161 4164 4167 4170 4173 4176 4179 4182 4185 4188 4191 4194 4197 4200 4203 4206 4209 4212 4215 4218 4221 4224 4227 4230 4233 4236 4239 4242 4245 4248 4251 4254 4257 4260 4263 4266 4269 4272 4275 4278 4281 4284 4287 4290 4293 4296 4299 4302 4305 4308 4311 4314 4317 4320 4323 4326 4329 4332 4335 4338 4341 4344 4347 4350 4353 4356 4359 4362 4365 4368 4371 4374 4377 4380 4383 4386 4389 4392 4395 4398 4401 4404 4407 4410 4413 4416 4419 4422 4425 4428 4431 4434 4437 4440 4443 4446 4449 4452 4455 4458 4461 4464 4467 4470 4473 4476 4479 4482 4485 4488 4491 4494 4497 4500 4503 4506 4509 4512 4515 4518 4521 4524 4527 4530 4533 4536 4539 4542 4545 4548 4551 4554 4557 4560 4563 4566 4569 4572 4575 4578 4581 4584 4587 4590 4593 4596 4599 4602 4605 4608 4611 4614 4617 4620 4623 4626 4629 4632 4635 4638 4641 4644 4647 4650 4653 4656 4659 4662 4665 4668 4671 4674 4677 4680 4683 4686 4689 4692 4695 4698 4701 4704 4707 4710 4713 4716 4719 4722 4725 4728 4731 4734 4737 4740 4743 4746 4749 4752 4755 4758 4761 4764 4767 4770 4773 4776 4779 4782 4785 4788 4791 4794 4797 4800 4803 4806 4809 4812 4815 4818 4821 4824 4827 4830 4833 4836 4839 4842 4845 4848 4851 4854 4857 4860 4863 4866 4869 4872 4875 4878 4881 4884 4887 4890 4893 4896 4899 4902 4905 4908 4911 4914 4917 4920 4923 4926 4929 4932 4935 4938 4941 4944 4947 4950 4953 4956 4959 4962 4965 4968 4971 4974 4977 4980 4983 4986 4989 4992 4995 4998 5001 5004 5007 5010 5013 5016 5019 5022 5025 5028 5031 5034 5037 5040 5043 5046 5049 5052 5055 5058 5061 5064 5067 5070 5073 5076 5079 5082 5085 5088 5091 5094 5097 5100 5103 5106 5109 5112 5115 5118 5121 5124 5127 5130 5133 5136 5139 5142 5145 5148 5151 5154 5157 5160 5163 5166 5169 5172 5175 5178 5181 5184 5187 5190 5193 5196 5199 5202 5205 5208 5211 5214 5217 5220 5223 5226 5229 5232 5235 5238 5241 5244 5247 5250 5253 5256 5259 5262 5265 5268 5271 5274 5277 5280 5283 5286 5289 5292 5295 5298 5301 5304 5307 5310 5313 5316 5319 5322 5325 5328 5331 5334 5337 5340 5343 5346 5349 5352 5355 5358 5361 5364 5367 5370 5373 5376 5379 5382 5385 5388 5391 5394 5397 5400 5403 5406 5409 5412 5415 5418 5421 5424 5427 5430 5433 5436 5439 5442 5445 5448 5451 5454 5457 5460 5463 5466 5469 5472 5475 5478 5481 5484 5487 5490 5493 5496 5499 5502 5505 5508 5511 5514 5517 5520 5523 5526 5529 5532 5535 5538 5541 5544 5547 5550 5553 5556 5559 5562 5565 5568 5571 5574 5577 5580 5583 5586 5589 5592 5595 5598 5601 5604 5607 5610 5613 5616 5619 5622 5625 5628 5631 5634 5637 5640 5643 5646 5649 5652 5655 5658 5661 5664 5667 5670 5673 5676 5679 5682 5685 5688 5691 5694 5697 5700 5703 5706 5709 5712 5715 5718 5721 5724 5727 5730 5733 5736 5739 5742 5745 5748 5751 5754 5757 5760 5763 5766 5769 5772 5775 5778 5781 5784 5787 5790 5793 5796 5799 5802 5805 5808 5811 5814 5817 5820 5823 5826 5829 5832 5835 5838 5841 5844 5847 5850 5853 5856 5859 5862 5865 5868 5871 5874 5877 5880 5883 5886 5889 5892 5895 5898 5901 5904 5907 5910 5913 5916 5919 5922 5925 5928 5931 5934 5937 5940 5943 5946 5949 5952 5955 5958 5961 5964 5967 5970 5973 5976 5979 5982 5985 5988 5991 5994 5997 6000 6003 6006 6009 6012 6015 6018 6021 6024 6027 6030 6033 6036 6039 6042 6045 6048 6051 6054 6057 6060 6063 6066 6069 6072 6075 6078 6081 6084 6087 6090 6093 6096 6099 6102 6105 6108 6111 6114 6117 6120 6123 6126 6129 6132 6135 6138 6141 6144 6147 6150 6153 6156 6159 6162 6165 6168 6171 6174 6177 6180 6183 6186 6189 6192 6195 6198 6201 6204 6207 6210 6213 6216 6219 6222 6225 6228 6231 6234 6237 6240 6243 6246 6249 6252 6255 6258 6261 6264 6267 6270 6273 6276 6279 6282 6285 6288 6291 6294 6297 6300 6303 6306 6309 6312 6315 6318 6321 6324 6327 6330 6333 6336 6339 6342 6345 6348 6351 6354 6357 6360 6363 6366 6369 6372 6375 6378 6381 6384 6387 6390 6393 6396 6399 6402 6405 6408 6411 6414 6417 6420 6423 6426 6429 6432 6435 6438 6441 6444 6447 6450 6453 6456 6459 6462 6465 6468 6471 6474 6477 6480 6483 6486 6489 6492 6495 6498 6501 6504 6507 6510 6513 6516 6519 6522 6525 6528 6531 6534 6537 6540 6543 6546 6549 6552 6555 6558 6561 6564 6567 6570 6573 6576 6579 6582 6585 6588 6591 6594 6597 6600 6603 6606 6609 6612 6615 6618 6621 6624 6627 6630 6633 6636 6639 6642 6645 6648 6651 6654 6657 6660 6663 6666 6669 6672 6675 6678 6681 6684 6687 6690 6693 6696 6699 6702 6705 6708 6711 6714 6717 6720 6723 6726 6729 6732 6735 6738 6741 6744 6747 6750 6753 6756 6759 6762 6765 6768 6771 6774 6777 6780 6783 6786 6789 6792 6795 6798 6801 6804 6807 6810 6813 6816 6819 6822 6825 6828 6831 6834 6837 6840 6843 6846 6849 6852 6855 6858 6861 6864 6867 6870 6873 6876 6879 6882 6885 6888 6891 6894 6897 6900 6903 6906 6909 6912 6915 6918 6921 6924 6927 6930 6933 6936 6939 6942 6945 6948 6951 6954 6957 6960 6963 6966 6969 6972 6975 6978 6981 6984 6987 6990 6993 6996 6999 7002 7005 7008 7011 7014 7017 7020 7023 7026 7029 7032 7035 7038 7041 7044 7047 7050 7053 7056 7059 7062 7065 7068 7071 7074 7077 7080 7083 7086 7089 7092 7095 7098 7101 7104 7107 7110 7113 7116 7119 7122 7125 7128 7131 7134 7137 7140 7143 7146 7149 7152 7155 7158 7161 7164 7167 7170 7173 7176 7179 7182 7185 7188 7191 7194 7197 7200 7203 7206 7209 7212 7215 7218 7221 7224 7227 7230 7233 7236 7239 7242 7245 7248 7251 7254 7257 7260 7263 7266 7269 7272 7275 7278 7281 7284 7287 7290 7293 7296 7299 7302 7305 7308 7311 7314 7317 7320 7323 7326 7329 7332 7335 7338 7341 7344 7347 7350 7353 7356 7359 7362 7365 7368 7371 7374 7377 7380 7383 7386 7389 7392 7395 7398 7401 7404 7407 7410 7413 7416 7419 7422 7425 7428 7431 7434 7437 7440 7443 7446 7449 7452 7455 7458 7461 7464 7467 7470 7473 7476 7479 7482 7485 7488 7491 7494 7497 7500 7503 7506 7509 7512 7515 7518 7521 7524 7527 7530 7533 7536 7539 7542 7545 7548 7551 7554 7557 7560 7563 7566 7569 7572 7575 7578 7581 7584 7587 7590 7593 7596 7599 7602 7605 7608 7611 7614 7617 7620 7623 7626 7629 7632 7635 7638 7641 7644 7647 7650 7653 7656 7659 7662 7665 7668 7671 7674 7677 7680 7683 7686 7689 7692 7695 7698 7701 7704 7707 7710 7713 7716 7719 7722 7725 7728 7731 7734 7737 7740 7743 7746 7749 7752 7755 7758 7761 7764 7767 7770 7773 7776 7779 7782 7785 7788 7791 7794 7797 7800 7803 7806 7809 7812 7815 7818 7821 7824 7827 7830 7833 7836 7839 7842 7845 7848 7851 7854 7857 7860 7863 7866 7869 7872 7875 7878 7881 7884 7887 7890 7893 7896 7899 7902 7905 7908 7911 7914 7917 7920 7923 7926 7929 7932 7935 7938 7941 7944 7947 7950 7953 7956 7959 7962 7965 7968 7971 7974 7977 7980 7983 7986 7989 7992 7995 7998 8001 8004 8007 8010 8013 8016 8019 8022 8025 8028 8031 8034 8037 8040 8043 8046 8049 8052 8055 8058 8061 8064 8067 8070 8073 8076 8079 8082 8085 8088 8091 8094 8097 8100 8103 8106 8109 8112 8115 8118 8121 8124 8127 8130 8133 8136 8139 8142 8145 8148 8151 8154 8157 8160 8163 8166 8169 8172 8175 8178 8181 8184 8187 8190 8193 8196 8199 8202 8205 8208 8211 8214 8217 8220 8223 8226 8229 8232 8235 8238 8241 8244 8247 8250 8253 8256 8259 8262 8265 8268 8271 8274 8277 8280 8283 8286 8289 8292 8295 8298 8301 8304 8307 8310 8313 8316 8319 8322 8325 8328 8331 8334 8337 8340 8343 8346 8349 8352 8355 8358 8361 8364 8367 8370 8373 8376 8379 8382 8385 8388 8391 8394 8397 8400 8403 8406 8409 8412 8415 8418 8421 8424 8427 8430 8433 8436 8439 8442 8445 8448 8451 8454 8457 8460 8463 8466 8469 8472 8475 8478 8481 8484 8487 8490 8493 8496 8499 8502 8505 8508 8511 8514 8517 8520 8523 8526 8529 8532 8535 8538 8541 8544 8547 8550 8553 8556 8559 8562 8565 8568 8571 8574 8577 8580 8583 8586 8589 8592 8595 8598 8601 8604 8607 8610 8613 8616 8619 8622 8625 8628 8631 8634 8637 8640 8643 8646 8649 8652 8655 8658 8661 8664 8667 8670 8673 8676 8679 8682 8685 8688 8691 8694 8697 8700 8703 8706 8709 8712 8715 8718 8721 8724 8727 8730 8733 8736 8739 8742 8745 8748 8751 8754 8757 8760 8763 8766 8769 8772 8775 8778 8781 8784 8787 8790 8793 8796 8799 8802 8805 8808 8811 8814 8817 8820 8823 8826 8829 8832 8835 8838 8841 8844 8847 8850 8853 8856 8859 8862 8865 8868 8871 8874 8877 8880 8883 8886 8889 8892 8895 8898 8901 8904 8907 8910 8913 8916 8919 8922 8925 8928 8931 8934 8937 8940 8943 8946 8949 8952 8955 8958 8961 8964 8967 8970 8973 8976 8979 8982 8985 8988 8991 8994 8997 9000 9003 9006 9009 9012 9015 9018 9021 9024 9027 9030 9033 9036 9039 9042 9045 9048 9051 9054 9057 9060 9063 9066 9069 9072 9075 9078 9081 9084 9087 9090 9093 9096 9099 9102 9105 9108 9111 9114 9117 9120 9123 9126 9129 9132 9135 9138 9141 9144 9147 9150 9153 9156 9159 9162 9165 9168 9171 9174 9177 9180 9183 9186 9189 9192 9195 9198 9201 9204 9207 9210 9213 9216 9219 9222 9225 9228 9231 9234 9237 9240 9243 9246 9249 9252 9255 9258 9261 9264 9267 9270 9273 9276 9279 9282 9285 9288 9291 9294 9297 9300 9303 9306 9309 9312 9315 9318 9321 9324 9327 9330 9333 9336 9339 9342 9345 9348 9351 9354 9357 9360 9363 9366 9369 9372 9375 9378 9381 9384 9387 9390 9393 9396 9399 9402 9405 9408 9411 9414 9417 9420 9423 9426 9429 9432 9435 9438 9441 9444 9447 9450 9453 9456 9459 9462 9465 9468 9471 9474 9477 9480 9483 9486 9489 9492 9495 9498 9501 9504 9507 9510 9513 9516 9519 9522 9525 9528 9531 9534 9537 9540 9543 9546 9549 9552 9555 9558 9561 9564 9567 9570 9573 9576 9579 9582 9585 9588 9591 9594 9597 9600 9603 9606 9609 9612 9615 9618 9621 9624 9627 9630 9633 9636 9639 9642 9645 9648 9651 9654 9657 9660 9663 9666 9669 9672 9675 9678 9681 9684 9687 9690 9693 9696 9699 9702 9705 9708 9711 9714 9717 9720 9723 9726 9729 9732 9735 9738 9741 9744 9747 9750 9753 9756 9759 9762 9765 9768 9771 9774 9777 9780 9783 9786 9789 9792 9795 9798 9801 9804 9807 9810 9813 9816 9819 9822 9825 9828 9831 9834 9837 9840 9843 9846 9849 9852 9855 9858 9861 9864 9867 9870 9873 9876 9879 9882 9885 9888 9891 9894 9897 9900 9903 9906 9909 9912 9915 9918 9921 9924 9927 9930 9933 9936 9939 9942 9945 9948 9951 9954 9957 9960 9963 9966 9969 9972 9975 9978 9981 9984 9987 9990 9993 9996 9999 10002 10005 10008 10011 10014 10017 10020 10023 10026 10029 10032 10035 10038 10041 10044 10047 10050 10053 10056 10059 10062 10065 10068 10071 10074 10077 10080 10083 10086 10089 10092 10095 10098 10101 10104 10107 10110 10113 10116 10119 10122 10125 10128 10131 10134 10137 10140 10143 10146 10149 10152 10155 10158 10161 10164 10167 10170 10173 10176 10179 10182 10185 10188 10191 10194 10197 10200 10203 10206 10209 10212 10215 10218 10221 10224 10227 10230 10233 10236 10239 10242 10245 10248 10251 10254 10257 10260 10263 10266 10269 10272 10275 10278 10281 10284 10287 10290 10293 10296 10299 10302 10305 10308 10311 10314 10317 10320 10323 10326 10329 10332 10335 10338 10341 10344 10347 10350 10353 10356 10359 10362 10365 10368 10371 10374 10377 10380 10383 10386 10389 10392 10395 10398 10401 </DataArray>
        <DataArray type="Int8" Name="types" format="ascii">69 69 69 69 69 69 69 69 69 69 69 69 69 69 69 69 69 69 69 69 69 69 69 69 69 69 69 69 69 69 69 69 69 69 69 69 69 69 69 69 69 69 69 69 69 69 69 69 69 69 69 69 69 69 69 69 69 69 69 69 69 69 69 69 69 69 69 69 69 69 69 69 69 69 69 69 69 69 69 69 69 69 69 69 69 69 69 69 69 69 69 69 69 69 69 69 69 69 69 69 69 69 69 69 69 69 69 69 69 69 69 69 69 69 69 69 69 69 69 69 69 69 69 69 69 69 69 69 69 69 69 69 69 69 69 69 69 69 69 69 69 69 69 69 69 69 69 69 69 69 69 69 69 69 69 69 69 69 69 69 69 69 69 69 69 69 69 69 69 69 69 69 69 69 69 69 69 69 69 69 69 69 69 69 69 69 69 69 69 69 69 69 69 69 69 69 69 69 69 69 69 69 69 69 69 69 69 69 69 69 69 69 69 69 69 69 69 69 69 69 69 69 69 69 69 69 69 69 69 69 69 69 69 69 69 69 69 69 69 69 69 69 69 69 69 69 69 69 69 69 69 69 69 69 69 69 69 69 69 69 69 69 69 69 69 69 69 69 69 69 69 69 69 69 69 69 69 69 69 69 69 69 69 69 69 69 69 69 69 69 69 69 69 69 69 69 69 69 69 69 69 69 69 69 69 69 69 69 69 69 69 69 69 69 69 69 69 69 69 69 69 69 69 69 69 69 69 69 69 69 69 69 69 69 69 69 69 69 69 69 69 69 69 69 69 69 69 69 69 69 69 69 69 69 69 69 69 69 69 69 69 69 69 69 69 69 69 69 69 69 69 69 69 69 69 69 69 69 69 69 69 69 69 69 69 69 69 69 69 69 69 69 69 69 69 69 69 69 69 69 69 69 69 69 69 69 69 69 69 69 69 69 69 69 69 69 69 69 69 69 69 69 69 69 69 69 69 69 69 69 69 69 69 69 69 69 69 69 69 69 69 69 69 69 69 69 69 69 69 69 69 69 69 69 69 69 69 69 69 69 69 69 69 69 69 69 69 69 69 69 69 69 69 69 69 69 69 69 69 69 69 69 69 69 69 69 69 69 69 69 69 69 69 69 69 69 69 69 69 69 69 69 69 69 69 69 69 69 69 69 69 69 69 69 69 69 69 69 69 69 69 69 69 69 69 69 69 69 69 69 69 69 69 69 69 69 69 69 69 69 69 69 69 69 69 69 69 69 69 69 69 69 69 69 69 69 69 69 69 69 69 69 69 69 69 69 69 69 69 69 69 69 69 69 69 69 69 69 69 69 69 69 69 69 69 69 69 69 69 69 69 69 69 69 69 69 69 69 69 69 69 69 69 69 69 69 69 69 69 69 69 69 69 69 69 69 69 69 69 69 69 69 69 69 69 69 69 69 69 69 69 69 69 69 69 69 69 69 69 69 69 69 69 69 69 69 69 69 69 69 69 69 69 69 69 69 69 69 69 69 69 69 69 69 69 69 69 69 69 69 69 69 69 69 69 69 69 69 69 69 69 69 69 69 69 69 69 69 69 69 69 69 69 69 69 69 69 69 69 69 69 69 69 69 69 69 69 69 69 69 69 69 69 69 69 69 69 69 69 69 69 69 69 69 69 69 69 69 69 69 69 69 69 69 69 69 69 69 69 69 69 69 69 69 69 69 69 69 69 69 69 69 69 69 69 69 69 69 69 69 69 69 69 69 69 69 69 69 69 69 69 69 69 69 69 69 69 69 69 69 69 69 69 69 69 69 69 69 69 69 69 69 69 69 69 69 69 69 69 69 69 69 69 69 69 69 69 69 69 69 69 69 69 69 69 69 69 69 69 69 69 69 69 69 69 69 69 69 69 69 69 69 69 69 69 69 69 69 69 69 69 69 69 69 69 69 69 69 69 69 69 69 69 69 69 69 69 69 69 69 69 69 69 69 69 69 69 69 69 69 69 69 69 69 69 69 69 69 69 69 69 69 69 69 69 69 69 69 69 69 69 69 69 69 69 69 69 69 69 69 69 69 69 69 69 69 69 69 69 69 69 69 69 69 69 69 69 69 69 69 69 69 69 69 69 69 69 69 69 69 69 69 69 69 69 69 69 69 69 69 69 69 69 69 69 69 69 69 69 69 69 69 69 69 69 69 69 69 69 69 69 69 69 69 69 69 69 69 69 69 69 69 69 69 69 69 69 69 69 69 69 69 69 69 69 69 69 69 69 69 69 69 69 69 69 69 69 69 69 69 69 69 69 69 69 69 69 69 69 69 69 69 69 69 69 69 69 69 69 69 69 69 69 69 69 69 69 69 69 69 69 69 69 69 69 69 69 69 69 69 69 69 69 69 69 69 69 69 69 69 69 69 69 69 69 69 69 69 69 69 69 69 69 69 69 69 69 69 69 69 69 69 69 69 69 69 69 69 69 69 69 69 69 69 69 69 69 69 69 69 69 69 69 69 69 69 69 69 69 69 69 69 69 69 69 69 69 69 69 69 69 69 69 69 69 69 69 69 69 69 69 69 69 69 69 69 69 69 69 69 69 69 69 69 69 69 69 69 69 69 69 69 69 69 69 69 69 69 69 69 69 69 69 69 69 69 69 69 69 69 69 69 69 69 69 69 69 69 69 69 69 69 69 69 69 69 69 69 69 69 69 69 69 69 69 69 69 69 69 69 69 69 69 69 69 69 69 69 69 69 69 69 69 69 69 69 69 69 69 69 69 69 69 69 69 69 69 69 69 69 69 69 69 69 69 69 69 69 69 69 69 69 69 69 69 69 69 69 69 69 69 69 69 69 69 69 69 69 69 69 69 69 69 69 69 69 69 69 69 69 69 69 69 69 69 69 69 69 69 69 69 69 69 69 69 69 69 69 69 69 69 69 69 69 69 69 69 69 69 69 69 69 69 69 69 69 69 69 69 69 69 69 69 69 69 69 69 69 69 69 69 69 69 69 69 69 69 69 69 69 69 69 69 69 69 69 69 69 69 69 69 69 69 69 69 69 69 69 69 69 69 69 69 69 69 69 69 69 69 69 69 69 69 69 69 69 69 69 69 69 69 69 69 69 69 69 69 69 69 69 69 69 69 69 69 69 69 69 69 69 69 69 69 69 69 69 69 69 69 69 69 69 69 69 69 69 69 69 69 69 69 69 69 69 69 69 69 69 69 69 69 69 69 69 69 69 69 69 69 69 69 69 69 69 69 69 69 69 69 69 69 69 69 69 69 69 69 69 69 69 69 69 69 69 69 69 69 69 69 69 69 69 69 69 69 69 69 69 69 69 69 69 69 69 69 69 69 69 69 69 69 69 69 69 69 69 69 69 69 69 69 69 69 69 69 69 69 69 69 69 69 69 69 69 69 69 69 69 69 69 69 69 69 69 69 69 69 69 69 69 69 69 69 69 69 69 69 69 69 69 69 69 69 69 69 69 69 69 69 69 69 69 69 69 69 69 69 69 69 69 69 69 69 69 69 69 69 69 69 69 69 69 69 69 69 69 69 69 69 69 69 69 69 69 69 69 69 69 69 69 69 69 69 69 69 69 69 69 69 69 69 69 69 69 69 69 69 69 69 69 69 69 69 69 69 69 69 69 69 69 69 69 69 69 69 69 69 69 69 69 69 69 69 69 69 69 69 69 69 69 69 69 69 69 69 69 69 69 69 69 69 69 69 69 69 69 69 69 69 69 69 69 69 69 69 69 69 69 69 69 69 69 69 69 69 69 69 69 69 69 69 69 69 69 69 69 69 69 69 69 69 69 69 69 69 69 69 69 69 69 69 69 69 69 69 69 69 69 69 69 69 69 69 69 69 69 69 69 69 69 69 69 69 69 69 69 69 69 69 69 69 69 69 69 69 69 69 69 69 69 69 69 69 69 69 69 69 69 69 69 69 69 69 69 69 69 69 69 69 69 69 69 69 69 69 69 69 69 69 69 69 69 69 69 69 69 69 69 69 69 69 69 69 69 69 69 69 69 69 69 69 69 69 69 69 69 69 69 69 69 69 69 69 69 69 69 69 69 69 69 69 69 69 69 69 69 69 69 69 69 69 69 69 69 69 69 69 69 69 69 69 69 69 69 69 69 69 69 69 69 69 69 69 69 69 69 69 69 69 69 69 69 69 69 69 69 69 69 69 69 69 69 69 69 69 69 69 69 69 69 69 69 69 69 69 69 69 69 69 69 69 69 69 69 69 69 69 69 69 69 69 69 69 69 69 69 69 69 69 69 69 69 69 69 69 69 69 69 69 69 69 69 69 69 69 69 69 69 69 69 69 69 69 69 69 69 69 69 69 69 69 69 69 69 69 69 69 69 69 69 69 69 69 69 69 69 69 69 69 69 69 69 69 69 69 69 69 69 69 69 69 69 69 69 69 69 69 69 69 69 69 69 69 69 69 69 69 69 69 69 69 69 69 69 69 69 69 69 69 69 69 69 69 69 69 69 69 69 69 69 69 69 69 69 69 69 69 69 69 69 69 69 69 69 69 69 69 69 69 69 69 69 69 69 69 69 69 69 69 69 69 69 69 69 69 69 69 69 69 69 69 69 69 69 69 69 69 69 69 69 69 69 69 69 69 69 69 69 69 69 69 69 69 69 69 69 69 69 69 69 69 69 69 69 69 69 69 69 69 69 69 69 69 69 69 69 69 69 69 69 69 69 69 69 69 69 69 69 69 69 69 69 69 69 69 69 69 69 69 69 69 69 69 69 69 69 69 69 69 69 69 69 69 69 69 69 69 69 69 69 69 69 69 69 69 69 69 69 69 69 69 69 69 69 69 69 69 69 69 69 69 69 69 69 69 69 69 69 69 69 69 69 69 69 69 69 69 69 69 69 69 69 69 69 69 69 69 69 69 69 69 69 69 69 69 69 69 69 69 69 69 69 69 69 69 69 69 69 69 69 69 69 69 69 69 69 69 69 69 69 69 69 69 69 69 69 69 69 69 69 69 69 69 69 69 69 69 69 69 69 69 69 69 69 69 69 69 69 69 69 69 69 69 69 69 69 69 69 69 69 69 69 69 69 69 69 69 69 69 69 69 69 69 69 69 69 69 69 69 69 69 69 69 69 69 69 69 69 69 69 69 69 69 69 69 69 69 69 69 69 69 69 69 69 69 69 69 69 69 69 69 69 69 69 69 69 69 69 69 69 69 69 69 69 69 69 69 69 69 69 69 69 69 69 69 69 69 69 69 69 69 69 69 69 69 69 69 69 69 69 69 69 69 69 69 69 69 69 69 69 69 69 69 69 69 69 69 69 69 69 69 69 69 69 69 69 69 69 69 69 69 69 69 69 69 69 69 69 69 69 69 69 69 69 69 69 69 69 69 69 69 69 69 69 69 69 69 69 69 69 69 69 69 69 69 69 69 69 69 69 69 69 69 69 69 69 69 69 69 69 69 69 69 69 69 69 69 69 69 69 69 69 69 69 69 69 69 69 69 69 69 69 69 69 69 69 69 69 69 69 69 69 69 69 69 69 69 69 69 69 69 69 69 69 69 69 69 69 69 69 69 69 69 69 69 69 69 69 69 69 69 69 69 69 69 69 69 69 69 69 69 69 69 69 69 69 69 69 69 69 69 69 69 69 69 69 69 69 69 69 69 69 69 69 69 69 69 69 69 69 69 69 69 69 69 69 69 69 69 69 69 69 69 69 69 69 69 69 69 69 69 69 69 69 69 69 69 69 69 69 69 69 69 69 69 69 69 69 69 69 69 69 69 69 69 69 69 69 69 69 69 69 69 69 69 69 69 69 69 69 69 69 69 69 69 69 69 69 69 69 69 69 69 69 69 69 69 69 69 69 69 69 69 69 69 69 69 69 69 69 69 69 69 69 69 69 69 69 69 69 69 69 69 69 69 69 69 69 69 69 69 69 69 69 69 69 69 69 69 69 69 69 69 69 69 69 69 69 69 69 69 69 69 69 69 69 69 69 69 69 69 69 69 69 69 69 69 69 69 69 69 69 69 69 69 69 69 69 69 69 69 69 69 69 69 69 69 69 69 69 69 69 69 69 69 69 69 69 69 69 69 69 69 69 69 69 69 69 69 69 69 69 69 69 69 69 69 69 69 69 69 69 69 69 69 69 69 69 69 69 69 69 69 69 69 69 69 69 69 69 69 69 69 69 69 69 69 69 69 69 69 69 69 69 69 69 69 69 69 69 69 69 69 69 69 69 69 69 69 69 69 69 69 69 69 69 69 69 69 69 69 69 69 69 69 69 69 69 69 69 69 69 69 69 69 69 69 69 69 69 69 69 69 69 69 69 69 69 69 69 69 69 69 69 69 69 69 69 69 69 69 69 69 69 69 69 69 69 69 69 69 69 69 69 69 69 69 69 69 69 69 69 69 69 69 69 69 69 69 69 69 69 69 69 69 69 69 69 69 69 69 69 69 69 69 69 69 69 69 69 69 69 69 69 69 69 69 69 69 69 69 69 69 69 69 69 69 69 69 69 69 69 69 69 69 69 69 69 69 69 69 69 69 69 69 69 69 69 69 69 69 69 69 69 69 69 69 69 69 69 69 69 69 69 69 69 69 69 69 69 69 69 69 69 69 69 69 69 69 69 69 69 69 69 69 69 69 69 69 69 69 69 69 69 69 69 69 69 69 69 69 69 69 69 69 69 69 69 69 69 69 69 69 69 69 69 69 69 69 69 69 69 69 69 69 69 69 69 69 69 69 69 69 69 69 69 69 69 69 69 69 69 69 69 69 69 69 69 69 69 69 69 69 69 69 69 69 69 69 69 69 69 69 69 69 69 69 69 69 69 69 69 69 69 69 69 69 69 69 69 69 69 69 69 69 69 69 69 69 69 69 69 69 69 69 69 69 69 69 69 69 69 69 69 69 69 69 69 69 69 69 69 69 69 69 69 69 69 69 69 69 69 69 69 69 69 69 69 69 69 69 69 69 69 69 69 69 69 69 69 69 69 69 69 69 69 69 69 69 69 69 69 69 69 69 69 69 69 69 69 69 69 69 69 69 69 69 69 69 69 69 69 69 69 69 69 69 69 69 69 69 69 69 69 69 69 69 69 69 69 69 69 69 69 69 69 69 69 69 69 69 69 69 69 69 69 69 69 69 69 69 69 69 69 69 69 69 69 69 69 69 69 69 69 69 69 69 69 69 69 69 69 69 69 69 69 69 69 69 69 69 69 69 69 69 69 69 69 69 69 69 69 69 69 69 69 69 69 69 69 69 69 69 69 69 69 69 69 69 69 69 69 69 69 69 69 69 69 69 69 69 69 69 69 69 69 69 69 69 69 69 69 69 69 69 69 69 69 69 69 69 69 69 69 69 69 69 69 69 69 69 69 69 69 69 69 69 69 69 69 69 69 69 69 69 69 69 69 69 69 69 69 69 69 69 69 69 69 69 69 69 69 69 69 69 69 69 69 69 69 69 69 69 69 69 69 69 69 69 69 69 69 69 69 69 69 69 69 69 69 69 69 69 69 69 69 69 69 69 69 69 69 69 69 69 69 69 69 69 69 69 69 69 69 69 69 69 69 69 69 69 69 69 69 69 69 69 69 69 69 69 69 69 69 69 69 69 69 69 69 69 69 69 69 69 69 69 69 69 69 69 69 69 69 69 69 69 69 69 69 69 69 69 69 69 69 69 69 69 69 69 69 69 69 69 69 69 69 69 69 69 69 69 69 69 69 69 69 69 69 69 69 69 69 69 69 69 69 69 69 69 69 69 69 69 69 69 69 69 69 69 69 69 69 69 69 69 69 69 69 69 69 69 69 69 69 69 69 69 69 69 69 69 69 69 69 69 69 69 69 69 69 69 69 69 69 69 </DataArray>
      </Cells>
      <CellData Tensors="stress" Vectors="von_mises_stress">
        <DataArray type="UInt8" Name="vtkGhostType" format="ascii" RangeMin="0" RangeMax="1">0 0 0 0 0 0 0 0 0 0 0 0 0 0 0 0 0 0 0 0 0 0 0 0 0 0 0 0 0 0 0 0 0 0 0 0 0 0 0 0 0 0 0 0 0 0 0 0 0 0 0 0 0 0 0 0 0 0 0 0 0 0 0 0 0 0 0 0 0 0 0 0 0 0 0 0 0 0 0 0 0 0 0 0 0 0 0 0 0 0 0 0 0 0 0 0 0 0 0 0 0 0 0 0 0 0 0 0 0 0 0 0 0 0 0 0 0 0 0 0 0 0 0 0 0 0 0 0 0 0 0 0 0 0 0 0 0 0 0 0 0 0 0 0 0 0 0 0 0 0 0 0 0 0 0 0 0 0 0 0 0 0 0 0 0 0 0 0 0 0 0 0 0 0 0 0 0 0 0 0 0 0 0 0 0 0 0 0 0 0 0 0 0 0 0 0 0 0 0 0 0 0 0 0 0 0 0 0 0 0 0 0 0 0 0 0 0 0 0 0 0 0 0 0 0 0 0 0 0 0 0 0 0 0 0 0 0 0 0 0 0 0 0 0 0 0 0 0 0 0 0 0 0 0 0 0 0 0 0 0 0 0 0 0 0 0 0 0 0 0 0 0 0 0 0 0 0 0 0 0 0 0 0 0 0 0 0 0 0 0 0 0 0 0 0 0 0 0 0 0 0 0 0 0 0 0 0 0 0 0 0 0 0 0 0 0 0 0 0 0 0 0 0 0 0 0 0 0 0 0 0 0 0 0 0 0 0 0 0 0 0 0 0 0 0 0 0 0 0 0 0 0 0 0 0 0 0 0 0 0 0 0 0 0 0 0 0 0 0 0 0 0 0 0 0 0 0 0 0 0 0 0 0 0 0 0 0 0 0 0 0 0 0 0 0 0 0 0 0 0 0 0 0 0 0 0 0 0 0 0 0 0 0 0 0 0 0 0 0 0 0 0 0 0 0 0 0 0 0 0 0 0 0 0 0 0 0 0 0 0 0 0 0 0 0 0 0 0 0 0 0 0 0 0 0 0 0 0 0 0 0 0 0 0 0 0 0 0 0 0 0 0 0 0 0 0 0 0 0 0 0 0 0 0 0 0 0 0 0 0 0 0 0 0 0 0 0 0 0 0 0 0 0 0 0 0 0 0 0 0 0 0 0 0 0 0 0 0 0 0 0 0 0 0 0 0 0 0 0 0 0 0 0 0 0 0 0 0 0 0 0 0 0 0 0 0 0 0 0 0 0 0 0 0 0 0 0 0 0 0 0 0 0 0 0 0 0 0 0 0 0 0 0 0 0 0 0 0 0 0 0 0 0 0 0 0 0 0 0 0 0 0 0 0 0 0 0 0 0 0 0 0 0 0 0 0 0 0 0 0 0 0 0 0 0 0 0 0 0 0 0 0 0 0 0 0 0 0 0 0 0 0 0 0 0 0 0 0 0 0 0 0 0 0 0 0 0 0 0 0 0 0 0 0 0 0 0 0 0 0 0 0 0 0 0 0 0 0 0 0 0 0 0 0 0 0 0 0 0 0 0 0 0 0 0 0 0 0 0 0 0 0 0 0 0 0 0 0 0 0 0 0 0 0 0 0 0 0 0 0 0 0 0 0 0 0 0 0 0 0 0 0 0 0 0 0 0 0 0 0 0 0 0 0 0 0 0 0 0 0 0 0 0 0 0 0 0 0 0 0 0 0 0 0 0 0 0 0 0 0 0 0 0 0 0 0 0 0 0 0 0 0 0 0 0 0 0 0 0 0 0 0 0 0 0 0 0 0 0 0 0 0 0 0 0 0 0 0 0 0 0 0 0 0 0 0 0 0 0 0 0 0 0 0 0 0 0 0 0 0 0 0 0 0 0 0 0 0 0 0 0 0 0 0 0 0 0 0 0 0 0 0 0 0 0 0 0 0 0 0 0 0 0 0 0 0 0 0 0 0 0 0 0 0 0 0 0 0 0 0 0 0 0 0 0 0 0 0 0 0 0 0 0 0 0 0 0 0 0 0 0 0 0 0 0 0 0 0 0 0 0 0 0 0 0 0 0 0 0 0 0 0 0 0 0 0 0 0 0 0 0 0 0 0 0 0 0 0 0 0 0 0 0 0 0 0 0 0 0 0 0 0 0 0 0 0 0 0 0 0 0 0 0 0 0 0 0 0 0 0 0 0 0 0 0 0 0 0 0 0 0 0 0 0 0 0 0 0 0 0 0 0 0 0 0 0 0 0 0 0 0 0 0 0 0 0 0 0 0 0 0 0 0 0 0 0 0 0 0 0 0 0 0 0 0 0 0 0 0 0 0 0 0 0 0 0 0 0 0 0 0 0 0 0 0 0 0 0 0 0 0 0 0 0 0 0 0 0 0 0 0 0 0 0 0 0 0 0 0 0 0 0 0 0 0 0 0 0 0 0 0 0 0 0 0 0 0 0 0 0 0 0 0 0 0 0 0 0 0 0 0 0 0 0 0 0 0 0 0 0 0 0 0 0 0 0 0 0 0 0 0 0 0 0 0 0 0 0 0 0 0 0 0 0 0 0 0 0 0 0 0 0 0 0 0 0 0 0 0 0 0 0 0 0 0 0 0 0 0 0 0 0 0 0 0 0 0 0 0 0 0 0 0 0 0 0 0 0 0 0 0 0 0 0 0 0 0 0 0 0 0 0 0 0 0 0 0 0 0 0 0 0 0 0 0 0 0 0 0 0 0 0 0 0 0 0 0 0 0 0 0 0 0 0 0 0 0 0 0 0 0 0 0 0 0 0 0 0 0 0 0 0 0 0 0 0 0 0 0 0 0 0 0 0 0 0 0 0 0 0 0 0 0 0 0 0 0 0 0 0 0 0 0 0 0 0 0 0 0 0 0 0 0 0 0 0 0 0 0 0 0 0 0 0 0 0 0 0 0 0 0 0 0 0 0 0 0 0 0 0 0 0 0 0 0 0 0 0 0 0 0 0 0 0 0 0 0 0 0 0 0 0 0 0 0 0 0 0 0 0 0 0 0 0 0 0 0 0 0 0 0 0 0 0 0 0 0 0 0 0 0 0 0 0 0 0 0 0 0 0 0 0 0 0 0 0 0 0 0 0 0 0 0 0 0 0 0 0 0 0 0 0 0 0 0 0 0 0 0 0 0 0 0 0 0 0 0 0 0 0 0 0 0 0 0 0 0 0 0 0 0 0 0 0 0 0 0 0 0 0 0 0 0 0 0 0 0 0 0 0 0 0 0 0 0 0 0 0 0 0 0 0 0 0 0 0 0 0 0 0 0 0 0 0 0 0 0 0 0 0 0 0 0 0 0 0 0 0 0 0 0 0 0 0 0 0 0 0 0 0 0 0 0 0 0 0 0 0 0 0 0 0 0 0 0 0 0 0 0 0 0 0 0 0 0 0 0 0 0 0 0 0 0 0 0 0 0 0 0 0 0 0 0 0 0 0 0 0 0 0 0 0 0 0 0 0 0 0 0 0 0 0 0 0 0 0 0 0 0 0 0 0 0 0 0 0 0 0 0 0 0 0 0 0 0 0 0 0 0 0 0 0 0 0 0 0 0 0 0 0 0 0 0 0 0 0 0 0 0 0 0 0 0 0 0 0 0 0 0 0 0 0 0 0 0 0 0 0 0 0 0 0 0 0 0 0 0 0 0 0 0 0 0 0 0 0 0 0 0 0 0 0 0 0 0 0 0 0 0 0 0 0 0 0 0 0 0 0 0 0 0 0 0 0 0 0 0 0 0 0 0 0 0 0 0 0 0 0 0 0 0 0 0 0 0 0 0 0 0 0 0 0 0 0 0 0 0 0 0 0 0 0 0 0 0 0 0 0 0 0 0 0 0 0 0 0 0 0 0 0 0 0 0 0 0 0 0 0 0 0 0 0 0 0 0 0 0 0 0 0 0 0 0 0 0 0 0 0 0 0 0 0 0 0 0 0 0 0 0 0 0 0 0 0 0 0 0 0 0 0 0 0 0 0 0 0 0 0 0 0 0 0 0 0 0 0 0 0 0 0 0 0 0 0 0 0 0 0 0 0 0 0 0 0 0 0 0 0 0 0 0 0 0 0 0 0 0 0 0 0 0 0 0 0 0 0 0 0 0 0 0 0 0 0 0 0 0 0 0 0 0 0 0 0 0 0 0 0 0 0 0 0 0 0 0 0 0 0 0 0 0 0 0 0 0 0 0 0 0 0 0 0 0 0 0 0 0 0 0 0 0 0 0 0 0 0 0 0 0 0 0 0 0 0 0 0 0 0 0 0 0 0 0 0 0 0 0 0 0 0 0 0 0 0 0 0 0 0 0 0 0 0 0 0 0 0 0 0 0 0 0 0 0 0 0 0 0 0 0 0 0 0 0 0 0 0 0 0 0 0 0 0 0 0 0 0 0 0 0 0 0 0 0 0 0 0 0 0 0 0 0 0 0 0 0 0 0 0 0 0 0 0 0 0 0 0 0 0 0 0 0 0 0 0 0 0 0 0 0 0 0 0 0 0 0 0 0 0 0 0 0 0 0 0 0 0 0 0 0 0 0 0 0 0 0 0 0 0 0 0 0 0 0 0 0 0 0 0 0 0 0 0 0 0 0 0 0 0 0 0 0 0 0 0 0 0 0 0 0 0 0 0 0 0 0 0 0 0 0 0 0 0 0 0 0 0 0 0 0 0 0 0 0 0 0 0 0 0 0 0 0 0 0 0 0 0 0 0 0 0 0 0 0 0 0 0 0 0 0 0 0 0 0 0 0 0 0 0 0 0 0 0 0 0 0 0 0 0 0 0 0 0 0 0 0 0 0 0 0 0 0 0 0 0 0 0 0 0 0 0 0 0 0 0 0 0 0 0 0 0 0 0 0 0 0 0 0 0 0 0 0 0 0 0 0 0 0 0 0 0 0 0 0 0 0 0 0 0 0 0 0 0 0 0 0 0 0 0 0 0 0 0 0 0 0 0 0 0 0 0 0 0 0 0 0 0 0 0 0 0 0 0 0 0 0 0 0 0 0 0 0 0 0 0 0 0 0 0 0 0 0 0 0 0 0 0 0 0 0 0 0 0 0 0 0 0 0 0 0 0 0 0 0 0 0 0 0 0 0 0 0 0 0 0 0 0 0 0 0 0 0 0 0 0 0 0 0 0 0 0 0 0 0 0 0 0 0 0 0 0 0 0 0 0 0 0 0 0 0 0 0 0 0 0 0 0 0 0 0 0 0 0 0 0 0 0 0 0 0 0 0 0 0 0 0 0 0 0 0 0 0 0 0 0 0 0 0 0 0 0 0 0 0 0 0 0 0 0 0 0 0 0 0 0 0 0 0 0 0 0 0 0 0 0 0 0 0 0 0 0 0 0 0 0 0 0 0 0 0 0 0 0 0 0 0 0 0 0 0 0 0 0 0 0 0 0 0 0 0 0 0 0 0 0 0 0 0 0 0 0 0 0 0 0 0 0 0 0 0 0 0 0 0 0 0 0 0 0 0 0 0 0 0 0 0 0 0 0 0 0 0 0 0 0 0 0 0 0 0 0 0 0 0 0 0 0 0 0 0 0 0 0 0 0 0 0 0 0 0 0 0 0 0 0 0 0 0 0 0 0 0 0 0 0 0 0 0 0 0 0 0 0 0 0 0 0 0 0 0 0 0 0 0 0 0 0 0 0 0 0 0 0 0 0 0 0 0 0 0 0 0 0 0 0 0 0 0 0 0 0 0 0 0 0 0 0 0 0 0 0 0 0 0 0 0 0 0 0 0 0 0 0 0 0 0 0 0 0 0 0 0 0 0 0 0 0 0 0 0 0 0 0 0 0 0 0 0 0 0 0 0 0 0 0 0 0 0 0 0 0 0 0 0 0 0 0 0 0 0 0 0 0 0 0 0 0 0 0 0 0 0 0 0 0 0 0 0 0 0 0 0 0 0 0 0 0 0 0 0 0 0 0 0 0 0 0 0 0 0 0 0 0 0 0 0 0 0 0 0 0 0 0 0 0 0 0 0 0 0 0 0 0 0 0 0 0 0 0 0 0 0 0 0 0 0 0 0 0 0 0 0 0 0 0 0 0 0 0 0 0 0 0 0 0 0 0 0 0 0 0 0 0 0 0 0 0 0 0 0 0 0 0 0 0 0 0 0 0 0 0 0 0 0 0 0 0 0 0 0 0 0 0 0 0 0 0 0 0 0 0 0 0 0 0 0 0 0 0 0 0 0 0 0 0 0 0 0 0 0 0 0 0 0 0 0 0 0 0 0 0 0 0 0 0 0 0 0 0 0 0 0 0 0 0 0 0 0 0 0 0 0 0 0 0 0 0 0 0 0 0 0 0 0 0 0 0 0 0 0 0 0 0 0 0 0 0 0 0 0 0 0 0 0 0 0 0 0 0 0 0 0 0 0 0 0 0 0 0 0 0 0 0 0 0 0 0 0 0 0 0 0 0 0 0 0 0 0 0 0 0 0 0 0 0 0 0 0 0 0 0 0 0 0 0 0 0 0 0 0 0 0 0 0 0 0 0 0 0 0 0 0 0 0 0 0 0 0 0 0 0 0 0 0 0 0 0 0 0 0 0 0 0 0 0 0 0 0 0 0 0 0 0 0 0 0 0 0 0 0 0 0 0 0 0 0 0 0 0 0 0 0 0 0 0 0 0 0 0 0 0 0 0 0 0 0 0 0 0 0 0 0 0 0 0 0 0 0 0 0 0 0 0 0 0 0 0 0 0 0 0 0 0 0 0 0 0 0 0 0 0 0 0 0 0 0 0 0 0 0 0 0 0 0 0 0 0 0 0 0 0 0 0 0 0 0 0 0 0 0 0 0 0 0 0 0 0 0 0 0 0 0 0 0 0 0 0 0 0 0 0 0 0 0 0 0 0 0 0 0 0 0 0 0 0 0 0 0 0 0 0 0 0 0 0 0 0 0 0 0 0 0 0 0 0 0 0 0 0 0 0 0 0 0 0 0 0 0 0 0 0 0 0 0 0 0 0 0 0 0 0 0 0 0 0 0 0 0 0 0 0 0 0 0 0 0 0 0 0 0 0 0 0 0 0 0 0 0 0 0 0 0 0 0 0 0 0 0 0 0 0 0 0 0 0 0 0 0 0 0 0 0 0 0 0 0 0 0 0 0 0 0 0 0 0 0 0 0 0 0 0 0 0 0 0 0 0 0 0 0 0 0 0 0 0 0 0 0 0 0 0 0 0 0 0 0 0 0 0 0 0 0 0 0 0 0 0 0 0 0 0 0 0 0 0 0 0 0 0 0 0 0 0 0 0 0 0 0 0 0 0 0 0 0 0 0 0 0 0 0 0 0 0 0 0 0 0 0 0 0 0 0 0 0 0 0 0 0 0 0 0 0 0 0 0 0 0 0 0 0 0 0 0 0 0 0 0 0 0 0 0 0 0 0 0 0 0 0 0 0 0 0 0 0 0 0 0 0 0 0 0 0 0 0 0 0 0 0 0 0 0 0 0 0 0 0 0 0 0 0 0 0 0 0 0 0 0 0 0 0 0 0 0 0 0 0 0 0 0 0 0 0 0 0 0 0 0 0 0 0 0 0 0 0 0 0 0 0 0 0 0 0 0 0 0 0 0 0 0 0 0 0 0 0 0 0 0 0 0 0 0 0 0 0 0 0 0 0 0 0 0 0 0 0 0 0 0 0 0 0 0 0 0 0 0 0 0 0 0 0 0 0 0 0 0 0 0 0 0 0 0 0 0 0 0 0 0 0 0 0 0 0 0 0 0 0 0 0 0 0 0 0 0 0 0 0 0 0 0 0 0 0 0 0 0 0 0 0 0 0 0 0 0 0 0 0 0 0 </DataArray>
        <DataArray type="Int64" IdType="1" Name="vtkOriginalCellIds" format="ascii" RangeMin="0" RangeMax="3466">0 1 2 3 4 5 6 7 8 9 10 11 12 13 14 15 16 17 18 19 20 21 22 23 24 25 26 27 28 29 30 31 32 33 34 35 36 37 38 39 40 41 42 43 44 45 46 47 48 49 50 51 52 53 54 55 56 57 58 59 60 61 62 63 64 65 66 67 68 69 70 71 72 73 74 75 76 77 78 79 80 81 82 83 84 85 86 87 88 89 90 91 92 93 94 95 96 97 98 99 100 101 102 103 104 105 106 107 108 109 110 111 112 113 114 115 116 117 118 119 120 121 122 123 124 125 126 127 128 129 130 131 132 133 134 135 136 137 138 139 140 141 142 143 144 145 146 147 148 149 150 151 152 153 154 155 156 157 158 159 160 161 162 163 164 165 166 167 168 169 170 171 172 173 174 175 176 177 178 179 180 181 182 183 184 185 186 187 188 189 190 191 192 193 194 195 196 197 198 199 200 201 202 203 204 205 206 207 208 209 210 211 212 213 214 215 216 217 218 219 220 221 222 223 224 225 226 227 228 229 230 231 232 233 234 235 236 237 238 239 240 241 242 243 244 245 246 247 248 249 250 251 252 253 254 255 256 257 258 259 260 261 262 263 264 265 266 267 268 269 270 271 272 273 274 275 276 277 278 279 280 281 282 283 284 285 286 287 288 289 290 291 292 293 294 295 296 297 298 299 300 301 302 303 304 305 306 307 308 309 310 311 312 313 314 315 316 317 318 319 320 321 322 323 324 325 326 327 328 329 330 331 332 333 334 335 336 337 338 339 340 341 342 343 344 345 346 347 348 349 350 351 352 353 354 355 356 357 358 359 360 361 362 363 364 365 366 367 368 369 370 371 372 373 374 375 376 377 378 379 380 381 382 383 384 385 386 387 388 389 390 391 392 393 394 395 396 397 398 399 400 401 402 403 404 405 406 407 408 409 410 411 412 413 414 415 416 417 418 419 420 421 422 423 424 425 426 427 428 429 430 431 432 433 434 435 436 437 438 439 440 441 442 443 444 445 446 447 448 449 450 451 452 453 454 455 456 457 458 459 460 461 462 463 464 465 466 467 468 469 470 471 472 473 474 475 476 477 478 479 480 481 482 483 484 485 486 487 488 489 490 491 492 493 494 495 496 497 498 499 500 501 502 503 504 505 506 507 508 509 510 511 512 513 514 515 516 517 518 519 520 521 522 523 524 525 526 527 528 529 530 531 532 533 534 535 536 537 538 539 540 541 542 543 544 545 546 547 548 549 550 551 552 553 554 555 556 557 558 559 560 561 562 563 564 565 566 567 568 569 570 571 572 573 574 575 576 577 578 579 580 581 582 583 584 585 586 587 588 589 590 591 592 593 594 595 596 597 598 599 600 601 602 603 604 605 606 607 608 609 610 611 612 613 614 615 616 617 618 619 620 621 622 623 624 625 626 627 628 629 630 631 632 633 634 635 636 637 638 639 640 641 642 643 644 645 646 647 648 649 650 651 652 653 654 655 656 657 658 659 660 661 662 663 664 665 666 667 668 669 670 671 672 673 674 675 676 677 678 679 680 681 682 683 684 685 686 687 688 689 690 691 692 693 694 695 696 697 698 699 700 701 702 703 704 705 706 707 708 709 710 711 712 713 714 715 716 717 718 719 720 721 722 723 724 725 726 727 728 729 730 731 732 733 734 735 736 737 738 739 740 741 742 743 744 745 746 747 748 749 750 751 752 753 754 755 756 757 758 759 760 761 762 763 764 765 766 767 768 769 770 771 772 773 774 775 776 777 778 779 780 781 782 783 784 785 786 787 788 789 790 791 792 793 794 795 796 797 798 799 800 801 802 803 804 805 806 807 808 809 810 811 812 813 814 815 816 817 818 819 820 821 822 823 824 825 826 827 828 829 830 831 832 833 834 835 836 837 838 839 840 841 842 843 844 845 846 847 848 849 850 851 852 853 854 855 856 857 858 859 860 861 862 863 864 865 866 867 868 869 870 871 872 873 874 875 876 877 878 879 880 881 882 883 884 885 886 887 888 889 890 891 892 893 894 895 896 897 898 899 900 901 902 903 904 905 906 907 908 909 910 911 912 913 914 915 916 917 918 919 920 921 922 923 924 925 926 927 928 929 930 931 932 933 934 935 936 937 938 939 940 941 942 943 944 945 946 947 948 949 950 951 952 953 954 955 956 957 958 959 960 961 962 963 964 965 966 967 968 969 970 971 972 973 974 975 976 977 978 979 980 981 982 983 984 985 986 987 988 989 990 991 992 993 994 995 996 997 998 999 1000 1001 1002 1003 1004 1005 1006 1007 1008 1009 1010 1011 1012 1013 1014 1015 1016 1017 1018 1019 1020 1021 1022 1023 1024 1025 1026 1027 1028 1029 1030 1031 1032 1033 1034 1035 1036 1037 1038 1039 1040 1041 1042 1043 1044 1045 1046 1047 1048 1049 1050 1051 1052 1053 1054 1055 1056 1057 1058 1059 1060 1061 1062 1063 1064 1065 1066 1067 1068 1069 1070 1071 1072 1073 1074 1075 1076 1077 1078 1079 1080 1081 1082 1083 1084 1085 1086 1087 1088 1089 1090 1091 1092 1093 1094 1095 1096 1097 1098 1099 1100 1101 1102 1103 1104 1105 1106 1107 1108 1109 1110 1111 1112 1113 1114 1115 1116 1117 1118 1119 1120 1121 1122 1123 1124 1125 1126 1127 1128 1129 1130 1131 1132 1133 1134 1135 1136 1137 1138 1139 1140 1141 1142 1143 1144 1145 1146 1147 1148 1149 1150 1151 1152 1153 1154 1155 1156 1157 1158 1159 1160 1161 1162 1163 1164 1165 1166 1167 1168 1169 1170 1171 1172 1173 1174 1175 1176 1177 1178 1179 1180 1181 1182 1183 1184 1185 1186 1187 1188 1189 1190 1191 1192 1193 1194 1195 1196 1197 1198 1199 1200 1201 1202 1203 1204 1205 1206 1207 1208 1209 1210 1211 1212 1213 1214 1215 1216 1217 1218 1219 1220 1221 1222 1223 1224 1225 1226 1227 1228 1229 1230 1231 1232 1233 1234 1235 1236 1237 1238 1239 1240 1241 1242 1243 1244 1245 1246 1247 1248 1249 1250 1251 1252 1253 1254 1255 1256 1257 1258 1259 1260 1261 1262 1263 1264 1265 1266 1267 1268 1269 1270 1271 1272 1273 1274 1275 1276 1277 1278 1279 1280 1281 1282 1283 1284 1285 1286 1287 1288 1289 1290 1291 1292 1293 1294 1295 1296 1297 1298 1299 1300 1301 1302 1303 1304 1305 1306 1307 1308 1309 1310 1311 1312 1313 1314 1315 1316 1317 1318 1319 1320 1321 1322 1323 1324 1325 1326 1327 1328 1329 1330 1331 1332 1333 1334 1335 1336 1337 1338 1339 1340 1341 1342 1343 1344 1345 1346 1347 1348 1349 1350 1351 1352 1353 1354 1355 1356 1357 1358 1359 1360 1361 1362 1363 1364 1365 1366 1367 1368 1369 1370 1371 1372 1373 1374 1375 1376 1377 1378 1379 1380 1381 1382 1383 1384 1385 1386 1387 1388 1389 1390 1391 1392 1393 1394 1395 1396 1397 1398 1399 1400 1401 1402 1403 1404 1405 1406 1407 1408 1409 1410 1411 1412 1413 1414 1415 1416 1417 1418 1419 1420 1421 1422 1423 1424 1425 1426 1427 1428 1429 1430 1431 1432 1433 1434 1435 1436 1437 1438 1439 1440 1441 1442 1443 1444 1445 1446 1447 1448 1449 1450 1451 1452 1453 1454 1455 1456 1457 1458 1459 1460 1461 1462 1463 1464 1465 1466 1467 1468 1469 1470 1471 1472 1473 1474 1475 1476 1477 1478 1479 1480 1481 1482 1483 1484 1485 1486 1487 1488 1489 1490 1491 1492 1493 1494 1495 1496 1497 1498 1499 1500 1501 1502 1503 1504 1505 1506 1507 1508 1509 1510 1511 1512 1513 1514 1515 1516 1517 1518 1519 1520 1521 1522 1523 1524 1525 1526 1527 1528 1529 1530 1531 1532 1533 1534 1535 1536 1537 1538 1539 1540 1541 1542 1543 1544 1545 1546 1547 1548 1549 1550 1551 1552 1553 1554 1555 1556 1557 1558 1559 1560 1561 1562 1563 1564 1565 1566 1567 1568 1569 1570 1571 1572 1573 1574 1575 1576 1577 1578 1579 1580 1581 1582 1583 1584 1585 1586 1587 1588 1589 1590 1591 1592 1593 1594 1595 1596 1597 1598 1599 1600 1601 1602 1603 1604 1605 1606 1607 1608 1609 1610 1611 1612 1613 1614 1615 1616 1617 1618 1619 1620 1621 1622 1623 1624 1625 1626 1627 1628 1629 1630 1631 1632 1633 1634 1635 1636 1637 1638 1639 1640 1641 1642 1643 1644 1645 1646 1647 1648 1649 1650 1651 1652 1653 1654 1655 1656 1657 1658 1659 1660 1661 1662 1663 1664 1665 1666 1667 1668 1669 1670 1671 1672 1673 1674 1675 1676 1677 1678 1679 1680 1681 1682 1683 1684 1685 1686 1687 1688 1689 1690 1691 1692 1693 1694 1695 1696 1697 1698 1699 1700 1701 1702 1703 1704 1705 1706 1707 1708 1709 1710 1711 1712 1713 1714 1715 1716 1717 1718 1719 1720 1721 1722 1723 1724 1725 1726 1727 1728 1729 1730 1731 1732 1733 1734 1735 1736 1737 1738 1739 1740 1741 1742 1743 1744 1745 1746 1747 1748 1749 1750 1751 1752 1753 1754 1755 1756 1757 1758 1759 1760 1761 1762 1763 1764 1765 1766 1767 1768 1769 1770 1771 1772 1773 1774 1775 1776 1777 1778 1779 1780 1781 1782 1783 1784 1785 1786 1787 1788 1789 1790 1791 1792 1793 1794 1795 1796 1797 1798 1799 1800 1801 1802 1803 1804 1805 1806 1807 1808 1809 1810 1811 1812 1813 1814 1815 1816 1817 1818 1819 1820 1821 1822 1823 1824 1825 1826 1827 1828 1829 1830 1831 1832 1833 1834 1835 1836 1837 1838 1839 1840 1841 1842 1843 1844 1845 1846 1847 1848 1849 1850 1851 1852 1853 1854 1855 1856 1857 1858 1859 1860 1861 1862 1863 1864 1865 1866 1867 1868 1869 1870 1871 1872 1873 1874 1875 1876 1877 1878 1879 1880 1881 1882 1883 1884 1885 1886 1887 1888 1889 1890 1891 1892 1893 1894 1895 1896 1897 1898 1899 1900 1901 1902 1903 1904 1905 1906 1907 1908 1909 1910 1911 1912 1913 1914 1915 1916 1917 1918 1919 1920 1921 1922 1923 1924 1925 1926 1927 1928 1929 1930 1931 1932 1933 1934 1935 1936 1937 1938 1939 1940 1941 1942 1943 1944 1945 1946 1947 1948 1949 1950 1951 1952 1953 1954 1955 1956 1957 1958 1959 1960 1961 1962 1963 1964 1965 1966 1967 1968 1969 1970 1971 1972 1973 1974 1975 1976 1977 1978 1979 1980 1981 1982 1983 1984 1985 1986 1987 1988 1989 1990 1991 1992 1993 1994 1995 1996 1997 1998 1999 2000 2001 2002 2003 2004 2005 2006 2007 2008 2009 2010 2011 2012 2013 2014 2015 2016 2017 2018 2019 2020 2021 2022 2023 2024 2025 2026 2027 2028 2029 2030 2031 2032 2033 2034 2035 2036 2037 2038 2039 2040 2041 2042 2043 2044 2045 2046 2047 2048 2049 2050 2051 2052 2053 2054 2055 2056 2057 2058 2059 2060 2061 2062 2063 2064 2065 2066 2067 2068 2069 2070 2071 2072 2073 2074 2075 2076 2077 2078 2079 2080 2081 2082 2083 2084 2085 2086 2087 2088 2089 2090 2091 2092 2093 2094 2095 2096 2097 2098 2099 2100 2101 2102 2103 2104 2105 2106 2107 2108 2109 2110 2111 2112 2113 2114 2115 2116 2117 2118 2119 2120 2121 2122 2123 2124 2125 2126 2127 2128 2129 2130 2131 2132 2133 2134 2135 2136 2137 2138 2139 2140 2141 2142 2143 2144 2145 2146 2147 2148 2149 2150 2151 2152 2153 2154 2155 2156 2157 2158 2159 2160 2161 2162 2163 2164 2165 2166 2167 2168 2169 2170 2171 2172 2173 2174 2175 2176 2177 2178 2179 2180 2181 2182 2183 2184 2185 2186 2187 2188 2189 2190 2191 2192 2193 2194 2195 2196 2197 2198 2199 2200 2201 2202 2203 2204 2205 2206 2207 2208 2209 2210 2211 2212 2213 2214 2215 2216 2217 2218 2219 2220 2221 2222 2223 2224 2225 2226 2227 2228 2229 2230 2231 2232 2233 2234 2235 2236 2237 2238 2239 2240 2241 2242 2243 2244 2245 2246 2247 2248 2249 2250 2251 2252 2253 2254 2255 2256 2257 2258 2259 2260 2261 2262 2263 2264 2265 2266 2267 2268 2269 2270 2271 2272 2273 2274 2275 2276 2277 2278 2279 2280 2281 2282 2283 2284 2285 2286 2287 2288 2289 2290 2291 2292 2293 2294 2295 2296 2297 2298 2299 2300 2301 2302 2303 2304 2305 2306 2307 2308 2309 2310 2311 2312 2313 2314 2315 2316 2317 2318 2319 2320 2321 2322 2323 2324 2325 2326 2327 2328 2329 2330 2331 2332 2333 2334 2335 2336 2337 2338 2339 2340 2341 2342 2343 2344 2345 2346 2347 2348 2349 2350 2351 2352 2353 2354 2355 2356 2357 2358 2359 2360 2361 2362 2363 2364 2365 2366 2367 2368 2369 2370 2371 2372 2373 2374 2375 2376 2377 2378 2379 2380 2381 2382 2383 2384 2385 2386 2387 2388 2389 2390 2391 2392 2393 2394 2395 2396 2397 2398 2399 2400 2401 2402 2403 2404 2405 2406 2407 2408 2409 2410 2411 2412 2413 2414 2415 2416 2417 2418 2419 2420 2421 2422 2423 2424 2425 2426 2427 2428 2429 2430 2431 2432 2433 2434 2435 2436 2437 2438 2439 2440 2441 2442 2443 2444 2445 2446 2447 2448 2449 2450 2451 2452 2453 2454 2455 2456 2457 2458 2459 2460 2461 2462 2463 2464 2465 2466 2467 2468 2469 2470 2471 2472 2473 2474 2475 2476 2477 2478 2479 2480 2481 2482 2483 2484 2485 2486 2487 2488 2489 2490 2491 2492 2493 2494 2495 2496 2497 2498 2499 2500 2501 2502 2503 2504 2505 2506 2507 2508 2509 2510 2511 2512 2513 2514 2515 2516 2517 2518 2519 2520 2521 2522 2523 2524 2525 2526 2527 2528 2529 2530 2531 2532 2533 2534 2535 2536 2537 2538 2539 2540 2541 2542 2543 2544 2545 2546 2547 2548 2549 2550 2551 2552 2553 2554 2555 2556 2557 2558 2559 2560 2561 2562 2563 2564 2565 2566 2567 2568 2569 2570 2571 2572 2573 2574 2575 2576 2577 2578 2579 2580 2581 2582 2583 2584 2585 2586 2587 2588 2589 2590 2591 2592 2593 2594 2595 2596 2597 2598 2599 2600 2601 2602 2603 2604 2605 2606 2607 2608 2609 2610 2611 2612 2613 2614 2615 2616 2617 2618 2619 2620 2621 2622 2623 2624 2625 2626 2627 2628 2629 2630 2631 2632 2633 2634 2635 2636 2637 2638 2639 2640 2641 2642 2643 2644 2645 2646 2647 2648 2649 2650 2651 2652 2653 2654 2655 2656 2657 2658 2659 2660 2661 2662 2663 2664 2665 2666 2667 2668 2669 2670 2671 2672 2673 2674 2675 2676 2677 2678 2679 2680 2681 2682 2683 2684 2685 2686 2687 2688 2689 2690 2691 2692 2693 2694 2695 2696 2697 2698 2699 2700 2701 2702 2703 2704 2705 2706 2707 2708 2709 2710 2711 2712 2713 2714 2715 2716 2717 2718 2719 2720 2721 2722 2723 2724 2725 2726 2727 2728 2729 2730 2731 2732 2733 2734 2735 2736 2737 2738 2739 2740 2741 2742 2743 2744 2745 2746 2747 2748 2749 2750 2751 2752 2753 2754 2755 2756 2757 2758 2759 2760 2761 2762 2763 2764 2765 2766 2767 2768 2769 2770 2771 2772 2773 2774 2775 2776 2777 2778 2779 2780 2781 2782 2783 2784 2785 2786 2787 2788 2789 2790 2791 2792 2793 2794 2795 2796 2797 2798 2799 2800 2801 2802 2803 2804 2805 2806 2807 2808 2809 2810 2811 2812 2813 2814 2815 2816 2817 2818 2819 2820 2821 2822 2823 2824 2825 2826 2827 2828 2829 2830 2831 2832 2833 2834 2835 2836 2837 2838 2839 2840 2841 2842 2843 2844 2845 2846 2847 2848 2849 2850 2851 2852 2853 2854 2855 2856 2857 2858 2859 2860 2861 2862 2863 2864 2865 2866 2867 2868 2869 2870 2871 2872 2873 2874 2875 2876 2877 2878 2879 2880 2881 2882 2883 2884 2885 2886 2887 2888 2889 2890 2891 2892 2893 2894 2895 2896 2897 2898 2899 2900 2901 2902 2903 2904 2905 2906 2907 2908 2909 2910 2911 2912 2913 2914 2915 2916 2917 2918 2919 2920 2921 2922 2923 2924 2925 2926 2927 2928 2929 2930 2931 2932 2933 2934 2935 2936 2937 2938 2939 2940 2941 2942 2943 2944 2945 2946 2947 2948 2949 2950 2951 2952 2953 2954 2955 2956 2957 2958 2959 2960 2961 2962 2963 2964 2965 2966 2967 2968 2969 2970 2971 2972 2973 2974 2975 2976 2977 2978 2979 2980 2981 2982 2983 2984 2985 2986 2987 2988 2989 2990 2991 2992 2993 2994 2995 2996 2997 2998 2999 3000 3001 3002 3003 3004 3005 3006 3007 3008 3009 3010 3011 3012 3013 3014 3015 3016 3017 3018 3019 3020 3021 3022 3023 3024 3025 3026 3027 3028 3029 3030 3031 3032 3033 3034 3035 3036 3037 3038 3039 3040 3041 3042 3043 3044 3045 3046 3047 3048 3049 3050 3051 3052 3053 3054 3055 3056 3057 3058 3059 3060 3061 3062 3063 3064 3065 3066 3067 3068 3069 3070 3071 3072 3073 3074 3075 3076 3077 3078 3079 3080 3081 3082 3083 3084 3085 3086 3087 3088 3089 3090 3091 3092 3093 3094 3095 3096 3097 3098 3099 3100 3101 3102 3103 3104 3105 3106 3107 3108 3109 3110 3111 3112 3113 3114 3115 3116 3117 3118 3119 3120 3121 3122 3123 3124 3125 3126 3127 3128 3129 3130 3131 3132 3133 3134 3135 3136 3137 3138 3139 3140 3141 3142 3143 3144 3145 3146 3147 3148 3149 3150 3151 3152 3153 3154 3155 3156 3157 3158 3159 3160 3161 3162 3163 3164 3165 3166 3167 3168 3169 3170 3171 3172 3173 3174 3175 3176 3177 3178 3179 3180 3181 3182 3183 3184 3185 3186 3187 3188 3189 3190 3191 3192 3193 3194 3195 3196 3197 3198 3199 3200 3201 3202 3203 3204 3205 3206 3207 3208 3209 3210 3211 3212 3213 3214 3215 3216 3217 3218 3219 3220 3221 3222 3223 3224 3225 3226 3227 3228 3229 3230 3231 3232 3233 3234 3235 3236 3237 3238 3239 3240 3241 3242 3243 3244 3245 3246 3247 3248 3249 3250 3251 3252 3253 3254 3255 3256 3257 3258 3259 3260 3261 3262 3263 3264 3265 3266 3267 3268 3269 3270 3271 3272 3273 3274 3275 3276 3277 3278 3279 3280 3281 3282 3283 3284 3285 3286 3287 3288 3289 3290 3291 3292 3293 3294 3295 3296 3297 3298 3299 3300 3301 3302 3303 3304 3305 3306 3307 3308 3309 3310 3311 3312 3313 3314 3315 3316 3317 3318 3319 3320 3321 3322 3323 3324 3325 3326 3327 3328 3329 3330 3331 3332 3333 3334 3335 3336 3337 3338 3339 3340 3341 3342 3343 3344 3345 3346 3347 3348 3349 3350 3351 3352 3353 3354 3355 3356 3357 3358 3359 3360 3361 3362 3363 3364 3365 3366 3367 3368 3369 3370 3371 3372 3373 3374 3375 3376 3377 3378 3379 3380 3381 3382 3383 3384 3385 3386 3387 3388 3389 3390 3391 3392 3393 3394 3395 3396 3397 3398 3399 3400 3401 3402 3403 3404 3405 3406 3407 3408 3409 3410 3411 3412 3413 3414 3415 3416 3417 3418 3419 3420 3421 3422 3423 3424 3425 3426 3427 3428 3429 3430 3431 3432 3433 3434 3435 3436 3437 3438 3439 3440 3441 3442 3443 3444 3445 3446 3447 3448 3449 3450 3451 3452 3453 3454 3455 3456 3457 3458 3459 3460 3461 3462 3463 3464 3465 3466 </DataArray>
        <DataArray type="Float64" Name="stress" format="ascii" NumberOfComponents="9">-4195826.886611523 5171137.853406071 5171137.853406071 -100954928.4889271 0 0 0 0 0 -2783748.900489294 -2710352.462843894 -2710352.462843894 -74736992.33252095 0 0 0 0 0 618892.5858653281 3844700.174110358 3844700.174110358 -70001504.33508454 0 0 0 0 0 -4890953.509596447 4101833.816841377 4101833.816841377 -67969815.56804518 0 0 0 0 0 -3042917.339337536 7970658.830114181 7970658.830114181 -92186453.88703391 0 0 0 0 0 -2256413.168395774 -2556325.039160319 -2556325.039160319 -68473419.94859338 0 0 0 0 0 -2832470.793404633 -2994519.044415641 -2994519.044415641 -56213631.4528466 0 0 0 0 0 -1153195.350757455 5056232.063197922 5056232.063197922 -63333670.24892215 0 0 0 0 0 -3646007.51946013 1338776.489257674 1338776.489257674 -55867206.83301492 0 0 0 0 0 -3173890.213533957 1851444.731600958 1851444.731600958 -48118399.53860766 0 0 0 0 0 -1231750.478217113 -3460264.016419095 -3460264.016419095 -39388721.13020363 0 0 0 0 0 -4130293.902453434 10827676.76150367 10827676.76150367 -84754693.49657491 0 0 0 0 0 -1362739.072006929 1965191.66239922 1965191.66239922 -65258570.03090495 0 0 0 0 0 -591628.3687004138 -4771599.250739063 -4771599.250739063 -50357968.25425521 0 0 0 0 0 -2257106.298773938 -5996065.877554591 -5996065.877554591 -45133309.44041551 0 0 0 0 0 858060.0286360462 281918.8318595982 281918.8318595982 -33203292.54339888 0 0 0 0 0 2488908.407347708 -3361025.129224358 -3361025.129224358 -27073489.04167264 0 0 0 0 0 -1124430.140986524 6898119.333518479 6898119.333518479 -53851866.74670594 0 0 0 0 0 -861377.9436608481 -1998037.220028648 -1998037.220028648 -46116302.70871279 0 0 0 0 0 -1048297.688641554 -2563785.119536957 -2563785.119536957 -44902240.29672781 0 0 0 0 0 240566.9046609641 -2515728.096441996 -2515728.096441996 -38628703.74918522 0 0 0 0 0 783465.6256790207 -7209296.710279563 -7209296.710279563 -30960711.71042797 0 0 0 0 0 5135241.812094262 -875992.1917183612 -875992.1917183612 -22809668.82301222 0 0 0 0 0 -3236491.547536625 11821030.76992647 11821030.76992647 -71265438.03786054 0 0 0 0 0 1204539.927979796 -318463.9439627089 -318463.9439627089 -57801677.65326791 0 0 0 0 0 4073369.004063692 -9124969.387504071 -9124969.387504071 -44717241.25117733 0 0 0 0 0 3069513.345365571 -9861517.992825406 -9861517.992825406 -37049083.96427857 0 0 0 0 0 6361963.489076307 -4982550.933019899 -4982550.933019899 -27664823.83569528 0 0 0 0 0 7639082.692198127 -3321121.212453261 -3321121.212453261 -19002546.76720786 0 0 0 0 0 5365021.478094213 -7368256.234264323 -7368256.234264323 -22559509.76396034 0 0 0 0 0 -1484084.520905921 6666372.986331328 6666372.986331328 -43669968.46280877 0 0 0 0 0 2412640.513755598 -5150893.060397681 -5150893.060397681 -39652890.77213293 0 0 0 0 0 3659067.668661951 -7819629.889302023 -7819629.889302023 -36455580.56975118 0 0 0 0 0 2913728.164171803 -8030880.087504378 -8030880.087504378 -30429251.0374317 0 0 0 0 0 3661650.804289707 -8870125.551402094 -8870125.551402094 -23008682.66724266 0 0 0 0 0 10633596.00089397 -1255496.072890136 -1255496.072890136 -15428776.94330649 0 0 0 0 0 7943164.296643766 -5360292.392352869 -5360292.392352869 -18886069.81947378 0 0 0 0 0 -2057632.157133005 10572429.68883035 10572429.68883035 -54548138.67342987 0 0 0 0 0 5551001.801575893 -3026660.873849262 -3026660.873849262 -49888157.75665659 0 0 0 0 0 6018718.575423063 -6640199.157275706 -6640199.157275706 -41980157.53421152 0 0 0 0 0 9057305.196124485 -14970489.38891578 -14970489.38891578 -31388002.50660289 0 0 0 0 0 9576181.244757352 -14779569.48428086 -14779569.48428086 -34069630.30623529 0 0 0 0 0 9746447.263111306 -12605586.66725149 -12605586.66725149 -26798351.39840616 0 0 0 0 0 10899258.90654614 -10738550.88174188 -10738550.88174188 -20868952.59727255 0 0 0 0 0 12711198.73979335 -3103369.275371932 -3103369.275371932 -12407101.90631305 0 0 0 0 0 11226255.81430528 -7849840.407020677 -7849840.407020677 -15997934.07705298 0 0 0 0 0 598879.4297792887 2510787.559104507 2510787.559104507 -29471849.78201173 0 0 0 0 0 3992268.980882633 -4476981.823635293 -4476981.823635293 -37776658.27387419 0 0 0 0 0 11811990.29630523 -14443146.14760665 -14443146.14760665 -33192682.0694502 0 0 0 0 0 10260955.7096766 -13449703.35292947 -13449703.35292947 -26627755.13317538 0 0 0 0 0 11144859.08276723 -13517328.62718198 -13517328.62718198 -30608694.15265653 0 0 0 0 0 9069098.20243014 -12084842.6869107 -12084842.6869107 -22288662.80153281 0 0 0 0 0 10785606.75039116 -10199246.2778646 -10199246.2778646 -17333421.93676169 0 0 0 0 0 17055416.38893084 -1544392.672703708 -1544392.672703708 -9967408.1023011 0 0 0 0 0 12107147.64110736 -6739284.439985352 -6739284.439985352 -13160546.00383227 0 0 0 0 0 17876135.21638353 -2412779.885634402 -2412779.885634402 -7947386.360150298 0 0 0 0 0 914715.1718174807 7843920.502194537 7843920.502194537 -37660681.78371606 0 0 0 0 0 6098417.959172509 -1767726.604623599 -1767726.604623599 -38084595.71123509 0 0 0 0 0 12763988.50154835 -11576575.90448174 -11576575.90448174 -29693957.88364468 0 0 0 0 0 14088801.44050665 -13482910.76187436 -13482910.76187436 -31969084.29360557 0 0 0 0 0 15356905.03953779 -18149198.3684886 -18149198.3684886 -22827693.76686708 0 0 0 0 0 16343141.4793224 -19900862.11461816 -19900862.11461816 -25805017.02841861 0 0 0 0 0 18158883.29150454 -20580669.7207569 -20580669.7207569 -27059053.26919696 0 0 0 0 0 15402113.37470301 -15619316.5039584 -15619316.5039584 -18716089.78446057 0 0 0 0 0 16373737.67292618 -12660985.29091678 -12660985.29091678 -14668543.29912632 0 0 0 0 0 14348034.20310322 -5063479.843434887 -5063479.843434887 -9190825.497660365 0 0 0 0 0 18971766.40285403 -8217060.442662099 -8217060.442662099 -10673788.77486544 0 0 0 0 0 19421470.62678589 -1559162.946014884 -1559162.946014884 -6369835.717473438 0 0 0 0 0 1654636.589342422 447320.7150618833 447320.7150618833 -17282602.06918874 0 0 0 0 0 14218617.35584926 -10991698.69071845 -10991698.69071845 -21288046.69001453 0 0 0 0 0 14136307.68804646 -11732660.95587841 -11732660.95587841 -31845609.13866825 0 0 0 0 0 21087507.15129991 -20323427.12831436 -20323427.12831436 -26019353.56328706 0 0 0 0 0 17140658.2022195 -16944643.37905553 -16944643.37905553 -19926212.36904893 0 0 0 0 0 18887733.47105474 -18511577.37511765 -18511577.37511765 -23215204.33379213 0 0 0 0 0 21541313.79652945 -19203937.01530841 -19203937.01530841 -25793312.52849145 0 0 0 0 0 16360793.04393991 -14757517.48742833 -14757517.48742833 -16058298.3938766 0 0 0 0 0 16778445.92716928 -12005794.4188257 -12005794.4188257 -12336389.77827916 0 0 0 0 0 22605718.95170262 -5437686.251012987 -5437686.251012987 -6699998.053699038 0 0 0 0 0 17324537.69496072 -8821162.752535902 -8821162.752535902 -9178349.267297823 0 0 0 0 0 23059084.36196772 -2697892.862704067 -2697892.862704067 -4582122.71745391 0 0 0 0 0 6713851.616834747 -18788.64886798268 -18788.64886798268 -16504580.26460219 0 0 0 0 0 16866523.47788649 -8266479.325917779 -8266479.325917779 -24350211.66956319 0 0 0 0 0 18168241.87863591 -12904667.42254443 -12904667.42254443 -27214049.51955495 0 0 0 0 0 23802181.18782092 -20107310.60879639 -20107310.60879639 -22074514.32236363 0 0 0 0 0 24424167.9321251 -19350606.53789166 -19350606.53789166 -26533670.56292667 0 0 0 0 0 21195778.45695936 -20388295.84390914 -20388295.84390914 -16998132.27953659 0 0 0 0 0 22405038.00358766 -22853327.99464134 -22853327.99464134 -19937004.7639763 0 0 0 0 0 24603253.19661824 -24655265.32665346 -24655265.32665346 -22024219.83683452 0 0 0 0 0 27834848.40536861 -25541239.14648877 -25541239.14648877 -22286757.44582148 0 0 0 0 0 21162538.22455047 -17250771.39250129 -17250771.39250129 -13501387.51371082 0 0 0 0 0 22103340.44727895 -13697747.5798241 -13697747.5798241 -10075510.35326176 0 0 0 0 0 20237603.97769838 -6993756.664581566 -6993756.664581566 -6126821.680577633 0 0 0 0 0 24696189.33344942 -9829304.371508751 -9829304.371508751 -6775164.721990497 0 0 0 0 0 26275549.28006195 -1740269.602494366 -1740269.602494366 -3113400.238807759 0 0 0 0 0 27871735.57134584 -2359101.161737219 -2359101.161737219 -2140359.857602089 0 0 0 0 0 8332228.17533495 -7547626.891454841 -7547626.891454841 -2810024.163904723 0 0 0 0 0 16057110.52313666 -12594656.86338784 -12594656.86338784 -16558868.93666404 0 0 0 0 0 29450376.13359023 -21030108.98054598 -21030108.98054598 -15574513.13446907 0 0 0 0 0 28560085.66924977 -19719692.72575386 -19719692.72575386 -25249112.50770546 0 0 0 0 0 31527751.19252808 -26326170.22506838 -26326170.22506838 -21002673.6944185 0 0 0 0 0 23723980.78385175 -19128028.80891747 -19128028.80891747 -14990158.24850298 0 0 0 0 0 25810203.94978492 -21343197.44799143 -21343197.44799143 -18116939.58600461 0 0 0 0 0 28883383.04203282 -22970733.83960519 -22970733.83960519 -20725334.45212976 0 0 0 0 0 32688821.9903324 -23980346.49016871 -23980346.49016871 -22435911.01680853 0 0 0 0 0 22653958.20082961 -16390241.90296788 -16390241.90296788 -11765399.68544129 0 0 0 0 0 22564359.2994341 -13291908.82073754 -13291908.82073754 -8853745.825741628 0 0 0 0 0 26867154.83062172 -6574714.193903202 -6574714.193903202 -4183037.639038878 0 0 0 0 0 23565980.28048635 -10215378.52496167 -10215378.52496167 -6248703.654640374 0 0 0 0 0 25873704.82513652 -6718295.530583989 -6718295.530583989 -3431880.287119205 0 0 0 0 0 30854506.90406881 -1692387.430330616 -1692387.430330616 -1138762.471139196 0 0 0 0 0 17679182.22542504 -10385691.49773982 -10385691.49773982 1564473.425657147 0 0 0 0 0 27314310.6404428 -16153846.3531187 -16153846.3531187 -11838584.3161294 0 0 0 0 0 33163829.79966982 -20341571.91384736 -20341571.91384736 -20118322.30448268 0 0 0 0 0 36997348.20984801 -26800448.67860825 -26800448.67860825 -17008210.5008207 0 0 0 0 0 37799608.09737121 -24705464.43886939 -24705464.43886939 -22666659.19228261 0 0 0 0 0 28319143.49972479 -24450223.79607389 -24450223.79607389 -15775572.27445753 0 0 0 0 0 27012645.16641869 -21514130.88782609 -21514130.88782609 -12837504.93855224 0 0 0 0 0 30674311.47069006 -26796777.61519577 -26796777.61519577 -18181347.6210974 0 0 0 0 0 34041218.75922831 -28498837.45514978 -28498837.45514978 -19639702.43948895 0 0 0 0 0 38271381.38062693 -29702595.25708168 -29702595.25708168 -19881953.96658211 0 0 0 0 0 26701901.32767146 -18133799.05121634 -18133799.05121634 -9763284.297625709 0 0 0 0 0 27109980.7360235 -14611551.72377084 -14611551.72377084 -6935452.875116876 0 0 0 0 0 27061444.87615572 -11358174.48356828 -11358174.48356828 -4534866.031300807 0 0 0 0 0 31765271.50161426 -6197478.1943385 -6197478.1943385 -1697024.820379968 0 0 0 0 0 32493070.52744374 -2105737.823351297 -2105737.823351297 -534271.4361322095 0 0 0 0 0 30163445.80739432 -5917172.654354905 -5917172.654354905 -1719425.971267872 0 0 0 0 0 19258799.02852353 -17733158.02919252 -17733158.02919252 9440067.346706152 0 0 0 0 0 27560240.86283999 -21061089.43490484 -21061089.43490484 -5867390.561091075 0 0 0 0 0 42271950.24242721 -27825605.76335097 -27825605.76335097 -11166136.05623592 0 0 0 0 0 44004769.87103996 -25538519.7701345 -25538519.7701345 -20979125.2301302 0 0 0 0 0 43505482.53629471 -30495655.34493161 -30495655.34493161 -18529018.84135537 0 0 0 0 0 32083967.81444322 -22899597.92517059 -22899597.92517059 -14320298.0029746 0 0 0 0 0 29821119.3913389 -20305780.34287958 -20305780.34287958 -11510524.70639218 0 0 0 0 0 35346339.60126039 -24995530.00739041 -24995530.00739041 -16950835.38181791 0 0 0 0 0 39529174.28628414 -26566496.5124654 -26566496.5124654 -19061160.23491995 0 0 0 0 0 44811413.34290766 -27671225.40190101 -27671225.40190101 -20319031.5324123 0 0 0 0 0 28564506.9218425 -17322226.50888242 -17322226.50888242 -8835639.29446421 0 0 0 0 0 28273971.17627425 -14124252.72621699 -14124252.72621699 -6429029.994752597 0 0 0 0 0 28909077.60775856 -10805313.52753546 -10805313.52753546 -3987470.743497191 0 0 0 0 0 29376144.45260726 -8157209.945434329 -8157209.945434329 -2182438.048959631 0 0 0 0 0 34921663.24493761 -1533624.433670714 -1533624.433670714 289224.0473542545 0 0 0 0 0 33209891.01636824 -5050608.947087154 -5050608.947087154 -542461.8547033953 0 0 0 0 0 36767671.90257059 -1964973.651813803 -1964973.651813803 933897.760293243 0 0 0 0 0 29572872.46564487 -22452351.05333631 -22452351.05333631 16767669.79615325 0 0 0 0 0 42100850.7147777 -25760639.84409733 -25760639.84409733 960089.6490362902 0 0 0 0 0 42290788.73177221 -23225154.65027652 -23225154.65027652 -13365580.28596192 0 0 0 0 0 50940841.35246911 -26292717.16516088 -26292717.16516088 -17688583.2243217 0 0 0 0 0 50028638.38347888 -31131574.76542766 -31131574.76542766 -15406711.00549589 0 0 0 0 0 51396325.6625037 -28465391.57808249 -28465391.57808249 -20334986.27868704 0 0 0 0 0 36218953.19279429 -27737587.08304924 -27737587.08304924 -15234837.76332491 0 0 0 0 0 33867546.13304226 -25099017.75764089 -25099017.75764089 -12659702.95354365 0 0 0 0 0 32540433.63085819 -22011622.57684771 -22011622.57684771 -9874210.937212775 0 0 0 0 0 39588542.89644261 -29820943.57639462 -29820943.57639462 -17282804.4388833 0 0 0 0 0 43907136.81485348 -31357973.29352992 -31357973.29352992 -18559187.41878593 0 0 0 0 0 49172075.31391197 -32358091.17727257 -32358091.17727257 -18839571.15142265 0 0 0 0 0 32166697.22482052 -18661931.10829349 -18661931.10829349 -7169297.700150213 0 0 0 0 0 32589848.27259916 -15231896.5887916 -15231896.5887916 -4693654.126979031 0 0 0 0 0 33697597.28447603 -11475198.36525742 -11475198.36525742 -2386304.379721402 0 0 0 0 0 34795363.49437129 -8764089.60526886 -8764089.60526886 -496434.0412411959 0 0 0 0 0 35306000.7782061 -5552899.476265544 -5552899.476265544 278025.0535093705 0 0 0 0 0 39288803.11578196 -1479786.098404054 -1479786.098404054 1639742.939407453 0 0 0 0 0 40695346.89029926 -1730378.013484784 -1730378.013484784 2012394.811153807 0 0 0 0 0 35234198.44295535 -31193790.60277917 -31193790.60277917 24043030.36674204 0 0 0 0 0 42649601.39551963 -24115726.796085 -24115726.796085 -5080783.968756542 0 0 0 0 0 49722113.06961774 -29586722.28103692 -29586722.28103692 -2628893.354537344 0 0 0 0 0 57168734.70106246 -31686710.11743623 -31686710.11743623 -10307418.50101573 0 0 0 0 0 58586508.92524704 -29041376.59569603 -29041376.59569603 -19033898.8870916 0 0 0 0 0 55464893.17370386 -32871359.10269492 -32871359.10269492 -17760475.59171772 0 0 0 0 0 40999561.5672648 -25908831.70319351 -25908831.70319351 -14047528.11668056 0 0 0 0 0 37718397.62078907 -23584003.63148655 -23584003.63148655 -11509726.45692102 0 0 0 0 0 35420531.67417488 -20867888.77866932 -20867888.77866932 -8962199.742997093 0 0 0 0 0 45235390.31447031 -27758262.77424554 -27758262.77424554 -16342344.78532491 0 0 0 0 0 50429291.17838895 -29115435.96146145 -29115435.96146145 -18138887.37524895 0 0 0 0 0 56727727.08500049 -29997955.05797328 -29997955.05797328 -19169544.80463492 0 0 0 0 0 34096360.50132496 -17890967.47752049 -17890967.47752049 -6537536.534256924 0 0 0 0 0 33671965.96845572 -14780666.22548462 -14780666.22548462 -4238117.941533071 0 0 0 0 0 33800127.45029491 -11471284.06032925 -11471284.06032925 -2561785.459092338 0 0 0 0 0 35642172.82764853 -8588049.15517565 -8588049.15517565 -671902.2309332322 0 0 0 0 0 37700225.58967055 -5019329.015553057 -5019329.015553057 807680.8142632489 0 0 0 0 0 38947903.01953949 -5259122.614888681 -5259122.614888681 1180629.956974246 0 0 0 0 0 42865118.66990808 -1381453.978774729 -1381453.978774729 2429173.026394496 0 0 0 0 0 45525204.81746934 -35268335.62432345 -35268335.62432345 29737960.05669709 0 0 0 0 0 56090781.78567246 -30171836.58770356 -30171836.58770356 5931233.311432822 0 0 0 0 0 55385754.98942629 -32520816.40726156 -32520816.40726156 6609004.494016235 0 0 0 0 0 58935899.34618484 -28310147.75549458 -28310147.75549458 -11497037.00919534 0 0 0 0 0 66331643.70245977 -29491336.25110149 -29491336.25110149 -16374974.96571783 0 0 0 0 0 62813786.13771171 -33014963.41661608 -33014963.41661608 -15347398.31209513 0 0 0 0 0 64007360.44711408 -30497707.58190576 -30497707.58190576 -19171483.71207134 0 0 0 0 0 44535297.55983367 -30134806.46068765 -30134806.46068765 -15236705.87193501 0 0 0 0 0 41271955.65479422 -27878946.26672379 -27878946.26672379 -12906269.03126023 0 0 0 0 0 38978110.69659018 -25157822.90327312 -25157822.90327312 -10325443.21424597 0 0 0 0 0 37594142.7121285 -22104682.64593721 -22104682.64593721 -7722746.121914022 0 0 0 0 0 48744257.66046848 -31855048.31718497 -31855048.31718497 -17094550.1759369 0 0 0 0 0 53872291.88010199 -33002633.34616511 -33002633.34616511 -18287058.97956711 0 0 0 0 0 59868965.36304835 -33563322.56954884 -33563322.56954884 -18608982.17563114 0 0 0 0 0 37024356.1561565 -18854804.17086723 -18854804.17086723 -5249006.437018748 0 0 0 0 0 37254588.86284816 -15437607.57998577 -15437607.57998577 -2947360.670648757 0 0 0 0 0 38162405.64964847 -12144925.93247783 -12144925.93247783 -1057022.02779041 0 0 0 0 0 39073896.80932516 -9032988.985972328 -9032988.985972328 409685.7094356792 0 0 0 0 0 42867259.36654896 -4804253.138025658 -4804253.138025658 2124951.487271113 0 0 0 0 0 44391063.01722689 -1555790.340473488 -1555790.340473488 2674131.096875916 0 0 0 0 0 42324912.33342735 -4613602.924176273 -4613602.924176273 1831779.686328243 0 0 0 0 0 49207128.39251003 -40915610.18494873 -40915610.18494873 32162014.97948769 0 0 0 0 0 63229520.98301787 -36141544.30403173 -36141544.30403173 13637705.03225169 0 0 0 0 0 67017408.29365858 -29479692.79412434 -29479692.79412434 -6360324.577976895 0 0 0 0 0 64486908.32018796 -32860380.31032339 -32860380.31032339 -5593061.409613419 0 0 0 0 0 70552101.6484051 -33086446.01584145 -33086446.01584145 -11939472.59451963 0 0 0 0 0 71896854.1700573 -30666978.97627424 -30666978.97627424 -18169070.67623967 0 0 0 0 0 66809061.53613193 -33595812.95577559 -33595812.95577559 -17896387.99798924 0 0 0 0 0 50078367.39327291 -28068554.97460176 -28068554.97460176 -14125017.95231667 0 0 0 0 0 45967205.7427632 -26094100.02535039 -26094100.02535039 -11796388.47396926 0 0 0 0 0 42777248.7889168 -23704849.56758415 -23704849.56758415 -9388838.084090743 0 0 0 0 0 40512034.22462738 -20997847.95986624 -20997847.95986624 -7039333.278679966 0 0 0 0 0 55097684.32425219 -29563309.81855968 -29563309.81855968 -16184485.2025015 0 0 0 0 0 61005348.00809716 -30536951.61270067 -30536951.61270067 -17768006.77233928 0 0 0 0 0 67852519.72918943 -31011527.50170689 -31011527.50170689 -18640308.93160097 0 0 0 0 0 39122535.9183075 -18078007.51367222 -18078007.51367222 -4834889.262420334 0 0 0 0 0 38530823.26796253 -15017649.95501781 -15017649.95501781 -2948592.418200143 0 0 0 0 0 38731915.19421935 -11993084.68019244 -11993084.68019244 -1238137.255642948 0 0 0 0 0 39602560.47734847 -8952407.387526659 -8952407.387526659 131162.9475539199 0 0 0 0 0 40738957.61467525 -6843413.185593911 -6843413.185593911 1170682.905710303 0 0 0 0 0 45794451.51439597 -1352260.005707678 -1352260.005707678 2811154.629168605 0 0 0 0 0 44078245.22140281 -4205091.722512461 -4205091.722512461 2187985.213906777 0 0 0 0 0 66430933.62506994 -47822696.89778867 -47822696.89778867 40832127.86104488 0 0 0 0 0 74604919.60985395 -38723752.01318336 -38723752.01318336 17998137.30642973 0 0 0 0 0 81769825.40229338 -34188637.84781851 -34188637.84781851 2516272.695878245 0 0 0 0 0 73134971.57919025 -34276199.1913518 -34276199.1913518 331532.6252987527 0 0 0 0 0 75695643.61385798 -30762474.80973681 -30762474.80973681 -12004063.97003973 0 0 0 0 0 80491300.36419086 -30678977.12812328 -30678977.12812328 -16062963.77079368 0 0 0 0 0 74518674.95061362 -33239930.74463987 -33239930.74463987 -16232921.97410029 0 0 0 0 0 75432560.60276136 -31036218.48561338 -31036218.48561338 -18693978.00977722 0 0 0 0 0 48953324.64841919 -29812288.62045278 -29812288.62045278 -13473171.74668965 0 0 0 0 0 52952013.17804843 -31614068.0508547 -31614068.0508547 -15631898.62644098 0 0 0 0 0 45850046.49409799 -27520980.16397568 -27520980.16397568 -11051151.68091398 0 0 0 0 0 43631698.95287634 -24842079.26593471 -24842079.26593471 -8546054.788079599 0 0 0 0 0 42256476.06379155 -21885807.2543976 -21885807.2543976 -6102569.497210807 0 0 0 0 0 57815159.7739038 -32856970.47432934 -32856970.47432934 -17344574.84760185 0 0 0 0 0 63509709.36137143 -33494355.24478006 -33494355.24478006 -18475122.46054683 0 0 0 0 0 70015887.18844183 -33537233.37555293 -33537233.37555293 -18837415.82797322 0 0 0 0 0 41678567.09654549 -18738917.00534011 -18738917.00534011 -3810691.327820724 0 0 0 0 0 41803964.94638514 -15562392.11824614 -15562392.11824614 -1799324.200764804 0 0 0 0 0 42682617.63254312 -12349962.63472289 -12349962.63472289 -8348.704841292858 0 0 0 0 0 44101866.07348142 -9112153.792783799 -9112153.792783799 1472998.538877629 0 0 0 0 0 45649947.22425414 -6876274.805379115 -6876274.805379115 2639872.484400548 0 0 0 0 0 47684526.82897691 -1557125.852868078 -1557125.852868078 3160665.493257052 0 0 0 0 0 47005999.24353993 -4431548.612546952 -4431548.612546952 2998155.827834315 0 0 0 0 0 68393387.06038409 -51396177.53175966 -51396177.53175966 37632330.15674125 0 0 0 0 0 77196102.67137559 -41535345.67918657 -41535345.67918657 19056301.45895587 0 0 0 0 0 84155255.26600592 -36163549.49451502 -36163549.49451502 5427658.933887029 0 0 0 0 0 86888157.10123192 -31785507.75474383 -31785507.75474383 -7531287.16868925 0 0 0 0 0 78984867.3396977 -33540496.26304846 -33540496.26304846 -8666938.451107908 0 0 0 0 0 82665768.94268815 -32630535.72535145 -32630535.72535145 -13863582.66611717 0 0 0 0 0 83541962.07496755 -30672010.68928187 -30672010.68928187 -17951083.63546549 0 0 0 0 0 77237578.19409268 -33023413.93314661 -33023413.93314661 -18353570.34965334 0 0 0 0 0 54256677.97010735 -27813743.85401618 -27813743.85401618 -12304255.12740343 0 0 0 0 0 58999605.57851091 -29367171.65520981 -29367171.65520981 -14461136.81310414 0 0 0 0 0 50352677.90387219 -25816186.41260794 -25816186.41260794 -10020500.20621814 0 0 0 0 0 47310138.66460654 -23457741.51229922 -23457741.51229922 -7741519.003279353 0 0 0 0 0 45113778.36148003 -20829971.98563883 -20829971.98563883 -5566997.787351295 0 0 0 0 0 64534107.57131878 -30417749.58782196 -30417749.58782196 -16330677.3211653 0 0 0 0 0 70899642.22448845 -30934786.75784328 -30934786.75784328 -17737140.7631974 0 0 0 0 0 77973061.94551635 -30927188.1994318 -30927188.1994318 -18519662.41534512 0 0 0 0 0 43722792.616265 -18021237.85238351 -18021237.85238351 -3596286.820152248 0 0 0 0 0 43077653.15687189 -15150166.51904115 -15150166.51904115 -1833330.105068658 0 0 0 0 0 43122287.45297448 -12284391.80281166 -12284391.80281166 -382556.2445036464 0 0 0 0 0 43609137.60834194 -9435564.446822347 -9435564.446822347 666929.8011484439 0 0 0 0 0 45344291.17926232 -7127486.950045454 -7127486.950045454 1824040.594890229 0 0 0 0 0 49947010.11864235 -1353247.396777046 -1353247.396777046 3514605.566974534 0 0 0 0 0 46754263.19012184 -4636533.61596807 -4636533.61596807 2444497.113615062 0 0 0 0 0 91352232.62615553 -59752923.34588376 -59752923.34588376 47756045.0692455 0 0 0 0 0 93938515.28514919 -45803981.68455335 -45803981.68455335 25674592.13085405 0 0 0 0 0 96644678.91388111 -37596505.40174349 -37596505.40174349 9463104.319024803 0 0 0 0 0 98682899.60739742 -32868345.17020429 -32868345.17020429 -1915026.208939212 0 0 0 0 0 88780227.54497434 -33196397.12639724 -33196397.12639724 -4331637.748700167 0 0 0 0 0 90183958.81944048 -30728670.00067389 -30728670.00067389 -12923773.79790096 0 0 0 0 0 92183237.66838743 -29994758.7850575 -29994758.7850575 -16296985.61277859 0 0 0 0 0 84947518.90778083 -32054775.75612709 -32054775.75612709 -17083126.50646061 0 0 0 0 0 85529714.53263164 -30425077.34396529 -30425077.34396529 -18618779.30534658 0 0 0 0 0 52901854.94194151 -29100378.21392919 -29100378.21392919 -11959471.31093552 0 0 0 0 0 56641771.50656216 -30912517.39472932 -30912517.39472932 -14236883.65349551 0 0 0 0 0 61187947.20069379 -32204534.22667275 -32204534.22667275 -16237820.36599551 0 0 0 0 0 49980187.59776814 -26853822.85336903 -26853822.85336903 -9553963.640798928 0 0 0 0 0 47862508.02318135 -24271028.26341245 -24271028.26341245 -7154793.032657772 0 0 0 0 0 46512003.88237148 -21447906.33433722 -21447906.33433722 -4867138.187355083 0 0 0 0 0 66493314.24813979 -32924061.10436794 -32924061.10436794 -17822266.60026906 0 0 0 0 0 72504588.51400112 -33028680.3996805 -33028680.3996805 -18845831.43687984 0 0 0 0 0 79173239.79080996 -32514771.29013517 -32514771.29013517 -19165534.12379166 0 0 0 0 0 45867835.20737959 -18493659.90447449 -18493659.90447449 -2780751.269885365 0 0 0 0 0 45868749.55049612 -15482457.831559 -15482457.831559 -924823.1146092332 0 0 0 0 0 46373739.31422843 -12548211.6740833 -12548211.6740833 608798.0997590127 0 0 0 0 0 47597530.01361162 -9730532.069137508 -9730532.069137508 1884974.781175143 0 0 0 0 0 49149654.1308049 -7162547.735496533 -7162547.735496533 2896258.949798688 0 0 0 0 0 50781358.73781996 -1352772.563964808 -1352772.563964808 3341974.025029724 0 0 0 0 0 48945179.75639987 -3867477.533787433 -3867477.533787433 3052857.63546544 0 0 0 0 0 50846063.90035229 -4710323.742272685 -4710323.742272685 3656188.955049293 0 0 0 0 0 89758720.48991373 -59800486.19411328 -59800486.19411328 39333009.11419837 0 0 0 0 0 93199256.44430794 -45705504.62745428 -45705504.62745428 22497445.97187943 0 0 0 0 0 96543421.94075139 -37486773.77776646 -37486773.77776646 9409331.508763928 0 0 0 0 0 99092420.23509836 -32974809.44858647 -32974809.44858647 -310392.1524068587 0 0 0 0 0 100377372.765206 -30374372.87948059 -30374372.87948059 -9289895.763270119 0 0 0 0 0 91399914.22279659 -31660882.54643781 -31660882.54643781 -10976399.64843856 0 0 0 0 0 92914851.89371765 -30564878.31751919 -30564878.31751919 -15152471.49266378 0 0 0 0 0 93363950.72473991 -29430852.03441967 -29430852.03441967 -18002669.97192226 0 0 0 0 0 86327648.17882399 -31415776.45988433 -31415776.45988433 -18782299.05190255 0 0 0 0 0 57895375.5373222 -27204754.97509739 -27204754.97509739 -10793605.19790502 0 0 0 0 0 62317436.58261853 -28764867.67998711 -28764867.67998711 -12951797.59255302 0 0 0 0 0 67471625.19236708 -29854035.72072066 -29854035.72072066 -14947096.52053261 0 0 0 0 0 54241625.24786672 -25243769.72180106 -25243769.72180106 -8593363.686157109 0 0 0 0 0 51372650.51266611 -22964086.72244201 -22964086.72244201 -6452925.564157842 0 0 0 0 0 49273093.41021464 -20450675.83401408 -20450675.83401408 -4455095.496704132 0 0 0 0 0 73308519.7554564 -30426597.58840983 -30426597.58840983 -16645911.46895708 0 0 0 0 0 79779979.40454504 -30453803.5015294 -30453803.5015294 -17899798.16919421 0 0 0 0 0 86698512.23964024 -29934678.12331808 -29934678.12331808 -18601042.18490556 0 0 0 0 0 47901180.3661727 -17796013.46118842 -17796013.46118842 -2649871.977398916 0 0 0 0 0 47206767.80318063 -15078094.1262773 -15078094.1262773 -1097925.149473891 0 0 0 0 0 47123604.07328201 -12388493.02332921 -12388493.02332921 196583.1055453047 0 0 0 0 0 47589524.19303345 -9838477.117678795 -9838477.117678795 1349163.639091858 0 0 0 0 0 48681733.30074342 -7469518.239450467 -7469518.239450467 2149513.366388042 0 0 0 0 0 53002681.63297135 -1028444.332241958 -1028444.332241958 3841574.061211532 0 0 0 0 0 52032389.2560309 -3528631.027946374 -3528631.027946374 3848975.191249069 0 0 0 0 0 49763723.19582203 -5336004.275210689 -5336004.275210689 2718478.700931882 0 0 0 0 0 53692138.543015 -1101031.512483267 -1101031.512483267 3834410.317354434 0 0 0 0 0 56300055.09313895 -1129809.729975152 -1129809.729975152 4077155.720850455 0 0 0 0 0 120535199.9000675 -68979013.48716964 -68979013.48716964 51217709.12941339 0 0 0 0 0 114967532.6673444 -51580220.69190831 -51580220.69190831 31358482.55385185 0 0 0 0 0 112934647.9932006 -40483234.85038561 -40483234.85038561 15327883.36252434 0 0 0 0 0 111703857.6538943 -33885352.49774773 -33885352.49774773 3472025.28812954 0 0 0 0 0 110992931.6705776 -29822072.47505134 -29822072.47505134 -5058781.366143495 0 0 0 0 0 100608216.4961284 -30260768.44582333 -30260768.44582333 -7573522.980284786 0 0 0 0 0 101244698.8978829 -28977592.45825702 -28977592.45825702 -13838580.45603424 0 0 0 0 0 101507452.9605609 -28063632.28984577 -28063632.28984577 -16597160.79394582 0 0 0 0 0 93722242.94124661 -29769290.12292609 -29769290.12292609 -17684467.38386839 0 0 0 0 0 93923606.14510089 -28906970.01508879 -28906970.01508879 -18681460.78716783 0 0 0 0 0 59910058.78269558 -29932857.79619426 -29932857.79619426 -12946827.99503189 0 0 0 0 0 56435449.03409021 -28156778.879155 -28156778.879155 -10657958.93748153 0 0 0 0 0 64117198.17660577 -31239629.03313016 -31239629.03313016 -15072463.84479605 0 0 0 0 0 69015629.49082865 -32009048.03178835 -32009048.03178835 -16908127.6074356 0 0 0 0 0 53705478.34216178 -25994907.19389126 -25994907.19389126 -8325661.705041465 0 0 0 0 0 51701535.48011472 -23537916.08531655 -23537916.08531655 -6055142.665897905 0 0 0 0 0 50389818.58308319 -20880297.75528438 -20880297.75528438 -3930882.173683985 0 0 0 0 0 74546041.19288599 -32189690.02227598 -32189690.02227598 -18315824.05595785 0 0 0 0 0 80630457.5059534 -31753471.60487968 -31753471.60487968 -19170320.6247283 0 0 0 0 0 87181439.9987136 -30713861.46225158 -30713861.46225158 -19402713.88326265 0 0 0 0 0 49721380.28814912 -18106052.4315782 -18106052.4315782 -2006858.92917948 0 0 0 0 0 49625796.09955853 -15313287.35275521 -15313287.35275521 -339301.2290731018 0 0 0 0 0 50012760.50335513 -12583602.93731785 -12583602.93731785 1055938.213219485 0 0 0 0 0 50827449.46705633 -9926119.526000939 -9926119.526000939 2242324.595426539 0 0 0 0 0 51770934.95000508 -7603589.813988885 -7603589.813988885 3014722.308904707 0 0 0 0 0 52263372.27014899 -3368478.918371346 -3368478.918371346 3509730.602094914 0 0 0 0 0 52514779.348125 -5653444.123644605 -5653444.123644605 3476305.216728949 0 0 0 0 0 54780330.73388729 -967906.6478769525 -967906.6478769525 3863403.53169319 0 0 0 0 0 57867186.40359327 -1053751.948529075 -1053751.948529075 4145970.653284187 0 0 0 0 0 58811200.08913211 -1018778.618154279 -1018778.618154279 4003553.735032798 0 0 0 0 0 113546250.7424786 -64396176.87399866 -64396176.87399866 37694544.79567866 0 0 0 0 0 110618787.7337857 -48377940.47907229 -48377940.47907229 23540283.17453882 0 0 0 0 0 110182705.4936172 -37992085.61158679 -37992085.61158679 12252116.04040241 0 0 0 0 0 110109476.0515193 -31980307.18514884 -31980307.18514884 3111803.727401165 0 0 0 0 0 109976601.5290763 -28544276.22329483 -28544276.22329483 -4091640.284683663 0 0 0 0 0 110483541.8061892 -27590992.62625576 -27590992.62625576 -10764385.93002481 0 0 0 0 0 101245198.7353755 -28705105.62383413 -28705105.62383413 -12613926.03921366 0 0 0 0 0 101304058.6270415 -27680890.7194032 -27680890.7194032 -15919224.26811856 0 0 0 0 0 101356909.5325417 -27406109.31358222 -27406109.31358222 -18060257.79887046 0 0 0 0 0 94013816.26840286 -29096138.14153117 -29096138.14153117 -19005888.66713139 0 0 0 0 0 65191203.64072063 -27910369.7566365 -27910369.7566365 -11632399.98700468 0 0 0 0 0 61098756.62333245 -26378609.87511925 -26378609.87511925 -9527129.301911218 0 0 0 0 0 69947555.77532716 -29012068.87074216 -29012068.87074216 -13655536.34728233 0 0 0 0 0 75314390.28795044 -29624533.29981784 -29624533.29981784 -15483081.9331714 0 0 0 0 0 57704553.202744 -24486115.92336127 -24486115.92336127 -7435715.690269839 0 0 0 0 0 55021255.53411906 -22312289.94269539 -22312289.94269539 -5438515.204566688 0 0 0 0 0 53030137.68097124 -19938652.32528292 -19938652.32528292 -3596256.772198257 0 0 0 0 0 81203327.40556569 -29715786.19157003 -29715786.19157003 -17002338.9068873 0 0 0 0 0 87506621.10912819 -29258224.50206496 -29258224.50206496 -18084057.51435305 0 0 0 0 0 94095405.57467961 -28277262.56910502 -28277262.56910502 -18665039.41144928 0 0 0 0 0 51697890.53051831 -17444043.90737491 -17444043.90737491 -1957747.217900592 0 0 0 0 0 50975783.65558111 -14911084.36933189 -14911084.36933189 -543453.7744117017 0 0 0 0 0 50805950.24317059 -12401738.70491675 -12401738.70491675 659869.5256621084 0 0 0 0 0 51140922.5597379 -9959722.362240722 -9959722.362240722 1593191.763251385 0 0 0 0 0 51912815.76735773 -7688456.628163544 -7688456.628163544 2299821.148995139 0 0 0 0 0 54545116.06093984 -3307005.645266417 -3307005.645266417 3831071.684700551 0 0 0 0 0 53215623.74258588 -5630828.731094054 -5630828.731094054 3125020.896664207 0 0 0 0 0 55715575.72022688 -3309542.505687875 -3309542.505687875 3672902.664626786 0 0 0 0 0 57474483.6264209 -3049652.783165976 -3049652.783165976 3689353.512715166 0 0 0 0 0 59990863.23018726 -912064.6227669946 -912064.6227669946 4095395.912271022 0 0 0 0 0 61089065.4181583 -985832.5294307525 -985832.5294307525 4177759.306051391 0 0 0 0 0 66857704.16583262 -824458.0074132043 -824458.0074132043 4108621.754747955 0 0 0 0 0 65709421.56801037 -713196.4622357081 -713196.4622357081 3975093.48327479 0 0 0 0 0 65002418.77035373 -777998.4197195264 -777998.4197195264 4026414.080637298 0 0 0 0 0 63190166.7639653 -1008579.181114079 -1008579.181114079 4099799.220758701 0 0 0 0 0 148112952.8795925 -74582767.00036505 -74582767.00036505 49400005.73024312 0 0 0 0 0 138573573.8220332 -55786564.5823193 -55786564.5823193 35016515.54758027 0 0 0 0 0 130450871.5112358 -42187388.00626281 -42187388.00626281 19890201.25170777 0 0 0 0 0 125397709.0919267 -33897340.21800262 -33897340.21800262 8142420.864504092 0 0 0 0 0 122012687.3506878 -28986715.58639361 -28986715.58639361 -667159.7289073801 0 0 0 0 0 119769302.1489643 -25882964.44069897 -25882964.44069897 -7184928.62464969 0 0 0 0 0 109632561.5676711 -26408709.67965461 -26408709.67965461 -9612047.489865644 0 0 0 0 0 109668747.0528641 -26260004.74321617 -26260004.74321617 -14498181.66629929 0 0 0 0 0 108715477.1449762 -25421125.77243171 -25421125.77243171 -16758719.7670617 0 0 0 0 0 100993795.154168 -26949138.31666498 -26949138.31666498 -17927030.01201761 0 0 0 0 0 100896276.0002427 -26798109.10750151 -26798109.10750151 -18639931.62565318 0 0 0 0 0 62814845.71668339 -28795945.35261193 -28795945.35261193 -11772066.81124585 0 0 0 0 0 66688848.30809727 -30088404.3649218 -30088404.3649218 -13922971.41024173 0 0 0 0 0 59605531.05660173 -27081604.88192533 -27081604.88192533 -9534202.21468349 0 0 0 0 0 71194165.7613887 -30888838.84029495 -30888838.84029495 -15873944.26792051 0 0 0 0 0 76276991.19935286 -31140992.20991933 -31140992.20991933 -17516469.89103161 0 0 0 0 0 57066297.95369047 -25025279.91319324 -25025279.91319324 -7308849.352417784 0 0 0 0 0 55183289.11299676 -22712168.96983965 -22712168.96983965 -5178659.693568956 0 0 0 0 0 53923494.99960502 -20225051.12498973 -20225051.12498973 -3207798.657490741 0 0 0 0 0 81847546.02049436 -30810467.22374204 -30810467.22374204 -18721180.36167115 0 0 0 0 0 87802234.67987676 -29893839.92485001 -29893839.92485001 -19397108.94105686 0 0 0 0 0 94037383.74902515 -28409169.51976413 -28409169.51976413 -19506354.30785551 0 0 0 0 0 53240007.05259014 -17647632.91572613 -17647632.91572613 -1444984.992773474 0 0 0 0 0 53057755.05699407 -15058760.80124368 -15058760.80124368 79737.61736647021 0 0 0 0 0 53343081.09347145 -12498705.76686361 -12498705.76686361 1373705.65993486 0 0 0 0 0 53972932.12788112 -10057306.19061534 -10057306.19061534 2381733.83789045 0 0 0 0 0 54814720.88373829 -7853189.466195503 -7853189.466195503 3122782.323505885 0 0 0 0 0 55503209.02718788 -5823653.284566783 -5823653.284566783 3585992.70344779 0 0 0 0 0 58046563.95869374 -3324688.43428243 -3324688.43428243 4156067.12897618 0 0 0 0 0 58749462.30834933 -2747258.235891287 -2747258.235891287 3929425.279310576 0 0 0 0 0 60258392.26001166 -2827894.961366941 -2827894.961366941 4166236.887371729 0 0 0 0 0 62098405.62995423 -991814.6776095787 -991814.6776095787 4130398.705644202 0 0 0 0 0 68314141.35162272 -728849.3671270615 -728849.3671270615 4293645.828778038 0 0 0 0 0 66667920.15223595 -2100066.478292238 -2100066.478292238 4496346.96756773 0 0 0 0 0 65025054.34627132 -955538.7945583633 -955538.7945583633 4440174.871407444 0 0 0 0 0 68542775.71992859 -638057.7343098244 -638057.7343098244 3990027.748401505 0 0 0 0 0 70099038.67545889 -664532.2836851025 -664532.2836851025 3972737.628893578 0 0 0 0 0 143447026.9620719 -71378827.58526835 -71378827.58526835 37427096.47202639 0 0 0 0 0 130104828.170303 -46857400.06859245 -46857400.06859245 23861181.67886396 0 0 0 0 0 124774834.2608218 -36615120.56687758 -36615120.56687758 14867752.56719949 0 0 0 0 0 121788565.8070852 -30061682.04068727 -30061682.04068727 6477092.691988739 0 0 0 0 0 119542740.8769009 -26080287.4039166 -26080287.4039166 -579140.7319682213 0 0 0 0 0 117886550.6646543 -23648825.11353003 -23648825.11353003 -6238755.47072889 0 0 0 0 0 117739076.5108356 -24121474.99402159 -24121474.99402159 -11780320.80447403 0 0 0 0 0 108880538.6066495 -25141863.50262704 -25141863.50262704 -13524806.8739764 0 0 0 0 0 107910011.5858578 -24360582.49894857 -24360582.49894857 -16177581.14240481 0 0 0 0 0 107649886.5211591 -24811456.55225994 -24811456.55225994 -17969640.11635239 0 0 0 0 0 100447921.7529556 -26351955.20802316 -26351955.20802316 -18991042.13379851 0 0 0 0 0 67702454.88270506 -26908061.63765351 -26908061.63765351 -10477726.32828283 0 0 0 0 0 72073508.85933521 -28001322.36313436 -28001322.36313436 -12468905.47451865 0 0 0 0 0 63934485.03592591 -25424592.97721457 -25424592.97721457 -8457829.195240529 0 0 0 0 0 76992467.31150255 -28647347.70151669 -28647347.70151669 -14339891.10746669 0 0 0 0 0 82394339.67323929 -28796261.29875038 -28796261.29875038 -15985526.63399204 0 0 0 0 0 60799020.41491289 -23619680.65217579 -23619680.65217579 -6487237.485136496 0 0 0 0 0 58300557.40789722 -21567320.56851059 -21567320.56851059 -4630393.122754329 0 0 0 0 0 56425985.41357059 -19342016.45936644 -19342016.45936644 -2935905.863269482 0 0 0 0 0 88147976.30625539 -28429540.25565596 -28429540.25565596 -17307080.07978179 0 0 0 0 0 94143423.18202762 -27546538.87497146 -27546538.87497146 -18205346.6062247 0 0 0 0 0 100303980.6970879 -26161753.25739547 -26161753.25739547 -18609304.53610846 0 0 0 0 0 55142577.32384123 -17017671.28072595 -17017671.28072595 -1435101.598896611 0 0 0 0 0 54411299.44749444 -14658108.95215057 -14658108.95215057 -136018.7864939368 0 0 0 0 0 54175767.05506499 -12315523.75251356 -12315523.75251356 934217.2862365481 0 0 0 0 0 54389557.36626624 -10045811.76745979 -10045811.76745979 1795626.118411996 0 0 0 0 0 54986271.7637447 -7921170.689542406 -7921170.689542406 2536406.160967212 0 0 0 0 0 55853540.40293612 -5869480.073312346 -5869480.073312346 3088767.885694067 0 0 0 0 0 56754556.56889669 -4277902.654549259 -4277902.654549259 3407252.254421522 0 0 0 0 0 59680657.57352011 -4424824.06002644 -4424824.06002644 4197582.596274887 0 0 0 0 0 60896950.54587027 -2828414.19073621 -2828414.19073621 3827772.406561374 0 0 0 0 0 62827522.71364763 -2915123.418282634 -2915123.418282634 4229785.750037467 0 0 0 0 0 67477531.70814411 -1704761.695610563 -1704761.695610563 3624120.585923075 0 0 0 0 0 63688490.40694474 -2112597.674231633 -2112597.674231633 3628575.182799978 0 0 0 0 0 66121659.03021623 -2449398.840835475 -2449398.840835475 3625399.414644035 0 0 0 0 0 69119847.51997049 -596762.6896717815 -596762.6896717815 3883770.672446078 0 0 0 0 0 71188907.9374624 -582953.696023098 -582953.696023098 4092254.48450863 0 0 0 0 0 71508018.80455671 -539243.9929265218 -539243.9929265218 3925248.524323222 0 0 0 0 0 72825751.67916261 -586665.639508786 -586665.639508786 3892660.928426968 0 0 0 0 0 181660343.4394135 -79148529.16257791 -79148529.16257791 46281698.44658364 0 0 0 0 0 160320696.3612306 -54829227.011545 -54829227.011545 30972686.41693349 0 0 0 0 0 152110186.0902019 -52259874.8322695 -52259874.8322695 32955437.91648012 0 0 0 0 0 146037469.9124463 -41897746.83653165 -41897746.83653165 23495831.02482388 0 0 0 0 0 137791130.5156104 -32640256.85034911 -32640256.85034911 12035088.16955746 0 0 0 0 0 132399512.8666541 -27232361.23033872 -27232361.23033872 3411726.339105972 0 0 0 0 0 128511433.1821052 -23735916.97172101 -23735916.97172101 -3361108.286794344 0 0 0 0 0 125367789.1056629 -21629587.68762664 -21629587.68762664 -8540242.974797258 0 0 0 0 0 116286167.1245008 -22191023.21927986 -22191023.21927986 -10597000.6820062 0 0 0 0 0 115874796.7652615 -23067586.39448455 -23067586.39448455 -14814132.16703559 0 0 0 0 0 114158408.0475002 -22417334.39782031 -22417334.39782031 -16657882.93891787 0 0 0 0 0 106831777.5404117 -23835662.05060699 -23835662.05060699 -17817703.43176075 0 0 0 0 0 106496432.3998526 -24292501.89337672 -24292501.89337672 -18445014.7149284 0 0 0 0 0 65414008.11904796 -27579051.75404831 -27579051.75404831 -10710948.22992042 0 0 0 0 0 68967713.29663961 -28840015.73799987 -28840015.73799987 -12825035.66299064 0 0 0 0 0 73095000.66733339 -29656389.77794756 -29656389.77794756 -14811428.17417658 0 0 0 0 0 62458838.36724838 -25941329.15075544 -25941329.15075544 -8561829.569477392 0 0 0 0 0 77748415.74829215 -29973479.98247153 -29973479.98247153 -16561468.50766021 0 0 0 0 0 82853099.37295842 -29746281.02259354 -29746281.02259354 -17989746.34406018 0 0 0 0 0 60107132.5999357 -24001758.75710511 -24001758.75710511 -6459774.673532316 0 0 0 0 0 58345015.84535594 -21837921.86273031 -21837921.86273031 -4471613.200349815 0 0 0 0 0 57142899.52323197 -19525836.43430915 -19525836.43430915 -2649159.249014466 0 0 0 0 0 88315350.73906031 -28965086.29186526 -28965086.29186526 -18967113.86777913 0 0 0 0 0 93987457.2610829 -27642976.56729744 -27642976.56729744 -19455511.59441705 0 0 0 0 0 99816195.50747098 -25781321.55101138 -25781321.55101138 -19382382.00242635 0 0 0 0 0 56450111.89826736 -17139773.72809412 -17139773.72809412 -1027752.254657149 0 0 0 0 0 56224644.54236116 -14734636.70085906 -14734636.70085906 378602.3105787771 0 0 0 0 0 56404364.48717208 -12378881.19554771 -12378881.19554771 1549340.008540721 0 0 0 0 0 56934821.87346332 -10114570.12453575 -10114570.12453575 2496855.39425191 0 0 0 0 0 57759904.11299437 -7953452.338269102 -7953452.338269102 3277215.879864954 0 0 0 0 0 58748386.7296903 -5905412.416996363 -5905412.416996363 3842225.153675484 0 0 0 0 0 59789527.34176213 -4546146.875228298 -4546146.875228298 3563875.124034842 0 0 0 0 0 61826768.50080503 -4596786.417675653 -4596786.417675653 4020349.573903871 0 0 0 0 0 62724344.72267251 -3112243.857025785 -3112243.857025785 3636269.281526701 0 0 0 0 0 68646630.11946908 -2468326.002385356 -2468326.002385356 4372532.297125705 0 0 0 0 0 69936178.00939293 -1688539.19322469 -1688539.19322469 4351210.898119475 0 0 0 0 0 65413780.26106568 -3158860.954540452 -3158860.954540452 4378228.301715736 0 0 0 0 0 67172253.38309047 -3695719.94214776 -3695719.94214776 4191081.387830557 0 0 0 0 0 70415343.87407525 -1591626.712630491 -1591626.712630491 3543597.810081652 0 0 0 0 0 71826813.94264302 -555210.1727338759 -555210.1727338759 3744956.171520032 0 0 0 0 0 73547396.39218786 -568954.6712682189 -568954.6712682189 3822628.073981504 0 0 0 0 0 74124901.59145179 -481266.9300065664 -481266.9300065664 3834646.99115805 0 0 0 0 0 165252805.5940277 -69426990.07701157 -69426990.07701157 29986352.18715053 0 0 0 0 0 156566858.8512844 -52739572.209862 -52739572.209862 27932986.31412839 0 0 0 0 0 146527850.0659194 -41040423.84993676 -41040423.84993676 22405115.71528433 0 0 0 0 0 137522485.4950142 -34314850.25811159 -34314850.25811159 15532136.58077077 0 0 0 0 0 132577964.1020796 -27454795.20942525 -27454795.20942525 9398858.782468552 0 0 0 0 0 128820224.0693838 -23073442.80248976 -23073442.80248976 2988228.283802859 0 0 0 0 0 125715019.0255976 -20482002.98231367 -20482002.98231367 -2663282.926822946 0 0 0 0 0 123249569.3764732 -18921250.18644268 -18921250.18644268 -7248755.917417572 0 0 0 0 0 122624644.2291929 -20405086.60690109 -20405086.60690109 -12270484.62009736 0 0 0 0 0 114610959.9246585 -21397848.2364084 -21397848.2364084 -13808479.74048748 0 0 0 0 0 112984016.284124 -20959751.74304267 -20959751.74304267 -16006803.60610175 0 0 0 0 0 112490488.5845648 -21973299.68092426 -21973299.68092426 -17681160.85370559 0 0 0 0 0 105700620.0959979 -23412968.53756668 -23412968.53756668 -18690520.25042475 0 0 0 0 0 69920760.33657427 -25827282.55719009 -25827282.55719009 -9466462.790825073 0 0 0 0 0 73923625.41176815 -26898934.43562596 -26898934.43562596 -11390009.38275168 0 0 0 0 0 78429953.32933378 -27562578.75695978 -27562578.75695978 -13244110.4279412 0 0 0 0 0 66462219.02114476 -24405383.17995764 -24405383.17995764 -7549651.299451736 0 0 0 0 0 83360665.57406709 -27774099.0002419 -27774099.0002419 -14945556.39860429 0 0 0 0 0 88678547.81429681 -27491622.33791922 -27491622.33791922 -16387183.19374363 0 0 0 0 0 63572471.6763856 -22698134.06719011 -22698134.06719011 -5704428.759375465 0 0 0 0 0 61255467.97763149 -20773628.70409881 -20773628.70409881 -3981938.384674168 0 0 0 0 0 59499048.92187294 -18699503.85339239 -18699503.85339239 -2419326.972694584 0 0 0 0 0 94198530.68547717 -26699895.05978129 -26699895.05978129 -17490453.64056678 0 0 0 0 0 99822784.75656456 -25437162.11032168 -25437162.11032168 -18173162.39970501 0 0 0 0 0 105438596.0574768 -23731971.91802908 -23731971.91802908 -18381078.80811549 0 0 0 0 0 58274845.7173638 -16539334.71853592 -16539334.71853592 -1035657.852476869 0 0 0 0 0 57542551.21138204 -14347997.03563129 -14347997.03563129 152035.2132200104 0 0 0 0 0 57258638.76295265 -12181898.66113853 -12181898.66113853 1150032.670711799 0 0 0 0 0 57365722.89923855 -10081584.49649409 -10081584.49649409 1983082.763080586 0 0 0 0 0 57814762.76055347 -8072792.599804311 -8072792.599804311 2637848.726087236 0 0 0 0 0 58467471.96820949 -6147905.322714704 -6147905.322714704 3017384.904098623 0 0 0 0 0 61120781.97692399 -6236879.432961122 -6236879.432961122 3755729.194927788 0 0 0 0 0 61962061.43537886 -4716296.739268125 -4716296.739268125 3469369.916035246 0 0 0 0 0 64312554.24240202 -4735172.464504934 -4735172.464504934 4053594.722147397 0 0 0 0 0 67757799.79909144 -3095890.028940981 -3095890.028940981 3414762.007869474 0 0 0 0 0 69127455.37032352 -2190601.081835535 -2190601.081835535 3564031.598866685 0 0 0 0 0 64685047.17438146 -3593950.349427079 -3593950.349427079 3507477.544007145 0 0 0 0 0 66839093.9676448 -3951223.300037571 -3951223.300037571 3391341.554029369 0 0 0 0 0 71512401.86632565 -2198502.502654447 -2198502.502654447 4279396.858983267 0 0 0 0 0 72624436.25216781 -1531995.484472021 -1531995.484472021 4208861.295039432 0 0 0 0 0 72974048.45373575 -1465894.534570824 -1465894.534570824 3497095.079429603 0 0 0 0 0 73952393.07719474 -627692.3690659179 -627692.3690659179 3464306.811775486 0 0 0 0 0 211882850.6211145 -75709182.42757855 -75709182.42757855 42210496.99381011 0 0 0 0 0 185817563.8973397 -56961341.14644653 -56961341.14644653 35017822.64811562 0 0 0 0 0 170197412.7011178 -45621056.37850647 -45621056.37850647 29825786.92357069 0 0 0 0 0 157563415.7060354 -37744941.75424639 -37744941.75424639 22619308.35452056 0 0 0 0 0 148888000.8656133 -30545188.11585038 -30545188.11585038 15332240.0372327 0 0 0 0 0 141704704.320381 -24786896.02648613 -24786896.02648613 7279389.386492425 0 0 0 0 0 136345664.5741645 -21109328.36487907 -21109328.36487907 468437.2147177057 0 0 0 0 0 132232398.526423 -18813981.05534997 -18813981.05534997 -4959516.595444882 0 0 0 0 0 128757474.6617862 -17467193.39037752 -17467193.39037752 -9181178.73667579 0 0 0 0 0 120912886.2170851 -18123003.21627451 -18123003.21627451 -10884473.72526092 0 0 0 0 0 120254078.5845027 -19707845.35688076 -19707845.35688076 -14731124.4102671 0 0 0 0 0 118075228.5376289 -19318321.98291618 -19318321.98291618 -16322718.00997623 0 0 0 0 0 111407751.0257204 -20657425.21068715 -20657425.21068715 -17362521.82971086 0 0 0 0 0 110907842.6952896 -21609637.26547177 -21609637.26547177 -18069507.56872089 0 0 0 0 0 67750076.77504994 -26334437.23432102 -26334437.23432102 -9757759.696490606 0 0 0 0 0 71003609.2656827 -27552412.7501627 -27552412.7501627 -11797867.56755431 0 0 0 0 0 74776352.12877223 -28371470.1362049 -28371470.1362049 -13760769.9545205 0 0 0 0 0 79029032.64264943 -28736132.53409045 -28736132.53409045 -15559636.44690385 0 0 0 0 0 65036133.96905438 -24781525.86039224 -24781525.86039224 -7717625.027663482 0 0 0 0 0 83696620.85913596 -28607366.86596221 -28607366.86596221 -17098269.41040997 0 0 0 0 0 88715405.73892602 -27943993.431071 -27943993.431071 -18295212.10304809 0 0 0 0 0 62863421.30183149 -22962873.85439034 -22962873.85439034 -5745881.952411968 0 0 0 0 0 61216822.50008702 -20948733.28117451 -20948733.28117451 -3897076.455481797 0 0 0 0 0 60067555.47156658 -18807346.43819769 -18807346.43819769 -2212505.898822031 0 0 0 0 0 93986142.07894367 -26773922.35215294 -26773922.35215294 -19052871.78654242 0 0 0 0 0 99318595.37548131 -25128056.24372065 -25128056.24372065 -19315777.03333926 0 0 0 0 0 104623940.8185762 -23009013.43708402 -23009013.43708402 -19015139.05404706 0 0 0 0 0 59379518.63480324 -16598038.88008269 -16598038.88008269 -715651.112031464 0 0 0 0 0 59106755.07105954 -14379480.67180752 -14379480.67180752 577188.0553364526 0 0 0 0 0 59192124.49379677 -12199362.75025526 -12199362.75025526 1663874.786550985 0 0 0 0 0 59591434.22323629 -10081813.59404397 -10081813.59404397 2563664.594628755 0 0 0 0 0 60217149.59140204 -8070738.636743173 -8070738.636743173 3258943.520069742 0 0 0 0 0 61051832.59711298 -6391250.961436227 -6391250.961436227 3088946.860504355 0 0 0 0 0 63433342.99242986 -6394679.214262804 -6394679.214262804 3716660.682583238 0 0 0 0 0 64074406.60804319 -4963702.521641766 -4963702.521641766 3413925.319749346 0 0 0 0 0 70714330.68623844 -3142236.291400648 -3142236.291400648 4265999.381598728 0 0 0 0 0 69237290.4797018 -3979116.008215733 -3979116.008215733 4055795.893733322 0 0 0 0 0 66175051.69171236 -4985809.237386009 -4985809.237386009 3934298.149962425 0 0 0 0 0 68240916.62350868 -5220898.313686668 -5220898.313686668 3827460.986368265 0 0 0 0 0 70529836.20170084 -2815699.663006863 -2815699.663006863 3341966.805625469 0 0 0 0 0 71863748.32924394 -1993525.204356072 -1993525.204356072 3463800.861780814 0 0 0 0 0 73910403.255983 -1918674.314312122 -1918674.314312122 4077714.507785417 0 0 0 0 0 74818359.01212676 -1380553.286344563 -1380553.286344563 4053554.171266623 0 0 0 0 0 188268526.7848227 -62992899.83067119 -62992899.83067119 24355489.79045565 0 0 0 0 0 170616347.9483877 -47781789.95518596 -47781789.95518596 23872041.90431943 0 0 0 0 0 160852550.9451169 -36700630.6465554 -36700630.6465554 22241023.07423988 0 0 0 0 0 149522814.4654774 -29425079.1609766 -29425079.1609766 17627056.92129321 0 0 0 0 0 142203895.5584305 -23960378.48696863 -23960378.48696863 11769881.36561133 0 0 0 0 0 136999464.6743756 -19702833.26073783 -19702833.26073783 6375557.229380933 0 0 0 0 0 132857829.3392034 -17006261.23496151 -17006261.23496151 1055027.640164824 0 0 0 0 0 129496338.5252518 -15447825.17938063 -15447825.17938063 -3641681.010931554 0 0 0 0 0 126604396.276452 -14649542.45929721 -14649542.45929721 -7528917.712418219 0 0 0 0 0 125806185.3183002 -16735592.59411211 -16735592.59411211 -12209280.8781738 0 0 0 0 0 118743367.5247818 -17775223.90119867 -17775223.90119867 -13599705.64881428 0 0 0 0 0 116741003.3246803 -17612766.3402094 -17612766.3402094 -15441219.9020893 0 0 0 0 0 116064709.1475563 -19087433.31610035 -19087433.31610035 -17196270.54847457 0 0 0 0 0 109846368.7054658 -20434413.97745902 -20434413.97745902 -18114246.95878016 0 0 0 0 0 71896834.34037842 -24715460.78571866 -24715460.78571866 -8578266.619113514 0 0 0 0 0 75555508.37057891 -25756127.48823541 -25756127.48823541 -10414336.64735269 0 0 0 0 0 79669254.23642367 -26428927.90472103 -26428927.90472103 -12217224.29725929 0 0 0 0 0 84180641.79622757 -26687722.91817361 -26687722.91817361 -13914512.53151806 0 0 0 0 0 68728737.9329146 -23362555.17320432 -23362555.17320432 -6773269.801149004 0 0 0 0 0 89008836.84641774 -26503655.51241394 -26503655.51241394 -15429059.088235 0 0 0 0 0 94107255.16934215 -25844871.74417141 -25844871.74417141 -16663203.43762266 0 0 0 0 0 66071728.94883981 -21756665.51461944 -21756665.51461944 -5051942.582072519 0 0 0 0 0 63928132.86131465 -19960071.90971232 -19960071.90971232 -3455184.376283017 0 0 0 0 0 62286005.6291583 -18032199.10617623 -18032199.10617623 -2009880.345866285 0 0 0 0 0 99314125.24418031 -24715143.53955444 -24715143.53955444 -17566686.61925561 0 0 0 0 0 104480391.3177735 -23155481.32441469 -23155481.32441469 -18050910.05015101 0 0 0 0 0 109481600.6927361 -21194615.63762934 -21194615.63762934 -18061406.56389207 0 0 0 0 0 61119884.79820105 -16027762.05518681 -16027762.05518681 -734335.9328410965 0 0 0 0 0 60394415.79677754 -13999666.91493374 -13999666.91493374 364978.0065747741 0 0 0 0 0 60069761.83649804 -11988630.85609697 -11988630.85609697 1293068.461166342 0 0 0 0 0 60096339.42422275 -10026041.32779904 -10026041.32779904 2042081.413535912 0 0 0 0 0 60429217.46783567 -8138606.937430493 -8138606.937430493 2610162.011955911 0 0 0 0 0 62642084.17976027 -8151977.41373541 -8151977.41373541 3194482.647826021 0 0 0 0 0 63379789.23781195 -6542985.897904962 -6542985.897904962 3098139.837018258 0 0 0 0 0 65454271.50689966 -6509893.491602422 -6509893.491602422 3620581.067914893 0 0 0 0 0 69635277.45051849 -3790190.867402884 -3790190.867402884 3266744.443097643 0 0 0 0 0 68561544.21664473 -4488387.95748059 -4488387.95748059 3173372.238884848 0 0 0 0 0 66072919.77304277 -5147800.532182033 -5147800.532182033 3236231.945375144 0 0 0 0 0 67965008.92421427 -5416168.589428191 -5416168.589428191 3222899.218946031 0 0 0 0 0 72054199.15294755 -3744970.508808726 -3744970.508808726 3993770.120651055 0 0 0 0 0 73026508.15919682 -2708924.194179118 -2708924.194179118 4097398.913133943 0 0 0 0 0 73010975.03377108 -2509709.164856631 -2509709.164856631 3307266.781271456 0 0 0 0 0 74114137.18578197 -1793534.126782243 -1793534.126782243 3385143.752055501 0 0 0 0 0 234459018.7503066 -68515978.61847506 -68515978.61847506 34178600.73807456 0 0 0 0 0 205343355.0297602 -52069773.63913195 -52069773.63913195 33296861.8874991 0 0 0 0 0 184181946.4310126 -40577220.01809821 -40577220.01809821 29576031.71093646 0 0 0 0 0 168823739.9639783 -33517263.85981965 -33517263.85981965 24803034.08479983 0 0 0 0 0 157902113.4968109 -26706673.45155937 -26706673.45155937 17354239.13550897 0 0 0 0 0 149521576.1983806 -21732476.75429986 -21732476.75429986 10745320.15500835 0 0 0 0 0 143097998.7055768 -18098319.50248625 -18098319.50248625 4316349.608385568 0 0 0 0 0 138090452.8152407 -15759022.128025 -15759022.128025 -1231938.256383188 0 0 0 0 0 134044105.1808804 -14391360.31724979 -14391360.31724979 -5732442.71285147 0 0 0 0 0 130611541.525787 -13670702.78363393 -13670702.78363393 -9249884.032585999 0 0 0 0 0 123970298.7140928 -14350596.43983189 -14350596.43983189 -10638963.16269785 0 0 0 0 0 123173711.9497366 -16422841.58721628 -16422841.58721628 -14361290.93364006 0 0 0 0 0 120788703.0418334 -16311158.02235388 -16311158.02235388 -15739450.74240124 0 0 0 0 0 114824777.0886788 -17572889.35983605 -17572889.35983605 -16651387.2803174 0 0 0 0 0 114213720.0404948 -18885311.73922257 -18885311.73922257 -17564734.75930206 0 0 0 0 0 72834234.41350369 -26264827.33732818 -26264827.33732818 -10848736.09445958 0 0 0 0 0 69857949.0849434 -25096586.1782864 -25096586.1782864 -8903279.655794133 0 0 0 0 0 76278399.04219769 -27077796.22031309 -27077796.22031309 -12751289.73148164 0 0 0 0 0 80158320.37174487 -27482972.0164839 -27482972.0164839 -14536112.14507914 0 0 0 0 0 84421098.8966703 -27440421.81075888 -27440421.81075888 -16131678.93893988 0 0 0 0 0 67367119.98791303 -23632410.26589694 -23632410.26589694 -6982033.599716052 0 0 0 0 0 88997770.48776008 -26922788.2537594 -26922788.2537594 -17434540.10836854 0 0 0 0 0 93816006.84645674 -25904051.36990578 -25904051.36990578 -18374178.63699549 0 0 0 0 0 65360089.20733785 -21934421.29302144 -21934421.29302144 -5141178.042563751 0 0 0 0 0 63821919.891206 -20064835.07771558 -20064835.07771558 -3426046.644938565 0 0 0 0 0 62728074.05170574 -18082138.32523769 -18082138.32523769 -1867464.565767474 0 0 0 0 0 98789576.50955918 -24413144.19863904 -24413144.19863904 -18866020.81987565 0 0 0 0 0 103719952.5817434 -22487632.68684906 -22487632.68684906 -18874422.93445292 0 0 0 0 0 108501652.3825748 -20182421.77982285 -20182421.77982285 -18370636.94133236 0 0 0 0 0 62049810.90935845 -16042257.73997552 -16042257.73997552 -483873.8104245323 0 0 0 0 0 61740383.52776053 -13992701.36102557 -13992701.36102557 712367.6615859771 0 0 0 0 0 61768631.2551581 -11970044.50377151 -11970044.50377151 1726242.140976729 0 0 0 0 0 62086448.42608633 -10010180.35868888 -10010180.35868888 2552470.991559758 0 0 0 0 0 62865427.64240193 -8195013.679706087 -8195013.679706087 2645220.463689625 0 0 0 0 0 64813727.01236156 -8164997.03547768 -8164997.03547768 3136493.876812228 0 0 0 0 0 65513219.5845327 -6619402.975200283 -6619402.975200283 3011770.709411782 0 0 0 0 0 71031623.96680434 -4413440.712198008 -4413440.712198008 3916420.162821228 0 0 0 0 0 69914917.83627197 -5414635.475812633 -5414635.475812633 3739954.587711866 0 0 0 0 0 67411832.8184921 -6596902.259144446 -6596902.259144446 3494639.153133105 0 0 0 0 0 69235145.4593581 -6651147.300986477 -6651147.300986477 3385126.831147103 0 0 0 0 0 71353883.59741196 -4148378.376195856 -4148378.376195856 3206034.016291552 0 0 0 0 0 72142424.83792648 -3261954.379343611 -3261954.379343611 3270842.337765638 0 0 0 0 0 74245454.28556553 -3219445.717940599 -3219445.717940599 3903039.275515296 0 0 0 0 0 75169298.62227294 -2441962.658320705 -2441962.658320705 3958710.110461306 0 0 0 0 0 212618192.3321249 -58507483.95536216 -58507483.95536216 17815145.6373801 0 0 0 0 0 186324034.0062344 -37616919.31561267 -37616919.31561267 23615718.36152248 0 0 0 0 0 171211125.0094271 -30099963.07564778 -30099963.07564778 23300566.839481 0 0 0 0 0 159597375.6271719 -23752824.25109575 -23752824.25109575 19882581.06486395 0 0 0 0 0 150660311.7075596 -19149295.29373018 -19149295.29373018 14987377.38313399 0 0 0 0 0 144024065.4655709 -15771425.92150641 -15771425.92150641 9809784.642647823 0 0 0 0 0 138950546.5206017 -13343396.65482372 -13343396.65482372 4852745.976052346 0 0 0 0 0 134894516.6427603 -11870335.58011606 -11870335.58011606 199164.092055669 0 0 0 0 0 131496289.7806145 -11127399.9444797 -11127399.9444797 -3882041.014270149 0 0 0 0 0 128519588.9143204 -10890464.69237843 -10890464.69237843 -7289427.963420539 0 0 0 0 0 127641875.7745584 -13399601.63577939 -13399601.63577939 -11871913.9423111 0 0 0 0 0 121613969.6154036 -14330024.90210432 -14330024.90210432 -12940881.07488023 0 0 0 0 0 119383163.463432 -14474470.71068412 -14474470.71068412 -14624909.06096002 0 0 0 0 0 118605969.9151358 -16282208.40225103 -16282208.40225103 -16545930.10663485 0 0 0 0 0 113065577.8158949 -17549155.88651613 -17549155.88651613 -17328277.40819249 0 0 0 0 0 77011291.20405653 -24607276.7550007 -24607276.7550007 -9534560.811135868 0 0 0 0 0 73669552.03943075 -23604157.05938539 -23604157.05938539 -7796555.322439786 0 0 0 0 0 80763824.40133604 -25282449.42338909 -25282449.42338909 -11265526.09818853 0 0 0 0 0 84881460.58377135 -25583443.33807432 -25583443.33807432 -12926217.03953722 0 0 0 0 0 89315456.97064558 -25472939.60436413 -25472939.60436413 -14445764.44354893 0 0 0 0 0 70769581.75646077 -22323159.65036773 -22323159.65036773 -6105363.536302495 0 0 0 0 0 93947660.80719022 -24939978.94169984 -24939978.94169984 -15761043.30684724 0 0 0 0 0 98714143.76724643 -23969102.48263049 -23969102.48263049 -16785202.88217146 0 0 0 0 0 68327856.43939438 -20818844.92982747 -20818844.92982747 -4502912.789549504 0 0 0 0 0 66347739.8491267 -19145127.01562149 -19145127.01562149 -3020519.148500863 0 0 0 0 0 64816468.64724517 -17354737.90021785 -17354737.90021785 -1681906.026010457 0 0 0 0 0 103462747.4524685 -22577366.62642778 -22577366.62642778 -17477955.42690235 0 0 0 0 0 108092030.4666131 -20804708.85273708 -20804708.85273708 -17749651.6318518 0 0 0 0 0 112510014.4401647 -18692325.84505037 -18692325.84505037 -17562114.28639274 0 0 0 0 0 63705154.39015938 -15499236.63010442 -15499236.63010442 -501880.8426623291 0 0 0 0 0 62996491.21787833 -13620223.30707084 -13620223.30707084 518196.5271803567 0 0 0 0 0 62641403.2802299 -11756237.33823078 -11756237.33823078 1372728.257951237 0 0 0 0 0 62611911.66177065 -9939291.062013937 -9939291.062013937 2070394.581763733 0 0 0 0 0 64357010.83150555 -9907646.018748173 -9907646.018748173 2508257.908513623 0 0 0 0 0 65101589.56379292 -8179827.944608069 -8179827.944608069 2618435.540337212 0 0 0 0 0 66840304.86475044 -8133582.208026374 -8133582.208026374 3046315.126847514 0 0 0 0 0 70496545.77866407 -5453444.341550861 -5453444.341550861 3314194.259829211 0 0 0 0 0 69833870.21604323 -5499190.875781535 -5499190.875781535 3254086.448674801 0 0 0 0 0 67494222.87337175 -6683187.478594951 -6683187.478594951 2950831.488174812 0 0 0 0 0 69303364.50025873 -6719588.331419563 -6719588.331419563 2901966.401287472 0 0 0 0 0 73432179.99486776 -4093740.175818519 -4093740.175818519 3784585.282150232 0 0 0 0 0 72590185.74739049 -5349527.195224353 -5349527.195224353 3381982.677554552 0 0 0 0 0 73513907.77619115 -3686907.343227569 -3686907.343227569 3144577.643743005 0 0 0 0 0 74330960.02080642 -2954728.87037711 -2954728.87037711 3197322.922432545 0 0 0 0 0 263370254.552075 -59942653.89798655 -59942653.89798655 28630035.61889959 0 0 0 0 0 221997763.7020339 -38769154.53125755 -38769154.53125755 27313475.5041072 0 0 0 0 0 191626359.0201337 -34461911.55369797 -34461911.55369797 30314394.25583803 0 0 0 0 0 204956859.1130216 -40086258.55920748 -40086258.55920748 29785298.91911494 0 0 0 0 0 176007870.3308735 -27813078.36320943 -27813078.36320943 26270521.52999414 0 0 0 0 0 164235439.0198886 -22158779.05349935 -22158779.05349935 20159248.22217496 0 0 0 0 0 155293470.3824432 -17849205.59848589 -17849205.59848589 13876621.59777914 0 0 0 0 0 148326244.8379686 -14721589.71781803 -14721589.71781803 8046287.238880666 0 0 0 0 0 142788677.205841 -12545948.27846956 -12545948.27846956 2625399.464641346 0 0 0 0 0 138306493.8702836 -11221931.97760979 -11221931.97760979 -2055396.166639338 0 0 0 0 0 134556830.3838188 -10545523.68258112 -10545523.68258112 -5903741.844689938 0 0 0 0 0 131325225.0035586 -10316677.23428611 -10316677.23428611 -8953739.599224214 0 0 0 0 0 125850796.8785881 -10983539.5943828 -10983539.5943828 -10019666.73222394 0 0 0 0 0 124959175.9809839 -13374266.02861394 -13374266.02861394 -13741579.87365077 0 0 0 0 0 122536640.3085994 -13489436.06554727 -13489436.06554727 -14986351.24257791 0 0 0 0 0 117333627.4161901 -14667487.94913546 -14667487.94913546 -15740597.08139063 0 0 0 0 0 116607692.2813742 -16280823.93728734 -16280823.93728734 -16894844.33613988 0 0 0 0 0 77632255.61217698 -25801387.10737537 -25801387.10737537 -11801686.64512424 0 0 0 0 0 74489114.4916776 -25002368.95107745 -25002368.95107745 -9978291.169792015 0 0 0 0 0 71767172.50740834 -23888288.24222333 -23888288.24222333 -8138366.82354865 0 0 0 0 0 81168177.85655999 -26236029.05697634 -26236029.05697634 -13542028.0683808 0 0 0 0 0 85055548.63919236 -26266925.69618212 -26266925.69618212 -15135232.85460369 0 0 0 0 0 89256450.2071614 -25863560.75660835 -25863560.75660835 -16514664.36546751 0 0 0 0 0 69482763.46513826 -22512592.6168859 -22512592.6168859 -6338130.70661108 0 0 0 0 0 93666486.78127278 -25009019.60766326 -25009019.60766326 -17566688.42337687 0 0 0 0 0 98199338.33065383 -23713766.89828409 -23713766.89828409 -18245972.57900054 0 0 0 0 0 67626189.28590886 -20930720.27505432 -20930720.27505432 -4625372.066431288 0 0 0 0 0 66184644.17437683 -19196956.14619226 -19196956.14619226 -3034962.348994727 0 0 0 0 0 65145881.67226244 -17362998.18360535 -17362998.18360535 -1591580.829963674 0 0 0 0 0 102748213.5546508 -21998377.24530436 -21998377.24530436 -18494840.01648788 0 0 0 0 0 107195944.9642666 -19910671.83120131 -19910671.83120131 -18285350.25687354 0 0 0 0 0 111448173.2788221 -17497626.34366996 -17497626.34366996 -17586223.92638475 0 0 0 0 0 64480718.49717578 -15480595.22511521 -15480595.22511521 -309513.0920382098 0 0 0 0 0 64156759.13362491 -13584647.91554478 -13584647.91554478 801284.7755154705 0 0 0 0 0 64132736.38529419 -11716995.86259621 -11716995.86259621 1740209.989536305 0 0 0 0 0 64925675.45730495 -9810932.688053606 -9810932.688053606 2086184.782747326 0 0 0 0 0 66455057.09168006 -9757004.50168764 -9757004.50168764 2454392.921901541 0 0 0 0 0 67163601.20557198 -8128008.850366272 -8128008.850366272 2565993.554250996 0 0 0 0 0 71391924.56686644 -5438224.503941404 -5438224.503941404 3182877.284825 0 0 0 0 0 70704491.75702247 -6653926.19758362 -6653926.19758362 3214997.093388266 0 0 0 0 0 68705838.50181733 -8074956.12075568 -8074956.12075568 2938694.743797491 0 0 0 0 0 70395420.38010272 -7966492.183582376 -7966492.183582376 2822302.599991457 0 0 0 0 0 72819774.37361017 -4453685.553130245 -4453685.553130245 3046266.621700312 0 0 0 0 0 72670245.21021581 -5460250.683969117 -5460250.683969117 2923567.747921394 0 0 0 0 0 75467140.21090117 -3654956.023579584 -3654956.023579584 3728391.685331914 0 0 0 0 0 74745599.45860557 -4440231.511699517 -4440231.511699517 3599602.160828016 0 0 0 0 0 229324553.724858 -46501233.36826702 -46501233.36826702 12750460.24451038 0 0 0 0 0 206763216.9563347 -35695943.57200473 -35695943.57200473 21730221.32317548 0 0 0 0 0 178092801.8192785 -22630978.4520869 -22630978.4520869 23939055.12604951 0 0 0 0 0 194057213.8211646 -24593393.47734034 -24593393.47734034 24261653.23655896 0 0 0 0 0 166447589.1411254 -17908090.57919014 -17908090.57919014 22333902.63173151 0 0 0 0 0 156782188.0897653 -14235197.80272665 -14235197.80272665 18343184.55121543 0 0 0 0 0 149543041.8328233 -11487025.03121006 -11487025.03121006 13597794.09286885 0 0 0 0 0 143828871.6667404 -9545553.841150275 -9545553.841150275 8780367.217224665 0 0 0 0 0 139286068.0779523 -8281500.351211715 -8281500.351211715 4204201.432192614 0 0 0 0 0 135517293.3289247 -7645738.906846975 -7645738.906846975 11685.78883492057 0 0 0 0 0 132274424.9539086 -7490799.304936606 -7490799.304936606 -3648432.04364445 0 0 0 0 0 129402628.4510966 -7671243.243917529 -7671243.243917529 -6717944.945036597 0 0 0 0 0 128469351.5206024 -10382950.17336391 -10382950.17336391 -11265924.23650518 0 0 0 0 0 123407837.7410621 -11261852.01169303 -11261852.01169303 -12109869.0566455 0 0 0 0 0 121147702.6731503 -11629912.1749128 -11629912.1749128 -13646311.23913324 0 0 0 0 0 120301685.0548222 -13667784.14916337 -13667784.14916337 -15750571.42454781 0 0 0 0 0 115429578.1089273 -14847616.13145658 -14847616.13145658 -16389423.51807496 0 0 0 0 0 81743978.73832814 -24144300.94143533 -24144300.94143533 -10388933.07726583 0 0 0 0 0 78321840.59722482 -23475388.47952352 -23475388.47952352 -8742163.004444126 0 0 0 0 0 75269984.50403027 -22513505.58609334 -22513505.58609334 -7106239.046762103 0 0 0 0 0 85491560.78385326 -24480113.85655664 -24480113.85655664 -11994304.43145525 0 0 0 0 0 89526550.80882238 -24448950.90300126 -24448950.90300126 -13497365.42973065 0 0 0 0 0 93808368.8100525 -24021649.1618049 -24021649.1618049 -14837709.61844963 0 0 0 0 0 72616017.61343308 -21304865.69957883 -21304865.69957883 -5526272.426437943 0 0 0 0 0 98176613.4233703 -23177952.76596754 -23177952.76596754 -15940702.41845204 0 0 0 0 0 102521868.1044839 -21971650.89349778 -21971650.89349778 -16765440.10353665 0 0 0 0 0 70375657.40768571 -19898043.21767768 -19898043.21767768 -4033993.473673635 0 0 0 0 0 68545985.26988497 -18338985.54435968 -18338985.54435968 -2655235.341622356 0 0 0 0 0 67116445.35204253 -16677791.60522791 -16677791.60522791 -1414426.46961918 0 0 0 0 0 106796686.4940823 -20386653.61328856 -20386653.61328856 -17236376.23970892 0 0 0 0 0 110906239.2113087 -18482172.82617392 -18482172.82617392 -17304561.32013624 0 0 0 0 0 114767230.0563663 -16270586.74844285 -16270586.74844285 -16920146.38911125 0 0 0 0 0 66061181.76115828 -14960750.08312517 -14960750.08312517 -321619.2763012255 0 0 0 0 0 65366983.61305304 -13221672.55424131 -13221672.55424131 622343.2119536994 0 0 0 0 0 64999202.68885089 -11498082.23166681 -11498082.23166681 1419162.357792354 0 0 0 0 0 66291033.40474532 -11442583.95066038 -11442583.95066038 1724502.770569422 0 0 0 0 0 67051623.11338326 -9642233.641201906 -9642233.641201906 2072406.172060709 0 0 0 0 0 68393620.52473873 -9577895.960560912 -9577895.960560912 2382254.564816511 0 0 0 0 0 72220237.04402938 -6630151.87537626 -6630151.87537626 3039840.002314582 0 0 0 0 0 70999623.50552738 -6657428.231625031 -6657428.231625031 2733637.277373129 0 0 0 0 0 69053564.05658342 -8049387.770223859 -8049387.770223859 2516601.796195567 0 0 0 0 0 70808180.18583158 -7918294.098956621 -7918294.098956621 2411222.700431821 0 0 0 0 0 74131243.71940587 -5405379.542173589 -5405379.542173589 3249189.725958633 0 0 0 0 0 73673465.97444713 -6539335.063991637 -6539335.063991637 2947492.61237341 0 0 0 0 0 74791818.11074391 -4081148.897410993 -4081148.897410993 2962455.8889027 0 0 0 0 0 74160405.45582733 -4795091.074348955 -4795091.074348955 2890027.719158434 0 0 0 0 0 282692101.0384101 -44714688.46205103 -44714688.46205103 22882742.91286327 0 0 0 0 0 240491527.4721248 -34270196.82865145 -34270196.82865145 26281844.49271251 0 0 0 0 0 215738290.5443463 -26874930.89049017 -26874930.89049017 30689358.35743213 0 0 0 0 0 178848051.919715 -21572158.88525417 -21572158.88525417 27568406.53109601 0 0 0 0 0 190365376.6828341 -24919529.34444505 -24919529.34444505 28359596.8415433 0 0 0 0 0 167705117.2338997 -17376982.41540907 -17376982.41540907 22893101.74682457 0 0 0 0 0 158827381.9000315 -13786067.08536445 -13786067.08536445 17264769.27084847 0 0 0 0 0 151806711.3383191 -11135630.9877281 -11135630.9877281 11723268.77703167 0 0 0 0 0 146125462.2839717 -9266194.163226616 -9266194.163226616 6522693.363381205 0 0 0 0 0 141461927.619758 -8073202.346822654 -8073202.346822654 1794723.152958369 0 0 0 0 0 137555620.1641766 -7459486.381489198 -7459486.381489198 -2287652.007940134 0 0 0 0 0 134200174.8296958 -7284194.881191208 -7284194.881191208 -5675713.565792424 0 0 0 0 0 131246554.7384643 -7416699.12398716 -7416699.12398716 -8389565.835909087 0 0 0 0 0 126802640.05619 -8061836.65544522 -8061836.65544522 -9198210.400098931 0 0 0 0 0 125884495.0163233 -10614913.14276942 -10614913.14276942 -12952567.70129784 0 0 0 0 0 123502906.8075887 -10949172.33868739 -10949172.33868739 -14141463.08338674 0 0 0 0 0 119049380.9596038 -12005546.28052459 -12005546.28052459 -14685637.07106508 0 0 0 0 0 118269599.7094931 -13840801.028793 -13840801.028793 -16100939.7537094 0 0 0 0 0 78863167.85928942 -24560008.0883802 -24560008.0883802 -10915501.37732599 0 0 0 0 0 82089541.15066922 -25014951.19355049 -25014951.19355049 -12592583.96692127 0 0 0 0 0 75992654.99446809 -23781107.27612289 -23781107.27612289 -9183467.680209452 0 0 0 0 0 73502688.78106777 -22722353.43417577 -22722353.43417577 -7453069.836839023 0 0 0 0 0 85631133.57833135 -25110691.79221399 -25110691.79221399 -14155727.43168592 0 0 0 0 0 89441778.70624153 -24815325.97388841 -24815325.97388841 -15543741.03069637 0 0 0 0 0 93489648.45390789 -24093540.04428649 -24093540.04428649 -16681678.51219298 0 0 0 0 0 71400304.97981164 -21432856.06177131 -21432856.06177131 -5773225.012285519 0 0 0 0 0 97691681.97033913 -22973550.86103348 -22973550.86103348 -17487277.04595098 0 0 0 0 0 101846423.7923779 -21467713.84822256 -21467713.84822256 -17923197.80887401 0 0 0 0 0 69678985.52748384 -19960840.34660882 -19960840.34660882 -4181416.532964322 0 0 0 0 0 68331093.71060319 -18352483.07761695 -18352483.07761695 -2703787.310136366 0 0 0 0 0 67349086.77521656 -16657215.86784231 -16657215.86784231 -1365721.547159014 0 0 0 0 0 105971019.3753103 -19610869.53949011 -19610869.53949011 -17952687.70570472 0 0 0 0 0 109937573.0676318 -17424120.29584892 -17424120.29584892 -17548265.6991239 0 0 0 0 0 113684968.638627 -14984293.29493621 -14984293.29493621 -16684815.56568181 0 0 0 0 0 66706748.75494099 -14916251.97407627 -14916251.97407627 -178599.015909847 0 0 0 0 0 66368942.83505262 -13167736.56493595 -13167736.56493595 852873.743654196 0 0 0 0 0 67163179.01789904 -11214544.38643977 -11214544.38643977 1447711.663771225 0 0 0 0 0 68276648.68468586 -11144213.05447298 -11144213.05447298 1696863.529175997 0 0 0 0 0 68984263.34211859 -9457790.832488216 -9457790.832488216 2031796.605360802 0 0 0 0 0 72593897.64261782 -6620214.172435916 -6620214.172435916 2743525.20518933 0 0 0 0 0 72009399.19509996 -7845994.123411905 -7845994.123411905 2685278.018279483 0 0 0 0 0 70181382.26276878 -9378895.727902947 -9378895.727902947 2299240.537791824 0 0 0 0 0 71820224.62983355 -9164926.688973511 -9164926.688973511 2195862.211359216 0 0 0 0 0 73868046.20039408 -5617722.394008841 -5617722.394008841 2736195.80540936 0 0 0 0 0 74021433.65355289 -6538030.83667098 -6538030.83667098 2597239.530988587 0 0 0 0 0 76007173.05971332 -4770154.782452948 -4770154.782452948 3440087.326566594 0 0 0 0 0 75601491.75385551 -5580731.451435036 -5580731.451435036 3217007.784361667 0 0 0 0 0 241929140.3689305 -32043986.76364888 -32043986.76364888 6520040.293299832 0 0 0 0 0 215034674.6612599 -26952630.85955069 -26952630.85955069 18595701.11776793 0 0 0 0 0 195695599.1861834 -19720863.94814282 -19720863.94814282 26532822.60472681 0 0 0 0 0 169483041.4058897 -12468609.98683259 -12468609.98683259 24755462.60266379 0 0 0 0 0 183488135.5693451 -13925012.94486769 -13925012.94486769 27458576.09721886 0 0 0 0 0 160441775.813197 -9632783.070054157 -9632783.070054157 21495226.14319206 0 0 0 0 0 153152970.1309218 -7433390.817481003 -7433390.817481003 17391927.22971375 0 0 0 0 0 147282784.7785711 -5860796.150856768 -5860796.150856768 12816466.63793293 0 0 0 0 0 142514418.4837929 -4848651.214505933 -4848651.214505933 8289174.599893639 0 0 0 0 0 138559950.539437 -4334879.152135558 -4334879.152135558 4042918.30304696 0 0 0 0 0 135178996.2436818 -4251897.048105516 -4251897.048105516 203722.231926312 0 0 0 0 0 132206423.1231001 -4495762.87078901 -4495762.87078901 -3141707.25112061 0 0 0 0 0 129533537.7427514 -4963144.493438447 -4963144.493438447 -5959137.136339367 0 0 0 0 0 128585156.6275604 -7749267.283155161 -7749267.283155161 -10496289.44271401 0 0 0 0 0 124412847.7496039 -8560152.257240904 -8560152.257240904 -11127485.69989531 0 0 0 0 0 122203951.3887228 -9108512.088784864 -9108512.088784864 -12567950.68870542 0 0 0 0 0 121333798.4464421 -11285654.50146951 -11285654.50146951 -14851639.62962976 0 0 0 0 0 117105486.8185804 -12364427.72378335 -12364427.72378335 -15358265.251352 0 0 0 0 0 82635359.79146241 -23032881.61939939 -23032881.61939939 -9586327.413349627 0 0 0 0 0 86058058.41900736 -23392233.64896104 -23392233.64896104 -11122014.78330977 0 0 0 0 0 79510773.13920878 -22375084.35052658 -22375084.35052658 -8029159.444626271 0 0 0 0 0 76722194.09036259 -21456161.15069578 -21456161.15069578 -6495153.350443912 0 0 0 0 0 89733341.68385343 -23422091.59324445 -23422091.59324445 -12584224.38582573 0 0 0 0 0 93609809.93185288 -23096231.85169582 -23096231.85169582 -13915558.26930352 0 0 0 0 0 97640614.62209722 -22399622.9160463 -22399622.9160463 -15058883.31982378 0 0 0 0 0 74292703.65194191 -20318165.67011549 -20318165.67011549 -5020172.722486597 0 0 0 0 0 101671913.0954382 -21333765.79777978 -21333765.79777978 -15983639.6375524 0 0 0 0 0 105616733.718918 -19933282.89771626 -19933282.89771626 -16579774.21970761 0 0 0 0 0 72231677.20117941 -19002609.6233496 -19002609.6233496 -3631155.859999007 0 0 0 0 0 70532492.04168884 -17553117.52011108 -17553117.52011108 -2352073.562427609 0 0 0 0 0 69194505.39645159 -16013880.34393251 -16013880.34393251 -1200350.480000388 0 0 0 0 0 109428048.0118267 -18230161.78427352 -18230161.78427352 -16847223.79571291 0 0 0 0 0 113056263.5658289 -16224802.28659427 -16224802.28659427 -16709005.93832117 0 0 0 0 0 116383342.3240691 -13988204.98773684 -13988204.98773684 -16173132.76654657 0 0 0 0 0 68207248.75234488 -14422028.52274101 -14422028.52274101 -185032.3738180154 0 0 0 0 0 67533443.32116428 -12815416.12468038 -12815416.12468038 693408.5997546448 0 0 0 0 0 68391494.76660368 -12745662.39820849 -12745662.39820849 877369.5203359168 0 0 0 0 0 69132714.77761188 -10915841.75015967 -10915841.75015967 1444485.948937182 0 0 0 0 0 70128108.48806226 -10830104.17215451 -10830104.17215451 1657697.987233127 0 0 0 0 0 73458748.35215046 -7730241.327868313 -7730241.327868313 2554306.525960303 0 0 0 0 0 72454872.10100089 -7775964.689099423 -7775964.689099423 2331147.003058994 0 0 0 0 0 70774331.2288744 -9253291.164032394 -9253291.164032394 1969441.680066115 0 0 0 0 0 72462014.39350653 -9021393.08949901 -9021393.08949901 1917000.03540004 0 0 0 0 0 74906417.23969583 -6423921.928262587 -6423921.928262587 2710450.795347828 0 0 0 0 0 74848846.66472828 -7577923.893051364 -7577923.893051364 2480540.086644909 0 0 0 0 0 75368003.62210017 -5169670.389421274 -5169670.389421274 2649108.709643374 0 0 0 0 0 74885075.14524364 -6000210.34213265 -6000210.34213265 2442334.880647324 0 0 0 0 0 290489602.5850504 -29356946.35673895 -29356946.35673895 15925051.841755 0 0 0 0 0 251349724.1042631 -24990928.39472189 -24990928.39472189 26390011.47569316 0 0 0 0 0 222754071.8485026 -19895105.26930637 -19895105.26930637 31499481.60301246 0 0 0 0 0 199808017.9421844 -14990053.02205726 -14990053.02205726 31035978.61710098 0 0 0 0 0 178638714.966624 -14786735.03137587 -14786735.03137587 28220356.54165456 0 0 0 0 0 168600094.6980093 -12673198.30535977 -12673198.30535977 25210968.1295772 0 0 0 0 0 180156798.1849408 -14409283.73254436 -14409283.73254436 28165334.02799505 0 0 0 0 0 160261169.5928643 -9888471.935360149 -9888471.935360149 20565485.44621674 0 0 0 0 0 153585245.4744888 -7699964.431834525 -7699964.431834525 15452674.40279619 0 0 0 0 0 148069949.9273222 -6107118.734272646 -6107118.734272646 10419622.71219616 0 0 0 0 0 143471804.8945359 -5074853.598079707 -5074853.598079707 5725706.317584927 0 0 0 0 0 139581617.046974 -4534540.656734609 -4534540.656734609 1506093.305378141 0 0 0 0 0 136230966.5731803 -4401194.885449249 -4401194.885449249 -2142218.817617615 0 0 0 0 0 133283565.3651544 -4574380.698665351 -4574380.698665351 -5191181.30371836 0 0 0 0 0 130634736.7149629 -4961576.469214788 -4961576.469214788 -7667849.65930939 0 0 0 0 0 127089020.082216 -5565832.315848228 -5565832.315848228 -8259894.149892971 0 0 0 0 0 126159355.894714 -8185474.113905535 -8185474.113905535 -12066880.21488229 0 0 0 0 0 123921176.4231011 -8655943.405965654 -8655943.405965654 -13162167.47639814 0 0 0 0 0 120124327.651656 -9652055.542413173 -9652055.542413173 -13618121.37335671 0 0 0 0 0 119335025.5340987 -11601984.47507998 -11601984.47507998 -15227073.64855918 0 0 0 0 0 79988897.28038429 -23365082.36032106 -23365082.36032106 -10096979.21299456 0 0 0 0 0 82934700.44692799 -23831431.08889828 -23831431.08889828 -11699282.54870909 0 0 0 0 0 86169313.75745364 -23975453.48083289 -23975453.48083289 -13215081.37897756 0 0 0 0 0 77365621.40059116 -22609875.50641592 -22609875.50641592 -8460811.362433381 0 0 0 0 0 75083201.98281977 -21606969.10831956 -21606969.10831956 -6839850.036847758 0 0 0 0 0 89650844.51181582 -23768338.55101138 -23768338.55101138 -14585602.65390147 0 0 0 0 0 93332809.12761799 -23196321.28658424 -23196321.28658424 -15768495.39235299 0 0 0 0 0 97163964.58956724 -22225110.26191352 -22225110.26191352 -16656595.1204296 0 0 0 0 0 73145066.77335106 -20399375.5074903 -20399375.5074903 -5274498.491915875 0 0 0 0 0 101043114.0570052 -20900012.92568405 -20900012.92568405 -17228988.62960352 0 0 0 0 0 104846940.0196158 -19262132.13113791 -19262132.13113791 -17451381.64729334 0 0 0 0 0 71555544.7853594 -19028845.82320404 -19028845.82320404 -3793120.031268699 0 0 0 0 0 70306881.83501264 -17536272.93191088 -17536272.93191088 -2420090.850415253 0 0 0 0 0 69374177.40677412 -15968845.75008155 -15968845.75008155 -1178596.874288097 0 0 0 0 0 108535964.9272427 -17307203.95660136 -17307203.95660136 -17292185.64576659 0 0 0 0 0 112068485.1886722 -15079100.03335732 -15079100.03335732 -16703207.35893016 0 0 0 0 0 115322414.5325257 -12662360.09199478 -12662360.09199478 -15692830.67670801 0 0 0 0 0 68750130.69641899 -14360031.21338281 -14360031.21338281 -78987.28968408784 0 0 0 0 0 69520703.74630588 -12401607.77709463 -12401607.77709463 741551.9959504089 0 0 0 0 0 70261833.54540819 -12320070.78434097 -12320070.78434097 888812.2639842436 0 0 0 0 0 70945672.05886091 -10611175.69373976 -10611175.69373976 1419531.382461573 0 0 0 0 0 73910456.89891624 -7640779.575325655 -7640779.575325655 2279137.550819111 0 0 0 0 0 73320403.69790369 -8936919.99423955 -8936919.99423955 2088725.440585745 0 0 0 0 0 71821752.22407025 -10519661.67779419 -10519661.67779419 1599553.648380663 0 0 0 0 0 73339737.66338097 -10205676.66954723 -10205676.66954723 1525640.643997319 0 0 0 0 0 75839532.13583514 -6288069.979156378 -6288069.979156378 2777813.114329609 0 0 0 0 0 75335993.37264283 -7456272.637242453 -7456272.637242453 2291997.124664264 0 0 0 0 0 76682697.54835454 -5872260.908738992 -5872260.908738992 2997086.840848553 0 0 0 0 0 255469828.0684861 -18812418.31371161 -18812418.31371161 -150570.3235129228 0 0 0 0 0 220796994.1560988 -16278582.52933114 -16278582.52933114 20241339.0656861 0 0 0 0 0 200171410.0212198 -13952701.53131011 -13952701.53131011 27476706.29283169 0 0 0 0 0 184689347.2610188 -9785882.726140058 -9785882.726140058 30611894.21438054 0 0 0 0 0 168864237.7349374 -8034866.984845238 -8034866.984845238 26886706.88206068 0 0 0 0 0 162029198.0329198 -5492802.698497737 -5492802.698497737 24268159.5626408 0 0 0 0 0 182073081.9400682 -9226709.112375094 -9226709.112375094 30272458.9049391 0 0 0 0 0 154963748.0671168 -3867897.675927244 -3867897.675927244 20952835.25754766 0 0 0 0 0 149246165.8365817 -2580943.87564186 -2580943.87564186 16727117.31609294 0 0 0 0 0 144534478.5258656 -1738285.125416181 -1738285.125416181 12346716.70766442 0 0 0 0 0 140579403.9636071 -1325713.661083024 -1325713.661083024 8096831.255679479 0 0 0 0 0 137196536.9270423 -1288480.12794511 -1288480.12794511 4147661.778067206 0 0 0 0 0 134229643.2330558 -1561693.83620871 -1561693.83620871 599128.6780457234 0 0 0 0 0 131569549.4150551 -2063818.749934718 -2063818.749934718 -2495096.250452559 0 0 0 0 0 129142906.58499 -2720361.674223311 -2720361.674223311 -5114788.5269636 0 0 0 0 0 128214228.8049015 -5479315.379979036 -5479315.379979036 -9619036.717658803 0 0 0 0 0 124820112.8716615 -6235765.316937675 -6235765.316937675 -10084151.80043656 0 0 0 0 0 122704259.7352648 -6910678.563719146 -6910678.563719146 -11475813.26767234 0 0 0 0 0 121859692.2690916 -9128131.529624173 -9128131.529624173 -13879455.70486028 0 0 0 0 0 118225377.0553015 -10131933.17894273 -10131933.17894273 -14283009.42294541 0 0 0 0 0 83451989.62511942 -21957994.07748014 -21957994.07748014 -8853978.084394732 0 0 0 0 0 86580007.67288719 -22333266.78554326 -22333266.78554326 -10313245.52755438 0 0 0 0 0 89939419.11934547 -22412364.10055955 -22412364.10055955 -11721065.65020255 0 0 0 0 0 80596632.99087822 -21315633.72302417 -21315633.72302417 -7387795.909704546 0 0 0 0 0 78045995.7709686 -20440074.52834932 -20440074.52834932 -5951256.548387635 0 0 0 0 0 93479205.71560179 -22173488.8606311 -22173488.8606311 -13028836.96455023 0 0 0 0 0 97164351.36001417 -21600116.03431499 -21600116.03431499 -14187144.3605956 0 0 0 0 0 100869845.9580603 -20684578.9970894 -20684578.9970894 -15140513.22853531 0 0 0 0 0 75819055.84195369 -19369128.77824948 -19369128.77824948 -4573607.681834804 0 0 0 0 0 104553583.3934924 -19451868.97453084 -19451868.97453084 -15850502.00136334 0 0 0 0 0 108106145.6069553 -17918129.88251397 -17918129.88251397 -16252964.17455581 0 0 0 0 0 73918343.73597164 -18142130.13457806 -18142130.13457806 -3283842.776449527 0 0 0 0 0 72345739.32022052 -16795334.89634707 -16795334.89634707 -2099396.628320096 0 0 0 0 0 71096674.6546679 -15368901.69788935 -15368901.69788935 -1030038.345035428 0 0 0 0 0 111502008.6284517 -16122718.21071813 -16122718.21071813 -16313573.18701721 0 0 0 0 0 114653548.8455999 -14086782.75036151 -14086782.75036151 -16016045.91242206 0 0 0 0 0 117489688.4580327 -11873926.26726005 -11873926.26726005 -15337206.22528974 0 0 0 0 0 70162534.767887 -13894669.08980875 -13894669.08980875 -83829.05765921962 0 0 0 0 0 70620506.96124712 -13819186.21299691 -13819186.21299691 -6566.025044102953 0 0 0 0 0 71331809.63238944 -11993905.70838982 -11993905.70838982 763150.2834013959 0 0 0 0 0 71978173.49231496 -11901284.38889705 -11901284.38889705 881439.2564399708 0 0 0 0 0 74781158.82844512 -8700928.187792521 -8700928.187792521 2018588.600356506 0 0 0 0 0 73957910.57817689 -8786201.519780025 -8786201.519780025 1849816.922025686 0 0 0 0 0 72636612.31330925 -10294843.51250691 -10294843.51250691 1395293.424687489 0 0 0 0 0 74162965.82154062 -9972759.160682408 -9972759.160682408 1361126.142351542 0 0 0 0 0 75728049.00535682 -7329318.965666476 -7329318.965666476 2299413.482702526 0 0 0 0 0 76149500.75026385 -8459126.31198906 -8459126.31198906 1941350.294354251 0 0 0 0 0 76210408.31912491 -6168083.671771719 -6168083.671771719 2311743.180938997 0 0 0 0 0 305591946.1403098 -13891242.51483846 -13891242.51483846 14029190.34066178 0 0 0 0 0 255544235.8206576 -9410142.407184077 -9410142.407184077 20012503.42525348 0 0 0 0 0 236130741.3874871 -15584279.02728081 -15584279.02728081 24899894.29351144 0 0 0 0 0 225571159.4997076 -13699576.53601061 -13699576.53601061 32896750.85963434 0 0 0 0 0 203532342.7902 -10636550.13623777 -10636550.13623777 33278204.82196798 0 0 0 0 0 185751522.7310448 -8955828.979316257 -8955828.979316257 32525105.78809717 0 0 0 0 0 168701202.2909352 -8080282.476237908 -8080282.476237908 27408994.37482739 0 0 0 0 0 159974756.0598397 -6318723.625063268 -6318723.625063268 23580758.35396822 0 0 0 0 0 172406224.761176 -7721268.404485699 -7721268.404485699 30900549.91774386 0 0 0 0 0 153895982.2077807 -4625023.886377192 -4625023.886377192 19041348.61933679 0 0 0 0 0 148743249.7551084 -3266646.014679338 -3266646.014679338 14269134.52151028 0 0 0 0 0 144380904.627777 -2359923.297540899 -2359923.297540899 9648147.226707071 0 0 0 0 0 140655339.424518 -1878527.860454842 -1878527.860454842 5369985.558080708 0 0 0 0 0 137428307.8424878 -1763970.325662099 -1763970.325662099 1543782.600898364 0 0 0 0 0 134580777.8487494 -1947773.695889523 -1947773.695889523 -1771615.841454657 0 0 0 0 0 132022914.1847284 -2352134.607519328 -2352134.607519328 -4562680.131287592 0 0 0 0 0 129680653.3492775 -2910433.031555737 -2910433.031555737 -6857032.041685302 0 0 0 0 0 126894267.3514915 -3464853.607663111 -3464853.607663111 -7279189.822788874 0 0 0 0 0 125993168.1881812 -6057341.504766898 -6057341.504766898 -11087662.54581298 0 0 0 0 0 123921168.8834206 -6648832.456786499 -6648832.456786499 -12158647.26782565 0 0 0 0 0 120734063.7986191 -7552809.033595407 -7552809.033595407 -12487186.26631626 0 0 0 0 0 119946570.6258174 -9568439.311718497 -9568439.311718497 -14288132.76976868 0 0 0 0 0 81022028.29571471 -22222707.84393375 -22222707.84393375 -9344628.003605831 0 0 0 0 0 83714603.4744148 -22693688.77933997 -22693688.77933997 -10865621.21687213 0 0 0 0 0 86671948.88276444 -22876237.71550382 -22876237.71550382 -12322902.82236091 0 0 0 0 0 89857190.88821068 -22745265.2389484 -22745265.2389484 -13665890.41347343 0 0 0 0 0 78621545.52319127 -21494470.70986126 -21494470.70986126 -7805626.789367248 0 0 0 0 0 76523909.68147214 -20545776.66367814 -20545776.66367814 -6290252.907675854 0 0 0 0 0 93222847.80158347 -22284697.35429341 -22284697.35429341 -14848480.41907935 0 0 0 0 0 96726850.08399215 -21467651.88857725 -21467651.88857725 -15792927.74135888 0 0 0 0 0 100287182.688231 -20325275.00807335 -20325275.00807335 -16481260.51189136 0 0 0 0 0 74740229.71594597 -19414949.84816593 -19414949.84816593 -4829427.162090405 0 0 0 0 0 103833521.5196154 -18855372.40645376 -18855372.40645376 -16840021.21736256 0 0 0 0 0 107271033.5110044 -17123824.88873298 -17123824.88873298 -16876622.80970383 0 0 0 0 0 73271997.68386589 -18139676.33545833 -18139676.33545833 -3453585.173998757 0 0 0 0 0 72109880.50220457 -16757865.10276436 -16757865.10276436 -2181249.956543948 0 0 0 0 0 71235296.50248547 -15304923.49549332 -15304923.49549332 -1028524.429816677 0 0 0 0 0 110571881.9530701 -15116445.4780451 -15116445.4780451 -16524234.53045397 0 0 0 0 0 113663478.6233483 -12900101.36242069 -12900101.36242069 -15782458.2374059 0 0 0 0 0 116455406.7342002 -10554619.93389981 -10554619.93389981 -14661011.57529379 0 0 0 0 0 71957262.68143354 -13377836.38851392 -13377836.38851392 -5795.116249216496 0 0 0 0 0 72345155.12155332 -13291590.67660642 -13291590.67660642 49511.60851972569 0 0 0 0 0 73024522.15587491 -11578936.97445895 -11578936.97445895 784017.9960844457 0 0 0 0 0 75319259.27805424 -8577100.631388269 -8577100.631388269 1774985.857376819 0 0 0 0 0 74789755.37755778 -9879788.543679899 -9879788.543679899 1468485.111414369 0 0 0 0 0 73519790.54687588 -11485864.52348051 -11485864.52348051 857290.1795930349 0 0 0 0 0 74976016.0673541 -11076171.13320764 -11076171.13320764 841146.9187095783 0 0 0 0 0 77007015.69810413 -7147976.070431991 -7147976.070431991 2344057.791779032 0 0 0 0 0 76365744.02203482 -8444453.92206784 -8444453.92206784 1488196.772980658 0 0 0 0 0 77211061.88246474 -6999185.367927708 -6999185.367927708 2301737.481217625 0 0 0 0 0 263118640.1574539 -572971.2408804356 -572971.2408804356 9556294.020184549 0 0 0 0 0 255017926.122148 -9949445.162096864 -9949445.162096864 19942098.46150853 0 0 0 0 0 223610616.2414895 -6296702.532400647 -6296702.532400647 28857425.52491951 0 0 0 0 0 204381745.0632905 -9672052.423684811 -9672052.423684811 27278970.50260113 0 0 0 0 0 187655426.4273396 -7436661.552182825 -7436661.552182825 30893766.68377793 0 0 0 0 0 176051318.9980876 -3247009.367589007 -3247009.367589007 32920835.19181867 0 0 0 0 0 161799908.670481 -2027774.928713272 -2027774.928713272 27881098.97513209 0 0 0 0 0 155230388.7642078 -837657.3601010686 -837657.3601010686 24323947.56946166 0 0 0 0 0 172261029.9917803 -2931668.004986491 -2931668.004986491 31041310.59340363 0 0 0 0 0 149868359.2336206 174086.3222653357 174086.3222653357 20372250.97464233 0 0 0 0 0 145388295.35346 900000.9049986058 900000.9049986058 16218769.9886059 0 0 0 0 0 141601937.6347584 1270964.055337167 1270964.055337167 12051246.37139917 0 0 0 0 0 138340304.8982099 1301389.910861026 1301389.910861026 8064897.855030795 0 0 0 0 0 135475663.6371196 1040496.605634338 1040496.605634338 4385074.962532452 0 0 0 0 0 132908905.9612223 547313.9802911398 547313.9802911398 1088359.07225737 0 0 0 0 0 130565687.7610273 -113542.9165659893 -113542.9165659893 -1793458.202244383 0 0 0 0 0 128397688.4360137 -884501.3419161966 -884501.3419161966 -4249517.21746551 0 0 0 0 0 127523854.7306623 -3550249.88151884 -3550249.88151884 -8676632.141483741 0 0 0 0 0 124784442.3982595 -4245907.084946625 -4245907.084946625 -9019678.798324395 0 0 0 0 0 122813806.3795772 -5007734.059274732 -5007734.059274732 -10363340.09345238 0 0 0 0 0 121996687.4609571 -7218154.150231876 -7218154.150231876 -12873416.6811655 0 0 0 0 0 118902991.3428104 -8139700.412525576 -8139700.412525576 -13180922.42835253 0 0 0 0 0 84204414.81666394 -20926662.2349699 -20926662.2349699 -8187153.823576017 0 0 0 0 0 87066241.92194408 -21311164.33496786 -21311164.33496786 -9566705.478613753 0 0 0 0 0 90142029.69568112 -21430444.0837848 -21430444.0837848 -10912744.74300875 0 0 0 0 0 93386591.00620185 -21263359.19932066 -21263359.19932066 -12182530.74192829 0 0 0 0 0 81591781.01844485 -20302802.23151932 -20302802.23151932 -6811004.07086354 0 0 0 0 0 79256314.56151715 -19468999.57493162 -19468999.57493162 -5463305.461038907 0 0 0 0 0 96756049.52668889 -20795319.510665 -20795319.510665 -13330904.15259975 0 0 0 0 0 100168660.4765701 -20016587.30636368 -20016587.30636368 -14309692.0448455 0 0 0 0 0 103582060.2589484 -18941196.47763559 -18941196.47763559 -15080606.7207556 0 0 0 0 0 77205631.71700357 -18465068.19043618 -18465068.19043618 -4182409.761147053 0 0 0 0 0 106902994.766448 -17575250.31350356 -17575250.31350356 -15590087.70454692 0 0 0 0 0 110096059.717765 -15961582.29269094 -15961582.29269094 -15802811.03551433 0 0 0 0 0 75455105.30663097 -17319871.27303003 -17319871.27303003 -2984036.962102075 0 0 0 0 0 74002041.32927985 -16069940.49429521 -16069940.49429521 -1884643.310171046 0 0 0 0 0 72840954.98364857 -14744961.1011121 -14744961.1011121 -890075.0943477106 0 0 0 0 0 113074671.039727 -14116628.02452827 -14116628.02452827 -15694720.29638379 0 0 0 0 0 115786607.6134291 -12090643.05314411 -12090643.05314411 -15247171.57450119 0 0 0 0 0 118180739.8096146 -9943606.945857199 -9943606.945857199 -14450400.73418317 0 0 0 0 0 72924757.23709951 -14671605.11254523 -14671605.11254523 -907550.8618586225 0 0 0 0 0 73607732.20451677 -12869505.76332774 -12869505.76332774 60470.86415414854 0 0 0 0 0 73888342.60236199 -12780040.25639902 -12780040.25639902 84950.18291040511 0 0 0 0 0 76144199.86654669 -9562334.505196098 -9562334.505196098 1410111.96849996 0 0 0 0 0 75582311.72240317 -9659176.156962693 -9659176.156962693 1326627.321393117 0 0 0 0 0 74542935.79849362 -11169511.08037692 -11169511.08037692 784950.543761427 0 0 0 0 0 75948407.14579895 -10770137.4602322 -10770137.4602322 781658.3263325116 0 0 0 0 0 76689707.62727414 -7973757.73842178 -7973757.73842178 1620869.650165438 0 0 0 0 0 77552102.23538445 -9277441.057627607 -9277441.057627607 1373201.719461077 0 0 0 0 0 77908753.51483214 -8318377.224596329 -8318377.224596329 1970247.868228635 0 0 0 0 0 77194350.00760238 -7048639.626064685 -7048639.626064685 1923866.963630507 0 0 0 0 0 236217473.5936232 -371092.0913891413 -371092.0913891413 21015427.23216056 0 0 0 0 0 222601159.5844611 -7586962.898804195 -7586962.898804195 29107554.78177152 0 0 0 0 0 206376190.1757169 -6716998.459505244 -6716998.459505244 33859423.94101076 0 0 0 0 0 187406335.0255354 -3207644.734926368 -3207644.734926368 33465684.12510848 0 0 0 0 0 177986566.5494316 -5925246.746404137 -5925246.746404137 34751806.81143425 0 0 0 0 0 170411140.4663453 -5521028.659412343 -5521028.659412343 33342374.89468868 0 0 0 0 0 158499425.5602254 -3399369.614130449 -3399369.614130449 26561782.77541346 0 0 0 0 0 164532118.312665 -4639350.258911308 -4639350.258911308 30345622.67133025 0 0 0 0 0 152989369.8315106 -1995369.295963189 -1995369.295963189 22355543.64439248 0 0 0 0 0 148315089.4774685 -856700.5777899229 -856700.5777899229 17927127.07693281 0 0 0 0 0 144306230.7713794 -40162.87239325236 -40162.87239325236 13465522.3654292 0 0 0 0 0 140852936.2809069 419166.8856765107 419166.8856765107 9198326.362972056 0 0 0 0 0 137840490.7542053 543937.9721283414 543937.9721283414 5271254.316966164 0 0 0 0 0 135175732.1429912 386293.996496358 386293.996496358 1767653.080249166 0 0 0 0 0 132768359.6926301 -33.66562413207859 -33.66562413207859 -1279708.986477949 0 0 0 0 0 130567024.6200121 -551675.2147955251 -551675.2147955251 -3863714.693282363 0 0 0 0 0 128522303.5777835 -1212494.796590701 -1212494.796590701 -6002542.050694859 0 0 0 0 0 126358514.9074766 -1713532.261869903 -1713532.261869903 -6298533.840914075 0 0 0 0 0 125507592.1853962 -4225670.251820099 -4225670.251820099 -10086318.47562554 0 0 0 0 0 123615747.4700078 -4896450.23406108 -4896450.23406108 -11128994.16364093 0 0 0 0 0 120964373.3324171 -5727121.202588435 -5727121.202588435 -11374201.27483992 0 0 0 0 0 120206657.2530118 -7739173.45921592 -7739173.45921592 -13314043.42761955 0 0 0 0 0 84437714.62639238 -21606815.16179623 -21606815.16179623 -10092471.07799648 0 0 0 0 0 81974163.03978105 -21136725.12021521 -21136725.12021521 -8655196.530040769 0 0 0 0 0 87144974.5761077 -21819225.32078715 -21819225.32078715 -11484686.55081671 0 0 0 0 0 90062505.68388964 -21750740.55000422 -21750740.55000422 -12786928.85795533 0 0 0 0 0 93148670.97863941 -21384138.60106058 -21384138.60106058 -13953751.00029845 0 0 0 0 0 79768524.69446397 -20436244.50020753 -20436244.50020753 -7214166.772336243 0 0 0 0 0 77842428.16687733 -19541481.31191262 -19541481.31191262 -5794013.818585892 0 0 0 0 0 96358618.24196756 -20702326.83304928 -20702326.83304928 -14932442.44961267 0 0 0 0 0 99629993.78721142 -19714267.40073169 -19714267.40073169 -15678950.54746879 0 0 0 0 0 102915576.0481322 -18425951.0053819 -18425951.0053819 -16155787.85552619 0 0 0 0 0 76200879.8717217 -18483169.62102197 -18483169.62102197 -4435399.559998233 0 0 0 0 0 106131379.1282678 -16875274.09108246 -16875274.09108246 -16339658.05542829 0 0 0 0 0 109226416.6928591 -15071945.55399266 -15071945.55399266 -16182018.98220729 0 0 0 0 0 74845885.99677752 -17297600.89684268 -17297600.89684268 -3155361.633887387 0 0 0 0 0 73753150.04579821 -16014897.30115481 -16014897.30115481 -1979385.487910594 0 0 0 0 0 112145221.5180754 -13063739.77303652 -13063739.77303652 -15673445.02989819 0 0 0 0 0 114820396.6915566 -10900266.7565727 -10900266.7565727 -14808192.66806345 0 0 0 0 0 117196044.5209388 -8655577.898557542 -8655577.898557542 -13607755.83148834 0 0 0 0 0 74450065.36288373 -14137596.25671477 -14137596.25671477 -759634.5667611889 0 0 0 0 0 74441706.82459365 -14056256.09140657 -14056256.09140657 -807694.417207827 0 0 0 0 0 75103980.66314417 -12364433.63079712 -12364433.63079712 110971.7670420827 0 0 0 0 0 76863356.67465661 -9375428.76492138 -9375428.76492138 1263728.825622517 0 0 0 0 0 76318185.35614724 -10675387.45294698 -10675387.45294698 819407.9993344885 0 0 0 0 0 75332804.11908127 -12273550.31588942 -12273550.31588942 119552.1062837099 0 0 0 0 0 76665626.1426924 -11791561.84428795 -11791561.84428795 146037.2927810939 0 0 0 0 0 78522367.94477932 -7754821.866735481 -7754821.866735481 2219543.185647434 0 0 0 0 0 78357345.75506693 -9105089.376494687 -9105089.376494687 1483451.17863157 0 0 0 0 0 77539923.32083577 -8966151.182330359 -8966151.182330359 1219705.263211215 0 0 0 0 0 207673928.4476764 1222390.264269312 1222390.264269312 30305074.41504505 0 0 0 0 0 190917976.4843642 -2789740.471656646 -2789740.471656646 32160952.73191192 0 0 0 0 0 187204157.9761857 -5942982.38132234 -5942982.38132234 34939688.8024383 0 0 0 0 0 172728859.9658988 -218555.0508837902 -218555.0508837902 35282229.71206895 0 0 0 0 0 166168448.4555105 -209394.8362397901 -209394.8362397901 33297175.26020836 0 0 0 0 0 154209085.1332894 1589817.866862604 1589817.866862604 27441189.90229184 0 0 0 0 0 159705527.7755049 890267.1328665391 890267.1328665391 30991899.92169615 0 0 0 0 0 149343337.0242196 2385397.435585631 2385397.435585631 23760132.45706048 0 0 0 0 0 145219541.1711088 3007331.40150024 3007331.40150024 19804572.50288788 0 0 0 0 0 141706731.4072005 3373230.274941379 3373230.274941379 15785870.5285694 0 0 0 0 0 138666348.3744173 3445500.401577531 3445500.401577531 11839175.37307343 0 0 0 0 0 135986064.5591331 3240871.556973274 3240871.556973274 8105485.639479124 0 0 0 0 0 133577131.1098281 2802245.215754081 2802245.215754081 4676255.998468479 0 0 0 0 0 131380282.0786435 2183214.79424623 2183214.79424623 1603830.441722139 0 0 0 0 0 129337534.902603 1432574.744967566 1432574.744967566 -1091779.44767426 0 0 0 0 0 127419632.4009227 602605.3005157602 602605.3005157602 -3402527.210983527 0 0 0 0 0 126605511.3272419 -1935328.014109854 -1935328.014109854 -7734258.551147701 0 0 0 0 0 124440824.4773324 -2553813.086151685 -2553813.086151685 -7958055.172996396 0 0 0 0 0 122624572.2737826 -3369715.140186734 -3369715.140186734 -9274472.06854753 0 0 0 0 0 121849526.2675643 -5534826.623171338 -5534826.623171338 -11859801.95532311 0 0 0 0 0 119234252.8214223 -6380558.169723411 -6380558.169723411 -12085091.78166065 0 0 0 0 0 87522762.79353499 -20331367.34374935 -20331367.34374935 -8880758.052461041 0 0 0 0 0 84904545.89065918 -19940161.03412196 -19940161.03412196 -7574719.304322037 0 0 0 0 0 90343295.5635478 -20481819.13518177 -20481819.13518177 -10159867.74768655 0 0 0 0 0 93320202.55907705 -20375663.34449208 -20375663.34449208 -11383039.35044774 0 0 0 0 0 96409822.35406868 -19997729.2103228 -19997729.2103228 -12508540.53259591 0 0 0 0 0 82512878.98532957 -19338059.74405394 -19338059.74405394 -6280216.933777848 0 0 0 0 0 80360527.88974006 -18546862.4253792 -18546862.4253792 -5019541.694992107 0 0 0 0 0 99561964.65791982 -19338517.24708183 -19338517.24708183 -13493195.98944315 0 0 0 0 0 102716726.5020721 -18400990.33534931 -18400990.33534931 -14294435.07841485 0 0 0 0 0 105815684.9076213 -17197530.73460558 -17197530.73460558 -14880222.95629554 0 0 0 0 0 78482450.04688083 -17601762.1437595 -17601762.1437595 -3827220.789792474 0 0 0 0 0 108810740.5986453 -15751082.19333469 -15751082.19333469 -15214853.91824137 0 0 0 0 0 111628772.7356833 -14084925.02872099 -14084925.02872099 -15259550.61167211 0 0 0 0 0 76869530.75131804 -16532364.27136049 -16532364.27136049 -2713192.184970244 0 0 0 0 0 75539763.99547288 -15365199.35318514 -15365199.35318514 -1683974.229263305 0 0 0 0 0 114216511.9245936 -12242457.0499467 -12242457.0499467 -15004092.02116372 0 0 0 0 0 116536258.3992869 -10254548.81303674 -10254548.81303674 -14421488.33127609 0 0 0 0 0 118532213.9570317 -8199552.498039419 -8199552.498039419 -13531288.23296629 0 0 0 0 0 75218173.96725348 -15303376.46931559 -15303376.46931559 -1801862.069977677 0 0 0 0 0 75895304.41990852 -13547985.04087721 -13547985.04087721 -651461.31869566 0 0 0 0 0 75856011.26084158 -13463228.32184752 -13463228.32184752 -711814.5887430806 0 0 0 0 0 77583654.85329609 -10275261.29758369 -10275261.29758369 780973.3404764392 0 0 0 0 0 77264168.78830056 -10377572.93783373 -10377572.93783373 771023.7484085214 0 0 0 0 0 76483033.35113393 -11883622.84825366 -11883622.84825366 151445.1500207669 0 0 0 0 0 77746367.21824414 -11427244.59122434 -11427244.59122434 177406.371801425 0 0 0 0 0 78240989.96732633 -7935219.297809904 -7935219.297809904 1474115.943747765 0 0 0 0 0 78079645.88479513 -9749194.097553 -9749194.097553 612749.6531184623 0 0 0 0 0 78303601.28340991 -8809241.533501949 -8809241.533501949 1169596.354681131 0 0 0 0 0 200157123.8295396 -4868649.767193947 -4868649.767193947 34412610.8905337 0 0 0 0 0 179192693.9818805 -78118.41650002089 -78118.41650002089 35289194.40500437 0 0 0 0 0 165485019.5974573 -2928958.970345897 -2928958.970345897 34736507.36316209 0 0 0 0 0 170886267.4909493 -3460959.149494826 -3460959.149494826 36448353.96815386 0 0 0 0 0 160333571.9278182 -2235456.094075402 -2235456.094075402 32845901.18704541 0 0 0 0 0 150921829.197922 74334.97118632993 74334.97118632993 25417286.11738858 0 0 0 0 0 155356533.5631182 -946892.6177993434 -946892.6177993434 29111369.79702483 0 0 0 0 0 146916809.9569881 1061565.59720078 1061565.59720078 21296808.96908077 0 0 0 0 0 143387297.0149521 1821087.814321528 1821087.814321528 17060662.47614647 0 0 0 0 0 140284761.2758774 2290357.978288203 2290357.978288203 12887440.49331234 0 0 0 0 0 137555575.2958474 2463036.909359764 2463036.909359764 8936726.5359727 0 0 0 0 0 135124469.6274216 2363926.997897127 2363926.997897127 5317330.016976329 0 0 0 0 0 132924221.0294222 2035814.777313755 2035814.777313755 2086637.866677054 0 0 0 0 0 130901187.2871648 1529137.587194552 1529137.587194552 -735738.8723470961 0 0 0 0 0 129015417.0753554 891579.276668209 891579.276668209 -3143149.334584033 0 0 0 0 0 127238772.0533773 170861.6494603312 170861.6494603312 -5163768.393959936 0 0 0 0 0 125601052.3845901 -266544.743047418 -266544.743047418 -5348248.450938962 0 0 0 0 0 124800237.9395109 -2672075.505083083 -2672075.505083083 -9095001.700880053 0 0 0 0 0 123098240.8400709 -3390593.31935983 -3390593.31935983 -10116774.00918407 0 0 0 0 0 120906514.3551069 -4139300.089108466 -4139300.089108466 -10282563.64243816 0 0 0 0 0 120183294.2701914 -6120488.566278604 -6120488.566278604 -12336743.54749592 0 0 0 0 0 87591363.4003024 -20808321.52132309 -20808321.52132309 -10701098.93959511 0 0 0 0 0 85102201.85011227 -20573193.45186247 -20573193.45186247 -9381108.826031953 0 0 0 0 0 82824236.91621171 -20108239.049468 -20108239.049468 -8027607.483846162 0 0 0 0 0 90268358.48711737 -20791074.23566801 -20791074.23566801 -11954567.70022046 0 0 0 0 0 93101621.22892439 -20505127.06479023 -20505127.06479023 -13095537.94372519 0 0 0 0 0 96048701.71707016 -19938135.57001004 -19938135.57001004 -14081894.56138183 0 0 0 0 0 80797680.97331677 -19438355.86084086 -19438355.86084086 -6671608.306554293 0 0 0 0 0 79023598.33042221 -18596579.72484157 -18596579.72484157 -5343023.169042599 0 0 0 0 0 99065879.27333003 -19086286.82902204 -19086286.82902204 -14872595.74725854 0 0 0 0 0 102102698.9725231 -17964166.71279308 -17964166.71279308 -15435136.07516146 0 0 0 0 0 105101266.9369036 -16583386.99769482 -16583386.99769482 -15730249.73633371 0 0 0 0 0 77506958.53297985 -17601990.62473672 -17601990.62473672 -4080101.751134851 0 0 0 0 0 108007474.808629 -14965680.59656977 -14965680.59656977 -15729824.47454865 0 0 0 0 0 110760070.1218362 -13149020.17242691 -13149020.17242691 -15412772.3545548 0 0 0 0 0 76247416.10498758 -16496817.46494893 -16496817.46494893 -2894290.110043285 0 0 0 0 0 113317583.7849077 -11171432.6020113 -11171432.6020113 -14772939.61503113 0 0 0 0 0 115615743.8683191 -9091843.80888645 -9091843.80888645 -13813873.90759198 0 0 0 0 0 117619483.7840199 -6963568.705261326 -6963568.705261326 -12552093.06995277 0 0 0 0 0 76905965.52135913 -14691854.98615653 -14691854.98615653 -1511433.023923395 0 0 0 0 0 76595015.16534963 -14618782.6426568 -14618782.6426568 -1633058.700240885 0 0 0 0 0 77220179.53040387 -12983561.94511463 -12983561.94511463 -563513.3781748688 0 0 0 0 0 78665872.81715205 -9923294.0418489 -9923294.0418489 889521.4728724872 0 0 0 0 0 77925393.93356867 -11338216.64851608 -11338216.64851608 178955.8802174171 0 0 0 0 0 77186423.69550234 -12895968.26340361 -12895968.26340361 -622573.5132633321 0 0 0 0 0 78419928.17457187 -12364111.02339115 -12364111.02339115 -552846.1643384889 0 0 0 0 0 79367796.14023358 -8659217.963626003 -8659217.963626003 1469064.065541499 0 0 0 0 0 79440903.85563909 -9603346.960495088 -9603346.960495088 1020005.292324509 0 0 0 0 0 187241309.241667 1372903.368406951 1372903.368406951 34289033.5335229 0 0 0 0 0 181748078.0643064 -2955786.129824742 -2955786.129824742 36315745.00736933 0 0 0 0 0 161721760.6757246 1425799.390554618 1425799.390554618 35128933.91803286 0 0 0 0 0 167370256.958632 754395.5664945497 754395.5664945497 36429251.70284689 0 0 0 0 0 156412530.5981054 2165649.293316226 2165649.293316226 32949882.16622159 0 0 0 0 0 147771394.6356909 3876635.504079328 3876635.504079328 26689407.41442478 0 0 0 0 0 151909789.7778417 3127946.440347477 3127946.440347477 30133500.51760137 0 0 0 0 0 144154257.7793956 4516721.59505724 4516721.59505724 23015834.52052239 0 0 0 0 0 141009703.6224943 4932946.031084452 4932946.031084452 19193697.63007772 0 0 0 0 0 138266043.0827332 5094119.791668725 5094119.791668725 15364454.45947565 0 0 0 0 0 135828678.986147 4990260.262123388 4990260.262123388 11656060.93172723 0 0 0 0 0 133633799.1095695 4651927.955555794 4651927.955555794 8167683.136902178 0 0 0 0 0 131622663.6640249 4117519.811826271 4117519.811826271 4971633.970848604 0 0 0 0 0 129751958.7583203 3433981.02076461 3433981.02076461 2103708.993932147 0 0 0 0 0 127987222.4514435 2645300.982336537 2645300.982336537 -422789.4919698082 0 0 0 0 0 126303859.6278074 1792907.978832299 1792907.978832299 -2607923.324101267 0 0 0 0 0 125555651.8292887 -592413.316008542 -592413.316008542 -6815612.470670962 0 0 0 0 0 123862006.2020559 -1139064.41293085 -1139064.41293085 -6951073.697128101 0 0 0 0 0 122204071.0774253 -1983813.515930626 -1983813.515930626 -8237818.493758753 0 0 0 0 0 121484445.5387821 -4068886.683464699 -4068886.683464699 -10857090.76538338 0 0 0 0 0 119299558.4585735 -4841187.445555505 -4841187.445555505 -11015669.49620557 0 0 0 0 0 90543462.84787381 -19570244.61269698 -19570244.61269698 -9458708.906513685 0 0 0 0 0 87956326.29023162 -19399290.19955994 -19399290.19955994 -8242312.485104367 0 0 0 0 0 85546533.96299337 -18999077.87581397 -18999077.87581397 -7000716.91611348 0 0 0 0 0 93280530.21238391 -19515388.18897937 -19515388.18897937 -10631888.10630861 0 0 0 0 0 96125501.56958961 -19213031.81522127 -19213031.81522127 -11724154.55789586 0 0 0 0 0 99035738.00766718 -18655102.1777969 -18655102.1777969 -12698871.48170087 0 0 0 0 0 83341669.00587428 -18422452.78474781 -18422452.78474781 -5795122.623444065 0 0 0 0 0 81352694.79994877 -17671298.87631465 -17671298.87631465 -4628728.286918161 0 0 0 0 0 101964238.1596614 -17842137.3789368 -17842137.3789368 -13520196.91087505 0 0 0 0 0 104857494.1172436 -16782204.18167057 -16782204.18167057 -14155384.36489549 0 0 0 0 0 107660122.8157532 -15492299.68034432 -15492299.68034432 -14571775.80774978 0 0 0 0 0 79626849.98453386 -16780414.19327825 -16780414.19327825 -3512068.222742076 0 0 0 0 0 110322875.5887505 -13992828.68371401 -13992828.68371401 -14739284.05949237 0 0 0 0 0 112787174.7564484 -12318289.43721361 -12318289.43721361 -14635902.62227309 0 0 0 0 0 78145016.78899691 -15773499.26100387 -15773499.26100387 -2470790.650530247 0 0 0 0 0 115010933.7443727 -10504060.93043745 -10504060.93043745 -14246063.22206519 0 0 0 0 0 116969410.1730648 -8593481.870362809 -8593481.870362809 -13568785.3775818 0 0 0 0 0 118623047.5761128 -6642532.074109667 -6642532.074109667 -12605386.81822897 0 0 0 0 0 77550256.4813755 -15727186.04835276 -15727186.04835276 -2650493.846364881 0 0 0 0 0 78163068.82450476 -14047728.11132439 -14047728.11132439 -1368436.706836587 0 0 0 0 0 77866785.17689309 -13970035.36743035 -13970035.36743035 -1488788.046281611 0 0 0 0 0 79082945.32275708 -10858566.61727908 -10858566.61727908 220846.5989589689 0 0 0 0 0 78950891.80329187 -10961885.59601534 -10961885.59601534 240235.4879491097 0 0 0 0 0 78429634.94418499 -12452984.58433967 -12452984.58433967 -502455.2827989693 0 0 0 0 0 79581853.11784349 -11955871.86438896 -11955871.86438896 -432251.7549128399 0 0 0 0 0 79358739.67826612 -8684923.321597379 -8684923.321597379 978304.7074076578 0 0 0 0 0 79589635.26523925 -9539624.586929757 -9539624.586929757 660744.049215096 0 0 0 0 0 172278541.914196 1171647.853901861 1171647.853901861 36538233.34990268 0 0 0 0 0 155793758.0602904 -703450.5294890852 -703450.5294890852 34337362.28453942 0 0 0 0 0 159155322.9312433 -1327826.675743997 -1327826.675743997 36093346.02162387 0 0 0 0 0 161863732.5208665 -1025676.700554006 -1025676.700554006 36992920.14094223 0 0 0 0 0 151810291.3336962 357350.225851321 357350.225851321 31601997.24278685 0 0 0 0 0 148160522.3053907 1453738.986426444 1453738.986426444 28087333.78215747 0 0 0 0 0 144819443.5143794 2398438.229879487 2398438.229879487 24320288.97355111 0 0 0 0 0 141790310.8069359 3169430.546540122 3169430.546540122 20342844.27655323 0 0 0 0 0 139093306.4043649 3695089.537520358 3695089.537520358 16336520.13821654 0 0 0 0 0 136683104.1856289 3952463.090117521 3952463.090117521 12440704.41467112 0 0 0 0 0 134519789.5852996 3948007.010286956 3948007.010286956 8780753.164305551 0 0 0 0 0 132556145.4087545 3714475.840135925 3714475.840135925 5433643.416665941 0 0 0 0 0 130742298.8198233 3288166.864324141 3288166.864324141 2441178.471268145 0 0 0 0 0 129044228.940338 2714696.34921419 2714696.34921419 -185428.9367446302 0 0 0 0 0 127438774.1520854 2034663.393257419 2034663.393257419 -2447547.628033017 0 0 0 0 0 125903981.8066177 1289884.109759087 1289884.109759087 -4355229.520490716 0 0 0 0 0 124681292.2390939 907643.5870288955 907643.5870288955 -4462439.608835636 0 0 0 0 0 123951388.2253342 -1358181.162419046 -1358181.162419046 -8122835.635046542 0 0 0 0 0 122423225.3854044 -2101421.605097868 -2101421.605097868 -9130902.510069465 0 0 0 0 0 120641212.4864744 -2774359.683430612 -2774359.683430612 -9236446.088991975 0 0 0 0 0 119962041.6057913 -4695816.37305914 -4695816.37305914 -11367389.8709167 0 0 0 0 0 90474116.38251273 -19869378.49491841 -19869378.49491841 -11172718.22467281 0 0 0 0 0 87995294.70225543 -19844192.17148051 -19844192.17148051 -9974880.961588269 0 0 0 0 0 85698997.43758149 -19596002.56933069 -19596002.56933069 -8720272.922562389 0 0 0 0 0 83588009.92815627 -19134463.31361136 -19134463.31361136 -7429344.870338441 0 0 0 0 0 93079290.33749849 -19651217.45480972 -19651217.45480972 -12281846.43513744 0 0 0 0 0 95795557.09202111 -19178963.51300902 -19178963.51300902 -13263193.04284723 0 0 0 0 0 98583265.47217521 -18450040.26957777 -18450040.26957777 -14080553.71199211 0 0 0 0 0 81740330.85251088 -18493309.78268083 -18493309.78268083 -6157977.434838549 0 0 0 0 0 80117993.29630379 -17690676.575572 -17690676.575572 -4935404.029312304 0 0 0 0 0 101396953.4660379 -17468038.30654566 -17468038.30654566 -14697741.58966751 0 0 0 0 0 104187763.7378383 -16245301.21261689 -16245301.21261689 -15081280.84114677 0 0 0 0 0 106904074.4640698 -14801888.35428391 -14801888.35428391 -15206863.22262756 0 0 0 0 0 78713700.81449313 -16762498.23439063 -16762498.23439063 -3757439.295066079 0 0 0 0 0 109500934.3719922 -13161593.85409378 -13161593.85409378 -15046682.78113176 0 0 0 0 0 111924460.0284825 -11368742.32728755 -11368742.32728755 -14600134.67184372 0 0 0 0 0 114147092.3551713 -9448373.765789978 -9448373.765789978 -13847506.71064961 0 0 0 0 0 116109987.9468244 -7467674.10475667 -7467674.10475667 -12818056.87458513 0 0 0 0 0 117784326.1754813 -5470816.762742205 -5470816.762742205 -11524092.96478364 0 0 0 0 0 79311552.08451408 -15060118.67617086 -15060118.67617086 -2259519.040077 0 0 0 0 0 78758244.43819574 -15002353.68343494 -15002353.68343494 -2434617.078997462 0 0 0 0 0 79318488.13110682 -13446855.8635948 -13446855.8635948 -1248941.208115287 0 0 0 0 0 79977888.10631713 -10477836.01810429 -10477836.01810429 156596.4541729403 0 0 0 0 0 79538780.71868318 -11862629.41341857 -11862629.41341857 -494221.557297706 0 0 0 0 0 79072443.92186169 -13364285.72020179 -13364285.72020179 -1357992.336874161 0 0 0 0 0 80167101.05467924 -12795011.33544304 -12795011.33544304 -1255363.00426292 0 0 0 0 0 80491144.94853687 -9404557.250085268 -9404557.250085268 931314.5590205539 0 0 0 0 0 80461472.60040276 -10379787.68461772 -10379787.68461772 297131.4072036757 0 0 0 0 0 169558417.1082101 -1583011.188137184 -1583011.188137184 36913625.52364539 0 0 0 0 0 152695743.8369628 2726089.765154198 2726089.765154198 34198310.98908523 0 0 0 0 0 156740734.9188828 1796495.75494058 1796495.75494058 35984970.58129716 0 0 0 0 0 160346300.5521867 1032072.379029 1032072.379029 37008357.77754036 0 0 0 0 0 148861039.8552533 3739378.250129945 3739378.250129945 31988341.40198622 0 0 0 0 0 145466230.0258968 4674251.004265453 4674251.004265453 29074674.5886198 0 0 0 0 0 142386457.2705218 5409225.397017208 5409225.397017208 25740969.15182939 0 0 0 0 0 139671370.2389943 5942497.018099075 5942497.018099075 22186735.95946332 0 0 0 0 0 137253669.0138019 6229345.869305368 6229345.869305368 18548704.79434993 0 0 0 0 0 135104229.2715123 6268509.329235763 6268509.329235763 14940777.63015694 0 0 0 0 0 133152980.9886846 6067103.701731275 6067103.701731275 11472803.16359169 0 0 0 0 0 131358413.5700477 5659046.298284187 5659046.298284187 8222389.452821717 0 0 0 0 0 129685384.0539695 5083162.501274774 5083162.501274774 5244571.906891119 0 0 0 0 0 128101649.4691743 4378556.942616845 4378556.942616845 2562684.806687929 0 0 0 0 0 126577014.9029154 3580521.927685723 3580521.927685723 187685.8721371991 0 0 0 0 0 125105375.8999766 2731962.088923878 2731962.088923878 -1875993.5991238 0 0 0 0 0 124430554.9087263 516598.9939559489 516598.9939559489 -5927846.623680336 0 0 0 0 0 123125835.1854634 32701.62913871792 32701.62913871792 -6004027.57037941 0 0 0 0 0 121643661.6693268 -810485.0541144557 -810485.0541144557 -7254392.246774402 0 0 0 0 0 120980637.3029909 -2796633.632552686 -2796633.632552686 -9878864.928326223 0 0 0 0 0 119156788.6850545 -3500627.312524139 -3500627.312524139 -9986932.249389624 0 0 0 0 0 93259496.03721118 -18686271.85331381 -18686271.85331381 -9930472.025688002 0 0 0 0 0 90740129.59210758 -18699325.48623995 -18699325.48623995 -8804490.791020654 0 0 0 0 0 88348302.07437797 -18503382.00874576 -18503382.00874576 -7648325.163359904 0 0 0 0 0 86100918.30922952 -18113480.9022546 -18113480.9022546 -6487219.957229393 0 0 0 0 0 95881564.19167528 -18450119.71383088 -18450119.71383088 -10984874.6682926 0 0 0 0 0 98571969.15256764 -17981577.58128189 -17981577.58128189 -11942750.23137056 0 0 0 0 0 101289818.8002162 -17279518.95814873 -17279518.95814873 -12772557.92879676 0 0 0 0 0 84069715.73755486 -17548500.59106769 -17548500.59106769 -5356278.080764525 0 0 0 0 0 82285989.45352335 -16835522.43097196 -16835522.43097196 -4263572.477048364 0 0 0 0 0 103984908.3121507 -16348063.98465309 -16348063.98465309 -13442399.24460139 0 0 0 0 0 106609588.2439476 -15199210.0661345 -15199210.0661345 -13921667.13791166 0 0 0 0 0 109120270.3229438 -13853249.72311841 -13853249.72311841 -14182482.81290795 0 0 0 0 0 80689667.3930508 -15997244.83660131 -15997244.83660131 -3223937.982412397 0 0 0 0 0 111465609.7093179 -12335257.093599 -12335257.093599 -14204037.47990719 0 0 0 0 0 113609189.2844919 -10678508.09790021 -10678508.09790021 -13968732.27255355 0 0 0 0 0 115510754.321046 -8918493.107104756 -8918493.107104756 -13470219.42897723 0 0 0 0 0 117153297.1409857 -7098933.960481445 -7098933.960481445 -12707130.45181878 0 0 0 0 0 118513017.4947354 -5263535.827569745 -5263535.827569745 -11686565.58786385 0 0 0 0 0 79842569.87716362 -15966964.12598299 -15966964.12598299 -3459049.077958795 0 0 0 0 0 80388731.54392247 -14389125.12480128 -14389125.12480128 -2079639.672475751 0 0 0 0 0 79896084.09765033 -14324570.21191696 -14324570.21191696 -2243212.115774992 0 0 0 0 0 80644678.84964593 -11376388.68250116 -11376388.68250116 -434647.8915468816 0 0 0 0 0 80626008.69286209 -11462211.97232447 -11462211.97232447 -403381.6244766285 0 0 0 0 0 80404320.18100686 -12880737.70334798 -12880737.70334798 -1146890.799665991 0 0 0 0 0 81414681.2415334 -12343044.81914484 -12343044.81914484 -1062981.786744972 0 0 0 0 0 80593734.45845525 -9353422.05839229 -9353422.05839229 464185.2929662461 0 0 0 0 0 80963708.79864717 -10155833.24574319 -10155833.24574319 77865.16141695718 0 0 0 0 0 162064989.6048754 541410.6773033851 541410.6773033851 36789730.79340848 0 0 0 0 0 148025064.1773135 1073298.460686809 1073298.460686809 33189485.11919118 0 0 0 0 0 150649391.1081111 135191.0075230565 135191.0075230565 35357491.3608253 0 0 0 0 0 153275732.0464475 -497243.484138935 -497243.484138935 36543129.24222484 0 0 0 0 0 156971388.852239 -860127.867251801 -860127.867251801 36869466.42537964 0 0 0 0 0 145049574.5718754 2122130.505926527 2122130.505926527 30312240.89420978 0 0 0 0 0 142268412.6188511 3155203.981082553 3155203.981082553 26894577.38269465 0 0 0 0 0 139716745.799356 3996091.99484384 3996091.99484384 23236934.00461391 0 0 0 0 0 137424502.0042354 4621243.329038551 4621243.329038551 19453089.61540204 0 0 0 0 0 135343161.0804511 4994067.798868801 4994067.798868801 15694161.2265947 0 0 0 0 0 133468473.6512419 5119747.764493337 5119747.764493337 12067721.14491251 0 0 0 0 0 131751153.7488773 5011077.399448747 5011077.399448747 8675916.501996433 0 0 0 0 0 130163255.2760727 4701555.964272777 4701555.964272777 5576112.438325992 0 0 0 0 0 128666266.2715482 4224378.50637085 4224378.50637085 2794105.961265797 0 0 0 0 0 127245895.354698 3621583.277531744 3621583.277531744 338684.7973244557 0 0 0 0 0 125880947.0283193 2932141.225412507 2932141.225412507 -1785296.148943592 0 0 0 0 0 124560322.5206753 2188119.069403953 2188119.069403953 -3589113.895178522 0 0 0 0 0 123679972.8713736 1863125.250860118 1863125.250860118 -3639138.58804117 0 0 0 0 0 123017263.3341083 -253679.3675023008 -253679.3675023008 -7191967.570253007 0 0 0 0 0 121664136.389797 -1001019.288357055 -1001019.288357055 -8183506.421072622 0 0 0 0 0 120212678.4457137 -1607355.375528931 -1607355.375528931 -8242256.17631255 0 0 0 0 0 119580954.5623805 -3451788.449476918 -3451788.449476918 -10424298.05938598 0 0 0 0 0 93076768.9298045 -18829405.44053469 -18829405.44053469 -11511425.48542173 0 0 0 0 0 90666328.18176678 -18989569.56125891 -18989569.56125891 -10443051.21266936 0 0 0 0 0 88355731.91300428 -18933523.4545413 -18933523.4545413 -9297677.171010138 0 0 0 0 0 86248312.08153601 -18670636.72927886 -18670636.72927886 -8095368.801235002 0 0 0 0 0 84351998.5701714 -18213521.49546446 -18213521.49546446 -6888456.47869282 0 0 0 0 0 95581706.81962837 -18440904.21361936 -18440904.21361936 -12475744.79882338 0 0 0 0 0 98160009.91778411 -17817647.66669534 -17817647.66669534 -13300554.42559412 0 0 0 0 0 100773202.1316647 -16960254.39436977 -16960254.39436977 -13951283.6150743 0 0 0 0 0 82637766.1965933 -17592794.13222375 -17592794.13222375 -5699675.245415801 0 0 0 0 0 81124527.43055448 -16841020.06111168 -16841020.06111168 -4558511.814466152 0 0 0 0 0 103376451.9317663 -15877731.19767713 -15877731.19767713 -14399203.97104829 0 0 0 0 0 105924014.9661075 -14588442.01642423 -14588442.01642423 -14621509.23189023 0 0 0 0 0 108373984.338108 -13112152.68303831 -13112152.68303831 -14592894.96450734 0 0 0 0 0 110676953.9177723 -11481793.4485718 -11481793.4485718 -14304233.86756712 0 0 0 0 0 112799083.0012187 -9729469.232832273 -9729469.232832273 -13744674.35529542 0 0 0 0 0 114704664.9612994 -7895728.582383199 -7895728.582383199 -12918488.11457219 0 0 0 0 0 116361858.2648126 -6025966.867269744 -6025966.867269744 -11840562.23925678 0 0 0 0 0 117753083.4846194 -4159831.638732573 -4159831.638732573 -10525838.90001554 0 0 0 0 0 81651957.99625345 -15264056.57868454 -15264056.57868454 -2982138.406001875 0 0 0 0 0 80905177.57808097 -15222998.55440328 -15222998.55440328 -3199503.284819975 0 0 0 0 0 81403156.83821419 -13759974.67146773 -13759974.67146773 -1921204.23976883 0 0 0 0 0 81590849.70544904 -11014844.41279732 -11014844.41279732 -386239.6806612752 0 0 0 0 0 81186014.14570068 -12259391.82817649 -12259391.82817649 -1168107.068134394 0 0 0 0 0 80941106.23351738 -13689549.17961325 -13689549.17961325 -2079958.314051522 0 0 0 0 0 81910870.95858034 -13092348.60518683 -13092348.60518683 -1934200.921467949 0 0 0 0 0 81712212.89986999 -10020441.25568656 -10020441.25568656 303356.9975435169 0 0 0 0 0 81791394.41701004 -10935328.78897966 -10935328.78897966 -350320.1350203134 0 0 0 0 0 145493040.644461 3793469.932649811 3793469.932649811 33224869.84348168 0 0 0 0 0 148492880.9164466 2783814.856605184 2783814.856605184 35080018.61391329 0 0 0 0 0 151245513.6428952 1817143.746783902 1817143.746783902 36355366.9450311 0 0 0 0 0 153665024.4856752 938404.3627527213 938404.3627527213 36746173.61046046 0 0 0 0 0 142704566.486049 4830101.217048503 4830101.217048503 30781394.02220941 0 0 0 0 0 140142564.3864996 5727792.706525244 5727792.706525244 27887345.56123147 0 0 0 0 0 137844228.4295565 6413382.705512215 6413382.705512215 24675955.12585341 0 0 0 0 0 135773225.7604594 6865516.64046606 6865516.64046606 21302292.36681052 0 0 0 0 0 133919818.4728095 7075296.026816041 7075296.026816041 17875406.373259 0 0 0 0 0 132225524.6871233 7043480.020929933 7043480.020929933 14507873.73607819 0 0 0 0 0 130665784.9185037 6795007.611102414 6795007.611102414 11278883.79705657 0 0 0 0 0 129199924.2603554 6358813.984244261 6358813.984244261 8255100.429103688 0 0 0 0 0 127811530.9275431 5774419.793511679 5774419.793511679 5477686.82674145 0 0 0 0 0 126468942.3356766 5073612.40257795 5073612.40257795 2969518.352190694 0 0 0 0 0 125160747.9942954 4294756.428867924 4294756.428867924 738990.0073337101 0 0 0 0 0 123881598.3368825 3468258.794102951 3468258.794102951 -1208715.775917525 0 0 0 0 0 123277921.0924338 1422541.915350391 1422541.915350391 -5091430.214159289 0 0 0 0 0 122301582.0012207 1002625.26286808 1002625.26286808 -5119587.566711357 0 0 0 0 0 120964698.5828911 171992.2879085465 171992.2879085465 -6330895.436509894 0 0 0 0 0 120355788.8213919 -1709159.062171497 -1709159.062171497 -8947629.604954416 0 0 0 0 0 118864493.0597212 -2339480.006664847 -2339480.006664847 -8999352.443086395 0 0 0 0 0 95676278.8167557 -17712364.56723498 -17712364.56723498 -10290376.70211332 0 0 0 0 0 93254680.12779975 -17890959.52659261 -17890959.52659261 -9272700.68441028 0 0 0 0 0 90917476.07017307 -17871090.98421816 -17871090.98421816 -8191977.399741799 0 0 0 0 0 88682657.36521409 -17659931.49229416 -17659931.49229416 -7107730.831670173 0 0 0 0 0 86650791.78252479 -17270637.33949317 -17270637.33949317 -6030372.345468213 0 0 0 0 0 98165564.10875818 -17322636.57936172 -17322636.57936172 -11223839.27297833 0 0 0 0 0 100686257.3235486 -16717997.12192575 -16717997.12192575 -12049400.84741241 0 0 0 0 0 103196096.2979076 -15903179.25851912 -15903179.25851912 -12738093.91277642 0 0 0 0 0 84792033.29941359 -16727401.68271725 -16727401.68271725 -4967141.938392664 0 0 0 0 0 83129015.77024464 -16052292.72938246 -16052292.72938246 -3944541.195313262 0 0 0 0 0 105653747.5317791 -14884948.78559493 -14884948.78559493 -13262109.85149748 0 0 0 0 0 108019702.9196608 -13678935.67861768 -13678935.67861768 -13596215.60975834 0 0 0 0 0 110249537.0247178 -12307543.69299934 -12307543.69299934 -13717492.49458205 0 0 0 0 0 112306648.3578132 -10796663.90498273 -10796663.90498273 -13611089.85173073 0 0 0 0 0 114157230.0893206 -9178824.055966854 -9178824.055966854 -13264037.16668127 0 0 0 0 0 115776273.3227822 -7489797.359059522 -7489797.359059522 -12675318.70324168 0 0 0 0 0 117147881.7903127 -5766290.129450507 -5766290.129450507 -11844571.67379291 0 0 0 0 0 118252837.6111958 -4048995.750436956 -4048995.750436956 -10786150.33734564 0 0 0 0 0 82100573.42613493 -16040349.67524249 -16040349.67524249 -4219205.586595568 0 0 0 0 0 82580544.63523385 -14578185.77017467 -14578185.77017467 -2763415.157226124 0 0 0 0 0 81880461.88630404 -14529046.67136496 -14529046.67136496 -2972644.10227884 0 0 0 0 0 82095657.58217166 -11768605.2660313 -11768605.2660313 -1068853.313669745 0 0 0 0 0 82352963.47330762 -11832476.49716087 -11832476.49716087 -969286.5481560166 0 0 0 0 0 82345951.63065134 -13163417.01667167 -13163417.01667167 -1782125.959257273 0 0 0 0 0 83218816.00912306 -12602685.78631919 -12602685.78631919 -1658723.597612369 0 0 0 0 0 81933161.82077517 -9911501.398015695 -9911501.398015695 -57933.12771449855 0 0 0 0 0 82363412.11648382 -10674737.08888461 -10674737.08888461 -489146.8900816657 0 0 0 0 0 141785047.3808157 2305680.069596169 2305680.069596169 31862407.36633135 0 0 0 0 0 143824391.2660149 1177485.159795376 1177485.159795376 34054459.20426255 0 0 0 0 0 146049946.9969846 135065.1978399695 135065.1978399695 35602000.28734674 0 0 0 0 0 148867563.0881638 -685951.0798555434 -685951.0798555434 36435436.76814859 0 0 0 0 0 139480915.1427244 3377594.587606151 3377594.587606151 28963856.83917561 0 0 0 0 0 137359902.9980343 4337851.218932716 4337851.218932716 25667408.54192226 0 0 0 0 0 135429491.9721304 5085087.09850709 5085087.09850709 22171717.29540463 0 0 0 0 0 133674074.242542 5601972.504575883 5601972.504575883 18611044.22029828 0 0 0 0 0 132075570.370024 5877908.876837681 5877908.876837681 15097088.56578647 0 0 0 0 0 130604402.2653383 5921007.022130487 5921007.022130487 11736051.92462808 0 0 0 0 0 129239391.9693621 5754442.186877917 5754442.186877917 8592602.069738619 0 0 0 0 0 127949931.5157987 5406238.825771794 5406238.825771794 5715335.897471978 0 0 0 0 0 126720652.9977956 4913270.884062278 4913270.884062278 3122892.655879174 0 0 0 0 0 125530864.3547873 4308017.336885743 4308017.336885743 827575.3205499233 0 0 0 0 0 124372881.3660669 3628470.07399201 3628470.07399201 -1168226.236157303 0 0 0 0 0 123238969.4652959 2903152.814790922 2903152.814790922 -2873877.485030674 0 0 0 0 0 122635966.6971439 2628324.499144369 2628324.499144369 -2881876.947275389 0 0 0 0 0 122040309.279667 662329.7605854732 662329.7605854732 -6312978.188439487 0 0 0 0 0 120836839.2550467 -74457.29744082467 -74457.29744082467 -7291581.84854567 0 0 0 0 0 119681375.783688 -614691.0955435468 -614691.0955435468 -7305688.668530797 0 0 0 0 0 119086588.1504433 -2376006.526183307 -2376006.526183307 -9519329.644383555 0 0 0 0 0 95403937.83472684 -17724410.71041029 -17724410.71041029 -11728413.06921271 0 0 0 0 0 93083933.95253374 -18042732.12462811 -18042732.12462811 -10789519.53403361 0 0 0 0 0 90829898.76603277 -18158186.96857178 -18158186.96857178 -9760719.312973 0 0 0 0 0 88729323.2754522 -18068463.13341653 -18068463.13341653 -8657568.063316084 0 0 0 0 0 86806855.81458327 -17787016.81605155 -17787016.81605155 -7522478.991682422 0 0 0 0 0 85052320.23622245 -17347007.90527107 -17347007.90527107 -6404613.701531848 0 0 0 0 0 97789825.23863806 -17193374.38377732 -17193374.38377732 -12548705.58897682 0 0 0 0 0 100216134.575741 -16449121.70735391 -16449121.70735391 -13221760.57926868 0 0 0 0 0 102639903.8683608 -15495485.82065276 -15495485.82065276 -13719257.80867064 0 0 0 0 0 83481289.97803035 -16755889.75453277 -16755889.75453277 -5292711.529239035 0 0 0 0 0 105025293.0356518 -14346220.87319002 -14346220.87319002 -14016263.95037455 0 0 0 0 0 107334350.074041 -13020965.27110466 -13020965.27110466 -14093188.28485799 0 0 0 0 0 109523152.1586659 -11540982.03935666 -11540982.03935666 -13935090.81366424 0 0 0 0 0 111553913.4687133 -9939433.580933064 -9939433.580933064 -13533484.74450884 0 0 0 0 0 113398493.7830469 -8248603.192208415 -8248603.192208415 -12886750.22507132 0 0 0 0 0 115029082.291095 -6506683.648076762 -6506683.648076762 -12002295.72838407 0 0 0 0 0 116422349.4384572 -4750545.15632765 -4750545.15632765 -10891071.95093697 0 0 0 0 0 117566198.1141543 -3017448.276766767 -3017448.276766767 -9571312.699008405 0 0 0 0 0 83938597.64653242 -15316577.68812788 -15316577.68812788 -3665215.634370589 0 0 0 0 0 82990772.04262622 -15294980.4302198 -15294980.4302198 -3924093.041042848 0 0 0 0 0 83440277.21061958 -13928963.72705122 -13928963.72705122 -2567679.230432975 0 0 0 0 0 83105559.84143226 -11399950.25740706 -11399950.25740706 -934351.3516358298 0 0 0 0 0 82753954.34564444 -12526949.44424359 -12526949.44424359 -1821104.12339933 0 0 0 0 0 82785646.63160728 -13874651.95681375 -13874651.95681375 -2767881.45151242 0 0 0 0 0 83624850.45887075 -13261268.54851216 -13261268.54851216 -2578157.9788118 0 0 0 0 0 82927234.76423818 -10552390.51726136 -10552390.51726136 -330932.2999868961 0 0 0 0 0 83179973.43135233 -11316667.86668004 -11316667.86668004 -938675.9881067734 0 0 0 0 0 139709757.7672147 4524900.776527401 4524900.776527401 31947566.2012499 0 0 0 0 0 142089560.0375431 3425530.776626805 3425530.776626805 33844888.67929254 0 0 0 0 0 144069143.9417558 2291365.858807399 2291365.858807399 35275813.79399686 0 0 0 0 0 146236758.2997844 1260636.215042183 1260636.215042183 36014012.45202127 0 0 0 0 0 137626410.2647869 5555517.075864625 5555517.075864625 29439562.43610882 0 0 0 0 0 135692169.6872286 6404942.582306734 6404942.582306734 26632965.8023598 0 0 0 0 0 133958775.055713 7040418.229450644 7040418.229450644 23578788.81112885 0 0 0 0 0 132386531.4195202 7436786.087920991 7436786.087920991 20399666.24253173 0 0 0 0 0 130952743.7291299 7596768.965227453 7596768.965227453 17200498.3237811 0 0 0 0 0 129624884.8481022 7530138.845662896 7530138.845662896 14066181.3352797 0 0 0 0 0 128373763.314344 7262805.243581591 7262805.243581591 11067776.32256717 0 0 0 0 0 127180416.0131467 6825406.960004679 6825406.960004679 8256398.108800595 0 0 0 0 0 126023665.4224544 6252421.764105574 6252421.764105574 5669281.68540886 0 0 0 0 0 124889277.7835059 5575013.772233641 5575013.772233641 3325079.493498712 0 0 0 0 0 123771085.209529 4827775.873568764 4827775.873568764 1234452.153882164 0 0 0 0 0 122668284.4697976 4040289.185951743 4040289.185951743 -601312.0890112796 0 0 0 0 0 122123930.3100224 2154611.000512191 2154611.000512191 -4314486.209551176 0 0 0 0 0 121413282.4691434 1795691.862057587 1795691.862057587 -4301944.236461082 0 0 0 0 0 120221536.4555841 988430.5261518375 988430.5261518375 -5478580.762661312 0 0 0 0 0 119657754.0401877 -783185.6254297013 -783185.6254297013 -8064967.670263815 0 0 0 0 0 118450563.144367 -1347855.359243971 -1347855.359243971 -8074893.033089146 0 0 0 0 0 97806303.62979726 -16681165.41456121 -16681165.41456121 -10545101.38993984 0 0 0 0 0 95497811.88917799 -17003611.75722397 -17003611.75722397 -9639591.778232988 0 0 0 0 0 93245947.10035367 -17136741.95090214 -17136741.95090214 -8653816.699259691 0 0 0 0 0 91079422.84245467 -17084210.86050937 -17084210.86050937 -7644543.440752033 0 0 0 0 0 89043707.84506012 -16857236.27728045 -16857236.27728045 -6623737.617081631 0 0 0 0 0 87182748.36769414 -16475599.00234171 -16475599.00234171 -5608355.544355894 0 0 0 0 0 100145531.4576464 -16164032.37839084 -16164032.37839084 -11358256.1446775 0 0 0 0 0 102482406.9920548 -15452752.80540857 -15452752.80540857 -12056922.01153574 0 0 0 0 0 104784670.1087732 -14552803.92115793 -14552803.92115793 -12611231.95487864 0 0 0 0 0 85472266.86428764 -15955798.21653678 -15955798.21653678 -4616045.884650398 0 0 0 0 0 107014743.9553524 -13474522.145052 -13474522.145052 -12997658.10424935 0 0 0 0 0 109132551.2993354 -12236125.0408753 -12236125.0408753 -13197493.75957157 0 0 0 0 0 111101060.8638196 -10864962.95059957 -10864962.95059957 -13199710.31157035 0 0 0 0 0 112897248.4960197 -9378018.072363811 -9378018.072363811 -12978334.60078285 0 0 0 0 0 114487803.1446794 -7814787.233336313 -7814787.233336313 -12538169.68838213 0 0 0 0 0 115855652.3040645 -6206064.432106938 -6206064.432106938 -11876220.4603271 0 0 0 0 0 116987968.0305316 -4586032.838008724 -4586032.838008724 -10999367.37339535 0 0 0 0 0 117874431.449927 -2989255.155588217 -2989255.155588217 -9920043.662525326 0 0 0 0 0 84272309.77509795 -15967608.45820451 -15967608.45820451 -4922606.533381816 0 0 0 0 0 84697738.63967729 -14623173.69894801 -14623173.69894801 -3410865.422809196 0 0 0 0 0 83817800.05805406 -14592942.73494842 -14592942.73494842 -3656731.721265384 0 0 0 0 0 83604673.44124739 -12032568.71357855 -12032568.71357855 -1667954.389673726 0 0 0 0 0 84024737.95454422 -12091466.0238337 -12091466.0238337 -1526495.013425626 0 0 0 0 0 84238164.91111258 -13315301.49488447 -13315301.49488447 -2388883.362308171 0 0 0 0 0 84973201.45943245 -12744764.7348841 -12744764.7348841 -2240001.1812705 0 0 0 0 0 83266521.1263054 -10376631.83661036 -10376631.83661036 -607165.8549644047 0 0 0 0 0 83774091.61349849 -11079931.25123566 -11079931.25123566 -1082754.039103282 0 0 0 0 0 136588576.7717699 3174553.087164089 3174553.087164089 30445724.36049445 0 0 0 0 0 138223537.2967243 2040648.460590912 2040648.460590912 32695979.30411544 0 0 0 0 0 139735621.6839949 765289.5259297832 765289.5259297832 34358779.18716592 0 0 0 0 0 142129816.4617398 -368567.8464463185 -368567.8464463185 35428014.22019909 0 0 0 0 0 134850570.6994295 4242918.741039261 4242918.741039261 27574138.90125487 0 0 0 0 0 133253517.5880655 5131814.790991741 5131814.790991741 24427037.56222565 0 0 0 0 0 131788857.9942452 5804489.254347724 5804489.254347724 21128816.15039114 0 0 0 0 0 130446165.0954554 6245306.936953726 6245306.936953726 17800931.45419446 0 0 0 0 0 129207572.3478827 6456429.642081893 6456429.642081893 14538806.31956027 0 0 0 0 0 128055458.3957045 6452030.20847841 6452030.20847841 11423374.87338185 0 0 0 0 0 126965125.7331695 6255339.631471087 6255339.631471087 8510234.890600534 0 0 0 0 0 125921234.9677409 5895858.113452387 5895858.113452387 5837165.751885555 0 0 0 0 0 124907506.8930696 5406107.073607099 5406107.073607099 3422211.770953088 0 0 0 0 0 123913633.9951217 4818931.655519933 4818931.655519933 1276459.042110034 0 0 0 0 0 122932642.1828535 4162187.29610437 4162187.29610437 -598496.3704278062 0 0 0 0 0 121958175.1974375 3462626.597962986 3462626.597962986 -2220095.027986361 0 0 0 0 0 121578354.6401017 3234625.262340161 3234625.262340161 -2194421.488898688 0 0 0 0 0 121040886.7959619 1416776.529918097 1416776.529918097 -5496811.375600277 0 0 0 0 0 119975938.7533453 698801.2919235621 698801.2919235621 -6457749.642047876 0 0 0 0 0 119071573.3496931 220852.4589543962 220852.4589543962 -6437677.926067153 0 0 0 0 0 118515495.9470831 -1449686.9451342 -1449686.9451342 -8657512.738517612 0 0 0 0 0 97463360.47087866 -16583656.12774379 -16583656.12774379 -11827494.03248138 0 0 0 0 0 95243517.34364882 -17035056.27879972 -17035056.27879972 -11016298.75744592 0 0 0 0 0 93077130.45196989 -17295384.3614428 -17295384.3614428 -10106669.59335587 0 0 0 0 0 91027671.31718017 -17360696.82479106 -17360696.82479106 -9112560.879248438 0 0 0 0 0 89109365.54175161 -17244062.74300552 -17244062.74300552 -8073624.201174194 0 0 0 0 0 87337764.52194014 -16958836.02582204 -16958836.02582204 -7013903.773962742 0 0 0 0 0 85720278.771796 -16530327.08108128 -16530327.08108128 -5960163.406341586 0 0 0 0 0 99717057.85164124 -15938026.36340347 -15938026.36340347 -12510717.69735301 0 0 0 0 0 101977129.2025653 -15100736.45572864 -15100736.45572864 -13041222.6731838 0 0 0 0 0 104212192.4763404 -14079420.86502287 -14079420.86502287 -13399246.84199878 0 0 0 0 0 106387827.7282664 -12890146.84648962 -12890146.84648962 -13564078.27703506 0 0 0 0 0 108465014.7419071 -11551253.47409417 -11551253.47409417 -13513497.83897343 0 0 0 0 0 110406546.0794643 -10088180.50172805 -10088180.50172805 -13244386.39624543 0 0 0 0 0 112188982.3309738 -8531833.032929188 -8531833.032929188 -12750606.19180118 0 0 0 0 0 113781742.4426949 -6915516.268588113 -6915516.268588113 -12035951.07476749 0 0 0 0 0 115170218.4802509 -5268870.893811808 -5268870.893811808 -11105174.83383161 0 0 0 0 0 116333792.4997512 -3628695.253072569 -3628695.253072569 -9976449.590409726 0 0 0 0 0 117261713.9411516 -2029865.29845626 -2029865.29845626 -8670821.386124324 0 0 0 0 0 86113974.46308848 -15228158.66154137 -15228158.66154137 -4301141.237281322 0 0 0 0 0 85006241.13441454 -15228882.94113628 -15228882.94113628 -4589659.099473366 0 0 0 0 0 85405938.18911006 -13968008.453994 -13968008.453994 -3179690.646226669 0 0 0 0 0 84739632.39026874 -11661300.11486835 -11661300.11486835 -1471653.609648033 0 0 0 0 0 84332603.25705603 -12675801.7972138 -12675801.7972138 -2444642.751187678 0 0 0 0 0 84584601.69278087 -13930150.93998566 -13930150.93998566 -3414402.468346388 0 0 0 0 0 85293090.55699937 -13316187.80873933 -13316187.80873933 -3175778.341906305 0 0 0 0 0 84222630.57026075 -10935010.9103183 -10935010.9103183 -951591.384937749 0 0 0 0 0 84592893.97605346 -11578043.3206715 -11578043.3206715 -1541051.910884728 0 0 0 0 0 134972972.2994148 4962732.398641396 4962732.398641396 30375069.92183048 0 0 0 0 0 136827036.6905681 3920943.155333229 3920943.155333229 32428508.23248245 0 0 0 0 0 138202052.3256227 2597847.442732261 2597847.442732261 33694033.72265543 0 0 0 0 0 139821926.3256316 1448864.441058266 1448864.441058266 34832466.45957133 0 0 0 0 0 133379321.9023967 5985530.3435382 5985530.3435382 28024312.53010778 0 0 0 0 0 131936002.2908585 6806706.118018122 6806706.118018122 25346500.92688479 0 0 0 0 0 130626789.5301432 7399879.797853166 7399879.797853166 22474158.38623768 0 0 0 0 0 129428750.0664048 7757359.800994774 7757359.800994774 19504930.20558029 0 0 0 0 0 128320957.5248811 7886933.373599689 7886933.373599689 16529388.80771957 0 0 0 0 0 127275849.2066741 7805173.994581668 7805173.994581668 13621704.76398519 0 0 0 0 0 126274976.6024589 7537763.058263067 7537763.058263067 10840859.22092485 0 0 0 0 0 125300330.8424535 7114523.225997103 7114523.225997103 8231407.846990041 0 0 0 0 0 124340297.7285587 6566886.00144876 6566886.00144876 5823695.662617474 0 0 0 0 0 123386078.9974248 5926190.707998416 5926190.707998416 3635811.823545158 0 0 0 0 0 122432795.6754987 5219278.349513248 5219278.349513248 1673871.504695987 0 0 0 0 0 121481482.3100424 4473242.123882993 4473242.123882993 -61403.96484567324 0 0 0 0 0 120991809.5405998 2743015.336277671 2743015.336277671 -3599883.279748917 0 0 0 0 0 120495917.9616595 2434378.649584164 2434378.649584164 -3560396.329441956 0 0 0 0 0 119437860.262558 1659957.643449571 1659957.643449571 -4697527.43986572 0 0 0 0 0 118920053.0739832 2118.613992690746 2118.613992690746 -7234707.691122822 0 0 0 0 0 117952678.5897128 -504176.9040399709 -504176.9040399709 -7213713.877406579 0 0 0 0 0 99659531.43736029 -15621217.90464979 -15621217.90464979 -10702987.28294793 0 0 0 0 0 97481930.9867336 -16060262.60242731 -16060262.60242731 -9901394.986150796 0 0 0 0 0 95337308.39859131 -16323686.419924 -16323686.419924 -9018562.148249492 0 0 0 0 0 93256489.65345615 -16410514.89218128 -16410514.89218128 -8094648.409652757 0 0 0 0 0 91275934.72047357 -16332803.65487362 -16332803.65487362 -7142404.42269304 0 0 0 0 0 89412850.94594693 -16097918.51701283 -16097918.51701283 -6179714.068710696 0 0 0 0 0 87689976.57154752 -15725109.91748883 -15725109.91748883 -5227060.637080934 0 0 0 0 0 101841691.8683282 -15001147.06416783 -15001147.06416783 -11398255.51759936 0 0 0 0 0 103997342.4241903 -14206744.34316107 -14206744.34316107 -11971233.14768327 0 0 0 0 0 106097054.2129633 -13245419.82792664 -13245419.82792664 -12400478.17333135 0 0 0 0 0 108102951.1499545 -12132279.68282685 -12132279.68282685 -12667532.92892753 0 0 0 0 0 109986126.7583784 -10890318.01094303 -10890318.01094303 -12755932.72628214 0 0 0 0 0 111723800.7818605 -9525582.145611424 -9525582.145611424 -12637521.98819529 0 0 0 0 0 113282332.359382 -8081167.16173075 -8081167.16173075 -12322619.93838147 0 0 0 0 0 114642273.3742134 -6581801.718229472 -6581801.718229472 -11803817.24828981 0 0 0 0 0 115788556.4604371 -5060089.139724195 -5060089.139724195 -11086178.47339125 0 0 0 0 0 116713800.549646 -3545145.851214991 -3545145.851214991 -10176587.67835869 0 0 0 0 0 117414841.2126086 -2067778.166473919 -2067778.166473919 -9088809.175236939 0 0 0 0 0 86345052.42150275 -15762686.00656599 -15762686.00656599 -5557613.291401473 0 0 0 0 0 86714130.63361475 -14543713.05235357 -14543713.05235357 -4014711.015964713 0 0 0 0 0 85693215.23703527 -14534204.47028885 -14534204.47028885 -4286077.135122621 0 0 0 0 0 84927830.95134111 -12106908.69398134 -12106908.69398134 -2320063.678324535 0 0 0 0 0 85727371.19670743 -12200337.81384668 -12200337.81384668 -2092957.687247704 0 0 0 0 0 86072808.66820695 -13342333.36696466 -13342333.36696466 -2957649.583542233 0 0 0 0 0 86666871.96820869 -12769518.05143479 -12769518.05143479 -2742101.865032452 0 0 0 0 0 84594166.93519416 -10734168.69529109 -10734168.69529109 -1169817.262207774 0 0 0 0 0 84995628.54036047 -11427055.60451557 -11427055.60451557 -1729862.633458481 0 0 0 0 0 132346114.4622901 3793758.3790318 3793758.3790318 28938288.06105847 0 0 0 0 0 133719176.2005455 2659263.929881085 2659263.929881085 31326264.59527697 0 0 0 0 0 134673325.3238002 1511247.533836607 1511247.533836607 33136354.72215139 0 0 0 0 0 136547600.5729671 -164371.6725650695 -164371.6725650695 34108223.17335629 0 0 0 0 0 131027156.8080374 4818399.515709017 4818399.515709017 26184429.16848049 0 0 0 0 0 129802960.613056 5648785.55675938 5648785.55675938 23207460.87518525 0 0 0 0 0 128681886.0359555 6258862.90337894 6258862.90337894 20120976.07473348 0 0 0 0 0 127647980.6374986 6644170.637273453 6644170.637273453 17026047.95453044 0 0 0 0 0 126687346.025967 6812543.717159432 6812543.717159432 14004750.47948325 0 0 0 0 0 125780586.4552477 6781565.594475431 6781565.594475431 11120515.9959394 0 0 0 0 0 124910779.6606444 6574772.461014578 6574772.461014578 8421392.330821544 0 0 0 0 0 124064217.0291288 6220723.748242554 6220723.748242554 5938577.79541525 0 0 0 0 0 123229524.5918527 5748425.115301344 5748425.115301344 3690965.619328144 0 0 0 0 0 122398426.2891872 5186276.025840179 5186276.025840179 1682776.678349612 0 0 0 0 0 121566548.2018235 4560035.988962349 4560035.988962349 -86541.65732662713 0 0 0 0 0 120733674.9958787 3894925.759558223 3894925.759558223 -1625469.554402936 0 0 0 0 0 120529229.863165 3709011.956154365 3709011.956154365 -1577735.247589793 0 0 0 0 0 120047041.3540106 2033740.133500093 2033740.133500093 -4740783.852897821 0 0 0 0 0 119103464.2084881 1339426.726227702 1339426.726227702 -5683815.342386523 0 0 0 0 0 118410171.7486527 918987.3881601198 918987.3881601198 -5637262.050863332 0 0 0 0 0 117895039.568703 -656076.4502784469 -656076.4502784469 -7841627.18016883 0 0 0 0 0 97170901.31161386 -15989968.7272256 -15989968.7272256 -11141825.00609509 0 0 0 0 0 99267809.8361083 -15430229.83135483 -15430229.83135483 -11823220.4385821 0 0 0 0 0 95107790.31329559 -16371686.85816124 -16371686.85816124 -10349076.33078664 0 0 0 0 0 93123435.08974828 -16570301.51184567 -16570301.51184567 -9461304.328561842 0 0 0 0 0 91241013.73383775 -16596575.64917334 -16596575.64917334 -8519700.020996129 0 0 0 0 0 89472499.98535143 -16463415.00577849 -16463415.00577849 -7542522.507225513 0 0 0 0 0 87837167.30546144 -16178845.32844979 -16178845.32844979 -6547106.447591042 0 0 0 0 0 101378576.1132769 -14695591.95911698 -14695591.95911698 -12378239.13625939 0 0 0 0 0 103470938.3095401 -13790213.52095652 -13790213.52095652 -12780280.70719584 0 0 0 0 0 105519552.0075915 -12724774.01288119 -12724774.01288119 -13009159.95631114 0 0 0 0 0 107487460.4585781 -11516129.28294878 -11516129.28294878 -13046939.96718222 0 0 0 0 0 109345701.5756042 -10184617.56322389 -10184617.56322389 -12894228.57518961 0 0 0 0 0 111066019.5240962 -8754262.898428895 -8754262.898428895 -12533654.59465614 0 0 0 0 0 112620338.7237552 -7255205.546265117 -7255205.546265117 -11967082.80766209 0 0 0 0 0 113990097.2187917 -5719426.569828372 -5719426.569828372 -11200117.12855619 0 0 0 0 0 115162503.4233883 -4173749.121993344 -4173749.121993344 -10241910.68109403 0 0 0 0 0 116123696.401495 -2650260.534879015 -2650260.534879015 -9110044.353491969 0 0 0 0 0 116868358.5134173 -1179597.282302639 -1179597.282302639 -7826377.583540344 0 0 0 0 0 88170475.85374574 -15016876.56641633 -15016876.56641633 -4879771.884310265 0 0 0 0 0 86927201.68730623 -15041792.9589913 -15041792.9589913 -5190497.068453319 0 0 0 0 0 87273886.07713741 -13900941.13830997 -13900941.13830997 -3758305.485427788 0 0 0 0 0 86230361.57991786 -11829841.29810756 -11829841.29810756 -1864463.87721507 0 0 0 0 0 86029249.55456474 -12754419.94805188 -12754419.94805188 -2919530.724130423 0 0 0 0 0 86334827.23603274 -13877608.25309258 -13877608.25309258 -4015798.194950725 0 0 0 0 0 86949483.22741826 -13284031.45980377 -13284031.45980377 -3720118.975268202 0 0 0 0 0 85547407.50437626 -11261042.90219142 -11261042.90219142 -1548533.012991461 0 0 0 0 0 131024067.6675859 5240772.487572943 5240772.487572943 28864849.6962254 0 0 0 0 0 132366218.310537 4048532.765863692 4048532.765863692 30721201.47804289 0 0 0 0 0 133991939.4782633 2399260.724859796 2399260.724859796 31549954.40454168 0 0 0 0 0 134318220.4395441 1493395.940783864 1493395.940783864 33575841.87625705 0 0 0 0 0 129832937.5893502 6243636.76647964 6243636.76647964 26599313.08986339 0 0 0 0 0 128744728.6421667 7023145.930639287 7023145.930639287 24079775.81848384 0 0 0 0 0 127753016.4608326 7575750.511296619 7575750.511296619 21391541.70030272 0 0 0 0 0 126838707.7930635 7901146.338616254 7901146.338616254 18629766.04111525 0 0 0 0 0 125980414.6808774 8011583.179011559 8011583.179011559 15870232.336318 0 0 0 0 0 125159086.7870169 7926249.769394825 7926249.769394825 13177321.27653292 0 0 0 0 0 124357703.7397935 7670025.303123439 7670025.303123439 10601813.50766284 0 0 0 0 0 123563428.5926586 7270597.095115571 7270597.095115571 8181094.842643612 0 0 0 0 0 122767831.6848971 6756884.94884289 6756884.94884289 5940574.013997639 0 0 0 0 0 121965676.5880186 6156343.384786261 6156343.384786261 3896102.636440356 0 0 0 0 0 121154198.5037166 5493760.542947428 5493760.542947428 2054113.081493057 0 0 0 0 0 120331893.7239313 4792838.476551038 4792838.476551038 415882.2152511666 0 0 0 0 0 119897661.9010112 3210805.261839395 3210805.261839395 -2944381.423800951 0 0 0 0 0 119573010.0634553 2946919.78930564 2946919.78930564 -2886210.776648744 0 0 0 0 0 118636896.8316518 2209387.004616421 2209387.004616421 -3984054.56507076 0 0 0 0 0 118164135.1900077 663784.5099876573 663784.5099876573 -6458840.833348695 0 0 0 0 0 117398189.1399347 211762.947638654 211762.947638654 -6414648.071167376 0 0 0 0 0 99235497.23122379 -15083468.87582903 -15083468.87582903 -10074137.9311066 0 0 0 0 0 101267895.7391931 -14544672.18321933 -14544672.18321933 -10763333.44765097 0 0 0 0 0 97206962.03821224 -15458092.39785279 -15458092.39785279 -9295240.491849186 0 0 0 0 0 95217842.49293257 -15665710.20080535 -15665710.20080535 -8455711.589620227 0 0 0 0 0 93304127.29054934 -15716339.31167831 -15716339.31167831 -7578708.686687504 0 0 0 0 0 91480639.37047398 -15617802.48841694 -15617802.48841694 -6678033.565529258 0 0 0 0 0 89763416.10127367 -15379151.12986682 -15379151.12986682 -5772227.36457703 0 0 0 0 0 103287838.1499896 -13847786.18666064 -13847786.18666064 -11348809.22709385 0 0 0 0 0 105266730.9047659 -12990871.1399971 -12990871.1399971 -11804706.96221036 0 0 0 0 0 107167885.3264634 -11991324.93758565 -11991324.93758565 -12119493.39059296 0 0 0 0 0 108965159.3238585 -10863659.98454354 -10863659.98454354 -12272951.36657174 0 0 0 0 0 110636661.9626598 -9623106.571511067 -9623106.571511067 -12249466.19660794 0 0 0 0 0 112157726.838127 -8290749.570927874 -8290749.570927874 -12043366.41273404 0 0 0 0 0 113500787.760896 -6898390.982432192 -6898390.982432192 -11650763.8398092 0 0 0 0 0 114653856.5332945 -5472613.804687575 -5472613.804687575 -11071874.7097562 0 0 0 0 0 115605827.3862603 -4042377.129054266 -4042377.129054266 -10314571.10904969 0 0 0 0 0 116354433.2393416 -2632173.610701929 -2632173.610701929 -9384700.388019247 0 0 0 0 0 116898907.2374738 -1269440.133575189 -1269440.133575189 -8298450.299024943 0 0 0 0 0 88306866.56859899 -15442248.20557931 -15442248.20557931 -6117931.064985089 0 0 0 0 0 88621388.57989828 -14349783.70610517 -14349783.70610517 -4562140.81295315 0 0 0 0 0 87471382.0066538 -14364112.71633878 -14364112.71633878 -4854221.3505405 0 0 0 0 0 86236547.33978157 -11675288.32437417 -11675288.32437417 -2306156.748974145 0 0 0 0 0 87066150.93298775 -12256946.75336929 -12256946.75336929 -2792032.904988175 0 0 0 0 0 87808118.69489703 -13286295.29744332 -13286295.29744332 -3490601.349248333 0 0 0 0 0 88263077.25531022 -12745658.94139608 -12745658.94139608 -3340076.732235502 0 0 0 0 0 85997087.33642781 -10994992.00855659 -10994992.00855659 -1708733.183842313 0 0 0 0 0 128862159.5654926 4223528.866409257 4223528.866409257 27436729.54839886 0 0 0 0 0 130051737.453397 3094560.922411218 3094560.922411218 29734442.33552376 0 0 0 0 0 131450673.2694257 2118970.981096234 2118970.981096234 31706796.4898996 0 0 0 0 0 131353308.8540411 2232452.589124653 2232452.589124653 32926726.78426865 0 0 0 0 0 132272277.882631 130721.014248436 130721.014248436 32319380.64151854 0 0 0 0 0 127813376.6592198 5199847.72223994 5199847.72223994 24822578.90527043 0 0 0 0 0 126869498.0232922 5969421.680564014 5969421.680564014 22030376.23292051 0 0 0 0 0 126005015.9771909 6524940.208458994 6524940.208458994 19157037.0867227 0 0 0 0 0 125208466.4080399 6866558.438180055 6866558.438180055 16287609.2782108 0 0 0 0 0 124461774.7924014 7006273.443372103 7006273.443372103 13492117.72294062 0 0 0 0 0 123748957.7392663 6962306.987113394 6962306.987113394 10824347.07443226 0 0 0 0 0 123054678.1129314 6757593.802847481 6757593.802847481 8324544.519363578 0 0 0 0 0 122367284.7321955 6417748.213751649 6417748.213751649 6018979.592673914 0 0 0 0 0 121679970.4020996 5970178.998018305 5970178.998018305 3922100.566385804 0 0 0 0 0 120985797.8174362 5439461.591139277 5439461.591139277 2039567.603236275 0 0 0 0 0 120282653.1096027 4849561.634434791 4849561.634434791 372327.9057446739 0 0 0 0 0 119568776.771075 4222424.210722173 4222424.210722173 -1086820.55636951 0 0 0 0 0 119502499.5178778 4074426.798034746 4074426.798034746 -1024013.717020289 0 0 0 0 0 119070548.4028633 2533117.379171902 2533117.379171902 -4045993.101044243 0 0 0 0 0 118238647.7874677 1868293.180546086 1868293.180546086 -4967348.566896311 0 0 0 0 0 117717658.9917243 1498297.437761746 1498297.437761746 -4904331.385665586 0 0 0 0 0 117244728.4991945 21267.39512853969 21267.39512853969 -7075246.153961333 0 0 0 0 0 96921909.76624237 -15408752.57388668 -15408752.57388668 -10490252.87032143 0 0 0 0 0 98878071.60687044 -14926529.92142595 -14926529.92142595 -11171494.56821166 0 0 0 0 0 100844952.3753285 -14284741.17997419 -14284741.17997419 -11738113.61127084 0 0 0 0 0 95019514.04912327 -15724916.97370544 -15724916.97370544 -9716062.35685168 0 0 0 0 0 93192615.16218486 -15875398.79708837 -15875398.79708837 -8870372.568131601 0 0 0 0 0 91453617.24110284 -15873108.92488206 -15873108.92488206 -7976357.528514787 0 0 0 0 0 89821065.37173386 -15725160.62879739 -15725160.62879739 -7052737.735825351 0 0 0 0 0 102803294.2034446 -13481909.20305484 -13481909.20305484 -12171829.17138497 0 0 0 0 0 104731757.4195696 -12528912.84710889 -12528912.84710889 -12453778.29651588 0 0 0 0 0 106593210.1083846 -11439385.75649168 -11439385.75649168 -12567880.73289452 0 0 0 0 0 108360500.2561463 -10234715.66712 -10234715.66712 -12511343.12366389 0 0 0 0 0 110019303.6006203 -8921531.200395195 -8921531.200395195 -12259722.34808011 0 0 0 0 0 111533861.8217803 -7534863.153326341 -7534863.153326341 -11819090.32253677 0 0 0 0 0 112882395.5064274 -6102468.21915058 -6102468.21915058 -11193383.5294479 0 0 0 0 0 114054962.3282865 -4652063.868226115 -4652063.868226115 -10387955.26899196 0 0 0 0 0 115037675.7494389 -3208552.179295701 -3208552.179295701 -9415543.330866769 0 0 0 0 0 115824292.3902265 -1799178.663824047 -1799178.663824047 -8291989.676476203 0 0 0 0 0 116413152.7754183 -449981.3624606896 -449981.3624606896 -7037546.182032332 0 0 0 0 0 90098561.90005986 -14698499.04906434 -14698499.04906434 -5397649.065493838 0 0 0 0 0 88747009.79881039 -14746911.55477229 -14746911.55477229 -5723794.573007383 0 0 0 0 0 89042515.47463533 -13725104.48560755 -13725104.48560755 -4285198.047091961 0 0 0 0 0 86915497.40312247 -11537569.50271225 -11537569.50271225 -2071738.524652013 0 0 0 0 0 87353574.03838073 -12122438.0709104 -12122438.0709104 -2693890.367141353 0 0 0 0 0 87803857.16957389 -12757697.22612295 -12757697.22612295 -3470400.205620278 0 0 0 0 0 87925819.88195564 -13705850.53363591 -13705850.53363591 -4586810.339101217 0 0 0 0 0 88239301.07423912 -13087971.33359206 -13087971.33359206 -4263516.620097185 0 0 0 0 0 127754047.9313116 5445457.970133123 5445457.970133123 27364497.86848498 0 0 0 0 0 128788632.8643209 4323852.170775085 4323852.170775085 29202264.19039404 0 0 0 0 0 129805943.9359043 3182339.833070579 3182339.833070579 30882930.642071 0 0 0 0 0 129892656.8586105 1301122.134952812 1301122.134952812 31226557.77226677 0 0 0 0 0 130061584.4197891 1231374.50217383 1231374.50217383 32170171.60854148 0 0 0 0 0 126835658.5090456 6380792.988506809 6380792.988506809 25227350.81480407 0 0 0 0 0 126009521.2181311 7110722.612194619 7110722.612194619 22853201.06373939 0 0 0 0 0 125257467.9716273 7621544.150219515 7621544.150219515 20349130.40712863 0 0 0 0 0 124559507.1508563 7919562.466187952 7919562.466187952 17784873.16142264 0 0 0 0 0 123896642.8639277 8018038.098076924 8018038.098076924 15228378.51645811 0 0 0 0 0 123250568.7379703 7935934.545426367 7935934.545426367 12736643.00833932 0 0 0 0 0 122609206.7234696 7696835.463873157 7696835.463873157 10352476.21184004 0 0 0 0 0 121963021.114311 7326001.167107468 7326001.167107468 8106722.087861593 0 0 0 0 0 121304454.6195513 6849109.423963401 6849109.423963401 6020867.33993075 0 0 0 0 0 120630968.8473532 6291129.308041038 6291129.308041038 4110059.275116486 0 0 0 0 0 119939506.0434185 5674779.070610413 5674779.070610413 2381603.833603891 0 0 0 0 0 119231735.0384196 5021127.653617035 5021127.653617035 836021.1795645441 0 0 0 0 0 118846015.1126253 3577122.844939091 3577122.844939091 -2347508.165559873 0 0 0 0 0 118662438.0700145 3354068.495661595 3354068.495661595 -2275196.129787438 0 0 0 0 0 117833012.6189718 2654558.686311776 2654558.686311776 -3334531.132267785 0 0 0 0 0 117402503.7281662 1217875.768936608 1217875.768936608 -5737131.313585379 0 0 0 0 0 116807843.1969004 815965.0889788464 815965.0889788464 -5675310.689977596 0 0 0 0 0 98862515.23938906 -14555814.77534272 -14555814.77534272 -9479513.96741925 0 0 0 0 0 100766008.307033 -14089730.2278255 -14089730.2278255 -10159782.03289488 0 0 0 0 0 102658803.0793982 -13474726.88405372 -13474726.88405372 -10746148.91770537 0 0 0 0 0 96980718.4659908 -14869024.29494656 -14869024.29494656 -8731717.549628982 0 0 0 0 0 95143632.85772857 -15032657.70314518 -15032657.70314518 -7934001.501895353 0 0 0 0 0 93372161.30976303 -15054063.06223449 -15054063.06223449 -7100599.254475811 0 0 0 0 0 91684672.38417968 -14940335.67146838 -14940335.67146838 -6251186.928713118 0 0 0 0 0 104518516.3654102 -12714805.56697941 -12714805.56697941 -11220951.84748897 0 0 0 0 0 106318766.309726 -11817812.09921184 -11817812.09921184 -11571679.722127 0 0 0 0 0 108030948.4498082 -10796932.94072063 -10796932.94072063 -11778924.31433781 0 0 0 0 0 109636507.2767874 -9669261.423861435 -9669261.423861435 -11832364.44679347 0 0 0 0 0 111106231.262443 -8449706.862833744 -8449706.862833744 -11721933.93208505 0 0 0 0 0 112428039.4952929 -7160145.694856782 -7160145.694856782 -11437947.99527705 0 0 0 0 0 113582513.9234782 -5825770.107929541 -5825770.107929541 -10977693.28233014 0 0 0 0 0 114552131.9412299 -4480320.227531429 -4480320.227531429 -10352787.00351332 0 0 0 0 0 115336469.5305166 -3141350.545663544 -3141350.545663544 -9565288.913722973 0 0 0 0 0 115933625.3685219 -1833916.45431003 -1833916.45431003 -8626790.861812787 0 0 0 0 0 116346178.8988757 -580933.4091435471 -580933.4091435471 -7551762.746109263 0 0 0 0 0 90155601.46555211 -15028096.25371775 -15028096.25371775 -6602324.188693044 0 0 0 0 0 90421728.01465547 -14051876.36814026 -14051876.36814026 -5051611.742433028 0 0 0 0 0 89160616.57835357 -14094012.78679554 -14094012.78679554 -5357513.198436159 0 0 0 0 0 87336974.98605001 -11184811.34394023 -11184811.34394023 -2253516.957800259 0 0 0 0 0 87792826.20030585 -11754704.99547702 -11754704.99547702 -2843464.07421513 0 0 0 0 0 88251815.83391261 -12420923.46708138 -12420923.46708138 -3478768.01721185 0 0 0 0 0 89507850.08216657 -13102945.8178171 -13102945.8178171 -4019953.698263906 0 0 0 0 0 89530350.74409132 -12722633.70596071 -12722633.70596071 -3719591.519910545 0 0 0 0 0 125878884.2937932 4531502.189855236 4531502.189855236 25976277.94394279 0 0 0 0 0 126802254.9746182 3469714.884862774 3469714.884862774 28182476.38484554 0 0 0 0 0 128001308.5157615 2408978.253940141 2408978.253940141 30030677.43756746 0 0 0 0 0 127971225.1601423 2233251.429904948 2233251.429904948 30950440.18219094 0 0 0 0 0 128430368.2528484 149025.6060893039 149025.6060893039 31017934.08640164 0 0 0 0 0 125078308.6940101 5437127.944378488 5437127.944378488 23514015.11807141 0 0 0 0 0 124344621.757952 6148336.732439306 6148336.732439306 20906743.20282969 0 0 0 0 0 123681589.181813 6654096.091618366 6654096.091618366 18239439.03294143 0 0 0 0 0 123068602.2361586 6960808.260434642 6960808.260434642 15583357.16720242 0 0 0 0 0 122490221.8132266 7081185.089117404 7081185.089117404 12998625.07001285 0 0 0 0 0 121929408.8777387 7032561.501953177 7032561.501953177 10531939.72828586 0 0 0 0 0 121374921.2067726 6836886.374086466 6836886.374086466 8215939.941248305 0 0 0 0 0 120817901.7649704 6517319.419305965 6517319.419305965 6072722.900931302 0 0 0 0 0 120251963.2122323 6098011.016671591 6098011.016671591 4115534.504457538 0 0 0 0 0 119673317.3868441 5602380.228350876 5602380.228350876 2351250.604951474 0 0 0 0 0 119078191.8493247 5051050.048828455 5051050.048828455 779742.1851345523 0 0 0 0 0 118467197.825433 4463454.1510081 4463454.1510081 -604397.4811689052 0 0 0 0 0 118510534.0924149 4349134.11624739 4349134.11624739 -531173.1775232728 0 0 0 0 0 118122990.9524152 2933895.783952126 2933895.783952126 -3409736.275157245 0 0 0 0 0 117389114.4681965 2299999.56724919 2299999.56724919 -4310353.077585217 0 0 0 0 0 117015137.3167648 1977487.876775553 1977487.876775553 -4233196.262085244 0 0 0 0 0 116580657.142692 596191.6402817001 596191.6402817001 -6359167.195575809 0 0 0 0 0 98539451.69819783 -14431058.62781556 -14431058.62781556 -10554984.61162569 0 0 0 0 0 96730162.50736934 -14841014.62858779 -14841014.62858779 -9882134.204494484 0 0 0 0 0 100377569.5674064 -13866795.25884482 -13866795.25884482 -11125231.86455665 0 0 0 0 0 102212263.2082229 -13158388.21470049 -13158388.21470049 -11582559.12434924 0 0 0 0 0 94969528.60158688 -15100104.59297379 -15100104.59297379 -9131553.097345198 0 0 0 0 0 93274477.13665354 -15213390.94151417 -15213390.94151417 -8323643.040324002 0 0 0 0 0 91664271.62268749 -15186614.80832998 -15186614.80832998 -7474171.521471401 0 0 0 0 0 104021936.367592 -12307294.76588255 -12307294.76588255 -11904168.88603012 0 0 0 0 0 105781999.681079 -11326034.62023559 -11326034.62023559 -12077764.21692307 0 0 0 0 0 107464718.501033 -10232097.17811367 -10232097.17811367 -12094234.45928629 0 0 0 0 0 109052984.3854171 -9035731.32704032 -9035731.32704032 -11938323.08465835 0 0 0 0 0 110521747.8888006 -7757395.479451966 -7757395.479451966 -11607786.3575952 0 0 0 0 0 111848091.2136233 -6424800.458622325 -6424800.458622325 -11106266.3814473 0 0 0 0 0 113010985.3419601 -5067134.58281511 -5067134.58281511 -10437038.87139752 0 0 0 0 0 114004777.4727558 -3704953.48884623 -3704953.48884623 -9608270.235151406 0 0 0 0 0 114822365.9669955 -2361407.901595569 -2361407.901595569 -8631263.078488646 0 0 0 0 0 115459179.9195429 -1061249.646587458 -1061249.646587458 -7523522.908367469 0 0 0 0 0 115915793.0244636 173431.7940443666 173431.7940443666 -6304295.260238379 0 0 0 0 0 91886505.32458873 -14299697.88289382 -14299697.88289382 -5860225.164801032 0 0 0 0 0 90482881.11995065 -14370729.61489842 -14370729.61489842 -6187710.31393444 0 0 0 0 0 90730149.21670103 -13438574.35917195 -13438574.35917195 -4708283.64880604 0 0 0 0 0 88207832.46012211 -11682745.77020738 -11682745.77020738 -2714781.823370013 0 0 0 0 0 88810574.13405377 -12290285.74746766 -12290285.74746766 -3269594.935106929 0 0 0 0 0 89554245.27574509 -13484477.33932388 -13484477.33932388 -4995750.724553255 0 0 0 0 0 89485811.94073413 -12538742.8786243 -12538742.8786243 -4167567.588408367 0 0 0 0 0 124967949.2943301 5547117.915295239 5547117.915295239 25970813.21767142 0 0 0 0 0 125736790.860349 4506614.410211397 4506614.410211397 27734482.60439627 0 0 0 0 0 126614348.0355181 3357576.466403679 3357576.466403679 29485132.40644387 0 0 0 0 0 126516911.8483336 1346663.919484903 1346663.919484903 29903695.45320097 0 0 0 0 0 126619393.5548806 1066876.0692268 1066876.0692268 30595649.34592449 0 0 0 0 0 124267966.0698809 6426559.601989702 6426559.601989702 23900502.36499031 0 0 0 0 0 123643943.4429743 7101483.070794319 7101483.070794319 21684969.70515036 0 0 0 0 0 123076526.4045093 7573589.003932439 7573589.003932439 19352051.08717182 0 0 0 0 0 122546140.0661442 7848818.218459541 7848818.218459541 16973288.7317312 0 0 0 0 0 122034448.2155297 7939644.367864433 7939644.367864433 14607897.79506496 0 0 0 0 0 121527978.7092034 7864992.750445074 7864992.750445074 12302365.82913996 0 0 0 0 0 121016428.3122707 7646304.898086619 7646304.898086619 10094204.7541977 0 0 0 0 0 120491495.831444 7305630.938988456 7305630.938988456 8009694.384257062 0 0 0 0 0 119947801.8418956 6866267.075295018 6866267.075295018 6067336.0065517 0 0 0 0 0 119381867.2922955 6351574.459526054 6351574.459526054 4281531.08516675 0 0 0 0 0 118793751.8755406 5781072.376679181 5781072.376679181 2660804.683607942 0 0 0 0 0 118185380.9039604 5174370.442260242 5174370.442260242 1202044.478513639 0 0 0 0 0 117842683.7475265 3857799.065001702 3857799.065001702 -1807646.881297305 0 0 0 0 0 117773496.7373169 3671963.745621157 3671963.745621157 -1725329.992941944 0 0 0 0 0 117040227.5070591 3011078.020177 3011078.020177 -2747601.346194732 0 0 0 0 0 116648567.4173879 1679097.437472751 1679097.437472751 -5070254.646265578 0 0 0 0 0 116197281.9681828 1322870.561299399 1322870.561299399 -4995540.334346825 0 0 0 0 0 100325141.9461128 -13637610.83355434 -13637610.83355434 -9590663.289681116 0 0 0 0 0 98551376.80003938 -14038922.51628038 -14038922.51628038 -8931434.627391463 0 0 0 0 0 102096813.8024046 -13097507.1153663 -13097507.1153663 -10173788.67003392 0 0 0 0 0 103848665.5438185 -12422679.6375724 -12422679.6375724 -10661038.30549334 0 0 0 0 0 96800267.67652179 -14300648.81238281 -14300648.81238281 -8212502.167666862 0 0 0 0 0 95094679.59620754 -14427220.25442153 -14427220.25442153 -7449157.1458886 0 0 0 0 0 93450394.60961179 -14424151.5135063 -14424151.5135063 -6659153.855897237 0 0 0 0 0 105549329.9320984 -11618941.03328815 -11618941.03328815 -11036188.01551319 0 0 0 0 0 107179635.4622166 -10696676.64978 -10696676.64978 -11285978.76278831 0 0 0 0 0 108717498.5212591 -9670673.570291596 -9670673.570291596 -11398187.70531576 0 0 0 0 0 110139401.7608983 -8555142.089172777 -8555142.089172777 -11362980.26104503 0 0 0 0 0 111429563.8728471 -7365912.162318924 -7365912.162318924 -11170812.38873842 0 0 0 0 0 112571135.5952778 -6126327.274042277 -6126327.274042277 -10819302.23611334 0 0 0 0 0 113551861.4169953 -4861743.351707796 -4861743.351707796 -10311199.55950811 0 0 0 0 0 114362397.624277 -3595816.225332553 -3595816.225332553 -9651030.820236469 0 0 0 0 0 115001765.1605651 -2347522.325799819 -2347522.325799819 -8845855.441384841 0 0 0 0 0 115470103.2744063 -1138917.578453965 -1138917.578453965 -7907451.765603609 0 0 0 0 0 115772055.206898 10360.66769235737 10360.66769235737 -6850402.079385753 0 0 0 0 0 91871789.37523712 -14536435.38149635 -14536435.38149635 -7009984.617759937 0 0 0 0 0 92083934.51229644 -13697353.62267717 -13697353.62267717 -5503843.343951913 0 0 0 0 0 90810952.85611601 -13744113.5944187 -13744113.5944187 -5810398.117640291 0 0 0 0 0 88708990.49822673 -11265049.36297745 -11265049.36297745 -2764885.453764268 0 0 0 0 0 89292357.63285658 -11796920.25640173 -11796920.25640173 -3371665.91521564 0 0 0 0 0 90931299.17476027 -12872881.31346334 -12872881.31346334 -4533050.229926961 0 0 0 0 0 90613388.36441298 -12265554.7393523 -12265554.7393523 -3742106.910718737 0 0 0 0 0 90549038.25743917 -12791237.97419829 -12791237.97419829 -4653634.452091326 0 0 0 0 0 124012029.8882689 3714700.965374002 3714700.965374002 26677631.10889338 0 0 0 0 0 123360067.4427463 4718832.189359138 4718832.189359138 24584195.74476503 0 0 0 0 0 125093486.4113589 2565737.295878913 2565737.295878913 28464287.35253195 0 0 0 0 0 125006799.0157597 2235250.543728941 2235250.543728941 29613328.68479424 0 0 0 0 0 125240582.8871738 167649.8342350219 167649.8342350219 29566750.70358494 0 0 0 0 0 122715709.0461123 5568342.582175411 5568342.582175411 22270510.59885799 0 0 0 0 0 122158449.763185 6220602.674517019 6220602.674517019 19843239.95980755 0 0 0 0 0 121652902.3524039 6683442.737703743 6683442.737703743 17369650.40474039 0 0 0 0 0 121183300.3229305 6962104.602690964 6962104.602690964 14912463.84101434 0 0 0 0 0 120736092.8228886 7069431.951476648 7069431.951476648 12523569.21367942 0 0 0 0 0 120295979.6984947 7021528.207888042 7021528.207888042 10242079.4964089 0 0 0 0 0 119854181.0476449 6838934.804123565 6838934.804123565 8095241.879118863 0 0 0 0 0 119402998.0049742 6541806.750694883 6541806.750694883 6100417.48041166 0 0 0 0 0 118938782.8775132 6152992.383802308 6152992.383802308 4272911.93468151 0 0 0 0 0 118456084.1072094 5694029.287016733 5694029.287016733 2619638.674990656 0 0 0 0 0 117952323.6102516 5180717.49759525 5180717.49759525 1137753.614536426 0 0 0 0 0 117429172.7461328 4632789.818683546 4632789.818683546 -175438.8751484429 0 0 0 0 0 117559907.8241297 4548698.076114862 4548698.076114862 -95962.91098665631 0 0 0 0 0 117212348.946469 3250986.291088273 3250986.291088273 -2831968.841181435 0 0 0 0 0 116566004.5230679 2650069.782934336 2650069.782934336 -3708580.350791255 0 0 0 0 0 116310800.3941815 2369121.28517228 2369121.28517228 -3623540.873959516 0 0 0 0 0 115914948.4414071 1081981.288711773 1081981.288711773 -5692890.369213745 0 0 0 0 0 98258736.77644998 -13938678.42188256 -13938678.42188256 -9967522.441934282 0 0 0 0 0 99970289.38326627 -13448518.78256858 -13448518.78256858 -10538723.07764103 0 0 0 0 0 96575652.95405839 -14289750.77684005 -14289750.77684005 -9311635.687514864 0 0 0 0 0 101686967.286001 -12822082.09438237 -12822082.09438237 -11008933.0601745 0 0 0 0 0 103389719.8996302 -12062288.67593271 -12062288.67593271 -11359651.55707501 0 0 0 0 0 94938900.01279655 -14502835.67509299 -14502835.67509299 -8588953.537123695 0 0 0 0 0 93365252.92379211 -14582784.82163756 -14582784.82163756 -7816047.706916593 0 0 0 0 0 105050633.1955745 -11180261.03357006 -11180261.03357006 -11580634.2964849 0 0 0 0 0 106650433.9747671 -10187347.49113229 -10187347.49113229 -11658703.87924633 0 0 0 0 0 108167068.0640867 -9097468.458173437 -9097468.458173437 -11584822.82862206 0 0 0 0 0 109580655.3303182 -7926363.940029375 -7926363.940029375 -11352741.03693786 0 0 0 0 0 110873435.589501 -6694030.829822895 -6694030.829822895 -10959088.8893424 0 0 0 0 0 112027530.3915972 -5422327.315724965 -5422327.315724965 -10405394.6861934 0 0 0 0 0 113026187.6622969 -4140921.779780159 -4140921.779780159 -9704826.073107183 0 0 0 0 0 113864942.8428891 -2866226.403877297 -2866226.403877297 -8862067.812822139 0 0 0 0 0 114538847.1649784 -1620299.062517249 -1620299.062517249 -7890003.991225153 0 0 0 0 0 115046759.6303474 -424026.713179038 -424026.713179038 -6805098.272047361 0 0 0 0 0 115391204.3981514 703535.7842589292 703535.7842589292 -5625722.212886462 0 0 0 0 0 93536941.23782146 -13825886.2904221 -13825886.2904221 -6250233.628637383 0 0 0 0 0 92071581.23186186 -13920700.97413697 -13920700.97413697 -6580978.51800406 0 0 0 0 0 92284610.51571932 -13129152.4457428 -13129152.4457428 -5222127.279765602 0 0 0 0 0 89494839.6302456 -11729315.24776503 -11729315.24776503 -3312819.395600322 0 0 0 0 0 90075557.55320592 -12250105.66856543 -12250105.66856543 -3878327.097315824 0 0 0 0 0 91165524.51623242 -13195072.88424112 -13195072.88424112 -5471359.935714885 0 0 0 0 0 90494026.80787767 -12368698.14498778 -12368698.14498778 -4651419.509641402 0 0 0 0 0 91442830.10524978 -12372767.50285393 -12372767.50285393 -4443397.58706262 0 0 0 0 0 123182585.6586085 4577702.119387526 4577702.119387526 26409170.20289463 0 0 0 0 0 122578977.6706743 5582699.575894021 5582699.575894021 24569085.90609812 0 0 0 0 0 123857956.1410946 3470055.361611198 3470055.361611198 27957662.39365416 0 0 0 0 0 123810890.6236261 1417494.515696421 1417494.515696421 28503906.50767845 0 0 0 0 0 123822459.4828274 951855.4511796143 951855.4511796143 29096553.23137591 0 0 0 0 0 122050313.1849383 6394766.651729985 6394766.651729985 22651375.14409373 0 0 0 0 0 121585103.8417941 7020618.851043037 7020618.851043037 20572795.73017362 0 0 0 0 0 121161043.5606095 7458877.974759248 7458877.974759248 18405123.34555017 0 0 0 0 0 120760649.5249778 7715494.846791769 7715494.846791769 16202170.09730713 0 0 0 0 0 120367027.31072 7802206.973423336 7802206.973423336 14013045.54700145 0 0 0 0 0 119972167.8153169 7737051.103743944 7737051.103743944 11879019.16908618 0 0 0 0 0 119565722.1721574 7539794.945974341 7539794.945974341 9830267.036837561 0 0 0 0 0 119140510.9758997 7228872.163706935 7228872.163706935 7895495.548094926 0 0 0 0 0 118691516.6438293 6826523.618863357 6826523.618863357 6086297.386300069 0 0 0 0 0 118217159.0825343 6354349.748846909 6354349.748846909 4416480.60639402 0 0 0 0 0 117716846.9345403 5828057.750822718 5828057.750822718 2896792.383948393 0 0 0 0 0 117196260.1112635 5267712.314431848 5267712.314431848 1520248.380020749 0 0 0 0 0 116898002.7046639 4071154.285977844 4071154.285977844 -1318700.613493625 0 0 0 0 0 116911647.2785041 3915945.941477652 3915945.941477652 -1233949.582676859 0 0 0 0 0 116263675.273171 3294410.112883894 3294410.112883894 -2214014.26642308 0 0 0 0 0 115911246.9826869 2061293.336879932 2061293.336879932 -4453865.258297532 0 0 0 0 0 115577897.0086732 1745636.7645421 1745636.7645421 -4372179.563923049 0 0 0 0 0 99937273.18698166 -13191894.30074724 -13191894.30074724 -9057820.79904828 0 0 0 0 0 101597601.6519567 -12718654.91872015 -12718654.91872015 -9630942.75739258 0 0 0 0 0 98281769.12250343 -13537290.4536444 -13537290.4536444 -8418726.997600429 0 0 0 0 0 103242996.8284354 -12120122.16551974 -12120122.16551974 -10122142.29538697 0 0 0 0 0 104850873.6360523 -11400982.79189618 -11400982.79189618 -10516173.05019448 0 0 0 0 0 96651534.33534449 -13754980.38161086 -13754980.38161086 -7727659.738653219 0 0 0 0 0 95065005.20472944 -13848463.23512064 -13848463.23512064 -6999257.703305134 0 0 0 0 0 106402680.6215612 -10567960.38721291 -10567960.38721291 -10797370.02259851 0 0 0 0 0 107875286.0149248 -9633745.213123897 -9633745.213123897 -10955834.84128337 0 0 0 0 0 109247198.31387 -8612597.530832162 -8612597.530832162 -10981753.15538023 0 0 0 0 0 110501495.5638024 -7520024.104846938 -7520024.104846938 -10867392.41243239 0 0 0 0 0 111623854.8988167 -6373148.153351509 -6373148.153351509 -10610000.76549613 0 0 0 0 0 112603660.6123516 -5190019.465019663 -5190019.465019663 -10205897.71590317 0 0 0 0 0 113432496.0074012 -3996774.261388008 -3996774.261388008 -9658535.954300651 0 0 0 0 0 114104325.1183893 -2810785.483797113 -2810785.483797113 -8973730.839068573 0 0 0 0 0 114618750.803735 -1651115.593605027 -1651115.593605027 -8159877.136790425 0 0 0 0 0 114978252.0004591 -536247.8972033937 -536247.8972033937 -7228330.898073196 0 0 0 0 0 115187447.7147463 515842.6192341764 515842.6192341764 -6194526.080425639 0 0 0 0 0 93461548.37302342 -13982353.20160735 -13982353.20160735 -7344882.424579443 0 0 0 0 0 93628955.26746708 -13257588.97692482 -13257588.97692482 -5878024.218938645 0 0 0 0 0 92288310.49459128 -13344518.05004269 -13344518.05004269 -6180475.305120212 0 0 0 0 0 90142152.25650106 -11255999.42892459 -11255999.42892459 -3224683.95084416 0 0 0 0 0 90596125.03515036 -11796430.13601046 -11796430.13601046 -3920422.801487263 0 0 0 0 0 92494749.88118255 -12609925.80415694 -12609925.80415694 -4886196.350514977 0 0 0 0 0 91757816.74467798 -12029349.9834801 -12029349.9834801 -4163465.990905202 0 0 0 0 0 91606330.07149063 -12565148.15249112 -12565148.15249112 -5132038.018052106 0 0 0 0 0 122423272.5374968 2692075.04396114 2692075.04396114 26970668.04937408 0 0 0 0 0 121771730.2949477 3852782.238185246 3852782.238185246 25280746.05694403 0 0 0 0 0 121155572.2344678 4832494.463864099 4832494.463864099 23261195.82036408 0 0 0 0 0 122464601.9774265 2247031.510808432 2247031.510808432 27897187.87175358 0 0 0 0 0 122577756.710701 226120.0358365037 226120.0358365037 28460652.70292607 0 0 0 0 0 120677652.5169745 5611876.549202276 5611876.549202276 21096562.14240904 0 0 0 0 0 120255816.8995683 6213935.026094365 6213935.026094365 18837439.26814649 0 0 0 0 0 119872850.8865681 6639781.441432516 6639781.441432516 16544805.7309785 0 0 0 0 0 119514910.9256535 6896023.276864332 6896023.276864332 14273650.81292732 0 0 0 0 0 119168887.8521703 6994444.922223315 6994444.922223315 12065944.75656168 0 0 0 0 0 118825487.5883698 6950765.511158404 6950765.511158404 9953791.295758773 0 0 0 0 0 118476161.7396991 6784309.992880066 6784309.992880066 7962272.227981182 0 0 0 0 0 118110416.8310237 6509234.497004827 6509234.497004827 6104417.476981561 0 0 0 0 0 117730129.8783577 6152132.476680768 6152132.476680768 4398316.462994412 0 0 0 0 0 117329994.4617789 5729668.731061839 5729668.731061839 2848529.038975556 0 0 0 0 0 116902030.6087356 5253097.207183315 5253097.207183315 1451308.09233118 0 0 0 0 0 116457731.0586671 4745351.427404758 4745351.427404758 209762.729931102 0 0 0 0 0 116647951.7872172 4686634.972790398 4686634.972790398 290984.4608023734 0 0 0 0 0 116344970.3239896 3502542.598873752 3502542.598873752 -2300432.111624901 0 0 0 0 0 115772656.8207233 2933623.23631356 2933623.23631356 -3153126.313886783 0 0 0 0 0 115614744.2297197 2688231.67038129 2688231.67038129 -3064878.954604532 0 0 0 0 0 115254514.6870142 1490143.595491842 1490143.595491842 -5075030.925276185 0 0 0 0 0 98016761.66276327 -13459155.19877613 -13459155.19877613 -9414461.289017782 0 0 0 0 0 99613779.5613884 -13031968.44095539 -13031968.44095539 -9978779.444613954 0 0 0 0 0 101221567.6835069 -12478809.29063678 -12478809.29063678 -10455549.95632816 0 0 0 0 0 96448822.10731472 -13758514.39087424 -13758514.39087424 -8777072.336357826 0 0 0 0 0 102820095.7567274 -11802264.33782328 -11802264.33782328 -10828818.73128563 0 0 0 0 0 104388703.8776039 -11008648.7340149 -11008648.7340149 -11085773.8813803 0 0 0 0 0 94926478.07818264 -13931259.55022735 -13931259.55022735 -8082139.86042569 0 0 0 0 0 105909323.8718593 -10108634.78960303 -10108634.78960303 -11215481.12927231 0 0 0 0 0 107356996.6813626 -9114753.410597753 -9114753.410597753 -11208145.57621538 0 0 0 0 0 108713944.6027691 -8042795.476695051 -8042795.476695051 -11057840.92342933 0 0 0 0 0 109967113.6268649 -6905957.355637112 -6905957.355637112 -10758228.14580697 0 0 0 0 0 111102737.9960774 -5723090.222932414 -5723090.222932414 -10310362.85233845 0 0 0 0 0 112100220.4992659 -4520189.967715869 -4520189.967715869 -9722646.176275857 0 0 0 0 0 112952623.574241 -3315315.948340485 -3315315.948340485 -9000449.086241614 0 0 0 0 0 113654714.6936358 -2126970.3608574 -2126970.3608574 -8152784.998097703 0 0 0 0 0 114204107.9354668 -974711.3236044571 -974711.3236044571 -7193075.336577042 0 0 0 0 0 114602142.4075101 123749.5682493961 123749.5682493961 -6135537.049620572 0 0 0 0 0 114852318.4858653 1151977.256742333 1151977.256742333 -4997736.829426727 0 0 0 0 0 95053273.89119503 -13295267.64242077 -13295267.64242077 -6581983.490458829 0 0 0 0 0 93566059.97295706 -13413172.77189763 -13413172.77189763 -6905920.243170864 0 0 0 0 0 93723485.25182745 -12732725.4836897 -12732725.4836897 -5529238.565849444 0 0 0 0 0 90827128.58527087 -11704134.65959976 -11704134.65959976 -3823250.2668355 0 0 0 0 0 92547216.20157853 -12798628.68484948 -12798628.68484948 -5800351.468981694 0 0 0 0 0 91582752.90133578 -12019651.18961834 -12019651.18961834 -4746012.482809785 0 0 0 0 0 92824125.32061879 -12006349.08783298 -12006349.08783298 -4598219.326417301 0 0 0 0 0 121483728.1065303 3492267.62665996 3492267.62665996 26651521.80387358 0 0 0 0 0 120990526.9963427 4611692.057858835 4611692.057858835 24815272.30765782 0 0 0 0 0 120516359.1891832 5543641.752127868 5543641.752127868 23264600.63091998 0 0 0 0 0 121335914.9820764 1481691.948963428 1481691.948963428 26823150.42376776 0 0 0 0 0 121365892.3842106 973916.2770154116 973916.2770154116 27717157.67153176 0 0 0 0 0 120127006.2398908 6305842.643767958 6305842.643767958 21457127.5737519 0 0 0 0 0 119784034.4783737 6890533.932895963 6890533.932895963 19522624.06843807 0 0 0 0 0 119468659.9803026 7299131.980886027 7299131.980886027 17510239.73223959 0 0 0 0 0 119168742.7841055 7539161.623653963 7539161.623653963 15468984.64036541 0 0 0 0 0 118871089.041935 7623684.858165211 7623684.858165211 13440337.92536824 0 0 0 0 0 118565485.2827891 7568558.215363727 7568558.215363727 11463019.57382909 0 0 0 0 0 118245692.7979504 7392824.475326839 7392824.475326839 9563120.572289968 0 0 0 0 0 117900303.4860581 7110770.100889853 7110770.100889853 7776452.265513477 0 0 0 0 0 117530311.5689948 6745234.387185207 6745234.387185207 6087351.172280658 0 0 0 0 0 117132861.8887217 6312553.618646638 6312553.618646638 4522814.349074397 0 0 0 0 0 116708306.3412955 5829797.68681223 5829797.68681223 3095133.028363753 0 0 0 0 0 116260954.1662664 5312649.101307188 5312649.101307188 1797942.589203489 0 0 0 0 0 115999588.0790721 4224759.38812287 4224759.38812287 -875757.1792914829 0 0 0 0 0 116084559.0085322 4101088.001816455 4101088.001816455 -788033.1846690068 0 0 0 0 0 115514317.9811303 3519205.189735534 3519205.189735534 -1729120.149716756 0 0 0 0 0 115189529.8796223 2373593.674306529 2373593.674306529 -3887650.267745447 0 0 0 0 0 114962005.1471424 2096676.240316621 2096676.240316621 -3797516.377411838 0 0 0 0 0 99594931.68441436 -12756191.73032812 -12756191.73032812 -8556482.984810421 0 0 0 0 0 101150993.5352393 -12341654.74753834 -12341654.74753834 -9117122.219637077 0 0 0 0 0 102699226.8281223 -11810932.2373399 -11810932.2373399 -9606846.37254975 0 0 0 0 0 98048232.65795666 -13052788.74695391 -13052788.74695391 -7938623.885533573 0 0 0 0 0 104218076.4221715 -11166732.06745236 -11166732.06745236 -10011374.0011885 0 0 0 0 0 105689211.0088833 -10416941.19408603 -10416941.19408603 -10317716.25515733 0 0 0 0 0 96529503.99040836 -13231321.42392935 -13231321.42392935 -7276510.413297298 0 0 0 0 0 107093407.4890791 -9569793.591873245 -9569793.591873245 -10515762.95963271 0 0 0 0 0 108413978.6480908 -8635744.494798029 -8635744.494798029 -10593964.59030436 0 0 0 0 0 109633509.3502864 -7630488.697780478 -7630488.697780478 -10544901.26313611 0 0 0 0 0 110736168.6082676 -6568461.232659505 -6568461.232659505 -10364161.01346525 0 0 0 0 0 111709079.7224909 -5467898.298464336 -5467898.298464336 -10049996.87359647 0 0 0 0 0 112547769.7604356 -4346653.136647945 -4346653.136647945 -9602021.907758143 0 0 0 0 0 113243732.0562676 -3224343.814108323 -3224343.814108323 -9024835.498497482 0 0 0 0 0 113795341.3131137 -2116809.166018861 -2116809.166018861 -8323501.428529066 0 0 0 0 0 114203405.472082 -1041506.317261126 -1041506.317261126 -7507375.781099407 0 0 0 0 0 114470291.7267969 -15921.4322910992 -15921.4322910992 -6589570.100488965 0 0 0 0 0 114602248.8312589 945372.1189056701 945372.1189056701 -5583505.898538796 0 0 0 0 0 94931830.46336646 -13385334.61624349 -13385334.61624349 -7609792.178117036 0 0 0 0 0 95058718.27255464 -12767190.16210535 -12767190.16210535 -6184042.620343197 0 0 0 0 0 93663722.25523664 -12876869.71904254 -12876869.71904254 -6488503.472595396 0 0 0 0 0 91533542.43338779 -11179463.0589154 -11179463.0589154 -3655704.532715964 0 0 0 0 0 93843749.76814596 -12222368.71083516 -12222368.71083516 -5201777.109626516 0 0 0 0 0 92744697.56919862 -11558384.66649632 -11558384.66649632 -4232487.954288702 0 0 0 0 0 92766617.41496697 -12239968.28763255 -12239968.28763255 -5461770.336180249 0 0 0 0 0 120249262.9188484 2831286.213297825 2831286.213297825 25789498.55071171 0 0 0 0 0 119681133.4489608 3993344.604215489 3993344.604215489 23916987.21289686 0 0 0 0 0 119279612.5575244 4869092.789633401 4869092.789633401 22009687.94555538 0 0 0 0 0 120235312.4779159 2019371.478646066 2019371.478646066 27223187.42875714 0 0 0 0 0 120234814.4964674 241048.2675929721 241048.2675929721 26528181.01359606 0 0 0 0 0 118914297.1260778 5593636.224555427 5593636.224555427 19986044.9311946 0 0 0 0 0 118592065.5584767 6151382.159488156 6151382.159488156 17891048.06990931 0 0 0 0 0 118299067.2060023 6544562.828352879 6544562.828352879 15771107.82771479 0 0 0 0 0 118028530.7186832 6781960.13653581 6781960.13653581 13669839.47887112 0 0 0 0 0 117765758.6509913 6874535.597208146 6874535.597208146 11625996.70132514 0 0 0 0 0 117498953.6042421 6836101.184895378 6836101.184895378 9666537.283688519 0 0 0 0 0 117230094.0906914 6689273.458160337 6689273.458160337 7818287.234024252 0 0 0 0 0 116928999.9368968 6435584.599071787 6435584.599071787 6092261.449550034 0 0 0 0 0 116616156.0355812 6107976.003637427 6107976.003637427 4496588.931863151 0 0 0 0 0 116288228.92314 5721107.265304031 5721107.265304031 3042848.017922113 0 0 0 0 0 115923063.2760265 5280502.600995135 5280502.600995135 1726475.544843751 0 0 0 0 0 115544656.0142793 4810775.03965163 4810775.03965163 549970.8371480529 0 0 0 0 0 115783461.9609456 4774556.526414829 4774556.526414829 631916.3146783543 0 0 0 0 0 115516839.542727 3693877.40560837 3693877.40560837 -1820186.246378937 0 0 0 0 0 115006767.3200526 3155999.137257098 3155999.137257098 -2652879.10461026 0 0 0 0 0 114939228.4084971 2945210.003724262 2945210.003724262 -2556601.436456033 0 0 0 0 0 114606963.6332177 1829607.160015186 1829607.160015186 -4505089.945631136 0 0 0 0 0 97808013.50770177 -12993761.25301807 -12993761.25301807 -8893938.428288551 0 0 0 0 0 99299847.67405587 -12621696.14709272 -12621696.14709272 -9448279.576893574 0 0 0 0 0 100806145.5147703 -12133356.79886158 -12133356.79886158 -9926492.938434683 0 0 0 0 0 102309314.5098252 -11529975.71587517 -11529975.71587517 -10313931.99180103 0 0 0 0 0 96347893.98861036 -13247795.4827099 -13247795.4827099 -8276469.095825559 0 0 0 0 0 103789944.3304121 -10818541.64194401 -10818541.64194401 -10599083.72214844 0 0 0 0 0 105229948.0571102 -10004608.27903713 -10004608.27903713 -10768814.80408602 0 0 0 0 0 106613396.691733 -9098241.740725065 -9098241.740725065 -10814476.73124904 0 0 0 0 0 107920441.4343427 -8114414.877770761 -8114414.877770761 -10731550.85776215 0 0 0 0 0 109134028.6919214 -7066226.742981216 -7066226.742981216 -10514261.80797181 0 0 0 0 0 110239764.9995725 -5971689.239254037 -5971689.239254037 -10162229.19895303 0 0 0 0 0 111227209.5779709 -4846636.629816729 -4846636.629816729 -9675994.78596781 0 0 0 0 0 112085262.4996192 -3711387.490675848 -3711387.490675848 -9062231.02973043 0 0 0 0 0 112807369.836633 -2582702.620390025 -2582702.620390025 -8328083.303904302 0 0 0 0 0 113389751.4591709 -1478023.893627872 -1478023.893627872 -7483550.785696782 0 0 0 0 0 113832211.8897436 -414215.298255141 -414215.298255141 -6540565.757980824 0 0 0 0 0 114136748.5335448 592695.7090266376 592695.7090266376 -5514321.964511845 0 0 0 0 0 114307906.5051416 1528975.98455321 1528975.98455321 -4420859.8859169 0 0 0 0 0 96432392.38704529 -12729829.71331149 -12729829.71331149 -6854562.091207812 0 0 0 0 0 94951574.5591293 -12863578.64297956 -12863578.64297956 -7168160.746309221 0 0 0 0 0 95074099.12327796 -12263582.18935662 -12263582.18935662 -5793206.549021529 0 0 0 0 0 91901058.32096016 -11580710.10994162 -11580710.10994162 -4448891.78110905 0 0 0 0 0 93794946.01283966 -12370744.99020209 -12370744.99020209 -6089947.40862962 0 0 0 0 0 92738741.54889666 -11799957.71307883 -11799957.71307883 -5106405.724197706 0 0 0 0 0 93970357.30904119 -11697408.26894968 -11697408.26894968 -4860850.17254484 0 0 0 0 0 119507180.3078785 3461577.209642278 3461577.209642278 24674152.58135467 0 0 0 0 0 119067932.449737 4602702.12773928 4602702.12773928 23573517.24158036 0 0 0 0 0 118738568.0232901 5477016.124315415 5477016.124315415 22022980.17876418 0 0 0 0 0 119443581.6049976 1555359.039770906 1555359.039770906 25219730.64814126 0 0 0 0 0 119456557.9386494 783757.7001291505 783757.7001291505 26376790.19993224 0 0 0 0 0 118449629.0028747 6185650.704420044 6185650.704420044 20332854.48811057 0 0 0 0 0 118196846.5194045 6727891.605805987 6727891.605805987 18530671.36791226 0 0 0 0 0 117967056.1699773 7108342.271045282 7108342.271045282 16663940.93798254 0 0 0 0 0 117746085.361379 7334708.593529875 7334708.593529875 14772391.50716898 0 0 0 0 0 117524236.1599759 7418078.972329121 7418078.972329121 12891871.93405556 0 0 0 0 0 117294407.51424 7373262.324323723 7373262.324323723 11058391.19863446 0 0 0 0 0 117042902.8767348 7215834.021218088 7215834.021218088 9307754.110042708 0 0 0 0 0 116759624.22555 6965110.004927395 6965110.004927395 7657089.426928235 0 0 0 0 0 116458480.1622951 6636925.963073624 6636925.963073624 6089784.354989382 0 0 0 0 0 116121010.3740965 6241257.900400929 6241257.900400929 4625042.487833794 0 0 0 0 0 115766609.85333 5801886.906299045 5801886.906299045 3284018.169310191 0 0 0 0 0 115379555.2960579 5324012.564856155 5324012.564856155 2056379.600957694 0 0 0 0 0 115149717.5765183 4327279.640388054 4327279.640388054 -483048.5155795955 0 0 0 0 0 115290273.5880817 4230727.772794901 4230727.772794901 -394279.7655543266 0 0 0 0 0 114795719.618183 3688343.242861724 3688343.242861724 -1298565.324713184 0 0 0 0 0 114495660.6739672 2626306.008779808 2626306.008779808 -3370751.730085703 0 0 0 0 0 114352856.7583629 2383154.322832628 2383154.322832628 -3276731.562366493 0 0 0 0 0 99292422.88844866 -12332128.67489204 -12332128.67489204 -8084809.23917115 0 0 0 0 0 100751669.7972785 -11969143.54799549 -11969143.54799549 -8631181.434666233 0 0 0 0 0 102207131.6037921 -11498954.27423204 -11498954.27423204 -9116502.693832746 0 0 0 0 0 103641124.4307437 -10923694.83940314 -10923694.83940314 -9527528.93283803 0 0 0 0 0 97847201.43623547 -12586047.49750605 -12586047.49750605 -7489704.599976205 0 0 0 0 0 105038047.3425341 -10248190.61480518 -10248190.61480518 -9852133.911902342 0 0 0 0 0 106377489.8174531 -9479353.204978008 -9479353.204978008 -10079290.77447355 0 0 0 0 0 107643654.0233036 -8627884.588492148 -8627884.588492148 -10199656.71238049 0 0 0 0 0 108823607.4504958 -7704871.861164915 -7704871.861164915 -10205872.73583134 0 0 0 0 0 109901939.0090286 -6723069.691602454 -6723069.691602454 -10091323.32899146 0 0 0 0 0 110866630.296568 -5699236.109586883 -5699236.109586883 -9853835.012255564 0 0 0 0 0 111708101.0258657 -4648903.069226067 -4648903.069226067 -9493147.49960875 0 0 0 0 0 112420593.937947 -3589931.746742361 -3589931.746742361 -9011996.334763929 0 0 0 0 0 113000847.9841408 -2536895.582937916 -2536895.582937916 -8413118.105668565 0 0 0 0 0 113448900.6797853 -1505076.836190307 -1505076.836190307 -7702996.606573593 0 0 0 0 0 113765951.1714368 -510513.7158804499 -510513.7158804499 -6891698.144856316 0 0 0 0 0 113955200.1074139 431649.9941910974 431649.9941910974 -5991639.871222643 0 0 0 0 0 114023478.6378047 1309101.833692698 1309101.833692698 -5015980.164752 0 0 0 0 0 96269751.91357487 -12757336.89420929 -12757336.89420929 -7808224.46016137 0 0 0 0 0 96356954.21927866 -12249861.28117706 -12249861.28117706 -6461401.472276035 0 0 0 0 0 94987347.63215791 -12364640.10263596 -12364640.10263596 -6760432.679610014 0 0 0 0 0 92875759.9401243 -11032324.11175701 -11032324.11175701 -4053482.458750477 0 0 0 0 0 95087596.20117564 -11801535.85874523 -11801535.85874523 -5444704.166813457 0 0 0 0 0 93835576.10915001 -11274959.43789782 -11274959.43789782 -4618325.619863472 0 0 0 0 0 93848922.73499022 -11920787.12476662 -11920787.12476662 -5784652.741783684 0 0 0 0 0 118433978.396112 3017192.819621919 3017192.819621919 24261490.11786385 0 0 0 0 0 118697317.632197 2088314.212148088 2088314.212148088 26133824.46702754 0 0 0 0 0 117985287.3592015 4038854.085110758 4038854.085110758 22601017.70334125 0 0 0 0 0 117650177.9423373 4864246.465759681 4864246.465759681 20827991.97971657 0 0 0 0 0 118586049.9072721 1717448.705619595 1717448.705619595 25842978.15925741 0 0 0 0 0 118399912.0577738 249378.4069113103 249378.4069113103 25645914.95844182 0 0 0 0 0 117366163.0427013 5534449.854467278 5534449.854467278 18948584.02194244 0 0 0 0 0 117120690.2259873 6048625.43938079 6048625.43938079 17001471.23130617 0 0 0 0 0 116903322.1330464 6412945.126655697 6412945.126655697 15039532.40783932 0 0 0 0 0 116700810.7226742 6634608.654052047 6634608.654052047 13096056.95076926 0 0 0 0 0 116503272.0402716 6723032.511927006 6723032.511927006 11202351.42323957 0 0 0 0 0 116297338.2869209 6688305.082020716 6688305.082020716 9382139.270394865 0 0 0 0 0 116099364.6762409 6560935.039065606 6560935.039065606 7671266.811148629 0 0 0 0 0 115844509.6276364 6331009.282399107 6331009.282399107 6068926.261409434 0 0 0 0 0 115588205.7182677 6033995.056381685 6033995.056381685 4579012.771998546 0 0 0 0 0 115313347.4298286 5681186.471609361 5681186.471609361 3217545.733839564 0 0 0 0 0 115010926.6390837 5279986.496600991 5279986.496600991 1977748.893026991 0 0 0 0 0 114686031.239605 4845091.433611554 4845091.433611554 861446.1881581597 0 0 0 0 0 114962941.6091762 4823947.157506876 4823947.157506876 945977.7942675558 0 0 0 0 0 114723137.9893003 3829405.747467129 3829405.747467129 -1394480.144608653 0 0 0 0 0 114281448.2249815 3327207.772032587 3327207.772032587 -2200458.630787646 0 0 0 0 0 114280112.2769879 3145442.459652337 3145442.459652337 -2102863.478916301 0 0 0 0 0 113977855.8558127 2110431.367465314 2110431.367465314 -3979668.782094968 0 0 0 0 0 99023027.98619306 -12219761.21631698 -12219761.21631698 -8946413.917244431 0 0 0 0 0 97629417.66230907 -12543145.17231111 -12543145.17231111 -8404264.835257674 0 0 0 0 0 100435640.0469988 -11788958.50591795 -11788958.50591795 -9421809.930773498 0 0 0 0 0 101849076.9984024 -11252178.96233576 -11252178.96233576 -9817571.292016387 0 0 0 0 0 103246851.0080304 -10612972.0702022 -10612972.0702022 -10122280.64824489 0 0 0 0 0 104613576.8876501 -9876391.967291811 -9876391.967291811 -10324366.13091849 0 0 0 0 0 105930122.083972 -9053474.29532267 -9053474.29532267 -10416984.21344584 0 0 0 0 0 107182043.3850469 -8153222.955089998 -8153222.955089998 -10391853.20256847 0 0 0 0 0 108355168.8494705 -7187650.047045824 -7187650.047045824 -10243964.12340588 0 0 0 0 0 109433646.4420814 -6172748.184730293 -6172748.184730293 -9971904.066818226 0 0 0 0 0 110406062.9224408 -5123904.517281767 -5123904.517281767 -9576189.727111017 0 0 0 0 0 111262994.3812472 -4057154.121287406 -4057154.121287406 -9059173.600946302 0 0 0 0 0 111997710.8540788 -2988896.724652804 -2988896.724652804 -8427726.854909796 0 0 0 0 0 112605772.5046211 -1934316.440712201 -1934316.440712201 -7688722.352747672 0 0 0 0 0 113084697.2414344 -909448.4162990113 -909448.4162990113 -6852858.567615698 0 0 0 0 0 113434946.1350366 70470.57366377558 70470.57366377558 -5931949.525273136 0 0 0 0 0 113659832.2098049 992183.032922207 992183.032922207 -4940377.865020582 0 0 0 0 0 113765016.0996033 1843653.95287236 1843653.95287236 -3892346.903289313 0 0 0 0 0 97674782.27068281 -12137259.02657832 -12137259.02657832 -7071779.113057055 0 0 0 0 0 96212458.31435904 -12286054.18522424 -12286054.18522424 -7372268.690558709 0 0 0 0 0 96311977.6756504 -11800358.71873491 -11800358.71873491 -6112325.445873384 0 0 0 0 0 93148048.31010634 -11305893.69593328 -11305893.69593328 -4815625.652575837 0 0 0 0 0 95023384.74054483 -11878829.04724446 -11878829.04724446 -6407980.464934388 0 0 0 0 0 93952062.09230033 -11488422.78506495 -11488422.78506495 -5511888.194202661 0 0 0 0 0 95161358.92152965 -11348256.7557785 -11348256.7557785 -5165827.808751733 0 0 0 0 0 117755969.9799571 3603204.770578612 3603204.770578612 23512948.32459063 0 0 0 0 0 118000898.6444564 2510104.50297614 2510104.50297614 24396766.68310576 0 0 0 0 0 117442900.5340604 4579800.349720426 4579800.349720426 22301418.86347852 0 0 0 0 0 117185280.1097117 5386522.31696134 5386522.31696134 20858311.78193637 0 0 0 0 0 117586899.4858456 1189178.484167873 1189178.484167873 24989597.72683051 0 0 0 0 0 117601512.8514061 732180.5577712135 732180.5577712135 25082294.07301942 0 0 0 0 0 116972553.141896 6041215.95491096 6041215.95491096 19275851.2437798 0 0 0 0 0 116788103.2114443 6543182.110956214 6543182.110956214 17600052.1403003 0 0 0 0 0 116627645.5252413 6897952.018217569 6897952.018217569 15861192.63736161 0 0 0 0 0 116472259.7523084 7111470.582561499 7111470.582561499 14103358.04517015 0 0 0 0 0 116311574.0804091 7193937.740623089 7193937.740623089 12364835.32627939 0 0 0 0 0 116132721.7376381 7161044.918547212 7161044.918547212 10683337.88769952 0 0 0 0 0 115913686.7564951 7018363.457119813 7018363.457119813 9070371.366257422 0 0 0 0 0 115706155.7313052 6801109.820910718 6801109.820910718 7524315.258188637 0 0 0 0 0 115459957.7097168 6502332.605060756 6502332.605060756 6056048.78439142 0 0 0 0 0 115181291.5240873 6143045.518520299 6143045.518520299 4686129.380895341 0 0 0 0 0 114884689.6641196 5742461.14367538 5742461.14367538 3423393.32333333 0 0 0 0 0 114556617.2818712 5304333.132494439 5304333.132494439 2262059.420133852 0 0 0 0 0 114342336.0147161 4392883.515835135 4392883.515835135 -127732.5846942203 0 0 0 0 0 114538472.5712989 4317741.490923075 4317741.490923075 -37269.50894117435 0 0 0 0 0 114101294.8654592 3809621.452689412 3809621.452689412 -910517.2629894026 0 0 0 0 0 113832694.4935248 2829858.113238302 2829858.113238302 -2896281.56895037 0 0 0 0 0 113757355.619422 2615906.842955485 2615906.842955485 -2802857.178425976 0 0 0 0 0 100395279.8833479 -11602499.0268533 -11602499.0268533 -8172122.549754734 0 0 0 0 0 99025699.72845796 -11920561.32758017 -11920561.32758017 -7642278.609224621 0 0 0 0 0 101764682.7436006 -11186652.73830639 -11186652.73830639 -8650583.622777291 0 0 0 0 0 103118727.6173913 -10673120.55299064 -10673120.55299064 -9063593.562794939 0 0 0 0 0 104442107.2097287 -10065183.25884489 -10065183.25884489 -9400073.428555554 0 0 0 0 0 105718437.9695926 -9368581.471357828 -9368581.471357828 -9650058.856279219 0 0 0 0 0 106933795.1780935 -8592139.660199234 -8592139.660199234 -9804520.699211929 0 0 0 0 0 108072684.6989403 -7745346.382459906 -7745346.382459906 -9855881.466603946 0 0 0 0 0 109122630.7824642 -6840048.285020816 -6840048.285020816 -9798539.758844065 0 0 0 0 0 110072481.9585049 -5888810.437508451 -5888810.437508451 -9627811.345895192 0 0 0 0 0 110912434.1495696 -4907196.982882626 -4907196.982882626 -9343442.121857664 0 0 0 0 0 111636110.2054537 -3909862.07913614 -3909862.07913614 -8946090.283097465 0 0 0 0 0 112238563.8892541 -2911664.047751412 -2911664.047751412 -8438363.594847791 0 0 0 0 0 112718602.0472761 -1925995.352670486 -1925995.352670486 -7824412.91006861 0 0 0 0 0 113077136.6993427 -966811.5243852368 -966811.5243852368 -7111840.124876698 0 0 0 0 0 113316042.6602198 -49100.18624365817 -49100.18624365817 -6311069.972270228 0 0 0 0 0 113440979.2772642 815908.3448466536 815908.3448466536 -5432349.107297833 0 0 0 0 0 113457517.8173362 1615942.15110552 1615942.15110552 -4489725.916814494 0 0 0 0 0 97477384.6102778 -12107985.33495419 -12107985.33495419 -7944472.656326815 0 0 0 0 0 97530015.87336203 -11706577.68235585 -11706577.68235585 -6681779.881301573 0 0 0 0 0 96186435.35820608 -11834895.79997034 -11834895.79997034 -6956714.962911566 0 0 0 0 0 93964502.28474732 -10833975.71165172 -10833975.71165172 -4474011.154941826 0 0 0 0 0 96321258.96708784 -11363832.97115588 -11363832.97115588 -5802299.054432407 0 0 0 0 0 94972429.33000116 -10991923.6632407 -10991923.6632407 -5000348.579071797 0 0 0 0 0 94984500.89809401 -11485343.30722042 -11485343.30722042 -6028800.690728299 0 0 0 0 0 116784203.3202881 3156033.709379275 3156033.709379275 22897598.37777031 0 0 0 0 0 117115064.8381739 2198449.562655032 2198449.562655032 24130901.49159637 0 0 0 0 0 116471229.8623374 4063198.716293844 4063198.716293844 21378214.81309079 0 0 0 0 0 116213382.2088211 4825134.821309923 4825134.821309923 19724007.11103948 0 0 0 0 0 116893311.7036133 1670580.173689171 1670580.173689171 24236251.12409651 0 0 0 0 0 116673115.5707243 261383.9741086618 261383.9741086618 24474694.40312573 0 0 0 0 0 116000079.4453898 5443878.227153068 5443878.227153068 17972234.16054143 0 0 0 0 0 115815516.115956 5919642.911405548 5919642.911405548 16174104.76409493 0 0 0 0 0 115659312.4538984 6258485.581125047 6258485.581125047 14353066.78429751 0 0 0 0 0 115514336.2882762 6465642.707914024 6465642.707914024 12547637.22947479 0 0 0 0 0 115372177.9981838 6550570.092065456 6550570.092065456 10788708.33600411 0 0 0 0 0 115215367.8240608 6525667.598408377 6525667.598408377 9129650.388951046 0 0 0 0 0 115039107.7929317 6407818.336849076 6407818.336849076 7556099.76991128 0 0 0 0 0 114851032.4217314 6207601.821945147 6207601.821945147 6052160.299656926 0 0 0 0 0 114645949.0354216 5937561.170414967 5937561.170414967 4654273.485119501 0 0 0 0 0 114416995.3982919 5612138.22316479 5612138.22316479 3371670.573230593 0 0 0 0 0 114164477.0813087 5244057.685539019 5244057.685539019 2191559.608247203 0 0 0 0 0 113891082.5598712 4845428.860003018 4845428.860003018 1127689.191038681 0 0 0 0 0 114197463.2974467 4841475.914889126 4841475.914889126 1210544.975954934 0 0 0 0 0 113973702.1550836 3926083.000863117 3926083.000863117 -1006122.773672421 0 0 0 0 0 113590871.8269684 3455613.201394018 3455613.201394018 -1785899.332401514 0 0 0 0 0 113644636.0922736 3301674.217750852 3301674.217750852 -1690259.542937178 0 0 0 0 0 113374652.2357363 2343518.864672913 2343518.864672913 -3493761.062102369 0 0 0 0 0 100105548.7246481 -11447271.55323854 -11447271.55323854 -8942319.00434811 0 0 0 0 0 98778940.66230291 -11826639.29140509 -11826639.29140509 -8472341.7206362 0 0 0 0 0 101435347.017782 -10969815.35965043 -10969815.35965043 -9342162.464399356 0 0 0 0 0 102754345.2698149 -10396423.41265372 -10396423.41265372 -9661228.254206197 0 0 0 0 0 104048214.0021781 -9731639.130433042 -9731639.130433042 -9889444.30442293 0 0 0 0 0 105301765.7670901 -8983132.285747465 -8983132.285747465 -10018794.12016428 0 0 0 0 0 106500616.4651763 -8159803.859125247 -8159803.859125247 -10042051.17381582 0 0 0 0 0 107630339.7658302 -7272691.89143794 -7272691.89143794 -9954145.602091089 0 0 0 0 0 108679092.1059436 -6333072.457468343 -6333072.457468343 -9751390.511400832 0 0 0 0 0 109634103.7714272 -5356007.076751524 -5356007.076751524 -9433914.401309535 0 0 0 0 0 110485978.4347804 -4355708.517763096 -4355708.517763096 -9003380.36990954 0 0 0 0 0 111226696.0823752 -3347697.679518578 -3347697.679518578 -8464320.106898477 0 0 0 0 0 111851816.3283171 -2345280.776788634 -2345280.776788634 -7822952.200587949 0 0 0 0 0 112360467.474049 -1362264.152124835 -1362264.152124835 -7084909.192522426 0 0 0 0 0 112749625.1467652 -413158.0426451457 -413158.0426451457 -6262248.557686464 0 0 0 0 0 113021387.5481156 488550.6761257463 488550.6761257463 -5365711.598521468 0 0 0 0 0 113178506.0503273 1331627.681513771 1331627.681513771 -4410615.893495227 0 0 0 0 0 113227872.7591821 2106438.002055262 2106438.002055262 -3407873.161611142 0 0 0 0 0 98789587.79184389 -11522259.34346206 -11522259.34346206 -7226515.930444502 0 0 0 0 0 97349074.86542957 -11686485.4491983 -11686485.4491983 -7513220.330893095 0 0 0 0 0 97416687.89281049 -11303741.41612375 -11303741.41612375 -6309742.463221375 0 0 0 0 0 94306410.28585356 -11039861.16483055 -11039861.16483055 -5195864.29245376 0 0 0 0 0 96272767.06220365 -11399944.25988044 -11399944.25988044 -6574724.728012946 0 0 0 0 0 95043121.75877734 -11119907.51411951 -11119907.51411951 -5719193.733833097 0 0 0 0 0 96168302.34446098 -11079433.25583594 -11079433.25583594 -5459840.192588269 0 0 0 0 0 116237139.0912672 3632530.024117241 3632530.024117241 22278713.02372057 0 0 0 0 0 116539644.5271216 2661688.760785381 2661688.760785381 23296995.27013821 0 0 0 0 0 116004953.4136244 4524330.909695189 4524330.909695189 21115376.87630644 0 0 0 0 0 115816427.5975067 5272553.552318539 5272553.552318539 19761138.05961421 0 0 0 0 0 116063654.8339809 1277299.745507324 1277299.745507324 23762081.18139702 0 0 0 0 0 115957934.5183095 727031.2910828042 727031.2910828042 23809056.02788461 0 0 0 0 0 115663167.6255825 5877801.210304508 5877801.210304508 18284123.88698857 0 0 0 0 0 115541081.2598515 6344616.198047868 6344616.198047868 16715894.99572481 0 0 0 0 0 115432966.2289809 6676470.503337578 6676470.503337578 15102963.03013347 0 0 0 0 0 115328643.3646871 6879725.861561129 6879725.861561129 13476843.30903713 0 0 0 0 0 115202495.4555048 6958326.092153606 6958326.092153606 11887622.37915505 0 0 0 0 0 115070018.8650892 6934633.652701675 6934633.652701675 10322484.40942076 0 0 0 0 0 114906294.3271352 6810626.270202367 6810626.270202367 8811998.102022115 0 0 0 0 0 114742518.9812755 6616341.600521527 6616341.600521527 7367163.761751912 0 0 0 0 0 114542955.7689909 6347088.6192524 6347088.6192524 5992658.720129002 0 0 0 0 0 114313030.0978487 6020365.077321949 6020365.077321949 4709341.035494987 0 0 0 0 0 114061039.499093 5653110.601480193 5653110.601480193 3523709.45358101 0 0 0 0 0 113781267.683345 5253612.321055429 5253612.321055429 2428342.316264572 0 0 0 0 0 113592636.3737491 4424635.134008984 4424635.134008984 184181.3395990204 0 0 0 0 0 113825563.0441253 4369169.830123432 4369169.830123432 274846.8640394378 0 0 0 0 0 113438174.5721501 3892406.707370673 3892406.707370673 -565735.7962673868 0 0 0 0 0 113203456.6493461 2993630.326129137 2993630.326129137 -2457823.058108609 0 0 0 0 0 113174378.0442437 2804812.490368875 2804812.490368875 -2368599.146660211 0 0 0 0 0 101366821.5531711 -10875265.2638747 -10875265.2638747 -8208832.689740734 0 0 0 0 0 100077481.7888163 -11242314.50865359 -11242314.50865359 -7738810.583915446 0 0 0 0 0 102644996.9349905 -10417464.64241195 -10417464.64241195 -8620886.314240189 0 0 0 0 0 103898419.2772325 -9870936.138794046 -9870936.138794046 -8964860.528638028 0 0 0 0 0 105113971.789965 -9240217.934265757 -9240217.934265757 -9231498.383297272 0 0 0 0 0 106277346.9611967 -8532561.4158617 -8532561.4158617 -9413281.664167494 0 0 0 0 0 107375298.3264299 -7756471.304589599 -7756471.304589599 -9502200.600269776 0 0 0 0 0 108395802.3226933 -6922023.791320615 -6922023.791320615 -9492370.103547579 0 0 0 0 0 109327412.3067643 -6040106.850873344 -6040106.850873344 -9379530.663945217 0 0 0 0 0 110161999.5727128 -5123653.81818866 -5123653.81818866 -9160932.408751456 0 0 0 0 0 110891363.2216542 -4186374.254948325 -4186374.254948325 -8836789.914315058 0 0 0 0 0 111509991.7053874 -3242654.358546705 -3242654.358546705 -8409613.049054671 0 0 0 0 0 112016763.1276259 -2303056.817787193 -2303056.817787193 -7880765.501938397 0 0 0 0 0 112408117.4793111 -1383768.956533343 -1383768.956533343 -7260037.640121506 0 0 0 0 0 112689837.3099948 -493969.7820167741 -493969.7820167741 -6550862.154773987 0 0 0 0 0 112861434.2322587 351038.3292036075 351038.3292036075 -5765274.98356494 0 0 0 0 0 112933348.3850032 1145382.355466318 1145382.355466318 -4909591.946620748 0 0 0 0 0 112905102.0565262 1874757.164234712 1874757.164234712 -3999524.131825609 0 0 0 0 0 98560941.00750111 -11441983.70195587 -11441983.70195587 -8026283.494954471 0 0 0 0 0 98579651.11070722 -11138213.39582201 -11138213.39582201 -6850078.926718291 0 0 0 0 0 97231829.53878661 -11260054.50773453 -11260054.50773453 -7131413.277717601 0 0 0 0 0 95151440.78132842 -10549609.00655316 -10549609.00655316 -4807832.771299024 0 0 0 0 0 97335791.99482176 -10900019.94869257 -10900019.94869257 -6142549.47244798 0 0 0 0 0 95978438.26806833 -10675440.83638908 -10675440.83638908 -5284777.717155403 0 0 0 0 0 96063526.14663301 -10850499.82977955 -10850499.82977955 -5871150.134077591 0 0 0 0 0 115390941.8598795 3223427.384976285 3223427.384976285 21652253.95809086 0 0 0 0 0 115700725.9071882 2286937.635707711 2286937.635707711 22848218.79467156 0 0 0 0 0 115149928.7139651 4055650.574447639 4055650.574447639 20236560.96207231 0 0 0 0 0 114950012.8882688 4759778.237623538 4759778.237623538 18691737.36106556 0 0 0 0 0 115468932.4692162 1736057.342518361 1736057.342518361 23031242.26652163 0 0 0 0 0 115217009.9236108 318474.3161996736 318474.3161996736 23246542.04792666 0 0 0 0 0 114789122.4392715 5331003.552077471 5331003.552077471 17065086.44730142 0 0 0 0 0 114660385.3016744 5772649.88274002 5772649.88274002 15388869.8365781 0 0 0 0 0 114550236.2866293 6087376.708833768 6087376.708833768 13698201.36029541 0 0 0 0 0 114452269.1793927 6283361.285053683 6283361.285053683 12026645.16622361 0 0 0 0 0 114338827.8715063 6363204.690742499 6363204.690742499 10416946.34737215 0 0 0 0 0 114221040.9893621 6345482.891166477 6345482.891166477 8868192.406215832 0 0 0 0 0 114085213.9357813 6238974.638269605 6238974.638269605 7399136.794891519 0 0 0 0 0 113942540.8404243 6060688.796978659 6060688.796978659 5990615.73372817 0 0 0 0 0 113778953.8248062 5816816.595357128 5816816.595357128 4679197.20870345 0 0 0 0 0 113590220.8531771 5519765.837108119 5519765.837108119 3472782.136944295 0 0 0 0 0 113377629.2240078 5181229.56270572 5181229.56270572 2361859.668418691 0 0 0 0 0 113146724.1493296 4816691.357686092 4816691.357686092 1355269.929498153 0 0 0 0 0 113473823.1308619 4829646.739332219 4829646.739332219 1433796.344357612 0 0 0 0 0 113270669.6513765 3987458.697607539 3987458.697607539 -660289.081191848 0 0 0 0 0 112940652.146521 3549111.479168701 3549111.479168701 -1407616.913120099 0 0 0 0 0 113026310.0280378 3418362.627834168 3418362.627834168 -1316319.593875843 0 0 0 0 0 112785141.5593626 2533117.387221941 2533117.387221941 -3045902.083750797 0 0 0 0 0 101064013.3133676 -10685438.5208525 -10685438.5208525 -8888308.53169531 0 0 0 0 0 99811846.23530206 -11109385.02438229 -11109385.02438229 -8487749.980806014 0 0 0 0 0 102308722.9185605 -10171792.41638575 -10171792.41638575 -9216781.117324786 0 0 0 0 0 103533101.0024712 -9571792.022127094 -9571792.022127094 -9464785.540556746 0 0 0 0 0 104725629.7154632 -8891519.720107103 -8891519.720107103 -9623955.564277939 0 0 0 0 0 105872092.5433613 -8139151.813609019 -8139151.813609019 -9687412.096197775 0 0 0 0 0 106959512.8701774 -7323688.285970524 -7323688.285970524 -9649915.229311084 0 0 0 0 0 107975857.4220498 -6455631.596064319 -6455631.596064319 -9507733.074202726 0 0 0 0 0 108909983.5180238 -5546882.842105502 -5546882.842105502 -9259297.993487423 0 0 0 0 0 109751822.6688009 -4610942.071572351 -4610942.071572351 -8905484.090726189 0 0 0 0 0 110493559.9334363 -3661410.508859674 -3661410.508859674 -8448894.760091215 0 0 0 0 0 111130863.820856 -2711157.129107126 -2711157.129107126 -7894502.302256029 0 0 0 0 0 111660191.8890854 -1772177.459122453 -1772177.459122453 -7247903.992358675 0 0 0 0 0 112083283.7430741 -857630.5568243127 -857630.5568243127 -6515669.759750407 0 0 0 0 0 112394278.0473724 19758.25620491882 19758.25620491882 -5709348.449469423 0 0 0 0 0 112598372.0033779 848243.8470571765 848243.8470571765 -4839624.24604442 0 0 0 0 0 112697528.642273 1619432.491593932 1619432.491593932 -3919949.364747188 0 0 0 0 0 112703041.1282334 2325122.620767331 2325122.620767331 -2958140.740228951 0 0 0 0 0 99794076.62702271 -10887264.00857984 -10887264.00857984 -7330550.389777494 0 0 0 0 0 98368585.38959913 -11064916.66536561 -11064916.66536561 -7600980.726431319 0 0 0 0 0 98426717.13691521 -10778091.4724516 -10778091.4724516 -6579364.908824299 0 0 0 0 0 95460658.39559498 -10700236.70229234 -10700236.70229234 -5439783.830509581 0 0 0 0 0 97271110.11535227 -10861798.44591851 -10861798.44591851 -6819907.421643851 0 0 0 0 0 97007187.98632985 -10934222.64239644 -10934222.64239644 -6245318.609580365 0 0 0 0 0 96324346.84459789 -10746479.53231088 -10746479.53231088 -5751120.585576568 0 0 0 0 0 114923129.4141304 3635846.659376519 3635846.659376519 21125436.23896129 0 0 0 0 0 115161826.6749315 2710198.373343519 2710198.373343519 22081859.33796376 0 0 0 0 0 114744517.0658479 4454403.425912582 4454403.425912582 20003211.34855327 0 0 0 0 0 114608404.6978971 5144099.525065813 5144099.525065813 18734483.07202099 0 0 0 0 0 114670834.2459681 1355394.862146677 1355394.862146677 22634932.60257445 0 0 0 0 0 114628548.2682976 723870.9817687342 723870.9817687342 22590166.45039867 0 0 0 0 0 114505450.0815772 5705215.065783828 5705215.065783828 17350346.98688294 0 0 0 0 0 114428983.2606095 6141106.787576932 6141106.787576932 15890754.94311113 0 0 0 0 0 114363302.0301012 6451585.286742345 6451585.286742345 14393199.9768822 0 0 0 0 0 114291363.5078113 6639977.854398553 6639977.854398553 12904626.77733469 0 0 0 0 0 114199017.8874163 6717892.405755047 6717892.405755047 11421877.03879445 0 0 0 0 0 114100304.0916033 6701911.042964616 6701911.042964616 9967026.560688937 0 0 0 0 0 113991871.2617324 6598825.410019869 6598825.410019869 8552363.797678143 0 0 0 0 0 113856594.1490616 6421078.836278019 6421078.836278019 7200373.322609712 0 0 0 0 0 113696086.2503232 6179702.563289126 6179702.563289126 5915114.486896714 0 0 0 0 0 113506741.003267 5884903.436765777 5884903.436765777 4714294.551987963 0 0 0 0 0 113293904.6076829 5545869.176752285 5545869.176752285 3602970.112178003 0 0 0 0 0 113056723.7553516 5181496.206423941 5181496.206423941 2559514.174217508 0 0 0 0 0 112892693.241042 4431783.210684568 4431783.210684568 461744.4016223567 0 0 0 0 0 113147178.2507383 4388516.955910512 4388516.955910512 551514.9048089237 0 0 0 0 0 112800725.2183542 3943041.367882415 3943041.367882415 -255611.4319975924 0 0 0 0 0 112590241.0184701 3115768.708261331 3115768.708261331 -2062411.959071782 0 0 0 0 0 112618221.0558248 2956918.507781854 2956918.507781854 -1970231.697727058 0 0 0 0 0 102214738.6485476 -10159478.70837729 -10159478.70837729 -8199833.953401367 0 0 0 0 0 101008540.0331442 -10566035.20114256 -10566035.20114256 -7790250.280298809 0 0 0 0 0 103401674.700736 -9669125.188929629 -9669125.188929629 -8547822.138640087 0 0 0 0 0 104558636.1507627 -9097547.04483432 -9097547.04483432 -8826344.631366862 0 0 0 0 0 105671776.4217976 -8453110.095630346 -8453110.095630346 -9029461.432724452 0 0 0 0 0 106728546.3829197 -7742073.446287652 -7742073.446287652 -9148738.6644144 0 0 0 0 0 107717269.9054582 -6973668.528332666 -6973668.528332666 -9179214.226282366 0 0 0 0 0 108627896.9242048 -6157097.384100954 -6157097.384100954 -9115501.231111757 0 0 0 0 0 109451884.875168 -5303258.431350599 -5303258.431350599 -8954742.806493793 0 0 0 0 0 110182095.437024 -4424307.032003618 -4424307.032003618 -8695791.723482799 0 0 0 0 0 110812775.7181957 -3532754.242907812 -3532754.242907812 -8339689.098414754 0 0 0 0 0 111340379.3078948 -2640585.778930778 -2640585.778930778 -7888300.2220263 0 0 0 0 0 111765724.0717517 -1757524.754082382 -1757524.754082382 -7344395.795474007 0 0 0 0 0 112079453.036575 -902633.4982488883 -902633.4982488883 -6721786.969790831 0 0 0 0 0 112293261.4726376 -79870.64668905167 -79870.64668905167 -6021077.895148185 0 0 0 0 0 112406841.8047632 697427.1701777248 697427.1701777248 -5253158.40906637 0 0 0 0 0 112434205.5430588 1426493.901295108 1426493.901295108 -4421768.83029076 0 0 0 0 0 112369821.3406315 2090648.398469526 2090648.398469526 -3546702.773169284 0 0 0 0 0 99551675.2192612 -10774381.51668897 -10774381.51668897 -8056439.006432933 0 0 0 0 0 99551048.42804569 -10536120.51496853 -10536120.51496853 -6953747.096990305 0 0 0 0 0 98244302.14364448 -10700175.98434508 -10700175.98434508 -7219946.605928988 0 0 0 0 0 96253833.80242009 -10241471.87803544 -10241471.87803544 -5107077.727712032 0 0 0 0 0 98359970.85156056 -10497818.50075277 -10497818.50075277 -6302571.408682759 0 0 0 0 0 97245232.00459096 -10489293.79747798 -10489293.79747798 -6204835.679044325 0 0 0 0 0 96811572.19761701 -10339082.97489176 -10339082.97489176 -5615833.950115726 0 0 0 0 0 114181046.3025426 3258535.042213783 3258535.042213783 20501370.18666786 0 0 0 0 0 114440064.2734607 2377288.529758265 2377288.529758265 21657008.88464354 0 0 0 0 0 113982632.3380578 4026051.208974876 4026051.208974876 19169384.04372829 0 0 0 0 0 113831508.9147698 4673561.03098865 4673561.03098865 17725106.84321149 0 0 0 0 0 114167214.8827169 1769454.274623076 1769454.274623076 21962877.34636579 0 0 0 0 0 113891474.858391 289740.3472303745 289740.3472303745 21882922.98114243 0 0 0 0 0 113716786.2556842 5203150.75333561 5203150.75333561 16209959.36744109 0 0 0 0 0 113629366.9392944 5614644.054555092 5614644.054555092 14652667.86650666 0 0 0 0 0 113552709.6289657 5905578.536984032 5905578.536984032 13082857.24569388 0 0 0 0 0 113488545.9968973 6088767.189501837 6088767.189501837 11548075.35953426 0 0 0 0 0 113402442.4637555 6165788.570099075 6165788.570099075 10054515.82726646 0 0 0 0 0 113313501.843389 6155148.311477202 6155148.311477202 8612393.310353845 0 0 0 0 0 113222108.6917084 6064116.426686094 6064116.426686094 7227118.590890329 0 0 0 0 0 113110225.7408802 5901825.403976997 5901825.403976997 5912142.380073681 0 0 0 0 0 112981186.5124595 5683320.419513752 5683320.419513752 4685899.721631614 0 0 0 0 0 112822637.1574242 5412793.230289022 5412793.230289022 3551856.283202815 0 0 0 0 0 112641705.0830845 5096338.985943074 5096338.985943074 2497152.80038646 0 0 0 0 0 112453988.8520459 4768769.341220681 4768769.341220681 1550948.157143853 0 0 0 0 0 112790694.7709678 4794245.437148062 4794245.437148062 1625110.895494439 0 0 0 0 0 112610347.1847334 4020444.756133662 4020444.756133662 -346347.4282531952 0 0 0 0 0 112317363.5228066 3610100.31056932 3610100.31056932 -1071427.354998135 0 0 0 0 0 112443126.0424178 3504937.894662153 3504937.894662153 -983245.4287092418 0 0 0 0 0 112221659.8729259 2684285.974115432 2684285.974115432 -2638869.065082899 0 0 0 0 0 101905315.6254568 -9942174.575859869 -9942174.575859869 -8789667.429387832 0 0 0 0 0 100730214.7569292 -10400540.23797868 -10400540.23797868 -8455429.397446005 0 0 0 0 0 103063464.365437 -9400214.798785781 -9400214.798785781 -9052327.030090811 0 0 0 0 0 104197821.822691 -8782450.100778611 -8782450.100778611 -9235330.287234252 0 0 0 0 0 105293527.8155349 -8095140.042078175 -8095140.042078175 -9332394.202673353 0 0 0 0 0 106338084.0051292 -7346159.136974125 -7346159.136974125 -9337322.941953534 0 0 0 0 0 107320976.0545026 -6544711.479426159 -6544711.479426159 -9246636.84897656 0 0 0 0 0 108231663.8889787 -5700991.810114036 -5700991.810114036 -9058231.565941846 0 0 0 0 0 109061200.3707386 -4826290.447130323 -4826290.447130323 -8771535.449980605 0 0 0 0 0 109801303.2613944 -3932692.145626532 -3932692.145626532 -8387914.077967638 0 0 0 0 0 110445108.292097 -3033502.112376459 -3033502.112376459 -7912287.199435798 0 0 0 0 0 110991290.4484174 -2138587.431548913 -2138587.431548913 -7347333.990587702 0 0 0 0 0 111433812.2175266 -1262724.949874944 -1262724.949874944 -6700231.009842105 0 0 0 0 0 111779704.1006167 -413155.8634884934 -413155.8634884934 -5978160.505862553 0 0 0 0 0 112023837.2412578 395547.1371366263 395547.1371366263 -5191480.834867474 0 0 0 0 0 112171757.2152975 1158104.162394151 1158104.162394151 -4350530.857587566 0 0 0 0 0 112223831.8052461 1862910.389904284 1862910.389904284 -3466196.70243012 0 0 0 0 0 112190422.265792 2501513.115583672 2501513.115583672 -2550225.903236803 0 0 0 0 0 100688841.6467814 -10254228.24788747 -10254228.24788747 -7400717.850062533 0 0 0 0 0 99337383.71021247 -10445448.38264479 -10445448.38264479 -7650969.258681234 0 0 0 0 0 99370081.71534364 -10187642.93302301 -10187642.93302301 -6570232.7997718 0 0 0 0 0 96508091.35151081 -10356806.7464065 -10356806.7464065 -5708430.70933608 0 0 0 0 0 98122235.82099763 -10317873.17009788 -10317873.17009788 -6807097.308863704 0 0 0 0 0 97417845.3786554 -10432264.22178295 -10432264.22178295 -6126903.499184835 0 0 0 0 0 113763929.2080954 3628791.523458718 3628791.523458718 20064451.36399692 0 0 0 0 0 113953942.8660778 2780705.179331989 2780705.179331989 21022502.55178429 0 0 0 0 0 113631314.0988669 4371614.872765617 4371614.872765617 18982001.68095521 0 0 0 0 0 113537141.1417537 5006985.418984187 5006985.418984187 17773720.71264677 0 0 0 0 0 113470850.1340213 1402797.172328917 1402797.172328917 21455351.23725699 0 0 0 0 0 113321381.9008684 639795.8583157585 639795.8583157585 21548450.21393466 0 0 0 0 0 113475638.6857604 5528664.269180091 5528664.269180091 16477134.66924022 0 0 0 0 0 113435972.3289637 5934493.378352706 5934493.378352706 15119933.88258284 0 0 0 0 0 113396716.6250612 6223521.20458931 6223521.20458931 13747518.93381902 0 0 0 0 0 113342562.3943706 6398491.376922134 6398491.376922134 12360757.47046388 0 0 0 0 0 113289430.8573641 6478130.368054541 6478130.368054541 10978665.97893557 0 0 0 0 0 113229519.4604333 6471593.39175682 6471593.39175682 9611569.13620279 0 0 0 0 0 113146034.561093 6381631.316458487 6381631.316458487 8295865.663728833 0 0 0 0 0 113043327.4380254 6221470.11444864 6221470.11444864 7032829.537931718 0 0 0 0 0 112913053.3179341 6008034.16608651 6008034.16608651 5822531.342758441 0 0 0 0 0 112755704.3361635 5740561.777153868 5740561.777153868 4706148.951490473 0 0 0 0 0 112576493.4182178 5424319.301314673 5424319.301314673 3669178.574363863 0 0 0 0 0 112384324.7607409 5089197.474409238 5089197.474409238 2658839.050237278 0 0 0 0 0 112249502.2900798 4422813.994122135 4422813.994122135 717032.9581699057 0 0 0 0 0 112501410.3492228 4382928.612972446 4382928.612972446 804270.5287198394 0 0 0 0 0 112198039.0733188 3974659.30197243 3974659.30197243 18624.43471631974 0 0 0 0 0 112009647.3000995 3209435.60006835 3209435.60006835 -1702534.755494429 0 0 0 0 0 112076491.8348528 3069546.776321741 3069546.776321741 -1610532.249864402 0 0 0 0 0 102947319.7159736 -9462012.257656816 -9462012.257656816 -8150110.906074585 0 0 0 0 0 101826026.9906201 -9898868.140227575 -9898868.140227575 -7801316.10906968 0 0 0 0 0 104048775.4274942 -8944097.83397484 -8944097.83397484 -8435527.129508916 0 0 0 0 0 105113201.2272017 -8357105.683201135 -8357105.683201135 -8654731.312233351 0 0 0 0 0 106128589.0256115 -7706488.736962274 -7706488.736962274 -8799435.282036427 0 0 0 0 0 107085277.0828857 -6998912.695464053 -6998912.695464053 -8862800.980497818 0 0 0 0 0 107972560.4313659 -6243526.49879681 -6243526.49879681 -8840929.376308033 0 0 0 0 0 108782936.1109675 -5449297.782601945 -5449297.782601945 -8730055.882150782 0 0 0 0 0 109508878.7534637 -4626876.00794241 -4626876.00794241 -8528790.157906841 0 0 0 0 0 110144598.5874895 -3787265.909185461 -3787265.909185461 -8236592.718694529 0 0 0 0 0 110686705.5314141 -2941336.295763892 -2941336.295763892 -7854283.206402753 0 0 0 0 0 111131448.0539231 -2100429.260905906 -2100429.260905906 -7386312.926718773 0 0 0 0 0 111481868.4418946 -1275706.860576293 -1275706.860576293 -6837159.729015527 0 0 0 0 0 111733757.1268035 -478132.7632462512 -478132.7632462512 -6212765.168730336 0 0 0 0 0 111889245.5296229 280382.7519262832 280382.7519262832 -5523959.602446046 0 0 0 0 0 111957129.4261039 998280.5836284313 998280.5836284313 -4771781.254645713 0 0 0 0 0 111942582.2039529 1663372.839250075 1663372.839250075 -3970495.78764306 0 0 0 0 0 111849248.8466532 2264991.783009041 2264991.783009041 -3135133.684153448 0 0 0 0 0 100440499.5451231 -10116964.5428888 -10116964.5428888 -8043121.573637665 0 0 0 0 0 100424250.2663276 -9951147.773018727 -9951147.773018727 -7015458.410626811 0 0 0 0 0 99177314.85476275 -10119465.76145823 -10119465.76145823 -7261694.480683432 0 0 0 0 0 97253371.41425149 -9902473.331157656 -9902473.331157656 -5375712.190990854 0 0 0 0 0 99159956.77415845 -9867059.790228792 -9867059.790228792 -6263274.471064301 0 0 0 0 0 97981325.0732886 -9910629.064876242 -9910629.064876242 -5871127.115765147 0 0 0 0 0 113251685.6609662 2441437.605773817 2441437.605773817 20541646.97894287 0 0 0 0 0 113068627.2518573 3264291.25488721 3264291.25488721 19428404.63609283 0 0 0 0 0 112943069.7653442 3971925.624431184 3971925.624431184 18168574.29005737 0 0 0 0 0 112836724.1356934 4573458.74641695 4573458.74641695 16820750.45431647 0 0 0 0 0 113021422.9989902 1678731.571685342 1678731.571685342 20310669.11765121 0 0 0 0 0 112779639.2651853 292893.6728207903 292893.6728207903 20682362.27318723 0 0 0 0 0 112758898.9247302 5065502.09920655 5065502.09920655 15408654.26756099 0 0 0 0 0 112702230.6487884 5445002.528187618 5445002.528187618 13950605.00871306 0 0 0 0 0 112650788.3602779 5714321.538738282 5714321.538738282 12517399.33689222 0 0 0 0 0 112602612.8782754 5886677.705370344 5886677.705370344 11095376.75193486 0 0 0 0 0 112550998.5517481 5965919.854915322 5965919.854915322 9703424.535180405 0 0 0 0 0 112499102.6831522 5963687.914455663 5963687.914455663 8351701.983039981 0 0 0 0 0 112429134.2616472 5882275.250354875 5882275.250354875 7055455.35136139 0 0 0 0 0 112347021.8130044 5735164.848155515 5735164.848155515 5822201.220013628 0 0 0 0 0 112243837.0253746 5544671.274295429 5544671.274295429 4678373.707796778 0 0 0 0 0 112113683.9361845 5297901.287371259 5297901.287371259 3617039.370331981 0 0 0 0 0 111929629.749977 4984537.782952668 4984537.782952668 2599850.801514665 0 0 0 0 0 111829922.3946184 4708215.734094754 4708215.734094754 1715458.758926441 0 0 0 0 0 112147808.984412 4738027.798604125 4738027.798604125 1781453.714846545 0 0 0 0 0 111987456.1538481 4027822.899414646 4027822.899414646 -63546.39613112465 0 0 0 0 0 111717168.5991053 3648272.497298906 3648272.497298906 -764003.106477955 0 0 0 0 0 111886753.8000644 3569231.61540747 3569231.61540747 -677518.4986499605 0 0 0 0 0 111676508.8508776 2798022.304979821 2798022.304979821 -2271746.104797659 0 0 0 0 0 102633700.4717195 -9220284.680550873 -9220284.680550873 -8653708.253605351 0 0 0 0 0 101542760.2996583 -9709220.416913919 -9709220.416913919 -8380993.747594501 0 0 0 0 0 103713088.3224464 -8659041.019944588 -8659041.019944588 -8855730.635921486 0 0 0 0 0 104759600.5547945 -8031640.213496822 -8031640.213496822 -8979823.964261806 0 0 0 0 0 105762365.042417 -7343836.947290054 -7343836.947290054 -9020431.645837411 0 0 0 0 0 106711396.1886301 -6604396.977888372 -6604396.977888372 -8974101.620555185 0 0 0 0 0 107596874.4367933 -5821982.486071692 -5821982.486071692 -8837813.994905841 0 0 0 0 0 108410676.3885346 -5006246.342136112 -5006246.342136112 -8610136.628451144 0 0 0 0 0 109144980.3627553 -4167790.866753433 -4167790.866753433 -8291601.766198982 0 0 0 0 0 109793116.0025772 -3318079.298928265 -3318079.298928265 -7885178.579223698 0 0 0 0 0 110351096.0095448 -2467865.347164944 -2467865.347164944 -7393670.124583302 0 0 0 0 0 110818271.9584098 -1626384.371964887 -1626384.371964887 -6820955.159389357 0 0 0 0 0 111186098.2440085 -810491.1479263564 -810491.1479263564 -6180347.19545392 0 0 0 0 0 111462478.41979 -23786.79635628116 -23786.79635628116 -5471665.821022346 0 0 0 0 0 111646632.272939 720672.7867598386 720672.7867598386 -4708730.154761513 0 0 0 0 0 111748384.2737502 1423160.900220675 1423160.900220675 -3893709.841146564 0 0 0 0 0 111762483.7742213 2065933.084665092 2065933.084665092 -3050569.527050403 0 0 0 0 0 111699808.5823598 2640111.990209944 2640111.990209944 -2184554.563072241 0 0 0 0 0 101481503.2536759 -9634372.209106574 -9634372.209106574 -7419332.6001111 0 0 0 0 0 100191887.501986 -9831182.206092006 -9831182.206092006 -7658793.973739827 0 0 0 0 0 100180680.4098955 -9651995.774864743 -9651995.774864743 -6674897.28257678 0 0 0 0 0 97426589.21240625 -9991460.246922137 -9991460.246922137 -6040632.278559092 0 0 0 0 0 98204329.99529532 -9990546.825536205 -9990546.825536205 -6505190.339477094 0 0 0 0 0 99013679.46263048 -9808488.812758734 -9808488.812758734 -6932006.905945069 0 0 0 0 0 112852784.5949479 2739356.080857857 2739356.080857857 19820207.25582585 0 0 0 0 0 112728659.4331486 3559854.312066948 3559854.312066948 19023977.38013428 0 0 0 0 0 112638697.9944152 4269000.393319194 4269000.393319194 18010099.29243861 0 0 0 0 0 112583596.7779007 4864515.723020263 4864515.723020263 16873344.58636555 0 0 0 0 0 112521553.8961122 995811.4313269544 995811.4313269544 21231496.51285418 0 0 0 0 0 112515682.9262182 1646662.371638329 1646662.371638329 20541322.65219062 0 0 0 0 0 112284945.7867738 495636.6759795208 495636.6759795208 20527859.11084577 0 0 0 0 0 112555559.6703086 5350655.943084959 5350655.943084959 15662568.80850264 0 0 0 0 0 112531493.1712154 5723561.454085659 5723561.454085659 14422183.19481834 0 0 0 0 0 112515180.6267279 5992385.005686141 5992385.005686141 13130904.29590462 0 0 0 0 0 112487572.9105488 6159069.201182273 6159069.201182273 11833571.01546634 0 0 0 0 0 112466674.7010893 6242023.678847359 6242023.678847359 10536815.41228669 0 0 0 0 0 112428265.9229575 6242683.689470854 6242683.689470854 9266753.948390929 0 0 0 0 0 112372147.2725126 6162664.851893059 6162664.851893059 8048175.663655516 0 0 0 0 0 112292322.5335334 6023230.195314143 6023230.195314143 6860105.636525525 0 0 0 0 0 112188977.1341277 5833768.268941948 5833768.268941948 5718092.662409678 0 0 0 0 0 112073205.8985326 5584645.190259278 5584645.190259278 4709205.185959835 0 0 0 0 0 111884130.3298078 5306299.388983708 5306299.388983708 3738312.865099484 0 0 0 0 0 111765777.4928107 5013937.319986773 5013937.319986773 2734781.835446719 0 0 0 0 0 111712600.4820228 4428568.090990699 4428568.090990699 974059.4818849276 0 0 0 0 0 111865099.6390256 4365594.799795692 4365594.799795692 1042670.792113751 0 0 0 0 0 111643479.2322371 4005898.617436155 4005898.617436155 275299.7965495141 0 0 0 0 0 111450805.4970881 3278291.937906976 3278291.937906976 -1371643.626837455 0 0 0 0 0 111570194.0444525 3151496.99507808 3151496.99507808 -1275029.051103201 0 0 0 0 0 103580953.0438739 -8781376.416470204 -8781376.416470204 -8058907.390214697 0 0 0 0 0 102533760.8848757 -9250910.26232834 -9250910.26232834 -7772483.044247884 0 0 0 0 0 104597845.8292428 -8247319.66906485 -8247319.66906485 -8291000.43131102 0 0 0 0 0 105572957.573821 -7652053.450447861 -7652053.450447861 -8455524.024899146 0 0 0 0 0 106496591.3494709 -7000974.884374808 -7000974.884374808 -8546388.909014793 0 0 0 0 0 107359643.1303904 -6302595.786849059 -6302595.786849059 -8560076.874537254 0 0 0 0 0 108154037.5266858 -5564669.740308245 -5564669.740308245 -8492086.279251866 0 0 0 0 0 108872610.4612912 -4796559.189891402 -4796559.189891402 -8340893.279425979 0 0 0 0 0 109509616.7537218 -4007816.539782347 -4007816.539782347 -8105327.286210337 0 0 0 0 0 110060985.1914551 -3208503.209009612 -3208503.209009612 -7785849.521989527 0 0 0 0 0 110523892.2654112 -2408814.863973255 -2408814.863973255 -7384572.565361585 0 0 0 0 0 110896097.5269599 -1618563.118707323 -1618563.118707323 -6905605.628833553 0 0 0 0 0 111180037.4381639 -848922.4150804805 -848922.4150804805 -6352567.000358446 0 0 0 0 0 111374927.1991468 -108816.0283204757 -108816.0283204757 -5734758.476633173 0 0 0 0 0 111484569.3473953 593974.4737445368 593974.4737445368 -5055448.312821562 0 0 0 0 0 111512622.5511458 1253879.81883573 1253879.81883573 -4326077.439540764 0 0 0 0 0 111467466.6412589 1861618.26872175 1861618.26872175 -3555331.754058681 0 0 0 0 0 111362442.4745663 2410608.59625608 2410608.59625608 -2757475.072822966 0 0 0 0 0 101225066.8691696 -9474155.776770072 -9474155.776770072 -7991930.180418789 0 0 0 0 0 101178142.517778 -9381669.526038252 -9381669.526038252 -7061984.151483229 0 0 0 0 0 99979579.36110644 -9547603.577217821 -9547603.577217821 -7291376.611375065 0 0 0 0 0 98172222.39016047 -9510505.569561146 -9510505.569561146 -5606608.884241237 0 0 0 0 0 99085035.44259645 -9472057.842300309 -9472057.842300309 -6028027.739169236 0 0 0 0 0 100034957.2703323 -9335423.341626408 -9335423.341626408 -6389319.866258298 0 0 0 0 0 112298865.4395477 2490376.232157263 2490376.232157263 19490331.98938549 0 0 0 0 0 112149458.6316741 3238341.221626779 3238341.221626779 18409496.07179536 0 0 0 0 0 112029348.6443716 3903583.857212843 3903583.857212843 17234824.08178127 0 0 0 0 0 111951566.7394768 4465980.57016019 4465980.57016019 15977364.784073 0 0 0 0 0 112042009.3468298 1032785.821425764 1032785.821425764 19637408.90032833 0 0 0 0 0 112056700.7366767 1898205.333747537 1898205.333747537 19318770.60865126 0 0 0 0 0 111796552.981607 264454.0856388332 264454.0856388332 20217126.34151691 0 0 0 0 0 111900381.0257791 4920363.894156356 4920363.894156356 14652156.90401272 0 0 0 0 0 111860388.1886855 5269826.49722297 5269826.49722297 13319888.98931712 0 0 0 0 0 111831262.8999319 5522632.385918306 5522632.385918306 11983838.24643505 0 0 0 0 0 111804516.907459 5684165.431568387 5684165.431568387 10664401.49828305 0 0 0 0 0 111784231.1450024 5766553.784193499 5766553.784193499 9355229.956545461 0 0 0 0 0 111752501.1823766 5771895.348503251 5771895.348503251 8097058.150382807 0 0 0 0 0 111714168.1916208 5698940.356315223 5698940.356315223 6884283.190553781 0 0 0 0 0 111626357.7153478 5561559.204215785 5561559.204215785 5718790.444405613 0 0 0 0 0 111542673.6336979 5393129.005109651 5393129.005109651 4646619.963408409 0 0 0 0 0 111506922.726915 5193201.722870212 5193201.722870212 3673807.537060798 0 0 0 0 0 111271520.778568 4875882.732450985 4875882.732450985 2750055.831119786 0 0 0 0 0 111191823.8734554 4618384.642678962 4618384.642678962 1833922.784633262 0 0 0 0 0 111493869.748494 4649441.353056058 4649441.353056058 1879143.201744657 0 0 0 0 0 111332278.078556 3998894.325278623 3998894.325278623 192067.4311266649 0 0 0 0 0 111139747.814219 3682440.475465701 3682440.475465701 -473315.4793569706 0 0 0 0 0 111369275.9088094 3604898.172333526 3604898.172333526 -371597.4713024385 0 0 0 0 0 111150311.7168316 2870727.657234235 2870727.657234235 -1949049.258048207 0 0 0 0 0 103267898.4312389 -8524004.94203482 -8524004.94203482 -8486672.996046167 0 0 0 0 0 102242176.6548847 -9033679.95470289 -9033679.95470289 -8270243.103647103 0 0 0 0 0 104267835.1665562 -7951367.044120062 -7951367.044120062 -8632736.988198172 0 0 0 0 0 105229177.1061452 -7320316.086913468 -7320316.086913468 -8703639.353733769 0 0 0 0 0 106144321.1788835 -6638247.641442588 -6638247.641442588 -8694722.221519507 0 0 0 0 0 107003666.0525417 -5913223.688054754 -5913223.688054754 -8603572.574978657 0 0 0 0 0 107799366.7168165 -5153535.29337255 -5153535.29337255 -8427841.117351418 0 0 0 0 0 108524082.6544486 -4368527.427612097 -4368527.427612097 -8167374.080207535 0 0 0 0 0 109171707.6389588 -3568062.294941093 -3568062.294941093 -7823488.895851903 0 0 0 0 0 109737678.8265291 -2762001.946170409 -2762001.946170409 -7398762.338223212 0 0 0 0 0 110218535.9495231 -1960605.867511562 -1960605.867511562 -6897563.294145126 0 0 0 0 0 110612189.4840308 -1174021.470816553 -1174021.470816553 -6325303.500372122 0 0 0 0 0 110918466.8551363 -412010.7601056059 -412010.7601056059 -5689643.518934988 0 0 0 0 0 111135782.0175989 314512.4755302751 314512.4755302751 -4999707.563934014 0 0 0 0 0 111272793.3678179 1002611.674567046 1002611.674567046 -4255429.731586127 0 0 0 0 0 111329262.1238111 1644704.741935652 1644704.741935652 -3474555.354555718 0 0 0 0 0 111310283.2420854 2230237.850127019 2230237.850127019 -2673586.955567549 0 0 0 0 0 111227062.5813268 2742217.879443232 2742217.879443232 -1850893.02066835 0 0 0 0 0 102159645.2899966 -9039052.701940218 -9039052.701940218 -7410630.228317893 0 0 0 0 0 100928501.7052395 -9226990.643476289 -9226990.643476289 -7620319.946158682 0 0 0 0 0 100933642.7153608 -9102181.502822053 -9102181.502822053 -6752796.919549982 0 0 0 0 0 98302319.94494356 -9563713.887991581 -9563713.887991581 -6258131.848390951 0 0 0 0 0 99087195.13753319 -9455788.872468883 -9455788.872468883 -6631235.8933554 0 0 0 0 0 99881968.60429245 -9259125.919909464 -9259125.919909464 -6958816.76144056 0 0 0 0 0 111927602.4740816 2772525.65892084 2772525.65892084 18921597.49445258 0 0 0 0 0 111827891.8300886 3516931.329490084 3516931.329490084 18053782.36899866 0 0 0 0 0 111762837.9701023 4168205.347547026 4168205.347547026 17090383.14799 0 0 0 0 0 111734778.4838541 4721314.128573519 4721314.128573519 16030699.75664577 0 0 0 0 0 111649722.4941862 1292401.547686346 1292401.547686346 20032190.49970251 0 0 0 0 0 111614745.4389897 1803338.609467492 1803338.609467492 19327543.24041259 0 0 0 0 0 111340785.219615 557454.5095291651 557454.5095291651 19511881.98902284 0 0 0 0 0 111720710.3228672 5169734.747109116 5169734.747109116 14918764.68063398 0 0 0 0 0 111712833.3421181 5514191.278713993 5514191.278713993 13748955.62433743 0 0 0 0 0 111714279.0882239 5765692.404361239 5765692.404361239 12550925.65271231 0 0 0 0 0 111718016.7049134 5927195.39255783 5927195.39255783 11333516.4669136 0 0 0 0 0 111714675.5849852 6010836.001988142 6010836.001988142 10119032.66900838 0 0 0 0 0 111698602.9001435 6015356.816241586 6015356.816241586 8936856.357868912 0 0 0 0 0 111658843.4638966 5959771.894340901 5959771.894340901 7795698.286431075 0 0 0 0 0 111578277.9978457 5827675.396350414 5827675.396350414 6688277.49133452 0 0 0 0 0 111501783.147119 5670155.02937115 5670155.02937115 5633690.527303305 0 0 0 0 0 111284669.3039072 5414114.730215308 5414114.730215308 4758540.862730445 0 0 0 0 0 111360908.2862348 5173074.602670094 5173074.602670094 3451450.860062772 0 0 0 0 0 111294522.9134086 4866396.84860313 4866396.84860313 2517737.664529147 0 0 0 0 0 111245095.7048096 4499451.504985864 4499451.504985864 1256084.089065143 0 0 0 0 0 111312441.6690414 4349580.6082518 4349580.6082518 1264323.650827869 0 0 0 0 0 111124845.1652082 4011739.328826999 4011739.328826999 565773.4832076189 0 0 0 0 0 110968643.4640169 3320280.127252057 3320280.127252057 -1070201.486296683 0 0 0 0 0 111063857.5824317 3224611.154146165 3224611.154146165 -990161.9789016149 0 0 0 0 0 104125411.3323176 -8124391.426926253 -8124391.426926253 -7937373.218559812 0 0 0 0 0 103154532.7114665 -8610085.912501656 -8610085.912501656 -7694382.624091589 0 0 0 0 0 105058643.962952 -7581355.799700431 -7581355.799700431 -8119111.065399713 0 0 0 0 0 105949374.2799261 -6982822.040663828 -6982822.040663828 -8232809.11315671 0 0 0 0 0 106786851.9182591 -6337395.92605555 -6337395.92605555 -8276201.883256029 0 0 0 0 0 107563427.5705244 -5652444.438569984 -5652444.438569984 -8245300.724588839 0 0 0 0 0 108272010.7382017 -4935899.129216186 -4935899.129216186 -8137684.594973412 0 0 0 0 0 108907027.0519266 -4196337.307832312 -4196337.307832312 -7951890.077889903 0 0 0 0 0 109464068.4090968 -3442682.089855923 -3442682.089855923 -7687710.923960691 0 0 0 0 0 109939898.4238351 -2684087.902755865 -2684087.902755865 -7346453.107476078 0 0 0 0 0 110332563.3131564 -1929945.385325092 -1929945.385325092 -6930778.946999365 0 0 0 0 0 110642096.8788868 -1189367.190457376 -1189367.190457376 -6444590.007312429 0 0 0 0 0 110868999.501396 -471494.0702804846 -471494.0702804846 -5893132.720402386 0 0 0 0 0 111015804.7118187 215057.2869682351 215057.2869682351 -5282179.28607705 0 0 0 0 0 111082301.6868051 862228.0783044532 862228.0783044532 -4621511.199311698 0 0 0 0 0 111076496.4906526 1468585.743132657 1468585.743132657 -3912028.045347232 0 0 0 0 0 111001229.8143305 2021645.667642546 2021645.667642546 -3176376.241321354 0 0 0 0 0 110865295.1593694 2497638.979367863 2497638.979367863 -2458435.307315642 0 0 0 0 0 101884316.3007226 -8838327.264225775 -8838327.264225775 -7901351.61449264 0 0 0 0 0 101821704.5098893 -8812437.391355645 -8812437.391355645 -7075053.299719915 0 0 0 0 0 100729563.726083 -8981033.543936709 -8981033.543936709 -7250253.827884004 0 0 0 0 0 99093051.92021202 -9080731.305496577 -9080731.305496577 -5775416.912691041 0 0 0 0 0 99880168.26226363 -9020134.901890347 -9020134.901890347 -6183505.294031126 0 0 0 0 0 100751108.8066072 -8871948.773629842 -8871948.773629842 -6474072.463949085 0 0 0 0 0 111442551.3706928 2518921.388169215 2518921.388169215 18479721.84181338 0 0 0 0 0 111299577.8791141 3219256.548147531 3219256.548147531 17472570.09867676 0 0 0 0 0 111209863.2922181 3832357.714039568 3832357.714039568 16367112.19238832 0 0 0 0 0 111157203.8428655 4349743.033660939 4349743.033660939 15177158.94142904 0 0 0 0 0 111246894.9877334 1180905.914381053 1180905.914381053 18749419.40686537 0 0 0 0 0 111215956.8559631 2075901.11953912 2075901.11953912 18862444.24058428 0 0 0 0 0 110862223.9978062 259808.85505725 259808.85505725 18868424.18653561 0 0 0 0 0 111118316.7174151 4767326.163028481 4767326.163028481 13965536.53158917 0 0 0 0 0 111093063.4394357 5091405.995111705 5091405.995111705 12722350.0343338 0 0 0 0 0 111086151.926115 5332085.110165643 5332085.110165643 11479931.6161765 0 0 0 0 0 111084566.8318447 5486002.153104354 5486002.153104354 10237342.31959655 0 0 0 0 0 111074138.8658013 5565844.062918914 5565844.062918914 9016250.060815221 0 0 0 0 0 111123848.5172736 5599341.741391416 5599341.741391416 7868170.00538109 0 0 0 0 0 111040520.842326 5530851.004870427 5530851.004870427 6710649.775918948 0 0 0 0 0 110948594.4842503 5395284.108123174 5395284.108123174 5624953.035376266 0 0 0 0 0 110957835.1531639 5288778.634639223 5288778.634639223 4683693.175044291 0 0 0 0 0 111135166.2360403 5342886.420379902 5342886.420379902 4300575.258437417 0 0 0 0 0 110671926.9772384 4978097.389467112 4978097.389467112 3806682.977579798 0 0 0 0 0 110738984.522609 4747972.700025402 4747972.700025402 2687751.451617244 0 0 0 0 0 110739948.8377227 4487786.119788835 4487786.119788835 1900746.116594255 0 0 0 0 0 110805337.383595 4027477.510784958 4027477.510784958 475601.3285054662 0 0 0 0 0 110692431.5021182 3713329.691697242 3713329.691697242 -198379.1844815114 0 0 0 0 0 110731093.9463625 3595942.03785234 3595942.03785234 -151086.79500807 0 0 0 0 0 110562964.5179231 2888583.926046732 2888583.926046732 -1688486.519161873 0 0 0 0 0 102861246.650614 -8377399.753288988 -8377399.753288988 -8130221.414394691 0 0 0 0 0 103816481.107303 -7856867.419625696 -7856867.419625696 -8294191.929807347 0 0 0 0 0 104735050.4876387 -7278186.296079058 -7278186.296079058 -8389390.605199641 0 0 0 0 0 105616910.1148233 -6649318.435862186 -6649318.435862186 -8412184.386592668 0 0 0 0 0 106449552.9884918 -5977965.088790061 -5977965.088790061 -8359804.695177398 0 0 0 0 0 107225792.8783797 -5271062.592271325 -5271062.592271325 -8229388.340471174 0 0 0 0 0 107938510.8579308 -4537097.725562915 -4537097.725562915 -8020335.080488902 0 0 0 0 0 108581893.5751599 -3784724.102270605 -3784724.102270605 -7733057.774755457 0 0 0 0 0 109151104.559815 -3022814.183493969 -3022814.183493969 -7369205.119632768 0 0 0 0 0 109642553.0625114 -2260636.760524165 -2260636.760524165 -6931903.171289349 0 0 0 0 0 110053775.1406262 -1507544.485068231 -1507544.485068231 -6426127.55167775 0 0 0 0 0 110384220.9754519 -772292.5885462723 -772292.5885462723 -5857039.532226658 0 0 0 0 0 110633445.877918 -64083.36929967374 -64083.36929967374 -5231804.471332794 0 0 0 0 0 110804248.1995564 609315.8443824687 609315.8443824687 -4558097.32725972 0 0 0 0 0 110899196.5639117 1239295.026599139 1239295.026599139 -3834433.060687037 0 0 0 0 0 110921702.6219147 1824204.508157759 1824204.508157759 -3076608.896042729 0 0 0 0 0 110893702.8820143 2355519.250906969 2355519.250906969 -2340038.661670747 0 0 0 0 0 110823602.530956 2823261.493540069 2823261.493540069 -1578649.156732139 0 0 0 0 0 102763116.8845637 -8431340.539290223 -8431340.539290223 -7351069.358764938 0 0 0 0 0 101552914.8688349 -8625492.228897717 -8625492.228897717 -7561417.954929926 0 0 0 0 0 101542099.2746166 -8609332.186041601 -8609332.186041601 -6825189.097755964 0 0 0 0 0 99154531.61577821 -9102319.095950434 -9102319.095950434 -6394479.580580153 0 0 0 0 0 99873096.83809297 -8995811.14392351 -8995811.14392351 -6702436.144648824 0 0 0 0 0 100536113.2503571 -8728527.148474818 -8728527.148474818 -6938306.898107458 0 0 0 0 0 111094525.2218096 2789241.113327692 2789241.113327692 17982189.56533502 0 0 0 0 0 111013748.3092396 3468182.419118864 3468182.419118864 17159322.82967779 0 0 0 0 0 110976246.2439245 4067017.701018128 4067017.701018128 16240007.18738471 0 0 0 0 0 110960705.3814543 4574649.152781012 4574649.152781012 15258996.41364444 0 0 0 0 0 110803909.473879 1208514.909125171 1208514.909125171 19052188.08143584 0 0 0 0 0 110769430.6679187 1817922.205058609 1817922.205058609 18351675.70157382 0 0 0 0 0 110466079.2693712 472851.7328266063 472851.7328266063 18628593.43647273 0 0 0 0 0 110959611.910944 4987000.479733884 4987000.479733884 14206315.3683965 0 0 0 0 0 110971127.8091085 5307026.527878301 5307026.527878301 13121771.48827327 0 0 0 0 0 110994918.9498046 5546594.124224151 5546594.124224151 11987139.59473711 0 0 0 0 0 111013321.9687858 5700992.237030396 5700992.237030396 10858729.34739197 0 0 0 0 0 110982575.422681 5795798.056584808 5795798.056584808 9601429.134328088 0 0 0 0 0 111088479.7287132 5811729.318957263 5811729.318957263 8504949.552995527 0 0 0 0 0 111020584.4083931 5711815.737593533 5711815.737593533 7586579.877566887 0 0 0 0 0 110971000.9248899 5628019.070790775 5628019.070790775 6599131.754447422 0 0 0 0 0 111074676.0131968 5541440.924651077 5541440.924651077 5562211.983516749 0 0 0 0 0 110455677.3747245 5143540.170540217 5143540.170540217 4841046.536193023 0 0 0 0 0 110764982.8799298 5151855.877508906 5151855.877508906 4037281.709866446 0 0 0 0 0 110849827.5603452 4947676.578379998 4947676.578379998 3123140.443567235 0 0 0 0 0 110854253.4591145 4660326.728403714 4660326.728403714 2185017.004499221 0 0 0 0 0 110868782.4298368 4347629.433670545 4347629.433670545 1384219.308524285 0 0 0 0 0 110554795.504401 3955531.348967788 3955531.348967788 665465.9068482147 0 0 0 0 0 110597324.6504896 3495823.959081766 3495823.959081766 -525770.0371019071 0 0 0 0 0 110742244.1452738 3221482.339872102 3221482.339872102 -935632.4016958878 0 0 0 0 0 103692637.1370002 -7990020.796505657 -7990020.796505657 -7598084.120963458 0 0 0 0 0 104583259.8944799 -7497579.774243196 -7497579.774243196 -7793717.540360582 0 0 0 0 0 105441208.217051 -6946281.116226085 -6946281.116226085 -7923691.947135161 0 0 0 0 0 106251923.0393782 -6350749.363593138 -6350749.363593138 -7992700.442323816 0 0 0 0 0 107009186.6036571 -5715497.482495103 -5715497.482495103 -7993444.373370271 0 0 0 0 0 107705769.996153 -5047704.438313022 -5047704.438313022 -7923591.225691654 0 0 0 0 0 108336077.8417426 -4355074.671569481 -4355074.671569481 -7781267.002909781 0 0 0 0 0 108895320.2041489 -3645792.957103225 -3645792.957103225 -7566195.377273852 0 0 0 0 0 109380269.0058449 -2927878.709084711 -2927878.709084711 -7278520.446814238 0 0 0 0 0 109788461.4322729 -2210000.118816712 -2210000.118816712 -6920359.193935015 0 0 0 0 0 110119585.5987445 -1500248.08603189 -1500248.08603189 -6494410.8186751 0 0 0 0 0 110373744.810274 -807095.8056827431 -807095.8056827431 -6005120.346907665 0 0 0 0 0 110552373.5119224 -138717.3066758196 -138717.3066758196 -5457726.221154828 0 0 0 0 0 110658798.4928859 497524.8331957488 497524.8331957488 -4859054.694441482 0 0 0 0 0 110692435.9619648 1089470.112904474 1089470.112904474 -4219387.30683496 0 0 0 0 0 110665006.4011282 1641845.64350903 1641845.64350903 -3532926.546160495 0 0 0 0 0 110600650.5790203 2156771.041282544 2156771.041282544 -2830461.547638544 0 0 0 0 0 110405463.4387317 2551291.775854733 2551291.775854733 -2217019.24966964 0 0 0 0 0 102490424.3988177 -8221566.46929894 -8221566.46929894 -7786388.477271984 0 0 0 0 0 102401458.6908265 -8233256.406570263 -8233256.406570263 -7064346.28668627 0 0 0 0 0 101313178.6272519 -8397428.139297666 -8397428.139297666 -7096001.349230806 0 0 0 0 0 99903929.38055043 -8641313.293363377 -8641313.293363377 -5916960.265148466 0 0 0 0 0 100476212.5588137 -8578674.040414719 -8578674.040414719 -6302142.756041535 0 0 0 0 0 100988730.104276 -8547391.206851298 -8547391.206851298 -6655708.116083276 0 0 0 0 0 110615632.4159157 2538472.760626601 2538472.760626601 17545531.24367667 0 0 0 0 0 110524842.8817924 3187546.349175163 3187546.349175163 16597089.4736017 0 0 0 0 0 110469895.5121921 3752847.432666916 3752847.432666916 15548438.31976312 0 0 0 0 0 110433837.6404565 4229804.588553357 4229804.588553357 14451674.20074354 0 0 0 0 0 110403627.0315986 1024459.986733084 1024459.986733084 17903349.46685693 0 0 0 0 0 110435877.2569692 2045343.486911625 2045343.486911625 17751746.04521418 0 0 0 0 0 110099274.8727044 241059.068984639 241059.068984639 18103794.33171075 0 0 0 0 0 110410464.7077095 4617632.556885468 4617632.556885468 13317736.5238591 0 0 0 0 0 110402029.6521842 4916853.694562881 4916853.694562881 12167428.59012985 0 0 0 0 0 110423881.1224475 5149492.380145726 5149492.380145726 11001855.58426714 0 0 0 0 0 110438145.8176127 5291460.842391117 5291460.842391117 9821293.426113775 0 0 0 0 0 110494632.760115 5419035.078121778 5419035.078121778 8820140.499034159 0 0 0 0 0 110513636.7119824 5433338.776305093 5433338.776305093 7519837.67355845 0 0 0 0 0 110505766.2130406 5370892.440590102 5370892.440590102 6532670.285407994 0 0 0 0 0 110402641.8708159 5228030.524789778 5228030.524789778 5625027.037462485 0 0 0 0 0 110525713.0522404 5289713.794995075 5289713.794995075 4970020.923954115 0 0 0 0 0 110107250.7291005 4969308.617681958 4969308.617681958 4442198.332755832 0 0 0 0 0 110223842.2630014 4783297.076764188 4783297.076764188 3454366.991241495 0 0 0 0 0 110272137.2475261 4542825.389015879 4542825.389015879 2472712.420537559 0 0 0 0 0 110308777.4834367 4250659.805016697 4250659.805016697 1495212.947577763 0 0 0 0 0 110354182.0252739 4003975.409152084 4003975.409152084 587549.6789331721 0 0 0 0 0 110404576.7359248 3855425.946309531 3855425.946309531 301595.4753388601 0 0 0 0 0 110127372.6874512 3197215.652954067 3197215.652954067 -805500.824025763 0 0 0 0 0 110165972.7801729 3637562.451292738 3637562.451292738 177570.7802322767 0 0 0 0 0 110118716.5069966 2847296.937940828 2847296.937940828 -1556132.758197211 0 0 0 0 0 103407327.3722456 -7750866.792706141 -7750866.792706141 -7963462.469631737 0 0 0 0 0 104278640.1020638 -7219217.548981183 -7219217.548981183 -8079295.665413841 0 0 0 0 0 105127581.4416583 -6640315.944821982 -6640315.944821982 -8129304.410264143 0 0 0 0 0 105932763.0763664 -6019041.883355304 -6019041.883355304 -8109961.176747783 0 0 0 0 0 106688413.3526201 -5361897.913621617 -5361897.913621617 -8019018.642308424 0 0 0 0 0 107387199.0982755 -4676380.023350841 -4676380.023350841 -7855334.820526227 0 0 0 0 0 108023446.2292093 -3970204.000382186 -3970204.000382186 -7618426.714512744 0 0 0 0 0 108592607.4026264 -3251476.067166773 -3251476.067166773 -7309324.886643857 0 0 0 0 0 109090807.1061224 -2528376.889074209 -2528376.889074209 -6930190.087326144 0 0 0 0 0 109515497.3768865 -1809380.365740685 -1809380.365740685 -6484760.5487417 0 0 0 0 0 109865278.3725511 -1102718.055191761 -1102718.055191761 -5978264.563694741 0 0 0 0 0 110140143.4535694 -416325.7834795456 -416325.7834795456 -5415227.000894515 0 0 0 0 0 110340366.120042 241760.2040138624 241760.2040138624 -4803507.995385515 0 0 0 0 0 110469882.959498 865814.7685880909 865814.7685880909 -4156561.633350739 0 0 0 0 0 110528339.2543729 1439377.961882542 1439377.961882542 -3459209.726121834 0 0 0 0 0 110511838.6544164 1953252.140817482 1953252.140817482 -2746733.732927414 0 0 0 0 0 110423733.5156773 2431936.747764562 2431936.747764562 -2133088.183131459 0 0 0 0 0 110469123.2529987 2805118.187765477 2805118.187765477 -1491459.774690802 0 0 0 0 0 103296979.4849333 -7841775.096769469 -7841775.096769469 -7250860.796396076 0 0 0 0 0 102173388.6596644 -8063234.855373415 -8063234.855373415 -7412789.966170634 0 0 0 0 0 101820477.6964919 -8212146.597723612 -8212146.597723612 -6825954.68332906 0 0 0 0 0 99992135.25961819 -8658845.389372312 -8658845.389372312 -6468418.46662205 0 0 0 0 0 100944933.8987034 -8253399.57945938 -8253399.57945938 -6730936.164653532 0 0 0 0 0 110325506.2159689 2759904.568418561 2759904.568418561 17074748.62972347 0 0 0 0 0 110278986.2315434 3399480.312961538 3399480.312961538 16308934.71952669 0 0 0 0 0 110263766.9950711 3957501.912940538 3957501.912940538 15451544.68730137 0 0 0 0 0 110260509.3830034 4428015.73927572 4428015.73927572 14514935.43473061 0 0 0 0 0 110202387.0537797 1240701.012122798 1240701.012122798 18249838.17031387 0 0 0 0 0 110193915.8026924 1078732.750514637 1078732.750514637 18108403.48673415 0 0 0 0 0 110043811.927724 1862763.624987419 1862763.624987419 17485883.51614019 0 0 0 0 0 109762403.9167366 445115.8124686673 445115.8124686673 17735033.02098064 0 0 0 0 0 110271940.2416676 4810035.924430595 4810035.924430595 13542251.5003967 0 0 0 0 0 110297151.5633707 5113113.076782401 5113113.076782401 12520640.37644862 0 0 0 0 0 110343715.7768071 5336663.367660653 5336663.367660653 11450383.63186836 0 0 0 0 0 110284495.058445 5474818.843770203 5474818.843770203 10379904.29004554 0 0 0 0 0 110391491.4384157 5466028.340987583 5466028.340987583 8470512.075418655 0 0 0 0 0 110419796.297307 5527968.315098773 5527968.315098773 8505318.60415221 0 0 0 0 0 110339190.4423204 5509079.550117507 5509079.550117507 7608162.903751738 0 0 0 0 0 110449504.5661079 5427958.319628319 5427958.319628319 6030104.202722719 0 0 0 0 0 109967852.779633 5096660.042325134 5096660.042325134 5451457.554284196 0 0 0 0 0 110175882.1080363 5127927.674664154 5127927.674664154 4632511.863807351 0 0 0 0 0 110309196.8891933 4977671.070567859 4977671.070567859 3740658.501996966 0 0 0 0 0 110383769.8365661 4761145.033057916 4761145.033057916 2856752.095150917 0 0 0 0 0 110479216.7935049 4482409.085946228 4482409.085946228 2048688.643656378 0 0 0 0 0 110445101.9146366 4197973.738720999 4197973.738720999 1265814.293478656 0 0 0 0 0 109921975.661416 3827290.923472349 3827290.923472349 708668.5415173506 0 0 0 0 0 110430468.7388493 3465544.889601204 3465544.889601204 -232613.7616419696 0 0 0 0 0 109808152.4601723 3413960.07826877 3413960.07826877 -309950.5234532683 0 0 0 0 0 110284290.457861 3119794.171334434 3119794.171334434 -876617.1840038683 0 0 0 0 0 104140959.2761571 -7405156.723281038 -7405156.723281038 -7475690.195724089 0 0 0 0 0 104969388.3059051 -6893706.761936867 -6893706.761936867 -7619829.08824933 0 0 0 0 0 105753164.614036 -6345225.597610663 -6345225.597610663 -7711796.076410404 0 0 0 0 0 106489771.1188841 -5756509.601703101 -5756509.601703101 -7739262.454316036 0 0 0 0 0 107172230.5496235 -5134922.259228976 -5134922.259228976 -7702118.813223006 0 0 0 0 0 107795303.5641866 -4487019.497853729 -4487019.497853729 -7598026.379800426 0 0 0 0 0 108354180.7951639 -3820159.08100002 -3820159.08100002 -7426022.471843398 0 0 0 0 0 108844909.9799308 -3142016.222224887 -3142016.222224887 -7186255.135029125 0 0 0 0 0 109265226.65192 -2460062.457617346 -2460062.457617346 -6879738.866837393 0 0 0 0 0 109613596.1388503 -1782054.460154054 -1782054.460154054 -6508615.923349802 0 0 0 0 0 109890910.3493177 -1114824.197251132 -1114824.197251132 -6075759.576741613 0 0 0 0 0 110096439.7537374 -467156.914784902 -467156.914784902 -5586902.042049003 0 0 0 0 0 110231866.4369684 154584.5482732514 154584.5482732514 -5046432.251444113 0 0 0 0 0 110299979.0744984 744768.7870015649 744768.7870015649 -4462342.00008421 0 0 0 0 0 110271874.7976049 1267771.769284525 1267771.769284525 -3869381.219122929 0 0 0 0 0 110275101.9544585 1781930.713691185 1781930.713691185 -3208396.150737406 0 0 0 0 0 110375721.3467048 2397385.47059226 2397385.47059226 -2344680.300366691 0 0 0 0 0 109913536.1244681 2447463.586323144 2447463.586323144 -2056714.266416879 0 0 0 0 0 103024044.447097 -7628222.22202341 -7628222.22202341 -7646289.925740097 0 0 0 0 0 102924182.3879311 -7643221.013500203 -7643221.013500203 -6919252.203015749 0 0 0 0 0 101918672.1559513 -7803141.509437178 -7803141.509437178 -6651714.445107902 0 0 0 0 0 100691913.8395249 -8191600.843906657 -8191600.843906657 -6007033.332221201 0 0 0 0 0 101547729.1340685 -7994480.342133048 -7994480.342133048 -6348911.227181947 0 0 0 0 0 109910316.7827743 2538668.78017443 2538668.78017443 16677972.47949146 0 0 0 0 0 109844962.5085378 3141678.794715838 3141678.794715838 15768980.34846783 0 0 0 0 0 109806620.908622 3666941.451612929 3666941.451612929 14794724.46821228 0 0 0 0 0 109779341.2032865 4110585.160519864 4110585.160519864 13769624.42045462 0 0 0 0 0 109830472.8617483 1484930.224668337 1484930.224668337 17446526.67245238 0 0 0 0 0 109773130.9217232 834864.2765432191 834864.2765432191 17617084.34532701 0 0 0 0 0 109720759.4226404 2072452.952709286 2072452.952709286 16810553.96053874 0 0 0 0 0 109410111.3451506 228539.075873813 228539.075873813 17281647.9127981 0 0 0 0 0 109781941.5146319 4474716.798933635 4474716.798933635 12725959.49771077 0 0 0 0 0 109779500.6648042 4759362.542728472 4759362.542728472 11657951.08753405 0 0 0 0 0 109864800.9484392 4989463.835031609 4989463.835031609 10531658.99258062 0 0 0 0 0 109810936.1164445 5159058.803832264 5159058.803832264 9350328.753856558 0 0 0 0 0 109895558.8938777 5293982.481071614 5293982.481071614 9417768.592827342 0 0 0 0 0 110023710.9787902 5273153.835710379 5273153.835710379 7519810.066991303 0 0 0 0 0 110060711.3232521 5362552.578104456 5362552.578104456 6853392.353614494 0 0 0 0 0 109836747.4512614 5173231.70740757 5173231.70740757 6582464.860451518 0 0 0 0 0 110000748.6008596 5242062.290031879 5242062.290031879 5564993.392870721 0 0 0 0 0 109696806.0181415 4786994.843501123 4786994.843501123 4081681.576499618 0 0 0 0 0 109569687.8308157 4919424.760416685 4919424.760416685 5030686.555363551 0 0 0 0 0 109790149.0141348 4606592.577153593 4606592.577153593 3143253.366422821 0 0 0 0 0 109855328.1424954 4384446.34328146 4384446.34328146 2249520.865951253 0 0 0 0 0 109900933.4620795 4105124.112553921 4105124.112553921 1440832.644300081 0 0 0 0 0 109790473.2116912 3091754.80756781 3091754.80756781 -843451.9872789035 0 0 0 0 0 109677964.4062862 2725494.387008439 2725494.387008439 -1529711.047735896 0 0 0 0 0 103848511.655015 -7143404.065365318 -7143404.065365318 -7777263.713233002 0 0 0 0 0 104673825.2162188 -6613026.946918453 -6613026.946918453 -7848533.148947439 0 0 0 0 0 105451264.8636883 -6039227.471423222 -6039227.471423222 -7857322.21970556 0 0 0 0 0 106185261.7603643 -5429085.664975111 -5429085.664975111 -7800506.10041784 0 0 0 0 0 106868530.9926604 -4789394.946697202 -4789394.946697202 -7676370.208087089 0 0 0 0 0 107495934.4723292 -4127216.243977393 -4127216.243977393 -7484244.970255104 0 0 0 0 0 108062166.5341004 -3450133.000210526 -3450133.000210526 -7224515.601586761 0 0 0 0 0 108563899.1548614 -2765412.592581777 -2765412.592581777 -6898055.297136772 0 0 0 0 0 108998037.8684914 -2080916.005430743 -2080916.005430743 -6507931.443218824 0 0 0 0 0 109362999.662205 -1403903.077408982 -1403903.077408982 -6058142.70171944 0 0 0 0 0 109658659.5950818 -741441.9452943724 -741441.9452943724 -5553944.608568732 0 0 0 0 0 109884440.708993 -102330.5245480542 -102330.5245480542 -4998651.868083289 0 0 0 0 0 110043221.3194414 506385.4590413965 506385.4590413965 -4397596.307602727 0 0 0 0 0 110148981.7586443 1078726.097209297 1078726.097209297 -3781565.144902518 0 0 0 0 0 110192958.438447 1622723.513822081 1622723.513822081 -3106596.033945937 0 0 0 0 0 110065809.2968375 2091747.999504329 2091747.999504329 -2485176.681705544 0 0 0 0 0 110115237.8011757 2702409.293400456 2702409.293400456 -1515453.931937634 0 0 0 0 0 103729892.4816367 -7295205.093293222 -7295205.093293222 -7215501.504735553 0 0 0 0 0 102367893.7760019 -7782696.221909604 -7782696.221909604 -7116671.277782614 0 0 0 0 0 102705911.768448 -7506210.354117563 -7506210.354117563 -7381918.500229789 0 0 0 0 0 101397606.6849598 -7916644.895316222 -7916644.895316222 -6844191.520339526 0 0 0 0 0 100634212.6658906 -8171099.175365223 -8171099.175365223 -6547998.951690237 0 0 0 0 0 109650685.1447704 2734138.339723866 2734138.339723866 16245279.5396882 0 0 0 0 0 109623565.5692832 3331881.599415826 3331881.599415826 15513786.6245447 0 0 0 0 0 109616378.5531975 3850892.542977444 3850892.542977444 14686014.7603712 0 0 0 0 0 109634554.0273435 4280333.669052078 4280333.669052078 13855353.86702361 0 0 0 0 0 109520709.2602963 1351087.429575967 1351087.429575967 17244296.56993034 0 0 0 0 0 109454780.1398307 1024861.595567193 1024861.595567193 17245348.22288672 0 0 0 0 0 109378441.9429317 1925023.050791789 1925023.050791789 16611156.32608057 0 0 0 0 0 109094152.3365867 423219.88850448 423219.88850448 16918630.27921433 0 0 0 0 0 109672992.6314568 4638301.557684982 4638301.557684982 12932731.28224098 0 0 0 0 0 109696171.8937753 4938169.222822404 4938169.222822404 11911393.51543411 0 0 0 0 0 109784147.174877 5139378.756122114 5139378.756122114 10969241.52581757 0 0 0 0 0 109663221.9851427 5218896.006706618 5218896.006706618 10133393.09273675 0 0 0 0 0 109758653.1515131 5320429.588099697 5320429.588099697 8927999.130828043 0 0 0 0 0 109987791.7143568 5428816.084904377 5428816.084904377 8095129.93678062 0 0 0 0 0 109610196.0767161 5179919.883064518 5179919.883064518 7608456.752805744 0 0 0 0 0 109817422.1436422 5268492.426151481 5268492.426151481 6496377.647961483 0 0 0 0 0 109425637.9357341 4986184.595963612 4986184.595963612 6027315.543627847 0 0 0 0 0 104533023.9168704 -6823794.916911381 -6823794.916911381 -7335147.147889598 0 0 0 0 0 105287942.0019599 -6323552.69249484 -6323552.69249484 -7439687.293828208 0 0 0 0 0 106003452.4403203 -5778201.381716573 -5778201.381716573 -7486345.724951516 0 0 0 0 0 106670334.8655413 -5200224.202898432 -5200224.202898432 -7476602.673331459 0 0 0 0 0 107283983.7111951 -4594723.99903679 -4594723.99903679 -7405417.27666166 0 0 0 0 0 107839588.5615811 -3968610.323049929 -3968610.323049929 -7271646.293332273 0 0 0 0 0 108333728.3564802 -3328575.786488803 -3328575.786488803 -7074424.58460384 0 0 0 0 0 108762871.45266 -2681904.948630946 -2681904.948630946 -6814217.770268655 0 0 0 0 0 109125097.045545 -2035800.906004784 -2035800.906004784 -6492996.254984296 0 0 0 0 0 109421276.9254396 -1395987.672922277 -1395987.672922277 -6111944.067695172 0 0 0 0 0 109651540.2983761 -769468.9088931552 -769468.9088931552 -5675333.798110824 0 0 0 0 0 109814892.9734728 -165827.2401207102 -165827.2401207102 -5190286.076948313 0 0 0 0 0 109906397.4512687 405483.8152662764 405483.8152662764 -4662218.116817188 0 0 0 0 0 109957454.7111351 948324.1874308261 948324.1874308261 -4109532.005630974 0 0 0 0 0 109796973.1919347 1375902.280288154 1375902.280288154 -3603027.485798925 0 0 0 0 0 109928062.0885283 2005417.301785591 2005417.301785591 -2678872.54998121 0 0 0 0 0 109554991.8956112 2348731.886813246 2348731.886813246 -2091292.714094653 0 0 0 0 0 103466135.6746966 -7062558.301844758 -7062558.301844758 -7484561.741739582 0 0 0 0 0 102577786.22249 -7325246.130483504 -7325246.130483504 -6878847.159392165 0 0 0 0 0 103387575.3209669 -7196670.750605454 -7196670.750605454 -6945968.713166907 0 0 0 0 0 102071131.3712414 -7521532.009098141 -7521532.009098141 -6416781.855338059 0 0 0 0 0 101357175.2842524 -7753036.56352763 -7753036.56352763 -6078039.821805518 0 0 0 0 0 109291773.1899948 2533828.829373432 2533828.829373432 15859497.24404494 0 0 0 0 0 109238513.8684725 3098272.627731705 3098272.627731705 15012602.3301835 0 0 0 0 0 109194864.3023556 3585309.687912785 3585309.687912785 14094170.99742533 0 0 0 0 0 109215055.800244 4001292.837501787 4001292.837501787 13160143.59489692 0 0 0 0 0 109216205.1272568 1546074.000892027 1546074.000892027 16700205.22796279 0 0 0 0 0 109098114.2659987 820859.8557135053 820859.8557135053 16838608.0388798 0 0 0 0 0 109094158.278332 2119793.058163419 2119793.058163419 16098824.45079155 0 0 0 0 0 108767146.8514783 218567.0152324244 218567.0152324244 16444360.37611283 0 0 0 0 0 109241288.1927893 4344704.499875288 4344704.499875288 12145689.01526073 0 0 0 0 0 109303433.883204 4656709.99430443 4656709.99430443 11239417.70080443 0 0 0 0 0 109340492.3124013 4845020.59193217 4845020.59193217 10062615.06311249 0 0 0 0 0 109234101.9019019 4915709.288601932 4915709.288601932 9390598.998257134 0 0 0 0 0 109444296.15335 5066336.034958415 5066336.034958415 8478106.787398899 0 0 0 0 0 109556324.7462965 5238062.028271841 5238062.028271841 7419274.837203079 0 0 0 0 0 109254198.2865772 5000208.656764592 5000208.656764592 7014071.335701468 0 0 0 0 0 104261253.9251624 -6573573.41741316 -6573573.41741316 -7571935.93625756 0 0 0 0 0 105004858.70093 -6042202.017693731 -6042202.017693731 -7604000.755781745 0 0 0 0 0 105715605.8586186 -5475514.701857284 -5475514.701857284 -7576532.04228196 0 0 0 0 0 106381474.7795233 -4878978.429633205 -4878978.429633205 -7487086.400179696 0 0 0 0 0 106997628.771707 -4258757.172167388 -4258757.172167388 -7334494.651824116 0 0 0 0 0 107559046.9458405 -3621249.193645812 -3621249.193645812 -7118752.606020579 0 0 0 0 0 108061520.0229485 -2973830.888178932 -2973830.888178932 -6840489.629547923 0 0 0 0 0 108501909.3294287 -2323267.684718886 -2323267.684718886 -6500359.780580404 0 0 0 0 0 108878484.2623654 -1676416.410773575 -1676416.410773575 -6103218.688101326 0 0 0 0 0 109191010.1079557 -1039829.66352479 -1039829.66352479 -5650982.814610491 0 0 0 0 0 109438613.3610093 -419164.4485623642 -419164.4485623642 -5153464.271038937 0 0 0 0 0 109623431.5082247 168671.4142622353 168671.4142622353 -4614213.917492429 0 0 0 0 0 109772286.5823817 727175.7175267844 727175.7175267844 -4022601.976683148 0 0 0 0 0 109855450.0037733 1245812.078781039 1245812.078781039 -3452636.153019967 0 0 0 0 0 109993158.7517774 1656738.502855319 1656738.502855319 -3016323.860197785 0 0 0 0 0 109887033.8364439 2302742.509136458 2302742.509136458 -2014122.036049185 0 0 0 0 0 109619936.3433173 1715572.033588085 1715572.033588085 -2865952.244511702 0 0 0 0 0 104138523.6211327 -6745602.176455856 -6745602.176455856 -7036049.739526038 0 0 0 0 0 102745750.0912392 -7240777.950359261 -7240777.950359261 -6747886.66666795 0 0 0 0 0 103141033.6032433 -6958364.255931323 -6958364.255931323 -7177470.294127992 0 0 0 0 0 101259369.6534295 -7689061.033469045 -7689061.033469045 -6652494.553585776 0 0 0 0 0 101911457.3130758 -7419162.007020622 -7419162.007020622 -6732535.494669627 0 0 0 0 0 109051375.2533957 2714264.147728339 2714264.147728339 15456504.79060916 0 0 0 0 0 109024581.8885286 3274611.308548556 3274611.308548556 14724559.31019989 0 0 0 0 0 109041634.7440685 3741882.687730939 3741882.687730939 13986502.58793749 0 0 0 0 0 109093781.8678266 4154155.736662505 4154155.736662505 13182763.78427175 0 0 0 0 0 108883434.90647 1359896.538601161 1359896.538601161 16340685.36527892 0 0 0 0 0 108808793.8171775 997090.1307026318 997090.1307026318 16512202.66352708 0 0 0 0 0 108791151.177014 1967413.44319708 1967413.44319708 15847566.46923782 0 0 0 0 0 108492709.278608 384023.7348030355 384023.7348030355 16156087.23623435 0 0 0 0 0 109121644.0729654 4475657.046108246 4475657.046108246 12390423.52881674 0 0 0 0 0 109174366.2970332 4730094.339300537 4730094.339300537 10857162.03671625 0 0 0 0 0 109118284.8586925 4769321.856162078 4769321.856162078 10896050.00548626 0 0 0 0 0 109171473.1979638 5043254.662601597 5043254.662601597 9337625.493211059 0 0 0 0 0 109408425.1650857 5155643.466613497 5155643.466613497 8400316.858406931 0 0 0 0 0 109072527.2403029 4933412.534681697 4933412.534681697 8022255.168415613 0 0 0 0 0 104855857.5111518 -6291126.976848945 -6291126.976848945 -7169924.195869018 0 0 0 0 0 105548308.2475812 -5784293.36234773 -5784293.36234773 -7234054.763250964 0 0 0 0 0 106198561.2302702 -5246531.171196749 -5246531.171196749 -7248647.181896357 0 0 0 0 0 106801159.9571236 -4680840.487133053 -4680840.487133053 -7206207.194603477 0 0 0 0 0 107351083.8218591 -4093528.052008091 -4093528.052008091 -7105869.568709136 0 0 0 0 0 107845074.1454674 -3490252.278056515 -3490252.278056515 -6946633.00125744 0 0 0 0 0 108280038.8078077 -2877954.831811313 -2877954.831811313 -6728902.220255091 0 0 0 0 0 108653367.6552358 -2263245.203650816 -2263245.203650816 -6452917.499351023 0 0 0 0 0 108965464.6360945 -1650959.842544102 -1650959.842544102 -6118941.460000712 0 0 0 0 0 109214583.3532923 -1049214.025196474 -1049214.025196474 -5732305.853177155 0 0 0 0 0 109401711.1327799 -460857.0124187541 -460857.0124187541 -5292939.275063832 0 0 0 0 0 109552229.7299171 106486.8964204782 106486.8964204782 -4815254.947169176 0 0 0 0 0 109634195.0631223 622262.2081822075 622262.2081822075 -4314956.324482519 0 0 0 0 0 109727523.7437648 1156412.673423012 1156412.673423012 -3748227.33098218 0 0 0 0 0 109377450.0375466 1289513.838207147 1289513.838207147 -3445469.660362536 0 0 0 0 0 109398333.4869594 1985934.376835158 1985934.376835158 -2611508.018811706 0 0 0 0 0 109794482.2092261 1905759.090570334 1905759.090570334 -2557365.910170831 0 0 0 0 0 103884080.9584882 -6523574.903414405 -6523574.903414405 -7296498.272568102 0 0 0 0 0 102895533.6884006 -6856225.462650977 -6856225.462650977 -6577636.431988482 0 0 0 0 0 103756950.8742295 -6656881.929315716 -6656881.929315716 -6756165.944978881 0 0 0 0 0 101959418.5575465 -7271688.184537103 -7271688.184537103 -6114947.892228757 0 0 0 0 0 102586763.4979884 -7105973.64699025 -7105973.64699025 -6376692.122182064 0 0 0 0 0 108756336.5140321 2546548.982477249 2546548.982477249 15126566.9924437 0 0 0 0 0 108658664.828243 3060986.671485615 3060986.671485615 14287008.33374079 0 0 0 0 0 108709777.1807188 3530628.099343459 3530628.099343459 13529637.17878963 0 0 0 0 0 108777230.5105274 3947970.255795351 3947970.255795351 12682472.65678598 0 0 0 0 0 108618382.1871443 1539562.774771623 1539562.774771623 15968531.55765961 0 0 0 0 0 108485509.3020693 794388.2801926304 794388.2801926304 16028298.90626915 0 0 0 0 0 108543625.660402 2124131.842890198 2124131.842890198 15283753.10873229 0 0 0 0 0 108178309.099527 188922.8697513815 188922.8697513815 15716046.28479771 0 0 0 0 0 108813965.4261114 4297951.644848361 4297951.644848361 11572623.48043926 0 0 0 0 0 108804606.1939756 4423440.446465929 4423440.446465929 11682651.5496954 0 0 0 0 0 108875824.2017635 4714001.275141967 4714001.275141967 10103988.4031326 0 0 0 0 0 108858367.0121691 4813934.133364079 4813934.133364079 8948953.474274825 0 0 0 0 0 108669479.9082367 4614780.212580727 4614780.212580727 9955731.948524999 0 0 0 0 0 104586730.6434048 -6031044.924789897 -6031044.924789897 -7350842.04247422 0 0 0 0 0 105275519.6786779 -5503908.623990615 -5503908.623990615 -7349374.569528398 0 0 0 0 0 105924251.9549264 -4947789.582570907 -4947789.582570907 -7290423.852127761 0 0 0 0 0 106527714.9777161 -4367328.655895627 -4367328.655895627 -7172526.904812296 0 0 0 0 0 107081713.4068643 -3768003.190328619 -3768003.190328619 -6995724.40889805 0 0 0 0 0 107582804.3741657 -3155974.563434954 -3155974.563434954 -6760520.048888646 0 0 0 0 0 108027554.5759238 -2538261.793508315 -2538261.793508315 -6467234.739610181 0 0 0 0 0 108412480.0260098 -1921698.618591827 -1921698.618591827 -6117815.716030276 0 0 0 0 0 108739404.0991198 -1311184.753730135 -1311184.753730135 -5716046.968639036 0 0 0 0 0 109007400.7350858 -716054.7234920902 -716054.7234920902 -5259732.629682521 0 0 0 0 0 109198721.3641955 -128154.0687141857 -128154.0687141857 -4797887.395221258 0 0 0 0 0 109383269.4345933 413034.506582014 413034.506582014 -4285216.378971363 0 0 0 0 0 109468106.9991592 910560.7628420187 910560.7628420187 -3702543.565615873 0 0 0 0 0 109597864.4161404 1518010.813453049 1518010.813453049 -3019423.619704941 0 0 0 0 0 109231864.5910867 1577953.730729101 1577953.730729101 -3018423.567122301 0 0 0 0 0 104448450.9250633 -6250190.873043122 -6250190.873043122 -6898813.425137374 0 0 0 0 0 102901755.2760218 -6808226.975691162 -6808226.975691162 -6940239.146201242 0 0 0 0 0 102519653.6968809 -7013667.685485378 -7013667.685485378 -6758567.542214837 0 0 0 0 0 103496330.445705 -6460062.884939721 -6460062.884939721 -7031060.813290424 0 0 0 0 0 101863324.6077138 -7199070.644681637 -7199070.644681637 -6601462.46133125 0 0 0 0 0 108536661.3866846 2695821.184589867 2695821.184589867 14699194.33461984 0 0 0 0 0 108471129.7484331 3214768.192464025 3214768.192464025 14060253.16702062 0 0 0 0 0 108542000.6896025 3669483.858115538 3669483.858115538 13168513.30778847 0 0 0 0 0 108642843.6739775 4054240.297838054 4054240.297838054 12378652.90831469 0 0 0 0 0 108258356.1095734 1342083.728403257 1342083.728403257 15602066.95513062 0 0 0 0 0 108253547.8142121 935757.3463449072 935757.3463449072 15772800.87819214 0 0 0 0 0 108358081.4979757 2075233.505332228 2075233.505332228 15287699.64084793 0 0 0 0 0 107923874.8355763 343632.8624619495 343632.8624619495 15453835.7758431 0 0 0 0 0 108565631.896263 4042562.569683097 4042562.569683097 12391163.67877408 0 0 0 0 0 108582027.6518852 4401175.808309226 4401175.808309226 10944855.10592037 0 0 0 0 0 108473483.2570003 4374811.391864537 4374811.391864537 10902127.99596682 0 0 0 0 0 105122741.2860284 -5774911.147767255 -5774911.147767255 -6980247.576146469 0 0 0 0 0 105755910.2134316 -5275026.88767904 -5275026.88767904 -7018619.164720489 0 0 0 0 0 106345653.0870549 -4747718.015019978 -4747718.015019978 -7002791.910414819 0 0 0 0 0 106888095.3906614 -4197273.986126304 -4197273.986126304 -6931846.033836298 0 0 0 0 0 107379656.2072059 -3629319.039952734 -3629319.039952734 -6805820.031716567 0 0 0 0 0 107817604.2808856 -3049688.701595013 -3049688.701595013 -6625095.447286909 0 0 0 0 0 108198899.5895216 -2465454.082580032 -2465454.082580032 -6390786.864256242 0 0 0 0 0 108524212.5929351 -1881412.183076299 -1881412.183076299 -6101966.162767012 0 0 0 0 0 108794905.2745131 -1302027.083039124 -1302027.083039124 -5759533.424260961 0 0 0 0 0 108999068.9612858 -742850.6047688581 -742850.6047688581 -5373334.204332506 0 0 0 0 0 109194368.0418566 -145044.8960169213 -145044.8960169213 -4891792.092556466 0 0 0 0 0 109265239.5927747 338357.446142267 338357.446142267 -4460176.906882057 0 0 0 0 0 109196331.0368623 745728.3115086724 745728.3115086724 -4042933.353922852 0 0 0 0 0 108997213.3746129 1156088.217841627 1156088.217841627 -3515648.547567092 0 0 0 0 0 104189771.4730034 -6002800.1337192 -6002800.1337192 -7099741.247159351 0 0 0 0 0 103462910.3072754 -6556010.372630817 -6556010.372630817 -6623273.840106354 0 0 0 0 0 102807446.3199871 -6670099.293575517 -6670099.293575517 -6425699.483604477 0 0 0 0 0 104077700.53877 -6156447.761636649 -6156447.761636649 -6623871.201702051 0 0 0 0 0 102503268.5849972 -6804687.476519112 -6804687.476519112 -6119566.04038884 0 0 0 0 0 108263598.8846604 2523274.200425668 2523274.200425668 14270641.536777 0 0 0 0 0 108226858.9889725 3064746.810742758 3064746.810742758 13736753.96593305 0 0 0 0 0 108348641.9755141 3595500.555863834 3595500.555863834 13064645.52907469 0 0 0 0 0 108053310.4765138 1494897.701300977 1494897.701300977 15297547.87964484 0 0 0 0 0 107927222.3055678 726559.663154154 726559.663154154 15177488.71362871 0 0 0 0 0 108061007.1085045 2086637.95616506 2086637.95616506 14298243.15211523 0 0 0 0 0 107654624.1806033 179996.2690624793 179996.2690624793 15102992.79308256 0 0 0 0 0 108355984.741338 4032353.046760097 4032353.046760097 11692943.71132662 0 0 0 0 0 108257691.1242001 4039394.377577938 4039394.377577938 11712617.98699462 0 0 0 0 0 104864555.8715873 -5515798.716011967 -5515798.716011967 -7120956.42699276 0 0 0 0 0 105494766.5946965 -4997968.94527128 -4997968.94527128 -7089366.70600338 0 0 0 0 0 106084992.9299944 -4455212.870048787 -4455212.870048787 -7001684.719351252 0 0 0 0 0 106630080.3147594 -3892480.768698341 -3892480.768698341 -6859046.775914157 0 0 0 0 0 107126932.0785598 -3314961.364436739 -3314961.364436739 -6661824.109056821 0 0 0 0 0 107572500.4972634 -2728674.847879316 -2728674.847879316 -6411882.560175424 0 0 0 0 0 107962744.3418847 -2139736.996757907 -2139736.996757907 -6109081.130176649 0 0 0 0 0 108300839.201005 -1555767.832463382 -1555767.832463382 -5751920.485691373 0 0 0 0 0 108590042.4520576 -983885.6233582448 -983885.6233582448 -5350196.213743878 0 0 0 0 0 108806040.13559 -413155.6051225576 -413155.6051225576 -4853982.135959507 0 0 0 0 0 108882240.9053926 89769.77844823933 89769.77844823933 -4480172.838551714 0 0 0 0 0 109234943.1545181 611499.218199185 611499.218199185 -3869933.963941738 0 0 0 0 0 109278457.2856323 1082683.541209484 1082683.541209484 -3404811.832757231 0 0 0 0 0 104724845.1021122 -5749476.757406358 -5749476.757406358 -6741248.025593912 0 0 0 0 0 103248483.5006821 -6324074.367243094 -6324074.367243094 -6732836.401724544 0 0 0 0 0 102443166.4607825 -6758615.029853976 -6758615.029853976 -6571603.966372668 0 0 0 0 0 103854154.7808549 -5962224.910393622 -5962224.910393622 -6857953.525825419 0 0 0 0 0 108098695.2061559 2546220.770373213 2546220.770373213 14638328.38644518 0 0 0 0 0 108004631.9962985 3145259.794747833 3145259.794747833 13054318.46850059 0 0 0 0 0 108148188.7938658 3628518.269906402 3628518.269906402 12406235.3138536 0 0 0 0 0 107761361.1549368 1298625.159743666 1298625.159743666 14747361.80050121 0 0 0 0 0 107709131.5923756 805215.6909912997 805215.6909912997 15227865.91402068 0 0 0 0 0 107849296.2267123 1970383.753737616 1970383.753737616 14893228.66985997 0 0 0 0 0 107454067.5667964 317542.4487721708 317542.4487721708 14740962.10753689 0 0 0 0 0 108052319.3161772 3647508.377023716 3647508.377023716 12454888.6494312 0 0 0 0 0 105340517.8533063 -5288980.74176171 -5288980.74176171 -6793129.42906955 0 0 0 0 0 105917190.8775675 -4796597.962488822 -4796597.962488822 -6796935.464144064 0 0 0 0 0 106450138.6332875 -4281752.043656378 -4281752.043656378 -6752186.686117232 0 0 0 0 0 106937025.9882884 -3747959.034843586 -3747959.034843586 -6655572.604459107 0 0 0 0 0 107374622.3574177 -3200367.507234967 -3200367.507234967 -6507246.27989091 0 0 0 0 0 107758492.9086629 -2645322.972231181 -2645322.972231181 -6308548.899873233 0 0 0 0 0 108077007.1624299 -2092167.271122477 -2092167.271122477 -6062779.926587651 0 0 0 0 0 108337833.4160819 -1550275.569845254 -1550275.569845254 -5783708.801910046 0 0 0 0 0 108530099.9801391 -1030341.355690821 -1030341.355690821 -5476033.754247987 0 0 0 0 0 108610936.4904555 -539462.9448983021 -539462.9448983021 -5112959.835137181 0 0 0 0 0 109091577.3545236 255429.7094856448 255429.7094856448 -4236478.410543187 0 0 0 0 0 108798962.5668542 351380.9483297433 351380.9483297433 -4358493.261456625 0 0 0 0 0 108757796.0054574 773104.3082561539 773104.3082561539 -3901873.630021738 0 0 0 0 0 104489907.2712363 -5517525.122143847 -5517525.122143847 -6893917.037327963 0 0 0 0 0 103710371.7993367 -6065717.180579742 -6065717.180579742 -6389404.629037994 0 0 0 0 0 103004361.4232532 -6350100.874301961 -6350100.874301961 -6090617.771451405 0 0 0 0 0 104356498.1507281 -5711429.61021935 -5711429.61021935 -6485680.967286438 0 0 0 0 0 107741438.5964607 2434050.375654425 2434050.375654425 13514637.81918051 0 0 0 0 0 107736025.6994206 2708587.552802519 2708587.552802519 13820200.18365813 0 0 0 0 0 107873532.1725464 3192671.272388989 3192671.272388989 13150974.07345807 0 0 0 0 0 107555254.9068786 1404422.120614956 1404422.120614956 14185064.62018128 0 0 0 0 0 107458472.5576755 731819.084391571 731819.084391571 14409446.72956186 0 0 0 0 0 107502732.9257781 1833094.868632548 1833094.868632548 13849864.63172118 0 0 0 0 0 107319856.6997058 306213.8351911769 306213.8351911769 14834293.95566735 0 0 0 0 0 105095898.9503893 -5032852.494352539 -5032852.494352539 -6882846.702545956 0 0 0 0 0 105668190.7692673 -4524093.063836584 -4524093.063836584 -6825036.023061009 0 0 0 0 0 106203278.7302156 -3996682.142204362 -3996682.142204362 -6712446.023187108 0 0 0 0 0 106694516.68952 -3453042.642664221 -3453042.642664221 -6548025.203554605 0 0 0 0 0 107139991.3190763 -2899476.942378341 -2899476.942378341 -6332290.156247529 0 0 0 0 0 107536855.0380149 -2343606.49847997 -2343606.49847997 -6066124.422685165 0 0 0 0 0 107865862.2086815 -1783838.463886574 -1783838.463886574 -5755844.692021329 0 0 0 0 0 108230184.5077588 -1246563.923915182 -1246563.923915182 -5366269.571078068 0 0 0 0 0 108496952.6622773 -706137.2125326461 -706137.2125326461 -4906382.074784893 0 0 0 0 0 108703272.9702207 -152971.7951601977 -152971.7951601977 -4476290.12672067 0 0 0 0 0 108588197.5065202 -51025.55987684143 -51025.55987684143 -4648088.403127952 0 0 0 0 0 108979442.6106568 681264.5610557004 681264.5610557004 -3756902.844376048 0 0 0 0 0 104947834.3058531 -5296676.766157087 -5296676.766157087 -6563959.499561834 0 0 0 0 0 103495108.810276 -5900436.892730173 -5900436.892730173 -6611507.440151842 0 0 0 0 0 102860871.2859945 -6268604.47054745 -6268604.47054745 -6498415.975018313 0 0 0 0 0 104117743.6927163 -5503533.113448094 -5503533.113448094 -6682440.396157853 0 0 0 0 0 107585096.1739202 2168203.07961993 2168203.07961993 14253722.71420316 0 0 0 0 0 107386701.9018984 955688.6278172029 955688.6278172029 14807901.26215324 0 0 0 0 0 107454007.1385668 1549491.791410801 1549491.791410801 14539988.86204039 0 0 0 0 0 105514000.9148844 -4832900.095752493 -4832900.095752493 -6586918.056132754 0 0 0 0 0 106036836.7955494 -4348177.306827576 -4348177.306827576 -6569539.867858813 0 0 0 0 0 106517722.1421146 -3847571.557745495 -3847571.557745495 -6498984.392798984 0 0 0 0 0 106955682.5939376 -3331013.646121427 -3331013.646121427 -6379404.686008858 0 0 0 0 0 107346652.3402958 -2805764.830062668 -2805764.830062668 -6212384.642062222 0 0 0 0 0 107693514.6234894 -2277604.361242932 -2277604.361242932 -5999731.762981513 0 0 0 0 0 107991042.1714663 -1730342.011233426 -1730342.011233426 -5719762.379240056 0 0 0 0 0 108144986.4516081 -1304440.298025357 -1304440.298025357 -5504872.399571007 0 0 0 0 0 108208929.7105929 -886602.7445317653 -886602.7445317653 -5257487.492811981 0 0 0 0 0 108235115.0079099 -409864.9275815047 -409864.9275815047 -4895048.207348363 0 0 0 0 0 108726577.3825618 294620.3422456487 294620.3422456487 -4012397.650041316 0 0 0 0 0 108511647.8935599 408543.1888074261 408543.1888074261 -4194449.302970307 0 0 0 0 0 104721706.0602793 -5057703.836425412 -5057703.836425412 -6684360.268207906 0 0 0 0 0 104037453.3579996 -5592999.003768708 -5592999.003768708 -6211514.549167897 0 0 0 0 0 103418197.4958136 -5917790.601158059 -5917790.601158059 -6044998.898575914 0 0 0 0 0 104612049.900216 -5247831.979411469 -5247831.979411469 -6322318.59058641 0 0 0 0 0 105286113.3223146 -4576153.469168335 -4576153.469168335 -6642040.285455617 0 0 0 0 0 105800793.28596 -4081781.060066335 -4081781.060066335 -6559331.347450013 0 0 0 0 0 106283887.0069071 -3569840.93024262 -3569840.93024262 -6425552.648414016 0 0 0 0 0 106728031.8734832 -3046817.628768079 -3046817.628768079 -6243607.909377181 0 0 0 0 0 107125089.8689626 -2516150.358875601 -2516150.358875601 -6017567.259872009 0 0 0 0 0 107476447.3716483 -1975273.045889782 -1975273.045889782 -5730528.369386106 0 0 0 0 0 107700422.9864467 -1520205.001118253 -1520205.001118253 -5464850.228663566 0 0 0 0 0 108156058.1275137 -1013495.366290294 -1013495.366290294 -5054262.551053303 0 0 0 0 0 108310259.5472599 -548980.7978371778 -548980.7978371778 -4687168.54345232 0 0 0 0 0 108447823.1405981 -68695.03894007571 -68695.03894007571 -4259635.713920417 0 0 0 0 0 108250012.498207 37046.32258663687 37046.32258663687 -4433803.333687764 0 0 0 0 0 105147045.1986196 -4853936.91920928 -4853936.91920928 -6381077.739064654 0 0 0 0 0 103239975.3442075 -5803443.176058549 -5803443.176058549 -6431299.531101467 0 0 0 0 0 103821324.9402897 -5452960.388769513 -5452960.388769513 -6519476.034105035 0 0 0 0 0 104366565.2961612 -5066709.947766307 -5066709.947766307 -6545007.312578181 0 0 0 0 0 105646355.6649836 -4406918.476228818 -4406918.476228818 -6385446.844883304 0 0 0 0 0 106119777.1731524 -3929817.688697024 -3929817.688697024 -6339502.235150574 0 0 0 0 0 106555690.9466181 -3441911.623057795 -3441911.623057795 -6245613.004625171 0 0 0 0 0 106946102.2942549 -2945801.73520673 -2945801.73520673 -6106921.080845089 0 0 0 0 0 107289738.1307078 -2441410.016050301 -2441410.016050301 -5922500.196030272 0 0 0 0 0 107563572.6665801 -1943897.493824436 -1943897.493824436 -5697388.550711576 0 0 0 0 0 107949473.7168273 -1317910.408878058 -1317910.408878058 -5211124.519561919 0 0 0 0 0 107797867.8435104 -1213151.018344321 -1213151.018344321 -5403428.134283091 0 0 0 0 0 107915560.198484 -767124.3107627099 -767124.3107627099 -5065774.180345287 0 0 0 0 0 107955339.6563723 -335177.3427025707 -335177.3427025707 -4689860.385524882 0 0 0 0 0 104932275.461625 -4629783.165974271 -4629783.165974271 -6478486.520050274 0 0 0 0 0 103804324.4589753 -5468692.81227986 -5468692.81227986 -5968447.47583924 0 0 0 0 0 104348191.7127768 -5142576.137939773 -5142576.137939773 -6089075.297807957 0 0 0 0 0 104849666.2261852 -4811723.11194089 -4811723.11194089 -6172814.89925225 0 0 0 0 0 105438611.9792549 -4147950.817565564 -4147950.817565564 -6405867.252823669 0 0 0 0 0 105898658.857344 -3667348.482198042 -3667348.482198042 -6295075.495454545 0 0 0 0 0 106338186.1357287 -3175708.078037797 -3175708.078037797 -6141259.042546659 0 0 0 0 0 106735656.2814333 -2674212.536478058 -2674212.536478058 -5941330.30665536 0 0 0 0 0 107087096.5880146 -2171516.021928179 -2171516.021928179 -5700940.265110637 0 0 0 0 0 107434779.202491 -1600392.287075973 -1600392.287075973 -5369619.434935976 0 0 0 0 0 107544273.3867936 -1533302.39457133 -1533302.39457133 -5487768.307446169 0 0 0 0 0 107985663.7262207 -887026.1889643449 -887026.1889643449 -4862892.613188817 0 0 0 0 0 108098486.3292099 -452146.0186538828 -452146.0186538828 -4493515.698352505 0 0 0 0 0 105282194.6285407 -4472084.458008611 -4472084.458008611 -6245553.594640415 0 0 0 0 0 103611368.9128375 -5345363.728760752 -5345363.728760752 -6302306.522785424 0 0 0 0 0 104137813.4349321 -5009045.6061534 -5009045.6061534 -6376410.783375387 0 0 0 0 0 104590554.4925968 -4642276.977401012 -4642276.977401012 -6382127.044315202 0 0 0 0 0 105697292.7568115 -4034902.965484694 -4034902.965484694 -6242520.008817114 0 0 0 0 0 106177403.6072281 -3535968.342439524 -3535968.342439524 -6102675.942963071 0 0 0 0 0 106567963.7868964 -3068377.42184629 -3068377.42184629 -5993014.730379424 0 0 0 0 0 106921489.2910412 -2590711.477098783 -2590711.477098783 -5837031.092088119 0 0 0 0 0 107240854.3830194 -2108511.323629544 -2108511.323629544 -5643451.777242502 0 0 0 0 0 107458058.963369 -1619505.059224143 -1619505.059224143 -5399975.101248734 0 0 0 0 0 107671039.0936133 -1204750.406351883 -1204750.406351883 -4952220.854843328 0 0 0 0 0 107616710.5321591 -1090387.788394708 -1090387.788394708 -5178462.602745722 0 0 0 0 0 107657356.8710935 -685595.505553777 -685595.505553777 -4874920.146953687 0 0 0 0 0 105141759.6136604 -4205981.513101839 -4205981.513101839 -6131073.118101157 0 0 0 0 0 104124377.1525766 -5039531.51996919 -5039531.51996919 -5876067.946488852 0 0 0 0 0 104637182.0248447 -4710102.29158882 -4710102.29158882 -5951531.688217659 0 0 0 0 0 105075571.1838079 -4372134.273888461 -4372134.273888461 -5964372.080912979 0 0 0 0 0 105520648.9755236 -3757811.482674873 -3757811.482674873 -6147242.348287177 0 0 0 0 0 105963617.9563865 -3281898.622958676 -3281898.622958676 -6035188.30565661 0 0 0 0 0 106360855.3428198 -2808693.078828346 -2808693.078828346 -5865447.763145466 0 0 0 0 0 106718286.1817212 -2321258.872660189 -2321258.872660189 -5644590.635891525 0 0 0 0 0 107018654.9428017 -1823811.473684135 -1823811.473684135 -5362755.70514202 0 0 0 0 0 107125029.5689171 -1442774.698468713 -1442774.698468713 -5298269.124653093 0 0 0 0 0 107785541.5308639 -806840.6506458382 -806840.6506458382 -4680648.549711552 0 0 0 0 0 104946983.9017369 -4272517.688085324 -4272517.688085324 -6234793.452424062 0 0 0 0 0 103931166.6944522 -4916909.696448904 -4916909.696448904 -6170597.38409882 0 0 0 0 0 104430219.6755154 -4583146.341810158 -4583146.341810158 -6191534.986965262 0 0 0 0 0 105798063.0413249 -3609976.0955922 -3609976.0955922 -5917172.056946549 0 0 0 0 0 106194783.5820381 -3172294.819028059 -3172294.819028059 -5878353.632125624 0 0 0 0 0 106540823.9307766 -2724676.643696777 -2724676.643696777 -5749556.975484592 0 0 0 0 0 106837670.6047565 -2274483.842715155 -2274483.842715155 -5593518.033776881 0 0 0 0 0 107075776.9358505 -1821053.743361478 -1821053.743361478 -5387037.223281755 0 0 0 0 0 107478179.63415 -1140162.432647274 -1140162.432647274 -4834238.875597114 0 0 0 0 0 107349009.1102039 -1024163.906988651 -1024163.906988651 -5023675.212664657 0 0 0 0 0 105305131.9999301 -3931194.188701111 -3931194.188701111 -5850766.587586257 0 0 0 0 0 104416091.84581 -4622692.380979023 -4622692.380979023 -5760073.843629027 0 0 0 0 0 104880866.5392702 -4299002.338696728 -4299002.338696728 -5824999.104713517 0 0 0 0 0 105587977.0385162 -3376796.588257356 -3376796.588257356 -5926025.870726112 0 0 0 0 0 105172089.642404 -3845858.275984428 -3845858.275984428 -6072495.347247628 0 0 0 0 0 105997285.32172 -2929817.242100502 -2929817.242100502 -5780257.327478892 0 0 0 0 0 106375672.1601268 -2468842.69185405 -2468842.69185405 -5577224.339717815 0 0 0 0 0 106687080.8388267 -1992315.924176423 -1992315.924176423 -5313998.340024119 0 0 0 0 0 106943214.8034024 -1482517.23687242 -1482517.23687242 -4981169.598452035 0 0 0 0 0 107036256.0616536 -1344555.142925028 -1344555.142925028 -5127070.875457358 0 0 0 0 0 104645561.6346971 -4156228.991298145 -4156228.991298145 -6066960.70298416 0 0 0 0 0 104206446.062609 -4490271.188684902 -4490271.188684902 -6034463.590020256 0 0 0 0 0 105844162.2803807 -3254949.046042885 -3254949.046042885 -5750410.760453929 0 0 0 0 0 105520649.1196411 -3574365.557331351 -3574365.557331351 -5689806.735166185 0 0 0 0 0 106177762.35128 -2840851.102507332 -2840851.102507332 -5654157.764480382 0 0 0 0 0 106431973.0309906 -2449908.949052308 -2449908.949052308 -5564523.907963945 0 0 0 0 0 106631101.7798309 -2036488.522437734 -2036488.522437734 -5401995.642680033 0 0 0 0 0 106727587.8554325 -1599566.576295318 -1599566.576295318 -5167134.637224336 0 0 0 0 0 105066475.5824573 -3864690.116647071 -3864690.116647071 -5649891.401872992 0 0 0 0 0 104661012.471238 -4214599.373069543 -4214599.373069543 -5629433.006759692 0 0 0 0 0 105633827.3502188 -3036344.142623981 -3036344.142623981 -5686913.815627421 0 0 0 0 0 105294367.1773511 -3437386.040976842 -3437386.040976842 -5807642.599072744 0 0 0 0 0 104945458.7666333 -3775979.309902082 -3775979.309902082 -5897266.082873664 0 0 0 0 0 106032382.9466136 -2616636.589627889 -2616636.589627889 -5489322.836435065 0 0 0 0 0 106380791.7928562 -2180991.795124835 -2180991.795124835 -5262089.602984226 0 0 0 0 0 106660826.9505127 -1725651.49123385 -1725651.49123385 -4991593.921443 0 0 0 0 0 104421581.9321729 -4061192.764964069 -4061192.764964069 -5869697.741058291 0 0 0 0 0 105846984.3228401 -2927212.95922094 -2927212.95922094 -5546922.096993837 0 0 0 0 0 105534353.369253 -3322115.984657795 -3322115.984657795 -5665121.119281843 0 0 0 0 0 105178314.5444378 -3467288.883455261 -3467288.883455261 -5566013.582243508 0 0 0 0 0 106106369.4387793 -2590344.248396995 -2590344.248396995 -5477338.765235756 0 0 0 0 0 106273527.303395 -2246145.953813128 -2246145.953813128 -5388864.795892986 0 0 0 0 0 106405695.3624907 -1858537.837246116 -1858537.837246116 -5211319.033977142 0 0 0 0 0 104844039.336819 -3819776.161307523 -3819776.161307523 -5491969.287689134 0 0 0 0 0 105391263.2934288 -3107733.939759147 -3107733.939759147 -5553563.480726983 0 0 0 0 0 105655941.9201588 -2753397.630147027 -2753397.630147027 -5454002.455327963 0 0 0 0 0 105033965.9497828 -3502928.25950327 -3502928.25950327 -5618961.79518695 0 0 0 0 0 106068665.6857037 -2379249.428870277 -2379249.428870277 -5232492.839666271 0 0 0 0 0 106333266.0703791 -1970325.081379802 -1970325.081379802 -5021953.20763219 0 0 0 0 0 104646052.9964862 -3648652.273877217 -3648652.273877217 -5580624.129553045 0 0 0 0 0 105510417.8675482 -3038677.497675766 -3038677.497675766 -5414380.209070243 0 0 0 0 0 105909367.5599072 -2572899.654390575 -2572899.654390575 -5186200.765857068 0 0 0 0 0 105176714.7072256 -3216911.573436053 -3216911.573436053 -5341042.117967757 0 0 0 0 0 105876190.955189 -2481168.312244262 -2481168.312244262 -5414620.079929153 0 0 0 0 0 106076013.6401329 -2106499.012665301 -2106499.012665301 -5250626.182261975 0 0 0 0 0 104965512.4916161 -3486486.838519501 -3486486.838519501 -5350712.127988984 0 0 0 0 0 105510152.2521526 -2786649.205271709 -2786649.205271709 -5252432.521165723 0 0 0 0 0 105278724.024871 -3175301.126504411 -3175301.126504411 -5497754.868301982 0 0 0 0 0 105524824.899035 -2739280.417296301 -2739280.417296301 -5405434.314008841 0 0 0 0 0 104760083.301649 -3372068.965836855 -3372068.965836855 -5538063.302682675 0 0 0 0 0 106019586.9520702 -2210187.49127298 -2210187.49127298 -5037199.32914451 0 0 0 0 0 105273270.2846452 -2921778.43223704 -2921778.43223704 -5326086.339859595 0 0 0 0 0 105725597.0990057 -2453747.719196229 -2453747.719196229 -5025157.485606728 0 0 0 0 0 105109368.5262246 -3126486.987027224 -3126486.987027224 -5183431.375870208 0 0 0 0 0 105751642.8807717 -2343020.646570492 -2343020.646570492 -5249829.686646996 0 0 0 0 0 105357095.5728725 -2874967.450477775 -2874967.450477775 -5235905.857294383 0 0 0 0 0 105433484.9044775 -2576951.265459131 -2576951.265459131 -5213663.937935476 0 0 0 0 0 104911317.3339114 -3021583.009780898 -3021583.009780898 -5305849.952180147 0 0 0 0 0 105266316.7522701 -2662029.281643856 -2662029.281643856 -5059245.024631699 0 0 0 0 0 105176504.3488958 -2807613.907607386 -2807613.907607386 -5022616.290864008 0 0 0 0 0 105114027.7600372 -2749981.608411154 -2749981.608411154 -5174202.527591513 0 0 0 0 0 </DataArray>
        <DataArray type="Float64" Name="von_mises_stress" format="ascii" NumberOfComponents="3">99328420.63716604 0 0 73534728.47600149 0 0 70627630.62376165 0 0 66044342.4418088 0 0 91747915.90970121 0 0 67518891.47863247 0 0 55096943.79502966 0 0 63373054.21604266 0 0 54186002.63365981 0 0 46722745.83798193 0 0 39247824.9921575 0 0 84865018.44588619 0 0 64677612.44744873 0 0 50742351.80244264 0 0 45255915.53476421 0 0 33644074.59819843 0 0 28990366.98973681 0 0 54621308.88350195 0 0 45822573.47296029 0 0 44608947.30218017 0 0 38993769.72075955 0 0 33754377.76859578 0 0 25808660.41281466 0 0 72648453.89831108 0 0 58415867.21481397 0 0 49478975.57132427 0 0 42279165.12657175 0 0 32500724.57455721 0 0 24447984.22076239 0 0 28663928.38518269 0 0 44472242.06808629 0 0 41874047.4465826 0 0 40733664.23369669 0 0 34879461.02243795 0 0 29378466.73979929 0 0 22801594.54614283 0 0 25612318.35187958 0 0 56593480.95990726 0 0 53141821.4504784 0 0 46727958.31600775 0 0 44987541.10417898 0 0 47265282.54027933 0 0 39383194.84557751 0 0 33581431.92010316 0 0 22407868.97074647 0 0 27320680.77553025 0 0 30091707.05090908 0 0 40668892.31012394 0 0 47530645.98929488 0 0 40376160.44677013 0 0 44163153.69615475 0 0 34918496.1264921 0 0 30262223.57279806 0 0 23819953.69775683 0 0 24806723.54257261 0 0 23286267.06349441 0 0 40474605.86346301 0 0 41584341.84392349 0 0 42728388.72778033 0 0 47077482.99651449 0 0 45778609.24944003 0 0 50426829.76488829 0 0 53141240.99960701 0 0 40095805.19419779 0 0 34703688.18345439 0 0 22341085.95819957 0 0 29646560.70238407 0 0 23425901.75288343 0 0 18183037.96767231 0 0 36338532.19173405 0 0 45575468.67645149 0 0 53939763.55866971 0 0 43517436.92124539 0 0 48602574.73232222 0 0 52832931.02757947 0 0 37968723.44665695 0 0 32758289.15259821 0 0 28214749.18398497 0 0 27871689.87333953 0 0 26080886.72197896 0 0 20695104.13547676 0 0 38640909.41911563 0 0 45439104.98943939 0 0 52840906.70262942 0 0 55425412.93085744 0 0 48430713.32971011 0 0 53972057.93378265 0 0 58786904.23355173 0 0 62039435.43879797 0 0 42528007.93775019 0 0 37089902.52894933 0 0 26792324.39202305 0 0 33361220.73046118 0 0 28124538.52576821 0 0 29287649.32410242 0 0 16481384.64320488 0 0 35690204.14606 0 0 53808566.55676926 0 0 57800621.41317078 0 0 64625692.91191767 0 0 47337118.55538356 0 0 53184473.91358674 0 0 58697282.02523929 0 0 63486248.44054671 0 0 41522035.2767849 0 0 36295216.59936879 0 0 31327443.76241268 0 0 32476459.57108608 0 0 30090336.41779918 0 0 31575716.24571304 0 0 24717002.53143612 0 0 44636606.83706863 0 0 58421962.99225103 0 0 66649334.83126722 0 0 68047472.87754057 0 0 57367530.84463 0 0 51281897.20785485 0 0 63113999.85012273 0 0 68188218.20900765 0 0 72578461.43433912 0 0 45337793.4269838 0 0 40144288.35164277 0 0 35533522.46304049 0 0 34366335.6918439 0 0 32965854.95730421 0 0 32706153.81567795 0 0 34951488.27661578 0 0 47816402.10293262 0 0 68603263.24444255 0 0 72500848.41449051 0 0 76368320.9210925 0 0 57158364.75299419 0 0 51010020.76352306 0 0 63325935.35298929 0 0 69258151.75935732 0 0 75023599.45149942 0 0 45238963.85739377 0 0 40261738.99293716 0 0 36292880.75544709 0 0 33637073.83832275 0 0 34879249.43672106 0 0 34608267.47277724 0 0 36468890.57920078 0 0 46606497.1790543 0 0 61023065.37357156 0 0 64425258.28954682 0 0 76699723.16601107 0 0 80115747.62935637 0 0 80815054.83982038 0 0 66361313.57557318 0 0 60215562.03300419 0 0 54140793.80257645 0 0 72235829.96128206 0 0 77698959.76991087 0 0 82706356.69219241 0 0 48595379.2697831 0 0 43967329.8758518 0 0 40207906.78326163 0 0 38192475.30870761 0 0 36459280.21651052 0 0 38580365.08850364 0 0 39840287.53267552 0 0 62382183.8551036 0 0 61694417.19222519 0 0 72360459.83135591 0 0 83521925.09402688 0 0 86255450.17934832 0 0 87283735.58228445 0 0 66843416.05167863 0 0 60480537.72141635 0 0 54394736.09108195 0 0 73240211.43972023 0 0 79561232.46118687 0 0 85863747.28165999 0 0 48871950.41821792 0 0 44157366.10320335 0 0 40377854.19497328 0 0 38936201.10895828 0 0 38302618.71212886 0 0 39437610.06556892 0 0 41772212.4793234 0 0 73038553.6049363 0 0 74697302.39945979 0 0 76928711.10258846 0 0 81777770.24046044 0 0 91451749.61741979 0 0 91733886.80009148 0 0 92097418.80556598 0 0 74956259.54967591 0 0 68806395.06495161 0 0 62666756.09395982 0 0 56825534.56319603 0 0 80905622.60327773 0 0 86540901.08646417 0 0 91783318.78011408 0 0 51567499.66896964 0 0 47131234.0137534 0 0 44049093.99359792 0 0 41901239.92406016 0 0 42664611.12583516 0 0 43200363.21184666 0 0 42202839.97599525 0 0 83038531.79181528 0 0 85089878.59805945 0 0 86978135.60870607 0 0 88260618.06602207 0 0 96159469.980011 0 0 98117086.1379275 0 0 96775039.33465369 0 0 76014789.26148714 0 0 69549205.3817281 0 0 63288479.48991621 0 0 57434168.3805653 0 0 82531132.90199848 0 0 88987719.53588307 0 0 95401058.6637935 0 0 52187595.90824598 0 0 47786186.9458622 0 0 44510132.62279922 0 0 42469075.87427218 0 0 41878845.21815702 0 0 44517242.91617391 0 0 43638112.02927132 0 0 101137758.7648897 0 0 95108697.28661057 0 0 99967343.01392083 0 0 94069978.45039341 0 0 98089616.83769673 0 0 104179633.297099 0 0 101690095.3683516 0 0 101682895.3940076 0 0 76836375.23970312 0 0 82911762.44968487 0 0 70733751.37037888 0 0 64815320.7387614 0 0 59310116.1962655 0 0 88797228.94664825 0 0 94412808.93381852 0 0 99750835.29902208 0 0 54441615.60246946 0 0 50523183.62851017 0 0 47746486.71347845 0 0 46165748.90328157 0 0 45958960.32676013 0 0 46264057.20986927 0 0 46222694.23121675 0 0 106980121.2321793 0 0 100134227.4701837 0 0 102850412.6556518 0 0 106261974.8698179 0 0 101848793.5289452 0 0 106612042.4051222 0 0 107812273.4129639 0 0 104841403.8359378 0 0 77997325.90436804 0 0 84442712.04560448 0 0 71692315.19810802 0 0 65690407.10054859 0 0 60158590.12225958 0 0 90889747.59956959 0 0 97312925.44913927 0 0 103616041.1308435 0 0 55282462.11123726 0 0 51250399.95775771 0 0 48258611.36309813 0 0 46262372.11946648 0 0 46142445.20453203 0 0 48342590.61962967 0 0 46283240.62863585 0 0 130286163.7055345 0 0 115610598.4943267 0 0 112941034.5381571 0 0 114769101.6001692 0 0 107662704.870423 0 0 110898335.972811 0 0 113862665.5617719 0 0 109734266.9272542 0 0 109688221.2634785 0 0 78197247.15992184 0 0 84167289.61698775 0 0 90069898.75842495 0 0 72320050.29137886 0 0 66721102.47462305 0 0 61591184.01146673 0 0 95791633.24085885 0 0 101248067.4309383 0 0 106417799.6496574 0 0 57141791.14468861 0 0 53538186.97397197 0 0 50941485.42582817 0 0 49632727.23361049 0 0 49352132.29046927 0 0 49251347.03350838 0 0 47962485.786427 0 0 49793057.38619177 0 0 129620705.8537042 0 0 115596153.4840372 0 0 112767607.9476597 0 0 114508409.1909993 0 0 117737937.9808496 0 0 111735858.6416072 0 0 114338497.8868726 0 0 115413382.9659179 0 0 111299246.7810824 0 0 79457990.96299483 0 0 85677229.33284827 0 0 91968098.49661504 0 0 73442913.55166742 0 0 67781569.73552866 0 0 62625013.9549749 0 0 98228540.09685369 0 0 104381970.9561983 0 0 110288568.4987785 0 0 58125477.91492352 0 0 54438595.05072095 0 0 51689779.25573723 0 0 49927586.5207473 0 0 49368721.23760706 0 0 51221102.27095447 0 0 50589193.28394406 0 0 49335134.2964231 0 0 51916351.61477003 0 0 54411439.24427286 0 0 158911183.4958964 0 0 136298342.3529674 0 0 127180212.7909455 0 0 124686083.8165062 0 0 124798153.6096201 0 0 116997745.4368196 0 0 119842316.6892101 0 0 120940756.7506914 0 0 115813034.932582 0 0 115896978.7353896 0 0 84972987.77995482 0 0 79236678.9142818 0 0 90732252.73352414 0 0 96383112.79081561 0 0 73674515.88730346 0 0 68446140.709336 0 0 63723014.63483059 0 0 101815923.48021 0 0 106954815.0850049 0 0 111797357.6623261 0 0 59661665.58593506 0 0 56419528.23352459 0 0 54079774.61458425 0 0 52631450.15471273 0 0 52025830.10225801 0 0 50935134.07848039 0 0 51799745.53910828 0 0 52980963.83395801 0 0 55939394.50705349 0 0 56942476.48524821 0 0 149913836.3127149 0 0 131179033.8390334 0 0 123574137.0650097 0 0 121898979.0923128 0 0 122498596.7782027 0 0 125680392.7417265 0 0 118990546.3151941 0 0 120113742.5826988 0 0 121174305.9428361 0 0 116303023.7904372 0 0 86489896.16032162 0 0 80581717.43652685 0 0 92517058.11713885 0 0 98544005.42836815 0 0 74919220.49008083 0 0 69639534.67993952 0 0 64872861.24910534 0 0 104464301.3182294 0 0 110159192.7447856 0 0 115574366.6873776 0 0 60750309.17089536 0 0 57389460.30888209 0 0 54859493.9671315 0 0 53235731.72472698 0 0 52518344.62906069 0 0 53044221.2280321 0 0 52635417.03348801 0 0 54276485.88557465 0 0 55971287.77954368 0 0 58073102.1072843 0 0 59135672.58654357 0 0 64916712.44186123 0 0 63826752.26830645 0 0 63100044.74448502 0 0 61268182.8418592 0 0 183708448.5160592 0 0 157838051.1295463 0 0 141977755.3577607 0 0 134970117.2916884 0 0 132248372.2754882 0 0 131402535.6249684 0 0 123522237.8436107 0 0 126080102.7799516 0 0 125938646.8941094 0 0 120459171.6287405 0 0 120675686.0468023 0 0 85506528.20800236 0 0 91025791.84828627 0 0 80076535.26195665 0 0 96504324.56260009 0 0 101835131.0258217 0 0 74872321.45486368 0 0 70037970.03470376 0 0 65712761.9195215 0 0 106909497.8313754 0 0 111666981.5019769 0 0 116099511.9057154 0 0 62030913.15126672 0 0 59086376.27585366 0 0 56945119.30717354 0 0 55620581.83093417 0 0 55029525.78329547 0 0 54737338.8660062 0 0 56379000.74076952 0 0 57085290.27384838 0 0 58492491.83180116 0 0 60164209.37798113 0 0 66283740.38368238 0 0 64639751.31841743 0 0 62944335.6980413 0 0 66646576.81207195 0 0 68209219.23218608 0 0 178588472.3608758 0 0 144841344.8764931 0 0 134002571.3603763 0 0 129602028.6989236 0 0 128064743.5636167 0 0 127864878.086475 0 0 130896168.2252865 0 0 124124212.9739243 0 0 124226895.7981779 0 0 125270351.169042 0 0 120172093.3076205 0 0 87033926.04873277 0 0 92741383.50523777 0 0 81480856.58481693 0 0 98486281.72503878 0 0 104159277.9240029 0 0 76201645.39056265 0 0 71314780.9653212 0 0 66936638.37309225 0 0 109635309.5951441 0 0 114824944.3073209 0 0 119695839.8712252 0 0 63172002.96694908 0 0 60104820.45357879 0 0 57795250.11418135 0 0 56272017.16734042 0 0 55485950.97408169 0 0 55317196.50965907 0 0 55625653.45058597 0 0 58203292.88263705 0 0 59278921.55684398 0 0 61032250.25486317 0 0 65806712.88714097 0 0 62061913.43530747 0 0 64525177.67449306 0 0 67270050.8120922 0 0 69240909.42048095 0 0 69634689.17351751 0 0 70966819.62939931 0 0 213373840.3850358 0 0 175257532.605995 0 0 165541521.5556398 0 0 153993469.1717619 0 0 143767415.2687281 0 0 138976129.148668 0 0 136559904.854667 0 0 135145132.602311 0 0 127845133.7159293 0 0 130228077.6851254 0 0 129301489.6828564 0 0 123848344.8960919 0 0 124162852.2914647 0 0 85884662.26058672 0 0 91108616.07473256 0 0 96350419.00986481 0 0 80796231.46715601 0 0 101498545.9807882 0 0 106457958.8137637 0 0 75967939.82588698 0 0 71524240.89415583 0 0 67583167.40738393 0 0 111136711.1717039 0 0 115469197.5324052 0 0 119447289.0934669 0 0 64241759.53500763 0 0 61574310.95357979 0 0 59633659.52268893 0 0 58417153.28497039 0 0 57856954.67597922 0 0 57836258.48623474 0 0 58620889.88332889 0 0 60444508.66422559 0 0 61225333.42281009 0 0 66705300.82328194 0 0 67928259.69164293 0 0 63574132.11860682 0 0 65491430.31344929 0 0 68767389.84993279 0 0 70036079.29296343 0 0 71719305.54249983 0 0 72288709.88062669 0 0 194197484.7911077 0 0 171068525.8020365 0 0 154085611.8794498 0 0 143353374.9186406 0 0 136676519.1595722 0 0 133475790.6466626 0 0 131926915.7028742 0 0 131188597.0083799 0 0 133944520.8081047 0 0 127603107.694122 0 0 127074986.665567 0 0 128078778.8468779 0 0 123053067.834654 0 0 87416099.73405309 0 0 92774368.85326657 0 0 98206345.24419376 0 0 82236601.06447151 0 0 103597507.091645 0 0 108871410.9405137 0 0 77345072.03854297 0 0 72846651.52411991 0 0 68840046.14033687 0 0 113866181.8734142 0 0 118533098.8180671 0 0 122812280.3860664 0 0 65406664.881603 0 0 62610022.18001035 0 0 60491494.83888517 0 0 59041619.57978594 0 0 58245243.42589878 0 0 58004493.29393672 0 0 60307531.71165804 0 0 60853057.75271291 0 0 62921417.71856639 0 0 66333678.30828673 0 0 67522819.63324642 0 0 63311340.32398084 0 0 65567735.81454425 0 0 69575909.26466545 0 0 70663980.25885312 0 0 71335059.93765324 0 0 72290705.3332319 0 0 234367294.9158406 0 0 197436753.4525941 0 0 176137183.5952615 0 0 161393709.5373851 0 0 151390070.2472951 0 0 144723390.1606939 0 0 140937225.495224 0 0 138664020.0243441 0 0 136968008.1173655 0 0 130536587.5585396 0 0 132720475.9669774 0 0 131358639.1126848 0 0 126204799.0810355 0 0 126617676.6741042 0 0 86179368.17623182 0 0 91081280.90829735 0 0 96045107.94506049 0 0 100968555.7117329 0 0 81446651.40346976 0 0 105752951.9648062 0 0 110321373.5988934 0 0 76992930.98762773 0 0 72923257.45473041 0 0 69332929.14358856 0 0 114619551.1040635 0 0 118532510.7515244 0 0 122005849.8054296 0 0 66297956.92441959 0 0 63875929.12230232 0 0 62084306.8127831 0 0 60908684.56065965 0 0 60298358.14307205 0 0 60587344.02579648 0 0 62645974.52925368 0 0 63026615.46810694 0 0 68896073.69714044 0 0 67653083.0598425 0 0 64875562.93508396 0 0 67022802.46881589 0 0 69091986.93881322 0 0 70280843.44376181 0 0 72034948.98178962 0 0 72915400.68843661 0 0 208223851.0976097 0 0 180155905.587648 0 0 163803204.5638431 0 0 150431525.5212761 0 0 142860261.2717036 0 0 138205130.2923515 0 0 135572069.3264528 0 0 134052429.2854951 0 0 132975107.1548405 0 0 135471421.4699752 0 0 129798651.4766584 0 0 128841550.9364469 0 0 129829114.2298378 0 0 125047313.9844409 0 0 87704353.74569273 0 0 92704304.44291571 0 0 97802108.76713261 0 0 102898155.3336648 0 0 82900312.66180816 0 0 107894776.383016 0 0 112720177.2025412 0 0 78389052.51394738 0 0 74261977.94294213 0 0 70599250.34014983 0 0 117256211.0396214 0 0 121393915.0671539 0 0 125049838.8434293 0 0 67466506.98027216 0 0 64911848.34897902 0 0 62956777.30037959 0 0 61600186.72902988 0 0 60823383.58150457 0 0 62717546.07841165 0 0 62917952.1103496 0 0 64711080.2672329 0 0 68376600.30775285 0 0 67480524.70925112 0 0 65128919.70394475 0 0 67071527.41539305 0 0 70441921.60950957 0 0 71221174.1512772 0 0 71546975.03615028 0 0 72547417.69748496 0 0 249417411.1977827 0 0 211118613.8524575 0 0 185175301.5600313 0 0 168224628.4838611 0 0 156951314.8898438 0 0 149272931.5226884 0 0 144432180.0128064 0 0 141370612.4961792 0 0 139249477.3508562 0 0 137527237.6316229 0 0 131979380.1935107 0 0 134000271.2043535 0 0 132427151.9064604 0 0 127673056.2251202 0 0 128177191.6118484 0 0 91006613.11367172 0 0 86434265.24984041 0 0 95672664.12692797 0 0 100338359.9027559 0 0 104918717.657247 0 0 82054308.77688363 0 0 109319308.0922892 0 0 113472046.2586675 0 0 77959972.68296425 0 0 74238971.90032598 0 0 70967121.49263322 0 0 117333193.107154 0 0 120784136.0776028 0 0 123795491.7657758 0 0 68209233.58592881 0 0 65998391.24810303 0 0 64354968.736444 0 0 63272264.541359 0 0 63200008.03747593 0 0 64864246.50709073 0 0 65078348.12406951 0 0 69577838.73268828 0 0 68764519.99881428 0 0 66719899.83998094 0 0 68580667.70706475 0 0 70174920.80505034 0 0 70789705.55599298 0 0 72587414.65118782 0 0 73392172.08616142 0 0 228046986.6046668 0 0 187401360.0468394 0 0 169070614.8671495 0 0 156160243.205321 0 0 147530453.0839688 0 0 142030038.6157204 0 0 138530323.4647481 0 0 136354019.9005617 0 0 134863914.9188163 0 0 133652764.4445374 0 0 135968349.7308285 0 0 130947564.9545737 0 0 129771824.7529241 0 0 130762842.2848487 0 0 126361562.191501 0 0 92587633.46040337 0 0 87942177.60604654 0 0 97350712.00725885 0 0 102140507.8263452 0 0 106877373.5318302 0 0 83502416.49292246 0 0 111450860.2777905 0 0 115787373.091533 0 0 79353131.51018576 0 0 75572206.55122316 0 0 72225891.53300871 0 0 119781253.8588137 0 0 123353316.9385837 0 0 126455739.592906 0 0 69363174.56092571 0 0 67027705.60920892 0 0 65226279.3086078 0 0 63963076.64155515 0 0 65430700.50377096 0 0 65386065.85638368 0 0 66871183.90664562 0 0 69543711.20753409 0 0 68926311.07278928 0 0 67074648.22307676 0 0 68889188.60608856 0 0 71965088.22195019 0 0 71562046.13166901 0 0 72275809.72537981 0 0 72964687.87883912 0 0 270966114.8973817 0 0 220169581.4166458 0 0 188131488.6377853 0 0 203986522.0812361 0 0 171364506.7013759 0 0 159818166.0647012 0 0 152017947.1864381 0 0 146704184.2841984 0 0 143153149.453541 0 0 140694636.746911 0 0 138810690.4022667 0 0 137191973.2710581 0 0 132520618.2643774 0 0 134377736.8181616 0 0 132748223.0748666 0 0 128480556.8192727 0 0 129027338.8009348 0 0 95285745.01669753 0 0 90922076.00631839 0 0 86676286.17705975 0 0 99678628.73047234 0 0 104022648.1046007 0 0 108260148.1864133 0 0 82636962.88772126 0 0 112266479.6914857 0 0 115994811.1766532 0 0 78878241.5160635 0 0 75472216.07940249 0 0 72488792.80679893 0 0 119379026.9346378 0 0 122371339.0009939 0 0 124933678.0601262 0 0 69976874.52577926 0 0 67962871.79371685 0 0 66455216.15864039 0 0 66128751.27367059 0 0 67415052.07637987 0 0 67404642.76044108 0 0 70487081.96126004 0 0 70106852.92444456 0 0 68722903.26825494 0 0 70393170.24842879 0 0 71761248.43603531 0 0 71878358.45896044 0 0 73945217.61882824 0 0 73416308.27310386 0 0 237308713.8865814 0 0 206283351.4887249 0 0 171939624.8017339 0 0 188024429.8813753 0 0 159525164.2001024 0 0 150496394.9092097 0 0 144604360.6055658 0 0 140621199.1775309 0 0 137979879.4303066 0 0 136156987.5973215 0 0 134761882.691291 0 0 133551618.0610951 0 0 135654112.6279573 0 0 131343382.1412455 0 0 130084478.3269305 0 0 131056557.183619 0 0 127066046.0633011 0 0 96892117.93995354 0 0 92459288.438945 0 0 88156278.87384748 0 0 101370163.4294107 0 0 105824422.2567289 0 0 110196133.8117938 0 0 84063151.88149768 0 0 114321520.6300771 0 0 118147780.2985062 0 0 80253956.74529319 0 0 76789082.98933066 0 0 73729202.5880287 0 0 121615211.7056209 0 0 124673965.5775249 0 0 127255187.5613807 0 0 71111896.70693994 0 0 68970914.41035032 0 0 67314809.92515746 0 0 68380948.59906594 0 0 68118828.8263157 0 0 69250557.56951094 0 0 71675254.04254979 0 0 70620791.16785952 0 0 69248289.51392999 0 0 70971657.92774351 0 0 73162739.40866654 0 0 73127313.73391093 0 0 73695264.8965244 0 0 73230943.35998097 0 0 282785931.9944021 0 0 236071362.8990208 0 0 207438575.8352537 0 0 170915654.7202026 0 0 183050558.2224334 0 0 160361119.649758 0 0 152814457.2147662 0 0 147563710.2796023 0 0 143873735.3938108 0 0 141266920.36259 0 0 139314009.3183725 0 0 137705340.8071596 0 0 136243043.2537148 0 0 132381469.9763009 0 0 134101572.2611023 0 0 132510806.6916809 0 0 128721165.5860724 0 0 129328625.9703167 0 0 94915543.63966486 0 0 99036501.99135849 0 0 90849980.58696604 0 0 86919101.56854388 0 0 103135285.7681698 0 0 107140565.2331148 0 0 110993932.4528255 0 0 83196428.178983 0 0 114634999.9340056 0 0 117906475.107847 0 0 79745266.77160639 0 0 76626643.42714487 0 0 73906246.72647172 0 0 120865128.0241153 0 0 123427003.7220714 0 0 125590823.8518971 0 0 71618570.95480114 0 0 69779133.67660597 0 0 69231882.71741487 0 0 70152009.23859353 0 0 69936715.79729621 0 0 72178386.13213578 0 0 71999152.11348286 0 0 70945331.7667294 0 0 72506874.17823097 0 0 73188346.02223386 0 0 73633582.29331903 0 0 74804521.08341056 0 0 74673675.39910251 0 0 245102597.7113948 0 0 211580537.3788705 0 0 187016413.7798177 0 0 160025316.3239004 0 0 173104778.4409132 0 0 151767082.8873748 0 0 145809642.9537202 0 0 141675270.9767001 0 0 138810198.6501946 0 0 136789590.4430671 0 0 135277860.1504912 0 0 134031332.788261 0 0 132891893.05791 0 0 134811479.6642941 0 0 131173962.4597271 0 0 129909612.161549 0 0 130868505.329321 0 0 127305717.4768911 0 0 96458337.55099183 0 0 100640038.8260623 0 0 92340502.06037277 0 0 88362350.88010253 0 0 104811463.79853 0 0 108900779.7003813 0 0 112854098.436141 0 0 84593461.4673433 0 0 116546688.3187637 0 0 119886997.855285 0 0 81093664.8549926 0 0 77914043.00574996 0 0 75111325.15879206 0 0 122877588.8912502 0 0 125457961.1579755 0 0 127577213.7866486 0 0 72724605.79902869 0 0 70761028.70419094 0 0 71452903.72430275 0 0 70986085.68173593 0 0 71807533.08379515 0 0 73446211.09321846 0 0 72578486.20703907 0 0 71626593.77440572 0 0 73209735.24585882 0 0 74425049.86789495 0 0 74800482.30564488 0 0 74618175.98895359 0 0 74423468.21104479 0 0 287397364.9908828 0 0 243132955.2231514 0 0 211618528.7709672 0 0 188040803.2825289 0 0 168294008.7419277 0 0 159037238.0859085 0 0 169701101.787584 0 0 152000258.3935464 0 0 147077456.936886 0 0 143535139.5770083 0 0 140970661.8767781 0 0 139056676.8350482 0 0 137526046.4214686 0 0 136184181.1251253 0 0 134906521.7088442 0 0 131766923.7647387 0 0 133360970.5755994 0 0 131854267.90763 0 0 128571620.2197689 0 0 129203921.9414915 0 0 94581182.75631611 0 0 98433355.96855409 0 0 102288760.9260843 0 0 90803194.01576692 0 0 87168870.31797497 0 0 106077457.8999789 0 0 109752378.7485563 0 0 113219104.274391 0 0 83739048.44989052 0 0 116438186.3119016 0 0 119332496.4979021 0 0 80574769.24859719 0 0 77727897.94896196 0 0 75239230.94952706 0 0 121879109.5645427 0 0 124066044.6234771 0 0 125842224.4004198 0 0 73148127.69718543 0 0 72412185.15203124 0 0 73009712.32275602 0 0 72611190.55698021 0 0 73990827.45058155 0 0 73937161.13580643 0 0 73335051.40144403 0 0 74710254.47794178 0 0 75281487.13672751 0 0 75331821.11824459 0 0 75913399.82916042 0 0 257614136.1568779 0 0 213276286.4446847 0 0 189492863.6579126 0 0 172281289.7572038 0 0 157770402.1428414 0 0 151660036.9132659 0 0 169736930.3590495 0 0 145776323.6382736 0 0 141695942.6362268 0 0 138806323.8504862 0 0 136730217.3382395 0 0 135188862.5361696 0 0 133958396.197684 0 0 132882762.5070183 0 0 131858982.0328914 0 0 133621781.1627721 0 0 130602871.2090121 0 0 129380961.7132166 0 0 130321672.9761554 0 0 127192085.1404835 0 0 96062324.03637695 0 0 99958521.67173941 0 0 103863422.4415348 0 0 92243682.5829179 0 0 88568936.95855002 0 0 107708071.4221105 0 0 111446695.5896694 0 0 114955372.3249813 0 0 85098197.28470215 0 0 118216084.4248801 0 0 121125228.6252153 0 0 81883160.91012897 0 0 78971169.98016337 0 0 76404449.11941265 0 0 123683680.8316838 0 0 125831469.9773474 0 0 127530352.2499233 0 0 74214927.46667811 0 0 74569628.30376737 0 0 73931954.49516568 0 0 74452076.64696686 0 0 75315751.83796176 0 0 74618883.5126069 0 0 74125746.629519 0 0 75494508.33060175 0 0 75677284.31386736 0 0 76611702.13270245 0 0 75837506.35074954 0 0 299791507.5586348 0 0 246687918.6344872 0 0 226333184.7574188 0 0 212384135.8759657 0 0 189997555.4657879 0 0 172512444.17265 0 0 157427098.102947 0 0 149984757.4932906 0 0 159781591.9453176 0 0 145534641.190528 0 0 142259404.0348016 0 0 139866478.6694092 0 0 138087040.3510454 0 0 136697104.5947197 0 0 135517273.0472668 0 0 134424119.334551 0 0 133336892.8616996 0 0 130823716.4362442 0 0 132303660.4976962 0 0 130933660.6889232 0 0 128107015.8048155 0 0 128762603.8953351 0 0 94289756.00747383 0 0 97881654.37006722 0 0 101498263.1214029 0 0 105076596.4000766 0 0 90785475.07877374 0 0 87425497.4026597 0 0 108558820.7457273 0 0 111873502.1382097 0 0 114984175.2414359 0 0 84268610.01000178 0 0 117813922.8486498 0 0 120340948.7058015 0 0 81368959.39284427 0 0 78767763.20001929 0 0 76495193.46093908 0 0 122522764.770468 0 0 124344679.4629721 0 0 125771066.1878231 0 0 75598705.05639599 0 0 75896252.50370182 0 0 75353555.49117674 0 0 75915418.32002828 0 0 76017543.90075095 0 0 75753825.02304551 0 0 76987592.30872937 0 0 76865771.73359329 0 0 77033893.46242328 0 0 77046039.90338892 0 0 258474925.9682662 0 0 246258424.6672851 0 0 210951599.6322365 0 0 192928386.0560844 0 0 174749857.6012936 0 0 162215045.7329856 0 0 149859075.3725401 0 0 144618177.2576326 0 0 159110028.954636 0 0 140792360.5876008 0 0 138004404.311029 0 0 135995248.0523053 0 0 134508226.3491871 0 0 133349395.4964041 0 0 132371476.7367637 0 0 131471738.7595587 0 0 130583306.7733252 0 0 132219166.0468002 0 0 129738623.5500122 0 0 128602578.9019842 0 0 129521179.9201571 0 0 126797765.5171271 0 0 95710934.77740921 0 0 99335223.38857462 0 0 102986223.7246006 0 0 106599933.3216142 0 0 92173433.23451377 0 0 88778028.77934712 0 0 110120968.4329614 0 0 113463217.8912309 0 0 116597834.4252521 0 0 85580277.73834822 0 0 119434486.057023 0 0 121963169.6756665 0 0 82628518.31772879 0 0 79962806.45342441 0 0 77612321.8960937 0 0 124115745.8618648 0 0 125868915.7984429 0 0 127200182.1929456 0 0 77658191.9868954 0 0 76879927.87210071 0 0 77092190.57533725 0 0 77245520.67974192 0 0 76772881.13455889 0 0 76635676.0272256 0 0 77829258.09515886 0 0 77138686.09342285 0 0 78536184.66468602 0 0 78279897.766414 0 0 77221805.46429743 0 0 226443248.9906766 0 0 209980562.349741 0 0 192055116.4418315 0 0 173205866.4274753 0 0 163728057.522147 0 0 156720145.1612786 0 0 147146987.8614291 0 0 151866441.008563 0 0 143168787.012269 0 0 140221560.4074235 0 0 138066848.2774292 0 0 136488368.3409411 0 0 135285188.9049426 0 0 134302297.1793986 0 0 133412817.4261516 0 0 132544569.7773556 0 0 131643017.2496186 0 0 129656576.3038571 0 0 131047197.3362637 0 0 129816609.6478984 0 0 127420661.3996339 0 0 128089910.8938197 0 0 97387546.43616059 0 0 94044998.64938995 0 0 100773077.3437245 0 0 104142534.4230154 0 0 107438352.4819602 0 0 90793421.80079052 0 0 87690608.3860072 0 0 110601038.3194561 0 0 113578236.9795671 0 0 116335095.7345751 0 0 84788624.76331547 0 0 118824783.3235593 0 0 121001084.3692422 0 0 82131904.79448973 0 0 79742471.93419406 0 0 122849067.736982 0 0 124337186.9917696 0 0 125457626.7695768 0 0 78737278.36364159 0 0 78708838.39926493 0 0 78044368.54615515 0 0 77949561.6662125 0 0 78131253.70657197 0 0 78217386.72325543 0 0 79268949.21994184 0 0 78592726.37763575 0 0 79212012.48501115 0 0 78489025.5896962 0 0 194313578.9140712 0 0 177108002.5403149 0 0 172717343.4074517 0 0 158069537.8062594 0 0 152275561.8281311 0 0 142510921.0329083 0 0 146694081.1885485 0 0 139056208.4245393 0 0 136499294.5933624 0 0 134637154.4815907 0 0 133275809.6854528 0 0 132239121.6835078 0 0 131391149.6252032 0 0 130640492.8642855 0 0 129910564.5845005 0 0 129158732.1032149 0 0 130687453.4756115 0 0 128680698.9005557 0 0 127648520.0397059 0 0 128549508.4439387 0 0 126198050.4833189 0 0 98774813.82038386 0 0 95405012.73214702 0 0 102183778.7812123 0 0 105574638.519992 0 0 108889811.8464859 0 0 92129782.19357286 0 0 88985063.79947935 0 0 112071383.4782313 0 0 115061390.9699015 0 0 117814287.6798043 0 0 86046373.19773965 0 0 120295878.3296698 0 0 122443444.2255611 0 0 83335497.74891903 0 0 80898496.79097216 0 0 124233178.7112955 0 0 125637464.3653208 0 0 126643487.9583143 0 0 80617201.45611987 0 0 79753421.15510808 0 0 79702020.61686759 0 0 79221118.6354852 0 0 78954770.6435207 0 0 79131256.89487579 0 0 80140390.21971935 0 0 78723518.43020245 0 0 79587082.14500748 0 0 79208879.12444767 0 0 185553992.2512296 0 0 164413507.0844728 0 0 151225928.5148273 0 0 156006443.6902296 0 0 146746034.5060829 0 0 139955100.7466341 0 0 143049546.2773528 0 0 137523178.5872985 0 0 135700589.3654203 0 0 134364154.7238075 0 0 133380300.1521721 0 0 132609046.9944554 0 0 131940408.9211845 0 0 131297319.1732525 0 0 130624487.3445199 0 0 129897993.6273191 0 0 128359599.9283335 0 0 129669953.283489 0 0 128589935.32525 0 0 126565187.4446022 0 0 127244925.5725607 0 0 100115148.9058663 0 0 96945922.27555123 0 0 93820045.831323 0 0 103282204.3684152 0 0 106395495.7258292 0 0 109401957.4611637 0 0 90804047.94562802 0 0 87937479.14763397 0 0 112256261.9634086 0 0 114923050.2226147 0 0 117354217.7255602 0 0 85262549.5186965 0 0 119515251.747931 0 0 121371976.280748 0 0 82820060.85298876 0 0 122912778.34887 0 0 124108458.702961 0 0 124954962.2091559 0 0 81734949.60778245 0 0 81459645.24026088 0 0 80700104.8364469 0 0 80090892.77442791 0 0 80275272.08145927 0 0 80654223.79522043 0 0 81559540.54849544 0 0 80060945.55612148 0 0 80669326.83720881 0 0 172685774.6507376 0 0 166664604.4362223 0 0 147353166.0402813 0 0 152461232.4944408 0 0 142866616.5376921 0 0 136564503.0510308 0 0 139414455.8562493 0 0 134363501.1974122 0 0 132735220.6455328 0 0 131556197.0327228 0 0 130678133.3103535 0 0 129992869.3655357 0 0 129405273.9904746 0 0 128850350.0479712 0 0 128280989.8870839 0 0 127665580.9506005 0 0 129102539.8921718 0 0 127495020.8538987 0 0 126570921.4091637 0 0 127455804.4817047 0 0 125452004.4380804 0 0 101454391.3279786 0 0 98276202.39224708 0 0 95126239.58847775 0 0 104635527.6644764 0 0 107758896.913702 0 0 110774633.1994782 0 0 92089916.55037902 0 0 89179986.59078944 0 0 113635838.3808626 0 0 116295718.9384927 0 0 118709190.5294494 0 0 86470640.63982821 0 0 120838161.7620662 0 0 122642241.1156282 0 0 83977605.75933209 0 0 124096430.7283722 0 0 125198368.4686304 0 0 125928480.8548198 0 0 83478422.47277525 0 0 82524633.62446642 0 0 82260959.9208924 0 0 81181409.33476043 0 0 81085282.45661336 0 0 81584912.56579512 0 0 82442017.19409893 0 0 80295786.2787845 0 0 80965249.07792445 0 0 157239636.2589665 0 0 141783945.8999651 0 0 144547527.3869698 0 0 146913879.3761967 0 0 138736892.9807512 0 0 136328077.5063896 0 0 134385097.6788001 0 0 132906136.8383192 0 0 131842672.2864404 0 0 131085750.1482744 0 0 130530650.1408873 0 0 130083762.7525753 0 0 129664100.2430526 0 0 129222616.7111148 0 0 128728255.1794464 0 0 128156594.8373263 0 0 126981070.2005799 0 0 128227523.6571367 0 0 127286691.9542786 0 0 125606533.8935941 0 0 126292978.2275311 0 0 102496896.4506508 0 0 99507731.45130713 0 0 96538541.10451382 0 0 93603086.38412161 0 0 105433840.080754 0 0 108290137.7731189 0 0 111023606.2575222 0 0 90822711.95591174 0 0 88190395.41128388 0 0 113591677.0141663 0 0 115954946.0096829 0 0 118079181.742447 0 0 85724389.99283658 0 0 119934005.9079517 0 0 121499406.5043338 0 0 122759032.5111968 0 0 123698968.3945107 0 0 124310495.3093998 0 0 84587559.40444863 0 0 84117456.22911836 0 0 83273647.33087584 0 0 81934839.9496405 0 0 82390154.77006415 0 0 83051114.99733363 0 0 83786131.2260509 0 0 81670473.72203617 0 0 82300967.2279269 0 0 154470626.4028616 0 0 138873585.7613191 0 0 142239050.7093391 0 0 145429009.8543236 0 0 135878601.1746716 0 0 133573662.6214076 0 0 131753992.2008969 0 0 130412541.255872 0 0 129434000.8216469 0 0 128746650.3814212 0 0 128234678.8472508 0 0 127822669.6822366 0 0 127448717.815486 0 0 127066246.824381 0 0 126635222.6756395 0 0 126142626.2848077 0 0 127501012.6581254 0 0 126234994.1753589 0 0 125436151.5885423 0 0 126303291.43927 0 0 124598768.2759531 0 0 103776630.1226953 0 0 100792882.3517435 0 0 97809822.29004577 0 0 94859381.84094669 0 0 106716491.4215695 0 0 109573236.6503888 0 0 112304234.2617733 0 0 92035630.13158019 0 0 89388471.49976565 0 0 114861409.9479097 0 0 117203448.2538307 0 0 119296731.5401349 0 0 86885500.57805268 0 0 121103568.194038 0 0 122601962.9760856 0 0 123768957.9026075 0 0 124604305.7646109 0 0 125100102.7623044 0 0 86184756.09427822 0 0 85176249.16206674 0 0 84753879.28498855 0 0 83229032.45589636 0 0 83230919.46346335 0 0 84000745.5246236 0 0 84694007.11676764 0 0 81979354.64684151 0 0 82814532.54053302 0 0 147163504.9373466 0 0 134549402.7900223 0 0 136450949.1421089 0 0 138666568.4170699 0 0 142176448.7582393 0 0 132570523.4927352 0 0 131023801.7532589 0 0 129853924.1259631 0 0 129052907.6137966 0 0 128509932.2872781 0 0 128169569.2521413 0 0 127929311.4280412 0 0 127726563.3793009 0 0 127502329.5633292 0 0 127231615.3243383 0 0 126884700.5495079 0 0 126449912.86885 0 0 125580576.8742601 0 0 126767112.0752129 0 0 125967365.6985253 0 0 124569648.4351967 0 0 125261976.3821607 0 0 104550866.3226183 0 0 101774676.3661119 0 0 98945036.08269306 0 0 96168062.55382383 0 0 93482419.00100607 0 0 107257450.6186123 0 0 109864828.5600969 0 0 112333177.6167703 0 0 90890122.38043045 0 0 88445666.7543689 0 0 114624925.518521 0 0 116708707.3138245 0 0 118554413.1571773 0 0 120135935.5481594 0 0 121436911.9219297 0 0 122445440.6647255 0 0 123154405.6382006 0 0 123563524.307183 0 0 87283487.00454293 0 0 86660025.48229775 0 0 85758776.62306197 0 0 83980414.10232268 0 0 84488137.55750607 0 0 85360144.6928004 0 0 85940635.16453288 0 0 83387154.40503827 0 0 84127001.28009336 0 0 132216870.1638797 0 0 134517133.6213476 0 0 136778061.0687376 0 0 138993745.0600964 0 0 130343514.0597599 0 0 128871490.6496353 0 0 127796285.1995681 0 0 127032600.1425186 0 0 126532036.2507697 0 0 126192663.7911066 0 0 125958377.0498572 0 0 125759740.4085782 0 0 125561589.3639524 0 0 125319129.4174019 0 0 125014403.9740788 0 0 124635209.7112687 0 0 125924978.8532424 0 0 124952137.1074154 0 0 124251527.7272526 0 0 125104910.6616213 0 0 123676509.5758179 0 0 105761858.470158 0 0 102992234.5534504 0 0 100179925.8174781 0 0 97370866.04245736 0 0 94668296.63608932 0 0 108464133.5774008 0 0 111061216.598004 0 0 113511885.832798 0 0 92059509.9698723 0 0 89593118.04492594 0 0 115777694.8823057 0 0 117826619.7115739 0 0 119624011.4125777 0 0 121146047.2673119 0 0 122371344.8464407 0 0 123290719.5405215 0 0 123900108.4501626 0 0 124196419.538781 0 0 88750118.33150722 0 0 87709507.15497836 0 0 87120191.20346095 0 0 85112207.50646114 0 0 85339300.61297333 0 0 86316911.57355759 0 0 86848389.63906766 0 0 83740710.44846129 0 0 84652872.14733796 0 0 128905190.770605 0 0 130197769.8107489 0 0 131903274.8461979 0 0 134411492.4298472 0 0 127625036.2180389 0 0 126717547.8177777 0 0 126125343.4746107 0 0 125783390.2888661 0 0 125624723.7878379 0 0 125569262.6870175 0 0 125560708.0047654 0 0 125539856.0512598 0 0 125477336.80021 0 0 125341428.0331471 0 0 125119029.008974 0 0 124802088.7448999 0 0 124185472.4870504 0 0 125321365.4386701 0 0 124642758.4034435 0 0 123500984.6224868 0 0 124188541.4362298 0 0 106305540.8901323 0 0 103739982.4710982 0 0 101099290.602814 0 0 98465397.62358528 0 0 95886154.14874484 0 0 93393787.58546723 0 0 108785532.2493829 0 0 111152342.0108131 0 0 113365080.3643189 0 0 91001431.20890114 0 0 115396153.4065641 0 0 117220307.4413708 0 0 118807851.1108731 0 0 120139589.7502711 0 0 121205375.9235788 0 0 121997412.8200836 0 0 122508963.4242695 0 0 122743630.3564947 0 0 89836338.40024579 0 0 89052453.87158948 0 0 88120195.16500878 0 0 85877432.88423648 0 0 86446575.03158598 0 0 87565879.27083364 0 0 87994001.6070241 0 0 85079597.54987496 0 0 85918967.93617079 0 0 127033463.4946266 0 0 128690003.5073464 0 0 130130304.1273858 0 0 131986339.2460457 0 0 125891408.1694773 0 0 125023456.7406344 0 0 124462964.3561791 0 0 124127419.9767567 0 0 123956276.4844897 0 0 123884018.6081621 0 0 123853751.2640729 0 0 123825412.2596395 0 0 123761543.6102039 0 0 123638033.8653514 0 0 123442043.8221748 0 0 123169003.0953401 0 0 124393320.5782729 0 0 123659526.8577555 0 0 123064239.5520021 0 0 123894704.739414 0 0 122709680.0420479 0 0 107440371.463261 0 0 104884136.8652532 0 0 102262565.4985102 0 0 99628167.18372872 0 0 97030702.40268433 0 0 94528160.89660588 0 0 109906523.3724201 0 0 112249713.619814 0 0 114436385.5912287 0 0 92114725.63287775 0 0 116433345.0313206 0 0 118209695.1498603 0 0 119742733.2068205 0 0 121009445.1783319 0 0 121997307.2228012 0 0 122699021.017965 0 0 123114010.0749558 0 0 123243317.4729737 0 0 91136091.81997113 0 0 90087430.5817 0 0 89354106.98299576 0 0 86984598.66360357 0 0 87346212.11400306 0 0 88514982.3681678 0 0 88899323.54998818 0 0 85482525.9579999 0 0 86477003.57689947 0 0 124318448.5066355 0 0 125171530.9049861 0 0 126123674.6562624 0 0 128144681.0721614 0 0 123614838.3692555 0 0 123195771.0450485 0 0 123009201.6827418 0 0 122996030.3490779 0 0 123095516.6649625 0 0 123250778.8779783 0 0 123407666.0063871 0 0 123529309.1873708 0 0 123587276.2558975 0 0 123562590.0744683 0 0 123443666.7528148 0 0 123229271.7120045 0 0 122818135.2994572 0 0 123905092.3179179 0 0 123337617.7630385 0 0 122418029.8969575 0 0 123098454.4947293 0 0 107781243.8015514 0 0 105415828.5236922 0 0 102973723.5815436 0 0 100512448.4355423 0 0 98067176.28665864 0 0 95668516.20090246 0 0 93349621.04628149 0 0 110043644.5114599 0 0 112175806.4077413 0 0 114152424.6053421 0 0 115947723.5155868 0 0 117530039.3924608 0 0 118880613.6536465 0 0 119990832.033887 0 0 120847398.0381677 0 0 121448641.598988 0 0 121791548.6725541 0 0 121879486.1177659 0 0 92196503.34532818 0 0 91285444.06142028 0 0 90339166.22303118 0 0 87838694.2581636 0 0 88352448.69917779 0 0 89650243.59241034 0 0 89932371.18979706 0 0 86794158.48334669 0 0 87697479.18013927 0 0 122940720.6401697 0 0 124025282.9694092 0 0 124894983.8781566 0 0 126092929.4866408 0 0 122249832.4021834 0 0 121837726.2998061 0 0 121642893.1084915 0 0 121607050.7934552 0 0 121675934.3069543 0 0 121793845.5495001 0 0 121919720.783367 0 0 122017950.2370225 0 0 122064233.0623312 0 0 122041362.914456 0 0 121940055.495642 0 0 121758956.3221442 0 0 122923170.8307817 0 0 122387640.2652562 0 0 121888466.3625848 0 0 122697481.0440851 0 0 121723093.5848443 0 0 108836107.0011484 0 0 106488345.3663507 0 0 104065991.0429796 0 0 101612448.4898564 0 0 99169154.80910565 0 0 96761674.10141523 0 0 94430144.68154371 0 0 111074620.401918 0 0 113177863.7444873 0 0 115118783.9402086 0 0 116866114.6874842 0 0 118399470.4883436 0 0 119691423.0752181 0 0 120733527.664907 0 0 121512788.3453049 0 0 122026059.793547 0 0 122274799.4371897 0 0 122265447.2652243 0 0 93336029.29511246 0 0 92293820.48451287 0 0 91447879.27603441 0 0 88627810.84858941 0 0 89328221.36955537 0 0 90586438.65850049 0 0 90804718.95474598 0 0 87190414.61873105 0 0 88124984.29439251 0 0 120690622.4733896 0 0 121220648.8023859 0 0 121569696.4124975 0 0 123090629.7420286 0 0 120384881.8048541 0 0 120294322.5138904 0 0 120383538.8095876 0 0 120594310.1498565 0 0 120875242.5635154 0 0 121176093.6700151 0 0 121455271.3598341 0 0 121682060.5540687 0 0 121833641.4694278 0 0 121897209.3825009 0 0 121866055.5133524 0 0 121741622.6366197 0 0 121495753.1081305 0 0 122536902.7739093 0 0 122066724.5090705 0 0 121337505.6529069 0 0 122010293.5303152 0 0 106845789.8280009 0 0 109003797.123265 0 0 104599088.5836395 0 0 102304859.5062709 0 0 100005964.3825618 0 0 97725116.24590391 0 0 95491240.20544049 0 0 111056769.3856619 0 0 112971094.7681085 0 0 114726171.6012237 0 0 116292832.724783 0 0 117659896.9835007 0 0 118805419.3756658 0 0 119717177.9949251 0 0 120391124.4604514 0 0 120826501.8454766 0 0 121023425.1766426 0 0 120988824.5179719 0 0 94364275.76392022 0 0 93344746.20884417 0 0 92404363.90938221 0 0 89553114.4821496 0 0 90270405.78424883 0 0 91620392.40732892 0 0 91798207.04471566 0 0 88507983.43450993 0 0 119586340.880271 0 0 120197048.8870314 0 0 121404568.460324 0 0 121101465.15825 0 0 119279491.882855 0 0 119175795.7363316 0 0 119238304.5821452 0 0 119412875.6316142 0 0 119650102.8075864 0 0 119906853.8922421 0 0 120147024.9745981 0 0 120343474.3405604 0 0 120477740.7167007 0 0 120537615.6178278 0 0 120516550.6738181 0 0 120410994.5672076 0 0 121523952.2524053 0 0 121149498.0066268 0 0 120738916.7743273 0 0 121527793.6981603 0 0 120733943.5344336 0 0 107849048.918091 0 0 109980264.8227591 0 0 105622038.021753 0 0 103340769.4479228 0 0 101050639.5768419 0 0 98772271.18957402 0 0 96532270.22142544 0 0 112002903.9714105 0 0 113883128.039094 0 0 115594263.9777805 0 0 117112820.4234356 0 0 118421167.8012796 0 0 119504663.2969681 0 0 120346596.9135354 0 0 120943684.6951447 0 0 121295278.8387992 0 0 121404955.600424 0 0 121281214.5270635 0 0 95347659.51422159 0 0 94321873.25113657 0 0 93372344.87553069 0 0 89721081.82620679 0 0 91006043.07126364 0 0 92512323.89417344 0 0 92648193.91310988 0 0 88927129.85412812 0 0 117797235.381097 0 0 118149500.6744283 0 0 118870479.1564308 0 0 118438921.4087683 0 0 119438649.6409456 0 0 117732227.1014648 0 0 117869106.2887661 0 0 118144394.2442381 0 0 118509698.2167688 0 0 118915017.1774315 0 0 119318441.6518328 0 0 119684472.3540937 0 0 119987569.251396 0 0 120212670.3009376 0 0 120348359.453106 0 0 120390304.5222631 0 0 120338314.5992728 0 0 120225084.9658056 0 0 121223653.7375352 0 0 120842279.5144901 0 0 120272859.7818664 0 0 120937678.7452174 0 0 105985500.4601622 0 0 108049502.8305917 0 0 110015356.794289 0 0 103865992.9089525 0 0 101716690.4114139 0 0 99562643.07017627 0 0 97431469.9761187 0 0 111862685.8565248 0 0 113574049.2584001 0 0 115118606.0476867 0 0 116483970.2990812 0 0 117652604.0033499 0 0 118608787.6341516 0 0 119343970.739331 0 0 119858946.2157598 0 0 120151345.9766943 0 0 120225408.1667825 0 0 120089215.1023971 0 0 96339729.67172669 0 0 95232228.92914999 0 0 94306059.069373 0 0 90210911.22361976 0 0 91181606.74486701 0 0 92274330.40102711 0 0 93374721.99294946 0 0 93244016.0846937 0 0 116888605.8246779 0 0 117194076.6424097 0 0 117579472.6262729 0 0 117457134.3892529 0 0 117351527.6514939 0 0 116816605.8529718 0 0 116930040.7950907 0 0 117170404.3112825 0 0 117491514.1968661 0 0 117849070.6606059 0 0 118203483.2231799 0 0 118526816.6685992 0 0 118798097.7308617 0 0 119001657.2353895 0 0 119128744.3223934 0 0 119172639.9467033 0 0 119133792.3708381 0 0 120196778.3145714 0 0 119956993.8453687 0 0 119623558.9471359 0 0 120392133.4720391 0 0 119754747.6386107 0 0 106941301.3288372 0 0 108978584.022238 0 0 110915288.1511844 0 0 104840710.3056943 0 0 102703804.0777804 0 0 100556709.1767584 0 0 98427310.25336339 0 0 112728994.0730232 0 0 114397782.3291966 0 0 115894946.0897398 0 0 117208837.2797725 0 0 118315556.4621846 0 0 119208388.3255312 0 0 119875727.3642888 0 0 120314274.9711382 0 0 120527286.7813226 0 0 120520752.985751 0 0 120304171.3960118 0 0 97182255.06564076 0 0 96180813.21011499 0 0 95141585.36468634 0 0 90581128.86780369 0 0 91541360.24794976 0 0 92576079.19224904 0 0 94354089.65351312 0 0 94064507.78101954 0 0 115377637.2503448 0 0 115479777.6652251 0 0 116015602.7875856 0 0 115709812.4747684 0 0 116072794.6302891 0 0 115520933.3930602 0 0 115812097.5090993 0 0 116218590.6719989 0 0 116688724.5930968 0 0 117179536.4911057 0 0 117651689.6697426 0 0 118077911.3549031 0 0 118438068.4943431 0 0 118718694.3657278 0 0 118911771.1017134 0 0 119012238.0356436 0 0 119021892.111354 0 0 119015643.3224689 0 0 119971908.2685787 0 0 119668884.2771245 0 0 119237333.6193818 0 0 119891245.932301 0 0 107174064.0117933 0 0 105219050.1205745 0 0 109055100.8618574 0 0 110836869.0873447 0 0 103217514.957437 0 0 101193558.9000369 0 0 99172658.67444855 0 0 112494336.2763883 0 0 114009434.1543997 0 0 115363456.8193162 0 0 116541494.9458877 0 0 117529748.794738 0 0 118319032.869361 0 0 118898873.8126389 0 0 119272699.7038481 0 0 119442309.1637863 0 0 119412998.2966229 0 0 119193426.1254831 0 0 98129464.42930754 0 0 96978734.78464374 0 0 96036956.59606335 0 0 91852688.66014196 0 0 92959863.93974443 0 0 95067367.93073386 0 0 94178965.52145681 0 0 114622265.6040156 0 0 114684898.6687903 0 0 114896237.1197824 0 0 114555127.7548975 0 0 114446392.215513 0 0 114750148.5508931 0 0 115013654.3149153 0 0 115380361.2304543 0 0 115803496.4906465 0 0 116242179.6953013 0 0 116665721.1629693 0 0 117049998.8075881 0 0 117377052.4615707 0 0 117634862.9724404 0 0 117814481.5595944 0 0 117911877.2148557 0 0 117930010.659743 0 0 118944657.3020609 0 0 118815913.9040783 0 0 118552704.8499943 0 0 119300007.5785777 0 0 118795967.6437076 0 0 108061338.4725581 0 0 106130220.0566363 0 0 109911832.1652681 0 0 111661571.6459936 0 0 104145259.5732983 0 0 102133722.6118208 0 0 100118877.2361244 0 0 113279831.0259857 0 0 114750735.6757575 0 0 116056716.3269438 0 0 117178873.3404263 0 0 118105306.7937627 0 0 118826994.6887517 0 0 119340318.4858259 0 0 119642822.9915757 0 0 119739202.9448187 0 0 119636274.663626 0 0 119344803.9305972 0 0 98830710.09801008 0 0 97874467.17946447 0 0 96823239.20395531 0 0 92211191.27136648 0 0 93290188.3587199 0 0 95908180.46736182 0 0 94948438.64437917 0 0 95566804.24570626 0 0 113241906.4743845 0 0 113385109.280231 0 0 113655831.6915932 0 0 113211177.2037206 0 0 113386611.0980084 0 0 113645055.7983211 0 0 114054852.0746958 0 0 114551605.1474078 0 0 115091463.5073474 0 0 115637051.5245006 0 0 116154412.3655384 0 0 116621705.3452909 0 0 117022513.2034789 0 0 117345877.0036567 0 0 117582567.3225023 0 0 117730046.917446 0 0 117790624.6571793 0 0 117871516.8733788 0 0 118787218.372512 0 0 118552730.8086909 0 0 118235474.7235499 0 0 118878456.4884963 0 0 106378509.5257284 0 0 108172411.5087502 0 0 104524789.0744793 0 0 109882292.9620447 0 0 111487414.0043177 0 0 102633266.4755168 0 0 100726764.8927717 0 0 112965898.843361 0 0 114302197.7836396 0 0 115480348.3282227 0 0 116487455.505845 0 0 117313777.2431171 0 0 117950563.2636671 0 0 118395286.8112145 0 0 118648582.2119469 0 0 118713890.2626892 0 0 118598103.5474883 0 0 118310703.4567292 0 0 99731228.44591743 0 0 98527986.85566112 0 0 97687081.36325616 0 0 93431856.67570141 0 0 94489074.66967899 0 0 96758554.57520938 0 0 95345080.38994564 0 0 96161884.01574279 0 0 112610434.1512658 0 0 112743478.3925017 0 0 112675503.6201039 0 0 112332288.9660485 0 0 112154011.0078127 0 0 112993076.9367931 0 0 113369745.3572204 0 0 113822966.3669827 0 0 114313808.383258 0 0 114806364.6930259 0 0 115277345.323515 0 0 115705568.641455 0 0 116072807.3659724 0 0 116370664.4550862 0 0 116592587.6471265 0 0 116732793.0108077 0 0 116800485.8453426 0 0 117774183.7891104 0 0 117729023.0876186 0 0 117524945.8493577 0 0 118255037.7762598 0 0 117863630.071241 0 0 107223107.7104023 0 0 108988994.6483069 0 0 105391475.8776617 0 0 110667549.6592626 0 0 112235790.8839653 0 0 103516783.3777232 0 0 101622188.0048345 0 0 113675098.9318387 0 0 114966945.7165893 0 0 116093951.2432918 0 0 117043565.1445553 0 0 117807628.5169755 0 0 118379791.6887714 0 0 118759138.2665462 0 0 118945230.6828185 0 0 118943243.2000129 0 0 118761149.9507152 0 0 118409671.0333602 0 0 100309476.1689861 0 0 99391029.25463197 0 0 98285017.3671965 0 0 93844438.94618899 0 0 94845505.91621375 0 0 97509650.11745536 0 0 96192399.46741456 0 0 96756568.4400232 0 0 111511340.0189408 0 0 111505703.9915203 0 0 111676279.6309506 0 0 111241005.3508566 0 0 111116270.7278694 0 0 112056934.7739006 0 0 112547047.6485377 0 0 113102688.0263346 0 0 113685101.6919568 0 0 114261508.9020638 0 0 114807446.5410465 0 0 115302817.8907371 0 0 115730072.0868416 0 0 116083851.1700962 0 0 116355967.328809 0 0 116538900.3011293 0 0 116642932.5448224 0 0 116785188.3967287 0 0 117668565.1621551 0 0 117490912.4971298 0 0 117269721.2893527 0 0 117902251.4829617 0 0 105651025.7051987 0 0 107359217.8526594 0 0 108998227.007163 0 0 103893410.4157246 0 0 110546532.8082262 0 0 111985251.2056808 0 0 102106837.5541231 0 0 113300262.2026224 0 0 114471202.9304214 0 0 115486790.499163 0 0 116338444.16266 0 0 117020907.5340779 0 0 117525301.1775876 0 0 117851183.9278992 0 0 118000154.8176196 0 0 117977317.9079475 0 0 117790014.3978792 0 0 117447925.7025719 0 0 101165107.070669 0 0 99940975.94247986 0 0 99092131.72990489 0 0 94986313.10687795 0 0 98116524.46916565 0 0 96322345.25858583 0 0 97451243.21821424 0 0 110758572.490825 0 0 110977004.8226398 0 0 111147943.7521512 0 0 110425813.9970853 0 0 110167366.4348428 0 0 111501643.0743362 0 0 111952165.9707968 0 0 112460109.9023486 0 0 112993699.6684855 0 0 113523885.5912421 0 0 114025899.9521344 0 0 114484325.9321364 0 0 114872963.9387643 0 0 115201893.4857662 0 0 115457082.9137171 0 0 115633647.8153443 0 0 115738862.3655368 0 0 116669638.8649128 0 0 116696962.6409696 0 0 116548016.1368789 0 0 117253827.5109295 0 0 116963421.6718407 0 0 106455189.8171537 0 0 108137878.2256922 0 0 109747586.506412 0 0 104718535.1333535 0 0 111261354.1103777 0 0 112661767.5804283 0 0 102948988.7530505 0 0 113931957.4751212 0 0 115056877.0299259 0 0 116023484.345366 0 0 116820530.738038 0 0 117440583.1345176 0 0 117883695.3702466 0 0 118147305.250459 0 0 118233999.8042629 0 0 118149907.317468 0 0 117903269.2267708 0 0 117504955.1847306 0 0 101635989.7939719 0 0 100753426.2538495 0 0 99600061.50807783 0 0 95400808.87949307 0 0 98843416.65372002 0 0 97019701.42742755 0 0 97936697.26946907 0 0 109762761.5410551 0 0 109913712.729714 0 0 110262729.3261788 0 0 109255102.566462 0 0 109410778.2377657 0 0 110712654.4993643 0 0 111247246.1513789 0 0 111831049.8338564 0 0 112437326.7914998 0 0 113033495.5107075 0 0 113595047.7070605 0 0 114112756.3680217 0 0 114548657.2795941 0 0 114922123.0077751 0 0 115223942.4263797 0 0 115432448.2389267 0 0 115571425.8786751 0 0 115764558.8830157 0 0 116613248.1724759 0 0 116484223.5606506 0 0 116350500.7311871 0 0 116967555.3958753 0 0 104985339.8885814 0 0 106610806.6694454 0 0 108179114.291209 0 0 109670439.7757662 0 0 103321581.6721482 0 0 111067069.6431204 0 0 112351180.3378512 0 0 113510666.3146673 0 0 114532409.1926241 0 0 115403831.6126069 0 0 116117792.19968 0 0 116669707.2311342 0 0 117056806.0215301 0 0 117278897.900456 0 0 117338616.3879875 0 0 117241602.0631207 0 0 116995921.9654469 0 0 116611294.6198388 0 0 102436999.3594196 0 0 101213769.5958914 0 0 100372385.665835 0 0 96316112.67894585 0 0 99322160.87179464 0 0 97559357.36916624 0 0 98596753.62485333 0 0 109443999.8336986 0 0 109496976.6482212 0 0 109812909.8923346 0 0 109076699.9413485 0 0 108704031.9281896 0 0 110227525.3091462 0 0 110722206.2879936 0 0 111264112.8211517 0 0 111822925.8597333 0 0 112374920.3877221 0 0 112899395.9161164 0 0 113368750.6412099 0 0 113767043.8034506 0 0 114116617.5603787 0 0 114390888.4577039 0 0 114601477.988428 0 0 114736400.6881564 0 0 115635157.8942297 0 0 115720164.3407567 0 0 115627094.070171 0 0 116306694.4610389 0 0 116099331.2086538 0 0 105751377.6477773 0 0 107353543.9265114 0 0 108893791.4246678 0 0 110352533.3615588 0 0 104106882.1616436 0 0 111713835.6384115 0 0 112958162.6340549 0 0 114072076.9700458 0 0 115045523.2346063 0 0 115865982.9446595 0 0 116526448.2328806 0 0 117021870.0219547 0 0 117351620.4816028 0 0 117515825.3135393 0 0 117518855.8826926 0 0 117366986.9113963 0 0 117068462.3009816 0 0 116634448.1175063 0 0 102804563.460402 0 0 101976421.8115286 0 0 100841996.2311983 0 0 96870760.78043351 0 0 100034235.7990829 0 0 98189519.05089171 0 0 99046864.82214162 0 0 108485725.8007969 0 0 108088381.8890411 0 0 108690770.0454985 0 0 109068489.2084533 0 0 108049724.4104442 0 0 107888667.7199837 0 0 109552877.0394907 0 0 110112849.6892644 0 0 110714861.4892225 0 0 111329778.4222146 0 0 111932979.8433695 0 0 112499679.4659347 0 0 113032823.619685 0 0 113463542.7162231 0 0 113848794.8020517 0 0 114163577.2307424 0 0 114401034.8573428 0 0 114565512.8718087 0 0 114797351.1281136 0 0 115617105.7766766 0 0 115541221.9095217 0 0 115474512.322532 0 0 116076463.0128496 0 0 105921985.8281925 0 0 104377343.397357 0 0 107421191.7304174 0 0 108854785.655751 0 0 110206043.1148662 0 0 111459818.9042194 0 0 112601389.5329614 0 0 113618775.876405 0 0 114502204.4295866 0 0 115242058.8534721 0 0 115832787.8357372 0 0 116270610.3242173 0 0 116555568.0473484 0 0 116688455.7836089 0 0 116672812.3701384 0 0 116514292.2692723 0 0 116221515.1859324 0 0 115804314.8607612 0 0 103552145.3501478 0 0 102339303.0899541 0 0 101586382.5308933 0 0 97630860.80808875 0 0 100512355.4241911 0 0 98849257.55408378 0 0 99801332.64221737 0 0 108117928.3081247 0 0 107979052.5366432 0 0 108323444.2101777 0 0 108674816.7885067 0 0 107317063.1612153 0 0 107289933.5317226 0 0 109127814.8153774 0 0 109645728.9528027 0 0 110211055.7351664 0 0 110787007.6312313 0 0 111347906.0346973 0 0 111866435.3300373 0 0 112314943.3768274 0 0 112750545.3892552 0 0 113116256.1818381 0 0 113411402.936912 0 0 113647893.2557828 0 0 113813924.6778074 0 0 114658988.4823064 0 0 114800960.6029384 0 0 114749141.0739247 0 0 115412246.353719 0 0 115273442.2688765 0 0 106631572.6764451 0 0 105107444.8502285 0 0 108104721.2072703 0 0 109507960.6994572 0 0 110825098.0499345 0 0 112040224.328663 0 0 113140949.162634 0 0 114113830.5353193 0 0 114949385.1581101 0 0 115639255.4092043 0 0 116178369.8259896 0 0 116564237.3043419 0 0 116795737.8422818 0 0 116875104.0394769 0 0 116807567.4159822 0 0 116599776.3079411 0 0 116260975.0432089 0 0 115801523.9683328 0 0 103822788.9218362 0 0 103051230.7525978 0 0 101929201.5070636 0 0 98091119.81207736 0 0 101280533.4333174 0 0 99408894.11044207 0 0 100133829.4778822 0 0 107324992.5155015 0 0 107175772.7636873 0 0 107620431.3042948 0 0 108038136.1463469 0 0 106896019.7891505 0 0 106565907.6778201 0 0 108550202.5427881 0 0 109118053.7938321 0 0 109729335.9719893 0 0 110349384.7218634 0 0 110955616.3999155 0 0 111506988.4993975 0 0 112004573.1080468 0 0 112462857.8463679 0 0 112860649.427035 0 0 113187140.9139438 0 0 113448811.9246952 0 0 113641766.8347539 0 0 113906121.628086 0 0 114681868.6039707 0 0 114650605.0956203 0 0 114641843.9246633 0 0 115232800.5532758 0 0 106721046.5816387 0 0 105287970.9343783 0 0 108097371.210758 0 0 109401941.6934495 0 0 110620637.1502961 0 0 111740435.0178989 0 0 112749527.4353047 0 0 113637226.594328 0 0 114395499.7614949 0 0 115017279.7302991 0 0 115498381.6693599 0 0 115836532.3877031 0 0 116032494.7397389 0 0 116089196.6937346 0 0 116009792.7068828 0 0 115800609.3230825 0 0 115470058.3648335 0 0 115027571.6554383 0 0 104516970.3906939 0 0 103317073.767268 0 0 102605174.5877801 0 0 98875350.51831321 0 0 101658820.6339504 0 0 99902108.21796173 0 0 100853742.2059742 0 0 107039177.4853095 0 0 106913371.235644 0 0 107307636.0601604 0 0 107697179.7514689 0 0 106218590.5152092 0 0 106084167.010737 0 0 108171731.458243 0 0 108713166.1128178 0 0 109285017.9047498 0 0 109863766.156256 0 0 110402453.1788486 0 0 110923946.3865203 0 0 111389890.1588482 0 0 111830772.8883881 0 0 112207131.8318782 0 0 112516852.4559828 0 0 112766538.8099518 0 0 112953863.0688659 0 0 113759094.1655921 0 0 113939978.4056237 0 0 113921762.7725196 0 0 114569555.4025775 0 0 114480198.1226305 0 0 107375671.8629518 0 0 105967170.0681768 0 0 108723395.0659059 0 0 109995414.592338 0 0 111178558.9532513 0 0 112260040.8124463 0 0 113227808.7416951 0 0 114072044.6243685 0 0 114783915.0997216 0 0 115358272.1346872 0 0 115790691.1692638 0 0 116079714.6144968 0 0 116226295.394373 0 0 116233061.7135622 0 0 116107109.32937 0 0 115853306.4686234 0 0 115483495.0565984 0 0 115002909.0381261 0 0 104702031.2419422 0 0 103982349.3581499 0 0 102852576.8930385 0 0 99339150.9150227 0 0 102304978.0787546 0 0 100443562.8148331 0 0 100895366.0170061 0 0 106379448.3886854 0 0 106211269.7813116 0 0 106715185.5873873 0 0 107155202.9751409 0 0 105892215.0738855 0 0 105533256.8661087 0 0 107676052.606012 0 0 108255706.4895995 0 0 108864289.9067085 0 0 109480259.277608 0 0 110055849.5341521 0 0 110602677.7807912 0 0 111098269.8943063 0 0 111563434.6827974 0 0 111967214.4993844 0 0 112301949.4221862 0 0 112573613.956065 0 0 112784197.1924751 0 0 113073615.0389919 0 0 113812000.474148 0 0 113817125.4322939 0 0 113844252.4307084 0 0 114422673.5610271 0 0 107395347.8344778 0 0 106074878.5126057 0 0 108652551.8697605 0 0 109833789.7616138 0 0 110928491.4511385 0 0 111924572.3660397 0 0 112811868.7011891 0 0 113581750.0436423 0 0 114227198.2886726 0 0 114742954.8908406 0 0 115125917.3675483 0 0 115376626.9198035 0 0 115495691.4971728 0 0 115488617.1881144 0 0 115354972.4362699 0 0 115103899.6070023 0 0 114742037.8749326 0 0 114281827.5987272 0 0 105355292.9802314 0 0 104159245.2143425 0 0 103572166.8458316 0 0 100025492.2101789 0 0 102593839.7884555 0 0 102048571.7505389 0 0 101053889.5049248 0 0 106138902.5315165 0 0 105966518.782389 0 0 106445755.9727773 0 0 106856554.9950964 0 0 105222075.0681525 0 0 105176583.3282318 0 0 107347434.9250403 0 0 107894786.4776812 0 0 108466326.7507624 0 0 109024885.6569759 0 0 109557738.4597022 0 0 110071463.5392732 0 0 110557782.0763719 0 0 110991216.6991607 0 0 111372480.4988353 0 0 111690630.2290403 0 0 111948942.1900337 0 0 112158581.1294483 0 0 112923726.1752366 0 0 113128082.2906901 0 0 113135073.3750623 0 0 113763559.2761034 0 0 113731524.2875613 0 0 107994809.9736305 0 0 106701538.254976 0 0 109221365.4198099 0 0 110370192.519586 0 0 111429708.545334 0 0 112387422.4047962 0 0 113233936.0097447 0 0 113960693.3359377 0 0 114561728.5578811 0 0 115032843.0506228 0 0 115371603.2300575 0 0 115577289.1332953 0 0 115653083.0571232 0 0 115597597.992969 0 0 115421729.1655657 0 0 115129683.0449393 0 0 114735632.371846 0 0 114241895.2829217 0 0 105478605.1245433 0 0 104804809.8244479 0 0 103715333.7110087 0 0 100484435.6807849 0 0 103271194.3968576 0 0 102120525.2224014 0 0 101333043.606349 0 0 105586948.8506448 0 0 105375895.5277486 0 0 105939398.5764378 0 0 106393809.4764419 0 0 104968915.8906227 0 0 104680962.1635648 0 0 106921205.1358393 0 0 107498525.6483368 0 0 108094461.936879 0 0 108690630.19896 0 0 109247661.0218137 0 0 109781055.4034894 0 0 110288385.8672679 0 0 110745868.8382996 0 0 111149395.1603362 0 0 111484206.6716125 0 0 111763249.5949517 0 0 111991598.9047301 0 0 112294429.0394338 0 0 112998692.3900482 0 0 113029980.4200993 0 0 113101000.5454038 0 0 113659223.1841338 0 0 107954647.6339412 0 0 106744092.9609901 0 0 109096648.0270837 0 0 110164299.9667701 0 0 111144298.8500184 0 0 112025822.483863 0 0 112801374.2434394 0 0 113463809.3156122 0 0 114007888.6926962 0 0 114429390.4572699 0 0 114726658.0013408 0 0 114901090.6029711 0 0 114951308.4222103 0 0 114887726.7490709 0 0 114709766.6295856 0 0 114426660.103222 0 0 114042115.578991 0 0 113569706.0174669 0 0 106083131.3424694 0 0 104946665.3959782 0 0 104316009.6770948 0 0 101089554.1972189 0 0 103255086.3829152 0 0 102230825.5509107 0 0 105364639.9727722 0 0 105142981.7793854 0 0 105701349.027364 0 0 106131144.5260322 0 0 104438079.7494673 0 0 104237225.4173176 0 0 106630959.610941 0 0 107176688.007625 0 0 107726889.6696461 0 0 108264245.8350369 0 0 108798703.8044679 0 0 109318971.5787355 0 0 109792430.8670039 0 0 110224136.1429199 0 0 110607907.0974964 0 0 110924360.2961662 0 0 111185143.808754 0 0 111427976.0137235 0 0 112154635.0305388 0 0 112358189.7439769 0 0 112399752.8618892 0 0 113007351.3581236 0 0 113015498.9057848 0 0 108499751.361672 0 0 107320734.7244018 0 0 109612967.8095423 0 0 110647817.9021524 0 0 111591886.0245375 0 0 112435917.9471648 0 0 113171367.7973285 0 0 113792384.2569084 0 0 114294081.1218717 0 0 114673102.3629462 0 0 114928480.6134933 0 0 115060173.0651362 0 0 115074129.8896701 0 0 114969093.0640924 0 0 114752014.8432882 0 0 114430736.0352363 0 0 114016115.2030456 0 0 113517119.5975116 0 0 106150364.186689 0 0 105526512.6659097 0 0 104480994.0147649 0 0 101509110.9287641 0 0 103851183.2724121 0 0 102492598.3502614 0 0 104591630.9835002 0 0 104867540.8580594 0 0 105268932.3859228 0 0 105734645.0103628 0 0 104399612.2121826 0 0 103993822.6327578 0 0 106261521.5328856 0 0 106832073.9644027 0 0 107399957.6944716 0 0 107967802.2484764 0 0 108519722.6362345 0 0 109054742.0893833 0 0 109547498.5128647 0 0 110001457.796431 0 0 110397815.4373849 0 0 110730505.1237068 0 0 110988908.244326 0 0 111281339.890632 0 0 111570001.4729593 0 0 112236272.4128528 0 0 112279078.1982463 0 0 112397189.8921808 0 0 112933568.6141267 0 0 108405563.4582402 0 0 107308011.5740136 0 0 109445058.372838 0 0 110405867.8328958 0 0 111278317.9884342 0 0 112055118.8844826 0 0 112728886.926491 0 0 113294428.1541803 0 0 113747419.9808946 0 0 114085369.9644845 0 0 114307486.3178914 0 0 114416068.2394737 0 0 114410159.1308267 0 0 114296589.420989 0 0 114080737.2408555 0 0 113771939.8997111 0 0 113375051.1339355 0 0 112900595.2883787 0 0 106700189.3524374 0 0 105614283.6043912 0 0 105018578.3557905 0 0 102060940.4085205 0 0 103076082.9076153 0 0 104051642.5082306 0 0 104471710.245606 0 0 104704978.8404305 0 0 105061310.2927268 0 0 105504050.810534 0 0 103565681.9483417 0 0 103820221.4654455 0 0 103561911.2887424 0 0 106004950.0416163 0 0 106520720.8992812 0 0 107062535.3922489 0 0 107592565.6361281 0 0 108127819.661806 0 0 108632665.1103216 0 0 109095449.7100004 0 0 109522269.2447786 0 0 109907482.7470403 0 0 110219640.5235342 0 0 110445670.6192641 0 0 110764758.5403151 0 0 111492940.7029628 0 0 111603872.9679546 0 0 111721745.8203091 0 0 112286579.0437363 0 0 112345827.4114878 0 0 108903842.19611 0 0 107829789.7329658 0 0 109912354.4935951 0 0 110839892.1985676 0 0 111677065.5398514 0 0 112416826.2697316 0 0 113052029.7419741 0 0 113577865.6889244 0 0 113990576.614866 0 0 114288414.380295 0 0 114471138.4727877 0 0 114539494.4585296 0 0 114498019.5329785 0 0 114350363.7686577 0 0 114100962.5518431 0 0 113758115.3970564 0 0 113332860.1718453 0 0 112843739.4065956 0 0 106717607.0789197 0 0 106138841.8616297 0 0 105126302.279137 0 0 102425493.4818882 0 0 103540467.2027946 0 0 104634706.5324902 0 0 104022939.6429031 0 0 104322845.8223045 0 0 104702062.5571468 0 0 105164506.4091535 0 0 103643740.1626095 0 0 103807181.5029764 0 0 103185300.4443613 0 0 105685519.2436437 0 0 106223872.7846449 0 0 106776281.9208135 0 0 107324649.6037348 0 0 107875979.2538637 0 0 108394011.3586795 0 0 108884390.631163 0 0 109304955.8594736 0 0 109691933.2756833 0 0 110084257.4444694 0 0 110246242.3221614 0 0 110576019.9136425 0 0 110859159.0171026 0 0 111451797.6296534 0 0 111559638.0342349 0 0 111730139.6890757 0 0 112247722.7037977 0 0 108768834.3721529 0 0 107760147.480764 0 0 109709138.6765941 0 0 110569303.7976426 0 0 111343205.8830931 0 0 112023740.6069068 0 0 112605171.6563077 0 0 113083117.1783095 0 0 113454685.1187121 0 0 113718550.8516955 0 0 113874814.1612361 0 0 113924784.7283107 0 0 113872183.2913481 0 0 113719401.5313879 0 0 113473664.2124574 0 0 113142441.1299295 0 0 112737069.4427669 0 0 112264482.0322999 0 0 107208634.6471422 0 0 106156258.770885 0 0 105656679.930646 0 0 102917894.7997002 0 0 103863140.3543477 0 0 104771596.0491183 0 0 103879866.6748883 0 0 104161444.1385768 0 0 104523036.8489101 0 0 104963468.84786 0 0 103127937.9425579 0 0 103363062.0618505 0 0 102985183.3852536 0 0 105439699.0675163 0 0 105943735.2662667 0 0 106466980.3388072 0 0 106998134.5896914 0 0 107519810.0802415 0 0 108012797.7361572 0 0 108464594.3334016 0 0 108857999.6742841 0 0 109236768.2999755 0 0 109386043.9081694 0 0 110041309.5488558 0 0 110379549.1752888 0 0 110896578.2269537 0 0 110941785.5741796 0 0 111060622.9913786 0 0 111655795.8683881 0 0 111701953.6182323 0 0 109222720.3387163 0 0 108241269.0485487 0 0 110130160.7273278 0 0 110957601.998517 0 0 111696931.7687296 0 0 112341528.9482843 0 0 112885884.8322189 0 0 113326155.609947 0 0 113659876.2375142 0 0 113886052.3976666 0 0 114005152.9476371 0 0 114019704.7750708 0 0 113932860.5465329 0 0 113749525.0399266 0 0 113473497.0240702 0 0 113111876.643307 0 0 112677438.7758101 0 0 112198161.0024152 0 0 107155107.9463055 0 0 106635299.1898019 0 0 105694384.8298188 0 0 103307652.7198991 0 0 104287975.3374411 0 0 105266822.6194379 0 0 103540088.4660972 0 0 103823349.5108137 0 0 104208409.6536035 0 0 104670819.0608366 0 0 103178395.4954023 0 0 103149911.1663799 0 0 102736834.5545693 0 0 105160219.6912656 0 0 105678424.1948791 0 0 106216542.7177619 0 0 106759833.6818537 0 0 107285696.805459 0 0 107843100.6627132 0 0 108266555.2308553 0 0 108648411.6459509 0 0 109077033.5439534 0 0 109440459.9840114 0 0 109159597.2715355 0 0 109728472.0063284 0 0 110076706.2072941 0 0 110788138.1238555 0 0 110978282.8874161 0 0 110981621.8897915 0 0 111529081.1228956 0 0 108135857.8496277 0 0 109054666.502637 0 0 109897187.9133049 0 0 110665287.139054 0 0 111348548.8844481 0 0 111941272.4741036 0 0 112438902.0469094 0 0 112838248.2175926 0 0 113137252.512258 0 0 113335359.5336121 0 0 113433532.1046412 0 0 113434100.7191122 0 0 113340001.7721289 0 0 113157094.4098324 0 0 112885684.5557273 0 0 112535929.8098044 0 0 112156275.2801933 0 0 111728362.6218678 0 0 107624243.1897089 0 0 106589168.9726633 0 0 106173381.6091274 0 0 103706840.5437337 0 0 104554890.0379186 0 0 105269948.8777296 0 0 103397144.3589149 0 0 103680561.3205596 0 0 104052063.5362382 0 0 104473672.9968061 0 0 102634384.2325172 0 0 102877405.8076695 0 0 102433501.5979724 0 0 104938735.2371206 0 0 105428306.9436841 0 0 105949733.7406574 0 0 106460837.765966 0 0 106978979.1554614 0 0 107561662.1866478 0 0 107882965.9492733 0 0 108262750.4090939 0 0 108824738.2820863 0 0 108482898.8273033 0 0 109167836.3505892 0 0 109657089.1796107 0 0 110074417.1735865 0 0 110440218.7443242 0 0 110436288.8338989 0 0 111026374.2041558 0 0 111352898.137317 0 0 108578453.458373 0 0 109462933.3506844 0 0 110276332.0065878 0 0 111011667.200519 0 0 111661246.1219184 0 0 112219297.1051042 0 0 112681612.7512477 0 0 113045286.3327117 0 0 113308711.28615 0 0 113471694.8189066 0 0 113535961.5511331 0 0 113504126.997513 0 0 113380052.8304036 0 0 113169871.6248708 0 0 112877073.4165272 0 0 112509037.5122781 0 0 112104956.5971838 0 0 111618008.575514 0 0 107544073.1243044 0 0 107064105.2271491 0 0 106043303.6499881 0 0 104071850.1384137 0 0 104829302.5517603 0 0 105519416.5000814 0 0 103063986.4291724 0 0 103379373.7737813 0 0 103778461.0776954 0 0 104221894.443814 0 0 102645236.720964 0 0 102778052.6949325 0 0 102257309.7473158 0 0 104696623.3262964 0 0 105194448.5635079 0 0 105731540.0937562 0 0 106265681.6391024 0 0 106772554.4576682 0 0 107365407.6503706 0 0 107790731.8321386 0 0 108080355.8709981 0 0 108513881.4312944 0 0 108297292.8006453 0 0 108853636.8016329 0 0 109340290.2135622 0 0 109815897.1445309 0 0 110279860.3467827 0 0 110456131.2510611 0 0 110670959.6048588 0 0 110257455.1402458 0 0 111014566.2330624 0 0 108444457.0621506 0 0 109261882.97396 0 0 110021768.1595896 0 0 110703744.0864474 0 0 111303676.6103729 0 0 111816299.3934206 0 0 112237968.7485459 0 0 112566582.7430108 0 0 112800841.4366513 0 0 112941133.4894006 0 0 112989250.3775226 0 0 112947464.5294447 0 0 112819618.2382602 0 0 112615699.7424771 0 0 112325580.537878 0 0 111961614.8770466 0 0 111585113.2493635 0 0 111328423.8744308 0 0 107964407.4773618 0 0 106989662.7929359 0 0 106354799.4098026 0 0 104460448.667898 0 0 105446644.8092979 0 0 102967641.9860808 0 0 103264576.5388671 0 0 103634398.1804557 0 0 104050281.4774703 0 0 102328221.8788365 0 0 102365367.4866259 0 0 102477280.671629 0 0 102060135.39169 0 0 104495800.7240266 0 0 104974610.6692747 0 0 105493170.1459324 0 0 105903685.8853379 0 0 106829728.5077449 0 0 106852195.1681898 0 0 107164324.4142003 0 0 107971391.5279437 0 0 107708355.2164192 0 0 108299035.1304713 0 0 108829288.5074402 0 0 109295032.4405978 0 0 109744215.9081803 0 0 110058115.4874313 0 0 109769709.6911378 0 0 110709801.6705063 0 0 110122326.8943494 0 0 110856978.2676609 0 0 108831337.0743178 0 0 109631440.0790112 0 0 110360935.6982794 0 0 111011404.9639121 0 0 111578515.7106463 0 0 112057971.9046571 0 0 112446412.7184985 0 0 112741566.3475197 0 0 112942872.7749053 0 0 113050707.6106579 0 0 113067795.0689771 0 0 112996425.8359854 0 0 112840064.6566552 0 0 112604876.2302562 0 0 112278066.1550325 0 0 111956348.4611942 0 0 111643788.6283001 0 0 111037140.0424069 0 0 107864454.3852906 0 0 107371682.6234364 0 0 106265055.3810913 0 0 104790804.0717198 0 0 105776663.9267525 0 0 102687320.4457467 0 0 103014775.209698 0 0 103402894.27845 0 0 103827629.9705403 0 0 102262255.2120462 0 0 102121057.681412 0 0 102419032.4578352 0 0 101875401.7763898 0 0 104292921.4177844 0 0 104764484.1348835 0 0 105350918.1629791 0 0 105825089.8810946 0 0 105900122.9383304 0 0 106854225.7736546 0 0 107202196.0445562 0 0 107073481.2300535 0 0 107709879.1021292 0 0 108032624.2476953 0 0 107481234.4692554 0 0 108546398.7993078 0 0 109012851.1770083 0 0 109418912.6884037 0 0 110344638.5443669 0 0 110551600.8251462 0 0 108654227.3918414 0 0 109411797.9069181 0 0 110089455.1974907 0 0 110692734.2066716 0 0 111215947.1274747 0 0 111655799.2203053 0 0 112009073.3956206 0 0 112274332.1808413 0 0 112451179.7315137 0 0 112540731.6392774 0 0 112545791.8121365 0 0 112467249.9435216 0 0 112310036.7469206 0 0 112103188.7037772 0 0 111813969.300781 0 0 111388139.8134691 0 0 110979483.7557307 0 0 108259305.8520315 0 0 106958227.4397868 0 0 107378737.5821653 0 0 105878808.2576321 0 0 105020828.1884903 0 0 102607516.1259022 0 0 102910793.424542 0 0 103276763.3273899 0 0 103670846.8876764 0 0 102024606.0603199 0 0 101947614.7660484 0 0 102145919.2516952 0 0 101698514.4472534 0 0 104122961.1207656 0 0 104602359.9106848 0 0 105108867.5921127 0 0 105352541.5076901 0 0 105979558.7044145 0 0 106587504.52918 0 0 106389914.8021283 0 0 107107071.2865513 0 0 106889391.5801678 0 0 109029423.1679435 0 0 109745938.4137181 0 0 110392566.0006617 0 0 110964492.6720421 0 0 111456316.5475667 0 0 111864537.0484917 0 0 112186813.9504147 0 0 112421116.8077738 0 0 112567438.0449117 0 0 112627682.0919852 0 0 112604418.4008865 0 0 112500235.5304127 0 0 112312302.6529586 0 0 112080782.1865245 0 0 111667533.1629415 0 0 111345873.5487887 0 0 110690247.697057 0 0 108098555.7991316 0 0 106939774.5020015 0 0 107753145.129506 0 0 106227959.8966895 0 0 105387860.9003319 0 0 102382438.0924449 0 0 102699925.281844 0 0 103061711.0922926 0 0 103498130.4611206 0 0 101932891.2160316 0 0 101739364.5836557 0 0 102068116.3941694 0 0 101549231.2974533 0 0 103975936.9528984 0 0 104451486.6494521 0 0 105008432.3741884 0 0 105199768.5995353 0 0 105825588.1514403 0 0 106428930.8835494 0 0 106274957.3477763 0 0 108843182.7063484 0 0 109507181.5858974 0 0 110109466.5264997 0 0 110638940.8103377 0 0 111092177.7106924 0 0 111465922.1532639 0 0 111757814.6062577 0 0 111966125.1054725 0 0 112092434.7556698 0 0 112137819.4633022 0 0 112106571.4786879 0 0 112002227.7421361 0 0 111844949.8133516 0 0 111642678.3691294 0 0 111568824.1330227 0 0 110979505.578571 0 0 111120381.5282975 0 0 108459998.9677965 0 0 107017878.923824 0 0 107587811.0973359 0 0 105587442.4836759 0 0 106219238.2019138 0 0 102311556.388139 0 0 102615800.04184 0 0 102968899.7411675 0 0 103386904.2779294 0 0 101729732.1323916 0 0 101579112.8128883 0 0 101853802.5055698 0 0 101386941.3114108 0 0 103774211.3059342 0 0 104492668.7193108 0 0 104426074.3339258 0 0 105178432.8252519 0 0 105836880.9098429 0 0 105637023.8548028 0 0 109163648.0387944 0 0 109802974.9750922 0 0 110376861.0847461 0 0 110877316.3482578 0 0 111300684.1645223 0 0 111644621.2832079 0 0 111907544.8524142 0 0 112087878.4755012 0 0 112186649.0827941 0 0 112205340.7509998 0 0 112144743.0159849 0 0 112037643.91293 0 0 111859304.3486115 0 0 111666800.1213177 0 0 111162687.3611171 0 0 110780601.9799921 0 0 111144270.4913356 0 0 108308828.2156798 0 0 106998079.6459171 0 0 107912427.6536638 0 0 105901957.0125046 0 0 106631866.8994698 0 0 102132749.3312428 0 0 102403738.7875053 0 0 102798146.3751007 0 0 103249823.9515293 0 0 101614869.2169387 0 0 101435038.7316177 0 0 101832674.583023 0 0 101239875.7071121 0 0 103781302.746253 0 0 103742473.7089007 0 0 104511344.05515 0 0 105002767.8715399 0 0 104356010.0733867 0 0 108951090.6359476 0 0 109551524.8991223 0 0 110085294.1604172 0 0 110548146.891413 0 0 110937555.4377736 0 0 111251789.471288 0 0 111488768.6963002 0 0 111646853.271305 0 0 111730248.1619323 0 0 111737040.3580641 0 0 111675211.7089373 0 0 111589898.6552675 0 0 111376716.9418861 0 0 111169439.3911857 0 0 110805636.0081357 0 0 108604040.2593074 0 0 107192149.0228169 0 0 106754008.0581201 0 0 107767399.8138354 0 0 106054905.4725447 0 0 102091498.4534897 0 0 102320815.8980382 0 0 102790243.7552269 0 0 103251910.7317546 0 0 101388587.1612174 0 0 101305365.7676102 0 0 101644289.3867438 0 0 101088576.0723867 0 0 103168841.1683602 0 0 103824578.3425792 0 0 103731278.263859 0 0 109239856.041955 0 0 109814897.6425988 0 0 110321239.9461184 0 0 110756031.7658675 0 0 111117200.463191 0 0 111403462.2682073 0 0 111613420.0123415 0 0 111747791.5596502 0 0 111808753.4849048 0 0 111790042.7652287 0 0 111720897.3385985 0 0 111563755.3910223 0 0 111280392.8957611 0 0 110814971.1137106 0 0 108414648.6954988 0 0 107529756.6671194 0 0 106792982.2655877 0 0 108070098.7766646 0 0 106351097.7637356 0 0 101974348.6384543 0 0 102192190.0183382 0 0 102632156.0355887 0 0 101307878.9774387 0 0 101203561.9266639 0 0 101732986.9487854 0 0 100954488.1696887 0 0 103244968.6174422 0 0 103140109.7932952 0 0 109019682.3427063 0 0 109554712.6592434 0 0 110024405.2606917 0 0 110425791.7282402 0 0 110757334.5761704 0 0 111018171.2170059 0 0 111205052.1584033 0 0 111320956.7744504 0 0 111374611.3169517 0 0 111314734.7853311 0 0 111190151.3956501 0 0 111225460.2386547 0 0 111035864.3219705 0 0 108710087.8981849 0 0 107334604.527834 0 0 106527183.7777063 0 0 107942523.3001596 0 0 101669435.3544038 0 0 102250510.4080629 0 0 102702151.7282755 0 0 101221831.3353885 0 0 100969846.1522143 0 0 101285250.4693203 0 0 100895979.909127 0 0 102589284.5650092 0 0 109280753.2587772 0 0 109788815.5600484 0 0 110231553.7883568 0 0 110606025.6281894 0 0 110910296.8573221 0 0 111141727.1142644 0 0 111291398.4944356 0 0 111374781.6183351 0 0 111383431.6590558 0 0 111259490.8326861 0 0 111271199.5273935 0 0 111044048.3323963 0 0 110768384.7354318 0 0 108523457.4461004 0 0 107562502.8282091 0 0 106748890.554483 0 0 108199015.7179753 0 0 101747483.0605827 0 0 101642142.1658283 0 0 102086162.0750299 0 0 101240248.3192669 0 0 101035365.1997048 0 0 101340212.8903344 0 0 100726733.8812471 0 0 109049847.9098101 0 0 109521409.4129958 0 0 109931785.7812815 0 0 110276948.7269069 0 0 110556492.574896 0 0 110769050.1625907 0 0 110898960.1735778 0 0 111031634.2234876 0 0 111038212.8596456 0 0 111009442.4649816 0 0 110985299.5485809 0 0 110911905.4603268 0 0 108766590.3577311 0 0 107441396.7089771 0 0 106812486.1010734 0 0 108036044.021946 0 0 101283447.3875397 0 0 100815405.7115543 0 0 101007908.768086 0 0 109277969.9955671 0 0 109728313.4662435 0 0 110113261.5215651 0 0 110434665.6704767 0 0 110690528.6590942 0 0 110885456.7489361 0 0 111002009.9894104 0 0 111022838.9084734 0 0 110941781.722185 0 0 110766067.4177608 0 0 110788458.9262494 0 0 110670766.0677099 0 0 108572810.1684302 0 0 107714667.9100508 0 0 107061147.0689496 0 0 108294333.3052198 0 0 109047790.0077708 0 0 109456831.4794317 0 0 109812186.794441 0 0 110109367.0141634 0 0 110343198.5513929 0 0 110506233.4737029 0 0 110565570.818416 0 0 110783613.9167386 0 0 110732355.0430577 0 0 110639220.9748491 0 0 110533647.3723732 0 0 108803735.447846 0 0 107074092.0383949 0 0 107644953.6713087 0 0 108144864.2080428 0 0 109246457.0433468 0 0 109638831.4496787 0 0 109973491.4916798 0 0 110244763.7360856 0 0 110451205.7898799 0 0 110573731.4233364 0 0 110670653.325059 0 0 110618581.5553182 0 0 110543527.619822 0 0 110376549.3806175 0 0 108613351.9864522 0 0 107332337.1737506 0 0 107890426.8980409 0 0 108389260.4057406 0 0 109020081.9619421 0 0 109367007.4122978 0 0 109676025.6657276 0 0 109924545.7355974 0 0 110112626.7140604 0 0 110252583.8244863 0 0 110422449.9054815 0 0 110508074.0389773 0 0 110416620.0503924 0 0 108815861.2189329 0 0 107302116.3901794 0 0 107817623.2889794 0 0 108222354.6578547 0 0 109176671.2393926 0 0 109527892.3081849 0 0 109816006.702183 0 0 110047786.0725109 0 0 110231553.7721777 0 0 110292943.5639936 0 0 110250361.3907021 0 0 110313321.0822659 0 0 110182133.1998956 0 0 108582145.538109 0 0 107538117.1528515 0 0 108044746.6881879 0 0 108445866.0872072 0 0 108919329.7451068 0 0 109254449.7579909 0 0 109519657.3141478 0 0 109723287.3009736 0 0 109843731.8272884 0 0 109898433.3327494 0 0 110209303.8182367 0 0 108451962.037268 0 0 107487715.9063624 0 0 107951863.9809428 0 0 109056701.7334886 0 0 109390712.3868338 0 0 109630464.2656697 0 0 109812082.9950482 0 0 109913657.3985913 0 0 109992745.5260629 0 0 109961267.548538 0 0 108562797.0634484 0 0 107710031.7569315 0 0 108167934.2393822 0 0 108829518.1780661 0 0 108540649.2616609 0 0 109120479.0254151 0 0 109354723.7182326 0 0 109495272.6603886 0 0 109548889.1110608 0 0 109714415.2977476 0 0 108047234.1639362 0 0 107632317.4630777 0 0 108979288.8687334 0 0 108654045.7543404 0 0 109225655.6049174 0 0 109402825.5104523 0 0 109488976.739209 0 0 109437785.729836 0 0 108209552.3984995 0 0 107833616.0445116 0 0 108716305.5793155 0 0 108478529.6382796 0 0 108212718.3688398 0 0 108975158.8242794 0 0 109172422.7245437 0 0 109283069.0011662 0 0 107706653.0368318 0 0 108844766.2423696 0 0 108630417.4542791 0 0 108235615.9566814 0 0 109040694.495078 0 0 109137214.7997739 0 0 109152216.4955555 0 0 107898130.7758384 0 0 108408632.256174 0 0 108590586.9217048 0 0 108123540.8957659 0 0 108857369.244854 0 0 108984543.4757277 0 0 107730534.4462767 0 0 108446936.2996965 0 0 108686786.2086676 0 0 108090086.8294855 0 0 108769636.663469 0 0 108857554.877406 0 0 107909665.6701299 0 0 108339565.5891415 0 0 108272246.0751839 0 0 108432586.7587683 0 0 107794367.7506523 0 0 108693250.8165985 0 0 108153287.1740857 0 0 108408968.7202453 0 0 107930529.852155 0 0 108547768.4486374 0 0 108184880.8523598 0 0 108226701.0600037 0 0 107789471.4161174 0 0 107983427.8571843 0 0 107885277.2772078 0 0 107899488.7309273 0 0 </DataArray>
      </CellData>
      <PointData>
        <DataArray type="Int64" IdType="1" Name="vtkOriginalPointIds" format="ascii" RangeMin="0" RangeMax="1811">154 0 1771 5 214 1214 153 6 1102 1213 209 7 152 1731 1211 8 185 1098 975 1212 181 151 1757 9 1591 1766 766 749 1050 1263 1714 150 1166 10 1768 1065 673 1173 672 1421 1783 1047 11 149 1071 999 1088 171 165 1806 757 571 1415 1191 668 681 1027 12 148 1131 659 1722 1320 13 1101 1700 756 565 514 1414 570 669 682 1077 1389 203 147 1129 625 1761 14 188 1797 984 1130 513 1538 464 480 504 1018 1310 914 1070 1394 1704 15 146 983 1464 160 16 1112 1128 755 1484 418 1323 1565 441 481 509 1577 913 689 1371 1082 1730 145 1079 692 1161 1794 17 155 219 1526 560 763 414 413 454 776 1500 1003 1160 1163 676 675 951 1066 204 1275 144 221 629 1388 18 217 218 220 223 225 916 394 1522 412 703 1007 1198 1193 773 1278 615 670 952 1274 1441 1133 143 222 1509 1672 19 1799 189 1109 500 1668 224 226 1669 391 393 634 1448 1524 1561 636 696 765 614 546 1427 1276 1039 1737 1068 1038 20 21 168 142 1458 229 988 1456 22 1111 1699 1132 1695 992 227 228 1417 390 389 423 635 1301 786 1332 695 764 769 543 544 582 1418 702 1248 974 1791 207 23 25 26 1696 176 24 1472 141 1457 230 1134 1726 1759 1764 27 28 190 166 1069 904 1692 940 941 1471 231 233 388 1331 387 1468 705 392 521 540 1277 1533 1292 542 545 583 600 683 1393 1067 1150 1245 1254 1749 29 30 216 140 1798 1010 232 1293 1042 1255 1253 1244 1777 1 1118 1756 1242 881 859 857 858 1009 1550 1557 234 385 1322 1251 386 1250 1252 520 539 541 986 611 534 1465 586 587 601 684 743 1149 1697 1205 704 1702 31 139 1505 235 237 744 778 680 1202 1201 1116 985 962 882 860 841 840 1513 1442 994 1425 236 384 383 1365 889 1487 890 1335 1469 709 900 700 610 243 1537 708 1470 685 686 1151 1204 1773 630 211 32 138 853 1568 238 1493 777 574 1203 1200 186 1043 963 884 883 1529 822 821 1367 839 879 987 239 376 1373 382 469 487 1566 1190 993 1022 1016 1017 701 1651 1508 1604 1608 929 771 1625 631 573 1701 1199 33 137 1753 851 1156 240 1159 1222 486 1732 1075 1103 1139 1044 1045 1519 1154 1155 1532 815 816 820 838 901 1138 241 375 365 642 445 470 488 1579 1189 1031 1221 1586 1273 1653 1424 537 1272 1631 1021 459 1688 572 1074 34 184 136 1478 475 242 1620 458 484 1788 1073 215 1104 1140 1246 1763 824 1188 1562 811 812 817 825 850 1543 1157 244 364 1370 324 1368 1511 612 613 1572 1656 1652 345 1303 1271 953 1423 1639 378 1614 442 1479 1684 1054 35 1284 135 1141 856 1192 245 401 457 485 1072 1770 1781 1685 1136 837 823 818 813 808 809 1536 1489 852 854 1544 1636 246 321 1299 1558 323 329 711 706 707 334 894 896 344 354 366 927 1144 1385 377 440 1053 1346 1052 36 4 1262 1747 1488 1547 247 399 1680 1682 1712 1746 134 210 1808 1095 835 819 1336 814 807 805 1329 1582 923 855 880 1183 1184 248 320 319 1279 1280 325 332 1580 892 893 340 895 897 350 362 374 1143 536 250 1679 1041 1040 174 1051 37 133 1135 1142 262 249 400 1220 1325 1800 132 1175 1094 877 836 848 1525 1396 804 803 1300 1594 1451 885 995 368 266 256 318 1507 317 781 1587 548 1665 1261 1152 1482 361 1146 1549 1670 1673 1145 252 251 1219 967 736 38 1283 1265 182 1182 263 1503 1675 768 734 131 878 1096 870 869 849 1606 1209 802 801 826 1602 1187 1186 1623 270 267 538 316 907 1662 315 1288 518 1185 1667 1260 395 1289 1270 517 1576 1033 254 253 915 1218 966 735 39 194 130 1809 280 1616 1601 958 733 1097 627 1474 1137 1769 887 1611 1206 1207 810 800 799 1362 1599 1605 289 282 271 1624 1309 314 1447 1257 1177 304 302 300 1005 961 298 296 294 770 292 257 255 1516 1411 1330 973 1514 40 1282 129 281 1298 1006 661 597 1706 626 1196 1728 172 128 1194 998 1000 1208 1210 798 797 1285 886 1290 287 283 369 1637 780 313 331 1258 1256 1176 303 301 299 1004 662 297 295 293 261 258 259 647 1341 595 1556 910 41 164 1540 1297 779 594 596 1736 909 1195 1197 1691 127 866 865 1461 1486 1439 796 794 792 790 306 288 1521 1548 1644 652 322 1658 1181 1343 699 1180 1646 1643 398 1467 1634 1632 535 1498 260 264 1490 1008 551 1046 911 42 1296 1012 653 633 550 1515 1776 1552 1443 1328 206 126 864 862 861 1312 806 795 793 791 789 307 308 1302 955 1647 621 1648 1178 1002 926 698 585 1243 1268 1267 1638 1026 1311 1628 908 265 268 1387 1386 533 1087 1686 43 195 714 1337 499 531 580 1014 876 1058 1792 125 863 834 831 828 827 1485 912 1535 1438 309 310 476 945 1650 620 1030 1338 1174 1001 784 584 530 772 1266 946 947 996 1259 1483 269 272 402 404 532 1355 1356 1744 44 1395 555 950 439 529 1013 1551 888 1056 1750 124 1426 832 830 829 868 1570 1363 516 326 311 312 552 1422 1654 891 715 716 718 1179 1520 1333 528 720 722 724 948 1148 645 274 273 284 403 405 1499 45 1357 1358 161 618 957 1455 527 1531 1774 1495 1057 1113 123 842 833 1466 905 1019 1585 1264 333 330 1569 1542 619 739 1655 1546 589 588 717 719 1249 524 525 721 723 1459 1153 1364 276 275 1491 1492 424 425 568 46 158 741 1359 1718 738 1409 1342 526 632 1786 1234 1501 1224 122 843 844 1527 1020 1589 353 341 339 1564 1172 990 989 1657 1307 640 515 1384 489 1510 787 490 523 1428 1318 1462 446 278 277 644 1563 918 426 427 569 47 1360 740 205 991 1306 431 1477 666 976 1076 875 846 121 845 867 1613 1232 1233 352 346 347 1596 1171 1170 1164 1660 463 433 461 1287 1011 462 1321 1314 522 1315 1317 1440 285 279 1497 1588 1291 1480 428 429 920 48 964 1361 1775 1165 435 432 1541 1574 1733 959 871 847 1081 120 1619 1229 1228 1231 363 357 1663 1286 960 1223 650 649 1659 437 434 451 422 420 419 1450 1313 519 1316 1319 290 286 305 1600 933 732 549 430 1463 1567 49 1727 180 1738 1241 436 1593 1437 924 1375 1326 1689 872 873 119 1618 1227 411 379 367 1664 1032 783 782 1366 556 507 448 447 438 450 467 421 397 371 360 351 348 327 291 1539 1607 934 928 731 726 785 1168 725 50 925 1374 169 466 1640 1635 566 742 1767 968 1710 874 1626 118 1230 1226 410 380 381 1666 956 660 590 557 508 506 465 547 1345 1506 468 1419 396 370 359 349 335 328 1410 1340 1603 1609 1612 1621 942 1167 944 674 51 1810 1376 1377 1240 505 1642 1344 567 752 969 1083 970 1641 117 512 443 417 1671 1216 1215 1327 591 559 558 1453 602 1512 1645 949 1598 648 1597 1590 616 1554 1502 336 337 1339 1334 637 932 1392 1633 1169 654 655 1380 52 1378 156 208 603 1372 657 651 1379 971 1238 1147 1622 116 477 444 1674 1217 767 727 593 592 1504 1553 898 697 943 1649 694 1029 1610 1025 1444 1573 1434 1435 338 342 471 473 491 1391 617 1627 606 607 656 1693 53 1683 1381 1239 1785 737 751 693 1617 1719 1237 1236 577 553 115 478 479 1676 1324 728 623 622 624 1023 1575 972 1715 1630 954 750 712 1369 906 1305 1308 713 355 343 358 472 474 492 496 498 503 605 1481 902 938 54 197 1398 177 1742 1784 939 1724 935 1739 1086 1235 576 554 114 1678 1162 1034 730 729 1517 748 758 1024 1790 1350 1352 1354 1629 1105 638 639 1304 788 1433 372 356 1460 641 1475 493 494 497 502 604 687 1518 1725 936 55 1397 1780 1085 1705 1349 1106 1107 667 997 762 658 578 581 113 1681 1035 754 753 965 1741 1080 1496 1729 159 1351 1353 179 1740 1793 157 609 562 483 455 406 373 1429 1534 1560 917 495 1452 564 1476 688 977 1117 1796 937 56 1399 1811 1048 1530 1348 89 1158 1584 1760 759 663 1555 1687 112 1037 1036 1523 1055 1295 1807 1347 94 93 92 91 90 88 87 608 561 482 449 407 408 903 1413 1581 1015 1247 1592 1595 1028 980 1084 196 1716 1403 57 163 1782 1225 191 1754 192 95 86 1431 760 761 1063 1690 111 1093 1108 1765 1281 167 1294 96 1571 563 1545 1449 409 415 1412 710 1578 1583 930 931 1615 1110 1803 1734 85 1126 1402 58 1743 1061 1709 97 1401 1125 1752 1060 1062 1064 1755 110 1805 193 99 98 1420 1559 1383 1430 416 452 598 646 665 746 922 1049 1721 162 84 1804 1124 59 200 1092 1078 1711 1707 100 83 1123 1789 1269 1703 175 109 101 1390 919 1382 456 453 501 599 664 745 921 1446 1772 1400 82 1127 1122 60 212 187 1779 102 775 104 103 1723 3 678 643 510 460 1445 1494 671 1454 1059 1119 198 81 173 61 1120 105 107 108 106 1720 774 677 628 511 575 1416 1528 1677 1801 1735 170 80 1713 62 1121 79 1748 899 1436 579 679 979 1090 1405 1404 78 63 1717 1408 1762 1787 1473 691 690 978 1089 1115 199 77 64 183 1407 981 747 1432 1114 178 76 1661 65 1406 75 982 1758 1091 1745 1694 74 202 66 1099 1100 1802 201 73 67 1751 1795 1698 1708 72 68 213 71 69 1778 70 2 </DataArray>
        <DataArray type="UInt8" Name="vtkGhostType" format="ascii" RangeMin="0" RangeMax="0">0 0 0 0 0 0 0 0 0 0 0 0 0 0 0 0 0 0 0 0 0 0 0 0 0 0 0 0 0 0 0 0 0 0 0 0 0 0 0 0 0 0 0 0 0 0 0 0 0 0 0 0 0 0 0 0 0 0 0 0 0 0 0 0 0 0 0 0 0 0 0 0 0 0 0 0 0 0 0 0 0 0 0 0 0 0 0 0 0 0 0 0 0 0 0 0 0 0 0 0 0 0 0 0 0 0 0 0 0 0 0 0 0 0 0 0 0 0 0 0 0 0 0 0 0 0 0 0 0 0 0 0 0 0 0 0 0 0 0 0 0 0 0 0 0 0 0 0 0 0 0 0 0 0 0 0 0 0 0 0 0 0 0 0 0 0 0 0 0 0 0 0 0 0 0 0 0 0 0 0 0 0 0 0 0 0 0 0 0 0 0 0 0 0 0 0 0 0 0 0 0 0 0 0 0 0 0 0 0 0 0 0 0 0 0 0 0 0 0 0 0 0 0 0 0 0 0 0 0 0 0 0 0 0 0 0 0 0 0 0 0 0 0 0 0 0 0 0 0 0 0 0 0 0 0 0 0 0 0 0 0 0 0 0 0 0 0 0 0 0 0 0 0 0 0 0 0 0 0 0 0 0 0 0 0 0 0 0 0 0 0 0 0 0 0 0 0 0 0 0 0 0 0 0 0 0 0 0 0 0 0 0 0 0 0 0 0 0 0 0 0 0 0 0 0 0 0 0 0 0 0 0 0 0 0 0 0 0 0 0 0 0 0 0 0 0 0 0 0 0 0 0 0 0 0 0 0 0 0 0 0 0 0 0 0 0 0 0 0 0 0 0 0 0 0 0 0 0 0 0 0 0 0 0 0 0 0 0 0 0 0 0 0 0 0 0 0 0 0 0 0 0 0 0 0 0 0 0 0 0 0 0 0 0 0 0 0 0 0 0 0 0 0 0 0 0 0 0 0 0 0 0 0 0 0 0 0 0 0 0 0 0 0 0 0 0 0 0 0 0 0 0 0 0 0 0 0 0 0 0 0 0 0 0 0 0 0 0 0 0 0 0 0 0 0 0 0 0 0 0 0 0 0 0 0 0 0 0 0 0 0 0 0 0 0 0 0 0 0 0 0 0 0 0 0 0 0 0 0 0 0 0 0 0 0 0 0 0 0 0 0 0 0 0 0 0 0 0 0 0 0 0 0 0 0 0 0 0 0 0 0 0 0 0 0 0 0 0 0 0 0 0 0 0 0 0 0 0 0 0 0 0 0 0 0 0 0 0 0 0 0 0 0 0 0 0 0 0 0 0 0 0 0 0 0 0 0 0 0 0 0 0 0 0 0 0 0 0 0 0 0 0 0 0 0 0 0 0 0 0 0 0 0 0 0 0 0 0 0 0 0 0 0 0 0 0 0 0 0 0 0 0 0 0 0 0 0 0 0 0 0 0 0 0 0 0 0 0 0 0 0 0 0 0 0 0 0 0 0 0 0 0 0 0 0 0 0 0 0 0 0 0 0 0 0 0 0 0 0 0 0 0 0 0 0 0 0 0 0 0 0 0 0 0 0 0 0 0 0 0 0 0 0 0 0 0 0 0 0 0 0 0 0 0 0 0 0 0 0 0 0 0 0 0 0 0 0 0 0 0 0 0 0 0 0 0 0 0 0 0 0 0 0 0 0 0 0 0 0 0 0 0 0 0 0 0 0 0 0 0 0 0 0 0 0 0 0 0 0 0 0 0 0 0 0 0 0 0 0 0 0 0 0 0 0 0 0 0 0 0 0 0 0 0 0 0 0 0 0 0 0 0 0 0 0 0 0 0 0 0 0 0 0 0 0 0 0 0 0 0 0 0 0 0 0 0 0 0 0 0 0 0 0 0 0 0 0 0 0 0 0 0 0 0 0 0 0 0 0 0 0 0 0 0 0 0 0 0 0 0 0 0 0 0 0 0 0 0 0 0 0 0 0 0 0 0 0 0 0 0 0 0 0 0 0 0 0 0 0 0 0 0 0 0 0 0 0 0 0 0 0 0 0 0 0 0 0 0 0 0 0 0 0 0 0 0 0 0 0 0 0 0 0 0 0 0 0 0 0 0 0 0 0 0 0 0 0 0 0 0 0 0 0 0 0 0 0 0 0 0 0 0 0 0 0 0 0 0 0 0 0 0 0 0 0 0 0 0 0 0 0 0 0 0 0 0 0 0 0 0 0 0 0 0 0 0 0 0 0 0 0 0 0 0 0 0 0 0 0 0 0 0 0 0 0 0 0 0 0 0 0 0 0 0 0 0 0 0 0 0 0 0 0 0 0 0 0 0 0 0 0 0 0 0 0 0 0 0 0 0 0 0 0 0 0 0 0 0 0 0 0 0 0 0 0 0 0 0 0 0 0 0 0 0 0 0 0 0 0 0 0 0 0 0 0 0 0 0 0 0 0 0 0 0 0 0 0 0 0 0 0 0 0 0 0 0 0 0 0 0 0 0 0 0 0 0 0 0 0 0 0 0 0 0 0 0 0 0 0 0 0 0 0 0 0 0 0 0 0 0 0 0 0 0 0 0 0 0 0 0 0 0 0 0 0 0 0 0 0 0 0 0 0 0 0 0 0 0 0 0 0 0 0 0 0 0 0 0 0 0 0 0 0 0 0 0 0 0 0 0 0 0 0 0 0 0 0 0 0 0 0 0 0 0 0 0 0 0 0 0 0 0 0 0 0 0 0 0 0 0 0 0 0 0 0 0 0 0 0 0 0 0 0 0 0 0 0 0 0 0 0 0 0 0 0 0 0 0 0 0 0 0 0 0 0 0 0 0 0 0 0 0 0 0 0 0 0 0 0 0 0 0 0 0 0 0 0 0 0 0 0 0 0 0 0 0 0 0 0 0 0 0 0 0 0 0 0 0 0 0 0 0 0 0 0 0 0 0 0 0 0 0 0 0 0 0 0 0 0 0 0 0 0 0 0 0 0 0 0 0 0 0 0 0 0 0 0 0 0 0 0 0 0 0 0 0 0 0 0 0 0 0 0 0 0 0 0 0 0 0 0 0 0 0 0 0 0 0 0 0 0 0 0 0 0 0 0 0 0 0 0 0 0 0 0 0 0 0 0 0 0 0 0 0 0 0 0 0 0 0 0 0 0 0 0 0 0 0 0 0 0 0 0 0 0 0 0 0 0 0 0 0 0 0 0 0 0 0 0 0 0 0 0 0 0 0 0 0 0 0 0 0 0 0 0 0 0 0 0 0 0 0 0 0 0 0 0 0 0 0 0 0 0 0 0 0 0 0 0 0 0 0 0 0 0 0 0 0 0 0 0 0 0 0 0 0 0 0 0 0 0 0 0 0 0 0 0 0 0 0 0 0 0 0 0 0 0 0 0 0 0 0 0 0 0 0 0 0 0 0 0 0 0 0 0 0 0 0 0 0 0 0 0 0 0 0 0 0 0 0 0 0 0 0 0 0 0 0 0 0 0 0 0 0 0 0 0 0 0 0 0 0 0 0 0 0 0 0 0 0 0 0 0 0 0 0 0 0 0 0 0 0 0 0 0 0 0 0 0 0 0 0 0 0 0 0 0 0 0 0 0 0 0 0 0 0 0 0 0 0 0 0 0 0 0 0 0 0 0 0 0 0 0 0 0 0 0 0 0 0 0 0 0 0 0 0 0 0 0 0 0 0 0 0 0 0 0 0 0 0 0 0 0 0 0 0 0 0 0 0 0 0 0 0 0 0 0 0 0 0 0 0 0 0 0 0 0 0 0 0 0 0 0 0 0 0 0 0 0 0 0 0 0 0 0 0 0 0 0 0 0 0 0 0 0 0 0 0 0 0 0 0 0 0 0 0 0 0 0 0 0 0 0 0 0 0 0 0 0 0 0 0 0 0 0 0 0 0 0 0 0 0 0 0 0 0 0 0 0 0 0 0 0 0 0 0 0 0 0 0 0 0 0 0 0 0 0 0 0 0 0 0 0 0 0 0 0 0 0 0 0 0 0 0 0 0 0 0 0 0 0 0 0 0 0 0 0 0 0 0 0 0 0 0 0 0 0 0 0 0 0 0 0 0 0 0 0 0 0 0 0 0 </DataArray>
      </PointData>
    </Piece>
  </UnstructuredGrid>
</VTKFile>
